# el_label, x, y, sXX, sYY, sZZ, sXY
1.000000000000000000e+00 9.702937126159667969e+00 -2.983934059739112854e-02 -3.721943855285644531e+00 -2.450573921203613281e+00 -1.851755261421203613e+00 -2.550484418869018555e+00
2.000000000000000000e+00 9.504896163940429688e+00 -4.973223432898521423e-02 3.653873801231384277e-01 9.634225368499755859e-01 3.986429870128631592e-01 7.099378705024719238e-01
3.000000000000000000e+00 9.306854248046875000e+00 -6.962513178586959839e-02 -7.351993322372436523e-01 -4.270494878292083740e-01 -3.486746549606323242e-01 -1.804912835359573364e-02
4.000000000000000000e+00 9.108813285827636719e+00 -8.951802551746368408e-02 -9.600674510002136230e-01 2.358844429254531860e-01 -2.172549068927764893e-01 1.506273150444030762e-01
5.000000000000000000e+00 9.714455604553222656e+00 -8.718428760766983032e-02 1.058827781677246094e+01 -2.290619611740112305e+00 2.489297389984130859e+00 1.734147429466247559e+00
6.000000000000000000e+00 9.524093627929687500e+00 -1.453071534633636475e-01 3.970062017440795898e+00 2.949237823486328125e-01 1.279495716094970703e+00 1.229587554931640625e+00
7.000000000000000000e+00 9.333730697631835938e+00 -2.034300118684768677e-01 3.803356885910034180e+00 8.138148188591003418e-01 1.385151505470275879e+00 1.898983836174011230e+00
8.000000000000000000e+00 9.143367767333984375e+00 -2.615528702735900879e-01 2.580945968627929688e+00 1.264364719390869141e-01 8.122147321701049805e-01 1.233224749565124512e+00
9.000000000000000000e+00 9.736933708190917969e+00 -1.411830335855484009e-01 1.531048011779785156e+01 2.394306898117065430e+00 5.311436176300048828e+00 8.298471450805664062e+00
1.000000000000000000e+01 9.561555862426757812e+00 -2.353050708770751953e-01 9.385277748107910156e+00 1.426456332206726074e+00 3.243520259857177734e+00 4.783735275268554688e+00
1.100000000000000000e+01 9.386178970336914062e+00 -3.294270932674407959e-01 6.365892410278320312e+00 1.938794612884521484e+00 2.491405963897705078e+00 3.782102584838867188e+00
1.200000000000000000e+01 9.210802078247070312e+00 -4.235491156578063965e-01 5.489826679229736328e+00 1.759509086608886719e+00 2.174800634384155273e+00 3.599746227264404297e+00
1.300000000000000000e+01 9.769508361816406250e+00 -1.897630989551544189e-01 1.673222351074218750e+01 8.843266487121582031e+00 7.672646999359130859e+00 1.331495285034179688e+01
1.400000000000000000e+01 9.615847587585449219e+00 -3.162718117237091064e-01 1.085519027709960938e+01 5.535708904266357422e+00 4.917269706726074219e+00 8.610307693481445312e+00
1.500000000000000000e+01 9.462185859680175781e+00 -4.427805542945861816e-01 8.510237693786621094e+00 4.474860668182373047e+00 3.895529508590698242e+00 6.783867359161376953e+00
1.600000000000000000e+01 9.308525085449218750e+00 -5.692892670631408691e-01 6.793814182281494141e+00 4.030448913574218750e+00 3.247278928756713867e+00 5.694018363952636719e+00
1.700000000000000000e+01 9.810929298400878906e+00 -2.310599088668823242e-01 1.494508171081542969e+01 1.698870468139648438e+01 9.580136299133300781e+00 1.632220268249511719e+01
1.800000000000000000e+01 9.684882164001464844e+00 -3.850998580455780029e-01 1.075149536132812500e+01 1.096635723114013672e+01 6.515356063842773438e+00 1.143183231353759766e+01
1.900000000000000000e+01 9.558835029602050781e+00 -5.391398072242736816e-01 8.399772644042968750e+00 8.727928161621093750e+00 5.138309955596923828e+00 9.029614448547363281e+00
2.000000000000000000e+01 9.432787895202636719e+00 -6.931797266006469727e-01 7.007770061492919922e+00 7.460632324218750000e+00 4.340520858764648438e+00 7.822661399841308594e+00
2.100000000000000000e+01 9.859606742858886719e+00 -2.634885013103485107e-01 1.217974472045898438e+01 2.528139114379882812e+01 1.123834133148193359e+01 1.689271736145019531e+01
2.200000000000000000e+01 9.766011238098144531e+00 -4.391474723815917969e-01 9.085239410400390625e+00 1.722018432617187500e+01 7.891627311706542969e+00 1.242677783966064453e+01
2.300000000000000000e+01 9.672415733337402344e+00 -6.148064732551574707e-01 7.346783638000488281e+00 1.376292133331298828e+01 6.332911491394042969e+00 1.029621887207031250e+01
2.400000000000000000e+01 9.578820228576660156e+00 -7.904654741287231445e-01 6.034373283386230469e+00 1.180684852600097656e+01 5.352366447448730469e+00 8.791124343872070312e+00
2.500000000000000000e+01 9.913672447204589844e+00 -2.858042120933532715e-01 9.233034133911132812e+00 3.286174774169921875e+01 1.262843513488769531e+01 1.493865680694580078e+01
2.600000000000000000e+01 9.856121063232421875e+00 -4.763403236865997314e-01 7.247814178466796875e+00 2.324950027465820312e+01 9.149194717407226562e+00 1.175213050842285156e+01
2.700000000000000000e+01 9.798569679260253906e+00 -6.668764352798461914e-01 5.698313713073730469e+00 1.884584045410156250e+01 7.363245964050292969e+00 9.912454605102539062e+00
2.800000000000000000e+01 9.741018295288085938e+00 -8.574125766754150391e-01 4.752286911010742188e+00 1.637216758728027344e+01 6.337336540222167969e+00 8.765536308288574219e+00
2.900000000000000000e+01 9.971052169799804688e+00 -2.971505522727966309e-01 7.508943557739257812e+00 3.874145507812500000e+01 1.387512016296386719e+01 1.115837669372558594e+01
3.000000000000000000e+01 9.951753616333007812e+00 -4.952509105205535889e-01 5.689135074615478516e+00 2.830063056945800781e+01 1.019692993164062500e+01 9.445738792419433594e+00
3.100000000000000000e+01 9.932455062866210938e+00 -6.933512687683105469e-01 4.444897651672363281e+00 2.337008666992187500e+01 8.344494819641113281e+00 8.253110885620117188e+00
3.200000000000000000e+01 9.913155555725097656e+00 -8.914516568183898926e-01 3.551095008850097656e+00 2.020902442932128906e+01 7.128035545349121094e+00 7.329092979431152344e+00
3.300000000000000000e+01 1.002954196929931641e+01 -2.970920503139495850e-01 7.332223892211914062e+00 4.230209350585937500e+01 1.489029502868652344e+01 6.316212177276611328e+00
3.400000000000000000e+01 1.004923725128173828e+01 -4.951534271240234375e-01 5.260052680969238281e+00 3.193803405761718750e+01 1.115942573547363281e+01 6.162603378295898438e+00
3.500000000000000000e+01 1.006893157958984375e+01 -6.932148337364196777e-01 3.889076232910156250e+00 2.660681915283203125e+01 9.148768424987792969e+00 5.522770881652832031e+00
3.600000000000000000e+01 1.008862686157226562e+01 -8.912761807441711426e-01 3.029538393020629883e+00 2.328599929809570312e+01 7.894661426544189453e+00 4.988378524780273438e+00
3.700000000000000000e+01 1.008689880371093750e+01 -2.856309711933135986e-01 9.052574157714843750e+00 4.356725692749023438e+01 1.578594970703125000e+01 1.521727085113525391e+00
3.800000000000000000e+01 1.014483070373535156e+01 -4.760516285896301270e-01 6.043541908264160156e+00 3.377700805664062500e+01 1.194616508483886719e+01 2.448368310928344727e+00
3.900000000000000000e+01 1.020276355743408203e+01 -6.664722561836242676e-01 4.470438957214355469e+00 2.848080635070800781e+01 9.885374069213867188e+00 2.378010272979736328e+00
4.000000000000000000e+01 1.026069545745849609e+01 -8.568928837776184082e-01 3.441582679748535156e+00 2.499640655517578125e+01 8.531396865844726562e+00 2.226142406463623047e+00
4.100000000000000000e+01 1.014091968536376953e+01 -2.632071673870086670e-01 1.223919677734375000e+01 4.280324172973632812e+01 1.651273155212402344e+01 -2.451178550720214844e+00
4.200000000000000000e+01 1.023486614227294922e+01 -4.386786222457885742e-01 8.109853744506835938e+00 3.397654342651367188e+01 1.262591934204101562e+01 -9.472917318344116211e-01
4.300000000000000000e+01 1.032881259918212891e+01 -6.141500473022460938e-01 6.132742404937744141e+00 2.884747886657714844e+01 1.049406623840332031e+01 -5.948275923728942871e-01
4.400000000000000000e+01 1.042275905609130859e+01 -7.896215319633483887e-01 4.889196395874023438e+00 2.544950294494628906e+01 9.101610183715820312e+00 -4.745556414127349854e-01
4.500000000000000000e+01 1.018953227996826172e+01 -2.306813150644302368e-01 1.624530792236328125e+01 4.072223281860351562e+01 1.709026145935058594e+01 -5.002341270446777344e+00
4.600000000000000000e+01 1.031588745117187500e+01 -3.844688534736633301e-01 1.116354274749755859e+01 3.281118392944335938e+01 1.319241809844970703e+01 -3.476688146591186523e+00
4.700000000000000000e+01 1.044224262237548828e+01 -5.382564067840576172e-01 8.659786224365234375e+00 2.798719215393066406e+01 1.099409389495849609e+01 -2.868187665939331055e+00
4.800000000000000000e+01 1.056859779357910156e+01 -6.920439004898071289e-01 7.110188007354736328e+00 2.480533218383789062e+01 9.574656486511230469e+00 -2.536944389343261719e+00
4.900000000000000000e+01 1.023087024688720703e+01 -1.893017292022705078e-01 2.049003410339355469e+01 3.809423446655273438e+01 1.757528114318847656e+01 -5.933987617492675781e+00
5.000000000000000000e+01 1.038478469848632812e+01 -3.155028820037841797e-01 1.457228565216064453e+01 3.078021621704101562e+01 1.360575008392333984e+01 -4.784672260284423828e+00
5.100000000000000000e+01 1.053869819641113281e+01 -4.417040348052978516e-01 1.170926189422607422e+01 2.637570190429687500e+01 1.142548942565917969e+01 -4.059019088745117188e+00
5.200000000000000000e+01 1.069261169433593750e+01 -5.679051876068115234e-01 9.737529754638671875e+00 2.334489250183105469e+01 9.924726486206054688e+00 -3.655658721923828125e+00
5.300000000000000000e+01 1.026334762573242188e+01 -1.406566202640533447e-01 2.409296226501464844e+01 3.548600006103515625e+01 1.787368965148925781e+01 -5.446713447570800781e+00
5.400000000000000000e+01 1.043891334533691406e+01 -2.344277054071426392e-01 1.794473838806152344e+01 2.861251068115234375e+01 1.396717453002929688e+01 -4.691261291503906250e+00
5.500000000000000000e+01 1.061447906494140625e+01 -3.281987905502319336e-01 1.455948257446289062e+01 2.441426849365234375e+01 1.169212532043457031e+01 -4.101488590240478516e+00
5.600000000000000000e+01 1.079004383087158203e+01 -4.219698905944824219e-01 1.243638134002685547e+01 2.174351310729980469e+01 1.025396823883056641e+01 -3.680672407150268555e+00
5.700000000000000000e+01 1.028571796417236328e+01 -8.661302924156188965e-02 2.684502410888671875e+01 3.361243820190429688e+01 1.813723945617675781e+01 -3.761770963668823242e+00
5.800000000000000000e+01 1.047619628906250000e+01 -1.443550437688827515e-01 2.045433998107910156e+01 2.668317031860351562e+01 1.414125251770019531e+01 -3.463573694229125977e+00
5.900000000000000000e+01 1.066667461395263672e+01 -2.020970582962036133e-01 1.691383743286132812e+01 2.284730911254882812e+01 1.192834472656250000e+01 -3.023085832595825195e+00
6.000000000000000000e+01 1.085715293884277344e+01 -2.598390877246856689e-01 1.445127677917480469e+01 2.023394584655761719e+01 1.040556716918945312e+01 -2.737382173538208008e+00
6.100000000000000000e+01 1.029712104797363281e+01 -2.924515865743160248e-02 2.819592475891113281e+01 3.247513198852539062e+01 1.820131683349609375e+01 -1.457781791687011719e+00
6.200000000000000000e+01 1.049520206451416016e+01 -4.874193295836448669e-02 2.191406822204589844e+01 2.572617530822753906e+01 1.429207324981689453e+01 -1.338139772415161133e+00
6.300000000000000000e+01 1.069328308105468750e+01 -6.823870539665222168e-02 1.808506393432617188e+01 2.185688781738281250e+01 1.198258590698242188e+01 -1.271497726440429688e+00
6.400000000000000000e+01 1.089136409759521484e+01 -8.773547410964965820e-02 1.566964721679687500e+01 1.937681198120117188e+01 1.051393795013427734e+01 -1.072759389877319336e+00
6.500000000000000000e+01 1.029712104797363281e+01 2.924515865743160248e-02 2.823047065734863281e+01 3.257205200195312500e+01 1.824075698852539062e+01 1.140692472457885742e+00
6.600000000000000000e+01 1.049520206451416016e+01 4.874193295836448669e-02 2.188236999511718750e+01 2.564125633239746094e+01 1.425708770751953125e+01 1.005517721176147461e+00
6.700000000000000000e+01 1.069328308105468750e+01 6.823870539665222168e-02 1.808786010742187500e+01 2.197420501708984375e+01 1.201861953735351562e+01 8.632810115814208984e-01
6.800000000000000000e+01 1.089136409759521484e+01 8.773547410964965820e-02 1.554035472869873047e+01 1.925212669372558594e+01 1.043774414062500000e+01 6.961644887924194336e-01
6.900000000000000000e+01 1.028571796417236328e+01 8.661302924156188965e-02 2.681372451782226562e+01 3.356531524658203125e+01 1.811371231079101562e+01 3.475672483444213867e+00
7.000000000000000000e+01 1.047619628906250000e+01 1.443550437688827515e-01 2.047052955627441406e+01 2.676677894592285156e+01 1.417119216918945312e+01 3.113565921783447266e+00
7.100000000000000000e+01 1.066667461395263672e+01 2.020970582962036133e-01 1.682385063171386719e+01 2.285088729858398438e+01 1.190242099761962891e+01 2.669876813888549805e+00
7.200000000000000000e+01 1.085715293884277344e+01 2.598390877246856689e-01 1.435744094848632812e+01 2.022650718688964844e+01 1.037518405914306641e+01 2.398335695266723633e+00
7.300000000000000000e+01 1.026334762573242188e+01 1.406566202640533447e-01 2.412451744079589844e+01 3.554901885986328125e+01 1.790206146240234375e+01 5.151044845581054688e+00
7.400000000000000000e+01 1.043891334533691406e+01 2.344277054071426392e-01 1.789330863952636719e+01 2.862297439575195312e+01 1.395488452911376953e+01 4.374694824218750000e+00
7.500000000000000000e+01 1.061447906494140625e+01 3.281987905502319336e-01 1.450094890594482422e+01 2.451202011108398438e+01 1.170389080047607422e+01 3.774413108825683594e+00
7.600000000000000000e+01 1.079004383087158203e+01 4.219698905944824219e-01 1.244597816467285156e+01 2.170807647705078125e+01 1.024621677398681641e+01 3.330569028854370117e+00
7.700000000000000000e+01 1.023087024688720703e+01 1.893017292022705078e-01 2.048053741455078125e+01 3.808240509033203125e+01 1.756888198852539062e+01 5.670748233795166016e+00
7.800000000000000000e+01 1.038478469848632812e+01 3.155028820037841797e-01 1.454680538177490234e+01 3.089465713500976562e+01 1.363243865966796875e+01 4.484268188476562500e+00
7.900000000000000000e+01 1.053869819641113281e+01 4.417040348052978516e-01 1.164118576049804688e+01 2.641075897216796875e+01 1.141558361053466797e+01 3.759904384613037109e+00
8.000000000000000000e+01 1.069261169433593750e+01 5.679051876068115234e-01 9.731371879577636719e+00 2.346204948425292969e+01 9.958026885986328125e+00 3.240043878555297852e+00
8.100000000000000000e+01 1.018953227996826172e+01 2.306813150644302368e-01 1.628309631347656250e+01 4.079933547973632812e+01 1.712472915649414062e+01 4.731327056884765625e+00
8.200000000000000000e+01 1.031588745117187500e+01 3.844688534736633301e-01 1.109544372558593750e+01 3.286147308349609375e+01 1.318707466125488281e+01 3.236266851425170898e+00
8.300000000000000000e+01 1.044224262237548828e+01 5.382564067840576172e-01 8.612887382507324219e+00 2.814393043518066406e+01 1.102704524993896484e+01 2.553066492080688477e+00
8.400000000000000000e+01 1.056859779357910156e+01 6.920439004898071289e-01 6.969827175140380859e+00 2.493507575988769531e+01 9.571471214294433594e+00 2.167310237884521484e+00
8.500000000000000000e+01 1.014091968536376953e+01 2.632071673870086670e-01 1.223298454284667969e+01 4.284286499023437500e+01 1.652275466918945312e+01 2.229498863220214844e+00
8.600000000000000000e+01 1.023486614227294922e+01 4.386786222457885742e-01 8.076139450073242188e+00 3.409297561645507812e+01 1.265073490142822266e+01 7.015260457992553711e-01
8.700000000000000000e+01 1.032881259918212891e+01 6.141500473022460938e-01 6.021214008331298828e+00 2.897593116760253906e+01 1.049914360046386719e+01 3.379147350788116455e-01
8.800000000000000000e+01 1.042275905609130859e+01 7.896215319633483887e-01 4.754528522491455078e+00 2.572505950927734375e+01 9.143876075744628906e+00 1.733282506465911865e-01
8.900000000000000000e+01 1.008689880371093750e+01 2.856309711933135986e-01 9.058508872985839844e+00 4.363465881347656250e+01 1.580795001983642578e+01 -1.728765726089477539e+00
9.000000000000000000e+01 1.014483070373535156e+01 4.760516285896301270e-01 5.993988037109375000e+00 3.388814926147460938e+01 1.196464157104492188e+01 -2.659041166305541992e+00
9.100000000000000000e+01 1.020276355743408203e+01 6.664722561836242676e-01 4.335147380828857422e+00 2.865776062011718750e+01 9.897871971130371094e+00 -2.614304542541503906e+00
9.200000000000000000e+01 1.026069545745849609e+01 8.568928837776184082e-01 3.333957910537719727e+00 2.518678665161132812e+01 8.556222915649414062e+00 -2.459849834442138672e+00
9.300000000000000000e+01 1.002954196929931641e+01 2.970920503139495850e-01 7.388105392456054688e+00 4.239291381835937500e+01 1.493430519104003906e+01 -6.496282100677490234e+00
9.400000000000000000e+01 1.004923725128173828e+01 4.951534271240234375e-01 5.142355918884277344e+00 3.206357192993164062e+01 1.116177845001220703e+01 -6.364017963409423828e+00
9.500000000000000000e+01 1.006893157958984375e+01 6.932148337364196777e-01 3.811330080032348633e+00 2.676773262023925781e+01 9.173718452453613281e+00 -5.713688850402832031e+00
9.600000000000000000e+01 1.008862686157226562e+01 8.912761807441711426e-01 2.809473752975463867e+00 2.347163200378417969e+01 7.884331703186035156e+00 -5.247684955596923828e+00
9.700000000000000000e+01 9.971052169799804688e+00 2.971505522727966309e-01 7.479499816894531250e+00 3.882980728149414062e+01 1.389279174804687500e+01 -1.135520267486572266e+01
9.800000000000000000e+01 9.951753616333007812e+00 4.952509105205535889e-01 5.656226158142089844e+00 2.843440246582031250e+01 1.022718906402587891e+01 -9.601422309875488281e+00
9.900000000000000000e+01 9.932455062866210938e+00 6.933512687683105469e-01 4.263843536376953125e+00 2.350362014770507812e+01 8.330239295959472656e+00 -8.466156005859375000e+00
1.000000000000000000e+02 9.913155555725097656e+00 8.914516568183898926e-01 3.407482862472534180e+00 2.042722892761230469e+01 7.150413513183593750e+00 -7.489748477935791016e+00
1.010000000000000000e+02 9.913672447204589844e+00 2.858042120933532715e-01 9.244872093200683594e+00 3.300579452514648438e+01 1.267519950866699219e+01 -1.508493041992187500e+01
1.020000000000000000e+02 9.856121063232421875e+00 4.763403236865997314e-01 7.174895763397216797e+00 2.333963966369628906e+01 9.154360771179199219e+00 -1.195839500427246094e+01
1.030000000000000000e+02 9.798569679260253906e+00 6.668764352798461914e-01 5.573366165161132812e+00 1.898616409301757812e+01 7.367858886718750000e+00 -1.004794692993164062e+01
1.040000000000000000e+02 9.741018295288085938e+00 8.574125766754150391e-01 4.558129310607910156e+00 1.645498085021972656e+01 6.303933143615722656e+00 -8.949525833129882812e+00
1.050000000000000000e+02 9.859606742858886719e+00 2.634885013103485107e-01 1.219005012512207031e+01 2.538459205627441406e+01 1.127239227294921875e+01 -1.707692337036132812e+01
1.060000000000000000e+02 9.766011238098144531e+00 4.391474723815917969e-01 9.018573760986328125e+00 1.734669113159179688e+01 7.909579753875732422e+00 -1.260155582427978516e+01
1.070000000000000000e+02 9.672415733337402344e+00 6.148064732551574707e-01 7.272235870361328125e+00 1.381956768035888672e+01 6.327540874481201172e+00 -1.046729183197021484e+01
1.080000000000000000e+02 9.578820228576660156e+00 7.904654741287231445e-01 5.830308437347412109e+00 1.183720302581787109e+01 5.300253391265869141e+00 -8.945909500122070312e+00
1.090000000000000000e+02 9.810929298400878906e+00 2.310599088668823242e-01 1.496520423889160156e+01 1.712629890441894531e+01 9.627450942993164062e+00 -1.650002288818359375e+01
1.100000000000000000e+02 9.684882164001464844e+00 3.850998580455780029e-01 1.071024513244628906e+01 1.102534484863281250e+01 6.520677089691162109e+00 -1.161320114135742188e+01
1.110000000000000000e+02 9.558835029602050781e+00 5.391398072242736816e-01 8.327244758605957031e+00 8.805389404296875000e+00 5.139790058135986328e+00 -9.202772140502929688e+00
1.120000000000000000e+02 9.432787895202636719e+00 6.931797266006469727e-01 6.900804996490478516e+00 7.504300117492675781e+00 4.321531295776367188e+00 -8.031956672668457031e+00
1.130000000000000000e+02 9.769508361816406250e+00 1.897630989551544189e-01 1.676361846923828125e+01 8.900911331176757812e+00 7.699358940124511719e+00 -1.350523281097412109e+01
1.140000000000000000e+02 9.615847587585449219e+00 3.162718117237091064e-01 1.084114646911621094e+01 5.626954078674316406e+00 4.940430164337158203e+00 -8.769187927246093750e+00
1.150000000000000000e+02 9.462185859680175781e+00 4.427805542945861816e-01 8.441571235656738281e+00 4.487762451171875000e+00 3.878800153732299805e+00 -6.968608856201171875e+00
1.160000000000000000e+02 9.308525085449218750e+00 5.692892670631408691e-01 6.689234256744384766e+00 4.228804111480712891e+00 3.275411605834960938e+00 -5.865858554840087891e+00
1.170000000000000000e+02 9.736933708190917969e+00 1.411830335855484009e-01 1.541321086883544922e+01 2.493059396743774414e+00 5.371881008148193359e+00 -8.450148582458496094e+00
1.180000000000000000e+02 9.561555862426757812e+00 2.353050708770751953e-01 9.353754997253417969e+00 1.415880441665649414e+00 3.230890750885009766e+00 -4.936449527740478516e+00
1.190000000000000000e+02 9.386178970336914062e+00 3.294270932674407959e-01 6.307341098785400391e+00 2.033486127853393555e+00 2.502248048782348633e+00 -3.930380821228027344e+00
1.200000000000000000e+02 9.210802078247070312e+00 4.235491156578063965e-01 5.369314193725585938e+00 1.845629692077636719e+00 2.164483070373535156e+00 -3.691014766693115234e+00
1.210000000000000000e+02 9.714455604553222656e+00 8.718428760766983032e-02 1.069952106475830078e+01 -2.330787181854248047e+00 2.510620117187500000e+00 -1.847453117370605469e+00
1.220000000000000000e+02 9.524093627929687500e+00 1.453071534633636475e-01 3.962353229522705078e+00 3.704768121242523193e-01 1.299849033355712891e+00 -1.332431316375732422e+00
1.230000000000000000e+02 9.333730697631835938e+00 2.034300118684768677e-01 3.693403244018554688e+00 7.933567762374877930e-01 1.346027970314025879e+00 -2.004583358764648438e+00
1.240000000000000000e+02 9.143367767333984375e+00 2.615528702735900879e-01 2.480195283889770508e+00 2.138819843530654907e-01 8.082231879234313965e-01 -1.272346377372741699e+00
1.250000000000000000e+02 9.702937126159667969e+00 2.983934059739112854e-02 -3.540731430053710938e+00 -2.394287347793579102e+00 -1.780505657196044922e+00 2.503265142440795898e+00
1.260000000000000000e+02 9.504896163940429688e+00 4.973223432898521423e-02 3.294357955455780029e-01 9.158473610877990723e-01 3.735849559307098389e-01 -7.502762675285339355e-01
1.270000000000000000e+02 9.306854248046875000e+00 6.962513178586959839e-02 -8.847864270210266113e-01 -3.750274479389190674e-01 -3.779441714286804199e-01 -6.113063078373670578e-03
1.280000000000000000e+02 9.108813285827636719e+00 8.951802551746368408e-02 -1.176765322685241699e+00 1.939613521099090576e-01 -2.948412001132965088e-01 -1.729469299316406250e-01
1.290000000000000000e+02 1.158342361450195312e-01 -9.552106857299804688e-01 -1.455473713576793671e-03 -5.724928155541419983e-02 -1.761142723262310028e-02 -1.836438663303852081e-02
1.300000000000000000e+02 9.452310949563980103e-02 -5.196542143821716309e-01 -3.876279108226299286e-03 -6.282447371631860733e-03 -3.047617850825190544e-03 -7.283917162567377090e-03
1.310000000000000000e+02 8.047272264957427979e-02 -3.348883092403411865e-01 -1.147420378401875496e-03 4.045736975967884064e-03 8.694949792698025703e-04 1.523616374470293522e-03
1.320000000000000000e+02 6.704595088958740234e-01 -1.189597725868225098e+00 -4.022438824176788330e-02 -1.347796618938446045e-01 -5.250121280550956726e-02 -1.506153494119644165e-01
1.330000000000000000e+02 4.989198446273803711e-01 -1.392871141433715820e+00 -2.602574788033962250e-02 -1.807211339473724365e-01 -6.202406436204910278e-02 -1.386370062828063965e-01
1.340000000000000000e+02 6.919136643409729004e-01 -1.388064265251159668e+00 -3.783221915364265442e-02 -1.760160326957702637e-01 -6.415447592735290527e-02 -1.637388765811920166e-01
1.350000000000000000e+02 2.494502544403076172e+00 -1.354987144470214844e+00 -1.845612078905105591e-01 -3.692930191755294800e-02 -6.644715368747711182e-02 -3.357021510601043701e-01
1.360000000000000000e+02 2.919969081878662109e+00 -1.376239299774169922e+00 -2.040020376443862915e-01 -5.113033112138509750e-03 -6.273452192544937134e-02 -3.484247326850891113e-01
1.370000000000000000e+02 2.470916032791137695e+00 -1.059127449989318848e+00 -2.857702076435089111e-01 -2.293520793318748474e-02 -9.261162579059600830e-02 -3.129854500293731689e-01
1.380000000000000000e+02 2.876306295394897461e+00 -9.978117346763610840e-01 -3.761071562767028809e-01 -7.830837741494178772e-03 -1.151814013719558716e-01 -3.080538511276245117e-01
1.390000000000000000e+02 2.802544832229614258e+00 -6.208453774452209473e-01 -5.089953541755676270e-01 -1.419776678085327148e-02 -1.569579243659973145e-01 -2.289634943008422852e-01
1.400000000000000000e+02 3.299050569534301758e+00 -1.486306041479110718e-01 -9.391087889671325684e-01 1.083149574697017670e-03 -2.814076840877532959e-01 -6.322699785232543945e-02
1.410000000000000000e+02 3.092912435531616211e+00 -1.450943201780319214e-01 -8.541072607040405273e-01 -1.022025709971785545e-03 -2.565387785434722900e-01 -6.410774588584899902e-02
1.420000000000000000e+02 3.699659109115600586e+00 -1.269613206386566162e-01 -1.113167405128479004e+00 -3.404342569410800934e-04 -3.340523242950439453e-01 -6.220371648669242859e-02
1.430000000000000000e+02 3.894185304641723633e+00 -1.247326359152793884e-01 -1.209755897521972656e+00 3.753580152988433838e-03 -3.618007004261016846e-01 -5.836484953761100769e-02
1.440000000000000000e+02 5.521253585815429688e+00 -1.368425250053405762e+00 1.121131479740142822e-01 1.847632974386215210e-01 8.906293660402297974e-02 6.954481452703475952e-02
1.450000000000000000e+02 5.718832492828369141e+00 -1.378246426582336426e+00 1.971655488014221191e-01 2.111549824476242065e-01 1.224961578845977783e-01 1.191162094473838806e-01
1.460000000000000000e+02 5.892667293548583984e+00 -1.387828886508941650e-01 -1.948580741882324219e+00 7.186171598732471466e-03 -5.824183821678161621e-01 -5.116456374526023865e-02
1.470000000000000000e+02 5.484801769256591797e+00 -1.456770151853561401e-01 -1.832913279533386230e+00 5.344467703253030777e-03 -5.482706427574157715e-01 -5.445810407400131226e-02
1.480000000000000000e+02 6.314941406250000000e+00 -1.399257540702819824e+00 5.804843902587890625e-01 3.761626780033111572e-01 2.869941294193267822e-01 4.538986086845397949e-01
1.490000000000000000e+02 6.297612190246582031e+00 -1.303483098745346069e-01 -2.050608158111572266e+00 5.979908164590597153e-03 -6.133884787559509277e-01 -4.601192474365234375e-02
1.500000000000000000e+02 6.114730358123779297e+00 -1.392511487007141113e+00 4.371168911457061768e-01 2.734214365482330322e-01 2.131614983081817627e-01 2.956903576850891113e-01
1.510000000000000000e+02 6.672454357147216797e+00 -1.408431291580200195e+00 8.222000598907470703e-01 5.006028413772583008e-01 3.968408703804016113e-01 6.819228529930114746e-01
1.520000000000000000e+02 7.689256191253662109e+00 -1.350958108901977539e+00 2.034153223037719727e+00 1.080765843391418457e+00 9.344757199287414551e-01 1.774728059768676758e+00
1.530000000000000000e+02 8.410909652709960938e+00 -3.483122587203979492e-01 1.490987986326217651e-01 1.080015674233436584e-01 7.713010907173156738e-02 5.970860123634338379e-01
1.540000000000000000e+02 8.302818298339843750e+00 -1.324055194854736328e+00 3.201932430267333984e+00 2.256383180618286133e+00 1.637494683265686035e+00 3.098127365112304688e+00
1.550000000000000000e+02 9.688844680786132812e+00 -1.044457077980041504e+00 4.014323711395263672e+00 1.472134971618652344e+01 5.620701789855957031e+00 7.795129299163818359e+00
1.560000000000000000e+02 1.025903892517089844e+01 -1.133519649505615234e+00 2.395174741744995117e+00 2.146062850952148438e+01 7.156740665435791016e+00 2.947247743606567383e+00
1.570000000000000000e+02 1.073481464385986328e+01 -1.144141316413879395e+00 3.941435337066650391e+00 2.063572883605957031e+01 7.373149394989013672e+00 -1.082347750663757324e+00
1.580000000000000000e+02 1.108393096923828125e+01 -2.791437804698944092e-01 1.284984588623046875e+01 1.797734642028808594e+01 9.248157501220703125e+00 -2.340354204177856445e+00
1.590000000000000000e+02 1.110609245300292969e+01 -8.639926463365554810e-02 1.376967144012451172e+01 1.738813591003417969e+01 9.347342491149902344e+00 -9.536318778991699219e-01
1.600000000000000000e+02 1.125073242187500000e+01 3.355023860931396484e-01 1.148553466796875000e+01 1.658769035339355469e+01 8.421967506408691406e+00 1.717717051506042480e+00
1.610000000000000000e+02 1.096120643615722656e+01 5.763402581214904785e-01 1.015500736236572266e+01 1.993804550170898438e+01 9.027915954589843750e+00 2.945391893386840820e+00
1.620000000000000000e+02 1.065928459167480469e+01 8.806247115135192871e-01 5.296876430511474609e+00 2.280931091308593750e+01 8.431856155395507812e+00 1.494827032089233398e+00
1.630000000000000000e+02 9.162257194519042969e+00 1.101857781410217285e+00 4.658068180084228516e+00 6.479887962341308594e+00 3.341386795043945312e+00 -6.363004684448242188e+00
1.640000000000000000e+02 8.909451484680175781e+00 1.364026308059692383e+00 3.765839576721191406e+00 5.599165439605712891e+00 2.809501409530639648e+00 -5.428971767425537109e+00
1.650000000000000000e+02 8.948912620544433594e+00 3.158051371574401855e-01 1.868875503540039062e+00 3.717842996120452881e-01 6.721979379653930664e-01 -1.288990259170532227e+00
1.660000000000000000e+02 8.910804748535156250e+00 1.078275069594383240e-01 -1.489936590194702148e+00 -8.953391015529632568e-02 -4.738411307334899902e-01 -1.040038987994194031e-01
1.670000000000000000e+02 8.536369323730468750e+00 3.947198987007141113e-01 6.521466970443725586e-01 2.948637306690216064e-01 2.841031253337860107e-01 -8.438339829444885254e-01
1.680000000000000000e+02 9.712758064270019531e+00 1.387733101844787598e+00 2.458960056304931641e+00 1.445814704895019531e+01 5.075131893157958984e+00 -6.682787418365478516e+00
1.690000000000000000e+02 9.905720710754394531e+00 1.375819563865661621e+00 2.011463165283203125e+00 1.674992179870605469e+01 5.628415584564208984e+00 -5.717155933380126953e+00
1.700000000000000000e+02 8.702444076538085938e+00 1.370556354522705078e+00 3.707788228988647461e+00 4.145391941070556641e+00 2.355953931808471680e+00 -4.641059398651123047e+00
1.710000000000000000e+02 8.508754730224609375e+00 1.347165107727050781e-01 -1.925335407257080078e+00 9.403585456311702728e-03 -5.747795104980468750e-01 -8.471541851758956909e-02
1.720000000000000000e+02 8.101596832275390625e+00 1.356433868408203125e+00 2.623422384262084961e+00 1.906143903732299805e+00 1.358869791030883789e+00 -2.687434196472167969e+00
1.730000000000000000e+02 8.103774070739746094e+00 1.460121721029281616e-01 -2.214569568634033203e+00 2.000110223889350891e-03 -6.637708544731140137e-01 -7.462155818939208984e-02
1.740000000000000000e+02 5.695895671844482422e+00 1.386821031570434570e+00 5.843813531100749969e-03 2.204293459653854370e-01 6.788194924592971802e-02 -6.740030646324157715e-02
1.750000000000000000e+02 5.114307403564453125e+00 1.096266388893127441e+00 -5.194136500358581543e-01 7.699169963598251343e-02 -1.327265799045562744e-01 1.862232238054275513e-01
1.760000000000000000e+02 5.508736133575439453e+00 1.152617573738098145e+00 -3.680379688739776611e-01 1.237417906522750854e-01 -7.328885048627853394e-02 8.638913929462432861e-02
1.770000000000000000e+02 3.705371618270874023e+00 1.385451078414916992e+00 -3.295967578887939453e-01 4.716743901371955872e-02 -8.472879976034164429e-02 3.726766109466552734e-01
1.780000000000000000e+02 3.707933187484741211e+00 1.598374396562576294e-01 -1.239923596382141113e+00 4.093449097126722336e-03 -3.707490563392639160e-01 8.560732007026672363e-02
1.790000000000000000e+02 4.129785537719726562e+00 8.771088123321533203e-01 -7.520033121109008789e-01 2.266356907784938812e-02 -2.188019156455993652e-01 3.064976632595062256e-01
1.800000000000000000e+02 3.529339075088500977e+00 6.908538937568664551e-01 -7.756645083427429199e-01 -8.028642274439334869e-03 -2.351079434156417847e-01 2.757181525230407715e-01
1.810000000000000000e+02 3.317279100418090820e+00 1.370108008384704590e+00 -3.237763643264770508e-01 4.464742727577686310e-03 -9.579348564147949219e-02 3.956253230571746826e-01
1.820000000000000000e+02 3.117893695831298828e+00 1.336868524551391602e+00 -3.163080513477325439e-01 -1.680093002505600452e-03 -9.539644420146942139e-02 4.066085815429687500e-01
1.830000000000000000e+02 3.043033838272094727e+00 8.875674605369567871e-01 -5.348715782165527344e-01 -3.280457574874162674e-03 -1.614456027746200562e-01 3.402922749519348145e-01
1.840000000000000000e+02 2.487853288650512695e+00 1.092489838600158691e+00 -3.386698067188262939e-01 -3.918035700917243958e-02 -1.133550480008125305e-01 3.723642528057098389e-01
1.850000000000000000e+02 2.895749568939208984e+00 1.686940938234329224e-01 -8.293912410736083984e-01 2.879572100937366486e-03 -2.479534894227981567e-01 7.794217765331268311e-02
1.860000000000000000e+02 2.300387144088745117e+00 1.371603012084960938e+00 -2.243288904428482056e-01 -6.069261580705642700e-02 -8.550644665956497192e-02 4.103682339191436768e-01
1.870000000000000000e+02 9.027634263038635254e-01 1.380576014518737793e+00 -5.630298703908920288e-02 -1.737101227045059204e-01 -6.900393217802047729e-02 2.181582450866699219e-01
1.880000000000000000e+02 7.064817547798156738e-01 1.379356741905212402e+00 -2.999197877943515778e-02 -2.015967667102813721e-01 -6.947662681341171265e-02 1.847302317619323730e-01
1.890000000000000000e+02 5.074881911277770996e-01 1.412107199430465698e-01 -9.552508592605590820e-03 -8.899823762476444244e-03 -5.535699427127838135e-03 9.173302911221981049e-03
1.900000000000000000e+02 1.111962795257568359e+00 1.164401471614837646e-01 -8.664218336343765259e-02 -2.457983326166868210e-03 -2.673004940152168274e-02 2.269475534558296204e-02
1.910000000000000000e+02 3.042126297950744629e-01 1.387158036231994629e+00 2.033508848398923874e-03 -2.257389128208160400e-01 -6.711162626743316650e-02 1.015602052211761475e-01
1.920000000000000000e+02 1.001381948590278625e-01 9.661881327629089355e-01 -6.265174597501754761e-04 -6.374410539865493774e-02 -1.931118778884410858e-02 1.735780760645866394e-02
1.930000000000000000e+02 9.696643054485321045e-02 7.573472261428833008e-01 -2.724766032770276070e-03 -2.824839018285274506e-02 -9.291946887969970703e-03 1.373190153390169144e-02
1.940000000000000000e+02 9.930790960788726807e-02 3.400205671787261963e-01 -1.724568894132971764e-03 1.582669210620224476e-03 -4.256988904671743512e-05 4.761205636896193027e-04
1.950000000000000000e+02 9.669021517038345337e-02 5.493029952049255371e-01 -3.786964807659387589e-03 -7.129537872970104218e-03 -3.274950897321105003e-03 6.393481511622667313e-03
1.960000000000000000e+02 3.021513521671295166e-01 1.321522593498229980e-01 -4.197480448056012392e-04 -1.418374711647629738e-03 -5.514368531294167042e-04 1.820270088501274586e-03
1.970000000000000000e+02 9.223401546478271484e-01 1.477951705455780029e-01 -5.430933088064193726e-02 -2.461763797327876091e-03 -1.703132875263690948e-02 1.770426332950592041e-02
1.980000000000000000e+02 1.470306277275085449e+00 1.393156498670578003e-01 -2.160752862691879272e-01 -6.774041801691055298e-03 -6.685479730367660522e-02 4.182711243629455566e-02
1.990000000000000000e+02 1.504559159278869629e+00 1.359539151191711426e+00 -1.261509656906127930e-01 -1.347129642963409424e-01 -7.825917750597000122e-02 3.220728933811187744e-01
2.000000000000000000e+02 1.882001399993896484e+00 1.690664887428283691e-01 -3.718661665916442871e-01 -4.127998836338520050e-04 -1.116836890578269958e-01 6.473882496356964111e-02
2.010000000000000000e+02 1.675266385078430176e+00 1.561140567064285278e-01 -2.912968397140502930e-01 -1.323417667299509048e-02 -9.135930985212326050e-02 5.672784894704818726e-02
2.020000000000000000e+02 2.088147163391113281e+00 1.728044748306274414e-01 -4.508972465991973877e-01 -3.483694745227694511e-03 -1.363142728805541992e-01 6.592313945293426514e-02
2.030000000000000000e+02 1.910987615585327148e+00 1.378558754920959473e+00 -1.774095147848129272e-01 -9.614837169647216797e-02 -8.206736296415328979e-02 3.734077513217926025e-01
2.040000000000000000e+02 3.938179492950439453e+00 4.657450318336486816e-01 -1.076203584671020508e+00 -5.996242398396134377e-04 -3.230409622192382812e-01 2.075865119695663452e-01
2.050000000000000000e+02 4.308200359344482422e+00 1.459887772798538208e-01 -1.548807978630065918e+00 5.289538763463497162e-03 -4.630555510520935059e-01 7.805050164461135864e-02
2.060000000000000000e+02 5.096124649047851562e+00 1.248127669095993042e-01 -1.931203484535217285e+00 7.222512736916542053e-03 -5.771942734718322754e-01 6.140894442796707153e-02
2.070000000000000000e+02 6.690669059753417969e+00 1.378771901130676270e+00 6.509380340576171875e-01 4.854664206504821777e-01 3.409213423728942871e-01 -5.821830034255981445e-01
2.080000000000000000e+02 7.113923072814941406e+00 3.806204199790954590e-01 -1.531965613365173340e+00 4.005598649382591248e-02 -4.475729167461395264e-01 -3.200529515743255615e-02
2.090000000000000000e+02 7.700154304504394531e+00 1.426025778055191040e-01 -2.393573760986328125e+00 1.591016771271824837e-03 -7.175948619842529297e-01 -6.888527888804674149e-03
2.100000000000000000e+02 7.701015472412109375e+00 6.891489624977111816e-01 2.019366621971130371e-01 2.501703202724456787e-01 1.356320977210998535e-01 -6.004916429519653320e-01
2.110000000000000000e+02 9.123010635375976562e+00 7.135878205299377441e-01 5.524244785308837891e+00 3.552124023437500000e+00 2.722910642623901367e+00 -5.214704990386962891e+00
2.120000000000000000e+02 9.280339241027832031e+00 8.688903450965881348e-01 5.648952960968017578e+00 6.561602592468261719e+00 3.663166761398315430e+00 -6.798631191253662109e+00
2.130000000000000000e+02 1.029301166534423828e+01 1.328771829605102539e+00 1.697726130485534668e+00 2.004007720947265625e+01 6.521341323852539062e+00 -3.039070129394531250e+00
2.140000000000000000e+02 1.085127162933349609e+01 -7.153082489967346191e-01 8.300906181335449219e+00 2.121726989746093750e+01 8.855452537536621094e+00 -3.288053274154663086e+00
2.150000000000000000e+02 1.038669395446777344e+01 -1.044695854187011719e+00 3.042104005813598633e+00 2.270875549316406250e+01 7.725257873535156250e+00 1.441907167434692383e+00
2.160000000000000000e+02 1.023865318298339844e+01 -1.373344063758850098e+00 1.673284530639648438e+00 1.906925773620605469e+01 6.222762584686279297e+00 3.416638612747192383e+00
2.170000000000000000e+02 8.705793380737304688e+00 -4.061450958251953125e-01 1.758511781692504883e+00 3.904335796833038330e-01 6.446835994720458984e-01 1.202468276023864746e+00
2.180000000000000000e+02 7.281956672668457031e+00 -1.351641416549682617e+00 1.451904177665710449e+00 6.854769587516784668e-01 6.412143707275390625e-01 1.185313344001770020e+00
2.190000000000000000e+02 6.853759765625000000e+00 -1.359755992889404297e+00 9.482067823410034180e-01 5.087792277336120605e-01 4.370957911014556885e-01 7.734239101409912109e-01
2.200000000000000000e+02 6.702738761901855469e+00 -1.331013590097427368e-01 -2.131564140319824219e+00 9.922860190272331238e-03 -6.364923715591430664e-01 -3.697434067726135254e-02
2.210000000000000000e+02 5.115441322326660156e+00 -1.330337047576904297e+00 -1.139563545584678650e-01 1.297584474086761475e-01 4.740626551210880280e-03 -7.586439698934555054e-02
2.220000000000000000e+02 2.153861999511718750e+00 -1.689965426921844482e-01 -4.256707429885864258e-01 1.599264889955520630e-02 -1.229034289717674255e-01 -6.619421392679214478e-02
2.230000000000000000e+02 2.294748306274414062e+00 -1.361813902854919434e+00 -1.806782484054565430e-01 -4.225791618227958679e-02 -6.688085198402404785e-02 -3.344078361988067627e-01
2.240000000000000000e+02 1.729924559593200684e+00 -4.902286231517791748e-01 -2.588259875774383545e-01 -1.783893257379531860e-02 -8.299947530031204224e-02 -1.457938253879547119e-01
2.250000000000000000e+02 1.307962417602539062e+00 -1.655665636062622070e-01 -1.535989493131637573e-01 -7.104545831680297852e-03 -4.821104928851127625e-02 -4.213276132941246033e-02
2.260000000000000000e+02 1.026552543044090271e-01 -1.392542600631713867e+00 4.447671119123697281e-03 -1.030034646391868591e-01 -2.956673689186573029e-02 -2.623416949063539505e-03
2.270000000000000000e+02 9.305203437805175781e+00 -8.744363784790039062e-01 5.932302474975585938e+00 6.803558826446533203e+00 3.820758342742919922e+00 6.884499549865722656e+00
2.280000000000000000e+02 1.704760074615478516e+00 -1.067720770835876465e+00 -1.745824813842773438e-01 -6.334524601697921753e-02 -7.137832045555114746e-02 -2.669055461883544922e-01
2.290000000000000000e+02 3.718739748001098633e+00 4.421119987964630127e-01 -1.007030725479125977e+00 -2.968906192108988762e-03 -3.029998838901519775e-01 2.066200375556945801e-01
2.300000000000000000e+02 9.469409942626953125e+00 9.639760851860046387e-01 5.136536121368408203e+00 1.049240493774414062e+01 4.688682079315185547e+00 -8.098585128784179688e+00
2.310000000000000000e+02 3.109212875366210938e+00 -1.420225858688354492e+00 -2.149893343448638916e-01 1.475592702627182007e-02 -6.007002294063568115e-02 -3.392339944839477539e-01
2.320000000000000000e+02 3.673345804214477539e+00 -1.356542825698852539e+00 -2.470056563615798950e-01 3.859584406018257141e-02 -6.252294778823852539e-02 -3.034381270408630371e-01
2.330000000000000000e+02 9.901885986328125000e+00 -1.074750423431396484e+00 2.974012851715087891e+00 1.843197059631347656e+01 6.421794891357421875e+00 6.651446819305419922e+00
2.340000000000000000e+02 1.107758998870849609e+01 1.039674431085586548e-01 1.390018558502197266e+01 1.766547012329101562e+01 9.469696044921875000e+00 6.039820909500122070e-01
2.350000000000000000e+02 1.089429092407226562e+01 9.207270741462707520e-01 6.091072082519531250e+00 2.053214645385742188e+01 7.986965656280517578e+00 2.275063276290893555e+00
2.360000000000000000e+02 1.080690765380859375e+01 1.168788671493530273e+00 3.956655979156494141e+00 1.999819374084472656e+01 7.186455249786376953e+00 9.945442676544189453e-01
2.370000000000000000e+02 1.065894412994384766e+01 1.228479743003845215e+00 2.941840887069702148e+00 2.082760810852050781e+01 7.130835056304931641e+00 -1.169328764081001282e-02
2.380000000000000000e+02 1.009926033020019531e+01 1.109326839447021484e+00 2.200977325439453125e+00 2.102757263183593750e+01 6.968564987182617188e+00 -4.876767635345458984e+00
2.390000000000000000e+02 9.517053604125976562e+00 1.392658829689025879e+00 3.066962480545043945e+00 1.179485130310058594e+01 4.458544254302978516e+00 -7.024528026580810547e+00
2.400000000000000000e+02 7.899786949157714844e+00 1.355904221534729004e+00 2.314652919769287109e+00 1.515068531036376953e+00 1.148916482925415039e+00 -2.244009971618652344e+00
2.410000000000000000e+02 7.492914676666259766e+00 1.346846580505371094e+00 1.525078654289245605e+00 9.892461895942687988e-01 7.542974352836608887e-01 -1.502199530601501465e+00
2.420000000000000000e+02 6.091519355773925781e+00 1.358504295349121094e+00 1.560292094945907593e-01 3.018943667411804199e-01 1.373770684003829956e-01 -2.295257598161697388e-01
2.430000000000000000e+02 4.462540626525878906e+00 1.066448926925659180e+00 -5.921688675880432129e-01 4.911789670586585999e-02 -1.629152894020080566e-01 2.912086844444274902e-01
2.440000000000000000e+02 4.094229698181152344e+00 1.372979164123535156e+00 -3.427264094352722168e-01 7.011869549751281738e-02 -8.178231865167617798e-02 3.276102840900421143e-01
2.450000000000000000e+02 1.286486506462097168e+00 1.162464618682861328e+00 -1.244697347283363342e-01 -1.215097829699516296e-01 -7.379385828971862793e-02 2.686072289943695068e-01
2.460000000000000000e+02 1.014702394604682922e-01 1.391971230506896973e+00 3.536327183246612549e-02 -1.426417976617813110e-01 -3.218355774879455566e-02 -6.922192369529511780e-06
2.470000000000000000e+02 1.003239825367927551e-01 1.273108571767807007e-01 6.036927807144820690e-04 2.840805063897278160e-05 1.896302419481799006e-04 -6.621471839025616646e-04
2.480000000000000000e+02 7.329292297363281250e-01 4.319826960563659668e-01 -6.533564627170562744e-02 -3.155745193362236023e-02 -2.906792983412742615e-02 5.907332524657249451e-02
2.490000000000000000e+02 1.386239290237426758e+00 3.766362667083740234e-01 -1.946206837892532349e-01 -2.047901973128318787e-02 -6.452991068363189697e-02 1.122170463204383850e-01
2.500000000000000000e+02 2.292985677719116211e+00 1.655435413122177124e-01 -5.374513864517211914e-01 -9.155448526144027710e-03 -1.639820486307144165e-01 7.475314289331436157e-02
2.510000000000000000e+02 2.695286035537719727e+00 1.684379279613494873e-01 -7.348498702049255371e-01 -3.270953428000211716e-03 -2.214362621307373047e-01 7.949774712324142456e-02
2.520000000000000000e+02 3.501118183135986328e+00 4.493677020072937012e-01 -9.265730977058410645e-01 -8.749619009904563427e-04 -2.782344222068786621e-01 2.069694995880126953e-01
2.530000000000000000e+02 4.504174232482910156e+00 1.370491534471511841e-01 -1.646286964416503906e+00 -2.028758637607097626e-03 -4.944947361946105957e-01 7.345978170633316040e-02
2.540000000000000000e+02 5.468919277191162109e+00 4.039701819419860840e-01 -1.581113338470458984e+00 -4.613449564203619957e-04 -4.744724035263061523e-01 1.365527212619781494e-01
2.550000000000000000e+02 5.696718215942382812e+00 1.538996994495391846e-01 -2.147172927856445312e+00 -5.047522485256195068e-03 -6.456661224365234375e-01 6.688577681779861450e-02
2.560000000000000000e+02 6.107610225677490234e+00 1.532623320817947388e-01 -2.274383783340454102e+00 -3.193721408024430275e-03 -6.832732558250427246e-01 6.087641417980194092e-02
2.570000000000000000e+02 6.509176254272460938e+00 1.416981220245361328e-01 -2.391473054885864258e+00 1.213781908154487610e-02 -7.138005495071411133e-01 5.279707163572311401e-02
2.580000000000000000e+02 6.906415462493896484e+00 1.331113576889038086e-01 -2.461962223052978516e+00 -5.683997180312871933e-03 -7.402938604354858398e-01 3.978856280446052551e-02
2.590000000000000000e+02 8.711063385009765625e+00 1.229138299822807312e-01 -1.729723215103149414e+00 4.947921261191368103e-02 -5.040732026100158691e-01 -1.241486370563507080e-01
2.600000000000000000e+02 1.103953266143798828e+01 2.695617675781250000e-01 1.323402404785156250e+01 1.838599205017089844e+01 9.486004829406738281e+00 2.010699272155761719e+00
2.610000000000000000e+02 1.114456081390380859e+01 7.576981186866760254e-01 8.075272560119628906e+00 1.806212234497070312e+01 7.841217994689941406e+00 2.702248096466064453e+00
2.620000000000000000e+02 1.048062229156494141e+01 1.001647591590881348e+00 3.585204601287841797e+00 2.306736183166503906e+01 7.995769977569580078e+00 -3.796368837356567383e-01
2.630000000000000000e+02 8.897590637207031250e+00 -1.108529567718505859e-01 -1.267326354980468750e+00 -1.602444350719451904e-01 -4.282712638378143311e-01 1.233915016055107117e-01
2.640000000000000000e+02 9.020002365112304688e+00 -6.818686127662658691e-01 5.163994789123535156e+00 2.344773530960083008e+00 2.252630472183227539e+00 4.029557228088378906e+00
2.650000000000000000e+02 9.486912727355957031e+00 -9.693363308906555176e-01 5.264664649963378906e+00 1.053436565399169922e+01 4.739708900451660156e+00 7.874144077301025391e+00
2.660000000000000000e+02 1.111808109283447266e+01 -4.630428850650787354e-01 1.112467861175537109e+01 1.809594535827636719e+01 8.766186714172363281e+00 -2.844830751419067383e+00
2.670000000000000000e+02 8.106524467468261719e+00 -1.612324267625808716e-01 -1.862255692481994629e+00 -1.189249381422996521e-01 -5.943541526794433594e-01 4.301084950566291809e-02
2.680000000000000000e+02 6.295588970184326172e+00 -3.674811720848083496e-01 -1.476654291152954102e+00 8.255607681348919868e-04 -4.427486360073089600e-01 -5.310332030057907104e-02
2.690000000000000000e+02 5.241594791412353516e+00 -4.145678877830505371e-01 -1.291224479675292969e+00 1.239595748484134674e-02 -3.836485743522644043e-01 -1.219852641224861145e-01
2.700000000000000000e+02 4.866126537322998047e+00 -3.414294123649597168e-01 -1.339495658874511719e+00 1.425571274012327194e-03 -4.014210402965545654e-01 -1.294876188039779663e-01
2.710000000000000000e+02 2.643744945526123047e+00 -3.284434974193572998e-01 -5.778855681419372559e-01 -1.137296669185161591e-02 -1.767775565385818481e-01 -1.339290291070938110e-01
2.720000000000000000e+02 2.499970436096191406e+00 -9.817486256361007690e-02 -6.169690489768981934e-01 -7.383715361356735229e-03 -1.873058378696441650e-01 -3.282298520207405090e-02
2.730000000000000000e+02 1.716540455818176270e+00 -1.788551807403564453e-01 -2.804015874862670898e-01 -1.394732948392629623e-02 -8.830467611551284790e-02 -6.063264608383178711e-02
2.740000000000000000e+02 9.602549672126770020e-02 -1.283648163080215454e-01 1.129518845118582249e-03 1.042707823216915131e-03 6.516680005006492138e-04 1.016937778331339359e-03
2.750000000000000000e+02 1.071215724945068359e+01 -8.493782281875610352e-01 6.148106098175048828e+00 2.238914108276367188e+01 8.561174392700195312e+00 -2.358319282531738281e+00
2.760000000000000000e+02 8.993978500366210938e+00 -1.087878465652465820e+00 4.776153087615966797e+00 4.791982173919677734e+00 2.870440721511840820e+00 5.355107307434082031e+00
2.770000000000000000e+02 1.125597381591796875e+01 -6.092246174812316895e-01 9.435600280761718750e+00 1.712714385986328125e+01 7.968822956085205078e+00 -3.028152465820312500e+00
2.780000000000000000e+02 9.019884109497070312e+00 5.161942839622497559e-01 4.182088375091552734e+00 1.261700391769409180e+00 1.633136630058288574e+00 -2.950557231903076172e+00
2.790000000000000000e+02 1.082630920410156250e+01 7.334623932838439941e-01 7.911521911621093750e+00 2.137435150146484375e+01 8.785761833190917969e+00 2.828417778015136719e+00
2.800000000000000000e+02 9.552035331726074219e+00 1.194209575653076172e+00 3.716881275177001953e+00 1.199871826171875000e+01 4.714679718017578125e+00 -7.479579448699951172e+00
2.810000000000000000e+02 1.088972091674804688e+01 -1.027581930160522461e+00 5.366785049438476562e+00 2.018434333801269531e+01 7.665338516235351562e+00 -2.207144975662231445e+00
2.820000000000000000e+02 1.125513172149658203e+01 5.939059853553771973e-01 9.660640716552734375e+00 1.727876853942871094e+01 8.081822395324707031e+00 2.615891218185424805e+00
2.830000000000000000e+02 1.131819057464599609e+01 -4.570733904838562012e-01 1.082744693756103516e+01 1.617683982849121094e+01 8.101285934448242188e+00 -2.481410741806030273e+00
2.840000000000000000e+02 1.102915954589843750e+01 -8.932558894157409668e-01 6.912293910980224609e+00 1.926163291931152344e+01 7.852178573608398438e+00 -2.912809133529663086e+00
2.850000000000000000e+02 1.134174919128417969e+01 -2.807932198047637939e-01 1.143266868591308594e+01 1.565749835968017578e+01 8.127050399780273438e+00 -1.751287102699279785e+00
2.860000000000000000e+02 1.139057826995849609e+01 2.890876829624176025e-01 1.105164432525634766e+01 1.552004432678222656e+01 7.971506595611572266e+00 1.139594793319702148e+00
2.870000000000000000e+02 1.119312572479248047e+01 1.874526739120483398e-01 1.268069076538085938e+01 1.670945549011230469e+01 8.817044258117675781e+00 1.024624347686767578e+00
2.880000000000000000e+02 1.041065502166748047e+01 -1.317460656166076660e+00 1.981775522232055664e+00 2.025637626647949219e+01 6.671445369720458984e+00 1.750706672668457031e+00
2.890000000000000000e+02 1.009277725219726562e+01 -1.060697197914123535e+00 2.523275613784790039e+00 2.138979339599609375e+01 7.173920631408691406e+00 4.624258995056152344e+00
2.900000000000000000e+02 9.907473564147949219e+00 1.121070504188537598e+00 2.615758657455444336e+00 1.839291954040527344e+01 6.302603244781494141e+00 -6.676133155822753906e+00
2.910000000000000000e+02 1.048631954193115234e+01 1.271646022796630859e+00 2.207540273666381836e+00 2.069670677185058594e+01 6.871273994445800781e+00 -1.359767556190490723e+00
2.920000000000000000e+02 1.057286930084228516e+01 -1.239858627319335938e+00 2.746571063995361328e+00 2.050328254699707031e+01 6.974956035614013672e+00 2.641386985778808594e-01
2.930000000000000000e+02 8.883888125419616699e-01 -1.356295228004455566e+00 -5.761543661355972290e-02 -1.466304510831832886e-01 -6.127376481890678406e-02 -1.971050798892974854e-01
2.940000000000000000e+02 3.040100336074829102e-01 -1.391423225402832031e+00 -2.249925211071968079e-02 -2.467457205057144165e-01 -8.077349513769149780e-02 -8.202922344207763672e-02
2.950000000000000000e+02 1.093045949935913086e+00 -1.335810899734497070e+00 -7.043724507093429565e-02 -1.371530592441558838e-01 -6.227708980441093445e-02 -2.199400365352630615e-01
2.960000000000000000e+02 1.500203132629394531e+00 -1.350065231323242188e+00 -1.046785190701484680e-01 -1.064930260181427002e-01 -6.335146725177764893e-02 -2.761305570602416992e-01
2.970000000000000000e+02 2.097192764282226562e+00 -1.366299629211425781e+00 -1.612025350332260132e-01 -5.754438787698745728e-02 -6.562407314777374268e-02 -3.277280330657958984e-01
2.980000000000000000e+02 2.692356586456298828e+00 -1.078049063682556152e+00 -3.103624880313873291e-01 -1.622438803315162659e-02 -9.797606617212295532e-02 -3.193920552730560303e-01
2.990000000000000000e+02 3.324770212173461914e+00 -1.174355626106262207e+00 -3.366083502769470215e-01 8.460343815386295319e-03 -9.844439476728439331e-02 -3.211392164230346680e-01
3.000000000000000000e+02 4.124855041503906250e+00 -1.150144219398498535e+00 -3.843059539794921875e-01 3.938618302345275879e-02 -1.034759283065795898e-01 -2.706188559532165527e-01
3.010000000000000000e+02 4.673169612884521484e+00 -1.339155793190002441e+00 -1.849602907896041870e-01 1.048357412219047546e-01 -2.403736673295497894e-02 -1.694408357143402100e-01
3.020000000000000000e+02 6.360189914703369141e+00 -1.196414113044738770e+00 3.104693591594696045e-01 2.295890152454376221e-01 1.620175093412399292e-01 2.864965498447418213e-01
3.030000000000000000e+02 8.068883895874023438e+00 -1.039474606513977051e+00 2.399553060531616211e+00 1.083861112594604492e+00 1.045024275779724121e+00 1.903536677360534668e+00
3.040000000000000000e+02 8.091531753540039062e+00 -1.341143488883972168e+00 2.767113447189331055e+00 1.790237665176391602e+00 1.367205262184143066e+00 2.561439752578735352e+00
3.050000000000000000e+02 8.518143653869628906e+00 -1.328126549720764160e+00 3.634850502014160156e+00 2.925955772399902344e+00 1.968241930007934570e+00 3.751715183258056641e+00
3.060000000000000000e+02 9.530289649963378906e+00 -1.405190467834472656e+00 3.166088581085205078e+00 1.175636005401611328e+01 4.476734638214111328e+00 6.545596599578857422e+00
3.070000000000000000e+02 9.200761795043945312e+00 -1.108575105667114258e+00 4.914816379547119141e+00 6.802172183990478516e+00 3.515096664428710938e+00 6.339653491973876953e+00
3.080000000000000000e+02 9.713594436645507812e+00 -1.432682633399963379e+00 2.628601789474487305e+00 1.387601089477539062e+01 4.951383590698242188e+00 6.418637275695800781e+00
3.090000000000000000e+02 1.005361557006835938e+01 -1.406605482101440430e+00 1.798328518867492676e+00 1.743798255920410156e+01 5.770893573760986328e+00 4.516165256500244141e+00
3.100000000000000000e+02 8.696110725402832031e+00 1.115810751914978027e+00 3.824449062347412109e+00 3.000585556030273438e+00 2.047510385513305664e+00 -4.067851066589355469e+00
3.110000000000000000e+02 8.318943977355957031e+00 1.107985258102416992e+00 2.805107831954956055e+00 1.609112977981567383e+00 1.324266314506530762e+00 -2.670618772506713867e+00
3.120000000000000000e+02 8.301010131835937500e+00 1.368102073669433594e+00 2.950401306152343750e+00 2.371617555618286133e+00 1.596605658531188965e+00 -3.205901145935058594e+00
3.130000000000000000e+02 7.696302413940429688e+00 1.353312492370605469e+00 1.842183589935302734e+00 1.155754208564758301e+00 8.993813395500183105e-01 -1.790814638137817383e+00
3.140000000000000000e+02 7.086571216583251953e+00 1.363262772560119629e+00 9.733792543411254883e-01 6.575157642364501953e-01 4.892685115337371826e-01 -9.454441070556640625e-01
3.150000000000000000e+02 6.295311927795410156e+00 1.356781244277954102e+00 2.551394999027252197e-01 3.264917135238647461e-01 1.744893640279769897e-01 -3.198124468326568604e-01
3.160000000000000000e+02 6.853132724761962891e+00 1.123047709465026855e+00 3.609353303909301758e-01 3.403175175189971924e-01 2.103758603334426880e-01 -5.143448710441589355e-01
3.170000000000000000e+02 5.500124454498291016e+00 1.383009076118469238e+00 -7.475532591342926025e-02 1.935535073280334473e-01 3.563945740461349487e-02 2.139404229819774628e-02
3.180000000000000000e+02 5.101686954498291016e+00 1.365977764129638672e+00 -2.093795388936996460e-01 1.495800316333770752e-01 -1.793985255062580109e-02 1.429262459278106689e-01
3.190000000000000000e+02 4.679098129272460938e+00 1.089977860450744629e+00 -5.720526576042175293e-01 5.542039498686790466e-02 -1.549896746873855591e-01 2.538189888000488281e-01
3.200000000000000000e+02 4.692054748535156250e+00 1.359875679016113281e+00 -3.017553389072418213e-01 1.041495725512504578e-01 -5.928172543644905090e-02 2.382319569587707520e-01
3.210000000000000000e+02 4.073109626770019531e+00 1.115261077880859375e+00 -5.248286724090576172e-01 3.139225393533706665e-02 -1.480309218168258667e-01 3.237840533256530762e-01
3.220000000000000000e+02 4.261375904083251953e+00 1.089777827262878418e+00 -5.806775689125061035e-01 4.082791879773139954e-02 -1.619548946619033813e-01 3.062421381473541260e-01
3.230000000000000000e+02 3.370482921600341797e+00 1.137103438377380371e+00 -4.393966794013977051e-01 6.755196023732423782e-03 -1.297924518585205078e-01 3.808036446571350098e-01
3.240000000000000000e+02 3.355420589447021484e+00 8.239315748214721680e-01 -6.549276709556579590e-01 5.126459524035453796e-03 -1.949403584003448486e-01 3.206655085086822510e-01
3.250000000000000000e+02 2.907274961471557617e+00 1.331713795661926270e+00 -3.017321228981018066e-01 -1.290628872811794281e-02 -9.439152479171752930e-02 3.960907757282257080e-01
3.260000000000000000e+02 2.497857809066772461e+00 1.363923430442810059e+00 -2.472530454397201538e-01 -4.250849038362503052e-02 -8.692845702171325684e-02 3.934665024280548096e-01
3.270000000000000000e+02 1.712112069129943848e+00 1.357282161712646484e+00 -1.501736640930175781e-01 -1.135086193680763245e-01 -7.910468429327011108e-02 3.382661938667297363e-01
3.280000000000000000e+02 5.158184766769409180e-01 1.148278355598449707e+00 -2.354675903916358948e-02 -1.538840383291244507e-01 -5.322923883795738220e-02 1.257739812135696411e-01
3.290000000000000000e+02 5.066074728965759277e-01 1.382435321807861328e+00 -2.318006753921508789e-02 -1.769407987594604492e-01 -6.003626063466072083e-02 1.355975270271301270e-01
3.300000000000000000e+02 1.299041390419006348e+00 -1.344434380531311035e+00 -8.742090314626693726e-02 -1.196800917387008667e-01 -6.213029846549034119e-02 -2.546910345554351807e-01
3.310000000000000000e+02 1.699975848197937012e+00 -1.355569839477539062e+00 -1.176530793309211731e-01 -9.067266434431076050e-02 -6.249772384762763977e-02 -2.996176481246948242e-01
3.320000000000000000e+02 1.902339577674865723e+00 -1.086406946182250977e+00 -1.901465654373168945e-01 -5.558411031961441040e-02 -7.371920347213745117e-02 -2.854733467102050781e-01
3.330000000000000000e+02 3.901492595672607422e+00 -1.116383552551269531e+00 -3.971853852272033691e-01 2.878862619400024414e-02 -1.105190292000770569e-01 -2.835369110107421875e-01
3.340000000000000000e+02 4.295088768005371094e+00 -1.396833062171936035e+00 -1.597830653190612793e-01 8.475052565336227417e-02 -2.250976301729679108e-02 -2.241390049457550049e-01
3.350000000000000000e+02 4.898310184478759766e+00 -1.326452493667602539e+00 -1.660190522670745850e-01 1.120427623391151428e-01 -1.619288884103298187e-02 -1.229414194822311401e-01
3.360000000000000000e+02 5.189235210418701172e+00 -1.027584314346313477e+00 -4.282988309860229492e-01 6.835876405239105225e-02 -1.079820170998573303e-01 -1.307689249515533447e-01
3.370000000000000000e+02 5.320949077606201172e+00 -1.354625225067138672e+00 3.625375451520085335e-03 1.652822047472000122e-01 5.067227408289909363e-02 -2.070405054837465286e-03
3.380000000000000000e+02 5.764801025390625000e+00 -1.137822866439819336e+00 -9.345515072345733643e-02 1.445926129817962646e-01 1.534123718738555908e-02 4.796904325485229492e-02
3.390000000000000000e+02 7.065707683563232422e+00 -1.340578079223632812e+00 1.137713789939880371e+00 5.896331071853637695e-01 5.182040333747863770e-01 9.365190267562866211e-01
3.400000000000000000e+02 7.867691516876220703e+00 -1.045733809471130371e+00 1.947819709777832031e+00 7.736647725105285645e-01 8.164453506469726562e-01 1.509554743766784668e+00
3.410000000000000000e+02 8.726363182067871094e+00 -1.351821899414062500e+00 4.050364971160888672e+00 4.033694744110107422e+00 2.425217866897583008e+00 4.618660926818847656e+00
3.420000000000000000e+02 9.130440711975097656e+00 -1.369238615036010742e+00 3.930443286895751953e+00 7.220624446868896484e+00 3.345320224761962891e+00 5.986968994140625000e+00
3.430000000000000000e+02 9.318794250488281250e+00 1.382393121719360352e+00 3.472744941711425781e+00 9.244060516357421875e+00 3.815041542053222656e+00 -6.664467811584472656e+00
3.440000000000000000e+02 9.116800308227539062e+00 1.368067383766174316e+00 3.732656002044677734e+00 7.202604770660400391e+00 3.280578136444091797e+00 -6.089518547058105469e+00
3.450000000000000000e+02 7.289333343505859375e+00 1.351579427719116211e+00 1.268143296241760254e+00 7.934369444847106934e-01 6.184740662574768066e-01 -1.215845465660095215e+00
3.460000000000000000e+02 6.666684150695800781e+00 1.139312386512756348e+00 2.142913192510604858e-01 3.055979013442993164e-01 1.559667736291885376e-01 -4.232906997203826904e-01
3.470000000000000000e+02 5.690845012664794922e+00 1.169502496719360352e+00 -2.811921238899230957e-01 1.423898488283157349e-01 -4.164067655801773071e-02 4.200239479541778564e-02
3.480000000000000000e+02 4.897675514221191406e+00 1.088674783706665039e+00 -5.671624541282653809e-01 7.797768712043762207e-02 -1.467554271221160889e-01 2.349913716316223145e-01
3.490000000000000000e+02 3.899146795272827148e+00 1.380541920661926270e+00 -3.435865044593811035e-01 5.241984874010086060e-02 -8.734999597072601318e-02 3.558998703956604004e-01
3.500000000000000000e+02 3.887932062149047852e+00 1.137910962104797363e+00 -4.911068677902221680e-01 3.542070835828781128e-02 -1.367058455944061279e-01 3.389867544174194336e-01
3.510000000000000000e+02 1.941070795059204102e+00 1.156734108924865723e+00 -2.184628695249557495e-01 -7.858455181121826172e-02 -8.911422640085220337e-02 3.385969102382659912e-01
3.520000000000000000e+02 9.954800605773925781e+00 -1.239313125610351562e+00 2.342756986618041992e+00 1.782793617248535156e+01 6.051208019256591797e+00 5.684435367584228516e+00
3.530000000000000000e+02 5.880936145782470703e+00 -3.953866362571716309e-01 -1.420731425285339355e+00 5.374542903155088425e-03 -4.246070683002471924e-01 -9.125023335218429565e-02
3.540000000000000000e+02 7.868466854095458984e+00 -4.396730363368988037e-01 -4.468071758747100830e-01 3.339025750756263733e-02 -1.240250766277313232e-01 2.322527021169662476e-01
3.550000000000000000e+02 8.323198318481445312e+00 4.218527972698211670e-01 1.608927994966506958e-01 1.685126572847366333e-01 9.882163256406784058e-02 -6.135702133178710938e-01
3.560000000000000000e+02 7.904225349426269531e+00 4.247169494628906250e-01 -5.953440070152282715e-01 1.317293345928192139e-01 -1.390843987464904785e-01 -3.493223488330841064e-01
3.570000000000000000e+02 4.701137542724609375e+00 1.260974556207656860e-01 -1.745763659477233887e+00 6.703530903905630112e-03 -5.217180252075195312e-01 6.990659236907958984e-02
3.580000000000000000e+02 7.303282260894775391e+00 1.354932188987731934e-01 -2.473505258560180664e+00 1.171304192394018173e-02 -7.385376691818237305e-01 2.362356986850500107e-03
3.590000000000000000e+02 7.303153038024902344e+00 -1.278868615627288818e-01 -2.164877414703369141e+00 -1.418421044945716858e-02 -6.537185311317443848e-01 3.414339516893960536e-05
3.600000000000000000e+02 6.533110141754150391e+00 4.080563485622406006e-01 -1.626577615737915039e+00 2.960422076284885406e-02 -4.790920317173004150e-01 5.161215737462043762e-02
3.610000000000000000e+02 7.104721069335937500e+00 1.325948536396026611e-01 -2.482663631439208984e+00 2.092553302645683289e-02 -7.385214567184448242e-01 2.965893410146236420e-02
3.620000000000000000e+02 8.112528800964355469e+00 4.328442811965942383e-01 -2.162067741155624390e-01 1.102859526872634888e-01 -3.177624568343162537e-02 -4.521594345569610596e-01
3.630000000000000000e+02 8.929835319519042969e+00 -3.179746866226196289e-01 1.941246867179870605e+00 3.368667066097259521e-01 6.834340691566467285e-01 1.213379740715026855e+00
3.640000000000000000e+02 8.596513748168945312e+00 -2.476141005754470825e-01 -4.982825517654418945e-01 2.025832235813140869e-01 -8.870980143547058105e-02 2.297590821981430054e-01
3.650000000000000000e+02 8.319588661193847656e+00 -1.394328922033309937e-01 -1.826585173606872559e+00 1.157374493777751923e-02 -5.445034503936767578e-01 -3.660989180207252502e-02
3.660000000000000000e+02 7.896694183349609375e+00 -1.483428627252578735e-01 -1.965877294540405273e+00 7.544877380132675171e-02 -5.671285390853881836e-01 7.251954823732376099e-02
3.670000000000000000e+02 4.690986156463623047e+00 -1.297260075807571411e-01 -1.538133025169372559e+00 6.006249226629734039e-03 -4.596380591392517090e-01 -5.725985392928123474e-02
3.680000000000000000e+02 2.994648516178131104e-01 3.495013415813446045e-01 -9.001555852591991425e-03 -1.546473242342472076e-02 -7.339886855334043503e-03 8.444610983133316040e-03
3.690000000000000000e+02 2.688107252120971680e+00 -1.198066771030426025e-01 -6.887738108634948730e-01 -3.459620522335171700e-03 -2.076700329780578613e-01 -4.331757128238677979e-02
3.700000000000000000e+02 3.072667360305786133e+00 -4.050358831882476807e-01 -6.920055150985717773e-01 -8.189737796783447266e-03 -2.100585699081420898e-01 -1.623790115118026733e-01
3.710000000000000000e+02 3.301852226257324219e+00 -4.238827824592590332e-01 -7.661903500556945801e-01 1.501971622928977013e-03 -2.294065207242965698e-01 -1.732282042503356934e-01
3.720000000000000000e+02 3.299222469329833984e+00 1.583903282880783081e-01 -1.032618403434753418e+00 7.191546726971864700e-03 -3.076280653476715088e-01 8.239522576332092285e-02
3.730000000000000000e+02 3.911753177642822266e+00 1.607409417629241943e-01 -1.342971920967102051e+00 -4.760614130645990372e-03 -4.043197631835937500e-01 8.542997390031814575e-02
3.740000000000000000e+02 2.494956493377685547e+00 1.634936779737472534e-01 -6.376184225082397461e-01 1.489267102442681789e-03 -1.908387541770935059e-01 7.789763063192367554e-02
3.750000000000000000e+02 3.097318887710571289e+00 1.619818061590194702e-01 -9.261922836303710938e-01 -9.455374442040920258e-03 -2.806943058967590332e-01 8.272341638803482056e-02
3.760000000000000000e+02 3.199888706207275391e+00 6.661611199378967285e-01 -6.950546503067016602e-01 -1.024882029742002487e-02 -2.115910351276397705e-01 2.796624302864074707e-01
3.770000000000000000e+02 3.502358675003051758e+00 -1.408780515193939209e-01 -1.022135972976684570e+00 -5.634818808175623417e-04 -3.068098425865173340e-01 -6.230027228593826294e-02
3.780000000000000000e+02 2.450752735137939453e+00 -2.514180839061737061e-01 -5.301868915557861328e-01 -5.356587469577789307e-03 -1.606630384922027588e-01 -1.008123904466629028e-01
3.790000000000000000e+02 1.939509868621826172e+00 -1.946533620357513428e-01 -3.550251722335815430e-01 9.793470962904393673e-05 -1.064781695604324341e-01 -7.040427625179290771e-02
3.800000000000000000e+02 1.963103652000427246e+00 -5.278034210205078125e-01 -3.190015256404876709e-01 -1.103752851486206055e-02 -9.901171177625656128e-02 -1.687647104263305664e-01
3.810000000000000000e+02 6.975221633911132812e-01 -1.828634589910507202e-01 -2.926659397780895233e-02 -7.290564477443695068e-03 -1.096714753657579422e-02 -2.056954801082611084e-02
3.820000000000000000e+02 2.311627268791198730e-01 -3.789996504783630371e-01 -7.880989462137222290e-03 -1.247046794742345810e-02 -6.105437409132719040e-03 -6.653545424342155457e-03
3.830000000000000000e+02 4.852280616760253906e-01 -1.750710308551788330e-01 -1.042885798960924149e-02 -9.050429798662662506e-03 -5.843786522746086121e-03 -1.143159903585910797e-02
3.840000000000000000e+02 1.108332395553588867e+00 -1.638900786638259888e-01 -1.028743982315063477e-01 -4.411915317177772522e-03 -3.218589350581169128e-02 -3.483543917536735535e-02
3.850000000000000000e+02 5.902637958526611328e+00 1.572605222463607788e-01 -2.212661981582641602e+00 7.169675547629594803e-03 -6.616476774215698242e-01 6.574274599552154541e-02
3.860000000000000000e+02 6.129099369049072266e+00 4.393589794635772705e-01 -1.575314879417419434e+00 2.260436117649078369e-02 -4.658131599426269531e-01 1.035194620490074158e-01
3.870000000000000000e+02 4.142144203186035156e+00 4.426609277725219727e-01 -1.148802161216735840e+00 2.585663925856351852e-03 -3.438649475574493408e-01 2.003888189792633057e-01
3.880000000000000000e+02 6.708186626434326172e+00 1.365282684564590454e-01 -2.432119607925415039e+00 3.809244604781270027e-03 -7.284930944442749023e-01 4.056701809167861938e-02
3.890000000000000000e+02 7.697260856628417969e+00 -1.324286907911300659e-01 -2.064977407455444336e+00 -8.162061683833599091e-03 -6.219418048858642578e-01 2.292450703680515289e-02
3.900000000000000000e+02 7.104060173034667969e+00 -1.367662101984024048e-01 -2.177991151809692383e+00 3.855123370885848999e-02 -6.418319940567016602e-01 -2.197112143039703369e-02
3.910000000000000000e+02 5.630605220794677734e+00 -8.765625953674316406e-01 -5.461144447326660156e-01 6.623565405607223511e-02 -1.439636498689651489e-01 -7.148537784814834595e-02
3.920000000000000000e+02 5.046647071838378906e+00 -3.743271827697753906e-01 -1.330864787101745605e+00 4.114815033972263336e-03 -3.980250060558319092e-01 -1.248493418097496033e-01
3.930000000000000000e+02 4.523074150085449219e+00 3.954443335533142090e-01 -1.347338914871215820e+00 2.059339545667171478e-03 -4.035838842391967773e-01 1.776328980922698975e-01
3.940000000000000000e+02 4.711832046508789062e+00 3.474344015121459961e-01 -1.470766544342041016e+00 3.203829983249306679e-03 -4.402688145637512207e-01 1.589695960283279419e-01
3.950000000000000000e+02 7.698516368865966797e+00 4.180117547512054443e-01 -9.730129837989807129e-01 1.042934879660606384e-01 -2.606158554553985596e-01 -2.313476800918579102e-01
3.960000000000000000e+02 6.700313091278076172e+00 -3.808155059814453125e-01 -1.354225039482116699e+00 1.674273237586021423e-02 -4.012446999549865723e-01 -2.475426346063613892e-02
3.970000000000000000e+02 6.088542938232421875e+00 -3.830642998218536377e-01 -1.458115458488464355e+00 2.302082628011703491e-02 -4.305283725261688232e-01 -7.234404236078262329e-02
3.980000000000000000e+02 4.089779376983642578e+00 -1.334567815065383911e-01 -1.297430515289306641e+00 -7.608274929225444794e-03 -3.915116190910339355e-01 -6.157895922660827637e-02
3.990000000000000000e+02 1.088611483573913574e-01 -1.175893902778625488e+00 6.258170586079359055e-03 -8.662449568510055542e-02 -2.410989813506603241e-02 -1.287090126425027847e-02
4.000000000000000000e+02 1.197042241692543030e-01 -7.250900864601135254e-01 -3.707375377416610718e-03 -2.746423892676830292e-02 -9.351484477519989014e-03 -1.370362937450408936e-02
4.010000000000000000e+02 3.080295920372009277e-01 1.164847373962402344e+00 3.659546375274658203e-03 -1.243316084146499634e-01 -3.620161861181259155e-02 5.475116521120071411e-02
4.020000000000000000e+02 3.398019671440124512e-01 -9.332243800163269043e-01 -1.390789635479450226e-02 -8.060012757778167725e-02 -2.835240587592124939e-02 -5.163617804646492004e-02
4.030000000000000000e+02 1.505174279212951660e+00 -1.053133010864257812e+00 -1.483451128005981445e-01 -7.168298959732055664e-02 -6.600843369960784912e-02 -2.460920214653015137e-01
4.040000000000000000e+02 9.072464108467102051e-01 -1.675877422094345093e-01 -6.031800433993339539e-02 -5.103365518152713776e-03 -1.962641067802906036e-02 -2.849067188799381256e-02
4.050000000000000000e+02 3.997492194175720215e-01 -4.502246081829071045e-01 -2.112140879034996033e-02 -2.123712562024593353e-02 -1.270756032317876816e-02 -2.094501256942749023e-02
4.060000000000000000e+02 6.008073329925537109e+00 -9.523974061012268066e-01 -3.254690766334533691e-01 9.869285672903060913e-02 -6.803286075592041016e-02 3.879311308264732361e-02
4.070000000000000000e+02 8.651900291442871094e+00 8.789014220237731934e-01 3.461045503616333008e+00 1.892318844795227051e+00 1.606009244918823242e+00 -3.164053440093994141e+00
4.080000000000000000e+02 1.731535434722900391e+00 7.469242811203002930e-01 -2.618101835250854492e-01 -4.254960641264915466e-02 -9.130793809890747070e-02 2.398510277271270752e-01
4.090000000000000000e+02 3.018066883087158203e-01 9.518908262252807617e-01 -1.552688889205455780e-02 -9.389177709817886353e-02 -3.282560035586357117e-02 6.364162266254425049e-02
4.100000000000000000e+02 6.622801303863525391e+00 9.074098467826843262e-01 -3.248645961284637451e-01 1.610686779022216797e-01 -4.913877695798873901e-02 -1.856096684932708740e-01
4.110000000000000000e+02 5.909246444702148438e+00 4.538686871528625488e-01 -1.521840810775756836e+00 1.056356076151132584e-02 -4.533831775188446045e-01 1.202014014124870300e-01
4.120000000000000000e+02 6.162439823150634766e+00 7.207787036895751953e-01 -9.236248135566711426e-01 6.910724937915802002e-02 -2.563552856445312500e-01 2.957318164408206940e-02
4.130000000000000000e+02 6.994360446929931641e+00 8.569750189781188965e-01 -8.861086517572402954e-02 2.033443450927734375e-01 3.442004323005676270e-02 -3.350181579589843750e-01
4.140000000000000000e+02 5.450508117675781250e+00 -8.567239046096801758e-01 -6.141612529754638672e-01 6.394245475530624390e-02 -1.650656461715698242e-01 -1.136688366532325745e-01
4.150000000000000000e+02 2.871636390686035156e+00 7.811645865440368652e-01 -5.573644638061523438e-01 -9.616575203835964203e-03 -1.700943112373352051e-01 3.029522895812988281e-01
4.160000000000000000e+02 5.379126071929931641e+00 -1.084372639656066895e+00 -3.170610666275024414e-01 9.737296402454376221e-02 -6.590642780065536499e-02 -7.472094148397445679e-02
4.170000000000000000e+02 1.398319959640502930e+00 7.668839693069458008e-01 -1.817451864480972290e-01 -5.557049065828323364e-02 -7.119470089673995972e-02 2.082030922174453735e-01
4.180000000000000000e+02 6.539139270782470703e+00 -7.426691055297851562e-01 -4.955509603023529053e-01 8.872675895690917969e-02 -1.220472604036331177e-01 8.219771087169647217e-02
4.190000000000000000e+02 8.926049232482910156e+00 1.086104631423950195e+00 4.447450160980224609e+00 4.322874069213867188e+00 2.631097316741943359e+00 -5.157340049743652344e+00
4.200000000000000000e+02 8.306077003479003906e+00 -5.263161063194274902e-01 1.121330857276916504e+00 2.599817216396331787e-01 4.143937528133392334e-01 8.808146715164184570e-01
4.210000000000000000e+02 7.307789921760559082e-01 8.630416393280029297e-01 -6.017987802624702454e-02 -9.274367988109588623e-02 -4.587706923484802246e-02 1.275732666254043579e-01
4.220000000000000000e+02 1.100474834442138672e+00 1.160607099533081055e+00 -9.743674844503402710e-02 -1.222057417035102844e-01 -6.589274853467941284e-02 2.233760505914688110e-01
4.230000000000000000e+02 7.306941032409667969e+00 3.945715725421905518e-01 -1.393930315971374512e+00 7.337810844182968140e-02 -3.961656689643859863e-01 -6.869485229253768921e-02
4.240000000000000000e+02 7.039049625396728516e+00 -1.044562935829162598e+00 5.640646815299987793e-01 2.862634360790252686e-01 2.550984323024749756e-01 5.777183771133422852e-01
4.250000000000000000e+02 1.023482680320739746e-01 1.177505373954772949e+00 -9.466223418712615967e-03 -1.116442978382110596e-01 -3.633315861225128174e-02 2.867296896874904633e-02
4.260000000000000000e+02 2.894755125045776367e+00 4.842920303344726562e-01 -6.831026673316955566e-01 -1.231427025049924850e-02 -2.086250782012939453e-01 2.193397581577301025e-01
4.270000000000000000e+02 2.489332199096679688e+00 -7.762782573699951172e-01 -3.908874690532684326e-01 -1.564603298902511597e-02 -1.219600513577461243e-01 -2.604405879974365234e-01
4.280000000000000000e+02 2.900695800781250000e-01 7.499809861183166504e-01 -1.249503437429666519e-02 -5.327229946851730347e-02 -1.973019912838935852e-02 3.864976391196250916e-02
4.290000000000000000e+02 5.359550952911376953e+00 8.854522109031677246e-01 -7.625866532325744629e-01 5.205576121807098389e-02 -2.131592631340026855e-01 1.701533794403076172e-01
4.300000000000000000e+02 5.542640686035156250e+00 9.272234439849853516e-01 -6.782213449478149414e-01 8.920244872570037842e-02 -1.767056584358215332e-01 1.309971362352371216e-01
4.310000000000000000e+02 2.289767265319824219e+00 4.532178044319152832e-01 -4.806900620460510254e-01 -9.285976178944110870e-03 -1.469928175210952759e-01 1.843504905700683594e-01
4.320000000000000000e+02 5.462149143218994141e+00 -6.578353047370910645e-01 -9.298363327980041504e-01 3.033087961375713348e-02 -2.698516547679901123e-01 -1.165647357702255249e-01
4.330000000000000000e+02 2.269171953201293945e+00 -1.086358547210693359e+00 -2.519593238830566406e-01 -3.755004331469535828e-02 -8.685281127691268921e-02 -3.024251461029052734e-01
4.340000000000000000e+02 2.378907203674316406e+00 6.428192853927612305e-01 -4.522885978221893311e-01 -2.042629010975360870e-02 -1.418144702911376953e-01 2.551015019416809082e-01
4.350000000000000000e+02 6.141150951385498047e+00 -8.237398862838745117e-01 -4.984108805656433105e-01 9.265413135290145874e-02 -1.217270195484161377e-01 2.182230539619922638e-02
4.360000000000000000e+02 6.323180675506591797e+00 1.092329025268554688e+00 -1.328564435243606567e-01 1.922308802604675293e-01 1.781233586370944977e-02 -1.618131399154663086e-01
4.370000000000000000e+02 1.305986762046813965e+00 -1.038612484931945801e+00 -1.219396516680717468e-01 -8.404883742332458496e-02 -6.179654598236083984e-02 -2.180431932210922241e-01
4.380000000000000000e+02 8.587377548217773438e+00 -7.035877108573913574e-01 3.015664339065551758e+00 9.524237513542175293e-01 1.190426349639892578e+00 2.124320268630981445e+00
4.390000000000000000e+02 8.888291358947753906e+00 8.244770765304565430e-01 4.428256034851074219e+00 2.727018594741821289e+00 2.146582365036010742e+00 -4.104881286621093750e+00
4.400000000000000000e+02 9.206407070159912109e-01 -9.558174610137939453e-01 -7.587226480245590210e-02 -9.733648598194122314e-02 -5.196262523531913757e-02 -1.611834317445755005e-01
4.410000000000000000e+02 7.071588516235351562e+00 -7.870962619781494141e-01 -1.435161102563142776e-02 1.677201241254806519e-01 4.601055383682250977e-02 3.219662010669708252e-01
4.420000000000000000e+02 6.807122230529785156e+00 8.832761049270629883e-01 -2.404023706912994385e-01 1.837633103132247925e-01 -1.699171774089336395e-02 -2.642825543880462646e-01
4.430000000000000000e+02 2.893933951854705811e-01 5.528285503387451172e-01 -1.575184240937232971e-02 -2.675558626651763916e-02 -1.275222841650247574e-02 2.177374623715877533e-02
4.440000000000000000e+02 8.357096672058105469e+00 7.064750790596008301e-01 1.956349253654479980e+00 7.279526591300964355e-01 8.052905797958374023e-01 -1.639206409454345703e+00
4.450000000000000000e+02 8.270479202270507812e+00 -1.023632287979125977e+00 2.860653400421142578e+00 1.342236399650573730e+00 1.260866880416870117e+00 2.336079120635986328e+00
4.460000000000000000e+02 7.560356140136718750e+00 -5.348212122917175293e-01 -3.260998725891113281e-01 1.329788863658905029e-01 -5.793629586696624756e-02 2.439114898443222046e-01
4.470000000000000000e+02 7.259362220764160156e+00 1.051796913146972656e+00 5.948233604431152344e-01 4.268844425678253174e-01 3.065123558044433594e-01 -7.397894263267517090e-01
4.480000000000000000e+02 7.634734630584716797e+00 -7.674847245216369629e-01 6.265349388122558594e-01 2.418664544820785522e-01 2.605204284191131592e-01 6.390467286109924316e-01
4.490000000000000000e+02 7.500674247741699219e+00 -1.233047172427177429e-01 -2.125448465347290039e+00 2.548350580036640167e-02 -6.299895048141479492e-01 7.770651951432228088e-03
4.500000000000000000e+02 8.504671096801757812e+00 -5.204694271087646484e-01 1.740586757659912109e+00 6.088116765022277832e-01 7.048195600509643555e-01 1.248461723327636719e+00
4.510000000000000000e+02 8.111049652099609375e+00 1.055274009704589844e+00 2.231707811355590820e+00 1.198427081108093262e+00 1.029040455818176270e+00 -2.059940814971923828e+00
4.520000000000000000e+02 7.257553100585937500e+00 -1.072890400886535645e+00 8.988298177719116211e-01 4.561883509159088135e-01 4.065054357051849365e-01 8.072593212127685547e-01
4.530000000000000000e+02 7.485047340393066406e+00 1.028296947479248047e+00 9.131135344505310059e-01 5.103423595428466797e-01 4.270367622375488281e-01 -9.444090723991394043e-01
4.540000000000000000e+02 7.503221988677978516e+00 -3.444402813911437988e-01 -1.274582266807556152e+00 -5.486314650624990463e-03 -3.840205669403076172e-01 7.370702922344207764e-02
4.550000000000000000e+02 7.271910309791564941e-01 -4.768870770931243896e-01 -5.711393803358078003e-02 -2.987889386713504791e-02 -2.609784901142120361e-02 -6.202103197574615479e-02
4.560000000000000000e+02 5.073539614677429199e-01 3.733407557010650635e-01 -2.621532604098320007e-02 -1.630601100623607635e-02 -1.275640074163675308e-02 2.633551135659217834e-02
4.570000000000000000e+02 5.345447063446044922e-01 -5.940663814544677734e-01 -3.305911272764205933e-02 -4.736968502402305603e-02 -2.412864007055759430e-02 -5.242677778005599976e-02
4.580000000000000000e+02 8.786366462707519531e+00 -1.085190057754516602e+00 4.242795467376708984e+00 3.389953136444091797e+00 2.289824485778808594e+00 4.356229782104492188e+00
4.590000000000000000e+02 8.593629837036132812e+00 -1.034714937210083008e+00 3.798535346984863281e+00 2.133561134338378906e+00 1.779628992080688477e+00 3.401715993881225586e+00
4.600000000000000000e+02 6.814255237579345703e+00 -9.600764513015747070e-01 2.061084210872650146e-01 2.292818427085876465e-01 1.306170821189880371e-01 3.779187500476837158e-01
4.610000000000000000e+02 6.570720672607421875e+00 6.667274236679077148e-01 -9.206719398498535156e-01 6.909791380167007446e-02 -2.554722130298614502e-01 -3.009552694857120514e-02
4.620000000000000000e+02 1.317675113677978516e+00 -7.443127632141113281e-01 -1.497711837291717529e-01 -4.814378917217254639e-02 -5.937449261546134949e-02 -1.739152073860168457e-01
4.630000000000000000e+02 1.223283410072326660e+00 8.314480781555175781e-01 -1.466165333986282349e-01 -7.840888947248458862e-02 -6.750762462615966797e-02 2.004974633455276489e-01
4.640000000000000000e+02 1.124009132385253906e+00 9.628332853317260742e-01 -1.228310018777847290e-01 -9.299837797880172729e-02 -6.474881619215011597e-02 2.121098339557647705e-01
4.650000000000000000e+02 1.105970025062561035e+00 -1.018557906150817871e+00 -9.745666384696960449e-02 -8.853003382682800293e-02 -5.579601228237152100e-02 -1.919284462928771973e-01
4.660000000000000000e+02 6.378637790679931641e+00 -9.857322573661804199e-01 -5.759363621473312378e-02 1.529510468244552612e-01 2.860722132027149200e-02 1.818268895149230957e-01
4.670000000000000000e+02 5.866957187652587891e+00 1.163851737976074219e+00 -2.105672359466552734e-01 1.635137498378753662e-01 -1.411604974418878555e-02 -2.924215048551559448e-02
4.680000000000000000e+02 1.514773011207580566e+00 -7.613509893417358398e-01 -1.850954443216323853e-01 -4.328267276287078857e-02 -6.851343065500259399e-02 -1.935739517211914062e-01
4.690000000000000000e+02 1.444802045822143555e+00 9.431028366088867188e-01 -1.764500886201858521e-01 -7.846789807081222534e-02 -7.647539675235748291e-02 2.487448304891586304e-01
4.700000000000000000e+02 5.619352817535400391e+00 7.003617882728576660e-01 -1.066584706306457520e+00 3.039923310279846191e-02 -3.108556270599365234e-01 1.415273100137710571e-01
4.710000000000000000e+02 5.872273445129394531e+00 -6.479326486587524414e-01 -9.031985998153686523e-01 4.832761362195014954e-02 -2.564612925052642822e-01 -7.194025069475173950e-02
4.720000000000000000e+02 1.927343726158142090e+00 -8.159897327423095703e-01 -2.653701901435852051e-01 -3.051929734647274017e-02 -8.876685053110122681e-02 -2.433459609746932983e-01
4.730000000000000000e+02 1.836697220802307129e+00 4.731300473213195801e-01 -3.240087628364562988e-01 -2.198159694671630859e-02 -1.037971079349517822e-01 1.715570092201232910e-01
4.740000000000000000e+02 4.484950065612792969e+00 -4.092569947242736816e-01 -1.144532680511474609e+00 6.338418927043676376e-03 -3.414582908153533936e-01 -1.485108137130737305e-01
4.750000000000000000e+02 5.682041645050048828e+00 4.423465132713317871e-01 -1.526856064796447754e+00 1.017366535961627960e-02 -4.550046920776367188e-01 1.309026032686233521e-01
4.760000000000000000e+02 2.226099729537963867e+00 -6.453637480735778809e-01 -3.652504980564117432e-01 -1.310474053025245667e-02 -1.135065779089927673e-01 -2.160799652338027954e-01
4.770000000000000000e+02 2.478810548782348633e+00 4.491901397705078125e-01 -5.524944067001342773e-01 -1.220093015581369400e-02 -1.694086045026779175e-01 1.907444894313812256e-01
4.780000000000000000e+02 5.702065944671630859e+00 9.720186591148376465e-01 -6.051322221755981445e-01 8.286808431148529053e-02 -1.566792279481887817e-01 9.283197671175003052e-02
4.790000000000000000e+02 9.861344695091247559e-01 4.200553297996520996e-01 -1.069769635796546936e-01 -2.433178387582302094e-02 -3.939262405037879944e-02 8.761075139045715332e-02
4.800000000000000000e+02 6.865882396697998047e+00 -6.946779489517211914e-01 -3.962897062301635742e-01 8.006374537944793701e-02 -9.486778825521469116e-02 1.604422777891159058e-01
4.810000000000000000e+02 2.091331005096435547e+00 -1.111598134040832520e+00 -2.122909575700759888e-01 -4.485900327563285828e-02 -7.714498788118362427e-02 -2.963180243968963623e-01
4.820000000000000000e+02 7.375257492065429688e+00 -5.870767831802368164e-01 -3.180297911167144775e-01 8.735694736242294312e-02 -6.920184940099716187e-02 2.402991205453872681e-01
4.830000000000000000e+02 8.118208885192871094e+00 7.375722527503967285e-01 1.314381241798400879e+00 5.382735729217529297e-01 5.557964444160461426e-01 -1.262718796730041504e+00
4.840000000000000000e+02 7.182654380798339844e+00 8.083785176277160645e-01 -4.257908090949058533e-02 2.019662559032440186e-01 4.781614989042282104e-02 -3.825030326843261719e-01
4.850000000000000000e+02 8.061659812927246094e+00 -7.544200420379638672e-01 1.484356522560119629e+00 4.258932769298553467e-01 5.730749368667602539e-01 1.126586675643920898e+00
4.860000000000000000e+02 2.288366317749023438e+00 1.105708003044128418e+00 -2.931728363037109375e-01 -4.760630801320075989e-02 -1.022337451577186584e-01 3.499561548233032227e-01
4.870000000000000000e+02 1.893611550331115723e+00 8.765718936920166016e-01 -2.801002860069274902e-01 -5.052944645285606384e-02 -9.918891638517379761e-02 2.756264507770538330e-01
4.880000000000000000e+02 5.572792530059814453e+00 -1.114845037460327148e+00 -2.091699093580245972e-01 1.255612671375274658e-01 -2.508259378373622894e-02 -2.338707260787487030e-02
4.890000000000000000e+02 3.494744300842285156e+00 -7.762568593025207520e-01 -6.014636158943176270e-01 5.008087027817964554e-03 -1.789366602897644043e-01 -2.571048736572265625e-01
4.900000000000000000e+02 4.491045475006103516e+00 -1.396871507167816162e-01 -1.461123824119567871e+00 -1.729623880237340927e-03 -4.388560354709625244e-01 -6.158487498760223389e-02
4.910000000000000000e+02 6.093074798583984375e+00 -6.247726082801818848e-01 -9.087837338447570801e-01 3.027423843741416931e-02 -2.635528445243835449e-01 -5.208356678485870361e-02
4.920000000000000000e+02 1.616156101226806641e+00 4.187647104263305664e-01 -2.584445774555206299e-01 -2.169601805508136749e-02 -8.404218405485153198e-02 1.427820324897766113e-01
4.930000000000000000e+02 8.265336036682128906e+00 -7.771984934806823730e-01 2.035786151885986328e+00 6.865564584732055664e-01 8.167027831077575684e-01 1.553288459777832031e+00
4.940000000000000000e+02 3.040254831314086914e+00 -6.597338318824768066e-01 -5.568792223930358887e-01 -5.748110823333263397e-03 -1.687881946563720703e-01 -2.404277920722961426e-01
4.950000000000000000e+02 3.182293653488159180e+00 -1.286990880966186523e+00 -2.430408000946044922e-01 7.293634116649627686e-03 -7.072415202856063843e-02 -3.364087045192718506e-01
4.960000000000000000e+02 3.700124979019165039e+00 -8.394787311553955078e-01 -5.963152647018432617e-01 5.008533131331205368e-03 -1.773920208215713501e-01 -2.675466239452362061e-01
4.970000000000000000e+02 3.234292745590209961e+00 -8.975617885589599609e-01 -4.778387546539306641e-01 1.125829949160106480e-04 -1.433178484439849854e-01 -2.832472324371337891e-01
4.980000000000000000e+02 4.274090766906738281e+00 6.616340279579162598e-01 -9.679610133171081543e-01 6.297438871115446091e-03 -2.884990572929382324e-01 2.496267408132553101e-01
4.990000000000000000e+02 4.685798168182373047e+00 8.589065670967102051e-01 -8.105497956275939941e-01 4.880873858928680420e-02 -2.285223305225372314e-01 2.727031707763671875e-01
5.000000000000000000e+02 4.787053108215332031e+00 -5.285969376564025879e-01 -1.063159823417663574e+00 -5.255691939964890480e-04 -3.191055953502655029e-01 -1.630178540945053101e-01
5.010000000000000000e+02 5.083986759185791016e+00 3.485971391201019287e-01 -1.591761827468872070e+00 7.656469009816646576e-03 -4.752316176891326904e-01 1.382769942283630371e-01
5.020000000000000000e+02 3.631146907806396484e+00 8.523319959640502930e-01 -6.712774634361267090e-01 3.855048911646008492e-03 -2.002267241477966309e-01 3.298841416835784912e-01
5.030000000000000000e+02 4.899170875549316406e+00 1.217303648591041565e-01 -1.843262434005737305e+00 -3.312236396595835686e-03 -5.539724230766296387e-01 6.473945081233978271e-02
5.040000000000000000e+02 4.058701515197753906e+00 -3.757579624652862549e-01 -1.055140018463134766e+00 6.926764617674052715e-04 -3.163341879844665527e-01 -1.522063761949539185e-01
5.050000000000000000e+02 4.264520168304443359e+00 -4.013584554195404053e-01 -1.085127592086791992e+00 2.384886378422379494e-03 -3.248228132724761963e-01 -1.525809466838836670e-01
5.060000000000000000e+02 3.877544403076171875e+00 -3.376358151435852051e-01 -1.026316881179809570e+00 -1.267042243853211403e-03 -3.082751929759979248e-01 -1.444561779499053955e-01
5.070000000000000000e+02 3.712341070175170898e+00 1.157479882240295410e+00 -4.605870842933654785e-01 2.166562899947166443e-02 -1.316764354705810547e-01 3.580494821071624756e-01
5.080000000000000000e+02 4.289303779602050781e+00 -1.402549445629119873e-01 -1.381567716598510742e+00 3.427580464631319046e-03 -4.134420454502105713e-01 -6.339136511087417603e-02
5.090000000000000000e+02 7.154691219329833984e-01 1.531558632850646973e-01 -2.958785928785800934e-02 3.060532908421009779e-04 -8.784541860222816467e-03 1.772435940802097321e-02
5.100000000000000000e+02 1.283971667289733887e+00 1.132958233356475830e-01 -1.514166891574859619e-01 -5.231540650129318237e-03 -4.699447005987167358e-02 3.009192459285259247e-02
5.110000000000000000e+02 1.194373726844787598e+00 2.879570126533508301e-01 -1.473561674356460571e-01 -1.014272775501012802e-02 -4.724966734647750854e-02 7.950557023286819458e-02
5.120000000000000000e+02 1.338330149650573730e+00 5.902330279350280762e-01 -1.775599718093872070e-01 -3.548179566860198975e-02 -6.391253322362899780e-02 1.511487513780593872e-01
5.130000000000000000e+02 2.866396605968475342e-01 -1.433311402797698975e-01 5.751671778853051364e-05 -3.545649349689483643e-03 -1.046439749188721180e-03 -1.607367419637739658e-03
5.140000000000000000e+02 9.295687675476074219e-01 -4.499128460884094238e-01 -8.857269585132598877e-02 -2.437280863523483276e-02 -3.388364985585212708e-02 -7.890999317169189453e-02
5.150000000000000000e+02 1.123660087585449219e+00 -4.487942457199096680e-01 -1.223886087536811829e-01 -2.283587120473384857e-02 -4.356734454631805420e-02 -9.715636819601058960e-02
5.160000000000000000e+02 1.509488821029663086e+00 -1.704776585102081299e-01 -2.131433337926864624e-01 -4.837485495954751968e-03 -6.539424508810043335e-02 -4.988944157958030701e-02
5.170000000000000000e+02 1.318691968917846680e+00 -4.570011496543884277e-01 -1.642038971185684204e-01 -2.095242775976657867e-02 -5.554689466953277588e-02 -1.138342767953872681e-01
5.180000000000000000e+02 1.519290566444396973e+00 -4.702608585357666016e-01 -2.098989635705947876e-01 -2.273003011941909790e-02 -6.978870183229446411e-02 -1.330992132425308228e-01
5.190000000000000000e+02 2.330801010131835938e+00 -1.092834845185279846e-01 -5.230701565742492676e-01 1.031936425715684891e-02 -1.538252383470535278e-01 -4.065420851111412048e-02
5.200000000000000000e+02 2.330002546310424805e+00 -4.076521396636962891e-01 -4.512404799461364746e-01 -4.480870906263589859e-03 -1.367164105176925659e-01 -1.582196503877639771e-01
5.210000000000000000e+02 2.854635238647460938e+00 -3.763575851917266846e-01 -6.382803320884704590e-01 -9.577076882123947144e-03 -1.943572312593460083e-01 -1.523226052522659302e-01
5.220000000000000000e+02 2.888637542724609375e+00 -1.353092640638351440e-01 -7.677729725837707520e-01 -1.093091629445552826e-02 -2.336111664772033691e-01 -5.595635622739791870e-02
5.230000000000000000e+02 3.525556325912475586e+00 -4.008805751800537109e-01 -8.562050461769104004e-01 -3.674658248201012611e-03 -2.579638957977294922e-01 -1.640261709690093994e-01
5.240000000000000000e+02 3.712824344635009766e+00 -3.425129950046539307e-01 -9.606186151504516602e-01 3.306142985820770264e-03 -2.871937453746795654e-01 -1.429651379585266113e-01
5.250000000000000000e+02 3.153147101402282715e-01 -1.170158624649047852e+00 1.453866064548492432e-02 -1.341627687215805054e-01 -3.588723391294479370e-02 -5.839678645133972168e-02
5.260000000000000000e+02 1.098998665809631348e+00 1.383973240852355957e+00 -7.382728904485702515e-02 -1.686908006668090820e-01 -7.275542616844177246e-02 2.638090252876281738e-01
5.270000000000000000e+02 9.132696986198425293e-01 1.139184236526489258e+00 -6.569150835275650024e-02 -1.409241855144500732e-01 -6.198470667004585266e-02 2.003246843814849854e-01
5.280000000000000000e+02 1.297700524330139160e+00 1.380959510803222656e+00 -9.821815788745880127e-02 -1.479218155145645142e-01 -7.384199649095535278e-02 2.841459512710571289e-01
5.290000000000000000e+02 2.104677677154541016e+00 1.142934083938598633e+00 -2.536991834640502930e-01 -6.342023611068725586e-02 -9.513583034276962280e-02 3.593677282333374023e-01
5.300000000000000000e+02 2.105922222137451172e+00 1.380057573318481445e+00 -1.969461292028427124e-01 -7.744622230529785156e-02 -8.231770247220993042e-02 3.802591562271118164e-01
5.310000000000000000e+02 2.472120761871337891e+00 8.260114192962646484e-01 -4.301635921001434326e-01 -1.926881074905395508e-02 -1.348297148942947388e-01 3.068781197071075439e-01
5.320000000000000000e+02 2.684350728988647461e+00 1.070449829101562500e+00 -3.746706247329711914e-01 -1.982679218053817749e-02 -1.183492317795753479e-01 3.718623220920562744e-01
5.330000000000000000e+02 5.014388561248779297e-01 -1.180073738098144531e+00 -2.271691337227821350e-02 -1.594482660293579102e-01 -5.464955419301986694e-02 -1.192241534590721130e-01
5.340000000000000000e+02 1.898589730262756348e+00 -1.361667275428771973e+00 -1.422241777181625366e-01 -7.295646518468856812e-02 -6.455419212579727173e-02 -3.146877884864807129e-01
5.350000000000000000e+02 2.706937789916992188e+00 -1.351746082305908203e+00 -2.022106796503067017e-01 -1.993670314550399780e-02 -6.664421409368515015e-02 -3.425247073173522949e-01
5.360000000000000000e+02 3.278998136520385742e+00 -1.419653534889221191e+00 -2.124889791011810303e-01 1.346553023904561996e-02 -5.970703437924385071e-02 -3.291003406047821045e-01
5.370000000000000000e+02 3.459973573684692383e+00 -1.375302791595458984e+00 -2.279793471097946167e-01 3.434116393327713013e-02 -5.809145420789718628e-02 -3.221468627452850342e-01
5.380000000000000000e+02 3.894383430480957031e+00 -1.369561672210693359e+00 -2.415024489164352417e-01 5.565874651074409485e-02 -5.575310811400413513e-02 -2.739283144474029541e-01
5.390000000000000000e+02 4.101588249206542969e+00 -1.380870103836059570e+00 -1.870040446519851685e-01 6.083488464355468750e-02 -3.785074874758720398e-02 -2.394280582666397095e-01
5.400000000000000000e+02 4.473862648010253906e+00 -1.373406052589416504e+00 -1.861633360385894775e-01 9.056340903043746948e-02 -2.867997810244560242e-02 -1.961846947669982910e-01
5.410000000000000000e+02 4.413926601409912109e+00 -9.825900197029113770e-01 -5.121793150901794434e-01 3.830466419458389282e-02 -1.421623975038528442e-01 -2.373831123113632202e-01
5.420000000000000000e+02 4.651007652282714844e+00 -1.034792780876159668e+00 -4.535790979862213135e-01 5.093012750148773193e-02 -1.207946985960006714e-01 -2.086135894060134888e-01
5.430000000000000000e+02 2.698109626770019531e+00 1.353659868240356445e+00 -2.661479711532592773e-01 -3.393941000103950500e-02 -9.002621471881866455e-02 4.056379199028015137e-01
5.440000000000000000e+02 3.203837871551513672e+00 1.046766161918640137e+00 -4.727119803428649902e-01 -9.115540422499179840e-03 -1.445482522249221802e-01 3.643733263015747070e-01
5.450000000000000000e+02 3.536650180816650391e+00 1.156954050064086914e+00 -4.483333528041839600e-01 1.654620282351970673e-02 -1.295361369848251343e-01 3.715921044349670410e-01
5.460000000000000000e+02 3.511688947677612305e+00 1.383489131927490234e+00 -3.187210857868194580e-01 3.171950578689575195e-02 -8.610047399997711182e-02 3.937643170356750488e-01
5.470000000000000000e+02 4.290624618530273438e+00 1.364819407463073730e+00 -3.237493336200714111e-01 7.357702404260635376e-02 -7.505168765783309937e-02 2.945068776607513428e-01
5.480000000000000000e+02 4.488964080810546875e+00 1.358513236045837402e+00 -3.129747807979583740e-01 8.887661248445510864e-02 -6.722944229841232300e-02 2.637515664100646973e-01
5.490000000000000000e+02 4.898042678833007812e+00 1.361506700515747070e+00 -2.521858811378479004e-01 1.246970444917678833e-01 -3.824665769934654236e-02 1.815281361341476440e-01
5.500000000000000000e+02 5.317640781402587891e+00 1.127145648002624512e+00 -4.443836212158203125e-01 1.095348224043846130e-01 -1.004546359181404114e-01 1.430096626281738281e-01
5.510000000000000000e+02 5.302229404449462891e+00 1.374965667724609375e+00 -1.512756645679473877e-01 1.634626686573028564e-01 3.656101645901799202e-03 7.384403049945831299e-02
5.520000000000000000e+02 6.038267612457275391e+00 1.127481818199157715e+00 -1.870529949665069580e-01 1.860949695110321045e-01 -2.874054480344057083e-04 -6.556778401136398315e-02
5.530000000000000000e+02 5.891308784484863281e+00 1.382144212722778320e+00 9.456427395343780518e-02 2.705144286155700684e-01 1.095236167311668396e-01 -1.432515829801559448e-01
5.540000000000000000e+02 5.990163803100585938e+00 9.407597780227661133e-01 -5.812177062034606934e-01 9.745106101036071777e-02 -1.451300084590911865e-01 2.644487656652927399e-02
5.550000000000000000e+02 6.492058277130126953e+00 1.148414731025695801e+00 1.079179346561431885e-01 2.931895256042480469e-01 1.203322410583496094e-01 -2.853766679763793945e-01
5.560000000000000000e+02 6.495021343231201172e+00 1.377065539360046387e+00 4.815121889114379883e-01 4.064804613590240479e-01 2.663978040218353271e-01 -4.844182729721069336e-01
5.570000000000000000e+02 6.886942863464355469e+00 1.372913599014282227e+00 7.514443993568420410e-01 5.487895607948303223e-01 3.900701999664306641e-01 -7.641927003860473633e-01
5.580000000000000000e+02 7.049162387847900391e+00 1.097934365272521973e+00 4.585379064083099365e-01 3.910577893257141113e-01 2.548786997795104980e-01 -6.315689682960510254e-01
5.590000000000000000e+02 7.699464797973632812e+00 1.070272088050842285e+00 1.344256162643432617e+00 7.502453923225402832e-01 6.283504962921142578e-01 -1.288693070411682129e+00
5.600000000000000000e+02 7.895280361175537109e+00 1.076510429382324219e+00 1.766312718391418457e+00 9.118083119392395020e-01 8.034362792968750000e-01 -1.647154808044433594e+00
5.610000000000000000e+02 8.438706398010253906e+00 9.416235089302062988e-01 2.862702131271362305e+00 1.502995610237121582e+00 1.309709310531616211e+00 -2.615233421325683594e+00
5.620000000000000000e+02 8.499334335327148438e+00 1.141542434692382812e+00 3.396892070770263672e+00 2.419801712036132812e+00 1.745008111000061035e+00 -3.419315099716186523e+00
5.630000000000000000e+02 8.500323295593261719e+00 1.375605583190917969e+00 3.329796075820922852e+00 3.105641126632690430e+00 1.930631160736083984e+00 -3.872667789459228516e+00
5.640000000000000000e+02 9.372192382812500000e+00 1.157221794128417969e+00 4.339339733123779297e+00 9.577071189880371094e+00 4.174923419952392578e+00 -7.275125026702880859e+00
5.650000000000000000e+02 1.009897041320800781e+01 1.360965251922607422e+00 1.667655706405639648e+00 1.874962615966796875e+01 6.125184535980224609e+00 -4.634021282196044922e+00
5.660000000000000000e+02 1.029183864593505859e+01 1.070809483528137207e+00 2.458916664123535156e+00 2.255028343200683594e+01 7.502760410308837891e+00 -2.752135753631591797e+00
5.670000000000000000e+02 1.094621753692626953e+01 1.065440058708190918e+00 4.721394538879394531e+00 1.961995315551757812e+01 7.302403926849365234e+00 1.654736042022705078e+00
5.680000000000000000e+02 1.105038261413574219e+01 9.287655949592590332e-01 6.548822879791259766e+00 1.909243774414062500e+01 7.692378044128417969e+00 2.535414218902587891e+00
5.690000000000000000e+02 1.134867191314697266e+01 4.438386559486389160e-01 1.069904708862304688e+01 1.623443412780761719e+01 8.080044746398925781e+00 1.908574223518371582e+00
5.700000000000000000e+02 1.137658119201660156e+01 1.111932620406150818e-01 1.186703777313232422e+01 1.541328048706054688e+01 8.184095382690429688e+00 2.832860946655273438e-01
5.710000000000000000e+02 1.135768222808837891e+01 -8.660465478897094727e-02 1.208257961273193359e+01 1.548530197143554688e+01 8.270364761352539062e+00 -6.759430766105651855e-01
5.720000000000000000e+02 1.114956474304199219e+01 -7.495307922363281250e-01 8.240653038024902344e+00 1.800643730163574219e+01 7.874127388000488281e+00 -3.070893049240112305e+00
5.730000000000000000e+02 1.055389499664306641e+01 -9.605528712272644043e-01 4.276234149932861328e+00 2.300720787048339844e+01 8.185032844543457031e+00 -6.872956752777099609e-01
5.740000000000000000e+02 9.789915084838867188e+00 -1.310788512229919434e+00 2.642287969589233398e+00 1.551126670837402344e+01 5.446066379547119141e+00 6.428993701934814453e+00
5.750000000000000000e+02 9.878663063049316406e+00 -1.433499455451965332e+00 1.973405599594116211e+00 1.625036239624023438e+01 5.467130184173583984e+00 5.534005641937255859e+00
5.760000000000000000e+02 9.613013267517089844e+00 -1.223307251930236816e+00 3.564298629760742188e+00 1.325372886657714844e+01 5.045408248901367188e+00 7.153586387634277344e+00
5.770000000000000000e+02 9.401084899902343750e+00 -1.164552330970764160e+00 4.498467922210693359e+00 9.805060386657714844e+00 4.291058540344238281e+00 7.175386905670166016e+00
5.780000000000000000e+02 9.330183982849121094e+00 -1.384363412857055664e+00 3.714580297470092773e+00 9.391473770141601562e+00 3.931816101074218750e+00 6.539069175720214844e+00
5.790000000000000000e+02 8.930303573608398438e+00 -1.360448479652404785e+00 4.040987014770507812e+00 5.471278667449951172e+00 2.853679656982421875e+00 5.302711963653564453e+00
5.800000000000000000e+02 8.432847976684570312e+00 -8.934742808341979980e-01 2.917983531951904297e+00 1.300142645835876465e+00 1.265437841415405273e+00 2.339520692825317383e+00
5.810000000000000000e+02 7.889681339263916016e+00 -1.347106099128723145e+00 2.428855180740356445e+00 1.405877351760864258e+00 1.150419831275939941e+00 2.165738105773925781e+00
5.820000000000000000e+02 7.666182994842529297e+00 -1.057257175445556641e+00 1.633047699928283691e+00 6.310203075408935547e-01 6.792203783988952637e-01 1.251320719718933105e+00
5.830000000000000000e+02 7.463826179504394531e+00 -1.071149468421936035e+00 1.219438552856445312e+00 4.731680154800415039e-01 5.077819824218750000e-01 9.696546196937561035e-01
5.840000000000000000e+02 7.487630367279052734e+00 -1.353373289108276367e+00 1.775447607040405273e+00 8.989019989967346191e-01 8.023048639297485352e-01 1.489333748817443848e+00
5.850000000000000000e+02 6.558133602142333984e+00 -1.260167956352233887e+00 5.717081427574157715e-01 3.329921960830688477e-01 2.714101076126098633e-01 4.743497371673583984e-01
5.860000000000000000e+02 6.502818107604980469e+00 -1.416561841964721680e+00 6.819415688514709473e-01 4.149878621101379395e-01 3.290788233280181885e-01 5.531928539276123047e-01
5.870000000000000000e+02 5.915615558624267578e+00 -1.386669874191284180e+00 3.047225773334503174e-01 2.438296377658843994e-01 1.645656675100326538e-01 2.094666361808776855e-01
5.880000000000000000e+02 6.147385597229003906e+00 -1.184150934219360352e+00 1.213504597544670105e-01 2.001782357692718506e-01 9.645860642194747925e-02 1.959976106882095337e-01
5.890000000000000000e+02 5.952733516693115234e+00 -1.164222836494445801e+00 7.735971361398696899e-03 1.522747725248336792e-01 4.800322279334068298e-02 1.058496013283729553e-01
5.900000000000000000e+02 2.070889949798583984e+00 4.941557049751281738e-01 -4.007371664047241211e-01 -1.554194744676351547e-02 -1.248837336897850037e-01 1.967790424823760986e-01
5.910000000000000000e+02 4.889294624328613281e+00 -1.243731975555419922e-01 -1.619213819503784180e+00 -5.554502829909324646e-03 -4.874304831027984619e-01 -5.681030452251434326e-02
5.920000000000000000e+02 5.086661815643310547e+00 -1.319323629140853882e-01 -1.698743820190429688e+00 1.035879715345799923e-03 -5.093123912811279297e-01 -5.959023162722587585e-02
5.930000000000000000e+02 5.283787727355957031e+00 -1.421496123075485229e-01 -1.770740628242492676e+00 -9.258787613362073898e-04 -5.314999222755432129e-01 -5.880750343203544617e-02
5.940000000000000000e+02 5.454619407653808594e+00 -4.220358133316040039e-01 -1.303053855895996094e+00 1.012335997074842453e-03 -3.906124532222747803e-01 -1.234911829233169556e-01
5.950000000000000000e+02 5.032251358032226562e+00 -9.147278070449829102e-01 -5.619575381278991699e-01 5.686499178409576416e-02 -1.515277624130249023e-01 -1.609075069427490234e-01
5.960000000000000000e+02 5.672704696655273438e+00 -4.032779037952423096e-01 -1.370027899742126465e+00 1.602535136044025421e-02 -4.062007665634155273e-01 -1.080085635185241699e-01
5.970000000000000000e+02 5.689333438873291016e+00 -1.425580382347106934e-01 -1.891516566276550293e+00 -4.738861229270696640e-03 -5.688766241073608398e-01 -5.404097586870193481e-02
5.980000000000000000e+02 6.094984531402587891e+00 -1.345948725938796997e-01 -2.001009464263916016e+00 -3.910992294549942017e-03 -6.014761924743652344e-01 -4.818414151668548584e-02
5.990000000000000000e+02 6.499288082122802734e+00 -3.624794781208038330e-01 -1.454282641410827637e+00 1.670224592089653015e-02 -4.312741160392761230e-01 -4.415769875049591064e-02
6.000000000000000000e+02 6.500439167022705078e+00 -1.290287375450134277e-01 -2.095298290252685547e+00 -2.932549454271793365e-03 -6.294692158699035645e-01 -4.255300387740135193e-02
6.010000000000000000e+02 6.907692909240722656e+00 -4.148274362087249756e-01 -1.193919420242309570e+00 3.967627882957458496e-02 -3.462729454040527344e-01 2.670687623322010040e-02
6.020000000000000000e+02 6.903815746307373047e+00 -1.389468610286712646e-01 -2.160665273666381836e+00 -1.382271107286214828e-02 -6.523463726043701172e-01 -3.827106952667236328e-02
6.030000000000000000e+02 7.121029853820800781e+00 -4.067460894584655762e-01 -1.140058159828186035e+00 1.580944098532199860e-02 -3.372746407985687256e-01 3.131406009197235107e-02
6.040000000000000000e+02 7.673297882080078125e+00 -3.812748491764068604e-01 -8.660895824432373047e-01 1.236560046672821045e-01 -2.227300852537155151e-01 2.020512670278549194e-01
6.050000000000000000e+02 8.090831756591796875e+00 -4.654213786125183105e-01 2.510612308979034424e-01 1.400956213474273682e-01 1.173470541834831238e-01 4.997620582580566406e-01
6.060000000000000000e+02 8.513357162475585938e+00 -9.385216236114501953e-02 -1.836974024772644043e+00 2.094462141394615173e-02 -5.448088049888610840e-01 -6.680508144199848175e-03
6.070000000000000000e+02 8.694006919860839844e+00 -9.929644316434860229e-02 -1.547875165939331055e+00 1.276691108942031860e-01 -4.260618090629577637e-01 1.843007653951644897e-01
6.080000000000000000e+02 8.780900955200195312e+00 -5.805974006652832031e-01 3.373167037963867188e+00 1.020569562911987305e+00 1.318120956420898438e+00 2.176218986511230469e+00
6.090000000000000000e+02 9.002408027648925781e+00 -5.003924965858459473e-01 4.307983398437500000e+00 1.145490050315856934e+00 1.636041998863220215e+00 2.790065288543701172e+00
6.100000000000000000e+02 2.677865982055664062e+00 4.797182679176330566e-01 -6.050267815589904785e-01 -6.316781044006347656e-03 -1.834030598402023315e-01 2.041743397712707520e-01
6.110000000000000000e+02 3.502223491668701172e+00 1.595564931631088257e-01 -1.135160207748413086e+00 -8.862837217748165131e-03 -3.432069122791290283e-01 8.362223953008651733e-02
6.120000000000000000e+02 4.110939979553222656e+00 1.544675827026367188e-01 -1.444581270217895508e+00 4.281984176486730576e-03 -4.320898056030273438e-01 8.488402515649795532e-02
6.130000000000000000e+02 4.331385135650634766e+00 4.170958399772644043e-01 -1.260292887687683105e+00 7.222040556371212006e-03 -3.759212791919708252e-01 1.894194334745407104e-01
6.140000000000000000e+02 4.723761558532714844e+00 6.832276582717895508e-01 -1.025238394737243652e+00 1.546793337911367416e-02 -3.029311299324035645e-01 2.260537892580032349e-01
6.150000000000000000e+02 5.272310256958007812e+00 3.729754388332366943e-01 -1.602725505828857422e+00 9.494696743786334991e-03 -4.779692590236663818e-01 1.429315060377120972e-01
6.160000000000000000e+02 5.293497562408447266e+00 1.325630992650985718e-01 -2.006889104843139648e+00 -4.535126034170389175e-03 -6.034272909164428711e-01 5.777514353394508362e-02
6.170000000000000000e+02 5.232282638549804688e+00 6.048842072486877441e-01 -1.222088456153869629e+00 1.290332991629838943e-02 -3.627555370330810547e-01 1.817255616188049316e-01
6.180000000000000000e+02 8.746415138244628906e+00 3.600572347640991211e-01 1.221455454826354980e+00 2.260597050189971924e-01 4.342545270919799805e-01 -1.028043985366821289e+00
6.190000000000000000e+02 8.305797576904296875e+00 1.427644640207290649e-01 -2.076001405715942383e+00 3.237143624573945999e-03 -6.218292713165283203e-01 -7.590670883655548096e-02
6.200000000000000000e+02 7.901810646057128906e+00 1.449706256389617920e-01 -2.326959609985351562e+00 4.608481377363204956e-02 -6.842624545097351074e-01 -3.915993869304656982e-02
6.210000000000000000e+02 7.500181674957275391e+00 4.128713011741638184e-01 -1.225752711296081543e+00 2.929934300482273102e-02 -3.589360117912292480e-01 -1.346453875303268433e-01
6.220000000000000000e+02 7.501165390014648438e+00 1.396588683128356934e-01 -2.436675071716308594e+00 -6.068103248253464699e-04 -7.311846017837524414e-01 -5.205271765589714050e-03
6.230000000000000000e+02 6.921849727630615234e+00 3.830473423004150391e-01 -1.625676393508911133e+00 2.118853479623794556e-02 -4.813463389873504639e-01 -6.105415057390928268e-03
6.240000000000000000e+02 6.729214191436767578e+00 3.933477997779846191e-01 -1.647156834602355957e+00 2.721025422215461731e-02 -4.859839975833892822e-01 3.011935949325561523e-02
6.250000000000000000e+02 6.333845615386962891e+00 4.256263971328735352e-01 -1.611490130424499512e+00 2.055441215634346008e-02 -4.772807061672210693e-01 6.458424031734466553e-02
6.260000000000000000e+02 6.309340953826904297e+00 1.476686298847198486e-01 -2.334713697433471680e+00 8.345023961737751961e-04 -7.001637220382690430e-01 6.313487887382507324e-02
6.270000000000000000e+02 5.493331432342529297e+00 1.431408077478408813e-01 -2.077470064163208008e+00 -2.250793855637311935e-03 -6.239162087440490723e-01 6.329925358295440674e-02
6.280000000000000000e+02 8.807046890258789062e+00 5.908421874046325684e-01 3.372395515441894531e+00 1.120062947273254395e+00 1.347737550735473633e+00 -2.515081882476806641e+00
6.290000000000000000e+02 9.641102790832519531e+00 1.027891039848327637e+00 4.083679676055908203e+00 1.421294784545898438e+01 5.488988399505615234e+00 -8.063630104064941406e+00
6.300000000000000000e+02 9.723552703857421875e+00 1.164067268371582031e+00 3.219699859619140625e+00 1.534162521362304688e+01 5.568397521972656250e+00 -7.378874301910400391e+00
6.310000000000000000e+02 9.169920921325683594e+00 -7.426183819770812988e-01 5.801926612854003906e+00 4.043830394744873047e+00 2.953727245330810547e+00 5.421672821044921875e+00
6.320000000000000000e+02 9.013514518737792969e+00 -8.671277761459350586e-01 5.169296741485595703e+00 3.946085453033447266e+00 2.734614610671997070e+00 4.977421283721923828e+00
6.330000000000000000e+02 1.013618946075439453e+01 -1.204873919486999512e+00 2.138705015182495117e+00 1.980864143371582031e+01 6.584204196929931641e+00 4.153381824493408203e+00
6.340000000000000000e+02 1.096621036529541016e+01 -5.681729912757873535e-01 1.039487266540527344e+01 1.972966575622558594e+01 9.037361145019531250e+00 -3.434611320495605469e+00
6.350000000000000000e+02 1.110134124755859375e+01 4.364140033721923828e-01 1.149527835845947266e+01 1.816605377197265625e+01 8.898399353027343750e+00 2.462122201919555664e+00
6.360000000000000000e+02 1.073451900482177734e+01 1.042677521705627441e+00 4.393272876739501953e+00 2.134554862976074219e+01 7.721646308898925781e+00 1.140444874763488770e+00
6.370000000000000000e+02 7.196813225746154785e-01 1.133157849311828613e+00 -5.212215706706047058e-02 -1.300760656595230103e-01 -5.465946719050407410e-02 1.565485894680023193e-01
6.380000000000000000e+02 5.095959901809692383e-01 9.234093427658081055e-01 -2.446583844721317291e-02 -9.073916077613830566e-02 -3.456149995326995850e-02 8.043580502271652222e-02
6.390000000000000000e+02 9.473596811294555664e-01 8.759135007858276367e-01 -9.420101344585418701e-02 -8.283264935016632080e-02 -5.311009660363197327e-02 1.524015367031097412e-01
6.400000000000000000e+02 8.585849761962890625e+00 6.451504826545715332e-01 2.605628967285156250e+00 8.640981316566467285e-01 1.040918111801147461e+00 -1.982877850532531738e+00
6.410000000000000000e+02 3.430184721946716309e-01 -6.891425848007202148e-01 -1.115765701979398727e-02 -4.936039075255393982e-02 -1.815541461110115051e-02 -3.828959539532661438e-02
6.420000000000000000e+02 8.211489915847778320e-01 -1.136243939399719238e+00 -5.726734176278114319e-02 -1.230917200446128845e-01 -5.410771816968917847e-02 -1.646389812231063843e-01
6.430000000000000000e+02 7.618465423583984375e-01 -8.771122694015502930e-01 -4.965903609991073608e-02 -9.021597355604171753e-02 -4.196250438690185547e-02 -1.184940040111541748e-01
6.440000000000000000e+02 1.128251910209655762e+00 -7.265512347221374512e-01 -1.185249611735343933e-01 -5.264244228601455688e-02 -5.135022103786468506e-02 -1.479528099298477173e-01
6.450000000000000000e+02 7.798145771026611328e+00 8.820459842681884766e-01 1.086055278778076172e+00 5.188513398170471191e-01 4.814719855785369873e-01 -1.099406123161315918e+00
6.460000000000000000e+02 7.292043209075927734e+00 6.492977738380432129e-01 -4.363751113414764404e-01 1.594611257314682007e-01 -8.307418972253799438e-02 -3.060784041881561279e-01
6.470000000000000000e+02 7.491149425506591797e+00 7.071627378463745117e-01 -2.946496009826660156e-02 2.191692441701889038e-01 5.691128596663475037e-02 -4.709722399711608887e-01
6.480000000000000000e+02 7.897399425506591797e+00 6.969326734542846680e-01 6.427080631256103516e-01 3.664240539073944092e-01 3.027396500110626221e-01 -8.503692746162414551e-01
6.490000000000000000e+02 7.121828079223632812e+00 6.090865731239318848e-01 -8.289963603019714355e-01 8.875032514333724976e-02 -2.220738083124160767e-01 -1.661759018898010254e-01
6.500000000000000000e+02 6.947204589843750000e+00 6.253395080566406250e-01 -8.745800256729125977e-01 9.061126410961151123e-02 -2.351906299591064453e-01 -1.060137525200843811e-01
6.510000000000000000e+02 6.761960983276367188e+00 6.432615518569946289e-01 -8.937640786170959473e-01 7.861403375864028931e-02 -2.445450276136398315e-01 -6.064669787883758545e-02
6.520000000000000000e+02 6.371105194091796875e+00 7.061058282852172852e-01 -8.932382464408874512e-01 6.783677637577056885e-02 -2.476204335689544678e-01 1.103186327964067459e-02
6.530000000000000000e+02 5.778918266296386719e+00 8.067899346351623535e-01 -9.035712480545043945e-01 6.219231709837913513e-02 -2.524136900901794434e-01 9.742245078086853027e-02
6.540000000000000000e+02 5.950025081634521484e+00 7.224904298782348633e-01 -9.734221696853637695e-01 5.062989518046379089e-02 -2.768376767635345459e-01 7.869385927915573120e-02
6.550000000000000000e+02 5.419727802276611328e+00 6.486015915870666504e-01 -1.172807335853576660e+00 2.780867181718349457e-02 -3.434995710849761963e-01 1.744571477174758911e-01
6.560000000000000000e+02 5.058570861816406250e+00 5.610458850860595703e-01 -1.262163519859313965e+00 2.724526450037956238e-02 -3.704755008220672607e-01 1.917123943567276001e-01
6.570000000000000000e+02 6.443637371063232422e+00 9.457973241806030273e-01 -3.564380407333374023e-01 1.546588689088821411e-01 -6.053374707698822021e-02 -1.627201139926910400e-01
6.580000000000000000e+02 8.837642669677734375e+00 -7.290750741958618164e-01 4.223924160003662109e+00 1.715519666671752930e+00 1.781833052635192871e+00 3.140397071838378906e+00
6.590000000000000000e+02 8.703968048095703125e+00 -8.356453180313110352e-01 3.842540502548217773e+00 1.824160456657409668e+00 1.700010299682617188e+00 3.060695886611938477e+00
6.600000000000000000e+02 8.839380264282226562e+00 -8.827289342880249023e-01 4.716125488281250000e+00 2.629275321960449219e+00 2.203620195388793945e+00 4.065780162811279297e+00
6.610000000000000000e+02 7.849783420562744141e+00 -7.420578598976135254e-01 1.002237677574157715e+00 3.430225551128387451e-01 4.035780727863311768e-01 8.267090916633605957e-01
6.620000000000000000e+02 7.432171344757080078e+00 -8.125846982002258301e-01 5.132989287376403809e-01 2.969555258750915527e-01 2.430763393640518188e-01 6.046124100685119629e-01
6.630000000000000000e+02 7.247812271118164062e+00 -8.348821401596069336e-01 3.611097037792205811e-01 2.221540957689285278e-01 1.749791353940963745e-01 4.729158878326416016e-01
6.640000000000000000e+02 6.707566261291503906e+00 -1.137985229492187500e+00 4.796665608882904053e-01 2.951996326446533203e-01 2.324598580598831177e-01 4.517972171306610107e-01
6.650000000000000000e+02 6.152390956878662109e+00 9.818547368049621582e-01 -3.948583304882049561e-01 1.493009179830551147e-01 -7.366722077131271362e-02 -5.891763791441917419e-02
6.660000000000000000e+02 5.166089534759521484e+00 8.400604128837585449e-01 -8.563356995582580566e-01 4.725065454840660095e-02 -2.427255213260650635e-01 2.089009732007980347e-01
6.670000000000000000e+02 4.488036632537841797e+00 7.870783209800720215e-01 -8.829789161682128906e-01 2.154389210045337677e-02 -2.584305107593536377e-01 2.660502493381500244e-01
6.680000000000000000e+02 3.789488315582275391e+00 9.651583433151245117e-01 -6.118687987327575684e-01 1.313404925167560577e-02 -1.796204298734664917e-01 3.472726941108703613e-01
6.690000000000000000e+02 3.485383033752441406e+00 9.789987802505493164e-01 -5.715667605400085449e-01 5.290962755680084229e-03 -1.698827445507049561e-01 3.555277585983276367e-01
6.700000000000000000e+02 3.102208375930786133e+00 4.528451859951019287e-01 -7.696344256401062012e-01 1.040066126734018326e-03 -2.305783033370971680e-01 2.066656649112701416e-01
6.710000000000000000e+02 2.668821096420288086e+00 7.853702306747436523e-01 -4.952282905578613281e-01 -1.953857950866222382e-02 -1.544300615787506104e-01 3.093315362930297852e-01
6.720000000000000000e+02 2.879905700683593750e+00 1.040180444717407227e+00 -4.111056029796600342e-01 -1.969363354146480560e-02 -1.292397677898406982e-01 3.780938684940338135e-01
6.730000000000000000e+02 2.283032178878784180e+00 8.337278962135314941e-01 -3.746286630630493164e-01 -3.178495541214942932e-02 -1.219240874052047729e-01 3.045247495174407959e-01
6.740000000000000000e+02 2.023591279983520508e+00 9.913223981857299805e-01 -2.908703088760375977e-01 -4.667969420552253723e-02 -1.012649983167648315e-01 3.273245096206665039e-01
6.750000000000000000e+02 1.773169398307800293e+00 1.094848155975341797e+00 -2.104846537113189697e-01 -7.538922131061553955e-02 -8.576215803623199463e-02 3.175110518932342529e-01
6.760000000000000000e+02 1.610540509223937988e+00 9.875396490097045898e-01 -1.909978538751602173e-01 -8.254398405551910400e-02 -8.206254988908767700e-02 2.747214138507843018e-01
6.770000000000000000e+02 7.322433948516845703e+00 -3.674551546573638916e-01 -1.234399080276489258e+00 6.131394207477569580e-02 -3.519255220890045166e-01 3.719600662589073181e-02
6.780000000000000000e+02 7.189186573028564453e+00 -6.365131139755249023e-01 -3.276539444923400879e-01 1.140776872634887695e-01 -6.407288461923599243e-02 2.422090768814086914e-01
6.790000000000000000e+02 6.494585990905761719e+00 -5.667870044708251953e-01 -9.856355190277099609e-01 5.301524419337511063e-03 -2.941001951694488525e-01 -7.348543033003807068e-03
6.800000000000000000e+02 6.665716648101806641e+00 -6.086487770080566406e-01 -7.573654651641845703e-01 8.474674075841903687e-02 -2.017856091260910034e-01 7.511059939861297607e-02
6.810000000000000000e+02 5.662438392639160156e+00 -6.451626420021057129e-01 -9.469693899154663086e-01 2.260799892246723175e-02 -2.773084342479705811e-01 -9.684372693300247192e-02
6.820000000000000000e+02 5.153976440429687500e+00 -6.769131422042846680e-01 -8.885166645050048828e-01 2.623740956187248230e-02 -2.586837708950042725e-01 -1.560385525226593018e-01
6.830000000000000000e+02 4.689115524291992188e+00 -3.678166568279266357e-01 -1.236687064170837402e+00 -4.012835852336138487e-04 -3.711265027523040771e-01 -1.378901749849319458e-01
6.840000000000000000e+02 4.881676197052001953e+00 -8.163195252418518066e-01 -7.221654057502746582e-01 2.810068801045417786e-02 -2.082194089889526367e-01 -1.901548057794570923e-01
6.850000000000000000e+02 4.461433410644531250e+00 -6.964415907859802246e-01 -8.290166258811950684e-01 1.114335097372531891e-02 -2.453619837760925293e-01 -2.105804234743118286e-01
6.860000000000000000e+02 4.224597930908203125e+00 -6.622968316078186035e-01 -8.132500648498535156e-01 1.543535571545362473e-02 -2.393444180488586426e-01 -2.146172374486923218e-01
6.870000000000000000e+02 3.801926136016845703e+00 -5.143706202507019043e-01 -8.490971326828002930e-01 -2.420906443148851395e-03 -2.554554045200347900e-01 -1.949713379144668579e-01
6.880000000000000000e+02 3.630661249160766602e+00 -6.272665858268737793e-01 -7.250871658325195312e-01 3.756327554583549500e-03 -2.163992524147033691e-01 -2.299894392490386963e-01
6.890000000000000000e+02 2.568556547164916992e+00 -5.380747914314270020e-01 -4.786192178726196289e-01 -1.307811588048934937e-02 -1.475092023611068726e-01 -2.014878243207931519e-01
6.900000000000000000e+02 1.276379942893981934e+00 9.805626869201660156e-01 -1.439317464828491211e-01 -8.759896457195281982e-02 -6.945921480655670166e-02 2.274015992879867554e-01
6.910000000000000000e+02 1.473438262939453125e+00 1.130170464515686035e+00 -1.572610139846801758e-01 -9.628132730722427368e-02 -7.606270164251327515e-02 2.852202951908111572e-01
6.920000000000000000e+02 6.174290180206298828e+00 -9.929761886596679688e-01 -1.369155794382095337e-01 1.409614086151123047e-01 1.213750103488564491e-03 1.024915874004364014e-01
6.930000000000000000e+02 5.829972267150878906e+00 -8.968052864074707031e-01 -4.663644433021545410e-01 7.759288698434829712e-02 -1.166314631700515747e-01 -2.466381341218948364e-02
6.940000000000000000e+02 5.305361270904541016e+00 -7.824894189834594727e-01 -7.650068402290344238e-01 3.261862322688102722e-02 -2.197164595127105713e-01 -1.379736065864562988e-01
6.950000000000000000e+02 4.869118213653564453e+00 -1.037578105926513672e+00 -4.513741135597229004e-01 6.104340776801109314e-02 -1.170992106199264526e-01 -1.777364760637283325e-01
6.960000000000000000e+02 4.970853805541992188e+00 -6.024886965751647949e-01 -9.808260202407836914e-01 1.900708489120006561e-02 -2.885456979274749756e-01 -1.643216013908386230e-01
6.970000000000000000e+02 6.597208976745605469e+00 -9.410620927810668945e-01 -3.201973810791969299e-02 1.397390067577362061e-01 3.231578320264816284e-02 2.264535576105117798e-01
6.980000000000000000e+02 1.099483966827392578e+00 6.637505888938903809e-01 -1.311794668436050415e-01 -4.609897732734680176e-02 -5.318353325128555298e-02 1.452140063047409058e-01
6.990000000000000000e+02 4.873821258544921875e+00 8.694833517074584961e-01 -8.009243607521057129e-01 3.921874240040779114e-02 -2.285116761922836304e-01 2.451637536287307739e-01
7.000000000000000000e+02 4.735702037811279297e+00 5.310602784156799316e-01 -1.268682479858398438e+00 3.209412097930908203e-03 -3.796419203281402588e-01 1.843350082635879517e-01
7.010000000000000000e+02 4.781222641468048096e-01 7.325435876846313477e-01 -3.414018452167510986e-02 -7.343187183141708374e-02 -3.227161616086959839e-02 7.333189249038696289e-02
7.020000000000000000e+02 6.524793505668640137e-01 6.480366587638854980e-01 -5.857206881046295166e-02 -4.398503527045249939e-02 -3.076713159680366516e-02 8.302483707666397095e-02
7.030000000000000000e+02 5.329104065895080566e-01 -9.645437002182006836e-01 -1.912201568484306335e-02 -9.968132525682449341e-02 -3.564100340008735657e-02 -8.713570982217788696e-02
7.040000000000000000e+02 7.783585786819458008e-01 -7.012048959732055664e-01 -6.362119317054748535e-02 -6.134144216775894165e-02 -3.748879209160804749e-02 -9.896888583898544312e-02
7.050000000000000000e+02 6.917028427124023438e-01 -1.030764341354370117e+00 -5.322175472974777222e-02 -1.114999651908874512e-01 -4.941651597619056702e-02 -1.379476785659790039e-01
7.060000000000000000e+02 6.293925642967224121e-01 -7.808761000633239746e-01 -4.295115172863006592e-02 -6.818816810846328735e-02 -3.334179520606994629e-02 -8.465928584337234497e-02
7.070000000000000000e+02 9.472883939743041992e-01 -7.062159180641174316e-01 -8.772063255310058594e-02 -5.435360968112945557e-02 -4.262227192521095276e-02 -1.233662590384483337e-01
7.080000000000000000e+02 4.776030778884887695e-01 5.666073560714721680e-01 -3.425005450844764709e-02 -3.948409855365753174e-02 -2.212024480104446411e-02 4.280111938714981079e-02
7.090000000000000000e+02 1.538459300994873047e+00 6.425859332084655762e-01 -2.232702970504760742e-01 -4.363090172410011292e-02 -8.007035404443740845e-02 1.898049265146255493e-01
7.100000000000000000e+02 5.843770027160644531e+00 9.733428359031677246e-01 -5.738491415977478027e-01 9.973138570785522461e-02 -1.422353237867355347e-01 6.369601190090179443e-02
7.110000000000000000e+02 4.688058853149414062e+00 -7.520776391029357910e-01 -8.060371279716491699e-01 2.364688739180564880e-02 -2.347170710563659668e-01 -2.022929191589355469e-01
7.120000000000000000e+02 1.718168497085571289e+00 -7.818244099617004395e-01 -2.257875353097915649e-01 -3.513719886541366577e-02 -7.827742397785186768e-02 -2.174261510372161865e-01
7.130000000000000000e+02 2.141017913818359375e+00 -8.937534093856811523e-01 -2.764962613582611084e-01 -2.846855111420154572e-02 -9.148944169282913208e-02 -2.714077234268188477e-01
7.140000000000000000e+02 3.295278072357177734e+00 4.408143162727355957e-01 -8.625048995018005371e-01 -7.471635472029447556e-03 -2.609929442405700684e-01 2.046375721693038940e-01
7.150000000000000000e+02 3.908945798873901367e+00 7.542336583137512207e-01 -8.227870464324951172e-01 3.540515666827559471e-03 -2.457739561796188354e-01 2.876048982143402100e-01
7.160000000000000000e+02 4.898604869842529297e+00 3.364383876323699951e-01 -1.556078076362609863e+00 1.218757871538400650e-02 -4.631671607494354248e-01 1.479006856679916382e-01
7.170000000000000000e+02 4.172647476196289062e+00 -9.147674441337585449e-01 -5.833145380020141602e-01 1.790978386998176575e-02 -1.696214228868484497e-01 -2.511373460292816162e-01
7.180000000000000000e+02 4.341487407684326172e+00 -1.208051443099975586e+00 -3.151594102382659912e-01 5.605828762054443359e-02 -7.773033529520034790e-02 -2.332287132740020752e-01
7.190000000000000000e+02 3.930785894393920898e+00 -8.624976873397827148e-01 -6.040217280387878418e-01 2.075187675654888153e-02 -1.749809533357620239e-01 -2.593422830104827881e-01
7.200000000000000000e+02 3.666007995605468750e+00 -1.085257411003112793e+00 -4.171354770660400391e-01 2.114216424524784088e-02 -1.187979951500892639e-01 -2.916183471679687500e-01
7.210000000000000000e+02 3.434339046478271484e+00 -1.001948237419128418e+00 -4.436092972755432129e-01 3.706410992890596390e-03 -1.319708675146102905e-01 -2.971561253070831299e-01
7.220000000000000000e+02 3.152985572814941406e+00 -1.041568875312805176e+00 -3.886458873748779297e-01 -2.374522300669923425e-04 -1.166649982333183289e-01 -3.106993734836578369e-01
7.230000000000000000e+02 3.014698266983032227e+00 -1.173652768135070801e+00 -3.102948069572448730e-01 -3.531944006681442261e-03 -9.414802491664886475e-02 -3.273972272872924805e-01
7.240000000000000000e+02 3.278838396072387695e+00 -6.853585243225097656e-01 -5.995625257492065430e-01 -3.442359389737248421e-03 -1.809014678001403809e-01 -2.494203001260757446e-01
7.250000000000000000e+02 5.003881931304931641e+00 7.624759674072265625e-01 -9.412129521369934082e-01 2.685646712779998779e-02 -2.743069529533386230e-01 2.165424674749374390e-01
7.260000000000000000e+02 4.868101119995117188e+00 7.044153809547424316e-01 -1.036449313163757324e+00 1.630639657378196716e-02 -3.060428798198699951e-01 2.167631536722183228e-01
7.270000000000000000e+02 2.721965551376342773e+00 -8.490000367164611816e-01 -4.149588346481323242e-01 -1.187440194189548492e-02 -1.280499696731567383e-01 -2.803382575511932373e-01
7.280000000000000000e+02 6.305780887603759766e+00 -5.861872434616088867e-01 -9.716657996177673340e-01 4.372125118970870972e-02 -2.783833444118499756e-01 -3.182194754481315613e-02
7.290000000000000000e+02 6.341193199157714844e+00 -7.839299440383911133e-01 -5.034011006355285645e-01 6.184751912951469421e-02 -1.324660629034042358e-01 5.739411339163780212e-02
7.300000000000000000e+02 2.076251029968261719e+00 7.923982143402099609e-01 -3.281678855419158936e-01 -3.856719285249710083e-02 -1.100205257534980774e-01 2.728574573993682861e-01
7.310000000000000000e+02 3.048688173294067383e+00 -8.854083418846130371e-01 -4.519695937633514404e-01 -9.895739145576953888e-03 -1.385595947504043579e-01 -2.878184616565704346e-01
7.320000000000000000e+02 3.992599487304687500e+00 -6.138769388198852539e-01 -8.117586374282836914e-01 1.130642369389533997e-03 -2.431884109973907471e-01 -2.127226442098617554e-01
7.330000000000000000e+02 4.893347263336181641e+00 5.319082140922546387e-01 -1.269435882568359375e+00 1.339283771812915802e-02 -3.768129050731658936e-01 1.901957690715789795e-01
7.340000000000000000e+02 4.594274997711181641e+00 5.978508591651916504e-01 -1.127849221229553223e+00 1.682413741946220398e-02 -3.333075344562530518e-01 2.137914150953292847e-01
7.350000000000000000e+02 3.709774494171142578e+00 6.789032220840454102e-01 -8.474768996238708496e-01 -4.334239347372204065e-04 -2.543731033802032471e-01 2.658828794956207275e-01
7.360000000000000000e+02 5.709178447723388672e-01 -1.034889984130859375e+01 -8.109004236757755280e-03 -4.047088027000427246e-01 -1.238453462719917297e-01 6.241323426365852356e-02
7.370000000000000000e+02 1.223791885375976562e+01 -1.666335678100585938e+01 1.586047768592834473e+00 1.004772090911865234e+01 3.490130424499511719e+00 2.709159255027770996e-01
7.380000000000000000e+02 1.440535449981689453e+01 -1.967473983764648438e+01 1.116235852241516113e+00 1.599041748046875000e+01 5.131995677947998047e+00 -1.165318727493286133e+00
7.390000000000000000e+02 1.418834114074707031e+01 -1.703592681884765625e+01 1.106177330017089844e+00 1.540581893920898438e+01 4.953598976135253906e+00 1.490460991859436035e+00
7.400000000000000000e+02 1.427615261077880859e+01 -1.832122802734375000e+01 2.582417726516723633e-01 1.524322128295898438e+01 4.650438785552978516e+00 7.394997030496597290e-02
7.410000000000000000e+02 1.284223270416259766e+01 -1.498697853088378906e+01 1.196446537971496582e+00 9.875771522521972656e+00 3.321665287017822266e+00 3.938675820827484131e-01
7.420000000000000000e+02 1.783788490295410156e+01 -1.194497966766357422e+01 -1.881299734115600586e+00 1.140122175216674805e+00 -2.223532795906066895e-01 4.007171392440795898e-01
7.430000000000000000e+02 1.926314353942871094e+01 -1.143575954437255859e+01 -2.634983301162719727e+00 9.972263127565383911e-02 -7.605782151222229004e-01 -4.361467063426971436e-01
7.440000000000000000e+02 2.339908599853515625e+01 -1.046950054168701172e+01 -1.850501537322998047e+00 -2.800622880458831787e-01 -6.391691565513610840e-01 -8.150126338005065918e-01
7.450000000000000000e+02 2.578995704650878906e+01 -9.374167442321777344e+00 -1.820242881774902344e+00 -6.404256820678710938e-01 -7.382005453109741211e-01 -1.053704142570495605e+00
7.460000000000000000e+02 2.686378669738769531e+01 -8.798263549804687500e+00 -2.414482593536376953e+00 -6.340723633766174316e-01 -9.145664572715759277e-01 -1.060237169265747070e+00
7.470000000000000000e+02 2.854446792602539062e+01 -8.074481964111328125e+00 -2.927776336669921875e+00 -4.603334367275238037e-01 -1.016433000564575195e+00 -4.155530035495758057e-01
7.480000000000000000e+02 3.137751197814941406e+01 -8.625754356384277344e+00 -4.342172667384147644e-02 2.783566474914550781e+00 8.220434188842773438e-01 -1.522492408752441406e+00
7.490000000000000000e+02 3.261165237426757812e+01 -9.660716056823730469e+00 1.511921525001525879e+00 5.287265300750732422e+00 2.039756059646606445e+00 -3.045034646987915039e+00
7.500000000000000000e+02 3.359202194213867188e+01 -1.084064579010009766e+01 2.718656301498413086e+00 9.164944648742675781e+00 3.565080404281616211e+00 -4.585952758789062500e+00
7.510000000000000000e+02 3.433353424072265625e+01 -1.211292648315429688e+01 2.714645624160766602e+00 1.257005500793457031e+01 4.585410118103027344e+00 -4.939939975738525391e+00
7.520000000000000000e+02 4.463133621215820312e+01 -1.593035030364990234e+01 1.771872162818908691e+00 6.726385593414306641e+00 2.549477338790893555e+00 5.893645882606506348e-01
7.530000000000000000e+02 4.645253753662109375e+01 -1.689688873291015625e+01 2.866313934326171875e+00 6.161438941955566406e+00 2.708325862884521484e+00 3.168302059173583984e+00
7.540000000000000000e+02 4.752326583862304688e+01 -1.610224342346191406e+01 3.541532993316650391e+00 2.842003345489501953e+00 1.915060877799987793e+00 2.787863731384277344e+00
7.550000000000000000e+02 4.876574707031250000e+01 -1.549335575103759766e+01 3.263958215713500977e+00 1.380594491958618164e+00 1.393365859985351562e+00 1.645472049713134766e+00
7.560000000000000000e+02 5.015159225463867188e+01 -1.507574367523193359e+01 1.729058623313903809e+00 1.470280140638351440e-01 5.628259778022766113e-01 9.186082482337951660e-01
7.570000000000000000e+02 5.968672943115234375e+01 -1.389359855651855469e+01 -2.390967607498168945e+00 3.681282326579093933e-02 -7.062464356422424316e-01 -6.363281607627868652e-01
7.580000000000000000e+02 6.024554824829101562e+01 -1.230981826782226562e+01 -2.652013301849365234e+00 4.911322593688964844e-01 -6.482642889022827148e-01 -2.948700785636901855e-01
7.590000000000000000e+02 6.496562957763671875e+01 -1.041098976135253906e+01 -1.312165021896362305e+00 1.638592243194580078e+00 9.792815893888473511e-02 -2.229730367660522461e+00
7.600000000000000000e+02 6.649788665771484375e+01 -1.311305999755859375e+01 1.005452156066894531e+00 3.796876430511474609e+00 1.440698623657226562e+00 -1.981695890426635742e+00
7.610000000000000000e+02 6.752823638916015625e+01 -1.405554103851318359e+01 2.247107028961181641e+00 7.583295345306396484e+00 2.949120521545410156e+00 -4.245480537414550781e+00
7.620000000000000000e+02 6.923273468017578125e+01 -1.391592502593994141e+01 -1.561227142810821533e-01 1.139825534820556641e+01 3.372639894485473633e+00 -6.546582579612731934e-01
7.630000000000000000e+02 6.895472717285156250e+01 -1.201487541198730469e+01 -1.902822375297546387e+00 9.255572319030761719e+00 2.205824851989746094e+00 -1.075611233711242676e+00
7.640000000000000000e+02 6.966608428955078125e+01 -1.592013645172119141e+01 2.380576610565185547e+00 1.445665454864501953e+01 5.051169395446777344e+00 -1.494100570678710938e+00
7.650000000000000000e+02 7.050195312500000000e+01 -1.792316436767578125e+01 2.375826358795166016e+00 1.295820426940917969e+01 4.600209236145019531e+00 -5.750381350517272949e-01
7.660000000000000000e+02 6.868964385986328125e+01 -1.999364662170410156e+01 9.747308492660522461e-01 1.730456542968750000e+01 5.483788490295410156e+00 2.129322290420532227e+00
7.670000000000000000e+02 6.966820526123046875e+01 -2.048792839050292969e+01 1.575177788734436035e+00 1.408651161193847656e+01 4.698506832122802734e+00 1.060800075531005859e+00
7.680000000000000000e+02 6.783308410644531250e+01 -2.449659347534179688e+01 2.178213745355606079e-01 7.926706314086914062e+00 2.443358421325683594e+00 1.982009649276733398e+00
7.690000000000000000e+02 6.267109680175781250e+01 -3.040653991699218750e+01 -1.080925703048706055e+00 1.178753733634948730e+00 2.934841625392436981e-02 5.220145583152770996e-01
7.700000000000000000e+02 6.120593261718750000e+01 -3.130369377136230469e+01 -1.046826958656311035e+00 6.554725170135498047e-01 -1.174063235521316528e-01 2.585815489292144775e-01
7.710000000000000000e+02 5.398585510253906250e+01 -3.464428329467773438e+01 -2.419048361480236053e-02 9.373666644096374512e-01 2.739528715610504150e-01 -1.094934582710266113e+00
7.720000000000000000e+02 5.225489425659179688e+01 -3.058637237548828125e+01 -6.895722746849060059e-01 5.199168324470520020e-01 -5.089662969112396240e-02 -6.130023598670959473e-01
7.730000000000000000e+02 5.032654571533203125e+01 -3.514287948608398438e+01 -3.569802343845367432e-01 2.797460794448852539e+00 7.321441769599914551e-01 -1.653447628021240234e+00
7.740000000000000000e+02 4.999629974365234375e+01 -3.013902091979980469e+01 7.717403769493103027e-01 1.551817536354064941e+00 6.970673799514770508e-01 -1.768745303153991699e+00
7.750000000000000000e+02 4.935564804077148438e+01 -3.307148361206054688e+01 -3.052209019660949707e-01 3.459265708923339844e+00 9.462134242057800293e-01 -2.238091230392456055e+00
7.760000000000000000e+02 4.546197509765625000e+01 -3.124419021606445312e+01 -5.419531464576721191e-01 6.660465717315673828e+00 1.835553765296936035e+00 -1.468151807785034180e+00
7.770000000000000000e+02 3.797604751586914062e+01 -2.914778900146484375e+01 -3.042580485343933105e-01 6.739884376525878906e+00 1.930688023567199707e+00 7.422248125076293945e-01
7.780000000000000000e+02 3.328864669799804688e+01 -2.615227890014648438e+01 1.425918459892272949e+00 3.314197063446044922e+00 1.422034621238708496e+00 2.180558204650878906e+00
7.790000000000000000e+02 3.093199539184570312e+01 -3.003160285949707031e+01 -6.982868313789367676e-01 1.876773238182067871e+00 3.535459339618682861e-01 1.218547582626342773e+00
7.800000000000000000e+02 2.881909561157226562e+01 -2.939673423767089844e+01 -1.622707605361938477e+00 1.529542058706283569e-01 -4.409260153770446777e-01 1.199049428105354309e-01
7.810000000000000000e+02 2.813711738586425781e+01 -3.142847633361816406e+01 -9.993528127670288086e-01 5.484870672225952148e-01 -1.352597177028656006e-01 8.371717929840087891e-01
7.820000000000000000e+02 2.461854171752929688e+01 -2.981787300109863281e+01 -2.904904127120971680e+00 -1.998100131750106812e-01 -9.314142465591430664e-01 3.766477704048156738e-01
7.830000000000000000e+02 2.247968864440917969e+01 -2.933808708190917969e+01 -2.073080778121948242e+00 -1.587075740098953247e-02 -6.266854405403137207e-01 2.981146574020385742e-01
7.840000000000000000e+02 2.129873466491699219e+01 -2.856573104858398438e+01 -1.125834941864013672e+00 3.368120193481445312e-01 -2.367068529129028320e-01 1.271108984947204590e-01
7.850000000000000000e+02 1.787097740173339844e+01 -2.790674591064453125e+01 -6.012724041938781738e-01 2.891025781631469727e+00 6.869260072708129883e-01 -9.305469989776611328e-01
7.860000000000000000e+02 1.538149642944335938e+01 -2.228015136718750000e+01 2.292793750762939453e+00 8.165730476379394531e+00 3.137557268142700195e+00 -3.807985544204711914e+00
7.870000000000000000e+02 1.472391033172607422e+01 -2.102579116821289062e+01 2.287625551223754883e+00 1.430645656585693359e+01 4.978224277496337891e+00 -3.565424203872680664e+00
7.880000000000000000e+02 1.663374781608581543e+00 -1.170101261138916016e+01 -3.676274046301841736e-02 6.291268467903137207e-01 1.777092218399047852e-01 1.088832244277000427e-01
7.890000000000000000e+02 6.008679270744323730e-01 -1.717648506164550781e+01 1.078398525714874268e-02 1.233423724770545959e-01 4.023790732026100159e-02 8.262924849987030029e-02
7.900000000000000000e+02 1.135517692565917969e+01 -2.726794815063476562e+01 -8.536567687988281250e-01 6.222120285034179688e+00 1.610539078712463379e+00 7.465440630912780762e-01
7.910000000000000000e+02 1.869521737098693848e+00 -1.844144630432128906e+01 8.198548108339309692e-02 1.362538337707519531e+00 4.333571493625640869e-01 3.324274718761444092e-01
7.920000000000000000e+02 6.930732131004333496e-01 -2.401502609252929688e+01 2.635255455970764160e-02 2.118653535842895508e+00 6.435018181800842285e-01 2.765518426895141602e-01
7.930000000000000000e+02 8.596772193908691406e+00 -2.978862380981445312e+01 -7.177044749259948730e-01 5.321016788482666016e+00 1.380993723869323730e+00 9.587035179138183594e-01
7.940000000000000000e+02 1.731953620910644531e+01 -4.108874893188476562e+01 -1.823578178882598877e-01 2.668498277664184570e+00 7.458420991897583008e-01 -1.094021275639533997e-01
7.950000000000000000e+02 2.726545524597167969e+01 -3.797197341918945312e+01 2.146274317055940628e-03 1.582198381423950195e+00 4.753034114837646484e-01 3.573721647262573242e-01
7.960000000000000000e+02 2.724057960510253906e+01 -4.089414215087890625e+01 6.315870583057403564e-02 1.768456697463989258e+00 5.494846105575561523e-01 1.212282627820968628e-01
7.970000000000000000e+02 2.758362388610839844e+01 -3.565017318725585938e+01 -1.699159443378448486e-01 1.398860454559326172e+00 3.686833381652832031e-01 6.480056047439575195e-01
7.980000000000000000e+02 4.259031295776367188e+01 -4.091126632690429688e+01 -1.569765210151672363e+00 5.328704357147216797e+00 1.127681851387023926e+00 -1.058806627988815308e-01
7.990000000000000000e+02 4.748685836791992188e+01 -4.096509170532226562e+01 -9.251484274864196777e-01 4.152666568756103516e+00 9.682554602622985840e-01 -3.248382210731506348e-01
8.000000000000000000e+02 5.995182800292968750e+01 -3.797948455810546875e+01 6.913055181503295898e-01 1.231349349021911621e+00 5.767964720726013184e-01 8.218915015459060669e-02
8.010000000000000000e+02 7.800093078613281250e+01 -4.170842361450195312e+01 1.823069751262664795e-01 9.903137207031250000e+00 3.025633335113525391e+00 5.108904466032981873e-02
8.020000000000000000e+02 7.777268218994140625e+01 -3.722071075439453125e+01 -8.907146006822586060e-02 9.657466888427734375e+00 2.870518684387207031e+00 2.302604727447032928e-02
8.030000000000000000e+02 7.928078460693359375e+01 -3.348807525634765625e+01 -2.000051178038120270e-02 1.021051692962646484e+01 3.057154893875122070e+00 -9.138185530900955200e-02
8.040000000000000000e+02 7.782845306396484375e+01 -3.078914642333984375e+01 -9.774034470319747925e-02 9.318106651306152344e+00 2.766109943389892578e+00 -4.048000276088714600e-01
8.050000000000000000e+02 7.933896636962890625e+01 -2.648994636535644531e+01 2.393574826419353485e-02 8.410172462463378906e+00 2.530232429504394531e+00 -2.942416369915008545e-01
8.060000000000000000e+02 6.862080383300781250e+01 -2.320978355407714844e+01 7.948704361915588379e-01 1.036427593231201172e+01 3.347743749618530273e+00 1.689137339591979980e+00
8.070000000000000000e+02 2.170846462249755859e+00 -2.669245910644531250e+01 -4.120512306690216064e-02 3.597524166107177734e+00 1.066895723342895508e+00 7.623593211174011230e-01
8.080000000000000000e+02 8.196753263473510742e-01 -3.091063117980957031e+01 -3.293971717357635498e-02 4.603621006011962891e+00 1.371204495429992676e+00 2.273448556661605835e-01
8.090000000000000000e+02 1.251547241210937500e+01 -3.843762207031250000e+01 -5.210830569267272949e-01 3.993229866027832031e+00 1.041643977165222168e+00 -3.650979697704315186e-02
8.100000000000000000e+02 1.678730010986328125e+01 -3.808534622192382812e+01 -3.833730220794677734e-01 2.934390544891357422e+00 7.653052806854248047e-01 -3.208630084991455078e-01
8.110000000000000000e+02 2.515178442001342773e+00 -3.534391403198242188e+01 -1.138455569744110107e-01 5.266304969787597656e+00 1.545737862586975098e+00 3.236331939697265625e-01
8.120000000000000000e+02 6.123433113098144531e-01 -3.771465682983398438e+01 -5.857748910784721375e-02 5.704613685607910156e+00 1.693810939788818359e+00 2.908760122954845428e-02
8.130000000000000000e+02 1.756202101707458496e+00 -3.806786727905273438e+01 -5.506563559174537659e-02 5.537470817565917969e+00 1.644721508026123047e+00 9.294584393501281738e-02
8.140000000000000000e+02 7.812758636474609375e+01 -2.368674850463867188e+01 1.004204712808132172e-02 7.652997493743896484e+00 2.298911809921264648e+00 -7.592126131057739258e-01
8.150000000000000000e+02 7.938509368896484375e+01 -2.229425048828125000e+01 -2.024157904088497162e-02 6.560003757476806641e+00 1.961928606033325195e+00 -2.629590332508087158e-01
8.160000000000000000e+02 7.816306304931640625e+01 -1.662311553955078125e+01 2.165656089782714844e-01 6.664043426513671875e+00 2.064182758331298828e+00 2.460943609476089478e-01
8.170000000000000000e+02 7.807240295410156250e+01 -9.752464294433593750e+00 -1.070674210786819458e-01 7.941034317016601562e+00 2.350190162658691406e+00 4.279960691928863525e-01
8.180000000000000000e+02 7.811559295654296875e+01 -2.877670049667358398e+00 -8.035892993211746216e-02 7.914778709411621094e+00 2.350325822830200195e+00 -2.487600147724151611e-01
8.190000000000000000e+02 7.800092315673828125e+01 4.121356010437011719e+00 3.467971831560134888e-02 6.901958465576171875e+00 2.080991506576538086e+00 -3.400091528892517090e-01
8.200000000000000000e+02 7.803901672363281250e+01 1.114481353759765625e+01 5.937303975224494934e-02 6.283109664916992188e+00 1.902744770050048828e+00 -5.272609740495681763e-02
8.210000000000000000e+02 7.787306213378906250e+01 1.962182807922363281e+01 2.274525910615921021e-02 6.769903659820556641e+00 2.037794828414916992e+00 3.074057996273040771e-01
8.220000000000000000e+02 7.654141998291015625e+01 2.276053619384765625e+01 -3.526571020483970642e-02 7.131430625915527344e+00 2.128849506378173828e+00 4.530894160270690918e-01
8.230000000000000000e+02 7.930121612548828125e+01 3.210168075561523438e+01 -4.688169341534376144e-03 8.163416862487792969e+00 2.447618484497070312e+00 3.202683851122856140e-02
8.240000000000000000e+02 7.680950927734375000e+01 3.788291549682617188e+01 -7.769303023815155029e-02 7.757565021514892578e+00 2.303961515426635742e+00 1.697529852390289307e-02
8.250000000000000000e+02 7.912215423583984375e+01 3.743953704833984375e+01 2.244372619315981865e-03 8.177748680114746094e+00 2.453997850418090820e+00 -2.613067999482154846e-02
8.260000000000000000e+02 7.157583618164062500e+01 3.887791824340820312e+01 -6.690470036119222641e-03 6.590797901153564453e+00 1.975232124328613281e+00 -5.209728144109249115e-03
8.270000000000000000e+02 7.060109710693359375e+01 2.858444213867187500e+01 -4.233202636241912842e-01 6.829170703887939453e+00 1.921755194664001465e+00 1.508880257606506348e-01
8.280000000000000000e+02 7.284111785888671875e+01 2.230509948730468750e+01 -1.016782820224761963e-01 7.142123699188232422e+00 2.112133502960205078e+00 6.444890499114990234e-01
8.290000000000000000e+02 7.161582946777343750e+01 1.717811393737792969e+01 4.532216787338256836e-01 7.118765830993652344e+00 2.271596431732177734e+00 5.189750194549560547e-01
8.300000000000000000e+02 6.619937133789062500e+01 9.206378936767578125e+00 9.725146889686584473e-01 8.022785186767578125e+00 2.698589801788330078e+00 2.117672413587570190e-01
8.310000000000000000e+02 7.308244323730468750e+01 2.133201122283935547e+00 7.781068980693817139e-02 6.989314079284667969e+00 2.120137453079223633e+00 -7.892541289329528809e-01
8.320000000000000000e+02 5.974873733520507812e+01 -2.148680686950683594e+00 1.374101400375366211e+00 3.187711000442504883e+00 1.368543744087219238e+00 1.328926920890808105e+00
8.330000000000000000e+02 6.321451187133789062e+01 -1.215748977661132812e+01 -5.269015312194824219e+00 -7.320919036865234375e-01 -1.800332069396972656e+00 -1.300508022308349609e+00
8.340000000000000000e+02 5.798012542724609375e+01 4.065119552612304688e+01 4.549292922019958496e-01 3.352440834045410156e+00 1.142210960388183594e+00 -6.152587011456489563e-02
8.350000000000000000e+02 6.282276535034179688e+01 4.109315109252929688e+01 2.631620168685913086e-01 4.448010921478271484e+00 1.413351893424987793e+00 -5.715078860521316528e-02
8.360000000000000000e+02 6.187088012695312500e+01 3.009737586975097656e+01 -2.942007780075073242e-01 4.312096595764160156e+00 1.205368757247924805e+00 -8.173036575317382812e-01
8.370000000000000000e+02 6.161367034912109375e+01 1.997565460205078125e+01 1.320667147636413574e+00 7.550036430358886719e+00 2.661211013793945312e+00 -2.242898941040039062e+00
8.380000000000000000e+02 6.071617126464843750e+01 2.104265403747558594e+01 -2.176987975835800171e-01 3.617674589157104492e+00 1.019992709159851074e+00 -1.958338379859924316e+00
8.390000000000000000e+02 6.297452163696289062e+01 1.914237022399902344e+01 1.160508751869201660e+00 8.991265296936035156e+00 3.045532226562500000e+00 -1.207646846771240234e+00
8.400000000000000000e+02 6.251369094848632812e+01 1.641855430603027344e+01 3.550264239311218262e-01 1.157108402252197266e+01 3.577833175659179688e+00 -6.945176720619201660e-01
8.410000000000000000e+02 6.426528167724609375e+01 1.726948928833007812e+01 1.187777161598205566e+00 8.612178802490234375e+00 2.939986705780029297e+00 -2.520947158336639404e-01
8.420000000000000000e+02 6.217652893066406250e+01 1.229559421539306641e+01 2.713566124439239502e-01 1.118548107147216797e+01 3.437051296234130859e+00 8.185496330261230469e-01
8.430000000000000000e+02 6.191203689575195312e+01 9.548165321350097656e+00 8.081404566764831543e-01 1.061842155456542969e+01 3.427968740463256836e+00 1.937508344650268555e+00
8.440000000000000000e+02 6.159209823608398438e+01 8.128481864929199219e+00 7.596998810768127441e-01 9.306606292724609375e+00 3.019891738891601562e+00 2.355506658554077148e+00
8.450000000000000000e+02 6.286106872558593750e+01 2.778704643249511719e+00 8.843879699707031250e-01 6.039938926696777344e+00 2.077298164367675781e+00 9.453793168067932129e-01
8.460000000000000000e+02 5.888490295410156250e+01 3.044681549072265625e+00 1.691641569137573242e+00 3.934537649154663086e+00 1.687853693962097168e+00 2.484911918640136719e+00
8.470000000000000000e+02 5.648917007446289062e+01 -4.029488265514373779e-01 2.036499261856079102e+00 3.509732723236083984e+00 1.663869619369506836e+00 2.511634826660156250e+00
8.480000000000000000e+02 5.562278366088867188e+01 -1.518829464912414551e+00 2.346540451049804688e+00 3.127279281616210938e+00 1.642145872116088867e+00 2.569571971893310547e+00
8.490000000000000000e+02 5.497830200195312500e+01 -4.495017528533935547e+00 1.644917964935302734e+00 2.328730821609497070e+00 1.192094564437866211e+00 1.925217270851135254e+00
8.500000000000000000e+02 5.376615142822265625e+01 -3.639553308486938477e+00 2.398795604705810547e+00 2.648260831832885742e+00 1.514116883277893066e+00 2.462892770767211914e+00
8.510000000000000000e+02 5.075805664062500000e+01 -5.423091888427734375e+00 7.458139210939407349e-02 7.313109040260314941e-01 2.417676895856857300e-01 1.502530097961425781e+00
8.520000000000000000e+02 4.942879104614257812e+01 -5.330923080444335938e+00 -2.835322618484497070e+00 -3.362327516078948975e-01 -9.514666199684143066e-01 9.759263992309570312e-01
8.530000000000000000e+02 4.674546051025390625e+01 -4.744672298431396484e+00 -4.733045101165771484e+00 -5.476738214492797852e-01 -1.584215760231018066e+00 1.440463066101074219e+00
8.540000000000000000e+02 4.299419403076171875e+01 -5.531100273132324219e+00 -1.927703738212585449e+00 3.024144172668457031e+00 3.289321362972259521e-01 -1.466989278793334961e+00
8.550000000000000000e+02 4.286268234252929688e+01 -3.836114168167114258e+00 -2.352760553359985352e+00 1.503590345382690430e+00 -2.547510564327239990e-01 -4.352695345878601074e-01
8.560000000000000000e+02 4.038061904907226562e+01 -1.297211050987243652e+00 1.999239802360534668e+00 9.696620941162109375e+00 3.508758306503295898e+00 -3.709476947784423828e+00
8.570000000000000000e+02 3.985327911376953125e+01 -3.099739551544189453e+00 -1.557864785194396973e+00 8.846159934997558594e+00 2.186488628387451172e+00 -1.621428251266479492e+00
8.580000000000000000e+02 2.867717361450195312e+01 -1.239514470100402832e+00 3.884550333023071289e+00 4.593925178050994873e-01 1.303182840347290039e+00 8.969593048095703125e-02
8.590000000000000000e+02 2.842531394958496094e+01 -3.858479857444763184e-02 4.233796119689941406e+00 4.459502398967742920e-01 1.403923988342285156e+00 -5.667836666107177734e-01
8.600000000000000000e+02 2.715576553344726562e+01 -5.131781101226806641e-01 3.618006706237792969e+00 3.398036211729049683e-02 1.095596075057983398e+00 -3.105677068233489990e-01
8.610000000000000000e+02 2.637611007690429688e+01 5.487112998962402344e-01 2.911486387252807617e+00 1.094072163105010986e-01 9.062681198120117188e-01 -6.193091869354248047e-01
8.620000000000000000e+02 2.332334899902343750e+01 3.196186065673828125e+00 -4.663662910461425781e-01 -1.105110287666320801e+00 -4.714429676532745361e-01 8.460113406181335449e-01
8.630000000000000000e+02 2.065425109863281250e+01 4.310121059417724609e+00 -2.238588184118270874e-01 -6.824926137924194336e-01 -2.719054520130157471e-01 7.745824456214904785e-01
8.640000000000000000e+02 1.967756080627441406e+01 5.203649520874023438e+00 -6.540241837501525879e-01 -1.411300301551818848e-01 -2.385462671518325806e-01 6.772000789642333984e-01
8.650000000000000000e+02 1.724202537536621094e+01 8.855793952941894531e+00 -3.293099403381347656e-01 2.312307834625244141e+00 5.948994159698486328e-01 -6.412882804870605469e-01
8.660000000000000000e+02 1.560231590270996094e+01 1.123790550231933594e+01 1.458160758018493652e+00 9.510703086853027344e+00 3.290659189224243164e+00 -3.359444141387939453e+00
8.670000000000000000e+02 1.346603012084960938e+01 1.502893161773681641e+01 1.091609120368957520e+00 1.277155494689941406e+01 4.158948898315429688e+00 -1.199958682060241699e+00
8.680000000000000000e+02 6.365477442741394043e-01 1.915459251403808594e+01 2.264271257445216179e-03 8.786475658416748047e-01 2.642735540866851807e-01 -2.296156585216522217e-01
8.690000000000000000e+02 1.848714590072631836e+00 1.631428909301757812e+01 9.975957125425338745e-02 1.108436584472656250e+00 3.624588549137115479e-01 -3.987710475921630859e-01
8.700000000000000000e+02 6.128557324409484863e-01 1.492009162902832031e+01 3.527414053678512573e-02 -2.510510087013244629e-01 -6.473305821418762207e-02 -1.067738085985183716e-01
8.710000000000000000e+02 1.471175193786621094e+00 9.097304344177246094e+00 -5.182777531445026398e-03 -1.212119609117507935e-01 -3.791842237114906311e-02 -1.336136162281036377e-01
8.720000000000000000e+02 1.114631557464599609e+01 1.301310181617736816e+00 3.894254684448242188e+00 1.785529899597167969e+01 6.524866104125976562e+00 1.615725994110107422e+00
8.730000000000000000e+02 1.092102527618408203e+01 -1.459051132202148438e+00 2.913725137710571289e+00 1.809718894958496094e+01 6.303274154663085938e+00 -1.025650501251220703e+00
8.740000000000000000e+02 1.855750465393066406e+01 -1.033183956146240234e+01 -1.060059189796447754e+00 1.151561260223388672e+00 2.745062112808227539e-02 5.356544852256774902e-01
8.750000000000000000e+02 2.043865966796875000e+01 -6.057577133178710938e+00 1.286162018775939941e+00 9.880505800247192383e-01 6.822637319564819336e-01 -2.935062050819396973e-01
8.760000000000000000e+02 1.861165428161621094e+01 -6.007684230804443359e+00 1.033951044082641602e+00 2.559368371963500977e+00 1.077995896339416504e+00 -2.612883448600769043e-01
8.770000000000000000e+02 2.295012855529785156e+01 -1.591588735580444336e+00 3.051661729812622070e+00 -8.044878840446472168e-01 6.741521358489990234e-01 -1.870690286159515381e-02
8.780000000000000000e+02 2.592168998718261719e+01 -1.464069962501525879e+00 3.035434007644653320e+00 -4.870346188545227051e-01 7.645198106765747070e-01 1.683294177055358887e-01
8.790000000000000000e+02 2.430081176757812500e+01 2.238070487976074219e+00 2.813827693462371826e-01 -7.221131324768066406e-01 -1.322191208600997925e-01 3.159257769584655762e-01
8.800000000000000000e+02 5.977104949951171875e+01 3.714476013183593750e+01 3.435286581516265869e-01 3.658781290054321289e+00 1.200692892074584961e+00 -2.096390575170516968e-01
8.810000000000000000e+02 5.820388412475585938e+01 3.065393638610839844e+01 1.645622551441192627e-01 2.834104299545288086e+00 8.995999097824096680e-01 -5.319378972053527832e-01
8.820000000000000000e+02 5.604525756835937500e+01 2.154781150817871094e+01 -3.368340969085693359e+00 9.123697131872177124e-02 -9.831312298774719238e-01 -4.227543473243713379e-01
8.830000000000000000e+02 5.459376144409179688e+01 2.142679214477539062e+01 -3.040198326110839844e+00 -1.444634348154067993e-01 -9.553985595703125000e-01 -3.260582685470581055e-01
8.840000000000000000e+02 5.979696273803710938e+01 2.258831024169921875e+01 -1.255830764770507812e+00 2.479268074035644531e+00 3.670312166213989258e-01 -1.523785471916198730e+00
8.850000000000000000e+02 5.288605499267578125e+01 4.054116058349609375e+01 4.478084743022918701e-01 2.806348562240600586e+00 9.762470722198486328e-01 4.550606012344360352e-02
8.860000000000000000e+02 4.821375274658203125e+01 3.742887496948242188e+01 1.932950615882873535e-01 2.652981996536254883e+00 8.538830876350402832e-01 3.381241261959075928e-01
8.870000000000000000e+02 4.840447998046875000e+01 2.885110473632812500e+01 -1.572126895189285278e-01 2.228124141693115234e+00 6.212733983993530273e-01 1.013749361038208008e+00
8.880000000000000000e+02 4.962831497192382812e+01 2.136616516113281250e+01 -9.397598505020141602e-01 9.604148864746093750e-01 6.196515168994665146e-03 7.581776976585388184e-01
8.890000000000000000e+02 4.915706634521484375e+01 1.933449363708496094e+01 -3.805925548076629639e-01 4.569473862648010254e-01 2.290645614266395569e-02 2.610202133655548096e-01
8.900000000000000000e+02 5.174133300781250000e+01 2.055682182312011719e+01 -1.883085012435913086e+00 1.802869141101837158e-02 -5.595169067382812500e-01 -2.270636111497879028e-01
8.910000000000000000e+02 3.790600585937500000e+01 4.044898605346679688e+01 -3.050472736358642578e-01 3.023721933364868164e+00 8.156024217605590820e-01 3.087096102535724640e-02
8.920000000000000000e+02 4.288348388671875000e+01 4.075980377197265625e+01 -1.186075583100318909e-01 2.908796787261962891e+00 8.370567560195922852e-01 1.193021982908248901e-01
8.930000000000000000e+02 4.136069107055664062e+01 3.340308380126953125e+01 -4.919282197952270508e-01 3.259485483169555664e+00 8.302671313285827637e-01 4.904895126819610596e-01
8.940000000000000000e+02 4.409276580810546875e+01 2.130806350708007812e+01 -4.661742448806762695e-01 3.494470119476318359e+00 9.084887504577636719e-01 1.497832655906677246e+00
8.950000000000000000e+02 4.472323226928710938e+01 1.583448410034179688e+01 1.637872576713562012e+00 2.243360519409179688e+00 1.164369940757751465e+00 1.914112210273742676e+00
8.960000000000000000e+02 3.429061126708984375e+01 1.108406543731689453e+01 6.743667125701904297e-01 1.005552005767822266e+01 3.218966007232666016e+00 -1.426699995994567871e+00
8.970000000000000000e+02 4.264757537841796875e+01 1.387286567687988281e+01 2.327910184860229492e+00 4.408957004547119141e+00 2.021060228347778320e+00 3.034465312957763672e+00
8.980000000000000000e+02 3.875609970092773438e+01 3.196400642395019531e+01 -7.276949882507324219e-01 3.585573673248291016e+00 8.573636412620544434e-01 3.286000192165374756e-01
8.990000000000000000e+02 3.425883865356445312e+01 2.183601570129394531e+01 -7.501502633094787598e-01 5.577567100524902344e+00 1.448225021362304688e+00 -3.014694750308990479e-01
9.000000000000000000e+02 3.412949752807617188e+01 1.714655494689941406e+01 4.568562507629394531e-01 7.131054401397705078e+00 2.276373147964477539e+00 -1.140607476234436035e+00
9.010000000000000000e+02 3.372947692871093750e+01 3.935086965560913086e+00 1.177442550659179688e+00 1.615161323547363281e+01 5.198717117309570312e+00 1.820826768875122070e+00
9.020000000000000000e+02 3.934082031250000000e+01 1.175523996353149414e+00 1.160530209541320801e+00 1.391178035736083984e+01 4.521693229675292969e+00 -2.537166595458984375e+00
9.030000000000000000e+02 3.275139999389648438e+01 4.043419265747070312e+01 -2.761498689651489258e-01 2.944845199584960938e+00 8.006086349487304688e-01 -4.591873288154602051e-02
9.040000000000000000e+02 2.792877388000488281e+01 3.725038146972656250e+01 -1.137600541114807129e-01 2.698945760726928711e+00 7.755557298660278320e-01 -2.298807054758071899e-01
9.050000000000000000e+02 2.981970405578613281e+01 2.918316459655761719e+01 -7.557449340820312500e-01 3.109737634658813477e+00 7.061977982521057129e-01 -8.616147637367248535e-01
9.060000000000000000e+02 2.715687370300292969e+01 2.149761581420898438e+01 -8.607558012008666992e-01 4.085734486579895020e-01 -1.356547027826309204e-01 -3.045675158500671387e-01
9.070000000000000000e+02 2.585314941406250000e+01 2.195184326171875000e+01 -1.787354826927185059e+00 1.149840429425239563e-01 -5.017112493515014648e-01 3.644257038831710815e-02
9.080000000000000000e+02 2.844343948364257812e+01 2.093752861022949219e+01 5.321298241615295410e-01 1.595937848091125488e+00 6.384202837944030762e-01 -1.242024898529052734e+00
9.090000000000000000e+02 2.963737106323242188e+01 2.011275863647460938e+01 1.495876312255859375e+00 4.159330844879150391e+00 1.696562170982360840e+00 -2.144237756729125977e+00
9.100000000000000000e+02 3.032033920288085938e+01 2.124400711059570312e+01 -1.921201348304748535e-01 4.525370597839355469e+00 1.299975037574768066e+00 -1.390967011451721191e+00
9.110000000000000000e+02 3.054715156555175781e+01 1.892353057861328125e+01 1.388447642326354980e+00 5.820930957794189453e+00 2.162813425064086914e+00 -2.495002746582031250e+00
9.120000000000000000e+02 3.210648345947265625e+01 1.487307548522949219e+01 8.021987080574035645e-01 8.119574546813964844e+00 2.676532030105590820e+00 -2.414729833602905273e+00
9.130000000000000000e+02 3.250872039794921875e+01 1.352439498901367188e+01 7.936310768127441406e-01 8.918041229248046875e+00 2.913501501083374023e+00 -2.348462104797363281e+00
9.140000000000000000e+02 3.341562652587890625e+01 9.414157867431640625e+00 5.288707017898559570e-01 1.037869262695312500e+01 3.272269010543823242e+00 -1.502858042716979980e+00
9.150000000000000000e+02 3.693947982788085938e+01 2.915121078491210938e+00 2.046401262283325195e+00 1.254171180725097656e+01 4.376433849334716797e+00 3.289611339569091797e-01
9.160000000000000000e+02 3.276958465576171875e+01 1.039840698242187500e+00 4.027400493621826172e+00 7.927686691284179688e+00 3.586526155471801758e+00 4.540416240692138672e+00
9.170000000000000000e+02 3.100447273254394531e+01 -5.887530744075775146e-02 5.700500011444091797e+00 2.696723699569702148e+00 2.519166946411132812e+00 2.218894958496093750e+00
9.180000000000000000e+02 1.755369567871093750e+01 4.044194412231445312e+01 -2.635798975825309753e-02 3.260534763336181641e+00 9.702529907226562500e-01 5.055529251694679260e-02
9.190000000000000000e+02 2.270313072204589844e+01 4.055152893066406250e+01 5.134670436382293701e-02 2.782761573791503906e+00 8.502324819564819336e-01 1.282795891165733337e-02
9.200000000000000000e+02 2.069985771179199219e+01 3.171295928955078125e+01 -5.269523710012435913e-02 2.379520654678344727e+00 6.980476379394531250e-01 2.544264197349548340e-01
9.210000000000000000e+02 1.973134994506835938e+01 2.246274375915527344e+01 -2.461936235427856445e+00 2.629283368587493896e-01 -6.597024202346801758e-01 -2.032052427530288696e-01
9.220000000000000000e+02 2.336760902404785156e+01 2.547615623474121094e+01 -6.924694776535034180e-01 5.058162212371826172e-01 -5.599598586559295654e-02 -3.419763743877410889e-01
9.230000000000000000e+02 2.456851387023925781e+01 2.237702369689941406e+01 -2.330834388732910156e+00 4.947731643915176392e-02 -6.844071149826049805e-01 2.156923860311508179e-01
9.240000000000000000e+02 1.750144577026367188e+01 3.676170349121093750e+01 -8.651720732450485229e-02 3.239731311798095703e+00 9.459642171859741211e-01 2.208111435174942017e-01
9.250000000000000000e+02 1.653638648986816406e+01 3.233713912963867188e+01 -4.055258929729461670e-01 3.426953554153442383e+00 9.064283370971679688e-01 5.421631336212158203e-01
9.260000000000000000e+02 1.843038940429687500e+01 2.206324005126953125e+01 -1.683140635490417480e+00 1.013201624155044556e-01 -4.745461344718933105e-01 2.506782412528991699e-01
9.270000000000000000e+02 1.901821899414062500e+01 2.374732398986816406e+01 -1.411070346832275391e+00 7.094101309776306152e-01 -2.104980647563934326e-01 1.065563917160034180e+00
9.280000000000000000e+02 1.251848697662353516e+01 4.079491806030273438e+01 -1.512027680873870850e-01 3.960252523422241211e+00 1.142714858055114746e+00 4.868623614311218262e-02
9.290000000000000000e+02 7.975028038024902344e+00 4.109667587280273438e+01 -1.340839117765426636e-01 4.599935054779052734e+00 1.339755415916442871e+00 -5.369076877832412720e-02
9.300000000000000000e+02 7.017015457153320312e+00 3.207351684570312500e+01 -4.309776127338409424e-01 4.871511936187744141e+00 1.332160234451293945e+00 -4.191622734069824219e-01
9.310000000000000000e+02 7.275528430938720703e+00 2.352549171447753906e+01 -3.620774447917938232e-01 5.395282745361328125e+00 1.509961605072021484e+00 -1.501284360885620117e+00
9.320000000000000000e+02 1.158844089508056641e+01 1.711147880554199219e+01 1.560926795005798340e+00 9.650163650512695312e+00 3.363327026367187500e+00 -7.386684417724609375e-01
9.330000000000000000e+02 1.421071052551269531e+01 1.798067855834960938e+01 1.374407172203063965e+00 1.569977664947509766e+01 5.122255325317382812e+00 1.097913503646850586e+00
9.340000000000000000e+02 1.447662067413330078e+01 1.528453922271728516e+01 8.867036700248718262e-01 1.617419433593750000e+01 5.118269443511962891e+00 -9.587583541870117188e-01
9.350000000000000000e+02 1.470486259460449219e+01 1.391967582702636719e+01 7.621738314628601074e-01 1.553721427917480469e+01 4.889816284179687500e+00 -2.615544319152832031e+00
9.360000000000000000e+02 1.468694972991943359e+01 1.087197780609130859e+01 8.128736168146133423e-02 9.895642280578613281e+00 2.993078708648681641e+00 -1.233974695205688477e+00
9.370000000000000000e+02 1.988587617874145508e+00 4.164949417114257812e+01 4.771913215517997742e-02 5.369670391082763672e+00 1.625216841697692871e+00 1.355910487473011017e-02
9.380000000000000000e+02 4.216595172882080078e+00 3.789647293090820312e+01 -9.754532575607299805e-02 5.097987174987792969e+00 1.500132560729980469e+00 -1.439198255538940430e-01
9.390000000000000000e+02 2.071696996688842773e+00 3.599253463745117188e+01 -6.709849089384078979e-02 5.220801353454589844e+00 1.546110749244689941e+00 -7.609649002552032471e-02
9.400000000000000000e+02 2.081333875656127930e+00 2.886739540100097656e+01 -6.966710090637207031e-02 4.448148250579833984e+00 1.313544392585754395e+00 -4.777902066707611084e-01
9.410000000000000000e+02 4.534995555877685547e-01 7.820168972015380859e+00 -9.957239963114261627e-03 -1.135855913162231445e+00 -3.437439501285552979e-01 -4.355343058705329895e-02
9.420000000000000000e+02 7.683849334716796875e-01 3.636965513229370117e+00 3.623544052243232727e-02 -6.756665706634521484e-01 -1.918293535709381104e-01 2.096264809370040894e-01
9.430000000000000000e+02 1.052947521209716797e+01 -1.902078509330749512e+00 9.620880484580993652e-01 1.666317749023437500e+01 5.287580013275146484e+00 1.787826895713806152e+00
9.440000000000000000e+02 9.500611305236816406e+00 -1.631002545356750488e+00 2.653370380401611328e+00 1.121207237243652344e+01 4.159632682800292969e+00 6.048563480377197266e+00
9.450000000000000000e+02 1.300971031188964844e+01 -1.211740589141845703e+01 -1.440956473350524902e+00 9.197498321533203125e+00 2.326962471008300781e+00 4.183140099048614502e-01
9.460000000000000000e+02 1.476798152923583984e+01 -1.079899692535400391e+01 -2.000275135040283203e+00 7.903521060943603516e+00 1.770973801612854004e+00 1.282632231712341309e+00
9.470000000000000000e+02 1.660593605041503906e+01 -1.275758075714111328e+01 1.796005368232727051e-01 3.684390783309936523e+00 1.159197449684143066e+00 1.740297555923461914e+00
9.480000000000000000e+02 1.487847423553466797e+01 2.013143730163574219e+01 2.487940788269042969e+00 1.130656623840332031e+01 4.138352394104003906e+00 3.564301252365112305e+00
9.490000000000000000e+02 1.589591407775878906e+01 2.099813652038574219e+01 1.785904645919799805e+00 4.223257541656494141e+00 1.802748680114746094e+00 3.008999824523925781e+00
9.500000000000000000e+02 1.783905410766601562e+01 2.323544502258300781e+01 -8.980631232261657715e-01 1.847834467887878418e+00 2.849313914775848389e-01 1.364965319633483887e+00
9.510000000000000000e+02 5.929396152496337891e+00 2.329550552368164062e+01 -1.453770250082015991e-01 4.851972579956054688e+00 1.411978602409362793e+00 -1.451913118362426758e+00
9.520000000000000000e+02 3.313496780395507812e+01 1.079768371582031250e+01 3.942178189754486084e-01 9.615586280822753906e+00 3.002941370010375977e+00 -1.837213635444641113e+00
9.530000000000000000e+02 4.392747879028320312e+01 1.700631332397460938e+01 9.003493785858154297e-01 3.313571214675903320e+00 1.264176130294799805e+00 1.919157385826110840e+00
9.540000000000000000e+02 4.686833572387695312e+01 1.768150520324707031e+01 8.079993128776550293e-01 1.199947595596313477e+00 6.023840904235839844e-01 1.037942051887512207e+00
9.550000000000000000e+02 6.692053222656250000e+01 -2.381165313720703125e+01 1.845388889312744141e+00 5.395995140075683594e+00 2.172415256500244141e+00 3.170338392257690430e+00
9.560000000000000000e+02 6.405827331542968750e+01 -2.702962112426757812e+01 -1.787104904651641846e-01 1.117686152458190918e+00 2.816927134990692139e-01 3.725949525833129883e-01
9.570000000000000000e+02 4.890594863891601562e+01 -2.929778861999511719e+01 2.322114229202270508e+00 3.153023719787597656e+00 1.642541408538818359e+00 -2.492013931274414062e+00
9.580000000000000000e+02 4.549964904785156250e+01 -2.484475898742675781e+01 2.078377246856689453e+00 1.333958435058593750e+01 4.625388622283935547e+00 -3.406470537185668945e+00
9.590000000000000000e+02 4.515836334228515625e+01 -2.267531013488769531e+01 8.280756473541259766e-01 1.323846435546875000e+01 4.219961643218994141e+00 -1.278571605682373047e+00
9.600000000000000000e+02 3.537647628784179688e+01 -2.319011116027832031e+01 1.396066665649414062e+00 9.660147666931152344e+00 3.316864490509033203e+00 2.360234975814819336e+00
9.610000000000000000e+02 3.425467300415039062e+01 -2.523497009277343750e+01 1.786718368530273438e+00 5.985072135925292969e+00 2.331537008285522461e+00 2.666801214218139648e+00
9.620000000000000000e+02 3.624131393432617188e+01 -2.604485893249511719e+01 7.277452945709228516e-01 6.979912757873535156e+00 2.312297344207763672e+00 9.075194597244262695e-01
9.630000000000000000e+02 3.563642501831054688e+01 -2.461334037780761719e+01 1.514628171920776367e+00 7.891651630401611328e+00 2.821883916854858398e+00 1.814316511154174805e+00
9.640000000000000000e+02 4.188307189941406250e+01 -2.255937004089355469e+01 2.019319057464599609e+00 9.701545715332031250e+00 3.516259431838989258e+00 -1.377196788787841797e+00
9.650000000000000000e+02 4.544009017944335938e+01 -2.009845924377441406e+01 4.109209477901458740e-01 1.208001995086669922e+01 3.747282505035400391e+00 4.839502871036529541e-01
9.660000000000000000e+02 4.533459854125976562e+01 -2.139947509765625000e+01 1.365339756011962891e-01 1.172484779357910156e+01 3.558414459228515625e+00 -1.462571024894714355e-01
9.670000000000000000e+02 3.667486572265625000e+01 -1.744631767272949219e+01 1.006618976593017578e+00 1.223706817626953125e+01 3.973105907440185547e+00 -1.736381292343139648e+00
9.680000000000000000e+02 3.540628051757812500e+01 -1.627811622619628906e+01 6.665519475936889648e-01 1.442727756500244141e+01 4.528148651123046875e+00 -2.067538499832153320e+00
9.690000000000000000e+02 3.595645523071289062e+01 -1.311595249176025391e+01 2.056224346160888672e+00 1.187405300140380859e+01 4.179083347320556641e+00 -3.030676364898681641e+00
9.700000000000000000e+02 3.561577224731445312e+01 -2.047218513488769531e+01 4.979552030563354492e-01 1.252465152740478516e+01 3.906781911849975586e+00 3.856395483016967773e-01
9.710000000000000000e+02 5.746318817138671875e+01 -3.705516433715820312e+01 6.313458681106567383e-01 6.879966855049133301e-01 3.958027660846710205e-01 -2.926323711872100830e-01
9.720000000000000000e+02 5.621432495117187500e+01 -3.069112014770507812e+01 -2.695698022842407227e+00 -1.125042811036109924e-01 -8.424606919288635254e-01 -4.686085283756256104e-01
9.730000000000000000e+02 4.807487487792968750e+01 -5.083364486694335938e+00 -4.409099102020263672e+00 -3.189562261104583740e-01 -1.418416619300842285e+00 1.374301314353942871e+00
9.740000000000000000e+02 4.868079757690429688e+01 -7.589706897735595703e+00 -4.287470579147338867e-01 2.303487360477447510e-01 -5.951949581503868103e-02 2.271888256072998047e+00
9.750000000000000000e+02 5.841524505615234375e+01 -1.421402454376220703e+01 -2.286187648773193359e+00 3.469920903444290161e-02 -6.754465103149414062e-01 -2.804021239280700684e-01
9.760000000000000000e+02 5.710009765625000000e+01 -1.440572929382324219e+01 -2.190078735351562500e+00 7.545350492000579834e-02 -6.343875527381896973e-01 -1.057370677590370178e-01
9.770000000000000000e+02 5.800556182861328125e+01 -1.302354431152343750e+01 -1.948203206062316895e+00 3.879324793815612793e-01 -4.680812060832977295e-01 -2.323004882782697678e-03
9.780000000000000000e+02 2.971739578247070312e+01 -1.137901842594146729e-01 5.216158866882324219e+00 1.567307412624359131e-01 1.611866831779479980e+00 3.461147099733352661e-02
9.790000000000000000e+02 2.994029045104980469e+01 -8.082743644714355469e+00 -2.003152132034301758e+00 5.153910517692565918e-01 -4.463282823562622070e-01 -4.512119889259338379e-01
9.800000000000000000e+02 3.483754730224609375e+01 -1.348247623443603516e+01 1.848342776298522949e+00 1.439573669433593750e+01 4.873223781585693359e+00 -4.302915573120117188e+00
9.810000000000000000e+02 3.570417022705078125e+01 7.904247641563415527e-01 1.930881738662719727e+00 1.081314468383789062e+01 3.823208093643188477e+00 4.594075977802276611e-01
9.820000000000000000e+02 4.735205459594726562e+01 -1.192217159271240234e+01 9.273022413253784180e-01 2.652823925018310547e+00 1.074037790298461914e+00 1.707807898521423340e+00
9.830000000000000000e+02 4.433507156372070312e+01 -6.915190219879150391e+00 -1.345401048660278320e+00 2.170262813568115234e+00 2.474585473537445068e-01 -5.248663425445556641e-01
9.840000000000000000e+02 5.048617935180664062e+01 -1.292787933349609375e+01 1.035802960395812988e+00 7.966605424880981445e-01 5.497390031814575195e-01 1.938998341560363770e+00
9.850000000000000000e+02 7.937358856201171875e+01 -5.585470199584960938e+00 4.234406631439924240e-03 8.377693176269531250e+00 2.514578342437744141e+00 -7.645125035196542740e-03
9.860000000000000000e+02 7.123454284667968750e+01 -1.884991049766540527e+00 -2.846525013446807861e-01 6.942784309387207031e+00 1.997439503669738770e+00 -9.867240190505981445e-01
9.870000000000000000e+02 7.149436950683593750e+01 -7.264608860015869141e+00 -1.169587850570678711e+00 7.891215324401855469e+00 2.016488075256347656e+00 -8.722196817398071289e-01
9.880000000000000000e+02 1.928281211853027344e+01 6.875227928161621094e+00 -1.617449283599853516e+00 -7.377882003784179688e-01 -7.065712213516235352e-01 1.269968390464782715e+00
9.890000000000000000e+02 7.938594055175781250e+01 -1.252174377441406250e+01 -1.041157823055982590e-02 7.015775680541992188e+00 2.101609230041503906e+00 2.267623245716094971e-01
9.900000000000000000e+02 1.294648361206054688e+01 -1.886871337890625000e+01 1.615838885307312012e+00 1.217339229583740234e+01 4.136769294738769531e+00 2.119779139757156372e-01
9.910000000000000000e+02 1.241072845458984375e+01 -2.210665130615234375e+01 1.015721917152404785e+00 8.851556777954101562e+00 2.960183620452880859e+00 5.101712942123413086e-01
9.920000000000000000e+02 1.678253364562988281e+01 -2.677669525146484375e+01 -3.203774392604827881e-01 3.862826824188232422e+00 1.062734842300415039e+00 -1.153252124786376953e+00
9.930000000000000000e+02 1.900784873962402344e+01 -3.158241844177246094e+01 -9.149776101112365723e-01 2.229832649230957031e+00 3.944564759731292725e-01 -8.217840194702148438e-01
9.940000000000000000e+02 2.022984886169433594e+01 -3.016589927673339844e+01 -1.199851036071777344e+00 1.479326725006103516e+00 8.384270220994949341e-02 -6.768297553062438965e-01
9.950000000000000000e+02 6.407571315765380859e+00 -3.411814880371093750e+01 -4.456512928009033203e-01 4.942512035369873047e+00 1.349058151245117188e+00 5.992437005043029785e-01
9.960000000000000000e+02 1.786882019042968750e+01 -3.029992103576660156e+01 -1.103375792503356934e+00 3.014535427093505859e+00 5.733478665351867676e-01 -8.369709849357604980e-01
9.970000000000000000e+02 2.353679275512695312e+01 -3.043194007873535156e+01 -2.065454244613647461e+00 1.798748970031738281e-02 -6.142400503158569336e-01 7.547623664140701294e-02
9.980000000000000000e+02 3.746571731567382812e+01 -4.079174041748046875e+01 -1.386361122131347656e+00 4.835598468780517578e+00 1.034771323204040527e+00 2.129711657762527466e-01
9.990000000000000000e+02 3.599383163452148438e+01 -2.807592773437500000e+01 2.133473381400108337e-02 6.232242584228515625e+00 1.876073122024536133e+00 1.085929155349731445e+00
1.000000000000000000e+03 4.231234741210937500e+01 -3.239516830444335938e+01 -1.052615880966186523e+00 6.870951175689697266e+00 1.745500564575195312e+00 -3.305658400058746338e-01
1.001000000000000000e+03 5.197299575805664062e+01 -4.088570022583007812e+01 1.436432749032974243e-01 2.246729612350463867e+00 7.171118855476379395e-01 -2.960476279258728027e-01
1.002000000000000000e+03 6.285986328125000000e+01 -4.104779815673828125e+01 7.752698659896850586e-01 2.366107702255249023e+00 9.424132704734802246e-01 1.450134068727493286e-01
1.003000000000000000e+03 6.049865341186523438e+01 -2.961583518981933594e+01 -2.242672681808471680e+00 -2.203095555305480957e-01 -7.388946413993835449e-01 -6.014568209648132324e-01
1.004000000000000000e+03 7.145855712890625000e+01 -3.194753074645996094e+01 -7.446472048759460449e-01 7.383273601531982422e+00 1.991587996482849121e+00 -5.487449234351515770e-04
1.005000000000000000e+03 7.339074707031250000e+01 -3.297410202026367188e+01 -4.727990031242370605e-01 8.078861236572265625e+00 2.281818628311157227e+00 -1.473945230245590210e-01
1.006000000000000000e+03 7.390838623046875000e+01 -3.666331100463867188e+01 -1.732654869556427002e-01 7.863543033599853516e+00 2.307083129882812500e+00 -5.208677612245082855e-03
1.007000000000000000e+03 7.933445739746093750e+01 2.763058423995971680e+00 1.452243607491254807e-02 7.093018054962158203e+00 2.132261991500854492e+00 -1.316211223602294922e-01
1.008000000000000000e+03 6.081974029541015625e+01 3.488393068313598633e+00 1.186464190483093262e+00 5.806446075439453125e+00 2.097873210906982422e+00 2.030206203460693359e+00
1.009000000000000000e+03 5.899050140380859375e+01 -3.277364730834960938e+00 1.348475933074951172e+00 2.732202529907226562e+00 1.224203467369079590e+00 1.322797775268554688e+00
1.010000000000000000e+03 6.591308593750000000e+01 1.209448146820068359e+01 9.830705523490905762e-01 8.556209564208984375e+00 2.861783981323242188e+00 2.371331900358200073e-01
1.011000000000000000e+03 7.933889007568359375e+01 8.355113983154296875e+00 1.128463353961706161e-02 6.201002597808837891e+00 1.863686084747314453e+00 -7.039070874452590942e-02
1.012000000000000000e+03 6.829591369628906250e+01 1.580720520019531250e+01 8.407422304153442383e-01 7.649552822113037109e+00 2.547088623046875000e+00 3.482082486152648926e-01
1.013000000000000000e+03 7.932024383544921875e+01 1.672918128967285156e+01 8.147832006216049194e-03 6.246200084686279297e+00 1.876304268836975098e+00 8.485042303800582886e-02
1.014000000000000000e+03 7.271733856201171875e+01 2.332534599304199219e+01 -1.578593105077743530e-01 7.151401042938232422e+00 2.098062515258789062e+00 5.976023674011230469e-01
1.015000000000000000e+03 7.929955291748046875e+01 2.379128646850585938e+01 -6.124326493591070175e-03 7.316015243530273438e+00 2.192967414855957031e+00 1.188566535711288452e-01
1.016000000000000000e+03 3.459208679199218750e+01 1.565466308593750000e+01 5.785777568817138672e-01 7.839467048645019531e+00 2.525413513183593750e+00 -1.144254207611083984e+00
1.017000000000000000e+03 3.504892349243164062e+01 6.527778148651123047e+00 7.593727707862854004e-01 1.284036636352539062e+01 4.079921722412109375e+00 3.985337018966674805e-01
1.018000000000000000e+03 6.771611022949218750e+01 3.051258277893066406e+01 -4.380815029144287109e-01 6.143975257873535156e+00 1.711768150329589844e+00 -1.989042758941650391e-01
1.019000000000000000e+03 7.932761383056640625e+01 2.932278633117675781e+01 -6.786517333239316940e-03 8.000322341918945312e+00 2.398060798645019531e+00 6.146608665585517883e-02
1.020000000000000000e+03 5.879095077514648438e+01 2.440627670288085938e+01 -8.214833736419677734e-01 1.833818435668945312e+00 3.037005066871643066e-01 -1.395235300064086914e+00
1.021000000000000000e+03 5.648535919189453125e+01 2.268965530395507812e+01 -1.820933103561401367e+00 -4.237393289804458618e-02 -5.589921474456787109e-01 -1.087943390011787415e-01
1.022000000000000000e+03 5.100849151611328125e+01 2.199487495422363281e+01 -1.220069766044616699e+00 6.173301935195922852e-01 -1.808218955993652344e-01 5.434468388557434082e-01
1.023000000000000000e+03 4.282614517211914062e+01 2.151601600646972656e+01 -5.816653370857238770e-01 4.021182537078857422e+00 1.031855225563049316e+00 1.451394438743591309e+00
1.024000000000000000e+03 3.594157791137695312e+01 2.057464027404785156e+01 -5.584031343460083008e-01 5.950311660766601562e+00 1.617572665214538574e+00 6.675008684396743774e-02
1.025000000000000000e+03 6.403779602050781250e+01 3.152036476135253906e+01 -3.013936877250671387e-01 5.062368392944335938e+00 1.428292393684387207e+00 -5.363323688507080078e-01
1.026000000000000000e+03 5.983516693115234375e+01 3.248257064819335938e+01 1.339653879404067993e-01 3.580677986145019531e+00 1.114392995834350586e+00 -5.258082151412963867e-01
1.027000000000000000e+03 4.842710494995117188e+01 3.427886581420898438e+01 1.392132788896560669e-01 2.549062967300415039e+00 8.064828515052795410e-01 5.515021085739135742e-01
1.028000000000000000e+03 3.431552886962890625e+01 3.186672592163085938e+01 -7.851373553276062012e-01 3.557511806488037109e+00 8.317123055458068848e-01 -2.507916688919067383e-01
1.029000000000000000e+03 3.043277359008789062e+01 3.102121925354003906e+01 -6.243948936462402344e-01 3.074966192245483398e+00 7.351714372634887695e-01 -6.653252243995666504e-01
1.030000000000000000e+03 2.134313392639160156e+01 2.994961357116699219e+01 -9.250540286302566528e-02 1.791669249534606934e+00 5.097491741180419922e-01 2.199856191873550415e-01
1.031000000000000000e+03 1.806705474853515625e+01 3.128402709960937500e+01 -3.317265212535858154e-01 2.995686531066894531e+00 7.991879582405090332e-01 6.597904562950134277e-01
1.032000000000000000e+03 2.355803489685058594e+00 3.180121421813964844e+01 -6.857272982597351074e-02 4.871899127960205078e+00 1.440997838973999023e+00 -3.180992305278778076e-01
1.033000000000000000e+03 1.357809066772460938e+01 1.073653411865234375e+01 -5.846512913703918457e-01 1.010358619689941406e+01 2.855680704116821289e+00 -5.430436134338378906e-01
1.034000000000000000e+03 1.248123931884765625e+01 9.744463920593261719e+00 -1.269507646560668945e+00 9.793251991271972656e+00 2.557123184204101562e+00 -1.391703486442565918e-01
1.035000000000000000e+03 3.903572845458984375e+01 4.707623481750488281e+00 1.053776592016220093e-01 1.532479381561279297e+01 4.629051208496093750e+00 4.522468149662017822e-01
1.036000000000000000e+03 3.457978439331054688e+01 9.666703224182128906e+00 6.394895911216735840e-01 1.077867794036865234e+01 3.425450325012207031e+00 -1.030776143074035645e+00
1.037000000000000000e+03 4.607693481445312500e+01 -2.606250953674316406e+01 2.604518651962280273e+00 1.117137622833251953e+01 4.132768630981445312e+00 -4.620435237884521484e+00
1.038000000000000000e+03 5.841194391250610352e-01 -1.728312492370605469e+00 -2.630810253322124481e-02 -2.277210503816604614e-01 -7.620874792337417603e-02 -1.626925766468048096e-01
1.039000000000000000e+03 7.706520557403564453e-01 -1.671732068061828613e+00 -3.335757181048393250e-02 -2.012810558080673218e-01 -7.039158791303634644e-02 -1.967857927083969116e-01
1.040000000000000000e+03 2.530868053436279297e+00 -1.668051838874816895e+00 -9.819310903549194336e-02 -3.317563608288764954e-02 -3.941062465310096741e-02 -3.577084541320800781e-01
1.041000000000000000e+03 2.648267269134521484e+00 -1.925879478454589844e+00 -2.855021506547927856e-02 -2.616436034440994263e-02 -1.641437225043773651e-02 -3.490484952926635742e-01
1.042000000000000000e+03 1.981569528579711914e+00 -4.163278198242187500e+01 3.304000943899154663e-02 5.706494331359863281e+00 1.721860289573669434e+00 -9.043448604643344879e-03
1.043000000000000000e+03 1.174267292022705078e+00 -4.009673690795898438e+01 -4.097017645835876465e-02 5.720454692840576172e+00 1.703845381736755371e+00 -2.398227900266647339e-02
1.044000000000000000e+03 7.459891438484191895e-01 -3.644028472900390625e+01 -1.702907611615955830e-03 5.592266559600830078e+00 1.677169203758239746e+00 8.288041502237319946e-02
1.045000000000000000e+03 8.243902921676635742e-01 -3.508239746093750000e+01 -1.969193294644355774e-02 5.435481548309326172e+00 1.624736905097961426e+00 1.032424196600914001e-01
1.046000000000000000e+03 2.269909620285034180e+00 -3.677392578125000000e+01 -9.646051377058029175e-02 5.432564735412597656e+00 1.600831270217895508e+00 1.616666018962860107e-01
1.047000000000000000e+03 8.536105155944824219e-01 -3.369768524169921875e+01 -4.498622566461563110e-02 5.223453044891357422e+00 1.553540110588073730e+00 1.588001847267150879e-01
1.048000000000000000e+03 7.840393185615539551e-01 -2.952040672302246094e+01 -1.011307613225653768e-04 4.196280956268310547e+00 1.258853912353515625e+00 2.550185620784759521e-01
1.049000000000000000e+03 7.528307437896728516e-01 -2.813692474365234375e+01 -2.140014432370662689e-02 3.730065345764160156e+00 1.112599611282348633e+00 2.746974229812622070e-01
1.050000000000000000e+03 2.244685411453247070e+00 -2.808527755737304688e+01 -4.943293333053588867e-02 3.981650829315185547e+00 1.179665327072143555e+00 7.286462187767028809e-01
1.051000000000000000e+03 7.277766466140747070e-01 -2.675923728942871094e+01 9.490496478974819183e-03 3.214370727539062500e+00 9.671583771705627441e-01 2.866919040679931641e-01
1.052000000000000000e+03 6.795683503150939941e-01 -2.264593124389648438e+01 -4.047128837555646896e-03 1.591699719429016113e+00 4.762957692146301270e-01 2.529288232326507568e-01
1.053000000000000000e+03 6.649119257926940918e-01 -2.127700996398925781e+01 3.938159346580505371e-02 1.109195351600646973e+00 3.445730805397033691e-01 2.194851338863372803e-01
1.054000000000000000e+03 1.990011453628540039e+00 -2.118720054626464844e+01 7.218185812234878540e-02 2.003275871276855469e+00 6.226373314857482910e-01 5.812687277793884277e-01
1.055000000000000000e+03 6.465523242950439453e-01 -1.990839195251464844e+01 4.254161380231380463e-03 6.994554996490478516e-01 2.111129015684127808e-01 1.716777533292770386e-01
1.056000000000000000e+03 5.782999396324157715e-01 -1.581350612640380859e+01 1.378050539642572403e-02 -3.809313103556632996e-02 -7.293788250535726547e-03 5.428506806492805481e-02
1.057000000000000000e+03 5.604349970817565918e-01 -1.445325374603271484e+01 8.202462457120418549e-03 -1.369420886039733887e-01 -3.862188756465911865e-02 2.711517736315727234e-02
1.058000000000000000e+03 1.674270749092102051e+00 -1.438566303253173828e+01 2.497352287173271179e-02 7.860352396965026855e-01 2.433026283979415894e-01 8.837798982858657837e-02
1.059000000000000000e+03 5.530997514724731445e-01 -1.309334564208984375e+01 -6.707911379635334015e-03 -2.004106640815734863e-01 -6.213556975126266479e-02 2.457536011934280396e-02
1.060000000000000000e+03 5.398051142692565918e-01 -8.970554351806640625e+00 2.383482176810503006e-03 -5.571227073669433594e-01 -1.664217561483383179e-01 6.939333677291870117e-02
1.061000000000000000e+03 4.703493714332580566e-01 -7.608626365661621094e+00 -3.953809209633618593e-04 -7.347018718719482422e-01 -2.205291837453842163e-01 6.591825187206268311e-02
1.062000000000000000e+03 1.231331110000610352e+00 -6.197144031524658203e+00 5.134761333465576172e-02 -3.039510548114776611e-01 -7.578103244304656982e-02 8.166729658842086792e-02
1.063000000000000000e+03 7.253286743164062500e+01 -3.859418869018554688e+01 -4.057396575808525085e-02 7.142675399780273438e+00 2.130630493164062500e+00 1.375582814216613770e-01
1.064000000000000000e+03 3.232713317871093750e+01 -4.082384109497070312e+01 -6.906934380531311035e-01 3.346378326416015625e+00 7.967054843902587891e-01 3.115022778511047363e-01
1.065000000000000000e+03 1.256737422943115234e+01 -4.118862533569335938e+01 -4.397664666175842285e-01 3.844108343124389648e+00 1.021302580833435059e+00 -2.747375890612602234e-02
1.066000000000000000e+03 7.846720123291015625e+01 4.021293258666992188e+01 -4.472009837627410889e-02 8.039010047912597656e+00 2.398287057876586914e+00 -9.199883043766021729e-02
1.067000000000000000e+03 7.801374816894531250e+01 4.173239135742187500e+01 1.278782933950424194e-01 7.980326175689697266e+00 2.432461261749267578e+00 -3.581241145730018616e-02
1.068000000000000000e+03 7.870035552978515625e+01 3.877941894531250000e+01 -3.366547450423240662e-02 8.111030578613281250e+00 2.423209667205810547e+00 -5.567394196987152100e-02
1.069000000000000000e+03 7.802774047851562500e+01 3.585736083984375000e+01 -3.202829137444496155e-02 7.990071296691894531e+00 2.387413024902343750e+00 1.476211287081241608e-02
1.070000000000000000e+03 7.936320495605468750e+01 3.480691146850585938e+01 -9.338628500699996948e-03 8.240994453430175781e+00 2.469496965408325195e+00 1.305142510682344437e-02
1.071000000000000000e+03 7.790024566650390625e+01 3.359315109252929688e+01 -1.705057546496391296e-02 7.920905590057373047e+00 2.371156454086303711e+00 5.421543493866920471e-02
1.072000000000000000e+03 7.932592773437500000e+01 3.346877670288085938e+01 -1.952365273609757423e-03 8.210067749023437500e+00 2.462434768676757812e+00 2.524203434586524963e-02
1.073000000000000000e+03 7.930934906005859375e+01 3.071424102783203125e+01 -8.619205094873905182e-03 8.097254753112792969e+00 2.426590442657470703e+00 4.580822959542274475e-02
1.074000000000000000e+03 7.797124481201171875e+01 2.809976768493652344e+01 -3.345013409852981567e-02 7.658022880554199219e+00 2.287371873855590820e+00 1.938578188419342041e-01
1.075000000000000000e+03 7.931693267822265625e+01 2.656973648071289062e+01 -4.679998382925987244e-03 7.708568096160888672e+00 2.311166524887084961e+00 9.139360487461090088e-02
1.076000000000000000e+03 7.646981048583984375e+01 2.563944625854492188e+01 -8.430855721235275269e-02 7.335256099700927734e+00 2.175284147262573242e+00 3.778222203254699707e-01
1.077000000000000000e+03 7.930654907226562500e+01 2.518820190429687500e+01 -7.857725024223327637e-03 7.524886131286621094e+00 2.255108594894409180e+00 1.049174591898918152e-01
1.078000000000000000e+03 7.928565216064453125e+01 2.096672439575195312e+01 1.038486487232148647e-03 6.856559753417968750e+00 2.057279348373413086e+00 1.267262846231460571e-01
1.079000000000000000e+03 7.928820800781250000e+01 1.955042648315429688e+01 5.181242246180772781e-03 6.631521701812744141e+00 1.991010904312133789e+00 1.207232549786567688e-01
1.080000000000000000e+03 7.930317687988281250e+01 1.813684844970703125e+01 1.131078042089939117e-02 6.424299240112304688e+00 1.930683016777038574e+00 1.042871549725532532e-01
1.081000000000000000e+03 7.934162139892578125e+01 1.393787002563476562e+01 7.373520638793706894e-03 6.020474910736083984e+00 1.808354496955871582e+00 3.464188799262046814e-02
1.082000000000000000e+03 7.934480285644531250e+01 1.254442977905273438e+01 1.678984239697456360e-02 5.983854770660400391e+00 1.800193428993225098e+00 8.837273344397544861e-03
1.083000000000000000e+03 7.934524536132812500e+01 1.114930248260498047e+01 9.084623306989669800e-03 6.002561092376708984e+00 1.803493738174438477e+00 -1.873321272432804108e-02
1.084000000000000000e+03 7.933466339111328125e+01 6.958289146423339844e+00 6.541111972182989120e-03 6.372988700866699219e+00 1.913858890533447266e+00 -8.927443623542785645e-02
1.085000000000000000e+03 7.933218383789062500e+01 5.561043262481689453e+00 1.342851575464010239e-02 6.584041118621826172e+00 1.979240894317626953e+00 -1.101027950644493103e-01
1.086000000000000000e+03 7.933222198486328125e+01 4.163450241088867188e+00 -3.636851673945784569e-03 6.827663421630859375e+00 2.047208070755004883e+00 -1.207857802510261536e-01
1.087000000000000000e+03 7.934520721435546875e+01 -3.393000364303588867e-02 1.476337853819131851e-02 7.645750045776367188e+00 2.298154115676879883e+00 -1.265628337860107422e-01
1.088000000000000000e+03 7.935655975341796875e+01 -1.425957798957824707e+00 -3.128043934702873230e-02 7.906193256378173828e+00 2.362473964691162109e+00 -1.115637198090553284e-01
1.089000000000000000e+03 7.813661193847656250e+01 -4.237312316894531250e+00 -5.865820497274398804e-02 8.051166534423828125e+00 2.397752285003662109e+00 -1.601253449916839600e-01
1.090000000000000000e+03 7.937545013427734375e+01 -4.197640419006347656e+00 -4.451352730393409729e-02 8.298858642578125000e+00 2.476303577423095703e+00 -5.439517274498939514e-02
1.091000000000000000e+03 7.936088562011718750e+01 -8.362832069396972656e+00 -1.036833622492849827e-03 8.185914993286132812e+00 2.455463409423828125e+00 1.105875670909881592e-01
1.092000000000000000e+03 7.809992218017578125e+01 -1.112990760803222656e+01 -8.416384458541870117e-02 7.727882862091064453e+00 2.293115615844726562e+00 5.195987820625305176e-01
1.093000000000000000e+03 7.937086486816406250e+01 -1.113645648956298828e+01 5.668234080076217651e-04 7.499279022216796875e+00 2.249953746795654297e+00 2.159646451473236084e-01
1.094000000000000000e+03 7.939891052246093750e+01 -1.529653739929199219e+01 5.517572164535522461e-02 6.019200325012207031e+00 1.822312831878662109e+00 1.710714548826217651e-01
1.095000000000000000e+03 7.814541625976562500e+01 -1.802925109863281250e+01 1.782626956701278687e-01 6.627540588378906250e+00 2.041741132736206055e+00 1.216170284897089005e-02
1.096000000000000000e+03 7.938307189941406250e+01 -1.808456230163574219e+01 7.905498892068862915e-02 5.603445529937744141e+00 1.704750061035156250e+00 -4.016418009996414185e-03
1.097000000000000000e+03 7.937396240234375000e+01 -2.368979263305664062e+01 5.078558623790740967e-02 7.159954547882080078e+00 2.163222074508666992e+00 -2.963207662105560303e-01
1.098000000000000000e+03 7.808682250976562500e+01 -2.508738136291503906e+01 1.460078172385692596e-02 8.065867424011230469e+00 2.424140214920043945e+00 -7.781841158866882324e-01
1.099000000000000000e+03 7.935895538330078125e+01 -2.508694267272949219e+01 -3.694781661033630371e-02 7.797900676727294922e+00 2.328285932540893555e+00 -3.105169236660003662e-01
1.100000000000000000e+03 7.929299926757812500e+01 -2.930104064941406250e+01 1.535939984023571014e-03 9.406899452209472656e+00 2.822530508041381836e+00 -2.148312926292419434e-01
1.101000000000000000e+03 7.781578063964843750e+01 -3.219850540161132812e+01 -1.016396209597587585e-01 9.462262153625488281e+00 2.808186769485473633e+00 -3.216337263584136963e-01
1.102000000000000000e+03 7.927420806884765625e+01 -3.209740447998046875e+01 -1.656421646475791931e-02 1.002732563018798828e+01 3.003228425979614258e+00 -1.264387667179107666e-01
1.103000000000000000e+03 7.930228424072265625e+01 -3.619725418090820312e+01 -1.336974790319800377e-03 1.036046409606933594e+01 3.107738256454467773e+00 -1.673384197056293488e-02
1.104000000000000000e+03 7.921910095214843750e+01 -3.752262115478515625e+01 -4.998954012989997864e-02 1.031673336029052734e+01 3.080023288726806641e+00 3.887221589684486389e-02
1.105000000000000000e+03 7.902324676513671875e+01 -3.884871292114257812e+01 -4.119575396180152893e-02 1.017182731628417969e+01 3.039189577102661133e+00 1.115048974752426147e-01
1.106000000000000000e+03 7.870373535156250000e+01 -4.021653366088867188e+01 -2.488786540925502777e-02 9.991040229797363281e+00 2.989845752716064453e+00 1.509886980056762695e-01
1.107000000000000000e+03 2.767436218261718750e+01 4.070030593872070312e+01 -6.569688022136688232e-02 2.702479600906372070e+00 7.910348176956176758e-01 -1.057041287422180176e-01
1.108000000000000000e+03 4.779014968872070312e+01 4.077528381347656250e+01 2.224657833576202393e-01 2.677729129791259766e+00 8.700584769248962402e-01 1.081591621041297913e-01
1.109000000000000000e+03 3.857736587524414062e-01 1.671626329421997070e+00 -1.229848340153694153e-02 -2.421617507934570312e-01 -7.633806765079498291e-02 1.253514438867568970e-01
1.110000000000000000e+03 4.517443656921386719e+00 1.645891785621643066e+00 -8.176783472299575806e-02 1.454602777957916260e-01 1.910773478448390961e-02 2.302184551954269409e-01
1.111000000000000000e+03 1.293270349502563477e+00 6.309073448181152344e+00 6.474012881517410278e-02 -4.801730513572692871e-01 -1.246298700571060181e-01 2.241603098809719086e-03
1.112000000000000000e+03 5.006025433540344238e-01 9.227937698364257812e+00 2.307251654565334320e-02 -9.784552454948425293e-01 -2.866148352622985840e-01 -6.698470562696456909e-02
1.113000000000000000e+03 6.155070662498474121e-01 1.207172966003417969e+01 2.944686450064182281e-02 -6.551787257194519043e-01 -1.877195537090301514e-01 -7.517605274915695190e-02
1.114000000000000000e+03 1.863687515258789062e+00 1.200273799896240234e+01 -9.651679545640945435e-03 5.549972653388977051e-01 1.636036783456802368e-01 -1.981625407934188843e-01
1.115000000000000000e+03 6.176966428756713867e-01 1.633304595947265625e+01 -3.042628755792975426e-03 3.876125440001487732e-02 1.071558706462383270e-02 -1.441129148006439209e-01
1.116000000000000000e+03 1.881600141525268555e+00 1.771414756774902344e+01 6.671650707721710205e-02 1.435628414154052734e+00 4.507034718990325928e-01 -5.175964236259460449e-01
1.117000000000000000e+03 6.269720792770385742e-01 1.774319648742675781e+01 3.808280080556869507e-02 4.132853746414184570e-01 1.354104578495025635e-01 -1.846221387386322021e-01
1.118000000000000000e+03 6.486856341361999512e-01 2.197472763061523438e+01 8.147410117089748383e-03 1.970298767089843750e+00 5.935338139533996582e-01 -2.711021006107330322e-01
1.119000000000000000e+03 6.454724669456481934e-01 2.337994766235351562e+01 -1.459188293665647507e-02 2.549473047256469727e+00 7.604643702507019043e-01 -2.622381746768951416e-01
1.120000000000000000e+03 1.957223773002624512e+00 2.333062934875488281e+01 -1.961714215576648712e-02 3.041403055191040039e+00 9.065358042716979980e-01 -7.256904840469360352e-01
1.121000000000000000e+03 6.368960142135620117e-01 2.477971076965332031e+01 -2.025251509621739388e-03 3.103811979293823242e+00 9.305360317230224609e-01 -2.450348287820816040e-01
1.122000000000000000e+03 6.997184157371520996e-01 2.900724411010742188e+01 -2.210250869393348694e-02 4.464093208312988281e+00 1.332597255706787109e+00 -1.694139987230300903e-01
1.123000000000000000e+03 7.410077452659606934e-01 3.043752288818359375e+01 -4.014645703136920929e-03 4.765420436859130859e+00 1.428421854972839355e+00 -1.454188376665115356e-01
1.124000000000000000e+03 2.212732076644897461e+00 3.033013153076171875e+01 -9.066299349069595337e-02 4.701334476470947266e+00 1.383201360702514648e+00 -3.929119706153869629e-01
1.125000000000000000e+03 7.729432582855224609e-01 3.186362457275390625e+01 -2.459664456546306610e-02 5.003451824188232422e+00 1.493656635284423828e+00 -1.172809302806854248e-01
1.126000000000000000e+03 6.954232454299926758e-01 3.606609344482421875e+01 3.539240919053554535e-03 5.396024703979492188e+00 1.619869232177734375e+00 -3.545039519667625427e-02
1.127000000000000000e+03 2.280795812606811523e+00 3.823912429809570312e+01 -5.177417770028114319e-02 5.264672756195068359e+00 1.563869595527648926e+00 -1.330065913498401642e-02
1.128000000000000000e+03 8.534615635871887207e-01 3.876753234863281250e+01 1.860640197992324829e-02 5.423880100250244141e+00 1.632745981216430664e+00 8.064667345024645329e-04
1.129000000000000000e+03 1.229740977287292480e+00 4.011125564575195312e+01 -4.243873804807662964e-02 5.390429973602294922e+00 1.604397416114807129e+00 3.359382227063179016e-02
1.130000000000000000e+03 2.885249137878417969e+00 1.658869504928588867e+00 -1.583337485790252686e-01 -7.216539233922958374e-03 -4.966508597135543823e-02 4.240542352199554443e-01
1.131000000000000000e+03 2.086739301681518555e+00 1.908423781394958496e+00 -8.229220658540725708e-02 -1.010829433798789978e-01 -5.501254647970199585e-02 4.177735745906829834e-01
1.132000000000000000e+03 1.698711156845092773e+00 1.598226070404052734e+00 -1.145069897174835205e-01 -1.431592702865600586e-01 -7.729987800121307373e-02 3.725149631500244141e-01
1.133000000000000000e+03 1.509907484054565430e+00 1.612271308898925781e+00 -9.587949514389038086e-02 -1.573501378297805786e-01 -7.596889138221740723e-02 3.461193740367889404e-01
1.134000000000000000e+03 1.341261625289916992e+00 1.865435361862182617e+00 -4.864995181560516357e-02 -2.217348515987396240e-01 -8.111543953418731689e-02 3.418484330177307129e-01
1.135000000000000000e+03 9.189714789390563965e-01 1.604272127151489258e+00 -3.607649356126785278e-02 -2.236954718828201294e-01 -7.793159037828445435e-02 2.500028312206268311e-01
1.136000000000000000e+03 5.625222921371459961e-01 1.646934986114501953e+00 -1.311133243143558502e-02 -2.588349580764770508e-01 -8.158388733863830566e-02 1.628256887197494507e-01
1.137000000000000000e+03 1.150013923645019531e+01 -7.291721105575561523e-01 8.397045135498046875e+00 1.558673572540283203e+01 7.195134162902832031e+00 -2.830303430557250977e+00
1.138000000000000000e+03 1.184551715850830078e+01 -5.948186516761779785e-01 8.517341613769531250e+00 1.359627819061279297e+01 6.634086132049560547e+00 -2.119732856750488281e+00
1.139000000000000000e+03 1.164610195159912109e+01 3.023074865341186523e-01 1.023253631591796875e+01 1.419289207458496094e+01 7.327628612518310547e+00 9.836112856864929199e-01
1.140000000000000000e+03 1.171866226196289062e+01 1.124949812889099121e+00 5.889121532440185547e+00 1.490708065032958984e+01 6.238860607147216797e+00 2.219971418380737305e+00
1.141000000000000000e+03 1.141328048706054688e+01 9.281214475631713867e-01 6.853157997131347656e+00 1.628298187255859375e+01 6.940841674804687500e+00 2.435745954513549805e+00
1.142000000000000000e+03 1.096003341674804688e+01 1.449694275856018066e+00 2.849225282669067383e+00 1.823797798156738281e+01 6.326160907745361328e+00 8.583635687828063965e-01
1.143000000000000000e+03 1.074198246002197266e+01 1.550532341003417969e+00 1.765865683555603027e+00 1.847885513305664062e+01 6.073416233062744141e+00 -4.256467521190643311e-01
1.144000000000000000e+03 1.053284072875976562e+01 1.641127586364746094e+00 1.172360301017761230e+00 1.814378929138183594e+01 5.794844627380371094e+00 -1.779211521148681641e+00
1.145000000000000000e+03 3.116669273376464844e+01 1.756314849853515625e+01 1.172577977180480957e+00 7.087526321411132812e+00 2.478031158447265625e+00 -2.569048643112182617e+00
1.146000000000000000e+03 3.166531753540039062e+01 1.621784973144531250e+01 9.226695299148559570e-01 7.653491973876953125e+00 2.572848558425903320e+00 -2.461515903472900391e+00
1.147000000000000000e+03 3.365789794921875000e+01 7.995559692382812500e+00 3.283174932003021240e-01 1.143413257598876953e+01 3.528735160827636719e+00 -1.024755835533142090e+00
1.148000000000000000e+03 3.882154846191406250e+01 9.041554450988769531e+00 1.987296104431152344e+00 1.381322574615478516e+01 4.740156650543212891e+00 2.288597583770751953e+00
1.149000000000000000e+03 3.607478713989257812e+01 4.699162006378173828e+00 1.550323486328125000e+00 1.325724315643310547e+01 4.442269802093505859e+00 1.257893800735473633e+00
1.150000000000000000e+03 3.918112564086914062e+01 6.045209884643554688e+00 4.975373744964599609e-01 1.654984664916992188e+01 5.114215373992919922e+00 9.695921540260314941e-01
1.151000000000000000e+03 2.532796096801757812e+01 1.341908335685729980e+00 1.481582641601562500e+00 -1.955114156007766724e-01 3.858213722705841064e-01 -2.679454982280731201e-01
1.152000000000000000e+03 2.235050010681152344e+01 4.145367145538330078e+00 -9.753760099411010742e-01 -1.261706829071044922e+00 -6.711248159408569336e-01 1.198657631874084473e+00
1.153000000000000000e+03 2.031306266784667969e+01 5.952845096588134766e+00 -1.764028549194335938e+00 -1.273786187171936035e+00 -9.113444089889526367e-01 1.534686565399169922e+00
1.154000000000000000e+03 1.824568557739257812e+01 7.828039169311523438e+00 -1.152022480964660645e+00 3.750049173831939697e-01 -2.331052720546722412e-01 5.093966126441955566e-01
1.155000000000000000e+03 1.634612464904785156e+01 1.000086021423339844e+01 7.188289165496826172e-01 5.329553127288818359e+00 1.814514517784118652e+00 -2.136932611465454102e+00
1.156000000000000000e+03 1.435002136230468750e+01 1.664311027526855469e+01 -2.518507838249206543e-01 1.483942985534667969e+01 4.376273632049560547e+00 -3.936523497104644775e-01
1.157000000000000000e+03 1.370368099212646484e+01 1.939801788330078125e+01 2.400345802307128906e+00 1.264798927307128906e+01 4.514500617980957031e+00 1.012791752815246582e+00
1.158000000000000000e+03 2.098987579345703125e+01 2.286258125305175781e+01 -3.054696559906005859e+00 -2.764789164066314697e-01 -9.993526339530944824e-01 4.289431497454643250e-02
1.159000000000000000e+03 6.244281387329101562e+01 1.502931308746337891e+01 2.164622396230697632e-01 1.130069732666015625e+01 3.455147981643676758e+00 -1.272161900997161865e-01
1.160000000000000000e+03 6.233378601074218750e+01 1.365050506591796875e+01 1.702810823917388916e-01 1.141718101501464844e+01 3.476238727569580078e+00 3.349432349205017090e-01
1.161000000000000000e+03 6.311149215698242188e+01 1.202177619934082031e+01 4.121949970722198486e-01 1.048379993438720703e+01 3.268798589706420898e+00 6.750759482383728027e-01
1.162000000000000000e+03 6.112607574462890625e+01 6.721474647521972656e+00 1.313942432403564453e+00 8.487191200256347656e+00 2.940340042114257812e+00 2.691095352172851562e+00
1.163000000000000000e+03 5.805481719970703125e+01 1.916167140007019043e+00 1.484844326972961426e+00 3.371881246566772461e+00 1.457017660140991211e+00 2.262254476547241211e+00
1.164000000000000000e+03 5.727765274047851562e+01 7.596209645271301270e-01 1.589567303657531738e+00 3.440855264663696289e+00 1.509126782417297363e+00 2.293399333953857422e+00
1.165000000000000000e+03 5.470306777954101562e+01 -2.591941595077514648e+00 2.322988033294677734e+00 2.760882616043090820e+00 1.525161147117614746e+00 2.507813930511474609e+00
1.166000000000000000e+03 5.279953384399414062e+01 -4.602309703826904297e+00 2.335658788681030273e+00 2.356410980224609375e+00 1.407620906829833984e+00 2.286555290222167969e+00
1.167000000000000000e+03 4.411557006835937500e+01 -4.129314899444580078e+00 -3.988494634628295898e+00 -1.927066408097743988e-02 -1.202329516410827637e+00 7.426495552062988281e-01
1.168000000000000000e+03 4.159238815307617188e+01 -3.955883264541625977e+00 -1.561346173286437988e+00 4.396832942962646484e+00 8.506459593772888184e-01 -1.655055165290832520e+00
1.169000000000000000e+03 3.982825088500976562e+01 -4.264922067523002625e-02 1.444968700408935547e+00 1.226252937316894531e+01 4.112249374389648438e+00 -3.569579839706420898e+00
1.170000000000000000e+03 3.834542846679687500e+01 2.178111314773559570e+00 1.538409590721130371e+00 1.391667175292968750e+01 4.636524200439453125e+00 -1.066231966018676758e+00
1.171000000000000000e+03 3.377972412109375000e+01 5.188005924224853516e+00 7.372526824474334717e-02 1.352897548675537109e+01 4.080810070037841797e+00 1.450269520282745361e-01
1.172000000000000000e+03 3.377349853515625000e+01 6.567171096801757812e+00 3.953923583030700684e-01 1.216254615783691406e+01 3.767381668090820312e+00 -4.043205380439758301e-01
1.173000000000000000e+03 3.969284820556640625e+01 8.751639366149902344e+00 2.074062824249267578e+00 1.638779640197753906e+01 5.538557529449462891e+00 4.346197605133056641e+00
1.174000000000000000e+03 4.073411178588867188e+01 1.149787521362304688e+01 2.399665355682373047e+00 8.785133361816406250e+00 3.355439424514770508e+00 4.099301338195800781e+00
1.175000000000000000e+03 4.158903121948242188e+01 1.279464340209960938e+01 2.519885778427124023e+00 6.601040840148925781e+00 2.736278057098388672e+00 3.549438238143920898e+00
1.176000000000000000e+03 4.367551422119140625e+01 1.487652301788330078e+01 2.064015865325927734e+00 3.199877023696899414e+00 1.579167842864990234e+00 2.450588226318359375e+00
1.177000000000000000e+03 4.798633193969726562e+01 1.854262542724609375e+01 2.760467231273651123e-01 7.946173548698425293e-01 3.211992383003234863e-01 6.422945857048034668e-01
1.178000000000000000e+03 5.040831375122070312e+01 2.002058792114257812e+01 -1.203652620315551758e+00 1.657359898090362549e-01 -3.113749921321868896e-01 -4.500253498554229736e-02
1.179000000000000000e+03 5.313034057617187500e+01 2.100045776367187500e+01 -2.400865077972412109e+00 -2.224151603877544403e-02 -7.269319891929626465e-01 -3.568034470081329346e-01
1.180000000000000000e+03 5.731971740722656250e+01 2.166083908081054688e+01 -3.767022609710693359e+00 -2.074493616819381714e-01 -1.192341566085815430e+00 -3.546215593814849854e-01
1.181000000000000000e+03 6.839389801025390625e+01 -1.508844661712646484e+01 2.637252569198608398e+00 1.406563854217529297e+01 5.010867118835449219e+00 -4.020475387573242188e+00
1.182000000000000000e+03 6.892536926269531250e+01 -1.862864303588867188e+01 5.751489996910095215e-01 1.826574707031250000e+01 5.652268886566162109e+00 6.706910133361816406e-01
1.183000000000000000e+03 6.774314880371093750e+01 -2.264406013488769531e+01 2.571634769439697266e+00 1.040534114837646484e+01 3.893092632293701172e+00 4.258598804473876953e+00
1.184000000000000000e+03 6.599597167968750000e+01 -2.489891242980957031e+01 1.067926764488220215e+00 3.167409420013427734e+00 1.270600914955139160e+00 1.843804478645324707e+00
1.185000000000000000e+03 6.300547409057617188e+01 -2.804614830017089844e+01 -9.473540186882019043e-01 3.939463198184967041e-01 -1.660223007202148438e-01 -7.633046060800552368e-02
1.186000000000000000e+03 6.181595611572265625e+01 -2.891690826416015625e+01 -1.674898505210876465e+00 2.594637498259544373e-02 -4.946856200695037842e-01 -4.694557487964630127e-01
1.187000000000000000e+03 5.909545898437500000e+01 -3.013348007202148438e+01 -2.546701192855834961e+00 -1.909450739622116089e-01 -8.212938904762268066e-01 -6.191817522048950195e-01
1.188000000000000000e+03 5.478128051757812500e+01 -3.073554229736328125e+01 -2.257976531982421875e+00 -1.592359095811843872e-01 -7.251637578010559082e-01 -2.793359756469726562e-01
1.189000000000000000e+03 5.096843338012695312e+01 -3.158763694763183594e+01 -1.221174448728561401e-01 1.627079844474792480e+00 4.514887034893035889e-01 -1.486567854881286621e+00
1.190000000000000000e+03 4.775855255126953125e+01 -2.842111015319824219e+01 2.910383939743041992e+00 5.554427146911621094e+00 2.539443254470825195e+00 -3.582101345062255859e+00
1.191000000000000000e+03 4.677070617675781250e+01 -2.733927536010742188e+01 3.084133863449096680e+00 8.329709053039550781e+00 3.424152612686157227e+00 -4.255149364471435547e+00
1.192000000000000000e+03 4.446043395996093750e+01 -2.392453384399414062e+01 2.162533760070800781e+00 1.220851993560791016e+01 4.311316013336181641e+00 -2.193993568420410156e+00
1.193000000000000000e+03 4.552745056152343750e+01 -1.882033538818359375e+01 1.546473741531372070e+00 1.111297988891601562e+01 3.797836303710937500e+00 2.163014650344848633e+00
1.194000000000000000e+03 4.523487091064453125e+01 -1.742219543457031250e+01 2.329303026199340820e+00 8.451592445373535156e+00 3.234268665313720703e+00 1.775961399078369141e+00
1.195000000000000000e+03 5.304055023193359375e+01 -1.478678607940673828e+01 -2.654554247856140137e-01 9.428139775991439819e-02 -5.135220661759376526e-02 3.767840564250946045e-01
1.196000000000000000e+03 5.441276550292968750e+01 -1.469521713256835938e+01 -1.102020740509033203e+00 1.150625273585319519e-01 -2.960874438285827637e-01 1.905056685209274292e-01
1.197000000000000000e+03 5.576338577270507812e+01 -1.456342983245849609e+01 -1.780567407608032227e+00 3.231982141733169556e-02 -5.244742631912231445e-01 4.647599533200263977e-02
1.198000000000000000e+03 3.560269165039062500e+01 -1.907621383666992188e+01 2.413843870162963867e-01 1.275745773315429688e+01 3.899652719497680664e+00 -5.282030105590820312e-01
1.199000000000000000e+03 3.229129028320312500e+01 -2.708843803405761719e+01 1.038126468658447266e+00 2.339150905609130859e+00 1.013183236122131348e+00 1.525364279747009277e+00
1.200000000000000000e+03 3.126735687255859375e+01 -2.803728675842285156e+01 4.925697445869445801e-01 1.489680409431457520e+00 5.946750640869140625e-01 1.029748439788818359e+00
1.201000000000000000e+03 2.742486572265625000e+01 -2.976611709594726562e+01 -2.397437810897827148e+00 3.317134082317352295e-02 -7.092798948287963867e-01 4.078412428498268127e-02
1.202000000000000000e+03 2.018117141723632812e+01 -2.763156700134277344e+01 -4.279427528381347656e-01 7.400707006454467773e-01 9.363839030265808105e-02 -2.530406117439270020e-01
1.203000000000000000e+03 1.909800720214843750e+01 -2.665101623535156250e+01 1.276239454746246338e-01 1.332941174507141113e+00 4.381695389747619629e-01 -7.052516341209411621e-01
1.204000000000000000e+03 1.621416664123535156e+01 -2.344506263732910156e+01 1.567585110664367676e+00 4.752304077148437500e+00 1.895966768264770508e+00 -2.734308719635009766e+00
1.205000000000000000e+03 1.370266723632812500e+01 -1.593011093139648438e+01 1.882446289062500000e+00 1.299057960510253906e+01 4.461907863616943359e+00 1.676372766494750977e+00
1.206000000000000000e+03 1.565135574340820312e+01 -1.384447002410888672e+01 1.839292764663696289e+00 7.720273971557617188e+00 2.867870092391967773e+00 3.649208545684814453e+00
1.207000000000000000e+03 2.069786643981933594e+01 -1.110223484039306641e+01 -2.394103765487670898e+00 -3.185993060469627380e-02 -7.277891039848327637e-01 -5.911563038825988770e-01
1.208000000000000000e+03 2.209261512756347656e+01 -1.083990859985351562e+01 -2.150349140167236328e+00 -1.070405766367912292e-01 -6.772168874740600586e-01 -7.510535717010498047e-01
1.209000000000000000e+03 2.463653755187988281e+01 -9.980549812316894531e+00 -1.638828992843627930e+00 -3.692089021205902100e-01 -6.024113297462463379e-01 -9.106714129447937012e-01
1.210000000000000000e+03 1.155318641662597656e+01 7.376545071601867676e-01 8.080902099609375000e+00 1.532757949829101562e+01 7.022544384002685547e+00 2.292564392089843750e+00
1.211000000000000000e+03 1.128681278228759766e+01 -1.137309193611145020e+00 5.484628677368164062e+00 1.690136718750000000e+01 6.715798854827880859e+00 -2.581437110900878906e+00
1.212000000000000000e+03 1.111794376373291016e+01 -1.323521137237548828e+00 3.993605136871337891e+00 1.766488265991210938e+01 6.497546195983886719e+00 -1.925125241279602051e+00
1.213000000000000000e+03 1.155812740325927734e+01 -5.261675119400024414e-01 9.562672615051269531e+00 1.487729740142822266e+01 7.331990718841552734e+00 -2.355586051940917969e+00
1.214000000000000000e+03 1.141743946075439453e+01 -9.376388788223266602e-01 6.937111377716064453e+00 1.628201103210449219e+01 6.965736389160156250e+00 -2.882129192352294922e+00
1.215000000000000000e+03 1.232472705841064453e+01 3.432635664939880371e-01 7.966203689575195312e+00 1.162336635589599609e+01 5.876871109008789062e+00 5.234458446502685547e-01
1.216000000000000000e+03 1.162901210784912109e+01 -1.137979924678802490e-01 1.054478645324707031e+01 1.397999858856201172e+01 7.357435703277587891e+00 -7.520399689674377441e-01
1.217000000000000000e+03 1.164704322814941406e+01 9.334857761859893799e-02 1.066962909698486328e+01 1.397227382659912109e+01 7.392570972442626953e+00 2.181978523731231689e-01
1.218000000000000000e+03 9.861932754516601562e+00 1.696936726570129395e+00 1.289438843727111816e+00 1.476115322113037109e+01 4.815177440643310547e+00 -5.293470382690429688e+00
1.219000000000000000e+03 1.010046958923339844e+01 -1.634956955909729004e+00 1.360489487648010254e+00 1.658737564086914062e+01 5.384359359741210938e+00 4.057829856872558594e+00
1.220000000000000000e+03 1.050443077087402344e+01 -1.577807903289794922e+00 1.449447989463806152e+00 1.833707809448242188e+01 5.935957908630371094e+00 1.511250257492065430e+00
1.221000000000000000e+03 1.163220691680908203e+01 5.222544670104980469e-01 9.159131050109863281e+00 1.464650535583496094e+01 7.141691207885742188e+00 1.799187302589416504e+00
1.222000000000000000e+03 3.827846050262451172e-01 -1.819538474082946777e+00 -4.198234993964433670e-03 -2.803952991962432861e-01 -8.537805825471878052e-02 -1.379560232162475586e-01
1.223000000000000000e+03 9.448767900466918945e-01 -2.463985681533813477e+00 9.921940043568611145e-03 -3.330624103546142578e-01 -9.694214165210723877e-02 -2.214431315660476685e-01
1.224000000000000000e+03 3.590287566184997559e-01 -4.952113628387451172e+00 1.197435148060321808e-02 -9.386857151985168457e-01 -2.780134081840515137e-01 -9.907801635563373566e-03
1.225000000000000000e+03 1.121762633323669434e+00 -1.595528602600097656e+00 -5.501024797558784485e-02 -1.617590934038162231e-01 -6.503079831600189209e-02 -2.423083782196044922e-01
1.226000000000000000e+03 2.267965078353881836e+00 -2.001518726348876953e+00 -1.028872746974229813e-02 -6.630987673997879028e-02 -2.297957986593246460e-02 -3.449792265892028809e-01
1.227000000000000000e+03 1.486591458320617676e+00 -1.670383810997009277e+00 -5.915093794465065002e-02 -1.460628360509872437e-01 -6.156413257122039795e-02 -2.966223061084747314e-01
1.228000000000000000e+03 1.910471558570861816e+00 -1.701764106750488281e+00 -6.872416287660598755e-02 -9.346202015876770020e-02 -4.865585267543792725e-02 -3.362467288970947266e-01
1.229000000000000000e+03 1.808150053024291992e+00 -2.015049457550048828e+00 -2.641086652874946594e-02 -1.291198581457138062e-01 -4.665921628475189209e-02 -3.312996029853820801e-01
1.230000000000000000e+03 4.061959087848663330e-01 -6.268727302551269531e+00 1.635023951530456543e-02 -8.954281210899353027e-01 -2.637233734130859375e-01 4.150070622563362122e-02
1.231000000000000000e+03 3.089992761611938477e+00 -1.669283628463745117e+00 -9.662842750549316406e-02 2.124418318271636963e-02 -2.261527255177497864e-02 -3.359107375144958496e-01
1.232000000000000000e+03 1.638961911201477051e+00 -8.835355758666992188e+00 -1.269258093088865280e-02 3.499686419963836670e-01 1.011828109622001648e-01 2.059262245893478394e-01
1.233000000000000000e+03 3.312344789505004883e+00 -1.692961335182189941e+00 -9.451169520616531372e-02 3.744663670659065247e-02 -1.711951754987239838e-02 -3.242557048797607422e-01
1.234000000000000000e+03 3.710439920425415039e+00 -1.669852256774902344e+00 -3.871427476406097412e-02 9.828442335128784180e-02 1.787104457616806030e-02 -2.736788690090179443e-01
1.235000000000000000e+03 3.517680883407592773e+00 -1.659883975982666016e+00 -8.031920343637466431e-02 5.829761922359466553e-02 -6.606474984437227249e-03 -3.089526295661926270e-01
1.236000000000000000e+03 4.188064098358154297e+00 -1.925600051879882812e+00 1.535276472568511963e-01 1.921989172697067261e-01 1.037179678678512573e-01 -1.625852435827255249e-01
1.237000000000000000e+03 4.502198219299316406e+00 -1.650477409362792969e+00 4.049679264426231384e-02 1.476481556892395020e-01 5.644348263740539551e-02 -1.430589407682418823e-01
1.238000000000000000e+03 4.703024864196777344e+00 -1.661152720451354980e+00 9.871681779623031616e-02 1.794914752244949341e-01 8.346249163150787354e-02 -9.868568927049636841e-02
1.239000000000000000e+03 5.129390239715576172e+00 -1.660123467445373535e+00 2.408950775861740112e-01 2.289156317710876465e-01 1.409432142972946167e-01 3.620793297886848450e-02
1.240000000000000000e+03 5.490654468536376953e+00 -1.586471915245056152e+00 3.010628521442413330e-01 2.351867258548736572e-01 1.608748733997344971e-01 1.490567773580551147e-01
1.241000000000000000e+03 5.672950267791748047e+00 -1.609957098960876465e+00 4.080395400524139404e-01 2.874413132667541504e-01 2.086442559957504272e-01 2.287541925907135010e-01
1.242000000000000000e+03 5.869058132171630859e+00 -1.632470250129699707e+00 5.285957455635070801e-01 3.650498986244201660e-01 2.680937051773071289e-01 3.280204832553863525e-01
1.243000000000000000e+03 5.789582252502441406e+00 -1.883533358573913574e+00 7.068048715591430664e-01 4.647342562675476074e-01 3.514617383480072021e-01 4.470594823360443115e-01
1.244000000000000000e+03 6.270360946655273438e+00 -1.663357377052307129e+00 7.998076677322387695e-01 5.145733952522277832e-01 3.943143188953399658e-01 5.812750458717346191e-01
1.245000000000000000e+03 6.680468082427978516e+00 -1.666058421134948730e+00 1.153198003768920898e+00 6.461774110794067383e-01 5.398126244544982910e-01 8.915079832077026367e-01
1.246000000000000000e+03 6.887725830078125000e+00 -1.656387209892272949e+00 1.395337939262390137e+00 8.067014813423156738e-01 6.606118083000183105e-01 1.112241625785827637e+00
1.247000000000000000e+03 7.094669818878173828e+00 -1.649631381034851074e+00 1.639822959899902344e+00 9.558032155036926270e-01 7.786878943443298340e-01 1.349971532821655273e+00
1.248000000000000000e+03 7.086733341217041016e+00 -1.935276508331298828e+00 1.775660395622253418e+00 1.298722863197326660e+00 9.223150014877319336e-01 1.644206404685974121e+00
1.249000000000000000e+03 7.499409675598144531e+00 -1.638784408569335938e+00 2.056457281112670898e+00 1.306204915046691895e+00 1.008798599243164062e+00 1.870510101318359375e+00
1.250000000000000000e+03 7.511434078216552734e+00 -1.922903299331665039e+00 2.232662916183471680e+00 1.821836352348327637e+00 1.216349720954895020e+00 2.264237403869628906e+00
1.251000000000000000e+03 7.723384380340576172e+00 -1.860118746757507324e+00 2.397522211074829102e+00 2.085698604583740234e+00 1.344966292381286621e+00 2.547712564468383789e+00
1.252000000000000000e+03 7.931301593780517578e+00 -1.793924450874328613e+00 2.716385126113891602e+00 2.384590625762939453e+00 1.530292749404907227e+00 2.920997142791748047e+00
1.253000000000000000e+03 8.692143440246582031e+00 -1.732535362243652344e+00 3.201278448104858398e+00 5.135397911071777344e+00 2.501002788543701172e+00 4.712316036224365234e+00
1.254000000000000000e+03 9.306836128234863281e+00 -1.630052924156188965e+00 3.010710000991821289e+00 9.376414299011230469e+00 3.716137170791625977e+00 5.972943305969238281e+00
1.255000000000000000e+03 9.898232460021972656e+00 -1.642904400825500488e+00 1.603504657745361328e+00 1.527187538146972656e+01 5.062613964080810547e+00 5.042043209075927734e+00
1.256000000000000000e+03 9.669732093811035156e+00 1.634241700172424316e+00 1.821143269538879395e+00 1.326139450073242188e+01 4.524761199951171875e+00 -6.116854667663574219e+00
1.257000000000000000e+03 9.482385635375976562e+00 1.605005621910095215e+00 2.391371011734008789e+00 1.147143840789794922e+01 4.158843040466308594e+00 -6.388345241546630859e+00
1.258000000000000000e+03 9.434195518493652344e+00 1.799172997474670410e+00 2.125660896301269531e+00 1.096721076965332031e+01 3.927861452102661133e+00 -5.893757820129394531e+00
1.259000000000000000e+03 8.707155227661132812e+00 1.636691093444824219e+00 3.184762716293334961e+00 5.155073642730712891e+00 2.501950979232788086e+00 -4.864353179931640625e+00
1.260000000000000000e+03 8.506677627563476562e+00 1.652767419815063477e+00 3.127609014511108398e+00 4.049164295196533203e+00 2.153032064437866211e+00 -4.254451274871826172e+00
1.261000000000000000e+03 7.708835601806640625e+00 1.615093588829040527e+00 2.128751277923583984e+00 1.647661089897155762e+00 1.132923722267150879e+00 -2.234538078308105469e+00
1.262000000000000000e+03 7.889846324920654297e+00 1.638924241065979004e+00 2.341207981109619141e+00 2.140410423278808594e+00 1.344485521316528320e+00 -2.693007469177246094e+00
1.263000000000000000e+03 7.522951126098632812e+00 1.637495040893554688e+00 1.917423486709594727e+00 1.424872994422912598e+00 1.002688884735107422e+00 -1.902281165122985840e+00
1.264000000000000000e+03 6.702537059783935547e+00 1.711675286293029785e+00 1.031101107597351074e+00 7.859987616539001465e-01 5.451299548149108887e-01 -9.626284241676330566e-01
1.265000000000000000e+03 6.287975788116455078e+00 1.686812281608581543e+00 6.879784464836120605e-01 5.598667860031127930e-01 3.743535876274108887e-01 -5.674268603324890137e-01
1.266000000000000000e+03 5.814437389373779297e+00 1.911870002746582031e+00 5.971031785011291504e-01 5.578659176826477051e-01 3.464907109737396240e-01 -3.801255822181701660e-01
1.267000000000000000e+03 5.879722595214843750e+00 1.646003127098083496e+00 3.625292479991912842e-01 4.010620117187500000e-01 2.290773689746856689e-01 -2.894217371940612793e-01
1.268000000000000000e+03 5.488361835479736328e+00 1.625466227531433105e+00 1.651424020528793335e-01 2.703605294227600098e-01 1.306508779525756836e-01 -7.950967550277709961e-02
1.269000000000000000e+03 4.713330745697021484e+00 1.630569338798522949e+00 -3.414058312773704529e-02 1.616715937852859497e-01 3.825930505990982056e-02 1.752103269100189209e-01
1.270000000000000000e+03 1.343321800231933594e+00 7.730265140533447266e+00 4.310973361134529114e-02 -3.545072376728057861e-01 -9.341924637556076050e-02 -1.077977493405342102e-01
1.271000000000000000e+03 4.166351318359375000e+00 2.021724462509155273e+00 9.240761399269104004e-02 1.949796527624130249e-01 8.621618151664733887e-02 2.216593027114868164e-01
1.272000000000000000e+03 4.116343975067138672e+00 1.680959582328796387e+00 -1.037985160946846008e-01 1.187436580657958984e-01 4.483542870730161667e-03 3.077308237552642822e-01
1.273000000000000000e+03 3.085890769958496094e+00 1.677362084388732910e+00 -1.566888242959976196e-01 2.985778730362653732e-03 -4.611091315746307373e-02 4.021643400192260742e-01
1.274000000000000000e+03 2.680962800979614258e+00 1.662503480911254883e+00 -1.630875915288925171e-01 -2.446603216230869293e-02 -5.626608431339263916e-02 4.237035214900970459e-01
1.275000000000000000e+03 2.920625448226928711e+00 2.289145469665527344e+00 4.161131754517555237e-02 7.776590064167976379e-03 1.481637265533208847e-02 3.940626084804534912e-01
1.276000000000000000e+03 2.672109842300415039e+00 1.958371043205261230e+00 -6.643728166818618774e-02 -1.443141978234052658e-02 -2.426061034202575684e-02 4.256161153316497803e-01
1.277000000000000000e+03 2.462215185165405273e+00 1.691370248794555664e+00 -1.443934887647628784e-01 -5.968352034687995911e-02 -6.122310459613800049e-02 4.356693923473358154e-01
1.278000000000000000e+03 2.064804553985595703e+00 1.643232226371765137e+00 -1.366969347000122070e-01 -1.074887141585350037e-01 -7.325569540262222290e-02 4.059806466102600098e-01
1.279000000000000000e+03 1.874430656433105469e+00 1.621900320053100586e+00 -1.241597682237625122e-01 -1.235294193029403687e-01 -7.430675625801086426e-02 3.773826062679290771e-01
1.280000000000000000e+03 1.391998171806335449e+00 2.149332284927368164e+00 -9.638139978051185608e-03 -2.677583694458007812e-01 -8.321895450353622437e-02 3.787657022476196289e-01
1.281000000000000000e+03 8.616192340850830078e-01 2.037854194641113281e+00 -4.415158648043870926e-03 -3.574940264225006104e-01 -1.085727587342262268e-01 2.586579322814941406e-01
1.282000000000000000e+03 7.450430393218994141e-01 1.626706361770629883e+00 -2.284046448767185211e-02 -2.300847619771957397e-01 -7.587756961584091187e-02 2.064989358186721802e-01
1.283000000000000000e+03 1.835115253925323486e-01 2.429735183715820312e+00 -1.338661089539527893e-02 -4.816212952136993408e-01 -1.485023796558380127e-01 6.054835766553878784e-02
1.284000000000000000e+03 9.113947868347167969e+00 -1.647528529167175293e+00 3.312412261962890625e+00 7.778668880462646484e+00 3.327324390411376953e+00 5.740943908691406250e+00
1.285000000000000000e+03 9.893069267272949219e+00 -1.943342089653015137e+00 1.163853406906127930e+00 1.402715492248535156e+01 4.557302474975585938e+00 4.518725872039794922e+00
1.286000000000000000e+03 5.537330245971679688e+01 2.379597091674804688e+01 -1.077940344810485840e+00 2.580389380455017090e-01 -2.459704130887985229e-01 -1.051814109086990356e-01
1.287000000000000000e+03 1.202677154541015625e+01 1.591900062561035156e+01 1.615491032600402832e+00 1.003857898712158203e+01 3.496220827102661133e+00 -3.449483811855316162e-01
1.288000000000000000e+03 6.534505462646484375e+01 -1.232485294342041016e+01 -3.182767629623413086e+00 7.432296276092529297e-01 -7.318614125251770020e-01 -9.993907213211059570e-01
1.289000000000000000e+03 6.207542419433593750e+01 -1.276513767242431641e+01 -3.851376056671142578e+00 -5.127152800559997559e-01 -1.309227466583251953e+00 -1.485438466072082520e+00
1.290000000000000000e+03 2.998899221420288086e+00 -3.897540664672851562e+01 -9.903562068939208984e-02 5.538497924804687500e+00 1.631838679313659668e+00 1.367845237255096436e-01
1.291000000000000000e+03 1.731789231300354004e+00 -1.028115940093994141e+01 -4.152194783091545105e-02 5.699498057365417480e-01 1.585283577442169189e-01 1.691786348819732666e-01
1.292000000000000000e+03 1.797382116317749023e+00 -1.707964324951171875e+01 7.922261953353881836e-02 1.119625926017761230e+00 3.596545457839965820e-01 2.364919334650039673e-01
1.293000000000000000e+03 2.033004999160766602e+00 -2.256287765502929688e+01 7.686794549226760864e-02 2.370525121688842773e+00 7.342179417610168457e-01 6.792068481445312500e-01
1.294000000000000000e+03 2.343291521072387695e+00 -2.949677085876464844e+01 -9.190458804368972778e-02 4.329595565795898438e+00 1.271307349205017090e+00 6.707592606544494629e-01
1.295000000000000000e+03 7.087156772613525391e-01 -3.887401962280273438e+01 3.311603888869285583e-02 5.745792865753173828e+00 1.733672618865966797e+00 1.051310356706380844e-02
1.296000000000000000e+03 2.590967655181884766e+00 -3.387162399291992188e+01 -1.067529097199440002e-01 5.066082477569580078e+00 1.487798929214477539e+00 4.098284542560577393e-01
1.297000000000000000e+03 8.481100201606750488e-01 -3.230472183227539062e+01 -4.422616679221391678e-03 4.943619251251220703e+00 1.481758952140808105e+00 1.947879344224929810e-01
1.298000000000000000e+03 2.457614421844482422e+00 -3.093475914001464844e+01 -9.133917838335037231e-02 4.625145435333251953e+00 1.360141873359680176e+00 5.997595191001892090e-01
1.299000000000000000e+03 3.379111289978027344e+00 -2.246296691894531250e+01 1.466590762138366699e-01 3.111783981323242188e+00 9.775329232215881348e-01 9.960765838623046875e-01
1.300000000000000000e+03 7.085438966751098633e-01 -2.538575744628906250e+01 -1.191965956240892410e-02 2.669929742813110352e+00 7.974030375480651855e-01 2.887192666530609131e-01
1.301000000000000000e+03 2.071607351303100586e+00 -2.393479347229003906e+01 2.092316001653671265e-02 2.779876470565795898e+00 8.402398824691772461e-01 7.471579909324645996e-01
1.302000000000000000e+03 6.244338750839233398e-01 -1.854155921936035156e+01 3.303000330924987793e-02 3.677187860012054443e-01 1.202246323227882385e-01 1.334392279386520386e-01
1.303000000000000000e+03 2.981316089630126953e+00 -1.694790649414062500e+01 1.723035871982574463e-01 2.016109466552734375e+00 6.565238833427429199e-01 3.291989266872406006e-01
1.304000000000000000e+03 3.305319547653198242e+00 -2.107697677612304688e+01 2.155741006135940552e-01 2.783585548400878906e+00 8.997478485107421875e-01 8.527098298072814941e-01
1.305000000000000000e+03 5.599469542503356934e-01 -1.172669696807861328e+01 -8.359817788004875183e-03 -2.810293138027191162e-01 -8.681673556566238403e-02 4.277122393250465393e-02
1.306000000000000000e+03 1.647776007652282715e+00 -1.305163383483886719e+01 -1.673894934356212616e-02 6.794342398643493652e-01 1.988085955381393433e-01 7.734632492065429688e-02
1.307000000000000000e+03 2.323244571685791016e+00 -1.682486891746520996e+00 -7.994443923234939575e-02 -4.916926845908164978e-02 -3.873411193490028381e-02 -3.544858694076538086e-01
1.308000000000000000e+03 1.292211174964904785e+00 -1.604606032371520996e+00 -5.494214594364166260e-02 -1.638045459985733032e-01 -6.562400609254837036e-02 -2.597528994083404541e-01
1.309000000000000000e+03 3.427341878414154053e-01 -3.691528797149658203e+00 1.456566527485847473e-02 -7.681595683097839355e-01 -2.260781675577163696e-01 -6.287359446287155151e-02
1.310000000000000000e+03 2.856258773803710938e+01 2.378733062744140625e+01 -9.965840578079223633e-01 2.722861289978027344e+00 5.178831815719604492e-01 -1.483770132064819336e+00
1.311000000000000000e+03 2.978173828125000000e+01 -1.205512523651123047e+00 4.305190563201904297e+00 1.423015475273132324e+00 1.718461871147155762e+00 8.104369640350341797e-01
1.312000000000000000e+03 3.007945823669433594e+01 -5.280299663543701172e+00 8.034116029739379883e-01 1.920213937759399414e+00 8.170876502990722656e-01 -7.633079290390014648e-01
1.313000000000000000e+03 1.507311439514160156e+01 1.255908870697021484e+01 1.374034285545349121e+00 1.318168067932128906e+01 4.366714477539062500e+00 -3.358053445816040039e+00
1.314000000000000000e+03 2.719204711914062500e+01 -5.745340347290039062e+00 1.050205111503601074e+00 -3.614951968193054199e-01 2.066129595041275024e-01 1.607463508844375610e-01
1.315000000000000000e+03 2.332955932617187500e+01 2.282015037536621094e+01 -2.885039806365966797e+00 -1.107016354799270630e-01 -8.987224102020263672e-01 1.304693818092346191e-01
1.316000000000000000e+03 3.203889083862304688e+01 -2.911821174621582031e+01 -2.091708779335021973e-01 2.672064304351806641e+00 7.388679981231689453e-01 1.310416579246520996e+00
1.317000000000000000e+03 3.011959075927734375e+01 -2.883530044555664062e+01 -5.195680260658264160e-01 6.922203898429870605e-01 5.179570242762565613e-02 4.616681635379791260e-01
1.318000000000000000e+03 1.656050682067871094e+01 2.281320953369140625e+01 -7.045562267303466797e-01 3.455243349075317383e+00 8.252061009407043457e-01 2.182958602905273438e+00
1.319000000000000000e+03 1.712193870544433594e+01 2.162831306457519531e+01 -5.016632005572319031e-02 1.588625550270080566e+00 4.615377485752105713e-01 1.012475967407226562e+00
1.320000000000000000e+03 5.160616302490234375e+01 -1.485316562652587891e+01 7.204697132110595703e-01 3.374317586421966553e-01 3.173704445362091064e-01 6.548669934272766113e-01
1.321000000000000000e+03 1.408902168273925781e+01 2.154499053955078125e+01 -8.601620197296142578e-01 8.856593132019042969e+00 2.398929357528686523e+00 2.771303653717041016e-01
1.322000000000000000e+03 3.345438003540039062e+01 2.111526012420654297e+00 3.120673418045043945e+00 1.302840709686279297e+01 4.844724178314208984e+00 4.450298786163330078e+00
1.323000000000000000e+03 2.509875488281250000e+01 -7.167926788330078125e+00 -2.644324116408824921e-02 -4.445059299468994141e-01 -1.412847489118576050e-01 -1.689181327819824219e-01
1.324000000000000000e+03 2.924671936035156250e+01 -5.709970951080322266e+00 8.291845321655273438e-01 1.091358304023742676e+00 5.761628746986389160e-01 -4.951176345348358154e-01
1.325000000000000000e+03 3.370034790039062500e+01 1.386562061309814453e+01 7.539072036743164062e-01 8.630141258239746094e+00 2.815214633941650391e+00 -1.697894096374511719e+00
1.326000000000000000e+03 3.238824081420898438e+01 1.810653495788574219e+01 8.128824830055236816e-01 6.556939125061035156e+00 2.210946559906005859e+00 -1.692086577415466309e+00
1.327000000000000000e+03 1.911625480651855469e+01 2.559109115600585938e+01 -5.812376737594604492e-01 1.319035410881042480e+00 2.213393151760101318e-01 1.142227172851562500e+00
1.328000000000000000e+03 3.703904724121093750e+01 9.102835655212402344e+00 1.578345298767089844e+00 1.216423416137695312e+01 4.122773647308349609e+00 6.887194514274597168e-01
1.329000000000000000e+03 2.344585800170898438e+01 1.538784623146057129e+00 1.532536983489990234e+00 -1.003830075263977051e+00 1.586120575666427612e-01 8.158741146326065063e-02
1.330000000000000000e+03 1.290114974975585938e+01 2.083609008789062500e+01 4.054720401763916016e-01 8.703765869140625000e+00 2.732771396636962891e+00 -5.995638370513916016e-01
1.331000000000000000e+03 1.231503677368164062e+01 1.886809158325195312e+01 1.707546830177307129e+00 9.591585159301757812e+00 3.389739513397216797e+00 -5.381062030792236328e-01
1.332000000000000000e+03 1.472874927520751953e+01 -1.321963310241699219e+01 -5.792261362075805664e-01 9.689101219177246094e+00 2.732962369918823242e+00 1.518347382545471191e+00
1.333000000000000000e+03 2.008269691467285156e+01 2.443948364257812500e+01 -1.011219024658203125e+00 6.744964122772216797e-01 -1.010167896747589111e-01 8.433261513710021973e-01
1.334000000000000000e+03 2.114771652221679688e+01 2.547333145141601562e+01 -6.444374918937683105e-01 5.347771644592285156e-01 -3.289808705449104309e-02 4.447008073329925537e-01
1.335000000000000000e+03 2.219930267333984375e+01 2.391455459594726562e+01 -2.155728578567504883e+00 -4.798653721809387207e-02 -6.611145734786987305e-01 -7.581741549074649811e-03
1.336000000000000000e+03 3.492710113525390625e+01 8.128461837768554688e+00 9.714215993881225586e-01 1.174896144866943359e+01 3.816114902496337891e+00 -2.189674675464630127e-01
1.337000000000000000e+03 3.937680435180664062e+01 7.391457080841064453e+00 9.244644045829772949e-01 1.795685195922851562e+01 5.664394855499267578e+00 2.491477727890014648e+00
1.338000000000000000e+03 4.584910964965820312e+01 -1.547479343414306641e+01 1.863677144050598145e+00 5.764479160308837891e+00 2.288446903228759766e+00 1.436088562011718750e+00
1.339000000000000000e+03 2.784319877624511719e+01 2.261487770080566406e+01 -7.707327604293823242e-01 1.751731514930725098e+00 2.942996323108673096e-01 -1.319967389106750488e+00
1.340000000000000000e+03 3.185390281677246094e+01 1.957194328308105469e+01 5.657271146774291992e-01 5.782876014709472656e+00 1.904580950736999512e+00 -1.348115801811218262e+00
1.341000000000000000e+03 2.134600257873535156e+01 5.058047771453857422e+00 -1.443637013435363770e+00 -1.292595148086547852e+00 -8.208696246147155762e-01 1.452731132507324219e+00
1.342000000000000000e+03 2.252367210388183594e+01 2.483279705047607422e+00 7.859485149383544922e-01 -9.770392179489135742e-01 -5.732720345258712769e-02 3.561572730541229248e-01
1.343000000000000000e+03 2.159749221801757812e+01 3.406693220138549805e+00 2.209808379411697388e-01 -8.886627554893493652e-01 -2.003045678138732910e-01 6.265251040458679199e-01
1.344000000000000000e+03 1.242679691314697266e+01 1.469290065765380859e+01 1.221298694610595703e+00 1.130215644836425781e+01 3.757036685943603516e+00 -4.469332098960876465e-01
1.345000000000000000e+03 2.542455291748046875e+01 2.378785705566406250e+01 -1.487114191055297852e+00 6.423211693763732910e-01 -2.534379065036773682e-01 -7.450118064880371094e-01
1.346000000000000000e+03 1.865298461914062500e+01 6.103702068328857422e+00 -9.923849105834960938e-01 8.962637186050415039e-01 -2.883635647594928741e-02 4.463606774806976318e-01
1.347000000000000000e+03 3.333617019653320312e+01 1.527964019775390625e+01 6.773495078086853027e-01 8.068497657775878906e+00 2.623754262924194336e+00 -1.842034459114074707e+00
1.348000000000000000e+03 1.546372413635253906e+01 9.480118751525878906e+00 -9.353727698326110840e-01 7.786267280578613281e+00 2.055268287658691406e+00 -1.220058560371398926e+00
1.349000000000000000e+03 1.752400779724121094e+01 7.039241313934326172e+00 -1.231728196144104004e+00 2.826678991317749023e+00 4.784852266311645508e-01 -1.241268515586853027e-01
1.350000000000000000e+03 3.289232254028320312e+01 1.669218063354492188e+01 7.925976514816284180e-01 7.336794853210449219e+00 2.438817739486694336e+00 -1.850792050361633301e+00
1.351000000000000000e+03 3.284378433227539062e+01 1.216458415985107422e+01 6.545924544334411621e-01 9.366844177246093750e+00 3.006430864334106445e+00 -2.033938646316528320e+00
1.352000000000000000e+03 1.281221389770507812e+01 1.758644104003906250e+01 1.693584084510803223e+00 1.101151943206787109e+01 3.811531066894531250e+00 3.758354485034942627e-01
1.353000000000000000e+03 4.431201934814453125e+01 -2.580853462219238281e+01 2.254887580871582031e+00 9.848820686340332031e+00 3.631112337112426758e+00 -1.807002305984497070e+00
1.354000000000000000e+03 6.908361816406250000e+01 -1.728878593444824219e+01 1.448978662490844727e+00 1.817294692993164062e+01 5.886577606201171875e+00 -1.547592043876647949e+00
1.355000000000000000e+03 2.738603210449218750e+01 -8.003300666809082031e+00 -1.988899827003479004e+00 -5.107891559600830078e-01 -7.499067187309265137e-01 -5.960593819618225098e-01
1.356000000000000000e+03 6.833049774169921875e+01 -2.135289382934570312e+01 1.766846179962158203e+00 1.512666797637939453e+01 5.068054199218750000e+00 3.826039791107177734e+00
1.357000000000000000e+03 3.554507827758789062e+01 -2.186001777648925781e+01 7.775003314018249512e-01 1.168528175354003906e+01 3.738834619522094727e+00 1.509763002395629883e+00
1.358000000000000000e+03 6.606642913818359375e+01 -1.130152511596679688e+01 -2.054554462432861328e+00 3.822090387344360352e+00 5.302607417106628418e-01 -2.916364908218383789e+00
1.359000000000000000e+03 6.882643890380859375e+01 -2.520804214477539062e+01 -5.007979869842529297e-01 8.517711639404296875e+00 2.405073881149291992e+00 8.863409757614135742e-01
1.360000000000000000e+03 7.115849304199218750e+01 -1.669116592407226562e+01 1.946352362632751465e+00 1.163434123992919922e+01 4.074207782745361328e+00 1.637769788503646851e-01
1.361000000000000000e+03 1.264777088165283203e+01 -1.769902420043945312e+01 1.668130636215209961e+00 1.060670185089111328e+01 3.682449579238891602e+00 6.232002973556518555e-01
1.362000000000000000e+03 6.790441894531250000e+01 -1.114835262298583984e+01 -2.029783725738525391e+00 7.618575572967529297e+00 1.676637530326843262e+00 -2.451573133468627930e+00
1.363000000000000000e+03 6.823834228515625000e+01 -1.306424331665039062e+01 -5.247607231140136719e-01 9.799124717712402344e+00 2.782309293746948242e+00 -2.152025222778320312e+00
1.364000000000000000e+03 5.765692138671875000e+01 -3.046841621398925781e+01 -2.724502325057983398e+00 -2.018595635890960693e-01 -8.779085874557495117e-01 -5.578929781913757324e-01
1.365000000000000000e+03 2.597717857360839844e+01 -2.991048431396484375e+01 -2.815124988555908203e+00 -1.116637215018272400e-01 -8.780366182327270508e-01 1.585749536752700806e-01
1.366000000000000000e+03 6.393960952758789062e+01 -2.931547355651855469e+01 -9.448576569557189941e-01 2.001048088073730469e+00 3.168571293354034424e-01 6.107012033462524414e-01
1.367000000000000000e+03 6.503045654296875000e+01 -2.812001991271972656e+01 -6.918719410896301270e-01 2.801777839660644531e+00 6.329717636108398438e-01 8.650777339935302734e-01
1.368000000000000000e+03 5.343832778930664062e+01 -3.057513809204101562e+01 -1.769243001937866211e+00 -8.579397574067115784e-03 -5.333467125892639160e-01 -1.232969835400581360e-01
1.369000000000000000e+03 4.955484008789062500e+01 -1.382551383972167969e+01 1.602198123931884766e+00 1.306250452995300293e+00 8.725345730781555176e-01 1.834025144577026367e+00
1.370000000000000000e+03 5.323803710937500000e+01 -6.305389881134033203e+00 4.644944965839385986e-01 2.287030458450317383e+00 8.254575133323669434e-01 2.123342990875244141e+00
1.371000000000000000e+03 6.090493774414062500e+01 -1.339452171325683594e+01 -2.866551876068115234e+00 -2.727178037166595459e-01 -9.417808651924133301e-01 -1.003135442733764648e+00
1.372000000000000000e+03 1.385708522796630859e+01 -1.416473865509033203e+01 4.191744625568389893e-01 1.035154247283935547e+01 3.231215000152587891e+00 4.793647229671478271e-01
1.373000000000000000e+03 5.760935592651367188e+01 -1.180709934234619141e+01 -1.507076025009155273e+00 6.955757737159729004e-01 -2.434500753879547119e-01 5.932656526565551758e-01
1.374000000000000000e+03 2.640111732482910156e+01 -7.993114948272705078e+00 -1.109653472900390625e+00 -4.805115759372711182e-01 -4.770494997501373291e-01 -3.408560752868652344e-01
1.375000000000000000e+03 2.306755828857421875e+01 -9.138961791992187500e+00 -9.844134449958801270e-01 -1.097873151302337646e-01 -3.282602429389953613e-01 -7.124574780464172363e-01
1.376000000000000000e+03 5.468491363525390625e+01 -3.256945037841796875e+01 -6.822317242622375488e-01 1.289365142583847046e-01 -1.659885644912719727e-01 -8.492251634597778320e-01
1.377000000000000000e+03 6.127770233154296875e+01 -1.172241878509521484e+01 -3.101425886154174805e+00 3.963966667652130127e-01 -8.115087747573852539e-01 -7.611017674207687378e-02
1.378000000000000000e+03 5.632389450073242188e+01 -3.245713424682617188e+01 -8.447535037994384766e-01 -1.013488546013832092e-01 -2.838307023048400879e-01 -5.262056589126586914e-01
1.379000000000000000e+03 3.704388809204101562e+01 -9.735158920288085938e+00 -4.700503647327423096e-01 9.548373222351074219e+00 2.723496913909912109e+00 -1.582825899124145508e+00
1.380000000000000000e+03 3.474569702148437500e+01 -1.009992313385009766e+01 3.494253456592559814e-01 9.726320266723632812e+00 3.022723674774169922e+00 -2.436578750610351562e+00
1.381000000000000000e+03 5.035838317871093750e+01 -6.694935798645019531e+00 -5.726063251495361328e-01 6.828877329826354980e-01 3.308442234992980957e-02 2.728628396987915039e+00
1.382000000000000000e+03 1.729504776000976562e+01 -1.090880966186523438e+01 -1.442090392112731934e+00 3.229911804199218750e+00 5.363464355468750000e-01 1.361905097961425781e+00
1.383000000000000000e+03 4.305772018432617188e+01 -2.325313758850097656e+01 2.037178516387939453e+00 9.951181411743164062e+00 3.596507787704467773e+00 -1.504565477371215820e+00
1.384000000000000000e+03 6.222812652587890625e+01 -1.105771541595458984e+01 -2.083606243133544922e+00 1.931130439043045044e-01 -5.671479105949401855e-01 4.809941351413726807e-02
1.385000000000000000e+03 7.108415222167968750e+01 -1.977685356140136719e+01 2.022231340408325195e+00 1.184825706481933594e+01 4.161146640777587891e+00 -2.826395332813262939e-01
1.386000000000000000e+03 5.558632659912109375e+01 -1.346157932281494141e+01 -1.224204063415527344e+00 2.971021831035614014e-01 -2.781305611133575439e-01 5.540113449096679688e-01
1.387000000000000000e+03 5.681423187255859375e+01 -1.326860523223876953e+01 -1.618787288665771484e+00 2.789512574672698975e-01 -4.019508361816406250e-01 3.067353963851928711e-01
1.388000000000000000e+03 6.699185943603515625e+01 -2.775250244140625000e+01 -8.094156384468078613e-01 5.198744773864746094e+00 1.316798806190490723e+00 1.164389371871948242e+00
1.389000000000000000e+03 1.485807418823242188e+01 -1.495272159576416016e+01 2.164990663528442383e+00 1.303484153747558594e+01 4.559949874877929688e+00 3.463713884353637695e+00
1.390000000000000000e+03 5.304434585571289062e+01 -1.359819602966308594e+01 -1.007743030786514282e-01 3.938713967800140381e-01 8.792912960052490234e-02 1.062833786010742188e+00
1.391000000000000000e+03 5.953173065185546875e+01 -3.201632308959960938e+01 -1.003632187843322754e+00 1.171086654067039490e-01 -2.659570574760437012e-01 -5.317755509167909622e-03
1.392000000000000000e+03 5.315956115722656250e+01 -3.194705390930175781e+01 -4.847725629806518555e-01 4.705729782581329346e-01 -4.259881097823381424e-03 -1.169453382492065430e+00
1.393000000000000000e+03 4.443743515014648438e+01 -1.992699432373046875e+01 1.398228049278259277e+00 1.058122634887695312e+01 3.593836307525634766e+00 6.896196007728576660e-01
1.394000000000000000e+03 4.412550735473632812e+01 -2.098616027832031250e+01 9.674209952354431152e-01 1.164720439910888672e+01 3.784387588500976562e+00 -5.934169888496398926e-01
1.395000000000000000e+03 6.503990936279296875e+01 -2.596786499023437500e+01 3.465130329132080078e-01 1.864131927490234375e+00 6.631935238838195801e-01 1.066042542457580566e+00
1.396000000000000000e+03 3.412423324584960938e+01 -2.744721412658691406e+01 3.830458521842956543e-01 5.128703117370605469e+00 1.653524637222290039e+00 1.906391620635986328e+00
1.397000000000000000e+03 6.600865936279296875e+01 -2.690893745422363281e+01 -2.963580489158630371e-01 3.904191255569458008e+00 1.082350015640258789e+00 1.240254402160644531e+00
1.398000000000000000e+03 4.369759368896484375e+01 -2.208793449401855469e+01 1.643953204154968262e+00 1.069532966613769531e+01 3.701784849166870117e+00 -1.654923677444458008e+00
1.399000000000000000e+03 2.052057456970214844e+01 -9.568961143493652344e+00 -8.886874318122863770e-01 3.911668062210083008e-01 -1.492561846971511841e-01 -4.197538793087005615e-01
1.400000000000000000e+03 3.518341827392578125e+01 -1.487815475463867188e+01 1.198948025703430176e+00 1.493428993225097656e+01 4.839971542358398438e+00 -3.203477621078491211e+00
1.401000000000000000e+03 3.745343017578125000e+01 -1.431908512115478516e+01 1.885388970375061035e+00 1.071540069580078125e+01 3.780236721038818359e+00 -2.342639923095703125e+00
1.402000000000000000e+03 3.371887207031250000e+01 -8.836088180541992188e+00 -5.584458708763122559e-01 7.950444698333740234e+00 2.217599630355834961e+00 -2.393432617187500000e+00
1.403000000000000000e+03 3.552526092529296875e+01 -1.155357456207275391e+01 1.473696947097778320e+00 1.077526855468750000e+01 3.674689769744873047e+00 -2.625353097915649414e+00
1.404000000000000000e+03 3.553482055664062500e+01 -1.767848396301269531e+01 3.729144930839538574e-01 1.343437004089355469e+01 4.142185688018798828e+00 -1.168591260910034180e+00
1.405000000000000000e+03 3.651743316650390625e+01 -1.602720642089843750e+01 1.417926430702209473e+00 1.244726371765136719e+01 4.159556865692138672e+00 -2.341207504272460938e+00
1.406000000000000000e+03 1.926973915100097656e+01 -9.313362121582031250e+00 -5.724202394485473633e-01 1.041395425796508789e+00 1.406925618648529053e-01 4.110753536224365234e-02
1.407000000000000000e+03 3.195739173889160156e+01 -7.307804107666015625e+00 -7.287702560424804688e-01 4.717959403991699219e+00 1.196756720542907715e+00 -1.957160592079162598e+00
1.408000000000000000e+03 5.852698135375976562e+01 2.190587806701660156e+01 -2.361604452133178711e+00 4.964823126792907715e-01 -5.595366954803466797e-01 -8.009212613105773926e-01
1.409000000000000000e+03 5.419692611694335938e+01 2.813797378540039062e+01 1.225795000791549683e-01 1.498149633407592773e+00 4.862187206745147705e-01 1.767690479755401611e-01
1.410000000000000000e+03 3.308067321777343750e+01 -2.823755264282226562e+01 2.746923267841339111e-01 3.497310876846313477e+00 1.131600975990295410e+00 1.621646881103515625e+00
1.411000000000000000e+03 1.805576705932617188e+01 -2.564744949340820312e+01 6.357685923576354980e-01 2.200925111770629883e+00 8.510081171989440918e-01 -1.290419936180114746e+00
1.412000000000000000e+03 1.709611892700195312e+01 -2.457660102844238281e+01 1.128237724304199219e+00 3.347436904907226562e+00 1.342702388763427734e+00 -1.922371864318847656e+00
1.413000000000000000e+03 3.677027130126953125e+01 -1.884936141967773438e+01 9.231962561607360840e-01 1.190227890014648438e+01 3.847642421722412109e+00 -8.905002474784851074e-01
1.414000000000000000e+03 1.427138996124267578e+01 -2.290381431579589844e+01 4.575141370296478271e-01 9.230478286743164062e+00 2.906397819519042969e+00 -1.171346902847290039e+00
1.415000000000000000e+03 1.500399589538574219e+01 -2.424040222167968750e+01 1.572791337966918945e-01 6.832255363464355469e+00 2.096860408782958984e+00 -1.650432586669921875e+00
1.416000000000000000e+03 7.722940063476562500e+01 -3.835071945190429688e+01 -1.271622180938720703e-01 9.562454223632812500e+00 2.830587625503540039e+00 3.159071132540702820e-02
1.417000000000000000e+03 7.929712677001953125e+01 -3.485591888427734375e+01 -2.704826928675174713e-02 1.032094001770019531e+01 3.088167667388916016e+00 -4.512501507997512817e-02
1.418000000000000000e+03 7.931534576416015625e+01 -2.789630508422851562e+01 -5.053527280688285828e-02 8.958514213562011719e+00 2.672393798828125000e+00 -2.679005563259124756e-01
1.419000000000000000e+03 7.783691406250000000e+01 3.222355651855468750e+01 -3.080339916050434113e-02 7.865739822387695312e+00 2.350481033325195312e+00 8.792612701654434204e-02
1.420000000000000000e+03 7.931391143798828125e+01 3.612556838989257812e+01 -1.639487966895103455e-02 8.225480079650878906e+00 2.462725639343261719e+00 -1.644073426723480225e-02
1.421000000000000000e+03 7.939022827148437500e+01 -2.089336967468261719e+01 7.542928308248519897e-02 6.049984455108642578e+00 1.837624192237854004e+00 -2.012902349233627319e-01
1.422000000000000000e+03 7.803255462646484375e+01 -2.650514411926269531e+01 -8.676172047853469849e-02 8.485703468322753906e+00 2.519682407379150391e+00 -7.535305023193359375e-01
1.423000000000000000e+03 7.927834320068359375e+01 -3.070129585266113281e+01 -3.796095028519630432e-02 9.760663986206054688e+00 2.916810750961303711e+00 -1.812860220670700073e-01
1.424000000000000000e+03 7.782555389404296875e+01 -3.360043716430664062e+01 -1.036375835537910461e-01 9.589017868041992188e+00 2.845613956451416016e+00 -1.931955218315124512e-01
1.425000000000000000e+03 7.492652893066406250e+01 -3.911552429199218750e+01 -4.731689766049385071e-02 8.148306846618652344e+00 2.430297136306762695e+00 -2.034550458192825317e-01
1.426000000000000000e+03 7.663223266601562500e+01 -3.960743331909179688e+01 -8.119898289442062378e-02 9.749261856079101562e+00 2.900418758392333984e+00 -4.297090321779251099e-02
1.427000000000000000e+03 7.802418518066406250e+01 1.393372249603271484e+01 5.803355947136878967e-02 6.298808097839355469e+00 1.907052516937255859e+00 8.483806997537612915e-02
1.428000000000000000e+03 7.933364868164062500e+01 1.533072662353515625e+01 1.628732122480869293e-02 6.108732223510742188e+00 1.837505936622619629e+00 5.947402492165565491e-02
1.429000000000000000e+03 7.786630249023437500e+01 2.109779167175292969e+01 6.633338518440723419e-03 6.934460163116455078e+00 2.082328081130981445e+00 3.270754814147949219e-01
1.430000000000000000e+03 7.929267120361328125e+01 2.238248252868652344e+01 -1.580500975251197815e-03 7.088600635528564453e+00 2.126106023788452148e+00 1.262593418359756470e-01
1.431000000000000000e+03 7.789487457275390625e+01 3.081798934936523438e+01 -3.342986106872558594e-02 7.809212684631347656e+00 2.332734823226928711e+00 1.207161173224449158e-01
1.432000000000000000e+03 7.932974243164062500e+01 2.794141960144042969e+01 -8.585359901189804077e-03 7.868174552917480469e+00 2.357876777648925781e+00 7.808107137680053711e-02
1.433000000000000000e+03 7.790207672119140625e+01 2.541452407836914062e+01 -2.924908325076103210e-02 7.425034046173095703e+00 2.218735456466674805e+00 2.682000398635864258e-01
1.434000000000000000e+03 7.790550231933593750e+01 2.400237464904785156e+01 -2.813837677240371704e-02 7.276776790618896484e+00 2.174591541290283203e+00 3.013960123062133789e-01
1.435000000000000000e+03 7.792420959472656250e+01 1.816042327880859375e+01 3.784390166401863098e-02 6.608870029449462891e+00 1.994014143943786621e+00 2.709460258483886719e-01
1.436000000000000000e+03 7.797234344482421875e+01 1.672629737854003906e+01 5.016300082206726074e-02 6.469997882843017578e+00 1.956048250198364258e+00 2.110035568475723267e-01
1.437000000000000000e+03 7.803483581542968750e+01 1.254223918914794922e+01 5.553103610873222351e-02 6.272652149200439453e+00 1.898454904556274414e+00 1.524377614259719849e-02
1.438000000000000000e+03 7.674293518066406250e+01 1.112149047851562500e+01 1.398519277572631836e-01 6.498016357421875000e+00 1.991360425949096680e+00 -8.636478334665298462e-02
1.439000000000000000e+03 7.802059173583984375e+01 8.337734222412109375e+00 4.853717237710952759e-02 6.433755397796630859e+00 1.944687724113464355e+00 -1.885104477405548096e-01
1.440000000000000000e+03 7.934300994873046875e+01 9.752192497253417969e+00 1.404949277639389038e-02 6.075433254241943359e+00 1.826844811439514160e+00 -4.346185922622680664e-02
1.441000000000000000e+03 7.938725280761718750e+01 -1.948698616027832031e+01 1.028465572744607925e-02 5.718536853790283203e+00 1.718646526336669922e+00 -1.013910025358200073e-01
1.442000000000000000e+03 7.936688232421875000e+01 -6.973830223083496094e+00 -5.523608624935150146e-02 8.346431732177734375e+00 2.487358570098876953e+00 4.767873138189315796e-02
1.443000000000000000e+03 7.939805603027343750e+01 -1.390708351135253906e+01 2.256800507893785834e-04 6.488850116729736328e+00 1.946722745895385742e+00 2.395130097866058350e-01
1.444000000000000000e+03 7.803918457031250000e+01 -1.182267367839813232e-01 -3.605383262038230896e-02 7.533176422119140625e+00 2.249136686325073242e+00 -3.435840010643005371e-01
1.445000000000000000e+03 7.933854675292968750e+01 1.362783312797546387e+00 -1.691764965653419495e-02 7.371325969696044922e+00 2.206322431564331055e+00 -1.305853724479675293e-01
1.446000000000000000e+03 7.667790985107421875e+01 6.895019531250000000e+00 9.973651915788650513e-02 6.698345184326171875e+00 2.039424657821655273e+00 -3.632009923458099365e-01
1.447000000000000000e+03 7.797856140136718750e+01 2.943316650390625000e+01 -3.541149571537971497e-02 7.745846271514892578e+00 2.313130378723144531e+00 1.548563987016677856e-01
1.448000000000000000e+03 7.628597259521484375e+01 3.644900131225585938e+01 -5.555028840899467468e-02 7.598356723785400391e+00 2.262841939926147461e+00 5.925628915429115295e-02
1.449000000000000000e+03 7.691312408447265625e+01 3.525100708007812500e+01 -4.914503172039985657e-02 7.702447891235351562e+00 2.295990705490112305e+00 5.825346335768699646e-02
1.450000000000000000e+03 7.803404235839843750e+01 9.742204666137695312e+00 5.647592991590499878e-02 6.339650630950927734e+00 1.918837904930114746e+00 -1.284776479005813599e-01
1.451000000000000000e+03 7.674217224121093750e+01 -2.346818745136260986e-01 -3.490613400936126709e-02 7.431889533996582031e+00 2.219094991683959961e+00 -5.230523943901062012e-01
1.452000000000000000e+03 7.801132202148437500e+01 2.706537246704101562e+00 3.576454473659396172e-04 7.105873107910156250e+00 2.131869077682495117e+00 -3.543604314327239990e-01
1.453000000000000000e+03 7.807160949707031250e+01 -1.510994076728820801e+00 -1.620670035481452942e-02 7.729103088378906250e+00 2.313868999481201172e+00 -3.130113482475280762e-01
1.454000000000000000e+03 7.936934661865234375e+01 -2.812170982360839844e+00 1.219640579074621201e-02 8.130602836608886719e+00 2.442839622497558594e+00 -8.823886513710021973e-02
1.455000000000000000e+03 7.807845306396484375e+01 -8.368152618408203125e+00 -1.499480456113815308e-01 8.100438117980957031e+00 2.385146856307983398e+00 2.565622031688690186e-01
1.456000000000000000e+03 7.812741088867187500e+01 -5.607407569885253906e+00 -1.243211254477500916e-01 8.140072822570800781e+00 2.404725551605224609e+00 -4.848946630954742432e-02
1.457000000000000000e+03 7.936161041259765625e+01 -9.750784873962402344e+00 -4.778472334146499634e-02 7.902417659759521484e+00 2.356389999389648438e+00 1.633588820695877075e-01
1.458000000000000000e+03 7.820505523681640625e+01 -1.523449134826660156e+01 1.222967579960823059e-01 6.853598117828369141e+00 2.092768430709838867e+00 4.936585724353790283e-01
1.459000000000000000e+03 7.815275573730468750e+01 -1.250121498107910156e+01 -3.551619127392768860e-02 7.431810855865478516e+00 2.218888521194458008e+00 6.152981519699096680e-01
1.460000000000000000e+03 7.938905334472656250e+01 -1.668967437744140625e+01 9.095560759305953979e-03 5.711674690246582031e+00 1.716231107711791992e+00 1.001082211732864380e-01
1.461000000000000000e+03 7.819161224365234375e+01 -2.088352394104003906e+01 1.243485063314437866e-01 6.914317607879638672e+00 2.111599922180175781e+00 -5.066877007484436035e-01
1.462000000000000000e+03 7.817765808105468750e+01 -1.945596504211425781e+01 2.414548844099044800e-01 6.687210083007812500e+00 2.078599452972412109e+00 -2.724558413028717041e-01
1.463000000000000000e+03 3.080886650085449219e+01 -3.241155242919921875e+01 -6.847580075263977051e-01 2.187728881835937500e+00 4.508912563323974609e-01 1.371839165687561035e+00
1.464000000000000000e+03 2.425147247314453125e+01 -8.754918098449707031e+00 -1.040283203125000000e+00 -2.863410413265228271e-01 -3.979872763156890869e-01 -6.633884906768798828e-01
1.465000000000000000e+03 2.183268737792968750e+01 -9.429365158081054688e+00 -9.995371103286743164e-01 -5.994076654314994812e-02 -3.178433477878570557e-01 -6.736997961997985840e-01
1.466000000000000000e+03 2.639590263366699219e+01 -3.178421783447265625e+01 -1.043257236480712891e+00 1.657675951719284058e-01 -2.632468938827514648e-01 4.304465949535369873e-01
1.467000000000000000e+03 2.473359298706054688e+01 -3.155021667480468750e+01 -1.109443545341491699e+00 7.785402983427047729e-02 -3.094768524169921875e-01 -1.561869960278272629e-02
1.468000000000000000e+03 3.703450012207031250e+01 -2.293605613708496094e+01 1.582664847373962402e+00 9.253667831420898438e+00 3.250900030136108398e+00 1.786904633045196533e-01
1.469000000000000000e+03 3.688140869140625000e+01 -2.160190200805664062e+01 1.520846962928771973e+00 1.026496410369873047e+01 3.535743474960327148e+00 3.029893040657043457e-01
1.470000000000000000e+03 3.514966583251953125e+01 -2.670746040344238281e+01 2.755480110645294189e-01 6.334311008453369141e+00 1.982957720756530762e+00 1.382633209228515625e+00
1.471000000000000000e+03 1.582390975952148438e+01 -2.555219268798828125e+01 -8.841919153928756714e-02 4.960273265838623047e+00 1.461556196212768555e+00 -1.420644879341125488e+00
1.472000000000000000e+03 5.399025344848632812e+01 -5.438039302825927734e+00 9.271109700202941895e-01 2.300272703170776367e+00 9.682150483131408691e-01 1.842620611190795898e+00
1.473000000000000000e+03 5.444192504882812500e+01 -6.522514820098876953e+00 6.170893907546997070e-01 2.077272415161132812e+00 8.083085417747497559e-01 1.919822692871093750e+00
1.474000000000000000e+03 6.198661041259765625e+01 2.230687713623046875e+01 -1.557626128196716309e+00 6.551281929016113281e+00 1.498096704483032227e+00 -1.323390483856201172e+00
1.475000000000000000e+03 6.467324829101562500e+01 1.856148147583007812e+01 7.914187312126159668e-01 8.329015731811523438e+00 2.736130237579345703e+00 1.072334572672843933e-01
1.476000000000000000e+03 6.251077270507812500e+01 1.776356887817382812e+01 1.001880764961242676e+00 1.094447326660156250e+01 3.583906412124633789e+00 -1.612656116485595703e+00
1.477000000000000000e+03 3.887922286987304688e+01 -6.845661997795104980e-01 1.218546986579895020e+00 1.101797485351562500e+01 3.670956611633300781e+00 -1.879540443420410156e+00
1.478000000000000000e+03 5.396688461303710938e+01 2.303707122802734375e+01 -1.368078947067260742e+00 1.673335731029510498e-01 -3.602236211299896240e-01 2.541078627109527588e-01
1.479000000000000000e+03 4.107852554321289062e+01 -2.469347000122070312e+00 2.267111390829086304e-01 5.521254539489746094e+00 1.724389672279357910e+00 -2.506596088409423828e+00
1.480000000000000000e+03 5.653247070312500000e+01 2.480959320068359375e+01 -5.884572267532348633e-01 8.487511277198791504e-01 7.808817178010940552e-02 -5.084930658340454102e-01
1.481000000000000000e+03 5.761553573608398438e+01 2.351203155517578125e+01 -7.400249242782592773e-01 7.183160185813903809e-01 -6.512661930173635483e-03 -9.836218953132629395e-01
1.482000000000000000e+03 4.015874862670898438e+01 1.009565734863281250e+01 2.278226375579833984e+00 1.205534458160400391e+01 4.300071239471435547e+00 4.776115417480468750e+00
1.483000000000000000e+03 6.271690368652343750e+01 2.126051139831542969e+01 -1.270403861999511719e+00 7.277456283569335938e+00 1.802115678787231445e+00 -3.371025323867797852e-01
1.484000000000000000e+03 4.662583541870117188e+01 -5.806562423706054688e+00 -2.684212923049926758e+00 -7.052212487906217575e-03 -8.073794841766357422e-01 1.010294914245605469e+00
1.485000000000000000e+03 6.052114486694335938e+01 5.385396957397460938e+00 1.834735751152038574e+00 7.031618595123291016e+00 2.659906387329101562e+00 3.045298814773559570e+00
1.486000000000000000e+03 5.973850631713867188e+01 4.177350997924804688e+00 1.808348774909973145e+00 5.085565090179443359e+00 2.068174123764038086e+00 2.852005720138549805e+00
1.487000000000000000e+03 6.204747009277343750e+01 1.094214630126953125e+01 2.528596818447113037e-01 1.093097114562988281e+01 3.355149269104003906e+00 1.315935492515563965e+00
1.488000000000000000e+03 5.751886367797851562e+01 -9.840114116668701172e-01 1.932342410087585449e+00 3.092836856842041016e+00 1.507553815841674805e+00 2.088577270507812500e+00
1.489000000000000000e+03 3.891178512573242188e+01 3.387817382812500000e+00 7.679452300071716309e-01 1.508474349975585938e+01 4.755806922912597656e+00 -5.978124141693115234e-01
1.490000000000000000e+03 3.828021240234375000e+01 3.024539351463317871e-01 1.362020373344421387e+00 1.181837177276611328e+01 3.954117774963378906e+00 -1.238765478134155273e+00
1.491000000000000000e+03 3.742548751831054688e+01 1.118260145187377930e+00 1.828429222106933594e+00 1.159632301330566406e+01 4.027425765991210938e+00 -6.658045649528503418e-01
1.492000000000000000e+03 3.769773101806640625e+01 5.344654560089111328e+00 1.105671405792236328e+00 1.467578983306884766e+01 4.734438419342041016e+00 1.069900393486022949e+00
1.493000000000000000e+03 4.416633987426757812e+01 -5.546216011047363281e+00 -1.889165520668029785e+00 1.240766525268554688e+00 -1.945197135210037231e-01 -3.228056728839874268e-01
1.494000000000000000e+03 5.906170272827148438e+01 1.301259160041809082e+00 1.469140291213989258e+00 3.939178705215454102e+00 1.622495651245117188e+00 2.268810987472534180e+00
1.495000000000000000e+03 6.301575088500976562e+01 1.089258575439453125e+01 6.876720786094665527e-01 1.019095706939697266e+01 3.263588666915893555e+00 1.085066795349121094e+00
1.496000000000000000e+03 4.543015670776367188e+01 -4.404739379882812500e+00 -4.403930187225341797e+00 -7.861835509538650513e-02 -1.344764471054077148e+00 1.213921189308166504e+00
1.497000000000000000e+03 3.778073501586914062e+01 1.325003814697265625e+01 7.051839232444763184e-01 9.342226982116699219e+00 3.014223098754882812e+00 5.588797330856323242e-01
1.498000000000000000e+03 6.167629241943359375e+01 4.777568340301513672e+00 1.233556866645812988e+00 6.774247169494628906e+00 2.402341127395629883e+00 1.697868466377258301e+00
1.499000000000000000e+03 6.228784561157226562e+01 6.286550045013427734e+00 1.235066652297973633e+00 7.709963798522949219e+00 2.683509111404418945e+00 1.778038024902343750e+00
1.500000000000000000e+03 4.311653137207031250e+01 1.820942687988281250e+01 2.851990461349487305e-01 4.005794525146484375e+00 1.287298083305358887e+00 1.775208830833435059e+00
1.501000000000000000e+03 4.286118698120117188e+01 1.606394195556640625e+01 1.098711967468261719e+00 4.192304611206054688e+00 1.587305068969726562e+00 2.206614971160888672e+00
1.502000000000000000e+03 5.585131454467773438e+01 -3.299072980880737305e+00 1.909485936164855957e+00 2.621685743331909180e+00 1.359351515769958496e+00 2.069733619689941406e+00
1.503000000000000000e+03 4.578339385986328125e+01 1.677398490905761719e+01 1.240959048271179199e+00 1.695684194564819336e+00 8.809929490089416504e-01 1.451969146728515625e+00
1.504000000000000000e+03 5.245451736450195312e+01 2.252593612670898438e+01 -1.537275671958923340e+00 3.580247759819030762e-01 -3.537752628326416016e-01 4.181911051273345947e-01
1.505000000000000000e+03 3.922413253784179688e+01 1.352243709564208984e+01 8.842673301696777344e-01 8.399543762207031250e+00 2.785143136978149414e+00 1.637217998504638672e+00
1.506000000000000000e+03 3.935131835937500000e+01 1.191050529479980469e+01 1.411415576934814453e+00 9.868001937866210938e+00 3.383825302124023438e+00 2.335870265960693359e+00
1.507000000000000000e+03 4.834729385375976562e+01 2.062918472290039062e+01 -6.119455099105834961e-01 1.341306805610656738e+00 2.188083827495574951e-01 8.882465362548828125e-01
1.508000000000000000e+03 4.656073760986328125e+01 -6.857265472412109375e+00 -1.318228363990783691e+00 2.248158901929855347e-01 -3.280237317085266113e-01 8.751513957977294922e-01
1.509000000000000000e+03 6.288049316406250000e+01 7.860645294189453125e+00 9.722940325736999512e-01 8.849249839782714844e+00 2.946463346481323242e+00 1.426941871643066406e+00
1.510000000000000000e+03 6.314598083496093750e+01 9.490791320800781250e+00 8.742001652717590332e-01 9.308839797973632812e+00 3.054912090301513672e+00 1.174135208129882812e+00
1.511000000000000000e+03 6.399937820434570312e+01 1.596331024169921875e+01 9.384464621543884277e-01 9.630604743957519531e+00 3.170715570449829102e+00 -5.451216101646423340e-01
1.512000000000000000e+03 5.986274719238281250e+01 2.406994104385375977e+00 1.320109486579895020e+00 4.568729400634765625e+00 1.766651630401611328e+00 2.227977514266967773e+00
1.513000000000000000e+03 5.669646453857421875e+01 -2.139126777648925781e+00 1.941438555717468262e+00 2.922884464263916016e+00 1.459296941757202148e+00 2.057355403900146484e+00
1.514000000000000000e+03 4.059685516357421875e+01 1.415387153625488281e+01 1.116791009902954102e+00 7.176371097564697266e+00 2.487948656082153320e+00 2.282513141632080078e+00
1.515000000000000000e+03 5.830311584472656250e+01 1.696878373622894287e-01 1.730033755302429199e+00 3.399619340896606445e+00 1.538895845413208008e+00 2.217108964920043945e+00
1.516000000000000000e+03 6.346450042724609375e+01 1.322824764251708984e+01 5.789761543273925781e-01 1.031415462493896484e+01 3.267939329147338867e+00 3.489397168159484863e-01
1.517000000000000000e+03 3.737426757812500000e+01 4.090926170349121094e+00 1.469593763351440430e+00 1.363520908355712891e+01 4.531441211700439453e+00 5.566396117210388184e-01
1.518000000000000000e+03 6.008607864379882812e+01 7.028763890266418457e-01 1.324406504631042480e+00 4.205237388610839844e+00 1.658893108367919922e+00 1.856560349464416504e+00
1.519000000000000000e+03 7.020384669303894043e-01 3.743402481079101562e+01 -3.151135891675949097e-02 5.427672863006591797e+00 1.618848443031311035e+00 -1.340613234788179398e-03
1.520000000000000000e+03 7.350061535835266113e-01 3.467619323730468750e+01 -2.625940553843975067e-02 5.312210559844970703e+00 1.585785269737243652e+00 -5.541438609361648560e-02
1.521000000000000000e+03 7.709580063819885254e-01 3.327457046508789062e+01 -7.944252341985702515e-03 5.182963371276855469e+00 1.552505731582641602e+00 -8.881176263093948364e-02
1.522000000000000000e+03 6.659819483757019043e-01 2.758992767333984375e+01 -8.758517913520336151e-03 4.084376335144042969e+00 1.222685337066650391e+00 -2.037413269281387329e-01
1.523000000000000000e+03 6.420404314994812012e-01 2.618239974975585938e+01 -1.281478162854909897e-02 3.625870943069458008e+00 1.083916783332824707e+00 -2.264821678400039673e-01
1.524000000000000000e+03 4.218855857849121094e+00 2.529881286621093750e+01 -2.200347632169723511e-01 4.347859859466552734e+00 1.238347530364990234e+00 -1.123804211616516113e+00
1.525000000000000000e+03 3.193637371063232422e+00 2.470786857604980469e+01 -1.103825643658638000e-01 3.880678415298461914e+00 1.131088733673095703e+00 -1.009723663330078125e+00
1.526000000000000000e+03 2.233225584030151367e+00 3.464602661132812500e+01 -6.610105186700820923e-02 5.133943080902099609e+00 1.520352721214294434e+00 -1.687330603599548340e-01
1.527000000000000000e+03 2.371383905410766602e+00 3.324231338500976562e+01 -8.126138895750045776e-02 5.006235599517822266e+00 1.477492213249206543e+00 -2.472825348377227783e-01
1.528000000000000000e+03 3.177290201187133789e+00 3.922845077514648438e+01 -4.308506846427917480e-02 5.271940231323242188e+00 1.568656444549560547e+00 -4.918838664889335632e-02
1.529000000000000000e+03 6.445437669754028320e-01 2.056540107727050781e+01 1.365449558943510056e-02 1.405008792877197266e+00 4.255989789962768555e-01 -2.469057291746139526e-01
1.530000000000000000e+03 6.156711578369140625e-01 1.350002288818359375e+01 -1.860340125858783722e-02 -4.723223149776458740e-01 -1.472777128219604492e-01 -8.643995225429534912e-02
1.531000000000000000e+03 4.225968122482299805e-01 6.408956527709960938e+00 3.071724064648151398e-02 -1.216919064521789551e+00 -3.558605313301086426e-01 -1.329510565847158432e-02
1.532000000000000000e+03 3.529196679592132568e-01 5.006754875183105469e+00 -7.084099575877189636e-03 -1.172383546829223633e+00 -3.538402915000915527e-01 3.140095248818397522e-02
1.533000000000000000e+03 3.905854940414428711e+00 1.711468100547790527e+00 -1.175576373934745789e-01 1.069631651043891907e-01 -3.178341779857873917e-03 3.404142558574676514e-01
1.534000000000000000e+03 1.722370624542236328e+00 1.050821495056152344e+01 1.985882408916950226e-02 2.752778530120849609e-01 8.854100108146667480e-02 -1.881573647260665894e-01
1.535000000000000000e+03 5.719044208526611328e-01 1.064399814605712891e+01 -2.275022119283676147e-02 -8.113635182380676270e-01 -2.502341270446777344e-01 -6.364898383617401123e-02
1.536000000000000000e+03 1.831773161888122559e+00 1.348417568206787109e+01 5.483662709593772888e-02 6.856430172920227051e-01 2.221439033746719360e-01 -2.249177694320678711e-01
1.537000000000000000e+03 1.939026951789855957e+00 2.052796745300292969e+01 4.020991548895835876e-02 2.211225748062133789e+00 6.754306554794311523e-01 -7.137894630432128906e-01
1.538000000000000000e+03 1.911536097526550293e+00 1.912109375000000000e+01 8.245744556188583374e-02 1.791115045547485352e+00 5.620717406272888184e-01 -6.032076478004455566e-01
1.539000000000000000e+03 1.914762020111083984e+00 2.470187187194824219e+01 -3.297434747219085693e-02 3.444413423538208008e+00 1.023431658744812012e+00 -6.917927265167236328e-01
1.540000000000000000e+03 1.129876255989074707e+00 1.860609769821166992e+00 -3.046110644936561584e-02 -2.620774805545806885e-01 -8.776157349348068237e-02 3.180135190486907959e-01
1.541000000000000000e+03 5.544827580451965332e-01 2.721422195434570312e+00 -8.757636882364749908e-03 -5.801870226860046387e-01 -1.766833961009979248e-01 1.628882139921188354e-01
1.542000000000000000e+03 3.401028060913085938e+01 1.246945095062255859e+01 7.254574298858642578e-01 9.260039329528808594e+00 2.995648860931396484e+00 -1.743616461753845215e+00
1.543000000000000000e+03 3.096076774597167969e+01 -1.343748331069946289e+00 3.209819316864013672e+00 3.647540330886840820e+00 2.057207822799682617e+00 1.193879842758178711e+00
1.544000000000000000e+03 3.234498214721679688e+01 -2.344950437545776367e-01 3.910377740859985352e+00 6.011307716369628906e+00 2.976505517959594727e+00 2.625997066497802734e+00
1.545000000000000000e+03 1.189516258239746094e+01 9.349004030227661133e-01 6.843277931213378906e+00 1.393664073944091797e+01 6.233975887298583984e+00 2.077859878540039062e+00
1.546000000000000000e+03 9.494978785514831543e-01 -1.628333091735839844e+00 -4.440345987677574158e-02 -1.776215583086013794e-01 -6.660750508308410645e-02 -2.205403745174407959e-01
1.547000000000000000e+03 9.474456906318664551e-01 -1.970337271690368652e+00 -9.458190761506557465e-03 -2.280537337064743042e-01 -7.125357538461685181e-02 -2.311194837093353271e-01
1.548000000000000000e+03 1.377993822097778320e+00 -1.935315370559692383e+00 -2.646386250853538513e-02 -1.998171061277389526e-01 -6.788428872823715210e-02 -2.931909263134002686e-01
1.549000000000000000e+03 3.918357133865356445e+00 -1.676486134529113770e+00 -1.880956627428531647e-02 8.772174268960952759e-02 2.067365311086177826e-02 -2.482413947582244873e-01
1.550000000000000000e+03 3.997758388519287109e+00 -1.955041408538818359e+00 9.153622388839721680e-02 1.224955394864082336e-01 6.420952826738357544e-02 -2.029704749584197998e-01
1.551000000000000000e+03 4.396989822387695312e+00 -1.871967434883117676e+00 1.644162833690643311e-01 1.693047434091567993e-01 1.001163125038146973e-01 -1.258442252874374390e-01
1.552000000000000000e+03 4.914566040039062500e+00 -1.666787981986999512e+00 1.893748939037322998e-01 2.195936888456344604e-01 1.226905733346939087e-01 -2.377188019454479218e-02
1.553000000000000000e+03 5.421149253845214844e+00 -1.746470451354980469e+00 4.132970571517944336e-01 2.984698116779327393e-01 2.135300636291503906e-01 1.844432353973388672e-01
1.554000000000000000e+03 6.206635475158691406e+00 -1.992761969566345215e+00 1.041721820831298828e+00 7.268162965774536133e-01 5.305614471435546875e-01 7.797622680664062500e-01
1.555000000000000000e+03 7.297919750213623047e+00 -1.647209763526916504e+00 1.852386593818664551e+00 1.121410608291625977e+00 8.921391963958740234e-01 1.620584964752197266e+00
1.556000000000000000e+03 8.068263053894042969e+00 -1.627707481384277344e+00 2.806964159011840820e+00 2.366419315338134766e+00 1.552015066146850586e+00 2.975736379623413086e+00
1.557000000000000000e+03 7.892537593841552734e+00 -1.603960275650024414e+00 2.523113727569580078e+00 1.842250823974609375e+00 1.309609413146972656e+00 2.521167755126953125e+00
1.558000000000000000e+03 8.474727630615234375e+00 -1.708033561706542969e+00 3.141933917999267578e+00 4.066433906555175781e+00 2.162510395050048828e+00 4.110953330993652344e+00
1.559000000000000000e+03 8.910845756530761719e+00 -1.702200293540954590e+00 3.305274963378906250e+00 6.345517158508300781e+00 2.895237684249877930e+00 5.268695354461669922e+00
1.560000000000000000e+03 9.697708129882812500e+00 -1.637643575668334961e+00 2.131072759628295898e+00 1.332326030731201172e+01 4.636300086975097656e+00 5.798508167266845703e+00
1.561000000000000000e+03 1.007968425750732422e+01 1.732764601707458496e+00 9.882224798202514648e-01 1.613104629516601562e+01 5.135780811309814453e+00 -4.237734794616699219e+00
1.562000000000000000e+03 9.100313186645507812e+00 1.603157877922058105e+00 3.101456880569458008e+00 7.758903980255126953e+00 3.258108377456665039e+00 -5.851692676544189453e+00
1.563000000000000000e+03 8.301748275756835938e+00 1.665915250778198242e+00 2.917323350906372070e+00 3.255185365676879883e+00 1.851752638816833496e+00 -3.667854547500610352e+00
1.564000000000000000e+03 8.090157508850097656e+00 1.673247337341308594e+00 2.644026756286621094e+00 2.644736051559448242e+00 1.586628794670104980e+00 -3.143912076950073242e+00
1.565000000000000000e+03 7.326308250427246094e+00 1.658640623092651367e+00 1.698660016059875488e+00 1.254971146583557129e+00 8.860893249511718750e-01 -1.638875961303710938e+00
1.566000000000000000e+03 6.916038513183593750e+00 1.719033956527709961e+00 1.275369524955749512e+00 9.289178252220153809e-01 6.612862348556518555e-01 -1.140043139457702637e+00
1.567000000000000000e+03 6.494740962982177734e+00 1.677618980407714844e+00 8.045348525047302246e-01 6.588318347930908203e-01 4.390100240707397461e-01 -7.265501618385314941e-01
1.568000000000000000e+03 5.293774127960205078e+00 1.620318293571472168e+00 9.581252932548522949e-02 2.461321651935577393e-01 1.025834083557128906e-01 1.770201371982693672e-03
1.569000000000000000e+03 5.684220790863037109e+00 1.629651308059692383e+00 2.485612034797668457e-01 3.403343558311462402e-01 1.766686737537384033e-01 -1.584939807653427124e-01
1.570000000000000000e+03 5.093012809753417969e+00 1.835883498191833496e+00 2.324183732271194458e-01 3.052772879600524902e-01 1.613087058067321777e-01 5.837386008352041245e-03
1.571000000000000000e+03 5.100051403045654297e+00 1.613797545433044434e+00 2.936353720724582672e-02 2.300872802734375000e-01 7.783524692058563232e-02 6.206052377820014954e-02
1.572000000000000000e+03 3.498377799987792969e+00 1.699317097663879395e+00 -1.471584290266036987e-01 4.346929863095283508e-02 -3.110673837363719940e-02 3.811904191970825195e-01
1.573000000000000000e+03 3.698042631149291992e+00 1.701930522918701172e+00 -1.310047805309295654e-01 7.949401438236236572e-02 -1.545323058962821960e-02 3.708654344081878662e-01
1.574000000000000000e+03 3.776766300201416016e+00 2.286894083023071289e+00 1.431908160448074341e-01 2.124611586332321167e-01 1.066955924034118652e-01 2.852838635444641113e-01
1.575000000000000000e+03 3.292162418365478516e+00 1.709233999252319336e+00 -1.485556811094284058e-01 2.439040318131446838e-02 -3.724958002567291260e-02 3.971910476684570312e-01
1.576000000000000000e+03 1.577969193458557129e+00 2.359348058700561523e+00 2.631562761962413788e-03 -2.199563384056091309e-01 -6.519743055105209351e-02 3.932030797004699707e-01
1.577000000000000000e+03 1.031313991546630859e+01 1.703021168708801270e+00 9.115678668022155762e-01 1.741921997070312500e+01 5.499236583709716797e+00 -3.017654418945312500e+00
1.578000000000000000e+03 1.063486480712890625e+01 -2.176455974578857422e+00 6.869607567787170410e-01 1.555905151367187500e+01 4.873803615570068359e+00 1.435743212699890137e+00
1.579000000000000000e+03 1.010765171051025391e+01 -1.922912955284118652e+00 9.331783056259155273e-01 1.525110816955566406e+01 4.855286121368408203e+00 3.762984514236450195e+00
1.580000000000000000e+03 1.189070892333984375e+01 -1.533910632133483887e-01 9.683364868164062500e+00 1.308973407745361328e+01 6.831929683685302734e+00 -7.776692509651184082e-01
1.581000000000000000e+03 1.140082168579101562e+01 1.887807965278625488e+00 2.077078104019165039e+00 1.581009387969970703e+01 5.366151809692382812e+00 9.823727011680603027e-01
1.582000000000000000e+03 1.149506378173828125e+01 1.583866834640502930e+00 3.349987983703613281e+00 1.572329711914062500e+01 5.721985816955566406e+00 1.634311676025390625e+00
1.583000000000000000e+03 1.185837745666503906e+01 -3.702590167522430420e-01 9.352433204650878906e+00 1.328842449188232422e+01 6.792257308959960938e+00 -1.496303439140319824e+00
1.584000000000000000e+03 1.599768400192260742e+00 2.084921836853027344e+00 -3.460509330034255981e-02 -1.858611702919006348e-01 -6.613987684249877930e-02 3.852604925632476807e-01
1.585000000000000000e+03 1.103034973144531250e+00 2.497211456298828125e+00 -4.328475799411535263e-03 -3.926517963409423828e-01 -1.190940812230110168e-01 3.254823684692382812e-01
1.586000000000000000e+03 1.266456007957458496e+00 -2.395278453826904297e+00 2.191802673041820526e-02 -2.868984937667846680e-01 -7.949414104223251343e-02 -2.840797305107116699e-01
1.587000000000000000e+03 5.915027618408203125e+01 -1.273147678375244141e+01 -2.302370548248291016e+00 4.056879878044128418e-01 -5.690047740936279297e-01 -1.432303935289382935e-01
1.588000000000000000e+03 5.553517532348632812e+01 -8.176601409912109375e+00 -1.717850752174854279e-02 1.650701284408569336e+00 4.900568425655364990e-01 1.680636048316955566e+00
1.589000000000000000e+03 2.168066024780273438e+01 -8.128282546997070312e+00 2.246359549462795258e-02 2.171754688024520874e-01 7.189171761274337769e-02 -4.309395849704742432e-01
1.590000000000000000e+03 2.537659072875976562e+01 -8.340306282043457031e+00 -1.135731339454650879e+00 -3.067203462123870850e-01 -4.327355027198791504e-01 -4.650797843933105469e-01
1.591000000000000000e+03 5.170182418823242188e+01 -1.347568511962890625e+01 5.811060070991516113e-01 4.760098457336425781e-01 3.171347379684448242e-01 1.357779502868652344e+00
1.592000000000000000e+03 5.433081436157226562e+01 -1.357931327819824219e+01 -7.404912114143371582e-01 2.545677721500396729e-01 -1.457770317792892456e-01 7.729990482330322266e-01
1.593000000000000000e+03 6.045151138305664062e+01 -1.076120567321777344e+01 -1.610107660293579102e+00 6.506854891777038574e-01 -2.878266572952270508e-01 3.811085820198059082e-01
1.594000000000000000e+03 3.713856887817382812e+01 1.591539955139160156e+01 2.689625620841979980e-01 7.641858100891113281e+00 2.373246192932128906e+00 1.255872249603271484e-01
1.595000000000000000e+03 2.396571350097656250e+01 -7.521883964538574219e+00 -4.036752879619598389e-02 -2.388683110475540161e-01 -8.377075195312500000e-02 -2.943982779979705811e-01
1.596000000000000000e+03 1.419612216949462891e+01 1.231228160858154297e+01 8.600388765335083008e-01 1.178305530548095703e+01 3.792928218841552734e+00 -1.735071063041687012e+00
1.597000000000000000e+03 1.315947532653808594e+01 1.632791519165039062e+01 1.051017045974731445e+00 1.343334770202636719e+01 4.345309257507324219e+00 -1.790378391742706299e-01
1.598000000000000000e+03 2.056684875488281250e+01 -8.208805084228515625e+00 8.819926530122756958e-02 6.794517636299133301e-01 2.302953153848648071e-01 -2.803029417991638184e-01
1.599000000000000000e+03 1.950237464904785156e+01 -8.073201179504394531e+00 1.009284034371376038e-01 1.465003252029418945e+00 4.697794914245605469e-01 -6.741797551512718201e-03
1.600000000000000000e+03 6.128477859497070312e+01 -1.009537315368652344e+01 -1.425885915756225586e+00 6.733496785163879395e-01 -2.257608920335769653e-01 4.737573489546775818e-02
1.601000000000000000e+03 2.084188270568847656e+01 2.699506044387817383e+00 1.192718625068664551e+00 -3.839773237705230713e-01 2.426224052906036377e-01 2.072660475969314575e-01
1.602000000000000000e+03 5.885297775268554688e+01 -1.066633987426757812e+01 -1.270838499069213867e+00 8.602171540260314941e-01 -1.231864020228385925e-01 7.245172858238220215e-01
1.603000000000000000e+03 2.281889533996582031e+01 -7.877148151397705078e+00 -3.460031002759933472e-02 -1.320760101079940796e-01 -5.000289529561996460e-02 -4.678355157375335693e-01
1.604000000000000000e+03 2.007758140563964844e+01 2.017487525939941406e+00 1.904171228408813477e+00 2.569603025913238525e-01 6.483394503593444824e-01 -7.393562048673629761e-02
1.605000000000000000e+03 5.019367218017578125e+01 2.353834533691406250e+01 -8.194445371627807617e-01 1.202065110206604004e+00 1.147861704230308533e-01 1.014578580856323242e+00
1.606000000000000000e+03 2.148177528381347656e+01 -3.260285186767578125e+01 -8.173848390579223633e-01 1.191664695739746094e+00 1.122839525341987610e-01 -6.837952136993408203e-01
1.607000000000000000e+03 3.488914489746093750e+01 5.083107471466064453e+00 1.262701869010925293e+00 1.359357261657714844e+01 4.456882476806640625e+00 1.372528791427612305e+00
1.608000000000000000e+03 3.468386077880859375e+01 3.903126239776611328e+00 1.929186344146728516e+00 1.295286083221435547e+01 4.464614391326904297e+00 1.758022189140319824e+00
1.609000000000000000e+03 4.341743850708007812e+01 -8.289319992065429688e+00 -6.287537217140197754e-01 3.834775924682617188e+00 9.618066549301147461e-01 -7.524666786193847656e-01
1.610000000000000000e+03 5.737428665161132812e+00 -3.070443153381347656e+01 -4.131852090358734131e-01 4.916537761688232422e+00 1.351005792617797852e+00 9.634931683540344238e-01
1.611000000000000000e+03 3.887165784835815430e+00 -2.939929199218750000e+01 -1.910652369260787964e-01 4.538290500640869141e+00 1.304167509078979492e+00 9.495393633842468262e-01
1.612000000000000000e+03 3.945804595947265625e+00 -3.737297058105468750e+01 -1.880679428577423096e-01 5.265376567840576172e+00 1.523192524909973145e+00 3.324411213397979736e-01
1.613000000000000000e+03 1.407466888427734375e+00 -7.472104072570800781e+00 2.764155529439449310e-02 -4.172876849770545959e-02 -4.226163495332002640e-03 1.662017107009887695e-01
1.614000000000000000e+03 1.728350162506103516e+00 -1.572677707672119141e+01 4.947466030716896057e-02 9.233269095420837402e-01 2.918404638767242432e-01 1.311444491147994995e-01
1.615000000000000000e+03 3.509811401367187500e+00 -2.520441818237304688e+01 -9.243502281606197357e-03 3.718581914901733398e+00 1.112801432609558105e+00 1.112191081047058105e+00
1.616000000000000000e+03 3.716981410980224609e+00 -2.797679901123046875e+01 -1.485964357852935791e-01 4.297810554504394531e+00 1.244764328002929688e+00 1.035061836242675781e+00
1.617000000000000000e+03 4.148328781127929688e+00 -1.677468299865722656e+01 3.153738081455230713e-01 2.875897169113159180e+00 9.573813080787658691e-01 4.002726972103118896e-01
1.618000000000000000e+03 2.774233579635620117e+00 -1.430218887329101562e+01 3.394920006394386292e-02 1.671409249305725098e+00 5.116075277328491211e-01 1.400268375873565674e-01
1.619000000000000000e+03 2.867522716522216797e+00 -1.043173027038574219e+01 -9.067542850971221924e-02 1.494440078735351562e+00 4.211293756961822510e-01 2.618691623210906982e-01
1.620000000000000000e+03 3.322684526443481445e+00 -9.331989288330078125e+00 -1.088903397321701050e-01 1.748009800910949707e+00 4.917358458042144775e-01 3.807951211929321289e-01
1.621000000000000000e+03 2.863415241241455078e+00 -1.561069107055664062e+01 1.223682537674903870e-01 1.830595850944519043e+00 5.858892202377319336e-01 2.171571254730224609e-01
1.622000000000000000e+03 3.442441463470458984e+00 -2.383184623718261719e+01 7.953060418367385864e-02 3.409163951873779297e+00 1.046608328819274902e+00 1.071851611137390137e+00
1.623000000000000000e+03 4.099656581878662109e+00 -3.088064956665039062e+01 -2.389293760061264038e-01 4.741802215576171875e+00 1.350861907005310059e+00 8.392800688743591309e-01
1.624000000000000000e+03 2.556743621826171875e+00 -3.239661788940429688e+01 -1.173873245716094971e-01 4.871827125549316406e+00 1.426331877708435059e+00 5.099720358848571777e-01
1.625000000000000000e+03 4.421162128448486328e+00 -3.404125595092773438e+01 -2.572858035564422607e-01 5.011292934417724609e+00 1.426202178001403809e+00 5.684847235679626465e-01
1.626000000000000000e+03 2.115999698638916016e+00 -2.530995750427246094e+01 8.042483590543270111e-03 3.192275524139404297e+00 9.600954055786132812e-01 7.670968174934387207e-01
1.627000000000000000e+03 3.596694946289062500e+00 -2.658607864379882812e+01 -7.280850410461425781e-02 4.022961139678955078e+00 1.185045838356018066e+00 1.093409061431884766e+00
1.628000000000000000e+03 1.935316681861877441e+00 -1.981097412109375000e+01 1.036708652973175049e-01 1.652957439422607422e+00 5.269885063171386719e-01 4.723251760005950928e-01
1.629000000000000000e+03 3.902405738830566406e+00 -1.072383594512939453e+01 -1.695326268672943115e-01 2.478004217147827148e+00 6.925414800643920898e-01 3.324005305767059326e-01
1.630000000000000000e+03 4.342111110687255859e+00 -3.570154190063476562e+01 -2.298676222562789917e-01 5.081072330474853516e+00 1.455361485481262207e+00 4.219585359096527100e-01
1.631000000000000000e+03 6.209502792358398438e+01 -9.365036010742187500e+00 -9.761537313461303711e-01 9.834229946136474609e-01 2.180775161832571030e-03 -5.365071445703506470e-02
1.632000000000000000e+03 6.417561340332031250e+01 -1.139477348327636719e+01 -3.611225128173828125e+00 -2.963179349899291992e-01 -1.172262907028198242e+00 -1.167348384857177734e+00
1.633000000000000000e+03 5.786524963378906250e+01 -3.224839019775390625e+01 -1.042272806167602539e+00 -1.089373975992202759e-02 -3.159499764442443848e-01 -2.454185783863067627e-01
1.634000000000000000e+03 5.706403350830078125e+01 -3.907694101333618164e+00 1.511249065399169922e+00 2.483358144760131836e+00 1.198382139205932617e+00 1.647110581398010254e+00
1.635000000000000000e+03 1.368186950683593750e+01 -2.495853805541992188e+01 -5.238488316535949707e-01 7.258527755737304688e+00 2.020403623580932617e+00 -2.750739455223083496e-01
1.636000000000000000e+03 1.905124092102050781e+01 4.454962730407714844e+00 1.414574533700942993e-01 9.515188932418823242e-01 3.278928995132446289e-01 2.706346213817596436e-01
1.637000000000000000e+03 6.073191452026367188e+01 1.753397583961486816e+00 1.130257964134216309e+00 4.960783958435058594e+00 1.827312588691711426e+00 1.875979542732238770e+00
1.638000000000000000e+03 3.416736602783203125e+01 3.023928403854370117e+00 2.767584562301635742e+00 1.485937213897705078e+01 5.288086891174316406e+00 2.436830759048461914e+00
1.639000000000000000e+03 1.379803752899169922e+01 1.368913459777832031e+01 1.292943716049194336e+00 1.299724674224853516e+01 4.287057399749755859e+00 -1.157941699028015137e+00
1.640000000000000000e+03 6.395652008056640625e+01 1.134893417358398438e+01 8.305565118789672852e-01 9.502557754516601562e+00 3.099934339523315430e+00 6.664712429046630859e-01
1.641000000000000000e+03 6.375368881225585938e+01 1.459074687957763672e+01 5.792737007141113281e-01 1.021630001068115234e+01 3.238672256469726562e+00 -3.530272096395492554e-02
1.642000000000000000e+03 2.436073303222656250e+01 2.445959854125976562e+01 -1.103988051414489746e+00 4.762459993362426758e-01 -1.883226186037063599e-01 -7.400624752044677734e-01
1.643000000000000000e+03 4.486504364013671875e+01 -2.687570381164550781e+01 2.048501968383789062e+00 9.691868782043457031e+00 3.522111177444458008e+00 -2.104917049407958984e+00
1.644000000000000000e+03 4.252653503417968750e+01 -2.144130897521972656e+01 1.889671683311462402e+00 9.952028274536132812e+00 3.552510023117065430e+00 -1.038589715957641602e+00
1.645000000000000000e+03 6.790165710449218750e+01 -2.647205734252929688e+01 -7.028232216835021973e-01 6.826959133148193359e+00 1.837240695953369141e+00 1.182366728782653809e+00
1.646000000000000000e+03 6.694222259521484375e+01 -2.570818138122558594e+01 -4.942674189805984497e-02 5.355429649353027344e+00 1.591800808906555176e+00 1.798085212707519531e+00
1.647000000000000000e+03 7.795466613769531250e+01 -3.614937210083007812e+01 -8.559663593769073486e-02 9.761732101440429688e+00 2.902840614318847656e+00 -4.653640463948249817e-02
1.648000000000000000e+03 7.488428497314453125e+01 -3.251391601562500000e+01 -3.817063271999359131e-01 8.587895393371582031e+00 2.461856603622436523e+00 -3.552545309066772461e-01
1.649000000000000000e+03 7.669588470458984375e+01 -3.648289489746093750e+01 -1.613095551729202271e-01 9.108613967895507812e+00 2.684191226959228516e+00 -5.802870541810989380e-02
1.650000000000000000e+03 7.577386474609375000e+01 -2.221622276306152344e+01 3.786931037902832031e-01 8.340072631835937500e+00 2.615629911422729492e+00 -1.094258904457092285e+00
1.651000000000000000e+03 7.788004302978515625e+01 -2.936851692199707031e+01 -1.339250952005386353e-01 9.125102996826171875e+00 2.697353363037109375e+00 -5.513493418693542480e-01
1.652000000000000000e+03 7.533466339111328125e+01 1.524073314666748047e+01 2.228339016437530518e-01 6.719853878021240234e+00 2.082806348800659180e+00 2.616454958915710449e-01
1.653000000000000000e+03 7.800430297851562500e+01 1.532192707061767578e+01 5.067750811576843262e-02 6.367571353912353516e+00 1.925474643707275391e+00 1.515565812587738037e-01
1.654000000000000000e+03 7.809951019287109375e+01 3.480257797241210938e+01 -3.867119923233985901e-02 7.965280532836914062e+00 2.377982854843139648e+00 2.699494920670986176e-02
1.655000000000000000e+03 7.622054290771484375e+01 3.234279632568359375e+01 -7.611390203237533569e-02 7.531270980834960938e+00 2.236547231674194336e+00 1.247838512063026428e-01
1.656000000000000000e+03 7.816712951660156250e+01 -2.229216384887695312e+01 1.165432706475257874e-01 7.244106292724609375e+00 2.208194971084594727e+00 -6.700580120086669922e-01
1.657000000000000000e+03 7.688279724121093750e+01 -2.367068290710449219e+01 9.826347231864929199e-02 8.079740524291992188e+00 2.453401088714599609e+00 -1.052821516990661621e+00
1.658000000000000000e+03 7.634961700439453125e+01 -3.087495994567871094e+01 -2.688536942005157471e-01 8.993887901306152344e+00 2.617510318756103516e+00 -5.595667362213134766e-01
1.659000000000000000e+03 7.785829925537109375e+01 -3.494499206542968750e+01 -5.988797545433044434e-02 9.686093330383300781e+00 2.887861728668212891e+00 -1.226349771022796631e-01
1.660000000000000000e+03 7.795863342285156250e+01 -2.793647193908691406e+01 -8.584677428007125854e-02 8.838163375854492188e+00 2.625694990158081055e+00 -6.524882316589355469e-01
1.661000000000000000e+03 7.646328735351562500e+01 -2.940602302551269531e+01 -2.653735578060150146e-01 8.902758598327636719e+00 2.591215610504150391e+00 -6.957766413688659668e-01
1.662000000000000000e+03 7.663908386230468750e+01 -2.793739318847656250e+01 -2.589953243732452393e-01 8.804596900939941406e+00 2.563680648803710938e+00 -8.896346092224121094e-01
1.663000000000000000e+03 7.683375549316406250e+01 -2.507468795776367188e+01 -4.735815152525901794e-02 8.370514869689941406e+00 2.496947050094604492e+00 -1.083087444305419922e+00
1.664000000000000000e+03 7.560009002685546875e+01 -2.507379341125488281e+01 -8.061520010232925415e-02 8.644905090332031250e+00 2.569286823272705078e+00 -1.235609292984008789e+00
1.665000000000000000e+03 7.638131713867187500e+01 -3.374522018432617188e+01 -1.948467195034027100e-01 9.008724212646484375e+00 2.644163131713867188e+00 -2.408453822135925293e-01
1.666000000000000000e+03 7.502984619140625000e+01 -2.936071968078613281e+01 -4.965545535087585449e-01 8.757013320922851562e+00 2.478137493133544922e+00 -7.498914003372192383e-01
1.667000000000000000e+03 7.635305023193359375e+01 -3.231735610961914062e+01 -2.424919009208679199e-01 9.039775848388671875e+00 2.639185190200805664e+00 -3.455330133438110352e-01
1.668000000000000000e+03 7.534813690185546875e+01 -4.076775360107421875e+01 3.759773820638656616e-02 8.710141181945800781e+00 2.624321460723876953e+00 -1.967377364635467529e-01
1.669000000000000000e+03 7.789429473876953125e+01 2.256341934204101562e+01 -8.176946081221103668e-03 7.109340667724609375e+00 2.130349159240722656e+00 3.239648938179016113e-01
1.670000000000000000e+03 7.646195983886718750e+01 1.965778350830078125e+01 5.427790060639381409e-02 6.869695663452148438e+00 2.077192068099975586e+00 4.494400620460510254e-01
1.671000000000000000e+03 7.523294067382812500e+01 2.299736404418945312e+01 -6.427048146724700928e-02 7.143912315368652344e+00 2.123892545700073242e+00 5.334050655364990234e-01
1.672000000000000000e+03 7.645583343505859375e+01 2.123837852478027344e+01 1.241453830152750015e-02 7.003367424011230469e+00 2.104734659194946289e+00 4.728212058544158936e-01
1.673000000000000000e+03 7.672636413574218750e+01 1.252065658569335938e+01 1.399525552988052368e-01 6.486405372619628906e+00 1.987907409667968750e+00 2.354244887828826904e-02
1.674000000000000000e+03 7.541442108154296875e+01 8.276250839233398438e+00 2.109432071447372437e-01 6.726428985595703125e+00 2.081211566925048828e+00 -3.361664116382598877e-01
1.675000000000000000e+03 7.670059967041015625e+01 1.390753650665283203e+01 1.319538503885269165e-01 6.515600204467773438e+00 1.994266152381896973e+00 1.219280734658241272e-01
1.676000000000000000e+03 7.653452301025390625e+01 2.420734214782714844e+01 -5.493733659386634827e-02 7.239174365997314453e+00 2.155271053314208984e+00 4.209863841533660889e-01
1.677000000000000000e+03 7.791394805908203125e+01 2.678344345092773438e+01 -2.959871664643287659e-02 7.551950454711914062e+00 2.256705522537231445e+00 2.321674376726150513e-01
1.678000000000000000e+03 7.696976470947265625e+01 -2.228040313720703125e+01 2.005844265222549438e-01 7.822326660156250000e+00 2.406873226165771484e+00 -9.264015555381774902e-01
1.679000000000000000e+03 7.657031250000000000e+01 2.833813285827636719e+01 -7.888716459274291992e-02 7.480175971984863281e+00 2.220386743545532227e+00 2.739885449409484863e-01
1.680000000000000000e+03 7.566423797607421875e+01 -1.821710205078125000e+01 8.847821354866027832e-01 8.173247337341308594e+00 2.717408895492553711e+00 -6.638067960739135742e-02
1.681000000000000000e+03 7.704801940917968750e+01 -2.088518714904785156e+01 3.487565815448760986e-01 7.567858695983886719e+00 2.374984741210937500e+00 -6.961542367935180664e-01
1.682000000000000000e+03 7.553038787841796875e+01 -8.318378448486328125e+00 -5.739288330078125000e-01 8.246829032897949219e+00 2.301869869232177734e+00 1.819705963134765625e-01
1.683000000000000000e+03 7.701428985595703125e+01 -1.385467624664306641e+01 5.677579715847969055e-02 7.680517673492431641e+00 2.321187973022460938e+00 8.051380515098571777e-01
1.684000000000000000e+03 7.545292663574218750e+01 -1.880454540252685547e+00 -1.430799514055252075e-01 7.483519077301025391e+00 2.202131748199462891e+00 -6.022544503211975098e-01
1.685000000000000000e+03 7.679237365722656250e+01 -8.364780426025390625e+00 -3.205691277980804443e-01 8.137851715087890625e+00 2.345184803009033203e+00 3.062172830104827881e-01
1.686000000000000000e+03 7.799794006347656250e+01 5.527496814727783203e+00 2.797880209982395172e-02 6.722281455993652344e+00 2.025078058242797852e+00 -2.949588000774383545e-01
1.687000000000000000e+03 7.530378723144531250e+01 5.400324344635009766e+00 1.418298631906509399e-01 6.875189781188964844e+00 2.105105876922607422e+00 -5.367115139961242676e-01
1.688000000000000000e+03 7.800578308105468750e+01 6.932870864868164062e+00 4.791834205389022827e-02 6.563669681549072266e+00 1.983476400375366211e+00 -2.549706101417541504e-01
1.689000000000000000e+03 7.666117858886718750e+01 5.476165294647216797e+00 9.215694665908813477e-02 6.813903331756591797e+00 2.071818113327026367e+00 -4.482888281345367432e-01
1.690000000000000000e+03 7.687792968750000000e+01 -2.984949350357055664e+00 -1.169374883174896240e-01 7.751431941986083984e+00 2.290348291397094727e+00 -3.856327533721923828e-01
1.691000000000000000e+03 7.675251770019531250e+01 -9.767379760742187500e+00 -2.983826398849487305e-01 8.147912025451660156e+00 2.354858636856079102e+00 5.196952223777770996e-01
1.692000000000000000e+03 7.691093444824218750e+01 -1.653219032287597656e+01 4.585241675376892090e-01 7.481359004974365234e+00 2.381964921951293945e+00 3.862180113792419434e-01
1.693000000000000000e+03 7.627922821044921875e+01 3.397064971923828125e+01 -5.455272644758224487e-02 7.574232578277587891e+00 2.255903959274291992e+00 8.240701258182525635e-02
1.694000000000000000e+03 7.428610992431640625e+01 3.641082382202148438e+01 -7.301956415176391602e-02 7.182871341705322266e+00 2.132955551147460938e+00 2.296081744134426117e-02
1.695000000000000000e+03 7.641211700439453125e+01 3.083763694763183594e+01 -7.628276199102401733e-02 7.543056964874267578e+00 2.240032434463500977e+00 1.672184467315673828e-01
1.696000000000000000e+03 7.658380126953125000e+01 1.813242149353027344e+01 9.116135537624359131e-02 6.739717483520507812e+00 2.049263715744018555e+00 3.804057538509368896e-01
1.697000000000000000e+03 7.534847259521484375e+01 1.662310028076171875e+01 2.011867016553878784e-01 6.767921924591064453e+00 2.090732574462890625e+00 3.652969598770141602e-01
1.698000000000000000e+03 7.673810577392578125e+01 9.716381072998046875e+00 1.308414489030838013e-01 6.533115386962890625e+00 1.999186992645263672e+00 -1.803638041019439697e-01
1.699000000000000000e+03 7.810329437255859375e+01 -6.983924865722656250e+00 -1.082829460501670837e-01 8.155863761901855469e+00 2.414274454116821289e+00 9.869891405105590820e-02
1.700000000000000000e+03 7.819841766357421875e+01 -1.386392307281494141e+01 4.577590152621269226e-02 7.129333019256591797e+00 2.152532577514648438e+00 5.621771216392517090e-01
1.701000000000000000e+03 7.704960632324218750e+01 -1.516556167602539062e+01 2.911785542964935303e-01 7.499359607696533203e+00 2.337161540985107422e+00 6.405641436576843262e-01
1.702000000000000000e+03 7.802354431152343750e+01 1.289780020713806152e+00 1.035914476960897446e-02 7.317358016967773438e+00 2.198315143585205078e+00 -3.670509457588195801e-01
1.703000000000000000e+03 7.678128051757812500e+01 -1.648425698280334473e+00 -1.024875864386558533e-01 7.606349945068359375e+00 2.251158714294433594e+00 -4.601158201694488525e-01
1.704000000000000000e+03 7.667565155029296875e+01 4.056521415710449219e+00 4.940051212906837463e-02 6.949529170989990234e+00 2.099678754806518555e+00 -4.876910746097564697e-01
1.705000000000000000e+03 7.670742034912109375e+01 2.628200054168701172e+00 4.244265705347061157e-02 7.095059394836425781e+00 2.141250610351562500e+00 -5.328949689865112305e-01
1.706000000000000000e+03 7.690224456787109375e+01 -5.617985725402832031e+00 -2.136827260255813599e-01 8.006167411804199219e+00 2.337745428085327148e+00 -1.104359552264213562e-01
1.707000000000000000e+03 7.693286132812500000e+01 -4.284948825836181641e+00 -2.065599262714385986e-01 7.908507823944091797e+00 2.310584306716918945e+00 -2.639516890048980713e-01
1.708000000000000000e+03 7.567607879638671875e+01 -1.265531444549560547e+01 -9.688867628574371338e-02 8.353429794311523438e+00 2.476962327957153320e+00 9.799944758415222168e-01
1.709000000000000000e+03 7.679864501953125000e+01 -1.116418457031250000e+01 -2.040642201900482178e-01 8.026122093200683594e+00 2.346617460250854492e+00 7.413652539253234863e-01
1.710000000000000000e+03 7.412352752685546875e+01 -1.590598678588867188e+01 1.140789628028869629e+00 9.121043205261230469e+00 3.078549861907958984e+00 6.046220064163208008e-01
1.711000000000000000e+03 1.167494010925292969e+01 -1.942959022521972656e+01 2.062569141387939453e+00 8.777211189270019531e+00 3.251934289932250977e+00 3.898710906505584717e-01
1.712000000000000000e+03 3.806832504272460938e+01 6.574854850769042969e+00 1.304767370223999023e+00 1.485881900787353516e+01 4.849075794219970703e+00 1.801156520843505859e+00
1.713000000000000000e+03 5.446274948120117188e+01 2.509743499755859375e+01 -4.795639812946319580e-01 6.687664985656738281e-01 5.676074698567390442e-02 2.059112340211868286e-01
1.714000000000000000e+03 6.409559631347656250e+01 7.324885368347167969e+00 1.035549521446228027e+00 7.967379093170166016e+00 2.700878620147705078e+00 8.069127202033996582e-01
1.715000000000000000e+03 6.536822509765625000e+01 1.545055580139160156e+01 1.017906546592712402e+00 8.657385826110839844e+00 2.902587890625000000e+00 7.581131905317306519e-02
1.716000000000000000e+03 4.717393112182617188e+01 1.979887771606445312e+01 -1.845410764217376709e-01 1.691356778144836426e+00 4.520446956157684326e-01 1.063324332237243652e+00
1.717000000000000000e+03 4.621230697631835938e+01 2.115794181823730469e+01 -4.414067566394805908e-01 2.433073282241821289e+00 5.974999666213989258e-01 1.368196129798889160e+00
1.718000000000000000e+03 4.499661254882812500e+01 1.795341491699218750e+01 6.177041530609130859e-01 2.572058200836181641e+00 9.569286704063415527e-01 1.577142953872680664e+00
1.719000000000000000e+03 4.099873352050781250e+01 1.643464851379394531e+01 4.037573635578155518e-01 5.918201446533203125e+00 1.896587610244750977e+00 1.789757251739501953e+00
1.720000000000000000e+03 1.113649249076843262e+00 4.875916481018066406e+00 7.136972248554229736e-02 -5.954527258872985840e-01 -1.572248935699462891e-01 1.113515794277191162e-01
1.721000000000000000e+03 1.462873458862304688e+00 2.757083892822265625e+00 5.127015337347984314e-02 -3.094175457954406738e-01 -7.744421064853668213e-02 3.487390577793121338e-01
1.722000000000000000e+03 3.395046949386596680e+00 3.614924621582031250e+01 -9.396472573280334473e-02 5.098104000091552734e+00 1.501241803169250488e+00 -1.509624719619750977e-01
1.723000000000000000e+03 1.994831919670104980e+00 2.744573020935058594e+01 -7.718191295862197876e-02 4.164632320404052734e+00 1.226235151290893555e+00 -5.337728261947631836e-01
1.724000000000000000e+03 3.610363483428955078e+00 3.016002082824707031e+01 -1.810963749885559082e-01 4.706200122833251953e+00 1.357531070709228516e+00 -5.797497630119323730e-01
1.725000000000000000e+03 1.920909166336059570e+00 2.606245613098144531e+01 -6.629141420125961304e-02 3.849334716796875000e+00 1.134912967681884766e+00 -6.182484030723571777e-01
1.726000000000000000e+03 3.331700801849365234e+00 2.726833724975585938e+01 -1.781817823648452759e-01 4.336578369140625000e+00 1.247518897056579590e+00 -8.059990406036376953e-01
1.727000000000000000e+03 6.187480449676513672e+00 3.399471664428710938e+01 -3.209780752658843994e-01 4.835190773010253906e+00 1.354263782501220703e+00 -3.153452873229980469e-01
1.728000000000000000e+03 4.054241180419921875e+00 3.170454978942871094e+01 -2.084216922521591187e-01 4.848701000213623047e+00 1.392083764076232910e+00 -4.620930552482604980e-01
1.729000000000000000e+03 3.396076202392578125e+00 2.871329498291015625e+01 -1.770007908344268799e-01 4.557609081268310547e+00 1.314182519912719727e+00 -6.663133502006530762e-01
1.730000000000000000e+03 1.979317426681518555e+00 3.721619033813476562e+01 -1.194070465862751007e-02 5.277362823486328125e+00 1.579626679420471191e+00 -5.733089894056320190e-02
1.731000000000000000e+03 3.759778976440429688e+00 3.481470489501953125e+01 -1.741537749767303467e-01 4.994607925415039062e+00 1.446136236190795898e+00 -2.286070883274078369e-01
1.732000000000000000e+03 5.905895709991455078e+00 2.986425399780273438e+01 -4.327606260776519775e-01 4.878267765045166016e+00 1.333652138710021973e+00 -6.804232001304626465e-01
1.733000000000000000e+03 1.959240794181823730e+00 2.193284797668457031e+01 1.092686504125595093e-02 2.650543928146362305e+00 7.984412312507629395e-01 -7.247423529624938965e-01
1.734000000000000000e+03 3.338916540145874023e+00 2.334828948974609375e+01 -3.864212334156036377e-02 3.660161018371582031e+00 1.086455702781677246e+00 -1.086561679840087891e+00
1.735000000000000000e+03 3.140958070755004883e+00 1.769087028503417969e+01 2.058198899030685425e-01 2.342592954635620117e+00 7.645238637924194336e-01 -7.414348721504211426e-01
1.736000000000000000e+03 3.119655370712280273e+00 1.214862728118896484e+01 6.151728332042694092e-02 1.643434047698974609e+00 5.114853978157043457e-01 -3.069335818290710449e-01
1.737000000000000000e+03 3.057660579681396484e+00 7.616526126861572266e+00 9.473476558923721313e-02 1.101466655731201172e+00 3.588604032993316650e-01 -2.926678955554962158e-01
1.738000000000000000e+03 1.826257586479187012e+00 1.490843868255615234e+01 4.369301721453666687e-02 8.546566367149353027e-01 2.695049047470092773e-01 -3.038090169429779053e-01
1.739000000000000000e+03 3.075268983840942383e+00 1.630040550231933594e+01 1.772416234016418457e-01 2.113886117935180664e+00 6.873383522033691406e-01 -6.041157841682434082e-01
1.740000000000000000e+03 2.737547874450683594e+00 1.010295104980468750e+01 9.408935904502868652e-03 1.145763874053955078e+00 3.465518355369567871e-01 -2.491862922906875610e-01
1.741000000000000000e+03 3.288630008697509766e+00 2.190024566650390625e+01 2.704516984522342682e-02 3.287296056747436523e+00 9.943023920059204102e-01 -1.092308163642883301e+00
1.742000000000000000e+03 3.476362943649291992e+00 1.099822902679443359e+01 -1.511112786829471588e-02 1.898236989974975586e+00 5.649377703666687012e-01 -3.424066603183746338e-01
1.743000000000000000e+03 3.034802913665771484e+00 1.353934669494628906e+01 6.533949077129364014e-02 1.717009305953979492e+00 5.347046256065368652e-01 -3.740298151969909668e-01
1.744000000000000000e+03 3.188003301620483398e+00 1.909543037414550781e+01 1.758567988872528076e-01 2.668023586273193359e+00 8.531641364097595215e-01 -9.336677789688110352e-01
1.745000000000000000e+03 2.516907310485839844e+01 -3.990668654441833496e-01 3.021053314208984375e+00 -8.505727648735046387e-01 6.511441469192504883e-01 1.526622623205184937e-01
1.746000000000000000e+03 2.608712387084960938e+01 -5.735075950622558594e+00 1.078804612159729004e+00 -5.771071314811706543e-01 1.505092531442642212e-01 2.057506591081619263e-01
1.747000000000000000e+03 3.909929656982421875e+01 1.040109920501708984e+01 1.637532114982604980e+00 1.208200550079345703e+01 4.115861415863037109e+00 2.498450994491577148e+00
1.748000000000000000e+03 2.531461334228515625e+01 2.570182800292968750e+01 -7.268639206886291504e-01 1.024463891983032227e+00 8.927997201681137085e-02 -8.246409296989440918e-01
1.749000000000000000e+03 2.659059143066406250e+01 2.319112014770507812e+01 -1.120644092559814453e+00 9.410174489021301270e-01 -5.388799309730529785e-02 -8.724483251571655273e-01
1.750000000000000000e+03 5.539410781860351562e+01 -1.235395908355712891e+01 -9.129041433334350586e-01 5.270096659660339355e-01 -1.157683432102203369e-01 9.908688068389892578e-01
1.751000000000000000e+03 6.160070037841796875e+01 2.530604362487792969e+00 9.957968592643737793e-01 5.664046287536621094e+00 1.997952938079833984e+00 1.444448232650756836e+00
1.752000000000000000e+03 3.759628677368164062e+01 8.270359039306640625e+00 1.776471495628356934e+00 1.310272789001464844e+01 4.463759899139404297e+00 1.250668883323669434e+00
1.753000000000000000e+03 4.053863525390625000e+01 -1.808469963073730469e+01 2.055127382278442383e+00 9.132877349853515625e+00 3.356401205062866211e+00 -1.400785565376281738e+00
1.754000000000000000e+03 3.628236007690429688e+01 -1.458906269073486328e+01 1.762772202491760254e+00 1.238501548767089844e+01 4.244336128234863281e+00 -2.795865058898925781e+00
1.755000000000000000e+03 4.206199264526367188e+01 1.731368064880371094e+01 4.109825193881988525e-01 4.842434883117675781e+00 1.576025128364562988e+00 1.884535789489746094e+00
1.756000000000000000e+03 1.438764762878417969e+01 -2.653021621704101562e+01 -7.965856194496154785e-01 5.948190212249755859e+00 1.545481324195861816e+00 -5.875884294509887695e-01
1.757000000000000000e+03 3.682239913940429688e+01 -2.023336791992187500e+01 1.098308682441711426e+00 1.123392295837402344e+01 3.699669599533081055e+00 -2.173360288143157959e-01
1.758000000000000000e+03 4.149929428100585938e+01 -2.076525306701660156e+01 2.076809167861938477e+00 9.500175476074218750e+00 3.473095178604125977e+00 -1.251402378082275391e+00
1.759000000000000000e+03 5.861545181274414062e+01 -1.565436124801635742e+00 1.656250953674316406e+00 3.114777088165283203e+00 1.431308388710021973e+00 1.764542341232299805e+00
1.760000000000000000e+03 3.799386215209960938e+01 -1.860782241821289062e+01 1.499265789985656738e+00 1.073946952819824219e+01 3.671620607376098633e+00 -1.330675601959228516e+00
1.761000000000000000e+03 1.829605674743652344e+01 2.479117202758789062e+01 -7.296569347381591797e-01 1.925113558769226074e+00 3.586369752883911133e-01 1.548547506332397461e+00
1.762000000000000000e+03 2.629919433593750000e+01 2.507185745239257812e+01 -7.576264142990112305e-01 1.246533036231994629e+00 1.466719806194305420e-01 -1.172286272048950195e+00
1.763000000000000000e+03 3.738951873779296875e+01 -2.434090805053710938e+01 1.255399227142333984e+00 8.649809837341308594e+00 2.971562862396240234e+00 2.734584212303161621e-01
1.764000000000000000e+03 3.362306976318359375e+01 1.856636619567871094e+01 3.619272112846374512e-01 6.449059486389160156e+00 2.043296098709106445e+00 -9.759585857391357422e-01
1.765000000000000000e+03 3.665567016601562500e+01 1.163485908508300781e+01 9.216723442077636719e-01 1.035235786437988281e+01 3.382209062576293945e+00 -1.477168500423431396e-01
1.766000000000000000e+03 6.056496810913085938e+01 -3.565473175048828125e+01 3.870637714862823486e-01 1.175269842147827148e+00 4.687001109123229980e-01 2.149503678083419800e-01
1.767000000000000000e+03 6.504197692871093750e+01 -3.057415390014648438e+01 -8.543530702590942383e-01 3.257866382598876953e+00 7.210540175437927246e-01 8.958630561828613281e-01
1.768000000000000000e+03 6.664852142333984375e+01 1.497440338134765625e+01 9.706133604049682617e-01 8.222753524780273438e+00 2.758010149002075195e+00 1.592503935098648071e-01
1.769000000000000000e+03 6.572259521484375000e+01 1.675221061706542969e+01 9.104632139205932617e-01 8.412183761596679688e+00 2.796794176101684570e+00 1.117825359106063843e-01
1.770000000000000000e+03 1.808742713928222656e+01 5.298205375671386719e+00 -4.125779867172241211e-01 2.142293930053710938e+00 5.189147591590881348e-01 5.533661320805549622e-02
1.771000000000000000e+03 1.925941467285156250e+01 2.880493879318237305e+00 1.412294626235961914e+00 9.752883315086364746e-01 7.162748575210571289e-01 1.137157622724771500e-02
1.772000000000000000e+03 3.638035202026367188e+01 6.090132236480712891e+00 1.471837520599365234e+00 1.324470806121826172e+01 4.414963722229003906e+00 1.190906405448913574e+00
1.773000000000000000e+03 3.692378616333007812e+01 7.341392517089843750e+00 1.533149480819702148e+00 1.331156539916992188e+01 4.453414440155029297e+00 1.133363127708435059e+00
1.774000000000000000e+03 1.644397544860839844e+01 8.176536560058593750e+00 -1.271887063980102539e+00 4.989841461181640625e+00 1.115386247634887695e+00 -6.784850358963012695e-01
1.775000000000000000e+03 1.700263595581054688e+01 6.092046737670898438e+00 -1.020825505256652832e+00 4.200716972351074219e+00 9.539674520492553711e-01 -1.220598667860031128e-01
1.776000000000000000e+03 6.607965087890625000e+01 -2.911898231506347656e+01 -8.994326591491699219e-01 4.253342151641845703e+00 1.006172776222229004e+00 1.001604676246643066e+00
1.777000000000000000e+03 3.715256118774414062e+01 -1.284308147430419922e+01 1.709514975547790527e+00 1.033194637298583984e+01 3.612438440322875977e+00 -2.150140047073364258e+00
1.778000000000000000e+03 6.296974945068359375e+01 4.331804275512695312e+00 9.816336035728454590e-01 6.724970817565917969e+00 2.311981201171875000e+00 1.115763902664184570e+00
1.779000000000000000e+03 4.177357482910156250e+01 1.511423778533935547e+01 1.227741599082946777e+00 5.485228538513183594e+00 2.013890981674194336e+00 2.464046001434326172e+00
1.780000000000000000e+03 6.506930541992187500e+01 8.525497436523437500e+00 1.006443500518798828e+00 8.184865951538085938e+00 2.757392883300781250e+00 5.412622690200805664e-01
1.781000000000000000e+03 5.937903976440429688e+01 -4.192037582397460938e-01 1.521448850631713867e+00 3.615416288375854492e+00 1.541059494018554688e+00 1.829824328422546387e+00
1.782000000000000000e+03 4.873327255249023438e+01 2.286238861083984375e+01 -7.367145419120788574e-01 1.620131969451904297e+00 2.650252282619476318e-01 1.152025461196899414e+00
1.783000000000000000e+03 4.739354324340820312e+01 2.207530212402343750e+01 -6.189535856246948242e-01 2.038791179656982422e+00 4.259513020515441895e-01 1.290481567382812500e+00
1.784000000000000000e+03 3.209737014770507812e+01 -3.130577659606933594e+01 -7.276110649108886719e-01 2.963784456253051758e+00 6.708520054817199707e-01 1.512351870536804199e+00
1.785000000000000000e+03 2.965142250061035156e+01 -3.083392333984375000e+01 -9.059233665466308594e-01 1.167852878570556641e+00 7.857886701822280884e-02 1.126509547233581543e+00
1.786000000000000000e+03 1.469189262390136719e+01 8.829345703125000000e+00 -1.615315437316894531e+00 8.635320663452148438e+00 2.106001615524291992e+00 -5.159872174263000488e-01
1.787000000000000000e+03 5.783321380615234375e+01 -2.720864057540893555e+00 1.679216623306274414e+00 2.739387750625610352e+00 1.325581312179565430e+00 1.702695012092590332e+00
1.788000000000000000e+03 5.577735137939453125e+01 -3.557396697998046875e+01 3.090657889842987061e-01 5.141540765762329102e-01 2.469659596681594849e-01 -5.540602207183837891e-01
1.789000000000000000e+03 3.787395477294921875e+01 -1.720040512084960938e+01 1.604369997978210449e+00 1.094169139862060547e+01 3.763818264007568359e+00 -1.788033366203308105e+00
1.790000000000000000e+03 3.769547271728515625e+01 -1.576999282836914062e+01 1.746548295021057129e+00 1.084674167633056641e+01 3.777987003326416016e+00 -2.203395843505859375e+00
1.791000000000000000e+03 6.922684478759765625e+01 -2.184846878051757812e+01 1.635057568550109863e+00 1.263196754455566406e+01 4.280107498168945312e+00 1.398249268531799316e+00
1.792000000000000000e+03 3.322992324829101562e+01 1.999403953552246094e+01 -7.351993024349212646e-02 5.947431087493896484e+00 1.762173295021057129e+00 -7.687869071960449219e-01
1.793000000000000000e+03 2.434498405456542969e+01 5.742790699005126953e-01 2.476881742477416992e+00 -9.476608633995056152e-01 4.587662220001220703e-01 -4.715174436569213867e-02
1.794000000000000000e+03 2.236990165710449219e+01 -6.327570676803588867e-01 2.943029165267944336e+00 -6.788212656974792480e-01 6.792623996734619141e-01 -1.125472635030746460e-01
1.795000000000000000e+03 2.708702087402343750e+01 -3.372201156616210938e+01 -3.780107200145721436e-01 7.840049266815185547e-01 1.217982694506645203e-01 6.509939432144165039e-01
1.796000000000000000e+03 6.463417816162109375e+01 1.257122707366943359e+01 7.984217405319213867e-01 9.328725814819335938e+00 3.038144350051879883e+00 3.332468867301940918e-01
1.797000000000000000e+03 6.503179168701171875e+01 1.406742954254150391e+01 9.350817203521728516e-01 9.073549270629882812e+00 3.002589225769042969e+00 2.009687200188636780e-02
1.798000000000000000e+03 1.024981307983398438e+01 -1.870026397705078125e+01 1.718188166618347168e+00 7.375086307525634766e+00 2.727982282638549805e+00 6.696924567222595215e-01
1.799000000000000000e+03 7.410105133056640625e+01 -2.003059768676757812e+01 1.217398047447204590e+00 9.057225227355957031e+00 3.082386970520019531e+00 -6.922658085823059082e-01
1.800000000000000000e+03 7.005829620361328125e+01 -1.917197227478027344e+01 1.642487883567810059e+00 1.470995044708251953e+01 4.905731678009033203e+00 -1.917541027069091797e-01
1.801000000000000000e+03 3.544849014282226562e+01 1.136983013153076172e+01 8.017538785934448242e-01 1.012665462493896484e+01 3.278522491455078125e+00 -9.625026583671569824e-01
1.802000000000000000e+03 7.032561492919921875e+01 -1.460272216796875000e+01 9.504767656326293945e-01 1.095842552185058594e+01 3.572670936584472656e+00 1.160415261983871460e-01
1.803000000000000000e+03 4.786552429199218750e+01 -6.089519500732421875e+00 -2.176371097564697266e+00 -4.817768633365631104e-01 -7.974444031715393066e-01 1.415879964828491211e+00
1.804000000000000000e+03 4.882847213745117188e+01 -1.278719520568847656e+01 1.246955156326293945e+00 1.824625968933105469e+00 9.214743375778198242e-01 2.024733304977416992e+00
1.805000000000000000e+03 2.911852836608886719e+01 2.199377822875976562e+01 -5.193481445312500000e-01 3.268747091293334961e+00 8.248196840286254883e-01 -1.580712556838989258e+00
1.806000000000000000e+03 5.633874893188476562e+01 -5.196256160736083984e+00 1.066386818885803223e+00 2.244632005691528320e+00 9.933056831359863281e-01 1.594136953353881836e+00
1.807000000000000000e+03 3.570074081420898438e+01 9.984086036682128906e+00 9.857944846153259277e-01 1.102790641784667969e+01 3.604110240936279297e+00 -4.549915492534637451e-01
1.808000000000000000e+03 2.621499252319335938e+01 -6.954129219055175781e+00 -1.926469206809997559e-01 -4.148778617382049561e-01 -1.822574436664581299e-01 -3.954974189400672913e-02
1.809000000000000000e+03 1.666014480590820312e+01 -2.916357040405273438e+01 -9.667055010795593262e-01 3.751968145370483398e+00 8.355787992477416992e-01 -7.998072504997253418e-01
1.810000000000000000e+03 1.902065277099609375e+01 -2.901921272277832031e+01 -8.560293912887573242e-01 2.125979900360107422e+00 3.809851408004760742e-01 -6.708162426948547363e-01
1.811000000000000000e+03 3.572022628784179688e+01 3.486001253128051758e+00 2.206176757812500000e+00 1.314612674713134766e+01 4.605690956115722656e+00 1.263869881629943848e+00
1.812000000000000000e+03 3.633776855468750000e+01 1.815772652626037598e+00 2.163298606872558594e+00 1.205362987518310547e+01 4.265078544616699219e+00 1.360049247741699219e-01
1.813000000000000000e+03 2.994087982177734375e+01 2.326086044311523438e+01 -1.012502670288085938e+00 3.848854064941406250e+00 8.509054183959960938e-01 -1.335537552833557129e+00
1.814000000000000000e+03 3.084611511230468750e+01 -6.356209754943847656e+00 -1.155639290809631348e-01 2.709357738494873047e+00 7.781381607055664062e-01 -1.537971258163452148e+00
1.815000000000000000e+03 2.907966232299804688e+01 -3.324741744995117188e+01 -5.418844819068908691e-01 1.357564926147460938e+00 2.447041422128677368e-01 1.146072626113891602e+00
1.816000000000000000e+03 2.552128982543945312e+01 -3.472459411621093750e+01 -1.950435340404510498e-01 7.709017992019653320e-01 1.727574914693832397e-01 1.829425841569900513e-01
1.817000000000000000e+03 2.393069839477539062e+01 -3.314461135864257812e+01 -6.025750041007995605e-01 4.640671312808990479e-01 -4.155236482620239258e-02 -1.029377877712249756e-01
1.818000000000000000e+03 6.020329666137695312e+01 -3.382610321044921875e+01 -1.471689343452453613e-01 8.055956363677978516e-01 1.975280195474624634e-01 2.051061093807220459e-01
1.819000000000000000e+03 3.686019515991210938e+01 -1.128880405426025391e+01 7.593436241149902344e-01 9.989691734313964844e+00 3.224710702896118164e+00 -1.849307179450988770e+00
1.820000000000000000e+03 6.964653778076171875e+01 -2.384584808349609375e+01 1.225703880190849304e-01 1.019876766204833984e+01 3.096401453018188477e+00 3.796909451484680176e-01
1.821000000000000000e+03 4.540381240844726562e+01 -1.414108848571777344e+01 1.515286087989807129e+00 5.059009075164794922e+00 1.972288608551025391e+00 8.854691386222839355e-01
1.822000000000000000e+03 4.384629440307617188e+01 -1.778441047668457031e+01 1.941314339637756348e+00 8.778986930847167969e+00 3.216090440750122070e+00 -4.120735451579093933e-02
1.823000000000000000e+03 3.835900497436523438e+01 -2.251574897766113281e+01 1.701708078384399414e+00 9.366965293884277344e+00 3.320601940155029297e+00 -3.685650527477264404e-01
1.824000000000000000e+03 5.874311065673828125e+01 -3.502240753173828125e+01 2.261775135993957520e-01 5.049859285354614258e-01 2.193490415811538696e-01 -3.460792079567909241e-02
1.825000000000000000e+03 5.719563293457031250e+01 -3.388642501831054688e+01 -9.189328551292419434e-02 1.453893929719924927e-01 1.604883186519145966e-02 -3.947750031948089600e-01
1.826000000000000000e+03 4.006621170043945312e+01 -2.286896133422851562e+01 1.915391683578491211e+00 9.192719459533691406e+00 3.332433223724365234e+00 -9.294029474258422852e-01
1.827000000000000000e+03 3.548169708251953125e+01 -7.225787162780761719e+00 -1.602172851562500000e+00 9.323785781860351562e+00 2.316483736038208008e+00 -1.542586207389831543e+00
1.828000000000000000e+03 6.388392639160156250e+01 2.056055259704589844e+01 -5.637611076235771179e-02 7.338213443756103516e+00 2.184551239013671875e+00 -5.736239254474639893e-03
1.829000000000000000e+03 3.477064514160156250e+01 -8.104683876037597656e+00 -1.274588346481323242e+00 9.108748435974121094e+00 2.350247859954833984e+00 -1.860237121582031250e+00
1.830000000000000000e+03 1.380832386016845703e+01 -1.263107585906982422e+01 -1.257444143295288086e+00 9.154697418212890625e+00 2.369175910949707031e+00 4.153820574283599854e-01
1.831000000000000000e+03 6.683265686035156250e+01 -1.027731227874755859e+01 -1.695180058479309082e+00 5.077524662017822266e+00 1.014703392982482910e+00 -2.572088956832885742e+00
1.832000000000000000e+03 6.717197418212890625e+01 -1.216677570343017578e+01 -1.857340455055236816e+00 6.243715286254882812e+00 1.315912365913391113e+00 -2.478478431701660156e+00
1.833000000000000000e+03 6.308828353881835938e+01 -1.031765651702880859e+01 -1.400089502334594727e+00 2.382697016000747681e-01 -3.485459387302398682e-01 -6.978828310966491699e-01
1.834000000000000000e+03 2.731850242614746094e+01 -6.903485298156738281e+00 -4.237711727619171143e-01 -4.688893258571624756e-01 -2.677981555461883545e-01 7.414344698190689087e-02
1.835000000000000000e+03 2.846258544921875000e+01 -6.913229465484619141e+00 -2.651800215244293213e-01 -4.645560681819915771e-01 -2.189208269119262695e-01 -1.966787576675415039e-01
1.836000000000000000e+03 4.859918975830078125e+01 -3.155679512023925781e+01 -1.711296439170837402e-01 4.415639400482177734e+00 1.273352861404418945e+00 -2.388344526290893555e+00
1.837000000000000000e+03 3.847636032104492188e+01 7.770639896392822266e+00 1.873436093330383301e+00 1.483391475677490234e+01 5.012205123901367188e+00 2.067219257354736328e+00
1.838000000000000000e+03 3.796524429321289062e+01 1.046701812744140625e+01 1.482248902320861816e+00 1.152697372436523438e+01 3.902766704559326172e+00 1.101667881011962891e+00
1.839000000000000000e+03 5.315550994873046875e+01 -1.246272850036621094e+01 -7.360128313302993774e-02 5.642592310905456543e-01 1.471973806619644165e-01 1.526521444320678711e+00
1.840000000000000000e+03 5.105258560180664062e+01 -1.184487533569335938e+01 4.814784526824951172e-01 9.429506063461303711e-01 4.273287057876586914e-01 2.113953828811645508e+00
1.841000000000000000e+03 1.321438121795654297e+01 1.210771179199218750e+01 5.354086160659790039e-01 1.081064224243164062e+01 3.403815269470214844e+00 -4.381618201732635498e-01
1.842000000000000000e+03 6.207041931152343750e+01 -3.311569595336914062e+01 -4.515937566757202148e-01 1.404440045356750488e+00 2.858538925647735596e-01 6.506791710853576660e-01
1.843000000000000000e+03 6.373623657226562500e+01 -3.200195312500000000e+01 -6.252751946449279785e-01 2.257582187652587891e+00 4.896920919418334961e-01 7.914697527885437012e-01
1.844000000000000000e+03 1.418816852569580078e+01 -2.954656028747558594e+01 -1.122308850288391113e+00 4.983670711517333984e+00 1.158408522605895996e+00 -3.160741031169891357e-01
1.845000000000000000e+03 6.971361541748046875e+01 -1.098637199401855469e+01 -1.688655734062194824e+00 8.955208778381347656e+00 2.179965972900390625e+00 -1.145920395851135254e+00
1.846000000000000000e+03 1.595841312408447266e+01 -9.955449104309082031e+00 -1.617617368698120117e+00 5.661154747009277344e+00 1.213061213493347168e+00 1.255715608596801758e+00
1.847000000000000000e+03 6.344688796997070312e+01 5.836872577667236328e+00 1.017679333686828613e+00 7.552401542663574219e+00 2.571024417877197266e+00 9.970251321792602539e-01
1.848000000000000000e+03 4.184046936035156250e+01 -5.666301250457763672e+00 -2.299790859222412109e+00 4.856944084167480469e+00 7.671459317207336426e-01 -1.660998106002807617e+00
1.849000000000000000e+03 4.321046447753906250e+01 -6.975130081176757812e+00 -1.383101701736450195e+00 3.462649583816528320e+00 6.238643527030944824e-01 -8.567006587982177734e-01
1.850000000000000000e+03 6.257115554809570312e+01 2.520938491821289062e+01 -1.129859805107116699e+00 5.563910484313964844e+00 1.330215215682983398e+00 -1.107420444488525391e+00
1.851000000000000000e+03 6.141804122924804688e+01 2.683304595947265625e+01 -6.575529575347900391e-01 4.238826274871826172e+00 1.074382066726684570e+00 -1.256040453910827637e+00
1.852000000000000000e+03 2.456260681152343750e+01 2.663739776611328125e+01 -5.617879629135131836e-01 1.111833453178405762e+00 1.650136411190032959e-01 -6.214778423309326172e-01
1.853000000000000000e+03 2.232989692687988281e+01 2.694972801208496094e+01 -4.342759847640991211e-01 8.812289237976074219e-01 1.340858787298202515e-01 6.148142274469137192e-03
1.854000000000000000e+03 5.206021499633789062e+01 -1.229114627838134766e+01 3.098526298999786377e-01 7.482516169548034668e-01 3.174312710762023926e-01 1.898438096046447754e+00
1.855000000000000000e+03 5.156328201293945312e+01 -7.017638683319091797e+00 -3.961893320083618164e-01 1.504869580268859863e+00 3.326040804386138916e-01 2.574149847030639648e+00
1.856000000000000000e+03 1.167753028869628906e+01 -1.569246578216552734e+01 1.407979130744934082e+00 9.423332214355468750e+00 3.249393463134765625e+00 1.846938282251358032e-01
1.857000000000000000e+03 4.061597824096679688e+01 -6.006822109222412109e+00 -2.077820062637329102e+00 6.651878833770751953e+00 1.372217655181884766e+00 -1.801968812942504883e+00
1.858000000000000000e+03 4.217072296142578125e+01 -2.458826637268066406e+01 2.175030469894409180e+00 9.407576560974121094e+00 3.474782228469848633e+00 -1.293293356895446777e+00
1.859000000000000000e+03 4.280187606811523438e+01 -1.861002159118652344e+01 2.090311288833618164e+00 9.030386924743652344e+00 3.336209535598754883e+00 -6.483188867568969727e-01
1.860000000000000000e+03 4.210407638549804688e+01 -1.971045494079589844e+01 1.989152193069458008e+00 9.513701438903808594e+00 3.450856208801269531e+00 -1.027015924453735352e+00
1.861000000000000000e+03 3.752683639526367188e+01 -2.582026100158691406e+01 1.031336545944213867e+00 7.857166290283203125e+00 2.666550874710083008e+00 4.003388881683349609e-01
1.862000000000000000e+03 2.150239372253417969e+01 -3.094513893127441406e+01 -1.097558379173278809e+00 1.009126186370849609e+00 -2.652966976165771484e-02 -6.880528926849365234e-01
1.863000000000000000e+03 4.538786315917968750e+01 -5.635744571685791016e+00 -2.658237934112548828e+00 2.349963784217834473e-01 -7.269724607467651367e-01 5.626533627510070801e-01
1.864000000000000000e+03 3.343055725097656250e+01 -6.542881011962890625e+00 -1.204894304275512695e+00 6.804013252258300781e+00 1.679735660552978516e+00 -1.830708146095275879e+00
1.865000000000000000e+03 7.023955535888671875e+01 -2.240843963623046875e+01 9.312701821327209473e-01 1.115419483184814453e+01 3.625639438629150391e+00 4.748744517564773560e-02
1.866000000000000000e+03 7.219633483886718750e+01 -1.561133480072021484e+01 1.479421615600585938e+00 1.065719127655029297e+01 3.640984058380126953e+00 4.791294932365417480e-01
1.867000000000000000e+03 2.254586219787597656e+01 8.778607845306396484e-01 2.301338911056518555e+00 -9.074394702911376953e-01 4.181698560714721680e-01 -3.161403909325599670e-02
1.868000000000000000e+03 2.257922363281250000e+01 -6.717196464538574219e+00 8.204078674316406250e-01 -4.154649004340171814e-02 2.336584180593490601e-01 -2.361540347337722778e-01
1.869000000000000000e+03 1.605020713806152344e+01 2.425734329223632812e+01 -1.204991340637207031e+00 4.701655387878417969e+00 1.048999190330505371e+00 1.878118395805358887e+00
1.870000000000000000e+03 1.338513088226318359e+01 2.292106056213378906e+01 -1.025005578994750977e+00 7.552579879760742188e+00 1.958272337913513184e+00 3.257426619529724121e-01
1.871000000000000000e+03 3.750015258789062500e+01 -4.663878679275512695e-01 1.291381239891052246e+00 1.058695411682128906e+01 3.563500642776489258e+00 -6.999028921127319336e-01
1.872000000000000000e+03 3.865913009643554688e+01 -3.543538808822631836e+00 -1.464977383613586426e+00 9.396438598632812500e+00 2.379438400268554688e+00 -1.347668766975402832e+00
1.873000000000000000e+03 6.527516937255859375e+01 1.991963005065917969e+01 3.891603648662567139e-01 7.880084991455078125e+00 2.480773687362670898e+00 2.421261817216873169e-01
1.874000000000000000e+03 1.595709133148193359e+01 -1.102299976348876953e+01 -1.756240248680114746e+00 5.828749656677246094e+00 1.221752882003784180e+00 1.584477901458740234e+00
1.875000000000000000e+03 4.418128204345703125e+01 -1.452566528320312500e+01 1.537904500961303711e+00 6.311258316040039062e+00 2.354748725891113281e+00 2.821618318557739258e-01
1.876000000000000000e+03 4.327178955078125000e+01 -1.636235618591308594e+01 1.983781695365905762e+00 7.894618034362792969e+00 2.963519811630249023e+00 -2.652180492877960205e-01
1.877000000000000000e+03 1.366412353515625000e+01 -2.153210449218750000e+01 1.740577697753906250e+00 1.051537990570068359e+01 3.676787376403808594e+00 -4.068655371665954590e-01
1.878000000000000000e+03 1.324567604064941406e+01 -2.016530418395996094e+01 2.090774774551391602e+00 1.148118019104003906e+01 4.071586608886718750e+00 -6.265291571617126465e-01
1.879000000000000000e+03 3.488568115234375000e+01 -2.879445648193359375e+01 -3.000855445861816406e-01 5.265098094940185547e+00 1.489503741264343262e+00 1.294554710388183594e+00
1.880000000000000000e+03 6.005741882324218750e+01 2.554489707946777344e+01 -6.896330714225769043e-01 3.184355735778808594e+00 7.484167814254760742e-01 -1.442897439002990723e+00
1.881000000000000000e+03 5.539199066162109375e+01 2.592930221557617188e+01 -2.108204960823059082e-01 9.536998271942138672e-01 2.228637933731079102e-01 -1.257027536630630493e-01
1.882000000000000000e+03 3.287322998046875000e+01 -3.865665435791015625e+00 1.935074329376220703e-01 6.467095375061035156e+00 1.998180866241455078e+00 -4.534285962581634521e-01
1.883000000000000000e+03 3.109747123718261719e+01 2.239034271240234375e+01 -8.458001613616943359e-01 4.597304344177246094e+00 1.125451207160949707e+00 -1.095418691635131836e+00
1.884000000000000000e+03 2.974522590637207031e+01 -6.852317333221435547e+00 -2.082450836896896362e-01 9.338899254798889160e-01 2.176934629678726196e-01 -1.085633397102355957e+00
1.885000000000000000e+03 1.164491558074951172e+01 2.018182754516601562e+01 1.283931136131286621e+00 8.742004394531250000e+00 3.007780790328979492e+00 -1.029337167739868164e+00
1.886000000000000000e+03 5.759424209594726562e+01 2.593904876708984375e+01 -2.454907745122909546e-01 1.677584886550903320e+00 4.296282231807708740e-01 -8.042255640029907227e-01
1.887000000000000000e+03 4.791922569274902344e+00 4.044227600097656250e+01 -5.278021469712257385e-02 5.064251422882080078e+00 1.503441333770751953e+00 -7.713694125413894653e-02
1.888000000000000000e+03 5.980784416198730469e+00 2.009072780609130859e+00 7.812842130661010742e-01 6.414011120796203613e-01 4.268055856227874756e-01 -5.610224604606628418e-01
1.889000000000000000e+03 7.198599338531494141e+00 2.024799823760986328e+00 1.708051443099975586e+00 1.639064908027648926e+00 1.004134893417358398e+00 -1.843795895576477051e+00
1.890000000000000000e+03 6.875244617462158203e+00 -1.953430414199829102e+00 1.581678390502929688e+00 1.119257092475891113e+00 8.102806210517883301e-01 1.410610914230346680e+00
1.891000000000000000e+03 7.397685050964355469e+00 1.960274457931518555e+00 1.899847745895385742e+00 1.810362339019775391e+00 1.113062977790832520e+00 -2.091781139373779297e+00
1.892000000000000000e+03 7.880288124084472656e+00 2.074706077575683594e+00 2.305968284606933594e+00 3.064593553543090820e+00 1.611168503761291504e+00 -3.100961446762084961e+00
1.893000000000000000e+03 6.265739917755126953e+00 -2.266440391540527344e+00 1.269165754318237305e+00 9.448884129524230957e-01 6.642162799835205078e-01 1.025328874588012695e+00
1.894000000000000000e+03 8.324144363403320312e+00 2.002109050750732422e+00 2.560752153396606445e+00 4.181305408477783203e+00 2.022617340087890625e+00 -3.915825843811035156e+00
1.895000000000000000e+03 5.815882205963134766e+00 -2.229776859283447266e+00 9.407280683517456055e-01 6.760181188583374023e-01 4.850238561630249023e-01 6.293607354164123535e-01
1.896000000000000000e+03 8.389958381652832031e+00 -2.118399620056152344e+00 2.657752752304077148e+00 4.615165233612060547e+00 2.181875467300415039e+00 4.066875934600830078e+00
1.897000000000000000e+03 5.380787849426269531e+00 -2.466881275177001953e+00 8.611214160919189453e-01 6.759285926818847656e-01 4.611150026321411133e-01 5.125646591186523438e-01
1.898000000000000000e+03 8.998733520507812500e+00 2.077301025390625000e+00 2.167768478393554688e+00 7.894574165344238281e+00 3.018702745437622070e+00 -5.239093303680419922e+00
1.899000000000000000e+03 9.257879257202148438e+00 2.372395038604736328e+00 1.290092468261718750e+00 9.541465759277343750e+00 3.249467372894287109e+00 -4.968874454498291016e+00
1.900000000000000000e+03 9.383081436157226562e+00 2.063962459564208984e+00 1.653930902481079102e+00 1.029648017883300781e+01 3.585123300552368164e+00 -5.377983570098876953e+00
1.901000000000000000e+03 9.586573600769042969e+00 1.861594676971435547e+00 1.740795850753784180e+00 1.226189422607421875e+01 4.200807094573974609e+00 -5.673822879791259766e+00
1.902000000000000000e+03 4.822724342346191406e+00 -1.929462909698486328e+00 3.122021257877349854e-01 2.628226578235626221e-01 1.725074350833892822e-01 1.327102724462747574e-02
1.903000000000000000e+03 4.586269378662109375e+00 -2.142258644104003906e+00 3.723242282867431641e-01 2.875580489635467529e-01 1.979646831750869751e-01 -2.890366129577159882e-03
1.904000000000000000e+03 4.120712757110595703e+00 -2.155255079269409180e+00 2.823921144008636475e-01 2.172431051731109619e-01 1.498905569314956665e-01 -1.137258559465408325e-01
1.905000000000000000e+03 4.323359489440917969e+00 -2.381162405014038086e+00 4.082974791526794434e-01 3.050391376018524170e-01 2.140009850263595581e-01 -1.399539969861507416e-02
1.906000000000000000e+03 4.537101268768310547e+00 -2.703786134719848633e+00 6.001691222190856934e-01 5.222927927970886230e-01 3.367385864257812500e-01 1.910963803529739380e-01
1.907000000000000000e+03 3.404707193374633789e+00 -2.081462621688842773e+00 1.028629690408706665e-01 9.502990543842315674e-02 5.936786532402038574e-02 -2.760533392429351807e-01
1.908000000000000000e+03 3.804543018341064453e+00 -2.570297241210937500e+00 3.475112020969390869e-01 2.599236965179443359e-01 1.822304725646972656e-01 -1.058361083269119263e-01
1.909000000000000000e+03 4.451989173889160156e+00 2.224647998809814453e+00 2.636434733867645264e-01 2.712697684764862061e-01 1.604739725589752197e-01 1.042322292923927307e-01
1.910000000000000000e+03 4.143867015838623047e+00 2.306981325149536133e+00 2.703286111354827881e-01 2.735974788665771484e-01 1.631778180599212646e-01 1.627690196037292480e-01
1.911000000000000000e+03 1.218640613555908203e+01 7.857528328895568848e-01 7.150038242340087891e+00 1.254460144042968750e+01 5.908391952514648438e+00 1.540163159370422363e+00
1.912000000000000000e+03 1.107533359527587891e+01 -2.313800334930419922e+00 8.582426309585571289e-01 1.500199127197265625e+01 4.758069992065429688e+00 1.632235050201416016e-01
1.913000000000000000e+03 1.131412220001220703e+01 -1.933199882507324219e+00 2.176619768142700195e+00 1.547641372680664062e+01 5.295909881591796875e+00 -1.118716478347778320e+00
1.914000000000000000e+03 1.109124851226806641e+01 2.267579793930053711e+00 5.584101080894470215e-01 1.525959873199462891e+01 4.745402812957763672e+00 -2.973013818264007568e-01
1.915000000000000000e+03 1.006776142120361328e+01 2.203712463378906250e+00 3.515430092811584473e-01 1.416972351074218750e+01 4.356379985809326172e+00 -3.868890047073364258e+00
1.916000000000000000e+03 1.217242360115051270e+00 -1.763485431671142578e+00 -4.159860312938690186e-02 -1.773723363876342773e-01 -6.569127738475799561e-02 -2.545513808727264404e-01
1.917000000000000000e+03 2.850597858428955078e+00 1.945657849311828613e+00 -7.043721526861190796e-02 -9.133609943091869354e-03 -2.387124672532081604e-02 4.104620218276977539e-01
1.918000000000000000e+03 1.790272593498229980e+00 -2.657089948654174805e+00 8.960688114166259766e-02 -1.398876905441284180e-01 -1.508424431085586548e-02 -3.008379340171813965e-01
1.919000000000000000e+03 1.833310842514038086e+00 2.026617527008056641e+00 -4.667083919048309326e-02 -1.696144789457321167e-01 -6.488560140132904053e-02 4.131285250186920166e-01
1.920000000000000000e+03 3.219342470169067383e+00 2.097502470016479492e+00 4.734976682811975479e-03 4.085148498415946960e-02 1.367593836039304733e-02 3.880575299263000488e-01
1.921000000000000000e+03 2.182307004928588867e+00 2.239773035049438477e+00 -5.528941750526428223e-03 -1.367214173078536987e-01 -4.267510771751403809e-02 4.333454072475433350e-01
1.922000000000000000e+03 1.776564002037048340e+00 -3.956048250198364258e+00 1.588943600654602051e-01 -1.600002795457839966e-01 -3.317747614346444607e-04 -1.478759050369262695e-01
1.923000000000000000e+03 1.222665905952453613e+00 3.295851945877075195e+00 4.091254994273185730e-02 -4.531769454479217529e-01 -1.236793249845504761e-01 2.789051532745361328e-01
1.924000000000000000e+03 1.148160696029663086e+00 2.157709360122680664e+00 -8.618125692009925842e-03 -3.134194910526275635e-01 -9.661129117012023926e-02 3.270795047283172607e-01
1.925000000000000000e+03 1.055565357208251953e+00 -3.874010801315307617e+00 6.130692735314369202e-02 -4.529224634170532227e-01 -1.174846589565277100e-01 -1.590039581060409546e-01
1.926000000000000000e+03 5.963490676879882812e+01 -1.134822940826416016e+01 -2.108272075653076172e+00 7.133229374885559082e-01 -4.184846878051757812e-01 3.271642327308654785e-01
1.927000000000000000e+03 5.743644332885742188e+01 -6.876303195953369141e+00 4.271165728569030762e-01 1.824772715568542480e+00 6.755667924880981445e-01 1.356937885284423828e+00
1.928000000000000000e+03 4.021721267700195312e+01 1.776333999633789062e+01 -1.803513616323471069e-02 5.867862701416015625e+00 1.754948258399963379e+00 1.325587511062622070e+00
1.929000000000000000e+03 2.942961120605468750e+01 -4.321595191955566406e+00 1.737641215324401855e+00 1.524136543273925781e+00 9.785332679748535156e-01 -1.458381712436676025e-01
1.930000000000000000e+03 1.282001876831054688e+01 1.342178916931152344e+01 1.084253072738647461e+00 1.086375427246093750e+01 3.584402322769165039e+00 -7.725066542625427246e-01
1.931000000000000000e+03 2.053438186645507812e+01 -7.053606033325195312e+00 7.345103025436401367e-01 9.303665757179260254e-01 4.994630813598632812e-01 -2.379572242498397827e-01
1.932000000000000000e+03 8.512127876281738281e+00 -2.438175010681152344e+01 3.867584094405174255e-02 5.824588298797607422e+00 1.758979320526123047e+00 1.530494451522827148e+00
1.933000000000000000e+03 1.916218757629394531e+00 2.907199859619140625e+00 8.821425586938858032e-02 -1.875825524330139160e-01 -2.981049008667469025e-02 3.833777308464050293e-01
1.934000000000000000e+03 1.958372497558593750e+01 -7.001863479614257812e+00 7.119517326354980469e-01 1.582225441932678223e+00 6.882531642913818359e-01 -2.018027156591415405e-01
1.935000000000000000e+03 2.153168487548828125e+01 -6.965678215026855469e+00 7.634373307228088379e-01 3.340826630592346191e-01 3.292559981346130371e-01 -2.972833216190338135e-01
1.936000000000000000e+03 4.607268142700195312e+01 1.889558219909667969e+01 2.307961583137512207e-01 2.099185705184936523e+00 6.989945769309997559e-01 1.290702581405639648e+00
1.937000000000000000e+03 2.170367622375488281e+01 1.796591162681579590e+00 1.711094260215759277e+00 -7.137723565101623535e-01 2.991965413093566895e-01 5.864013358950614929e-02
1.938000000000000000e+03 1.996087837219238281e+01 3.585694551467895508e+00 6.759391427040100098e-01 1.183795928955078125e-01 2.382956296205520630e-01 2.673129141330718994e-01
1.939000000000000000e+03 1.359796428680419922e+01 9.539279937744140625e+00 -1.296443462371826172e+00 9.549069404602050781e+00 2.475787878036499023e+00 -2.850588262081146240e-01
1.940000000000000000e+03 4.456040573120117188e+01 -8.225676536560058594e+00 -4.098653197288513184e-01 2.603577852249145508e+00 6.581137776374816895e-01 -2.619085647165775299e-02
1.941000000000000000e+03 2.368874740600585938e+01 -6.320285797119140625e+00 9.788416624069213867e-01 -3.761369287967681885e-01 1.808114200830459595e-01 -1.380481123924255371e-01
1.942000000000000000e+03 1.300767517089843750e+01 -1.341133975982666016e+01 -3.595865964889526367e-01 9.433670043945312500e+00 2.722224950790405273e+00 2.437162697315216064e-01
1.943000000000000000e+03 1.137309837341308594e+01 -1.826873970031738281e+01 1.714312911033630371e+00 9.194497108459472656e+00 3.272643089294433594e+00 2.547776103019714355e-01
1.944000000000000000e+03 1.197960281372070312e+01 -2.072818756103515625e+01 1.737110733985900879e+00 9.113267898559570312e+00 3.255113363265991211e+00 7.799395322799682617e-01
1.945000000000000000e+03 1.843028259277343750e+01 3.713322877883911133e+00 8.496227860450744629e-01 1.893850088119506836e+00 8.230418562889099121e-01 3.054475784301757812e-02
1.946000000000000000e+03 1.093709945678710938e+01 1.546817398071289062e+01 1.324493408203125000e+00 9.005169868469238281e+00 3.098899126052856445e+00 -5.549722313880920410e-01
1.947000000000000000e+03 1.215396785736083984e+01 1.193754100799560547e+01 1.552342772483825684e-01 9.692897796630859375e+00 2.954439640045166016e+00 -1.829616576433181763e-01
1.948000000000000000e+03 3.106719017028808594e+00 -1.830678939819335938e+01 2.106029987335205078e-01 2.254215955734252930e+00 7.394456863403320312e-01 5.100715756416320801e-01
1.949000000000000000e+03 3.978310823440551758e+00 -1.546304512023925781e+01 1.714119315147399902e-01 2.689133167266845703e+00 8.581635355949401855e-01 2.418429404497146606e-01
1.950000000000000000e+03 3.216537952423095703e+00 -1.968397521972656250e+01 2.186992019414901733e-01 2.521230459213256836e+00 8.219788670539855957e-01 6.636273264884948730e-01
1.951000000000000000e+03 4.731992721557617188e+00 -2.234231948852539062e+01 2.701312303543090820e-01 3.795118093490600586e+00 1.219574809074401855e+00 1.205637335777282715e+00
1.952000000000000000e+03 5.175513744354248047e+00 -2.780025100708007812e+01 -2.392431944608688354e-01 4.643956661224365234e+00 1.321413993835449219e+00 1.218054890632629395e+00
1.953000000000000000e+03 4.607288360595703125e+00 -2.094684982299804688e+01 3.827813565731048584e-01 3.585206747055053711e+00 1.190396428108215332e+00 1.031324982643127441e+00
1.954000000000000000e+03 4.344091892242431641e+00 -1.812979125976562500e+01 3.657819628715515137e-01 3.086628675460815430e+00 1.035723209381103516e+00 5.907424092292785645e-01
1.955000000000000000e+03 4.893549919128417969e+00 -2.507017517089843750e+01 -3.246556501835584641e-03 4.275217056274414062e+00 1.281591057777404785e+00 1.345737934112548828e+00
1.956000000000000000e+03 4.825274467468261719e+00 -2.370310783386230469e+01 1.399731636047363281e-01 4.038683891296386719e+00 1.253597021102905273e+00 1.317254900932312012e+00
1.957000000000000000e+03 5.007380485534667969e+00 -2.643738937377929688e+01 -1.506778150796890259e-01 4.479755878448486328e+00 1.298723459243774414e+00 1.303675174713134766e+00
1.958000000000000000e+03 6.263237476348876953e+00 -2.356006813049316406e+01 2.256178855895996094e-01 4.748552322387695312e+00 1.492251157760620117e+00 1.464585304260253906e+00
1.959000000000000000e+03 4.306822299957275391e+00 -3.242835998535156250e+01 -2.615165710449218750e-01 4.889820098876953125e+00 1.388491034507751465e+00 7.061585187911987305e-01
1.960000000000000000e+03 5.408003807067871094e+00 -2.920441055297851562e+01 -3.226160109043121338e-01 4.801650524139404297e+00 1.343710303306579590e+00 1.120410323143005371e+00
1.961000000000000000e+03 2.739493846893310547e+00 -1.174193572998046875e+01 -8.044920861721038818e-02 1.479077100753784180e+00 4.195883572101593018e-01 1.770288497209548950e-01
1.962000000000000000e+03 2.651425123214721680e+00 -8.439274787902832031e+00 -1.717174984514713287e-02 1.093639612197875977e+00 3.229403793811798096e-01 3.342910706996917725e-01
1.963000000000000000e+03 3.864455223083496094e+00 -1.420098209381103516e+01 6.015839427709579468e-02 2.563740253448486328e+00 7.871695756912231445e-01 1.985051035881042480e-01
1.964000000000000000e+03 6.122675895690917969e+00 -3.232978057861328125e+01 -4.516414403915405273e-01 4.966753482818603516e+00 1.354533553123474121e+00 7.840096950531005859e-01
1.965000000000000000e+03 6.427374839782714844e+00 -3.604834747314453125e+01 -3.856013417243957520e-01 4.958106040954589844e+00 1.371751427650451660e+00 4.408912956714630127e-01
1.966000000000000000e+03 2.726594924926757812e+00 -1.301980686187744141e+01 -2.540711313486099243e-02 1.570266962051391602e+00 4.634579420089721680e-01 1.405840963125228882e-01
1.967000000000000000e+03 3.800442457199096680e+00 -1.181954860687255859e+01 -1.318142265081405640e-01 2.416052579879760742e+00 6.852715015411376953e-01 2.473355829715728760e-01
1.968000000000000000e+03 2.334619522094726562e+00 -7.213055610656738281e+00 7.319676131010055542e-02 5.981165170669555664e-01 2.013939768075942993e-01 2.772671878337860107e-01
1.969000000000000000e+03 5.611032104492187500e+01 -1.099933338165283203e+01 -8.594150543212890625e-01 9.039698243141174316e-01 1.336643472313880920e-02 1.237168788909912109e+00
1.970000000000000000e+03 1.555353546142578125e+01 -1.214728260040283203e+01 -1.346069574356079102e+00 6.919054031372070312e+00 1.671895265579223633e+00 1.863863110542297363e+00
1.971000000000000000e+03 1.441798114776611328e+01 -1.172889137268066406e+01 -1.884505391120910645e+00 8.878787040710449219e+00 2.098284721374511719e+00 9.749369621276855469e-01
1.972000000000000000e+03 2.165430641174316406e+01 2.603853642940521240e-01 2.697987079620361328e+00 -5.638319849967956543e-01 6.402465105056762695e-01 -1.471759378910064697e-01
1.973000000000000000e+03 1.100411057472229004e+00 -4.986152172088623047e+00 7.837314903736114502e-02 -4.419834613800048828e-01 -1.090830862522125244e-01 -3.350804746150970459e-02
1.974000000000000000e+03 3.794989395141601562e+01 1.183184242248535156e+01 9.511927366256713867e-01 1.031215190887451172e+01 3.379003286361694336e+00 7.051854729652404785e-01
1.975000000000000000e+03 7.535366058349609375e+01 1.385937404632568359e+01 2.396492362022399902e-01 6.678185939788818359e+00 2.075350522994995117e+00 1.471874117851257324e-01
1.976000000000000000e+03 7.547777557373046875e+01 -3.601233661174774170e-01 -9.516605734825134277e-02 7.340331077575683594e+00 2.173549413681030273e+00 -6.482708454132080078e-01
1.977000000000000000e+03 7.598577880859375000e+01 -1.508714008331298828e+01 3.199964463710784912e-01 8.053199768066406250e+00 2.511958837509155273e+00 7.969877719879150391e-01
1.978000000000000000e+03 7.166918182373046875e+01 -1.269863033294677734e+01 -4.832576513290405273e-01 9.946805953979492188e+00 2.839064598083496094e+00 3.556447625160217285e-01
1.979000000000000000e+03 7.583691406250000000e+01 -1.392389869689941406e+01 2.233923822641372681e-01 8.147351264953613281e+00 2.511223316192626953e+00 8.516365289688110352e-01
1.980000000000000000e+03 7.691251373291015625e+01 -1.253229999542236328e+01 -4.319307953119277954e-02 7.872485160827636719e+00 2.348787546157836914e+00 7.708378434181213379e-01
1.981000000000000000e+03 7.544410705566406250e+01 -1.126537609100341797e+01 -3.740877807140350342e-01 8.472642898559570312e+00 2.429566621780395508e+00 7.223614454269409180e-01
1.982000000000000000e+03 7.685084533691406250e+01 -6.977412223815917969e+00 -3.055083155632019043e-01 8.099287986755371094e+00 2.338134050369262695e+00 5.853753164410591125e-02
1.983000000000000000e+03 7.562718200683593750e+01 -6.936095714569091797e+00 -4.635289311408996582e-01 8.052303314208984375e+00 2.276632308959960938e+00 -2.838902734220027924e-02
1.984000000000000000e+03 7.580068969726562500e+01 -4.324821949005126953e+00 -2.874163091182708740e-01 7.812605381011962891e+00 2.257556676864624023e+00 -3.571733534336090088e-01
1.985000000000000000e+03 7.569441986083984375e+01 -5.587008953094482422e+00 -3.924018442630767822e-01 7.937043666839599609e+00 2.263392448425292969e+00 -2.289182692766189575e-01
1.986000000000000000e+03 7.565641021728515625e+01 -3.197359323501586914e+00 -2.639721930027008057e-01 7.660185337066650391e+00 2.218863964080810547e+00 -5.206938982009887695e-01
1.987000000000000000e+03 7.673027038574218750e+01 1.195506572723388672e+00 -2.048369310796260834e-02 7.264953613281250000e+00 2.173340797424316406e+00 -5.329620242118835449e-01
1.988000000000000000e+03 7.547734069824218750e+01 1.087480306625366211e+00 4.776616580784320831e-03 7.198170661926269531e+00 2.160884141921997070e+00 -6.711565256118774414e-01
1.989000000000000000e+03 7.534496307373046875e+01 6.852212429046630859e+00 1.950965970754623413e-01 6.794813156127929688e+00 2.096972942352294922e+00 -4.619097709655761719e-01
1.990000000000000000e+03 7.398636627197265625e+01 3.773725986480712891e+00 1.501946449279785156e-01 6.971603393554687500e+00 2.136539459228515625e+00 -6.898820996284484863e-01
1.991000000000000000e+03 7.543292236328125000e+01 2.518447399139404297e+00 3.768010064959526062e-02 7.083616733551025391e+00 2.136389017105102539e+00 -6.452285647392272949e-01
1.992000000000000000e+03 7.701757049560546875e+01 -1.946802520751953125e+01 4.413492083549499512e-01 7.451924324035644531e+00 2.367981910705566406e+00 -3.892355859279632568e-01
1.993000000000000000e+03 7.687536621093750000e+01 -1.799477005004882812e+01 5.350307226181030273e-01 7.447119235992431641e+00 2.394644975662231445e+00 3.885827027261257172e-03
1.994000000000000000e+03 7.577878570556640625e+01 -1.615062522888183594e+01 7.618030309677124023e-01 8.114045143127441406e+00 2.662754297256469727e+00 4.858786165714263916e-01
1.995000000000000000e+03 7.671121978759765625e+01 8.308339118957519531e+00 1.254626661539077759e-01 6.604315757751464844e+00 2.018933534622192383e+00 -2.875294983386993408e-01
1.996000000000000000e+03 7.546626281738281250e+01 9.678326606750488281e+00 2.334336638450622559e-01 6.684992313385009766e+00 2.075527906417846680e+00 -2.321185767650604248e-01
1.997000000000000000e+03 7.176897430419921875e+01 3.405841064453125000e+01 -1.679607331752777100e-01 6.694445610046386719e+00 1.957945346832275391e+00 2.774263964965939522e-03
1.998000000000000000e+03 7.439605712890625000e+01 3.226550292968750000e+01 -1.251181364059448242e-01 7.215266704559326172e+00 2.127044677734375000e+00 1.245013698935508728e-01
1.999000000000000000e+03 7.546875000000000000e+01 1.107556533813476562e+01 2.400164008140563965e-01 6.655772209167480469e+00 2.068736553192138672e+00 -9.842507541179656982e-02
2.000000000000000000e+03 7.423651885986328125e+01 9.641784667968750000e+00 3.397057652473449707e-01 6.794260978698730469e+00 2.140190124511718750e+00 -2.411366701126098633e-01
2.001000000000000000e+03 7.667710876464843750e+01 1.528687381744384766e+01 1.269066482782363892e-01 6.560496807098388672e+00 2.006221055984497070e+00 2.131349742412567139e-01
2.002000000000000000e+03 7.559678649902343750e+01 -2.363571357727050781e+01 1.568444818258285522e-01 8.546375274658203125e+00 2.610965967178344727e+00 -1.223655223846435547e+00
2.003000000000000000e+03 7.664842987060546875e+01 1.668754196166992188e+01 1.126139685511589050e-01 6.638546466827392578e+00 2.025348186492919922e+00 3.051536977291107178e-01
2.004000000000000000e+03 7.510171508789062500e+01 2.160229682922363281e+01 -7.276098243892192841e-03 7.061434268951416016e+00 2.116247415542602539e+00 5.669944286346435547e-01
2.005000000000000000e+03 7.460193634033203125e+01 2.050177764892578125e+01 5.477800965309143066e-02 7.018160343170166016e+00 2.121881484985351562e+00 5.810267329216003418e-01
2.006000000000000000e+03 7.555448150634765625e+01 -2.646777343750000000e+01 -2.687678337097167969e-01 8.759704589843750000e+00 2.547281026840209961e+00 -1.131385803222656250e+00
2.007000000000000000e+03 7.676527404785156250e+01 -2.649415206909179688e+01 -1.362397223711013794e-01 8.599716186523437500e+00 2.539042949676513672e+00 -1.007569551467895508e+00
2.008000000000000000e+03 7.426222229003906250e+01 -2.100557327270507812e+01 8.968490958213806152e-01 9.069553375244140625e+00 2.989920854568481445e+00 -9.333764314651489258e-01
2.009000000000000000e+03 7.505372619628906250e+01 2.576841545104980469e+01 -1.358617842197418213e-01 7.255142688751220703e+00 2.135784149169921875e+00 4.430623948574066162e-01
2.010000000000000000e+03 7.386454010009765625e+01 2.449359130859375000e+01 -1.657353937625885010e-01 7.180863380432128906e+00 2.104538440704345703e+00 5.290849208831787109e-01
2.011000000000000000e+03 7.638750457763671875e+01 2.707841491699218750e+01 -7.607436925172805786e-02 7.409697055816650391e+00 2.200086832046508789e+00 3.177483677864074707e-01
2.012000000000000000e+03 7.478697204589843750e+01 2.719214057922363281e+01 -1.714575290679931641e-01 7.275102138519287109e+00 2.131093263626098633e+00 3.607164025306701660e-01
2.013000000000000000e+03 7.666828918457031250e+01 2.949936294555664062e+01 -8.020883053541183472e-02 7.549651145935058594e+00 2.240832567214965820e+00 2.101194560527801514e-01
2.014000000000000000e+03 7.430487060546875000e+01 2.863878440856933594e+01 -1.499045342206954956e-01 7.256589889526367188e+00 2.132005691528320312e+00 3.053243756294250488e-01
2.015000000000000000e+03 7.273300170898437500e+01 -2.974452209472656250e+01 -7.638319134712219238e-01 8.273042678833007812e+00 2.252763032913208008e+00 -4.448479115962982178e-01
2.016000000000000000e+03 7.478520202636718750e+01 -3.096464538574218750e+01 -4.721191823482513428e-01 8.629932403564453125e+00 2.447343826293945312e+00 -4.929488897323608398e-01
2.017000000000000000e+03 7.633602142333984375e+01 -3.520394134521484375e+01 -1.669730991125106812e-01 9.005245208740234375e+00 2.651481628417968750e+00 -1.171186566352844238e-01
2.018000000000000000e+03 7.504795837402343750e+01 -3.386610031127929688e+01 -3.048642575740814209e-01 8.647874832153320312e+00 2.502902984619140625e+00 -1.847140938043594360e-01
2.019000000000000000e+03 7.423131561279296875e+01 3.424107742309570312e+01 -1.096988916397094727e-01 7.188639163970947266e+00 2.123682022094726562e+00 6.856965273618698120e-02
2.020000000000000000e+03 7.489118957519531250e+01 3.060716247558593750e+01 -1.585436314344406128e-01 7.289425373077392578e+00 2.139264583587646484e+00 1.890322566032409668e-01
2.021000000000000000e+03 6.051681137084960938e+01 -9.976342916488647461e-01 1.257773399353027344e+00 3.798220634460449219e+00 1.516798257827758789e+00 1.313299775123596191e+00
2.022000000000000000e+03 4.306728363037109375e+01 -2.039839935302734375e+01 2.001033544540405273e+00 9.707481384277343750e+00 3.512554407119750977e+00 -8.937755227088928223e-01
2.023000000000000000e+03 4.089090347290039062e+01 -2.184063911437988281e+01 2.051330566406250000e+00 9.322651863098144531e+00 3.412194728851318359e+00 -1.124293327331542969e+00
2.024000000000000000e+03 4.632500171661376953e+00 2.184991073608398438e+01 5.390363186597824097e-02 3.973445892333984375e+00 1.208204865455627441e+00 -1.299362301826477051e+00
2.025000000000000000e+03 3.242785215377807617e+00 2.049611854553222656e+01 1.015085950493812561e-01 2.983304738998413086e+00 9.254440069198608398e-01 -1.007339954376220703e+00
2.026000000000000000e+03 4.679544448852539062e+00 2.323244667053222656e+01 -6.979757547378540039e-02 4.175259113311767578e+00 1.231638431549072266e+00 -1.320917129516601562e+00
2.027000000000000000e+03 5.249990940093994141e+00 2.437783622741699219e+01 -2.457585483789443970e-01 4.603611469268798828e+00 1.307355880737304688e+00 -1.337601065635681152e+00
2.028000000000000000e+03 4.805855274200439453e+00 2.988969802856445312e+01 -2.945329546928405762e-01 4.802516460418701172e+00 1.352395057678222656e+00 -6.664600372314453125e-01
2.029000000000000000e+03 4.422133445739746094e+00 1.767280387878417969e+01 3.708699643611907959e-01 3.301706314086914062e+00 1.101772904396057129e+00 -9.408327937126159668e-01
2.030000000000000000e+03 4.454868316650390625e+00 1.908127593994140625e+01 3.121773600578308105e-01 3.472742557525634766e+00 1.135475993156433105e+00 -1.107768297195434570e+00
2.031000000000000000e+03 4.308169364929199219e+00 1.626901626586914062e+01 3.255867958068847656e-01 3.054143428802490234e+00 1.013919115066528320e+00 -7.324429750442504883e-01
2.032000000000000000e+03 5.034754276275634766e+00 2.625774192810058594e+01 -3.306911289691925049e-01 4.638040542602539062e+00 1.292204856872558594e+00 -1.093449831008911133e+00
2.033000000000000000e+03 5.595237731933593750e+00 2.725417518615722656e+01 -4.375880062580108643e-01 4.871973514556884766e+00 1.330315589904785156e+00 -1.024687528610229492e+00
2.034000000000000000e+03 3.175596475601196289e+00 2.592903327941894531e+01 -1.523056477308273315e-01 4.111813545227050781e+00 1.187852263450622559e+00 -8.760696649551391602e-01
2.035000000000000000e+03 3.018212318420410156e+00 1.491888809204101562e+01 1.675424724817276001e-01 1.892632484436035156e+00 6.180524826049804688e-01 -4.498697817325592041e-01
2.036000000000000000e+03 4.258248805999755859e+00 1.366242504119873047e+01 1.667253971099853516e-01 2.806291818618774414e+00 8.919051885604858398e-01 -4.583916366100311279e-01
2.037000000000000000e+03 5.977429389953613281e+00 3.656666946411132812e+01 -1.560619026422500610e-01 4.806068420410156250e+00 1.395002007484436035e+00 -2.088010162115097046e-01
2.038000000000000000e+03 4.623252868652343750e+00 2.859712409973144531e+01 -2.940571606159210205e-01 4.678328514099121094e+00 1.315281391143798828e+00 -8.072218894958496094e-01
2.039000000000000000e+03 5.176807403564453125e+00 3.535877227783203125e+01 -1.768296062946319580e-01 4.867851734161376953e+00 1.407306551933288574e+00 -2.167848199605941772e-01
2.040000000000000000e+03 4.163434028625488281e+00 3.331961822509765625e+01 -1.879879981279373169e-01 4.917164802551269531e+00 1.418753027915954590e+00 -3.562746047973632812e-01
2.041000000000000000e+03 5.913389682769775391e+00 1.311836338043212891e+01 2.164178639650344849e-01 4.194806098937988281e+00 1.323367238044738770e+00 -4.294460415840148926e-01
2.042000000000000000e+03 2.375749349594116211e+00 8.889632225036621094e+00 2.658699080348014832e-02 6.395837664604187012e-01 1.998512297868728638e-01 -2.235576957464218140e-01
2.043000000000000000e+03 3.552825689315795898e+00 9.577861785888671875e+00 2.569360844790935516e-02 1.919888496398925781e+00 5.836746096611022949e-01 -3.873085975646972656e-01
2.044000000000000000e+03 2.207788467407226562e+00 7.658830165863037109e+00 6.068366765975952148e-02 3.629770278930664062e-01 1.270982027053833008e-01 -1.564707010984420776e-01
2.045000000000000000e+03 2.192750930786132812e+00 6.370816707611083984e+00 1.477364748716354370e-01 1.759885996580123901e-01 9.711752086877822876e-02 -8.492086827754974365e-02
2.046000000000000000e+03 3.520676040649414062e+01 2.415091276168823242e+00 2.849384069442749023e+00 1.171563911437988281e+01 4.369506835937500000e+00 1.314968347549438477e+00
2.047000000000000000e+03 5.772096252441406250e+01 -5.586627960205078125e+00 7.765538692474365234e-01 2.150116920471191406e+00 8.780012130737304688e-01 1.348821282386779785e+00
2.048000000000000000e+03 6.796390533447265625e+01 -2.847503089904785156e+01 -1.021361589431762695e+00 6.229244709014892578e+00 1.562364935874938965e+00 8.596076369285583496e-01
2.049000000000000000e+03 6.956807708740234375e+01 -2.803864669799804688e+01 -1.065282940864562988e+00 7.627561569213867188e+00 1.968683600425720215e+00 3.526220917701721191e-01
2.050000000000000000e+03 2.333907318115234375e+01 -7.778339087963104248e-02 2.769109725952148438e+00 -1.014650821685791016e+00 5.263376235961914062e-01 3.450269624590873718e-02
2.051000000000000000e+03 4.833850860595703125e+01 -8.793839454650878906e+00 1.619347184896469116e-01 8.437613248825073242e-01 3.017088174819946289e-01 2.040180206298828125e+00
2.052000000000000000e+03 4.829370880126953125e+01 -1.439840888977050781e+01 1.980543494224548340e+00 2.136353015899658203e+00 1.235068917274475098e+00 1.956555128097534180e+00
2.053000000000000000e+03 1.665924263000488281e+01 5.102367877960205078e+00 -3.827113211154937744e-01 4.861848354339599609e+00 1.343741178512573242e+00 4.992325603961944580e-02
2.054000000000000000e+03 1.539646053314208984e+01 -2.798579788208007812e+01 -9.426629543304443359e-01 4.789149284362792969e+00 1.153945922851562500e+00 -7.181788086891174316e-01
2.055000000000000000e+03 1.300887775421142578e+01 -2.351548957824707031e+01 2.130164951086044312e-01 8.218159675598144531e+00 2.529352903366088867e+00 2.436324954032897949e-01
2.056000000000000000e+03 3.409756088256835938e+01 -7.183144092559814453e+00 -1.324068307876586914e+00 8.272093772888183594e+00 2.084407567977905273e+00 -1.848633527755737305e+00
2.057000000000000000e+03 1.789347457885742188e+01 -9.619222640991210938e+00 -8.332890272140502930e-01 2.967638492584228516e+00 6.403048634529113770e-01 9.484718441963195801e-01
2.058000000000000000e+03 1.589999485015869141e+01 6.486365795135498047e+00 -1.381484985351562500e+00 6.095510005950927734e+00 1.414207458496093750e+00 -2.727252542972564697e-01
2.059000000000000000e+03 6.469014739990234375e+01 -8.532930374145507812e+00 -5.216535329818725586e-01 2.441100597381591797e+00 5.758340954780578613e-01 -1.769797682762145996e+00
2.060000000000000000e+03 4.416835784912109375e+01 1.914190292358398438e+01 7.004532963037490845e-02 3.386383056640625000e+00 1.036928534507751465e+00 1.615838050842285156e+00
2.061000000000000000e+03 4.124052429199218750e+01 1.862658119201660156e+01 -1.267016083002090454e-01 5.206449031829833984e+00 1.523924231529235840e+00 1.486288905143737793e+00
2.062000000000000000e+03 3.383433914184570312e+01 -2.940361213684082031e+01 -3.889399766921997070e-01 4.573135375976562500e+00 1.255258679389953613e+00 1.565583825111389160e+00
2.063000000000000000e+03 2.587913131713867188e+01 2.884116554260253906e+01 -3.451487421989440918e-01 1.930762529373168945e+00 4.756841361522674561e-01 -7.624394893646240234e-01
2.064000000000000000e+03 3.609016799926757812e+01 8.537725448608398438e+00 1.241660833358764648e+00 1.195197105407714844e+01 3.958089590072631836e+00 1.221905574202537537e-01
2.065000000000000000e+03 3.681780624389648438e+01 1.030598735809326172e+01 1.170560598373413086e+00 1.122647476196289062e+01 3.719110488891601562e+00 4.816871136426925659e-02
2.066000000000000000e+03 3.928998947143554688e+01 -1.840302276611328125e+01 1.925993800163269043e+00 9.859260559082031250e+00 3.535576343536376953e+00 -1.414781212806701660e+00
2.067000000000000000e+03 4.439020538330078125e+01 -1.892220687866210938e+01 2.093946218490600586e+00 9.363313674926757812e+00 3.437177896499633789e+00 4.885306954383850098e-01
2.068000000000000000e+03 3.669431304931640625e+01 1.440773457288742065e-01 1.341307520866394043e+00 1.102192306518554688e+01 3.708969116210937500e+00 -3.545836508274078369e-01
2.069000000000000000e+03 3.364985275268554688e+01 -6.911228895187377930e-01 1.687146306037902832e+00 8.570905685424804688e+00 3.077415466308593750e+00 1.598170638084411621e+00
2.070000000000000000e+03 3.182068634033203125e+01 -2.967083692550659180e+00 1.456124186515808105e+00 5.069985866546630859e+00 1.957833051681518555e+00 2.045870274305343628e-01
2.071000000000000000e+03 3.223197174072265625e+01 -1.718868732452392578e+00 2.047173976898193359e+00 5.687098026275634766e+00 2.320281505584716797e+00 8.893001079559326172e-01
2.072000000000000000e+03 2.677841949462890625e+01 -2.639457225799560547e+00 3.065100193023681641e+00 -2.657299637794494629e-01 8.398110270500183105e-01 1.887205541133880615e-01
2.073000000000000000e+03 2.826473045349121094e+01 -5.751253604888916016e+00 9.662242531776428223e-01 1.210086867213249207e-01 3.261698782444000244e-01 -2.191613912582397461e-01
2.074000000000000000e+03 6.703869628906250000e+01 1.626519584655761719e+01 9.389511942863464355e-01 7.887239456176757812e+00 2.647857189178466797e+00 2.715687453746795654e-01
2.075000000000000000e+03 4.777171325683593750e+01 -1.322053337097167969e+01 1.448254346847534180e+00 2.730302333831787109e+00 1.253566980361938477e+00 1.986446619033813477e+00
2.076000000000000000e+03 4.547169494628906250e+01 -6.875705718994140625e+00 -1.123064041137695312e+00 9.849449992179870605e-01 -4.143569990992546082e-02 2.927694022655487061e-01
2.077000000000000000e+03 4.320456695556640625e+01 -2.636575889587402344e+01 1.913764119148254395e+00 9.053274154663085938e+00 3.290111541748046875e+00 -1.348480820655822754e+00
2.078000000000000000e+03 5.428370285034179688e+01 -1.248147678375244141e+01 -4.856425225734710693e-01 5.746505856513977051e-01 2.670241519808769226e-02 1.275587677955627441e+00
2.079000000000000000e+03 5.280371475219726562e+01 -7.431756973266601562e+00 1.011993214488029480e-01 1.946956276893615723e+00 6.144466996192932129e-01 2.365148782730102539e+00
2.080000000000000000e+03 5.314599609375000000e+01 2.460598373413085938e+01 -6.558470129966735840e-01 6.480614542961120605e-01 -2.335659228265285492e-03 4.602596759796142578e-01
2.081000000000000000e+03 4.895499801635742188e+01 -1.047388935089111328e+01 6.227217912673950195e-01 1.456879496574401855e+00 6.238803863525390625e-01 2.224243640899658203e+00
2.082000000000000000e+03 2.736025810241699219e+01 2.438515281677246094e+01 -9.800150394439697266e-01 1.829007506370544434e+00 2.546977698802947998e-01 -1.348965287208557129e+00
2.083000000000000000e+03 2.807723617553710938e+01 2.547044754028320312e+01 -8.680575489997863770e-01 2.445324659347534180e+00 4.731801748275756836e-01 -1.404944658279418945e+00
2.084000000000000000e+03 3.915564346313476562e+01 -2.103298950195312500e+01 1.902115106582641602e+00 9.605565071105957031e+00 3.452304124832153320e+00 -8.451191782951354980e-01
2.085000000000000000e+03 4.045935440063476562e+01 -2.010536766052246094e+01 2.068646192550659180e+00 9.421038627624511719e+00 3.446905374526977539e+00 -1.182357430458068848e+00
2.086000000000000000e+03 7.480965614318847656e+00 -2.480928611755371094e+01 -5.364595353603363037e-02 5.266294956207275391e+00 1.563794612884521484e+00 1.501103162765502930e+00
2.087000000000000000e+03 1.557480144500732422e+01 -3.058935928344726562e+01 -1.138019204139709473e+00 4.151408195495605469e+00 9.040166735649108887e-01 -6.478860378265380859e-01
2.088000000000000000e+03 2.404839897155761719e+01 -1.099946856498718262e+00 3.004842519760131836e+00 -8.803449869155883789e-01 6.373492479324340820e-01 6.898608058691024780e-02
2.089000000000000000e+03 6.627906799316406250e+01 1.360760021209716797e+01 9.771793484687805176e-01 8.411074638366699219e+00 2.816476345062255859e+00 1.751264780759811401e-01
2.090000000000000000e+03 1.280581665039062500e+01 -2.709766197204589844e+01 -9.710762500762939453e-01 6.176574707031250000e+00 1.561649560928344727e+00 1.744803935289382935e-01
2.091000000000000000e+03 3.159830665588378906e+01 -5.472260951995849609e+00 6.762100011110305786e-02 4.470382213592529297e+00 1.361400842666625977e+00 -1.279028654098510742e+00
2.092000000000000000e+03 3.036928939819335938e+01 -3.896435499191284180e+00 1.579835176467895508e+00 2.690369606018066406e+00 1.281061410903930664e+00 -2.095001488924026489e-01
2.093000000000000000e+03 5.592090988159179688e+01 -6.694796085357666016e+00 4.217306971549987793e-01 2.016450405120849609e+00 7.314543128013610840e-01 1.675212621688842773e+00
2.094000000000000000e+03 6.449043273925781250e+01 9.966183662414550781e+00 9.139134883880615234e-01 8.876783370971679688e+00 2.937209129333496094e+00 6.108594536781311035e-01
2.095000000000000000e+03 7.091779327392578125e+01 1.053719806671142578e+01 6.928938031196594238e-01 7.120958805084228516e+00 2.344155788421630859e+00 -1.188080459833145142e-01
2.096000000000000000e+03 1.100217056274414062e+01 -1.724071502685546875e+01 1.483765244483947754e+00 8.576460838317871094e+00 3.018067836761474609e+00 4.359885156154632568e-01
2.097000000000000000e+03 3.518406295776367188e+01 1.769760704040527344e+01 1.968735307455062866e-01 6.942582607269287109e+00 2.141836881637573242e+00 -5.357831716537475586e-01
2.098000000000000000e+03 4.935254287719726562e+01 2.521602630615234375e+01 -4.795122742652893066e-01 1.707248210906982422e+00 3.683207631111145020e-01 1.167715430259704590e+00
2.099000000000000000e+03 1.770452690124511719e+01 -3.264840698242187500e+01 -8.821378350257873535e-01 3.016312837600708008e+00 6.402525305747985840e-01 -7.111972570419311523e-01
2.100000000000000000e+03 1.803949165344238281e+01 2.646372413635253906e+01 -7.598161101341247559e-01 2.740459918975830078e+00 5.941931605339050293e-01 1.435797810554504395e+00
2.101000000000000000e+03 6.037972259521484375e+01 -9.246195793151855469e+00 -7.665956616401672363e-01 1.113131403923034668e+00 1.039607152342796326e-01 5.689940452575683594e-01
2.102000000000000000e+03 5.828890228271484375e+01 -4.410786628723144531e+00 1.179095745086669922e+00 2.371675968170166016e+00 1.065231442451477051e+00 1.311098217964172363e+00
2.103000000000000000e+03 3.893727874755859375e+01 -1.551788234710693359e+01 1.907754778861999512e+00 9.670352935791015625e+00 3.473432302474975586e+00 -1.868941068649291992e+00
2.104000000000000000e+03 1.868125724792480469e+01 -6.904523372650146484e+00 5.923846364021301270e-01 2.453844070434570312e+00 9.138686060905456543e-01 -5.154819786548614502e-02
2.105000000000000000e+03 1.883764839172363281e+01 2.749251937866210938e+01 -3.959012925624847412e-01 2.177087306976318359e+00 5.343558192253112793e-01 1.072179436683654785e+00
2.106000000000000000e+03 7.562809753417968750e+01 4.061907577514648438e+01 1.286923047155141830e-02 7.583925724029541016e+00 2.279038667678833008e+00 9.115091711282730103e-02
2.107000000000000000e+03 7.477194213867187500e+01 3.854977798461914062e+01 -4.958508908748626709e-02 7.313484668731689453e+00 2.179169893264770508e+00 3.968041390180587769e-02
2.108000000000000000e+03 5.405270004272460938e+01 2.646285057067871094e+01 -1.568084359169006348e-01 1.080727696418762207e+00 2.771757841110229492e-01 2.405409365892410278e-01
2.109000000000000000e+03 1.555584907531738281e+01 7.662741661071777344e+00 -1.691472887992858887e+00 6.879228115081787109e+00 1.556326508522033691e+00 -5.599687695503234863e-01
2.110000000000000000e+03 1.467484188079833984e+01 7.316744804382324219e+00 -1.850055813789367676e+00 8.445306777954101562e+00 1.978575229644775391e+00 -1.908719688653945923e-01
2.111000000000000000e+03 1.330117607116699219e+01 8.672886848449707031e+00 -1.915855050086975098e+00 9.498126029968261719e+00 2.274681091308593750e+00 -2.197428494691848755e-01
2.112000000000000000e+03 1.357063961029052734e+01 7.641701698303222656e+00 -1.982620835304260254e+00 9.348319053649902344e+00 2.209709405899047852e+00 -1.803147941827774048e-01
2.113000000000000000e+03 2.907669639587402344e+01 2.495965385437011719e+01 -1.047902107238769531e+00 3.048237323760986328e+00 6.001005768775939941e-01 -1.422027230262756348e+00
2.114000000000000000e+03 2.591719627380371094e+01 2.701801490783691406e+01 -4.759461879730224609e-01 1.609686136245727539e+00 3.401219546794891357e-01 -9.958082437515258789e-01
2.115000000000000000e+03 3.483684921264648438e+01 1.895675468444824219e+01 -8.017227798700332642e-02 6.451545238494873047e+00 1.911411881446838379e+00 -4.834572076797485352e-01
2.116000000000000000e+03 3.455826568603515625e+01 2.033538436889648438e+01 -3.186909556388854980e-01 6.048600196838378906e+00 1.718972802162170410e+00 -3.721970915794372559e-01
2.117000000000000000e+03 3.519956207275390625e+01 1.275026130676269531e+01 7.232092022895812988e-01 9.412089347839355469e+00 3.040589570999145508e+00 -1.064939618110656738e+00
2.118000000000000000e+03 3.870000457763671875e+01 -1.405747413635253906e+01 1.715922951698303223e+00 9.354542732238769531e+00 3.321139812469482422e+00 -1.889280319213867188e+00
2.119000000000000000e+03 4.787818145751953125e+01 -3.044969367980957031e+01 2.836371064186096191e-01 5.109315395355224609e+00 1.617885708808898926e+00 -2.484462976455688477e+00
2.120000000000000000e+03 5.215410995483398438e+01 -3.356731033325195312e+01 -3.018323779106140137e-01 1.473033785820007324e+00 3.513604104518890381e-01 -1.521499514579772949e+00
2.121000000000000000e+03 4.210687637329101562e+01 -7.098655223846435547e+00 -1.336560249328613281e+00 4.832929134368896484e+00 1.048910617828369141e+00 -1.429269075393676758e+00
2.122000000000000000e+03 4.058287048339843750e+01 -8.974541664123535156e+00 -7.597896456718444824e-01 6.948440074920654297e+00 1.856595158576965332e+00 -1.349617004394531250e+00
2.123000000000000000e+03 6.012473297119140625e+01 -3.846047401428222656e+00 1.067860603332519531e+00 2.736038208007812500e+00 1.141169548034667969e+00 9.087221622467041016e-01
2.124000000000000000e+03 2.264110946655273438e+01 -3.178008270263671875e+01 -9.513188600540161133e-01 4.431680142879486084e-01 -1.524452418088912964e-01 -5.050335526466369629e-01
2.125000000000000000e+03 3.939216995239257812e+01 -2.198850059509277344e+01 1.880286455154418945e+00 9.254250526428222656e+00 3.340361118316650391e+00 -8.417841196060180664e-01
2.126000000000000000e+03 3.810256958007812500e+01 -2.127110862731933594e+01 1.668253779411315918e+00 9.848035812377929688e+00 3.454886913299560547e+00 -5.869627594947814941e-01
2.127000000000000000e+03 3.644416809082031250e+01 1.300480365753173828e+01 6.641709208488464355e-01 9.369617462158203125e+00 3.010136604309082031e+00 -4.365377724170684814e-01
2.128000000000000000e+03 1.218107795715332031e+01 2.215016937255859375e+01 -6.700016260147094727e-01 8.190078735351562500e+00 2.256023168563842773e+00 -6.736695766448974609e-01
2.129000000000000000e+03 1.106362247467041016e+01 1.830937957763671875e+01 1.423416256904602051e+00 8.661285400390625000e+00 3.025410413742065430e+00 -6.838756203651428223e-01
2.130000000000000000e+03 4.756134414672851562e+01 -7.138869762420654297e+00 -8.185802698135375977e-01 2.055417746305465698e-01 -1.839115470647811890e-01 1.594947218894958496e+00
2.131000000000000000e+03 4.722660827636718750e+01 -8.864311218261718750e+00 1.024252101778984070e-01 1.234365820884704590e+00 4.010373055934906006e-01 1.539191007614135742e+00
2.132000000000000000e+03 6.590801239013671875e+01 7.516561031341552734e+00 9.469267129898071289e-01 7.601525783538818359e+00 2.564535617828369141e+00 2.347336411476135254e-01
2.133000000000000000e+03 6.427167510986328125e+01 4.133872509002685547e+00 8.251530528068542480e-01 6.776942253112792969e+00 2.280628442764282227e+00 4.723921418190002441e-01
2.134000000000000000e+03 6.512915039062500000e+01 6.567028999328613281e+00 9.448319077491760254e-01 7.516916751861572266e+00 2.538524627685546875e+00 3.800736963748931885e-01
2.135000000000000000e+03 4.140858459472656250e+01 -9.472035408020019531e+00 -3.739680051803588867e-01 6.267682552337646484e+00 1.768114328384399414e+00 -1.098573207855224609e+00
2.136000000000000000e+03 3.841022872924804688e+01 -1.261653423309326172e+01 1.243105649948120117e+00 9.301909446716308594e+00 3.163504600524902344e+00 -1.695023536682128906e+00
2.137000000000000000e+03 6.303109741210937500e+01 -3.526603698730468750e+01 1.246968433260917664e-01 2.298797845840454102e+00 7.270483970642089844e-01 6.009271740913391113e-01
2.138000000000000000e+03 7.066488647460937500e+01 -2.103480339050292969e+01 1.612406611442565918e+00 1.203992271423339844e+01 4.095698833465576172e+00 -2.111764252185821533e-01
2.139000000000000000e+03 7.399349212646484375e+01 -1.766477203369140625e+01 1.391050815582275391e+00 9.247088432312011719e+00 3.191441774368286133e+00 5.965783074498176575e-02
2.140000000000000000e+03 6.746605682373046875e+01 1.752794456481933594e+01 7.264943718910217285e-01 7.704459667205810547e+00 2.529286146163940430e+00 4.416512846946716309e-01
2.141000000000000000e+03 2.134915733337402344e+01 -5.954642295837402344e+00 1.364317417144775391e+00 4.504058361053466797e-01 5.444169640541076660e-01 -2.304347306489944458e-01
2.142000000000000000e+03 4.659770202636718750e+01 -1.369326496124267578e+01 1.348903656005859375e+00 3.942385673522949219e+00 1.587386727333068848e+00 1.479586362838745117e+00
2.143000000000000000e+03 3.459881973266601562e+01 1.413083910942077637e+00 2.505270957946777344e+00 1.102140903472900391e+01 4.058003902435302734e+00 1.154045462608337402e+00
2.144000000000000000e+03 2.389402770996093750e+01 2.824090003967285156e+01 -1.861567646265029907e-01 1.330561161041259766e+00 3.433213233947753906e-01 -4.082300364971160889e-01
2.145000000000000000e+03 7.498641204833984375e+01 -1.699074745178222656e+01 9.596347212791442871e-01 8.491499900817871094e+00 2.835340261459350586e+00 3.060110807418823242e-01
2.146000000000000000e+03 7.159351348876953125e+01 -1.862973403930664062e+01 1.993027448654174805e+00 1.150408363342285156e+01 4.049133300781250000e+00 -1.471507251262664795e-01
2.147000000000000000e+03 3.016673469543457031e+01 -3.530414962768554688e+01 -4.349227547645568848e-01 2.216179847717285156e+00 5.343771576881408691e-01 1.099525690078735352e+00
2.148000000000000000e+03 4.101025390625000000e+01 -2.375462341308593750e+01 1.955483198165893555e+00 8.974685668945312500e+00 3.279050588607788086e+00 -1.072676181793212891e+00
2.149000000000000000e+03 2.857149887084960938e+01 -4.855523109436035156e+00 1.527606725692749023e+00 5.787776708602905273e-01 6.319153308868408203e-01 -2.085806578397750854e-01
2.150000000000000000e+03 2.869215393066406250e+01 -2.241147041320800781e+00 3.453322887420654297e+00 7.913986444473266602e-01 1.273416399955749512e+00 4.645431935787200928e-01
2.151000000000000000e+03 6.514116668701171875e+01 -3.374142074584960938e+01 -3.538374900817871094e-01 3.450861930847167969e+00 9.291073083877563477e-01 8.032975196838378906e-01
2.152000000000000000e+03 4.678557968139648438e+01 2.645647811889648438e+01 -4.858778715133666992e-01 2.506869792938232422e+00 6.062976121902465820e-01 1.285993337631225586e+00
2.153000000000000000e+03 6.293468475341796875e+01 1.205655097961425781e+00 8.361294865608215332e-01 5.346636295318603516e+00 1.854829788208007812e+00 7.363518476486206055e-01
2.154000000000000000e+03 6.421567535400390625e+01 2.792307376861572266e+00 7.459861040115356445e-01 6.301374435424804688e+00 2.114208221435546875e+00 4.461366534233093262e-01
2.155000000000000000e+03 6.845311737060546875e+01 -3.046226692199707031e+01 -9.892002344131469727e-01 6.142249107360839844e+00 1.545914649963378906e+00 6.799921989440917969e-01
2.156000000000000000e+03 5.337290573120117188e+01 -1.024149322509765625e+01 -2.645773291587829590e-01 1.211843490600585938e+00 2.841798365116119385e-01 2.169675588607788086e+00
2.157000000000000000e+03 5.110361099243164062e+01 -8.201298713684082031e+00 -3.246575593948364258e-02 1.079158663749694824e+00 3.140078783035278320e-01 2.829753875732421875e+00
2.158000000000000000e+03 3.769503784179687500e+01 -8.238899230957031250e+00 -1.510402202606201172e+00 9.178206443786621094e+00 2.300341367721557617e+00 -1.488577127456665039e+00
2.159000000000000000e+03 3.251443862915039062e+01 -6.103571414947509766e+00 -6.526103019714355469e-01 5.967323303222656250e+00 1.594413876533508301e+00 -1.466573715209960938e+00
2.160000000000000000e+03 3.462955093383789062e+01 -1.924257278442382812e+00 1.983593255281448364e-01 9.055778503417968750e+00 2.776241302490234375e+00 2.324236333370208740e-01
2.161000000000000000e+03 3.890253448486328125e+01 -2.379713630676269531e+01 1.661532402038574219e+00 8.717607498168945312e+00 3.113742113113403320e+00 -4.174872338771820068e-01
2.162000000000000000e+03 2.093262290954589844e+01 2.811626815795898438e+01 -1.597007662057876587e-01 1.546864628791809082e+00 4.161491692066192627e-01 4.617898464202880859e-01
2.163000000000000000e+03 2.001989936828613281e+01 2.665886878967285156e+01 -5.453022122383117676e-01 1.471286296844482422e+00 2.777952253818511963e-01 8.248641490936279297e-01
2.164000000000000000e+03 3.746128463745117188e+01 1.464015388488769531e+01 4.164564311504364014e-01 8.271615028381347656e+00 2.606421470642089844e+00 2.770533263683319092e-01
2.165000000000000000e+03 1.053458404541015625e+01 -1.629299736022949219e+01 1.252125501632690430e+00 7.878659725189208984e+00 2.739235639572143555e+00 1.463444083929061890e-01
2.166000000000000000e+03 3.403939819335937500e+01 4.074851870536804199e-01 2.054169893264770508e+00 1.023706722259521484e+01 3.687371015548706055e+00 1.568935871124267578e+00
2.167000000000000000e+03 3.828829193115234375e+01 -2.297126770019531250e+00 -7.272303700447082520e-01 1.018452453613281250e+01 2.837188243865966797e+00 -1.016180515289306641e+00
2.168000000000000000e+03 3.578470611572265625e+01 -9.068972587585449219e+00 -8.574993610382080078e-01 9.628753662109375000e+00 2.631376266479492188e+00 -1.746028423309326172e+00
2.169000000000000000e+03 5.232270050048828125e+01 -1.038094520568847656e+01 3.082704357802867889e-02 1.126444935798645020e+00 3.471815884113311768e-01 2.411794424057006836e+00
2.170000000000000000e+03 5.787268447875976562e+01 -9.919287681579589844e+00 -9.167634248733520508e-01 1.087450623512268066e+00 5.120616406202316284e-02 9.376601576805114746e-01
2.171000000000000000e+03 7.293952941894531250e+01 -2.418708610534667969e+01 3.069897554814815521e-02 9.417526245117187500e+00 2.834467649459838867e+00 -1.170337080955505371e+00
2.172000000000000000e+03 7.136373901367187500e+01 -2.291006660461425781e+01 5.905033349990844727e-01 1.039092063903808594e+01 3.294427394866943359e+00 -7.641676068305969238e-01
2.173000000000000000e+03 1.372607326507568359e+01 2.519716453552246094e+01 -1.383864521980285645e+00 6.129501342773437500e+00 1.423691034317016602e+00 7.756020426750183105e-01
2.174000000000000000e+03 3.297257995605468750e+01 -3.018599128723144531e+01 -5.269930958747863770e-01 3.529364585876464844e+00 9.007114768028259277e-01 1.512499809265136719e+00
2.175000000000000000e+03 3.556224060058593750e+01 -3.029870414733886719e+01 -6.667876839637756348e-01 5.425145149230957031e+00 1.427507281303405762e+00 1.255071878433227539e+00
2.176000000000000000e+03 7.050696563720703125e+01 -1.000328254699707031e+01 -1.683542370796203613e+00 8.616413116455078125e+00 2.079861164093017578e+00 -7.425423860549926758e-01
2.177000000000000000e+03 6.868631744384765625e+01 -1.010555458068847656e+01 -1.916273951530456543e+00 7.604972362518310547e+00 1.706609487533569336e+00 -1.657006978988647461e+00
2.178000000000000000e+03 7.150711822509765625e+01 -1.449756813049316406e+01 9.699714779853820801e-01 1.073530960083007812e+01 3.511584281921386719e+00 4.871184527873992920e-01
2.179000000000000000e+03 7.226450347900390625e+01 -1.758408355712890625e+01 1.863302826881408691e+00 1.069002151489257812e+01 3.765997171401977539e+00 -2.960146591067314148e-02
2.180000000000000000e+03 6.985860443115234375e+01 -2.602590560913085938e+01 -7.878453135490417480e-01 8.721911430358886719e+00 2.380219936370849609e+00 1.724268049001693726e-01
2.181000000000000000e+03 7.082787322998046875e+01 -2.455485916137695312e+01 -2.661898136138916016e-01 9.626818656921386719e+00 2.808188676834106445e+00 -4.424534142017364502e-01
2.182000000000000000e+03 3.996626663208007812e+01 -2.721864128112792969e+01 6.818957328796386719e-01 7.924429893493652344e+00 2.581897735595703125e+00 -1.307115256786346436e-01
2.183000000000000000e+03 3.986452865600585938e+01 -2.496505737304687500e+01 1.617964148521423340e+00 8.524415969848632812e+00 3.042713880538940430e+00 -5.672747492790222168e-01
2.184000000000000000e+03 2.247342109680175781e+01 -3.444161224365234375e+01 -2.738009691238403320e-01 1.142600536346435547e+00 2.606398463249206543e-01 -4.357690215110778809e-01
2.185000000000000000e+03 7.086395263671875000e+01 -1.357873725891113281e+01 -2.901881337165832520e-01 1.043898582458496094e+01 3.044639348983764648e+00 1.602171063423156738e-01
2.186000000000000000e+03 2.470136833190917969e+01 -2.281201601028442383e+00 3.024921894073486328e+00 -8.534706234931945801e-01 6.514353752136230469e-01 1.591753065586090088e-01
2.187000000000000000e+03 4.098356628417968750e+01 -7.379032135009765625e+00 -1.576313972473144531e+00 6.339077949523925781e+00 1.428829193115234375e+00 -1.621182441711425781e+00
2.188000000000000000e+03 3.550526428222656250e+01 -1.622395038604736328e+00 2.620273232460021973e-01 9.730813980102539062e+00 2.997852325439453125e+00 -3.240219876170158386e-02
2.189000000000000000e+03 5.649304962158203125e+01 -1.212476444244384766e+01 -1.173293709754943848e+00 6.500876545906066895e-01 -1.569617986679077148e-01 7.552092075347900391e-01
2.190000000000000000e+03 6.613905334472656250e+01 1.803243827819824219e+01 8.214887380599975586e-01 7.917080402374267578e+00 2.621570825576782227e+00 2.362983822822570801e-01
2.191000000000000000e+03 4.289722824096679688e+01 -1.485086917877197266e+01 1.527709603309631348e+00 7.072095870971679688e+00 2.579941749572753906e+00 -4.699196517467498779e-01
2.192000000000000000e+03 5.070118331909179688e+01 -9.342574119567871094e+00 1.211161091923713684e-01 1.102013707160949707e+00 3.669389486312866211e-01 2.641885519027709961e+00
2.193000000000000000e+03 4.991773223876953125e+01 -7.905473709106445312e+00 -1.969862878322601318e-01 6.964366436004638672e-01 1.498351097106933594e-01 2.589849710464477539e+00
2.194000000000000000e+03 4.552782535552978516e+00 2.380038976669311523e+00 3.599770367145538330e-01 3.650384247303009033e-01 2.175046354532241821e-01 6.019145995378494263e-02
2.195000000000000000e+03 3.873911142349243164e+00 -2.165989160537719727e+00 2.146643102169036865e-01 1.900419890880584717e-01 1.214118897914886475e-01 -1.788109391927719116e-01
2.196000000000000000e+03 5.575956821441650391e+00 -2.240644454956054688e+00 8.872113823890686035e-01 6.110421419143676758e-01 4.494760632514953613e-01 5.131368041038513184e-01
2.197000000000000000e+03 7.296585083007812500e+00 -1.947439670562744141e+00 2.006532669067382812e+00 1.578320860862731934e+00 1.075456142425537109e+00 1.940095424652099609e+00
2.198000000000000000e+03 9.273129463195800781e+00 -2.081486940383911133e+00 1.948356032371520996e+00 9.322144508361816406e+00 3.381150245666503906e+00 5.211435794830322266e+00
2.199000000000000000e+03 8.603043556213378906e+00 2.264719724655151367e+00 2.155837297439575195e+00 6.017795562744140625e+00 2.452089786529541016e+00 -4.488229751586914062e+00
2.200000000000000000e+03 5.969019412994384766e+00 -2.485083818435668945e+00 1.156141400337219238e+00 9.773617982864379883e-01 6.400509476661682129e-01 9.023994207382202148e-01
2.201000000000000000e+03 6.454389095306396484e+00 -2.514076948165893555e+00 1.423599839210510254e+00 1.356611371040344238e+00 8.340633511543273926e-01 1.345839262008666992e+00
2.202000000000000000e+03 7.684669494628906250e+00 2.175684928894042969e+00 2.020257949829101562e+00 2.689342975616455078e+00 1.412880301475524902e+00 -2.690204620361328125e+00
2.203000000000000000e+03 7.071410179138183594e+00 -2.176402807235717773e+00 1.840158700942993164e+00 1.540919423103332520e+00 1.014323472976684570e+00 1.853654623031616211e+00
2.204000000000000000e+03 6.655000686645507812e+00 2.044955253601074219e+00 1.306862831115722656e+00 1.062633514404296875e+00 7.108489274978637695e-01 -1.177818298339843750e+00
2.205000000000000000e+03 7.437854290008544922e+00 -2.345978975296020508e+00 2.060175657272338867e+00 2.387347698211669922e+00 1.334257006645202637e+00 2.466833114624023438e+00
2.206000000000000000e+03 3.055073738098144531e+00 6.574215412139892578e+00 2.087154686450958252e-01 9.326334595680236816e-01 3.424046635627746582e-01 -2.275176346302032471e-01
2.207000000000000000e+03 6.138231754302978516e+00 2.159746646881103516e+00 9.594215154647827148e-01 7.945939302444458008e-01 5.262046456336975098e-01 -7.394087910652160645e-01
2.208000000000000000e+03 5.810288906097412109e+00 2.289185523986816406e+00 8.593485951423645020e-01 8.124746084213256836e-01 5.015469789505004883e-01 -5.787713527679443359e-01
2.209000000000000000e+03 5.210404872894287109e+00 2.132663965225219727e+00 4.768911302089691162e-01 4.501302540302276611e-01 2.781064212322235107e-01 -1.493959873914718628e-01
2.210000000000000000e+03 9.446491241455078125e+00 -2.146315574645996094e+00 1.620674490928649902e+00 1.036876106262207031e+01 3.596830606460571289e+00 4.966160774230957031e+00
2.211000000000000000e+03 1.036935806274414062e+01 2.177911043167114258e+00 2.274859845638275146e-01 1.539459419250488281e+01 4.686624050140380859e+00 -2.730394124984741211e+00
2.212000000000000000e+03 4.003858089447021484e+00 2.622878551483154297e+00 3.564466834068298340e-01 3.408333361148834229e-01 2.091840058565139771e-01 1.275870352983474731e-01
2.213000000000000000e+03 9.776670455932617188e+00 2.274753570556640625e+00 6.557853817939758301e-01 1.260907840728759766e+01 3.979459285736083984e+00 -4.521898269653320312e+00
2.214000000000000000e+03 1.264123535156250000e+01 7.875044345855712891e-01 6.523086071014404297e+00 1.103584861755371094e+01 5.267680168151855469e+00 1.174110770225524902e+00
2.215000000000000000e+03 1.178173732757568359e+01 -1.318359971046447754e+00 5.232409000396728516e+00 1.451880359649658203e+01 5.925363540649414062e+00 -2.619998455047607422e+00
2.216000000000000000e+03 1.056531143188476562e+01 -2.692274570465087891e+00 1.146670132875442505e-01 1.369862937927246094e+01 4.143989086151123047e+00 1.871753454208374023e+00
2.217000000000000000e+03 1.756780433654785156e+01 4.477915287017822266e+00 1.849161684513092041e-01 3.280501127243041992e+00 1.039625167846679688e+00 1.020742300897836685e-02
2.218000000000000000e+03 9.452845573425292969e+00 2.776200294494628906e+00 5.367887616157531738e-01 1.037124729156494141e+01 3.272410869598388672e+00 -4.270240783691406250e+00
2.219000000000000000e+03 1.244854164123535156e+01 8.563660085201263428e-02 7.957574844360351562e+00 1.121840095520019531e+01 5.752792835235595703e+00 -6.618079543113708496e-02
2.220000000000000000e+03 1.089260387420654297e+01 1.936766028404235840e+00 1.082683205604553223e+00 1.669138717651367188e+01 5.332221508026123047e+00 -5.666714310646057129e-01
2.221000000000000000e+03 1.186274623870849609e+01 1.686410903930664062e+00 3.373198747634887695e+00 1.416685962677001953e+01 5.262017250061035156e+00 1.736345529556274414e+00
2.222000000000000000e+03 1.139979267120361328e+01 -1.639410495758056641e+00 3.223089933395385742e+00 1.576760864257812500e+01 5.697209358215332031e+00 -1.817647933959960938e+00
2.223000000000000000e+03 1.234530830383300781e+01 -1.147231817245483398e+00 5.905360698699951172e+00 1.209800720214843750e+01 5.401010513305664062e+00 -2.348238945007324219e+00
2.224000000000000000e+03 1.112123298645019531e+01 1.813523173332214355e+00 1.846551537513732910e+00 1.663602256774902344e+01 5.544772148132324219e+00 5.749232769012451172e-01
2.225000000000000000e+03 1.203721809387207031e+01 -1.254586696624755859e+00 5.679300785064697266e+00 1.326575660705566406e+01 5.683517456054687500e+00 -2.545301437377929688e+00
2.226000000000000000e+03 1.183892059326171875e+01 -8.385965228080749512e-01 7.453484535217285156e+00 1.391196250915527344e+01 6.409634113311767578e+00 -2.564023494720458984e+00
2.227000000000000000e+03 3.409627437591552734e+00 2.250848293304443359e+00 9.870820492506027222e-02 9.115432202816009521e-02 5.695875734090805054e-02 3.544391691684722900e-01
2.228000000000000000e+03 1.072422742843627930e+00 -1.852104544639587402e+00 -3.169587999582290649e-02 -1.968531608581542969e-01 -6.856471300125122070e-02 -2.448625266551971436e-01
2.229000000000000000e+03 3.460876226425170898e+00 -2.495304346084594727e+00 2.526394128799438477e-01 1.789186000823974609e-01 1.294673979282379150e-01 -1.849761605262756348e-01
2.230000000000000000e+03 2.534638881683349609e+00 -2.172086715698242188e+00 5.005589500069618225e-02 -3.092998452484607697e-02 5.737773608416318893e-03 -3.387628495693206787e-01
2.231000000000000000e+03 1.846539616584777832e+00 -4.942114830017089844e+00 1.609998643398284912e-01 -5.102472752332687378e-02 3.299254179000854492e-02 -4.722221754491329193e-03
2.232000000000000000e+03 1.561097741127014160e+00 -2.232010602951049805e+00 1.948874210938811302e-03 -1.798764467239379883e-01 -5.337827280163764954e-02 -3.277791738510131836e-01
2.233000000000000000e+03 1.847798347473144531e+00 -3.186739444732666016e+00 1.053505986928939819e-01 -1.543016880750656128e-01 -1.468532811850309372e-02 -2.516608536243438721e-01
2.234000000000000000e+03 2.079540014266967773e+00 -2.361868381500244141e+00 5.612669885158538818e-02 -9.459540992975234985e-02 -1.154061406850814819e-02 -3.253717720508575439e-01
2.235000000000000000e+03 3.548502445220947266e+00 2.528592586517333984e+00 1.607677638530731201e-01 1.633301675319671631e-01 9.722937643527984619e-02 3.164058625698089600e-01
2.236000000000000000e+03 2.439248800277709961e+00 -2.616154193878173828e+00 1.015644818544387817e-01 -4.066086560487747192e-02 1.827108673751354218e-02 -3.061402440071105957e-01
2.237000000000000000e+03 2.778715372085571289e+00 -2.146806955337524414e+00 6.838938593864440918e-02 1.018752064555883408e-02 2.357307076454162598e-02 -3.299251794815063477e-01
2.238000000000000000e+03 2.840142250061035156e+00 2.586903095245361328e+00 1.695061177015304565e-01 4.324838891625404358e-02 6.382635235786437988e-02 3.807320296764373779e-01
2.239000000000000000e+03 8.921779990196228027e-01 2.728290796279907227e+00 -1.253347494639456272e-03 -5.220003724098205566e-01 -1.569761186838150024e-01 2.609564065933227539e-01
2.240000000000000000e+03 1.010915398597717285e+00 -3.010565757751464844e+00 3.271550685167312622e-02 -4.124687910079956055e-01 -1.139259859919548035e-01 -2.103267312049865723e-01
2.241000000000000000e+03 2.457629203796386719e+00 -3.971403837203979492e+00 2.678778767585754395e-01 1.303533315658569336e-01 1.194693595170974731e-01 -8.563334494829177856e-02
2.242000000000000000e+03 1.242402267456054688e+01 8.882700920104980469e+00 -1.661007046699523926e+00 9.651405334472656250e+00 2.397119283676147461e+00 -1.244499757885932922e-01
2.243000000000000000e+03 2.329111671447753906e+01 -5.256713390350341797e+00 1.597021341323852539e+00 -3.296894729137420654e-01 3.801995515823364258e-01 -3.661771118640899658e-02
2.244000000000000000e+03 2.074326992034912109e+00 -6.026646614074707031e+00 1.404698491096496582e-01 2.539169192314147949e-01 1.183160245418548584e-01 1.615961194038391113e-01
2.245000000000000000e+03 1.345115947723388672e+01 -1.136471939086914062e+01 -1.753427386283874512e+00 8.737272262573242188e+00 2.095153570175170898e+00 4.843245148658752441e-01
2.246000000000000000e+03 1.700344657897949219e+01 -9.923480987548828125e+00 -1.241204380989074707e+00 4.199371814727783203e+00 8.874502778053283691e-01 1.103497505187988281e+00
2.247000000000000000e+03 1.488763713836669922e+01 -9.817115783691406250e+00 -1.960608363151550293e+00 7.258532524108886719e+00 1.589377164840698242e+00 1.112729310989379883e+00
2.248000000000000000e+03 1.688639259338378906e+01 -9.094859123229980469e+00 -9.434488415718078613e-01 4.426315784454345703e+00 1.044860005378723145e+00 8.612637519836425781e-01
2.249000000000000000e+03 3.377785444259643555e+00 -6.223817348480224609e+00 2.099735587835311890e-01 1.133135557174682617e+00 4.029327332973480225e-01 4.258177578449249268e-01
2.250000000000000000e+03 3.703710794448852539e+00 -3.024226665496826172e+00 4.147280752658843994e-01 3.650374710559844971e-01 2.339296638965606689e-01 -2.597703225910663605e-02
2.251000000000000000e+03 3.468494653701782227e+00 -7.933353900909423828e+00 -3.756361082196235657e-03 1.713678240776062012e+00 5.129765272140502930e-01 5.007001161575317383e-01
2.252000000000000000e+03 3.221127033233642578e+00 -7.042316913604736328e+00 1.192618682980537415e-01 1.276628732681274414e+00 4.187671840190887451e-01 4.284619390964508057e-01
2.253000000000000000e+03 1.797090339660644531e+01 -7.188223361968994141e+00 2.364316731691360474e-01 3.327490329742431641e+00 1.069176554679870605e+00 1.429470032453536987e-01
2.254000000000000000e+03 4.194484233856201172e+00 -9.782142639160156250e+00 -2.068803608417510986e-01 2.589395761489868164e+00 7.147545814514160156e-01 4.553838074207305908e-01
2.255000000000000000e+03 7.818573951721191406e+00 1.651850128173828125e+01 9.007619023323059082e-01 5.659727096557617188e+00 1.968146681785583496e+00 -9.170914292335510254e-01
2.256000000000000000e+03 8.364261627197265625e+00 1.552248382568359375e+01 9.558290839195251465e-01 6.183199405670166016e+00 2.141708612442016602e+00 -5.831401348114013672e-01
2.257000000000000000e+03 2.404077529907226562e+00 3.885120630264282227e+00 2.511547803878784180e-01 9.719675779342651367e-02 1.045054569840431213e-01 2.127714008092880249e-01
2.258000000000000000e+03 4.111119842529296875e+01 -1.904879570007324219e+01 2.101590156555175781e+00 9.340445518493652344e+00 3.432610750198364258e+00 -1.189283132553100586e+00
2.259000000000000000e+03 3.228186130523681641e+00 8.648660659790039062e+00 2.984847314655780792e-02 1.456601023674011230e+00 4.459348320960998535e-01 -2.982784211635589600e-01
2.260000000000000000e+03 4.354919815063476562e+01 -1.072114372253417969e+01 3.568672537803649902e-01 4.689420223236083984e+00 1.513886213302612305e+00 -3.613993823528289795e-01
2.261000000000000000e+03 1.041115570068359375e+01 1.953447341918945312e+01 1.103741884231567383e+00 7.440092563629150391e+00 2.563150405883789062e+00 -1.219616770744323730e+00
2.262000000000000000e+03 1.166126155853271484e+01 2.216200590133666992e+00 1.557826161384582520e+00 1.425756359100341797e+01 4.744616985321044922e+00 9.459503889083862305e-01
2.263000000000000000e+03 2.488546371459960938e+01 -5.844081401824951172e+00 1.101044774055480957e+00 -4.934320151805877686e-01 1.822838485240936279e-01 9.703505039215087891e-02
2.264000000000000000e+03 2.211576080322265625e+01 -2.829199075698852539e+00 2.817970514297485352e+00 -3.041550517082214355e-01 7.541446089744567871e-01 -1.675705760717391968e-01
2.265000000000000000e+03 1.305146026611328125e+01 8.017598152160644531e+00 -1.974168539047241211e+00 9.497617721557617188e+00 2.257034778594970703e+00 -2.245191931724548340e-01
2.266000000000000000e+03 9.389698028564453125e+00 1.606304359436035156e+01 1.186326861381530762e+00 7.124615192413330078e+00 2.493282556533813477e+00 -7.763383984565734863e-01
2.267000000000000000e+03 1.930614089965820312e+01 1.358038663864135742e+00 2.461777448654174805e+00 1.029811024665832520e+00 1.047476530075073242e+00 -2.404722422361373901e-01
2.268000000000000000e+03 1.127449321746826172e+01 -1.155188846588134766e+01 -1.390256047248840332e+00 8.488187789916992188e+00 2.129379510879516602e+00 2.198562026023864746e-01
2.269000000000000000e+03 1.865369081497192383e+00 4.529835700988769531e+00 1.862212121486663818e-01 -1.943296939134597778e-01 -2.432543551549315453e-03 1.497895419597625732e-01
2.270000000000000000e+03 1.786174535751342773e+00 3.629082202911376953e+00 8.283941447734832764e-02 -3.057799935340881348e-01 -6.688217818737030029e-02 3.123922049999237061e-01
2.271000000000000000e+03 2.998746871948242188e+01 -3.024704694747924805e+00 2.437293291091918945e+00 2.424958229064941406e+00 1.458675503730773926e+00 2.682407200336456299e-01
2.272000000000000000e+03 1.104076004028320312e+01 -1.475978565216064453e+01 5.979681611061096191e-01 8.332105636596679688e+00 2.679022312164306641e+00 -1.532601118087768555e-01
2.273000000000000000e+03 1.206922817230224609e+01 -1.409531021118164062e+01 9.922149777412414551e-02 9.281266212463378906e+00 2.814146518707275391e+00 -7.822333276271820068e-02
2.274000000000000000e+03 3.990267181396484375e+01 1.562772464752197266e+01 4.553812444210052490e-01 6.814279556274414062e+00 2.180898189544677734e+00 1.460808277130126953e+00
2.275000000000000000e+03 3.514881134033203125e+01 -1.657068282365798950e-01 1.463687062263488770e+00 9.980320930480957031e+00 3.433202505111694336e+00 3.983689248561859131e-01
2.276000000000000000e+03 8.473217010498046875e+00 -1.747015762329101562e+01 1.146357417106628418e+00 5.984373092651367188e+00 2.139219045639038086e+00 4.192211627960205078e-01
2.277000000000000000e+03 1.044048690795898438e+01 -1.984511184692382812e+01 1.624028563499450684e+00 7.684101581573486328e+00 2.792438983917236328e+00 9.188286066055297852e-01
2.278000000000000000e+03 2.975753593444824219e+01 -2.178246498107910156e+00 2.906865358352661133e+00 2.065382003784179688e+00 1.491674184799194336e+00 5.356091856956481934e-01
2.279000000000000000e+03 3.872938537597656250e+01 1.501965904235839844e+01 4.582627415657043457e-01 7.680644512176513672e+00 2.441672086715698242e+00 9.976552724838256836e-01
2.280000000000000000e+03 3.491337585449218750e+01 1.416211223602294922e+01 5.983769297599792480e-01 8.627107620239257812e+00 2.767645359039306641e+00 -1.219104051589965820e+00
2.281000000000000000e+03 1.179000759124755859e+01 1.313443183898925781e+01 7.473670244216918945e-01 9.866906166076660156e+00 3.184281826019287109e+00 -1.522607207298278809e-01
2.282000000000000000e+03 1.137736797332763672e+01 1.431602478027343750e+01 1.265561819076538086e+00 9.147027015686035156e+00 3.123776912689208984e+00 -3.171565532684326172e-01
2.283000000000000000e+03 3.594196701049804688e+01 1.702291107177734375e+01 2.646422088146209717e-01 7.196276187896728516e+00 2.238275527954101562e+00 -3.741519153118133545e-01
2.284000000000000000e+03 6.867910861968994141e+00 -2.890295410156250000e+01 -4.623899161815643311e-01 5.098751068115234375e+00 1.390908360481262207e+00 1.187751531600952148e+00
2.285000000000000000e+03 4.854708671569824219e+00 -1.183708953857421875e+01 -2.141402065753936768e-01 3.347873926162719727e+00 9.401201009750366211e-01 2.834164500236511230e-01
2.286000000000000000e+03 3.975974321365356445e+00 -8.593325614929199219e+00 -1.011686697602272034e-01 2.200533628463745117e+00 6.298094987869262695e-01 5.605869889259338379e-01
2.287000000000000000e+03 6.395146846771240234e+00 -2.624427986145019531e+01 -2.065428495407104492e-01 4.908966541290283203e+00 1.410727143287658691e+00 1.394904375076293945e+00
2.288000000000000000e+03 6.126693248748779297e+00 -2.217992973327636719e+01 4.437877833843231201e-01 4.582410812377929688e+00 1.507859706878662109e+00 1.362306118011474609e+00
2.289000000000000000e+03 5.287646293640136719e+00 -1.654100227355957031e+01 4.272038340568542480e-01 3.680573463439941406e+00 1.232333183288574219e+00 3.825528323650360107e-01
2.290000000000000000e+03 4.496071815490722656e+00 -1.952538108825683594e+01 3.917805850505828857e-01 3.302083969116210938e+00 1.108159303665161133e+00 8.216639757156372070e-01
2.291000000000000000e+03 3.585419464111328125e+01 -5.178027153015136719e+00 -1.586426377296447754e+00 9.240118026733398438e+00 2.296107530593872070e+00 -1.184629440307617188e+00
2.292000000000000000e+03 5.613538265228271484e+00 -1.788932228088378906e+01 5.897156000137329102e-01 3.946803092956542969e+00 1.360955595970153809e+00 6.396851539611816406e-01
2.293000000000000000e+03 9.014179229736328125e+00 -1.817939949035644531e+01 1.286681532859802246e+00 6.451110839843750000e+00 2.321337699890136719e+00 6.453076601028442383e-01
2.294000000000000000e+03 7.755486488342285156e+00 -2.596630477905273438e+01 -2.468958348035812378e-01 5.407846927642822266e+00 1.548285245895385742e+00 1.464100480079650879e+00
2.295000000000000000e+03 7.983350276947021484e+00 -3.197406578063964844e+01 -6.835173368453979492e-01 5.064927101135253906e+00 1.314422965049743652e+00 7.291879057884216309e-01
2.296000000000000000e+03 3.808067798614501953e+00 -1.298657608032226562e+01 -5.875036865472793579e-02 2.446653127670288086e+00 7.163708209991455078e-01 1.863361299037933350e-01
2.297000000000000000e+03 4.833198070526123047e+00 -1.086867427825927734e+01 -2.609077692031860352e-01 3.258328199386596680e+00 8.992261290550231934e-01 3.939500153064727783e-01
2.298000000000000000e+03 5.858599662780761719e+00 -2.080152702331542969e+01 5.567939281463623047e-01 4.253930091857910156e+00 1.443217158317565918e+00 1.143288969993591309e+00
2.299000000000000000e+03 5.795488834381103516e+00 -1.934731864929199219e+01 6.084334254264831543e-01 4.147933006286621094e+00 1.426910042762756348e+00 8.857488632202148438e-01
2.300000000000000000e+03 6.616369724273681641e+00 -2.755023384094238281e+01 -3.363853096961975098e-01 5.020636558532714844e+00 1.405275344848632812e+00 1.327959895133972168e+00
2.301000000000000000e+03 7.335029602050781250e+01 2.997291946411132812e+01 -2.604785263538360596e-01 7.096869468688964844e+00 2.050917387008666992e+00 1.992240399122238159e-01
2.302000000000000000e+03 4.944686889648437500e+00 -1.408881282806396484e+01 5.558663606643676758e-02 3.431446075439453125e+00 1.046109795570373535e+00 1.795590966939926147e-01
2.303000000000000000e+03 4.917435169219970703e+00 -1.293126869201660156e+01 -1.058860123157501221e-01 3.431612014770507812e+00 9.977177977561950684e-01 2.266996800899505615e-01
2.304000000000000000e+03 7.313646697998046875e+01 -3.133618354797363281e+01 -6.659004092216491699e-01 8.169704437255859375e+00 2.251141309738159180e+00 -3.609439134597778320e-01
2.305000000000000000e+03 7.540572357177734375e+01 -2.787030410766601562e+01 -3.749763965606689453e-01 8.774483680725097656e+00 2.519852161407470703e+00 -9.615498185157775879e-01
2.306000000000000000e+03 7.387637329101562500e+01 -2.888001632690429688e+01 -6.730855107307434082e-01 8.596458435058593750e+00 2.377011775970458984e+00 -7.243669033050537109e-01
2.307000000000000000e+03 7.395570373535156250e+01 2.322748374938964844e+01 -1.168742179870605469e-01 7.143599510192871094e+00 2.108017683029174805e+00 5.878414511680603027e-01
2.308000000000000000e+03 7.519653320312500000e+01 2.437294006347656250e+01 -1.041799113154411316e-01 7.209728717803955078e+00 2.131664752960205078e+00 4.905119538307189941e-01
2.309000000000000000e+03 7.410025024414062500e+01 1.782662200927734375e+01 2.235722094774246216e-01 6.932176113128662109e+00 2.146724462509155273e+00 4.991269111633300781e-01
2.310000000000000000e+03 7.599447631835937500e+01 -2.087948799133300781e+01 5.622010827064514160e-01 8.106630325317382812e+00 2.600649356842041016e+00 -7.980417609214782715e-01
2.311000000000000000e+03 7.287519073486328125e+01 -2.075908470153808594e+01 1.366981029510498047e+00 9.882534980773925781e+00 3.374854803085327148e+00 -8.331962227821350098e-01
2.312000000000000000e+03 1.862248992919921875e+01 -7.720096588134765625e+00 9.097483754158020020e-02 2.271997690200805664e+00 7.088917493820190430e-01 2.106040567159652710e-01
2.313000000000000000e+03 7.541988372802734375e+01 1.247025489807128906e+01 2.484135478734970093e-01 6.666355609893798828e+00 2.074430704116821289e+00 2.033113501965999603e-02
2.314000000000000000e+03 7.527040100097656250e+01 1.804132652282714844e+01 1.520188003778457642e-01 6.850347042083740234e+00 2.100709676742553711e+00 4.621304571628570557e-01
2.315000000000000000e+03 7.393435668945312500e+01 1.522795963287353516e+01 3.538167774677276611e-01 6.860141754150390625e+00 2.164187669754028320e+00 2.970351278781890869e-01
2.316000000000000000e+03 7.413544464111328125e+01 8.266674041748046875e+00 3.232687115669250488e-01 6.830300807952880859e+00 2.146070957183837891e+00 -3.888836205005645752e-01
2.317000000000000000e+03 7.388766479492187500e+01 5.301581859588623047e+00 2.423503398895263672e-01 6.912623405456542969e+00 2.146492004394531250e+00 -6.279470324516296387e-01
2.318000000000000000e+03 7.314159393310546875e+01 -1.666891670227050781e+01 1.446550607681274414e+00 9.718866348266601562e+00 3.349625110626220703e+00 3.534433841705322266e-01
2.319000000000000000e+03 7.428530883789062500e+01 -4.279567003250122070e-01 -7.671133428812026978e-02 7.231591701507568359e+00 2.146464109420776367e+00 -7.714963555335998535e-01
2.320000000000000000e+03 7.534680175781250000e+01 3.953338146209716797e+00 1.178275793790817261e-01 6.961985111236572266e+00 2.123943805694580078e+00 -6.201812624931335449e-01
2.321000000000000000e+03 7.420958709716796875e+01 2.356468439102172852e+00 7.396279275417327881e-02 7.039288043975830078e+00 2.133975267410278320e+00 -7.514690756797790527e-01
2.322000000000000000e+03 7.075865936279296875e+01 1.493407726287841797e+01 6.658607721328735352e-01 7.214077472686767578e+00 2.363981485366821289e+00 3.239350616931915283e-01
2.323000000000000000e+03 7.445816040039062500e+01 -6.863278865814208984e+00 -7.059311866760253906e-01 8.094295501708984375e+00 2.216509342193603516e+00 -1.944125741720199585e-01
2.324000000000000000e+03 7.228105926513671875e+01 -9.924329757690429688e+00 -1.299828767776489258e+00 8.879804611206054688e+00 2.273992776870727539e+00 -3.831272199749946594e-02
2.325000000000000000e+03 7.460973358154296875e+01 -1.414843654632568359e+01 2.660839855670928955e-01 8.857539176940917969e+00 2.737087011337280273e+00 9.660707116127014160e-01
2.326000000000000000e+03 7.537611389160156250e+01 -9.777319908142089844e+00 -5.496690273284912109e-01 8.366352081298828125e+00 2.345005035400390625e+00 5.178282260894775391e-01
2.327000000000000000e+03 7.294242095947265625e+01 -8.987001419067382812e+00 -1.057283163070678711e+00 8.530290603637695312e+00 2.241902112960815430e+00 -1.166592836380004883e-01
2.328000000000000000e+03 7.371275329589843750e+01 -3.425045013427734375e+00 -3.888369798660278320e-01 7.496040821075439453e+00 2.132161140441894531e+00 -7.148889303207397461e-01
2.329000000000000000e+03 7.476242065429687500e+01 -4.042179584503173828e+00 -3.818487823009490967e-01 7.655915737152099609e+00 2.182219982147216797e+00 -5.129743218421936035e-01
2.330000000000000000e+03 7.594644927978515625e+01 -1.957217788696289062e+01 6.738739013671875000e-01 7.996956825256347656e+00 2.601249217987060547e+00 -5.035415887832641602e-01
2.331000000000000000e+03 6.919995880126953125e+01 1.824353599548339844e+01 5.006998777389526367e-01 7.363514900207519531e+00 2.359264373779296875e+00 5.827631950378417969e-01
2.332000000000000000e+03 7.417673492431640625e+01 -1.914755225181579590e+00 -2.458901703357696533e-01 7.382429599761962891e+00 2.140961647033691406e+00 -7.040359377861022949e-01
2.333000000000000000e+03 7.408258056640625000e+01 1.659103584289550781e+01 2.864139974117279053e-01 6.890317916870117188e+00 2.153019666671752930e+00 4.183279871940612793e-01
2.334000000000000000e+03 7.401243591308593750e+01 6.841972827911376953e+00 2.847075760364532471e-01 6.860302925109863281e+00 2.143503189086914062e+00 -4.884538650512695312e-01
2.335000000000000000e+03 7.437665557861328125e+01 -2.647412872314453125e+01 -3.796623945236206055e-01 8.800438880920410156e+00 2.526232957839965820e+00 -1.089340567588806152e+00
2.336000000000000000e+03 7.268903350830078125e+01 2.855675315856933594e+01 -2.750563621520996094e-01 7.048320293426513672e+00 2.031979322433471680e+00 2.751904726028442383e-01
2.337000000000000000e+03 7.552672576904296875e+01 2.917872810363769531e+01 -1.285275369882583618e-01 7.365518569946289062e+00 2.171097278594970703e+00 2.655520439147949219e-01
2.338000000000000000e+03 7.373804473876953125e+01 2.576420783996582031e+01 -1.928598880767822266e-01 7.194627285003662109e+00 2.100530147552490234e+00 4.699731767177581787e-01
2.339000000000000000e+03 7.245260620117187500e+01 2.604864883422851562e+01 -3.004693090915679932e-01 7.097337245941162109e+00 2.039060354232788086e+00 4.292006194591522217e-01
2.340000000000000000e+03 7.394914245605468750e+01 1.378132915496826172e+01 3.764423131942749023e-01 6.842530727386474609e+00 2.165691852569580078e+00 1.621915251016616821e-01
2.341000000000000000e+03 7.423702239990234375e+01 1.100235271453857422e+01 3.540895581245422363e-01 6.798204898834228516e+00 2.145688295364379883e+00 -1.221987977623939514e-01
2.342000000000000000e+03 7.233657073974609375e+01 3.172542762756347656e+01 -2.306682914495468140e-01 6.893852233886718750e+00 1.998955249786376953e+00 9.409284591674804688e-02
2.343000000000000000e+03 6.982420349121093750e+01 -3.057551574707031250e+01 -9.732548594474792480e-01 6.908554553985595703e+00 1.780589818954467773e+00 3.398872911930084229e-01
2.344000000000000000e+03 7.305722808837890625e+01 2.015763854980468750e+01 1.220255121588706970e-01 7.078791141510009766e+00 2.160244941711425781e+00 6.405993700027465820e-01
2.345000000000000000e+03 6.575886535644531250e+01 -9.408767700195312500e+00 -1.345181465148925781e+00 3.664107561111450195e+00 6.956778168678283691e-01 -2.402673721313476562e+00
2.346000000000000000e+03 6.288143920898437500e+01 -8.558616638183593750e+00 -3.584297299385070801e-01 1.378428697586059570e+00 3.059996664524078369e-01 -5.155534744262695312e-01
2.347000000000000000e+03 7.432762908935546875e+01 -2.772682762145996094e+01 -4.639983475208282471e-01 8.819530487060546875e+00 2.506659746170043945e+00 -1.027050137519836426e+00
2.348000000000000000e+03 5.010427474975585938e+01 -1.110327243804931641e+01 6.867949366569519043e-01 1.032339096069335938e+00 5.157402157783508301e-01 2.407356023788452148e+00
2.349000000000000000e+03 4.547497272491455078e+00 2.729389381408691406e+01 -2.937729954719543457e-01 4.595093250274658203e+00 1.290396094322204590e+00 -9.407191872596740723e-01
2.350000000000000000e+03 3.594241714477539062e+01 -2.640464544296264648e+00 -5.078172683715820312e-01 9.670792579650878906e+00 2.748892545700073242e+00 -3.452552855014801025e-01
2.351000000000000000e+03 5.953298568725585938e+01 -8.466524124145507812e+00 -3.700348138809204102e-01 1.359357237815856934e+00 2.967967092990875244e-01 7.022731900215148926e-01
2.352000000000000000e+03 7.485739898681640625e+01 -3.516732788085937500e+01 -2.189458161592483521e-01 8.484552383422851562e+00 2.479681968688964844e+00 -1.240813657641410828e-01
2.353000000000000000e+03 6.115492820739746094e+00 2.552602958679199219e+01 -4.542393684387207031e-01 4.976931571960449219e+00 1.356807708740234375e+00 -1.241930007934570312e+00
2.354000000000000000e+03 1.072975063323974609e+01 2.558809661865234375e+01 -1.173590898513793945e+00 6.114749431610107422e+00 1.482347488403320312e+00 -6.975908875465393066e-01
2.355000000000000000e+03 1.780761146545410156e+01 3.010159254074096680e+00 1.467824578285217285e+00 2.839255332946777344e+00 1.292124032974243164e+00 -1.385998819023370743e-02
2.356000000000000000e+03 1.045992183685302734e+01 1.659634208679199219e+01 1.443982243537902832e+00 8.102859497070312500e+00 2.864052534103393555e+00 -5.518589019775390625e-01
2.357000000000000000e+03 5.633265972137451172e+00 1.785133361816406250e+01 4.975573420524597168e-01 4.095822334289550781e+00 1.378013849258422852e+00 -1.050020098686218262e+00
2.358000000000000000e+03 4.565041065216064453e+00 2.045841026306152344e+01 1.691329628229141235e-01 3.717830896377563477e+00 1.166089177131652832e+00 -1.271043896675109863e+00
2.359000000000000000e+03 6.669193267822265625e+00 2.692226982116699219e+01 -5.688214302062988281e-01 5.141618728637695312e+00 1.371839165687561035e+00 -1.010798096656799316e+00
2.360000000000000000e+03 4.164710998535156250e+00 1.494420242309570312e+01 2.527193427085876465e-01 2.819138050079345703e+00 9.215571880340576172e-01 -5.857119560241699219e-01
2.361000000000000000e+03 4.357670307159423828e+00 1.242552947998046875e+01 9.586995095014572144e-02 2.890546798706054688e+00 8.959250450134277344e-01 -4.150786101818084717e-01
2.362000000000000000e+03 5.419398307800292969e+00 3.109301376342773438e+01 -3.257089257240295410e-01 4.861781597137451172e+00 1.360821843147277832e+00 -5.585207343101501465e-01
2.363000000000000000e+03 6.600793361663818359e+00 1.849729919433593750e+01 6.398139595985412598e-01 4.829300880432128906e+00 1.640734434127807617e+00 -1.255098581314086914e+00
2.364000000000000000e+03 5.949235439300537109e+00 2.038946151733398438e+01 3.092537820339202881e-01 4.518836021423339844e+00 1.448426842689514160e+00 -1.403918743133544922e+00
2.365000000000000000e+03 6.171137809753417969e+00 1.681938171386718750e+01 5.898554921150207520e-01 4.356720447540283203e+00 1.483972787857055664e+00 -9.432552456855773926e-01
2.366000000000000000e+03 5.414099693298339844e+00 1.396857643127441406e+01 3.045979738235473633e-01 3.806609392166137695e+00 1.233362197875976562e+00 -5.271087884902954102e-01
2.367000000000000000e+03 5.821445941925048828e+00 2.851325988769531250e+01 -4.760435521602630615e-01 4.932422637939453125e+00 1.336913704872131348e+00 -8.435465097427368164e-01
2.368000000000000000e+03 5.514836502075195312e+01 -1.125328540802001953e+01 -6.118103861808776855e-01 9.193370342254638672e-01 9.225799143314361572e-02 1.389832615852355957e+00
2.369000000000000000e+03 5.234730911254882812e+01 -1.129486656188964844e+01 3.203886002302169800e-02 9.522114992141723633e-01 2.952751219272613525e-01 2.067178010940551758e+00
2.370000000000000000e+03 5.232915878295898438e+01 -8.620137214660644531e+00 -1.885562241077423096e-01 1.501477241516113281e+00 3.938762843608856201e-01 2.610875844955444336e+00
2.371000000000000000e+03 6.656679534912109375e+01 -8.357378959655761719e+00 -1.032249689102172852e+00 4.688371658325195312e+00 1.096836566925048828e+00 -2.159250497817993164e+00
2.372000000000000000e+03 4.472927570343017578e+00 1.138100528717041016e+01 1.241511106491088867e-02 2.850190877914428711e+00 8.587817549705505371e-01 -3.969492018222808838e-01
2.373000000000000000e+03 9.044765472412109375e+00 1.117238807678222656e+01 -2.714018523693084717e-01 7.295399665832519531e+00 2.107199192047119141e+00 -2.207932025194168091e-01
2.374000000000000000e+03 4.016809940338134766e+00 1.028561782836914062e+01 -6.692076101899147034e-03 2.310808181762695312e+00 6.912348270416259766e-01 -3.901736140251159668e-01
2.375000000000000000e+03 5.458468914031982422e+00 1.146534633636474609e+01 -2.945508062839508057e-02 3.772674560546875000e+00 1.122965812683105469e+00 -4.243806600570678711e-01
2.376000000000000000e+03 6.389711380004882812e+01 -9.469326019287109375e+00 -1.079642295837402344e+00 1.011786580085754395e+00 -2.035671845078468323e-02 -1.242691636085510254e+00
2.377000000000000000e+03 6.116266632080078125e+01 -8.517426490783691406e+00 -3.751695156097412109e-01 1.230975985527038574e+00 2.567419409751892090e-01 2.051324695348739624e-01
2.378000000000000000e+03 6.167863464355468750e+01 1.362948060035705566e+00 9.968670010566711426e-01 5.084307670593261719e+00 1.824352502822875977e+00 1.232696413993835449e+00
2.379000000000000000e+03 4.234054183959960938e+01 -8.359408378601074219e+00 -8.571144342422485352e-01 5.078849315643310547e+00 1.266520500183105469e+00 -1.042386889457702637e+00
2.380000000000000000e+03 4.473426437377929688e+01 -1.072584819793701172e+01 5.836296081542968750e-01 3.827313899993896484e+00 1.323283076286315918e+00 4.287942051887512207e-01
2.381000000000000000e+03 1.464856243133544922e+01 2.377058601379394531e+01 -1.578020572662353516e+00 6.294189453125000000e+00 1.414850592613220215e+00 1.004482030868530273e+00
2.382000000000000000e+03 1.151743602752685547e+01 2.334902763366699219e+01 -8.872304558753967285e-01 7.105755329132080078e+00 1.865557432174682617e+00 -7.878784537315368652e-01
2.383000000000000000e+03 4.173010253906250000e+01 -1.799201583862304688e+01 2.107985258102416992e+00 8.886760711669921875e+00 3.298423767089843750e+00 -1.042115569114685059e+00
2.384000000000000000e+03 3.616506958007812500e+01 1.439644432067871094e+01 5.497180223464965820e-01 8.601786613464355469e+00 2.745451450347900391e+00 -5.120193362236022949e-01
2.385000000000000000e+03 1.323837280273437500e+01 -3.131110382080078125e+01 -1.084600448608398438e+00 4.782566547393798828e+00 1.109389901161193848e+00 -2.618817239999771118e-02
2.386000000000000000e+03 1.628083038330078125e+01 -3.298274230957031250e+01 -9.590017199516296387e-01 3.580458879470825195e+00 7.864371538162231445e-01 -6.641919612884521484e-01
2.387000000000000000e+03 4.517791748046875000e+01 2.014409255981445312e+01 -1.891764551401138306e-01 2.808255434036254883e+00 7.857236862182617188e-01 1.450369834899902344e+00
2.388000000000000000e+03 3.680262756347656250e+01 -6.509767055511474609e+00 -1.908580660820007324e+00 9.465324401855468750e+00 2.267023086547851562e+00 -1.369025230407714844e+00
2.389000000000000000e+03 6.121175003051757812e+01 1.811779290437698364e-01 1.100835919380187988e+00 4.505989074707031250e+00 1.682047486305236816e+00 1.314486861228942871e+00
2.390000000000000000e+03 5.862441253662109375e+01 -6.849199295043945312e+00 2.563737630844116211e-01 1.821674942970275879e+00 6.234146356582641602e-01 1.025004982948303223e+00
2.391000000000000000e+03 5.411751174926757812e+01 -7.797032356262207031e+00 -4.307731054723262787e-03 1.930838704109191895e+00 5.779592990875244141e-01 2.065133333206176758e+00
2.392000000000000000e+03 1.265959453582763672e+01 -2.881660652160644531e+01 -1.106067657470703125e+00 5.617286682128906250e+00 1.353365659713745117e+00 1.418358385562896729e-01
2.393000000000000000e+03 1.229640102386474609e+01 -2.553960990905761719e+01 -5.647972822189331055e-01 6.931185245513916016e+00 1.909916400909423828e+00 5.001432299613952637e-01
2.394000000000000000e+03 5.892559051513671875e+01 -5.904202938079833984e+00 6.640950441360473633e-01 2.004091978073120117e+00 8.004561662673950195e-01 1.040117263793945312e+00
2.395000000000000000e+03 2.554130363464355469e+01 -3.589351415634155273e+00 2.520511388778686523e+00 -5.943425297737121582e-01 5.778506398200988770e-01 2.731973230838775635e-01
2.396000000000000000e+03 6.994444274902343750e+01 -1.283444595336914062e+01 -6.351658105850219727e-01 1.007238864898681641e+01 2.831166744232177734e+00 -3.758797943592071533e-01
2.397000000000000000e+03 4.230016708374023438e+01 1.946551132202148438e+01 -1.911639720201492310e-01 4.433747291564941406e+00 1.272775053977966309e+00 1.575128316879272461e+00
2.398000000000000000e+03 4.003459930419921875e+01 -2.122045326232910156e+01 1.979609370231628418e+00 9.461455345153808594e+00 3.432319402694702148e+00 -1.134889960289001465e+00
2.399000000000000000e+03 3.798703765869140625e+01 -1.221000313758850098e+00 3.891860544681549072e-01 1.031838798522949219e+01 3.212272167205810547e+00 -7.198287248611450195e-01
2.400000000000000000e+03 3.613304519653320312e+01 -8.482378125190734863e-01 7.555316090583801270e-01 1.020112323760986328e+01 3.286996364593505859e+00 -5.728431418538093567e-02
2.401000000000000000e+03 3.902873229980468750e+01 -4.925548076629638672e+00 -2.166197538375854492e+00 8.845178604125976562e+00 2.003694295883178711e+00 -1.477361679077148438e+00
2.402000000000000000e+03 3.710234832763671875e+01 -2.544976472854614258e+00 -5.532154440879821777e-01 9.905900955200195312e+00 2.805805683135986328e+00 -6.177383065223693848e-01
2.403000000000000000e+03 4.027568054199218750e+01 -4.494590282440185547e+00 -1.994986057281494141e+00 7.754752159118652344e+00 1.727929830551147461e+00 -2.025213241577148438e+00
2.404000000000000000e+03 7.259909820556640625e+01 -1.363103008270263672e+01 6.475301086902618408e-02 9.906740188598632812e+00 2.991447925567626953e+00 8.696264624595642090e-01
2.405000000000000000e+03 6.728263092041015625e+01 1.191790199279785156e+01 9.755690693855285645e-01 7.904279708862304688e+00 2.663954734802246094e+00 1.253456920385360718e-01
2.406000000000000000e+03 2.033477401733398438e+01 -5.173023700714111328e+00 1.768701910972595215e+00 1.053858160972595215e+00 8.467680215835571289e-01 -3.409523963928222656e-01
2.407000000000000000e+03 2.148604202270507812e+01 -1.108870148658752441e+00 3.038782119750976562e+00 -3.111838102340698242e-01 8.182795047760009766e-01 -2.403047978878021240e-01
2.408000000000000000e+03 6.584692382812500000e+01 1.052447223663330078e+01 9.627256989479064941e-01 8.334389686584472656e+00 2.789134502410888672e+00 2.875078320503234863e-01
2.409000000000000000e+03 7.308002471923828125e+01 9.635872840881347656e+00 4.500044584274291992e-01 6.909741878509521484e+00 2.207923889160156250e+00 -2.590157985687255859e-01
2.410000000000000000e+03 4.041118240356445312e+01 -1.672747611999511719e+01 2.027008533477783203e+00 9.049630165100097656e+00 3.322991609573364258e+00 -1.452174067497253418e+00
2.411000000000000000e+03 3.912056732177734375e+01 -1.695907974243164062e+01 1.880825519561767578e+00 9.773316383361816406e+00 3.496242761611938477e+00 -1.738913774490356445e+00
2.412000000000000000e+03 4.810495853424072266e+00 -4.029680252075195312e+01 -1.420433968305587769e-01 5.189186573028564453e+00 1.514142870903015137e+00 1.786323338747024536e-01
2.413000000000000000e+03 6.006128787994384766e+00 -3.808992767333984375e+01 -3.089262545108795166e-01 4.943533897399902344e+00 1.390382289886474609e+00 2.835381925106048584e-01
2.414000000000000000e+03 6.817583465576171875e+01 2.693909454345703125e+01 -6.268014311790466309e-01 6.687593936920166016e+00 1.818237781524658203e+00 3.764979168772697449e-02
2.415000000000000000e+03 2.900454330444335938e+01 2.610684585571289062e+01 -9.358534812927246094e-01 2.940602302551269531e+00 6.014246344566345215e-01 -1.279909968376159668e+00
2.416000000000000000e+03 4.385802078247070312e+01 -3.009501457214355469e+01 -1.498019993305206299e-01 7.546237945556640625e+00 2.218930721282958984e+00 -8.794428706169128418e-01
2.417000000000000000e+03 4.534389114379882812e+01 -2.819119834899902344e+01 1.131694316864013672e+00 8.267801284790039062e+00 2.819848775863647461e+00 -2.052337646484375000e+00
2.418000000000000000e+03 1.614198684692382812e+01 2.583843421936035156e+01 -1.240000128746032715e+00 4.402822017669677734e+00 9.488465785980224609e-01 1.486142039299011230e+00
2.419000000000000000e+03 1.261626338958740234e+01 2.415190887451171875e+01 -1.466663718223571777e+00 6.996351242065429688e+00 1.658906221389770508e+00 -1.058784350752830505e-01
2.420000000000000000e+03 4.106755447387695312e+01 -2.594645690917968750e+01 1.464367866516113281e+00 8.400344848632812500e+00 2.959413766860961914e+00 -6.383597850799560547e-01
2.421000000000000000e+03 1.855045318603515625e+01 -3.437474060058593750e+01 -5.925830006599426270e-01 2.464355230331420898e+00 5.615316629409790039e-01 -6.113701462745666504e-01
2.422000000000000000e+03 5.168997573852539062e+01 2.410904121398925781e+01 -7.074277997016906738e-01 8.193829655647277832e-01 3.358655050396919250e-02 7.886156439781188965e-01
2.423000000000000000e+03 5.007009887695312500e+01 2.776617240905761719e+01 -1.192259192466735840e-01 1.829795360565185547e+00 5.131708383560180664e-01 9.259877800941467285e-01
2.424000000000000000e+03 2.837775421142578125e+01 2.739367103576660156e+01 -7.576574087142944336e-01 2.663639545440673828e+00 5.717946290969848633e-01 -1.174340963363647461e+00
2.425000000000000000e+03 6.789820861816406250e+01 1.455594635009765625e+01 9.423918128013610840e-01 7.769955158233642578e+00 2.613704204559326172e+00 2.366371899843215942e-01
2.426000000000000000e+03 7.203266906738281250e+01 1.827164840698242188e+01 3.211412429809570312e-01 7.098676204681396484e+00 2.225945234298706055e+00 5.847943425178527832e-01
2.427000000000000000e+03 6.603886413574218750e+01 5.934200286865234375e+00 8.606213331222534180e-01 7.180396556854248047e+00 2.412305355072021484e+00 9.585787355899810791e-02
2.428000000000000000e+03 6.677061462402343750e+01 8.212987899780273438e+00 9.515249729156494141e-01 7.648922443389892578e+00 2.580134153366088867e+00 9.319332242012023926e-02
2.429000000000000000e+03 1.791600799560546875e+01 2.845697975158691406e+01 -5.462161898612976074e-01 3.006393909454345703e+00 7.380533218383789062e-01 1.067365765571594238e+00
2.430000000000000000e+03 1.689320182800292969e+01 2.726284980773925781e+01 -7.939574122428894043e-01 3.426313161849975586e+00 7.897067070007324219e-01 1.177587628364562988e+00
2.431000000000000000e+03 6.568927001953125000e+01 5.028121471405029297e+00 7.950541377067565918e-01 6.991899490356445312e+00 2.336086034774780273e+00 7.965372502803802490e-02
2.432000000000000000e+03 6.673347473144531250e+01 6.681126117706298828e+00 8.577215075492858887e-01 7.317107200622558594e+00 2.452448606491088867e+00 1.161172054708003998e-02
2.433000000000000000e+03 9.469305992126464844e+00 -1.685440826416015625e+01 1.169198513031005859e+00 7.050902366638183594e+00 2.466030120849609375e+00 2.941940724849700928e-01
2.434000000000000000e+03 6.160717773437500000e+01 -6.105619430541992188e+00 3.484591245651245117e-01 2.269144773483276367e+00 7.852811813354492188e-01 1.625596433877944946e-01
2.435000000000000000e+03 3.071167945861816406e+01 -2.406979322433471680e+00 2.494635581970214844e+00 3.252943754196166992e+00 1.724273800849914551e+00 4.113610982894897461e-01
2.436000000000000000e+03 2.326140785217285156e+01 3.042097282409667969e+01 -5.552470311522483826e-02 1.821586012840270996e+00 5.298183560371398926e-01 -1.455896496772766113e-01
2.437000000000000000e+03 5.158817291259765625e+01 -1.097389698028564453e+01 3.283149302005767822e-01 9.332987666130065918e-01 3.784841001033782959e-01 2.351389169692993164e+00
2.438000000000000000e+03 5.610401535034179688e+01 2.725068283081054688e+01 -8.318359032273292542e-03 1.468280315399169922e+00 4.379885792732238770e-01 -3.660805821418762207e-01
2.439000000000000000e+03 5.192308425903320312e+01 2.840210533142089844e+01 4.061880335211753845e-02 1.631918907165527344e+00 5.017613172531127930e-01 6.289780735969543457e-01
2.440000000000000000e+03 5.328199005126953125e+01 -1.136559009552001953e+01 -1.082586199045181274e-01 8.432987928390502930e-01 2.205120474100112915e-01 1.882872223854064941e+00
2.441000000000000000e+03 5.172003173828125000e+01 -9.626030921936035156e+00 4.020848125219345093e-02 1.120667099952697754e+00 3.482626974582672119e-01 2.554725646972656250e+00
2.442000000000000000e+03 6.721333312988281250e+01 -2.993614006042480469e+01 -9.899553060531616211e-01 5.181436061859130859e+00 1.257444143295288086e+00 9.510425925254821777e-01
2.443000000000000000e+03 6.438807678222656250e+01 1.344238638877868652e+00 6.831436753273010254e-01 5.722336769104003906e+00 1.921644091606140137e+00 2.183528691530227661e-01
2.444000000000000000e+03 6.167361450195312500e+01 -1.591636061668395996e+00 1.028493881225585938e+00 3.903447389602661133e+00 1.479582309722900391e+00 7.683076262474060059e-01
2.445000000000000000e+03 4.239156723022460938e+01 -1.203118610382080078e+01 7.101958394050598145e-01 6.129220962524414062e+00 2.051825046539306641e+00 -6.854488253593444824e-01
2.446000000000000000e+03 2.769408035278320312e+01 -3.868481397628784180e+00 2.373194456100463867e+00 2.412536889314651489e-01 7.843344807624816895e-01 1.806706637144088745e-01
2.447000000000000000e+03 3.610040664672851562e+01 1.800869369506835938e+01 -5.885275453329086304e-02 6.717685699462890625e+00 1.997649908065795898e+00 -9.431035071611404419e-02
2.448000000000000000e+03 6.825152873992919922e+00 -1.736053085327148438e+01 7.852037549018859863e-01 4.720118999481201172e+00 1.651596784591674805e+00 5.075304508209228516e-01
2.449000000000000000e+03 9.924118041992187500e+00 -1.772764587402343750e+01 1.473687410354614258e+00 7.321053504943847656e+00 2.638422250747680664e+00 3.113586008548736572e-01
2.450000000000000000e+03 5.391503524780273438e+01 -3.693607711791992188e+01 2.750497758388519287e-01 1.382025599479675293e+00 4.971226155757904053e-01 -8.829100131988525391e-01
2.451000000000000000e+03 5.540096664428710938e+01 -3.944373321533203125e+01 6.460828781127929688e-01 1.224416375160217285e+00 5.611497759819030762e-01 -3.484842181205749512e-01
2.452000000000000000e+03 7.201201629638671875e+01 -2.031315040588378906e+01 1.713672161102294922e+00 1.075577068328857422e+01 3.740832805633544922e+00 -5.467967987060546875e-01
2.453000000000000000e+03 6.547153472900390625e+01 3.989716529846191406e+00 7.629122734069824219e-01 6.707329273223876953e+00 2.241072416305541992e+00 1.243600621819496155e-01
2.454000000000000000e+03 7.064190673828125000e+01 -2.723615646362304688e+01 -9.793516993522644043e-01 8.427838325500488281e+00 2.234545946121215820e+00 -1.549421995878219604e-01
2.455000000000000000e+03 6.881161499023437500e+01 -2.722243309020996094e+01 -1.012167930603027344e+00 7.325131893157958984e+00 1.893889188766479492e+00 6.861763000488281250e-01
2.456000000000000000e+03 4.703245544433593750e+01 -3.241077804565429688e+01 -6.662477850914001465e-01 5.464052200317382812e+00 1.439341306686401367e+00 -1.864708185195922852e+00
2.457000000000000000e+03 4.788096618652343750e+01 -3.820892333984375000e+01 -8.656343817710876465e-01 4.136781692504882812e+00 9.813442230224609375e-01 -9.357106089591979980e-01
2.458000000000000000e+03 4.389566421508789062e+01 -2.859218978881835938e+01 6.304178237915039062e-01 8.261178016662597656e+00 2.667478799819946289e+00 -9.174574613571166992e-01
2.459000000000000000e+03 4.526376342773437500e+01 -3.269004821777343750e+01 -9.800448417663574219e-01 6.268015384674072266e+00 1.586391091346740723e+00 -1.193937778472900391e+00
2.460000000000000000e+03 3.812182998657226562e+01 -1.129618930816650391e+01 4.922307729721069336e-01 9.175457954406738281e+00 2.900306701660156250e+00 -1.546554684638977051e+00
2.461000000000000000e+03 5.700212478637695312e+01 2.885066604614257812e+01 1.272840648889541626e-01 2.141564369201660156e+00 6.806545257568359375e-01 -4.782208800315856934e-01
2.462000000000000000e+03 4.570734786987304688e+01 -8.091514587402343750e+00 -4.066713750362396240e-01 1.661263585090637207e+00 3.763776719570159912e-01 4.395216107368469238e-01
2.463000000000000000e+03 4.781670761108398438e+01 -9.854869842529296875e+00 5.053678750991821289e-01 1.489354491233825684e+00 5.984167456626892090e-01 1.877327084541320801e+00
2.464000000000000000e+03 7.210683441162109375e+01 4.128546524047851562e+01 7.833145558834075928e-03 6.693049907684326172e+00 2.010264873504638672e+00 3.476688580121845007e-04
2.465000000000000000e+03 6.635562896728515625e+01 -3.167024993896484375e+01 -7.807894945144653320e-01 4.476729869842529297e+00 1.108782172203063965e+00 9.029628634452819824e-01
2.466000000000000000e+03 4.503245162963867188e+01 -1.288650321960449219e+01 1.056239962577819824e+00 4.837087154388427734e+00 1.767998099327087402e+00 6.331751346588134766e-01
2.467000000000000000e+03 4.258912277221679688e+01 -1.341580200195312500e+01 1.281481266021728516e+00 6.650488376617431641e+00 2.379590988159179688e+00 -4.975527822971343994e-01
2.468000000000000000e+03 1.740616798400878906e+01 2.543948936462402344e+01 -7.722728252410888672e-01 2.867134571075439453e+00 6.284584999084472656e-01 1.681807994842529297e+00
2.469000000000000000e+03 6.793896484375000000e+01 -3.231854629516601562e+01 -7.771129608154296875e-01 5.362192630767822266e+00 1.375523924827575684e+00 7.654097676277160645e-01
2.470000000000000000e+03 3.984193801879882812e+01 -7.928193569183349609e+00 -1.469023942947387695e+00 7.689487457275390625e+00 1.866139054298400879e+00 -1.526071190834045410e+00
2.471000000000000000e+03 5.958351516723632812e+01 -9.934043884277343750e+00 -1.159170985221862793e+00 9.844143986701965332e-01 -5.242697149515151978e-02 5.436481237411499023e-01
2.472000000000000000e+03 5.219025135040283203e+00 2.685732364654541016e+00 7.415891289710998535e-01 7.443369030952453613e-01 4.457778036594390869e-01 -3.990086913108825684e-01
2.473000000000000000e+03 5.374951839447021484e+00 -3.052715778350830078e+00 9.775750637054443359e-01 1.022136688232421875e+00 5.999135375022888184e-01 7.453237175941467285e-01
2.474000000000000000e+03 8.386691093444824219e+00 2.337453603744506836e+00 2.068236827850341797e+00 5.157579421997070312e+00 2.167744874954223633e+00 -4.049575328826904297e+00
2.475000000000000000e+03 7.150332450866699219e+00 -2.453624010086059570e+00 1.860014200210571289e+00 1.998150587081909180e+00 1.157449364662170410e+00 2.142930507659912109e+00
2.476000000000000000e+03 8.138335227966308594e+00 2.432137250900268555e+00 2.023672580718994141e+00 4.408190727233886719e+00 1.929558992385864258e+00 -3.627814531326293945e+00
2.477000000000000000e+03 7.863070487976074219e+00 2.390505313873291016e+00 2.029775619506835938e+00 3.549469709396362305e+00 1.673773646354675293e+00 -3.222702980041503906e+00
2.478000000000000000e+03 6.412261962890625000e+00 2.197638034820556641e+00 1.210174441337585449e+00 1.148011207580566406e+00 7.074556946754455566e-01 -1.078992843627929688e+00
2.479000000000000000e+03 8.181609153747558594e+00 -2.463005542755126953e+00 2.221451759338378906e+00 4.433062076568603516e+00 1.996354103088378906e+00 3.695777893066406250e+00
2.480000000000000000e+03 3.841974973678588867e+00 6.706946849822998047e+00 2.241289913654327393e-01 1.603289723396301270e+00 5.482255816459655762e-01 -4.442268013954162598e-01
2.481000000000000000e+03 9.497358322143554688e+00 -2.391923904418945312e+00 1.242318391799926758e+00 1.065280437469482422e+01 3.568536996841430664e+00 4.644365787506103516e+00
2.482000000000000000e+03 1.021608734130859375e+01 -2.149197340011596680e+00 7.151812911033630371e-01 1.480017948150634766e+01 4.654608249664306641e+00 3.140561580657958984e+00
2.483000000000000000e+03 1.282331466674804688e+01 1.531842052936553955e-01 7.127415180206298828e+00 1.018669414520263672e+01 5.194232940673828125e+00 -2.610632404685020447e-02
2.484000000000000000e+03 1.040299892425537109e+01 -2.373421430587768555e+00 3.961071670055389404e-01 1.434605884552001953e+01 4.422649860382080078e+00 2.345124006271362305e+00
2.485000000000000000e+03 1.135513877868652344e+01 -2.331190109252929688e+00 1.198813319206237793e+00 1.454359626770019531e+01 4.722722530364990234e+00 -6.015132665634155273e-01
2.486000000000000000e+03 1.087381172180175781e+01 2.506015300750732422e+00 2.787051023915410042e-03 1.477523040771484375e+01 4.433405399322509766e+00 -1.173169970512390137e+00
2.487000000000000000e+03 1.037843227386474609e+01 2.953974008560180664e+00 -4.550421237945556641e-01 1.291579437255859375e+01 3.738225698471069336e+00 -2.540730476379394531e+00
2.488000000000000000e+03 1.213179302215576172e+01 -6.048719882965087891e-01 7.925162315368652344e+00 1.244774532318115234e+01 6.111872196197509766e+00 -1.871704697608947754e+00
2.489000000000000000e+03 1.159555053710937500e+01 -1.950428009033203125e+00 2.631331205368041992e+00 1.458895492553710938e+01 5.166085720062255859e+00 -1.681436896324157715e+00
2.490000000000000000e+03 3.948487520217895508e+00 -7.032809257507324219e+00 1.447695195674896240e-01 1.909334897994995117e+00 6.162313222885131836e-01 6.569104194641113281e-01
2.491000000000000000e+03 1.186146831512451172e+01 1.370123744010925293e+00 4.792861461639404297e+00 1.428345108032226562e+01 5.722893714904785156e+00 2.099758148193359375e+00
2.492000000000000000e+03 1.498548507690429688e+01 5.642792701721191406e+00 -1.188658952713012695e+00 7.608482837677001953e+00 1.925947189331054688e+00 1.959154568612575531e-02
2.493000000000000000e+03 3.714838981628417969e+00 2.953322172164916992e+00 3.856569528579711914e-01 3.712569177150726318e-01 2.270741611719131470e-01 1.264808475971221924e-01
2.494000000000000000e+03 4.355228900909423828e+00 2.767462968826293945e+00 4.823105037212371826e-01 4.666403234004974365e-01 2.846852540969848633e-01 -1.098382659256458282e-02
2.495000000000000000e+03 4.913300037384033203e+00 2.783553838729858398e+00 6.916849613189697266e-01 6.767418384552001953e-01 4.105280339717864990e-01 -2.844159901142120361e-01
2.496000000000000000e+03 4.186866283416748047e+00 -2.728735208511352539e+00 4.990034401416778564e-01 4.228599667549133301e-01 2.765590250492095947e-01 6.062955036759376526e-02
2.497000000000000000e+03 2.712094545364379883e+00 3.119847774505615234e+00 1.967536360025405884e-01 5.718703567981719971e-02 7.618220150470733643e-02 2.926596999168395996e-01
2.498000000000000000e+03 3.280395507812500000e+00 2.602026700973510742e+00 1.517807692289352417e-01 1.002390906214714050e-01 7.560595870018005371e-02 3.357792794704437256e-01
2.499000000000000000e+03 2.802350282669067383e+00 -5.668514728546142578e+00 2.478774935007095337e-01 6.583185791969299316e-01 2.718588113784790039e-01 2.536289989948272705e-01
2.500000000000000000e+03 4.087651252746582031e+00 -7.584073543548583984e+00 3.181815519928932190e-02 2.108033180236816406e+00 6.419554352760314941e-01 6.553615331649780273e-01
2.501000000000000000e+03 5.002760887145996094e+00 -1.003806018829345703e+01 -3.091993629932403564e-01 3.343137025833129883e+00 9.101812839508056641e-01 5.142571926116943359e-01
2.502000000000000000e+03 1.879395961761474609e+00 2.383168935775756836e+00 1.147746481001377106e-02 -1.714690923690795898e-01 -4.799748584628105164e-02 3.957270085811614990e-01
2.503000000000000000e+03 1.378358650207519531e+01 -1.058438014984130859e+01 -2.099857807159423828e+00 8.598453521728515625e+00 1.949578642845153809e+00 6.635088920593261719e-01
2.504000000000000000e+03 2.406572103500366211e+00 -3.220055341720581055e+00 2.047865688800811768e-01 2.129543758928775787e-02 6.782460212707519531e-02 -2.179664522409439087e-01
2.505000000000000000e+03 1.496228599548339844e+01 6.446973800659179688e+00 -1.669111371040344238e+00 7.916450023651123047e+00 1.874201655387878418e+00 -2.054920643568038940e-01
2.506000000000000000e+03 1.389737224578857422e+01 6.969912052154541016e+00 -1.908783555030822754e+00 9.077702522277832031e+00 2.150675773620605469e+00 -1.237704753875732422e-01
2.507000000000000000e+03 2.229230499267578125e+01 -5.702666282653808594e+00 1.474044203758239746e+00 -3.889058902859687805e-02 4.305460751056671143e-01 -1.717604845762252808e-01
2.508000000000000000e+03 1.255666446685791016e+01 -1.106081581115722656e+01 -1.824793100357055664e+00 8.870119094848632812e+00 2.113597869873046875e+00 3.913691937923431396e-01
2.509000000000000000e+03 5.665346145629882812e+00 -1.088726043701171875e+01 -3.927369117736816406e-01 4.004606723785400391e+00 1.083560943603515625e+00 4.010383486747741699e-01
2.510000000000000000e+03 2.080862808227539062e+01 -3.381948471069335938e-01 2.956102371215820312e+00 -3.199362009763717651e-02 8.772326111793518066e-01 -2.960537970066070557e-01
2.511000000000000000e+03 2.659805488586425781e+01 -4.696147918701171875e+00 1.894095301628112793e+00 -4.514858424663543701e-01 4.327828288078308105e-01 1.593098044395446777e-01
2.512000000000000000e+03 3.470883941650390625e+01 -1.037698507308959961e+00 1.020270943641662598e+00 9.476471900939941406e+00 3.149022817611694336e+00 4.439960122108459473e-01
2.513000000000000000e+03 3.303717803955078125e+01 -5.010875701904296875e+00 -4.859679043292999268e-01 6.659181118011474609e+00 1.851963996887207031e+00 -9.423207044601440430e-01
2.514000000000000000e+03 3.801593780517578125e+01 -6.687928199768066406e+00 -1.978348493576049805e+00 9.050407409667968750e+00 2.121617555618286133e+00 -1.481564164161682129e+00
2.515000000000000000e+03 3.707584381103515625e+01 -1.337927222251892090e+00 1.457782238721847534e-01 1.039015483856201172e+01 3.160779953002929688e+00 -4.723671078681945801e-01
2.516000000000000000e+03 5.949589157104492188e+01 -7.143797874450683594e+00 2.088484168052673340e-01 1.709809422492980957e+00 5.755973458290100098e-01 8.165131807327270508e-01
2.517000000000000000e+03 4.616813659667968750e+00 7.544767856597900391e+00 9.976134449243545532e-02 2.565551042556762695e+00 7.995937466621398926e-01 -6.533262133598327637e-01
2.518000000000000000e+03 7.262438201904296875e+01 -2.296426773071289062e+01 4.821019172668457031e-01 9.719184875488281250e+00 3.060386180877685547e+00 -1.077033638954162598e+00
2.519000000000000000e+03 7.317487335205078125e+01 -2.531220817565917969e+01 -3.263613283634185791e-01 9.001687049865722656e+00 2.602597713470458984e+00 -1.089403390884399414e+00
2.520000000000000000e+03 7.426097869873046875e+01 -2.379794311523437500e+01 2.003273218870162964e-01 8.962875366210937500e+00 2.748960971832275391e+00 -1.291579484939575195e+00
2.521000000000000000e+03 2.111204910278320312e+01 -3.196318864822387695e+00 2.698597431182861328e+00 2.555719017982482910e-01 8.862508535385131836e-01 -3.041805028915405273e-01
2.522000000000000000e+03 1.783189582824707031e+01 1.588893055915832520e+00 2.554617881774902344e+00 2.690529108047485352e+00 1.573544144630432129e+00 -1.974603533744812012e-01
2.523000000000000000e+03 6.952675628662109375e+01 -9.083743095397949219e+00 -1.670177578926086426e+00 7.864120483398437500e+00 1.858182907104492188e+00 -1.488318920135498047e+00
2.524000000000000000e+03 7.071145629882812500e+01 -1.183816528320312500e+01 -1.422737956047058105e+00 9.652902603149414062e+00 2.469049453735351562e+00 -1.522298008203506470e-01
2.525000000000000000e+03 7.433129119873046875e+01 -8.169840812683105469e+00 -7.264506816864013672e-01 8.223526000976562500e+00 2.249122619628906250e+00 3.479223325848579407e-02
2.526000000000000000e+03 2.485577106475830078e+00 5.263031482696533203e+00 1.890918463468551636e-01 2.333534955978393555e-01 1.267336010932922363e-01 1.846920885145664215e-02
2.527000000000000000e+03 1.138667964935302734e+01 2.387418270111083984e+00 6.449508666992187500e-01 1.469111824035644531e+01 4.600820541381835938e+00 1.117600128054618835e-01
2.528000000000000000e+03 1.577664947509765625e+01 5.485212326049804688e+00 -8.802297711372375488e-01 6.247365474700927734e+00 1.610140681266784668e+00 4.078977741301059723e-03
2.529000000000000000e+03 3.400671768188476562e+01 2.348287773132324219e+01 -1.042308926582336426e+00 5.154522895812988281e+00 1.233664155006408691e+00 -3.424118161201477051e-01
2.530000000000000000e+03 3.132147216796875000e+01 -3.957554817199707031e+00 9.891770482063293457e-01 4.123292446136474609e+00 1.533740878105163574e+00 -5.908077359199523926e-01
2.531000000000000000e+03 7.339849853515625000e+01 -1.473512268066406250e+01 7.445061206817626953e-01 9.294619560241699219e+00 3.011737585067749023e+00 8.488249778747558594e-01
2.532000000000000000e+03 4.306038379669189453e+00 9.256434440612792969e+00 7.254695519804954529e-03 2.557250022888183594e+00 7.693514227867126465e-01 -4.568988680839538574e-01
2.533000000000000000e+03 4.591259002685546875e+00 9.954014778137207031e+00 -1.197346393018960953e-02 2.862731933593750000e+00 8.552275300025939941e-01 -4.681063890457153320e-01
2.534000000000000000e+03 7.247610473632812500e+01 -1.173077201843261719e+01 -9.469303488731384277e-01 9.543746948242187500e+00 2.579045057296752930e+00 5.302731394767761230e-01
2.535000000000000000e+03 1.553080558776855469e+01 4.676147937774658203e+00 -2.185952216386795044e-01 6.580364704132080078e+00 1.908530831336975098e+00 2.274556905031204224e-01
2.536000000000000000e+03 4.353796386718750000e+01 -9.530045509338378906e+00 -1.292841881513595581e-02 4.341226100921630859e+00 1.298489332199096680e+00 -3.381014168262481689e-01
2.537000000000000000e+03 3.406073760986328125e+01 -5.519089221954345703e+00 -1.082909822463989258e+00 7.879186153411865234e+00 2.038882970809936523e+00 -1.378022670745849609e+00
2.538000000000000000e+03 1.055944633483886719e+01 -2.122483062744140625e+01 1.263776659965515137e+00 7.339514732360839844e+00 2.580987453460693359e+00 1.074083685874938965e+00
2.539000000000000000e+03 1.693968582153320312e+01 -8.403614044189453125e+00 -7.665491104125976562e-01 4.536308765411376953e+00 1.130927920341491699e+00 6.108810901641845703e-01
2.540000000000000000e+03 1.763774871826171875e+01 -9.010942459106445312e+00 -7.191883325576782227e-01 3.664175271987915039e+00 8.834961056709289551e-01 7.166039347648620605e-01
2.541000000000000000e+03 8.421721458435058594e+00 -2.253930854797363281e+01 5.514488816261291504e-01 5.856792449951171875e+00 1.922472476959228516e+00 1.474410295486450195e+00
2.542000000000000000e+03 1.240821075439453125e+01 1.077235317230224609e+01 -6.023849844932556152e-01 9.850534439086914062e+00 2.774445056915283203e+00 3.422572836279869080e-02
2.543000000000000000e+03 1.236327552795410156e+01 8.122014999389648438e+00 -2.004980564117431641e+00 9.677862167358398438e+00 2.301864385604858398e+00 -2.774551510810852051e-01
2.544000000000000000e+03 2.088008880615234375e+01 1.138989686965942383e+00 2.359292030334472656e+00 -2.327651530504226685e-01 6.379581093788146973e-01 -1.366523355245590210e-01
2.545000000000000000e+03 5.883674621582031250e+01 -7.690990447998046875e+00 5.751649662852287292e-02 1.625055789947509766e+00 5.047717094421386719e-01 9.981284141540527344e-01
2.546000000000000000e+03 5.683063888549804688e+01 -8.913606643676757812e+00 -2.842324376106262207e-01 1.466496109962463379e+00 3.546791076660156250e-01 1.425338029861450195e+00
2.547000000000000000e+03 1.854150390625000000e+01 7.331929802894592285e-01 2.908671617507934570e+00 1.814042448997497559e+00 1.416814208030700684e+00 -3.641844987869262695e-01
2.548000000000000000e+03 1.855045700073242188e+01 2.208423376083374023e+00 2.031484842300415039e+00 1.794038176536560059e+00 1.147656917572021484e+00 -1.360257565975189209e-01
2.549000000000000000e+03 1.230993175506591797e+01 -1.265569591522216797e+01 -1.098273158073425293e+00 9.075128555297851562e+00 2.393056631088256836e+00 3.655397891998291016e-02
2.550000000000000000e+03 4.618247985839843750e+00 -9.023697853088378906e+00 -2.291975617408752441e-01 2.833000183105468750e+00 7.811407446861267090e-01 5.980330109596252441e-01
2.551000000000000000e+03 6.246237277984619141e+00 -2.492938995361328125e+01 -3.764495998620986938e-02 4.834318161010742188e+00 1.439002037048339844e+00 1.463686585426330566e+00
2.552000000000000000e+03 7.263730621337890625e+01 1.347081947326660156e+01 5.243666172027587891e-01 6.954605102539062500e+00 2.243691682815551758e+00 1.501889824867248535e-01
2.553000000000000000e+03 6.754482269287109375e+01 1.325905418395996094e+01 9.830682277679443359e-01 7.940534114837646484e+00 2.677080631256103516e+00 1.634511202573776245e-01
2.554000000000000000e+03 7.103456115722656250e+01 -2.875150299072265625e+01 -9.668314456939697266e-01 7.980731010437011719e+00 2.104169845581054688e+00 -1.622346192598342896e-01
2.555000000000000000e+03 7.569172382354736328e+00 1.919641304016113281e+01 7.044110298156738281e-01 5.513688564300537109e+00 1.865429878234863281e+00 -1.374427795410156250e+00
2.556000000000000000e+03 7.609805583953857422e+00 -2.368840980529785156e+01 2.264416664838790894e-01 5.358200073242187500e+00 1.675392508506774902e+00 1.535277009010314941e+00
2.557000000000000000e+03 6.960716724395751953e+00 -2.067338180541992188e+01 6.777934432029724121e-01 4.866177082061767578e+00 1.663191080093383789e+00 1.200269222259521484e+00
2.558000000000000000e+03 6.012375354766845703e+00 -1.399360942840576172e+01 5.298390984535217285e-02 4.274826526641845703e+00 1.298343181610107422e+00 1.794040501117706299e-01
2.559000000000000000e+03 5.064640045166015625e+00 -1.528415107727050781e+01 2.435398995876312256e-01 3.517913103103637695e+00 1.128435850143432617e+00 2.605428099632263184e-01
2.560000000000000000e+03 7.386027526855468750e+01 -3.434151458740234375e+01 -3.175713121891021729e-01 8.036126136779785156e+00 2.315566539764404297e+00 -1.570296436548233032e-01
2.561000000000000000e+03 7.388638305664062500e+01 2.206456756591796875e+01 -4.022608324885368347e-02 7.115944385528564453e+00 2.122715473175048828e+00 6.196924448013305664e-01
2.562000000000000000e+03 7.355458831787109375e+01 2.106337547302246094e+01 2.054391428828239441e-02 7.087519645690917969e+00 2.132419109344482422e+00 6.392289400100708008e-01
2.563000000000000000e+03 7.251519012451171875e+01 2.458614730834960938e+01 -2.589930593967437744e-01 7.126638889312744141e+00 2.060293674468994141e+00 5.343002676963806152e-01
2.564000000000000000e+03 2.884541702270507812e+01 -3.300583362579345703e+00 2.501378536224365234e+00 1.036781430244445801e+00 1.061447978019714355e+00 1.371158659458160400e-01
2.565000000000000000e+03 7.389068603515625000e+01 -2.255173492431640625e+01 5.028402209281921387e-01 9.125706672668457031e+00 2.888564109802246094e+00 -1.203138828277587891e+00
2.566000000000000000e+03 7.259577941894531250e+01 -2.171017074584960938e+01 1.065191149711608887e+00 1.003678417205810547e+01 3.330592632293701172e+00 -9.532121419906616211e-01
2.567000000000000000e+03 7.053554058074951172e+00 2.839421463012695312e+01 -6.349868774414062500e-01 5.095418930053710938e+00 1.338129639625549316e+00 -8.208555579185485840e-01
2.568000000000000000e+03 9.162223815917968750e+00 3.220275878906250000e+01 -5.860353112220764160e-01 4.870824337005615234e+00 1.285436630249023438e+00 -2.484059780836105347e-01
2.569000000000000000e+03 8.591002464294433594e+00 -3.394236755371093750e+01 -6.566508412361145020e-01 4.894988536834716797e+00 1.271501302719116211e+00 4.954307377338409424e-01
2.570000000000000000e+03 9.546678543090820312e+00 -2.670817184448242188e+01 -5.596353411674499512e-01 5.985076427459716797e+00 1.627632379531860352e+00 1.238791227340698242e+00
2.571000000000000000e+03 7.152079772949218750e+01 2.312791633605957031e+01 -2.210928648710250854e-01 7.162288665771484375e+00 2.082358598709106445e+00 6.081674695014953613e-01
2.572000000000000000e+03 7.283933258056640625e+01 1.676624488830566406e+01 3.698786199092864990e-01 7.002288818359375000e+00 2.211650133132934570e+00 4.647951722145080566e-01
2.573000000000000000e+03 7.317835235595703125e+01 -2.658614158630371094e+01 -5.060917139053344727e-01 8.930414199829101562e+00 2.527296543121337891e+00 -1.035861849784851074e+00
2.574000000000000000e+03 7.437089538574218750e+01 -2.515200614929199219e+01 -2.120691388845443726e-01 8.936208724975585938e+00 2.617241859436035156e+00 -1.248792886734008789e+00
2.575000000000000000e+03 3.923456573486328125e+01 1.693878173828125000e+01 6.177981942892074585e-02 6.610610008239746094e+00 2.001716852188110352e+00 1.052893161773681641e+00
2.576000000000000000e+03 3.999044799804687500e+01 -1.379941844940185547e+01 1.518841981887817383e+00 8.400181770324707031e+00 2.975707292556762695e+00 -1.425671100616455078e+00
2.577000000000000000e+03 4.023125457763671875e+01 -1.528781032562255859e+01 1.831801772117614746e+00 8.656169891357421875e+00 3.146391630172729492e+00 -1.514332294464111328e+00
2.578000000000000000e+03 6.759191131591796875e+01 8.757658958435058594e+00 9.177897572517395020e-01 7.529087543487548828e+00 2.534063100814819336e+00 -4.621097072958946228e-02
2.579000000000000000e+03 4.854568099975585938e+01 -1.170128154754638672e+01 9.874534010887145996e-01 1.838495969772338867e+00 8.477848172187805176e-01 2.106840372085571289e+00
2.580000000000000000e+03 7.314788818359375000e+01 -1.841079711914062500e+01 1.639849543571472168e+00 9.768738746643066406e+00 3.422576427459716797e+00 -1.292010545730590820e-01
2.581000000000000000e+03 7.504994964599609375e+01 -1.530336570739746094e+01 7.237999439239501953e-01 8.513419151306152344e+00 2.771165847778320312e+00 7.848286032676696777e-01
2.582000000000000000e+03 7.463854217529296875e+01 -1.868607139587402344e+01 1.204909086227416992e+00 8.748902320861816406e+00 2.986143350601196289e+00 -2.334436774253845215e-01
2.583000000000000000e+03 7.331909179687500000e+01 -6.812151908874511719e+00 -8.123441338539123535e-01 7.980607986450195312e+00 2.150479078292846680e+00 -4.033208191394805908e-01
2.584000000000000000e+03 6.988702392578125000e+01 5.270223617553710938e+00 5.039767622947692871e-01 6.977078914642333984e+00 2.244316577911376953e+00 -5.472519397735595703e-01
2.585000000000000000e+03 7.421476745605468750e+01 -1.167841720581054688e+01 -5.991297364234924316e-01 8.869549751281738281e+00 2.481126070022583008e+00 7.696052193641662598e-01
2.586000000000000000e+03 7.405135345458984375e+01 -9.509576797485351562e+00 -8.844864368438720703e-01 8.606620788574218750e+00 2.316640138626098633e+00 2.621799409389495850e-01
2.587000000000000000e+03 7.218227386474609375e+01 -8.239607810974121094e+00 -1.196040987968444824e+00 8.244481086730957031e+00 2.114531993865966797e+00 -4.389986097812652588e-01
2.588000000000000000e+03 7.315431213378906250e+01 -4.634297192096710205e-01 -1.199432983994483948e-01 7.136856555938720703e+00 2.105073928833007812e+00 -8.241938948631286621e-01
2.589000000000000000e+03 7.305879974365234375e+01 8.390784859657287598e-01 6.609935313463211060e-03 7.051100254058837891e+00 2.117313146591186523e+00 -8.470982909202575684e-01
2.590000000000000000e+03 7.413066101074218750e+01 1.236555862426757812e+01 3.665283024311065674e-01 6.794830799102783203e+00 2.148407697677612305e+00 1.936673745512962341e-02
2.591000000000000000e+03 7.111027526855468750e+01 1.245389747619628906e+01 6.912798881530761719e-01 7.126996517181396484e+00 2.345483064651489258e+00 6.050788983702659607e-02
2.592000000000000000e+03 7.191329956054687500e+01 -2.674242782592773438e+01 -7.621041536331176758e-01 8.884347915649414062e+00 2.436672925949096680e+00 -6.172809600830078125e-01
2.593000000000000000e+03 7.516629791259765625e+01 1.947035980224609375e+01 1.008103638887405396e-01 6.940626621246337891e+00 2.112431049346923828e+00 5.301383137702941895e-01
2.594000000000000000e+03 7.262229919433593750e+01 2.150661277770996094e+01 4.426327534019947052e-03 7.131462097167968750e+00 2.140766620635986328e+00 6.645083427429199219e-01
2.595000000000000000e+03 1.124871635437011719e+01 -2.845298385620117188e+01 -9.888169169425964355e-01 5.911562919616699219e+00 1.476823806762695312e+00 6.156918406486511230e-01
2.596000000000000000e+03 5.497769165039062500e+01 -9.460876464843750000e+00 -3.474618196487426758e-01 1.389618992805480957e+00 3.126471638679504395e-01 1.790951013565063477e+00
2.597000000000000000e+03 1.031589317321777344e+01 2.272899627685546875e+01 -4.603332877159118652e-01 7.099150180816650391e+00 1.991645097732543945e+00 -1.189475417137145996e+00
2.598000000000000000e+03 9.993063926696777344e+00 -1.538923168182373047e+01 8.972885608673095703e-01 7.580312728881835938e+00 2.543280363082885742e+00 -1.674913987517356873e-02
2.599000000000000000e+03 3.823826980590820312e+01 1.629317665100097656e+01 1.559726744890213013e-01 7.176014900207519531e+00 2.199596405029296875e+00 6.345041394233703613e-01
2.600000000000000000e+03 3.589013290405273438e+01 1.581823444366455078e+01 3.181524574756622314e-01 7.801919937133789062e+00 2.436021566390991211e+00 -5.309906601905822754e-01
2.601000000000000000e+03 6.032031536102294922e+00 -1.296515941619873047e+01 -1.584461927413940430e-01 4.330086708068847656e+00 1.251492261886596680e+00 1.778430491685867310e-01
2.602000000000000000e+03 5.364057540893554688e+00 1.599096202850341797e+01 4.622800052165985107e-01 3.813299179077148438e+00 1.282673716545104980e+00 -7.984213829040527344e-01
2.603000000000000000e+03 9.920625686645507812e+00 1.772011375427246094e+01 1.340922117233276367e+00 7.389594078063964844e+00 2.619154930114746094e+00 -1.046480774879455566e+00
2.604000000000000000e+03 7.175498962402343750e+01 -3.372906875610351562e+01 -5.531628131866455078e-01 7.345651626586914062e+00 2.037746667861938477e+00 3.666907316073775291e-03
2.605000000000000000e+03 5.686950683593750000e+00 1.904382705688476562e+01 4.687000811100006104e-01 4.275839328765869141e+00 1.423361897468566895e+00 -1.266475677490234375e+00
2.606000000000000000e+03 6.427009105682373047e+00 1.445896339416503906e+01 4.815079271793365479e-01 4.690936088562011719e+00 1.551733136177062988e+00 -5.218859910964965820e-01
2.607000000000000000e+03 5.431742668151855469e+00 1.238643741607666016e+01 1.478924751281738281e-01 3.749233245849609375e+00 1.169137716293334961e+00 -4.175582230091094971e-01
2.608000000000000000e+03 5.174914836883544922e+00 1.499549579620361328e+01 3.181019127368927002e-01 3.555227994918823242e+00 1.161998987197875977e+00 -5.977762341499328613e-01
2.609000000000000000e+03 1.032975006103515625e+01 1.391732501983642578e+01 8.572402000427246094e-01 8.304669380187988281e+00 2.748572826385498047e+00 -2.749010622501373291e-01
2.610000000000000000e+03 6.277202606201171875e+01 -2.281014442443847656e+00 7.889499068260192871e-01 4.005299568176269531e+00 1.438274860382080078e+00 2.560214996337890625e-01
2.611000000000000000e+03 6.117972850799560547e+00 -1.506929206848144531e+01 2.925098538398742676e-01 4.335127353668212891e+00 1.388291120529174805e+00 2.069357633590698242e-01
2.612000000000000000e+03 6.008954048156738281e+00 1.531997203826904297e+01 5.340049266815185547e-01 4.353698730468750000e+00 1.466311097145080566e+00 -7.282940149307250977e-01
2.613000000000000000e+03 2.114391708374023438e+01 -5.073079586029052734e+00 1.872889041900634766e+00 4.327487349510192871e-01 6.916913390159606934e-01 -2.639391422271728516e-01
2.614000000000000000e+03 7.759909152984619141e+00 3.582755279541015625e+01 -2.979867458343505859e-01 4.681993007659912109e+00 1.315201878547668457e+00 -1.688518375158309937e-01
2.615000000000000000e+03 1.092941474914550781e+01 2.146506690979003906e+01 -7.231998443603515625e-02 7.490922451019287109e+00 2.225580692291259766e+00 -1.390828609466552734e+00
2.616000000000000000e+03 6.087356567382812500e+01 -2.754416465759277344e+00 1.083613991737365723e+00 3.271230697631835938e+00 1.306453466415405273e+00 8.421398997306823730e-01
2.617000000000000000e+03 6.336380481719970703e+00 1.237412834167480469e+01 1.475175023078918457e-01 4.733360767364501953e+00 1.464263439178466797e+00 -4.308395385742187500e-01
2.618000000000000000e+03 1.627999496459960938e+01 4.284625530242919922e+00 2.460005581378936768e-01 5.370557308197021484e+00 1.684967398643493652e+00 2.164951115846633911e-01
2.619000000000000000e+03 1.717137718200683594e+01 2.379876136779785156e+00 2.090445041656494141e+00 3.617780447006225586e+00 1.712467551231384277e+00 2.539877779781818390e-02
2.620000000000000000e+03 2.241366004943847656e+01 -3.707387924194335938e+00 2.568666219711303711e+00 -2.721124887466430664e-01 6.889661550521850586e-01 -5.755477026104927063e-02
2.621000000000000000e+03 1.157095527648925781e+01 8.897724151611328125e+00 -1.593590497970581055e+00 9.469532012939453125e+00 2.362782478332519531e+00 -2.305691391229629517e-01
2.622000000000000000e+03 3.427266693115234375e+01 -3.075754928588867188e+01 -8.044547438621520996e-01 4.708395004272460938e+00 1.171182155609130859e+00 1.362796664237976074e+00
2.623000000000000000e+03 3.861684036254882812e+01 -3.075888442993164062e+01 -7.550529837608337402e-01 6.615272998809814453e+00 1.758065938949584961e+00 5.634115934371948242e-01
2.624000000000000000e+03 2.435593605041503906e+01 -4.528592109680175781e+00 2.084611654281616211e+00 -6.474191546440124512e-01 4.311577677726745605e-01 1.415320932865142822e-01
2.625000000000000000e+03 4.156317901611328125e+01 -1.508993434906005859e+01 1.758937478065490723e+00 7.926363945007324219e+00 2.905590295791625977e+00 -1.002924203872680664e+00
2.626000000000000000e+03 5.425054168701171875e+01 -1.144302082061767578e+01 -4.048185944557189941e-01 7.952065467834472656e-01 1.171163842082023621e-01 1.643314123153686523e+00
2.627000000000000000e+03 5.364804840087890625e+01 -9.041305541992187500e+00 -1.366830170154571533e-01 1.549430131912231445e+00 4.238241612911224365e-01 2.179017782211303711e+00
2.628000000000000000e+03 1.395010185241699219e+01 -9.787397384643554688e+00 -2.059218168258666992e+00 8.213449478149414062e+00 1.846269249916076660e+00 7.988292574882507324e-01
2.629000000000000000e+03 2.340150451660156250e+01 -2.688541173934936523e+00 2.864985942840576172e+00 -6.979306936264038086e-01 6.501166224479675293e-01 8.099433779716491699e-02
2.630000000000000000e+03 2.159632492065429688e+01 -4.002188205718994141e+00 2.409812211990356445e+00 3.804370760917663574e-02 7.343567609786987305e-01 -1.805928051471710205e-01
2.631000000000000000e+03 3.884564208984375000e+01 -2.631850624084472656e+01 8.578360080718994141e-01 7.927356243133544922e+00 2.635557651519775391e+00 5.272193998098373413e-02
2.632000000000000000e+03 3.699691772460937500e+01 -2.712906837463378906e+01 1.875453293323516846e-01 7.076919555664062500e+00 2.179339408874511719e+00 7.609874010086059570e-01
2.633000000000000000e+03 6.852084636688232422e+00 1.591106510162353516e+01 6.972778439521789551e-01 4.990377426147460938e+00 1.706296563148498535e+00 -7.469140887260437012e-01
2.634000000000000000e+03 6.595202636718750000e+01 2.130543899536132812e+01 -3.487393558025360107e-01 7.402606487274169922e+00 2.116160154342651367e+00 3.988435566425323486e-01
2.635000000000000000e+03 4.478735351562500000e+01 -9.536257743835449219e+00 1.228686645627021790e-01 3.138869762420654297e+00 9.785215854644775391e-01 1.632399111986160278e-01
2.636000000000000000e+03 5.089628982543945312e+01 -1.029720497131347656e+01 3.184797465801239014e-01 1.048179149627685547e+00 4.099976718425750732e-01 2.536096572875976562e+00
2.637000000000000000e+03 4.952050018310546875e+01 -9.177095413208007812e+00 2.239048928022384644e-01 8.072604537010192871e-01 3.093495965003967285e-01 2.586219787597656250e+00
2.638000000000000000e+03 4.383867645263671875e+01 -1.319094944000244141e+01 1.109266400337219238e+00 5.713197708129882812e+00 2.046739101409912109e+00 -1.060299109667539597e-02
2.639000000000000000e+03 4.565214157104492188e+01 -1.129640483856201172e+01 6.801749467849731445e-01 3.463258266448974609e+00 1.243029952049255371e+00 8.152391314506530762e-01
2.640000000000000000e+03 4.333301925659179688e+01 2.026023292541503906e+01 -2.951902449131011963e-01 3.863101243972778320e+00 1.070373296737670898e+00 1.576283335685729980e+00
2.641000000000000000e+03 4.157521820068359375e+01 2.078269958496093750e+01 -5.694409012794494629e-01 4.653359889984130859e+00 1.225175738334655762e+00 1.341769576072692871e+00
2.642000000000000000e+03 4.856578445434570312e+01 2.696846389770507812e+01 -3.519409894943237305e-01 2.072566986083984375e+00 5.161877870559692383e-01 1.185675740242004395e+00
2.643000000000000000e+03 5.092204666137695312e+01 2.584853553771972656e+01 -3.549623489379882812e-01 1.346691489219665527e+00 2.975187301635742188e-01 8.939403295516967773e-01
2.644000000000000000e+03 4.185259246826171875e+01 -2.919179916381835938e+01 1.170394420623779297e-01 7.840863704681396484e+00 2.387371063232421875e+00 -3.049107491970062256e-01
2.645000000000000000e+03 4.371239852905273438e+01 -2.743812179565429688e+01 1.209622383117675781e+00 8.536487579345703125e+00 2.923832893371582031e+00 -1.049130558967590332e+00
2.646000000000000000e+03 5.706908798217773438e+01 -1.067506694793701172e+01 -9.488648176193237305e-01 1.030552625656127930e+00 2.450634352862834930e-02 1.005638480186462402e+00
2.647000000000000000e+03 5.868637084960937500e+01 -9.123418807983398438e+00 -5.588175654411315918e-01 1.228857636451721191e+00 2.010120302438735962e-01 9.753805994987487793e-01
2.648000000000000000e+03 1.166274166107177734e+01 -2.412364006042480469e+01 -6.711243093013763428e-02 7.352045536041259766e+00 2.185479879379272461e+00 8.695648908615112305e-01
2.649000000000000000e+03 5.998689651489257812e+01 -6.352878093719482422e+00 3.641479313373565674e-01 2.000197649002075195e+00 7.093036770820617676e-01 7.026714086532592773e-01
2.650000000000000000e+03 4.775332641601562500e+01 2.453740882873535156e+01 -6.003736853599548340e-01 2.151526451110839844e+00 4.653457999229431152e-01 1.350907564163208008e+00
2.651000000000000000e+03 1.601472663879394531e+01 -8.976154327392578125e+00 -1.261417031288146973e+00 5.691342353820800781e+00 1.328977704048156738e+00 8.234107494354248047e-01
2.652000000000000000e+03 1.248709678649902344e+01 2.627859878540039062e+01 -1.382755517959594727e+00 5.884379863739013672e+00 1.350487351417541504e+00 2.254809066653251648e-02
2.653000000000000000e+03 6.764379119873046875e+01 -9.213935852050781250e+00 -1.681074619293212891e+00 6.306871891021728516e+00 1.387739181518554688e+00 -2.306069612503051758e+00
2.654000000000000000e+03 6.718546295166015625e+01 1.061905479431152344e+01 9.662912487983703613e-01 7.914713859558105469e+00 2.664301633834838867e+00 7.281142473220825195e-02
2.655000000000000000e+03 1.682102203369140625e+01 -3.149830818176269531e+01 -1.040629506111145020e+00 3.451104402542114258e+00 7.231424450874328613e-01 -7.813997864723205566e-01
2.656000000000000000e+03 3.932251739501953125e+01 -6.486414432525634766e+00 -2.094214439392089844e+00 8.418904304504394531e+00 1.897406935691833496e+00 -1.681805968284606934e+00
2.657000000000000000e+03 9.601268768310546875e+00 2.079440689086914062e+01 6.189981698989868164e-01 6.874670505523681641e+00 2.248100757598876953e+00 -1.529012560844421387e+00
2.658000000000000000e+03 7.220093727111816406e+00 1.750012397766113281e+01 7.914035916328430176e-01 5.324795246124267578e+00 1.834859609603881836e+00 -1.073751807212829590e+00
2.659000000000000000e+03 4.181090545654296875e+01 -1.660145187377929688e+01 1.972114324569702148e+00 8.356638908386230469e+00 3.098625898361206055e+00 -1.009929776191711426e+00
2.660000000000000000e+03 3.216971969604492188e+01 -4.575188159942626953e+00 2.879052162170410156e-01 5.293401718139648438e+00 1.674392104148864746e+00 -6.994491219520568848e-01
2.661000000000000000e+03 2.037382507324218750e+01 -3.517708587646484375e+01 -3.550848364830017090e-01 1.730258941650390625e+00 4.125522375106811523e-01 -5.927970409393310547e-01
2.662000000000000000e+03 5.945626449584960938e+01 -4.894565582275390625e+00 8.599934577941894531e-01 2.360391139984130859e+00 9.661153554916381836e-01 9.755598902702331543e-01
2.663000000000000000e+03 6.055929946899414062e+01 -5.448263645172119141e+00 6.615770459175109863e-01 2.296616077423095703e+00 8.874579668045043945e-01 5.925366878509521484e-01
2.664000000000000000e+03 6.638122558593750000e+01 3.472132205963134766e+00 6.142385601997375488e-01 6.670852184295654297e+00 2.185527086257934570e+00 -2.002871334552764893e-01
2.665000000000000000e+03 6.249621963500976562e+01 -2.886612117290496826e-01 8.908061385154724121e-01 4.689341068267822266e+00 1.674044251441955566e+00 6.508162617683410645e-01
2.666000000000000000e+03 6.913384246826171875e+01 1.418564796447753906e+01 8.563697934150695801e-01 7.506991863250732422e+00 2.509008407592773438e+00 2.385538965463638306e-01
2.667000000000000000e+03 6.723857116699218750e+01 9.545816421508789062e+00 9.423259496688842773e-01 7.751864910125732422e+00 2.608257293701171875e+00 7.700707018375396729e-02
2.668000000000000000e+03 7.285570526123046875e+01 8.330120086669921875e+00 4.438837468624114990e-01 6.907222270965576172e+00 2.205331802368164062e+00 -3.767336905002593994e-01
2.669000000000000000e+03 3.045668411254882812e+01 2.478347778320312500e+01 -1.116221427917480469e+00 3.793806552886962891e+00 8.032755255699157715e-01 -1.183040261268615723e+00
2.670000000000000000e+03 9.880060195922851562e+00 1.499854183197021484e+01 1.176087498664855957e+00 7.552458286285400391e+00 2.618563890457153320e+00 -3.774773478507995605e-01
2.671000000000000000e+03 1.074031257629394531e+01 1.282580089569091797e+01 5.469161272048950195e-01 8.470964431762695312e+00 2.705364227294921875e+00 -9.726500511169433594e-02
2.672000000000000000e+03 6.819377899169921875e+01 8.076904296875000000e+00 8.682740926742553711e-01 7.402028083801269531e+00 2.481090545654296875e+00 -1.432913243770599365e-01
2.673000000000000000e+03 6.849379730224609375e+01 1.045676231384277344e+01 9.009687900543212891e-01 7.486779212951660156e+00 2.516324281692504883e+00 -2.215680293738842010e-02
2.674000000000000000e+03 3.380046844482421875e+01 -3.244929885864257812e+01 -8.508972525596618652e-01 4.110389709472656250e+00 9.778478145599365234e-01 1.352220654487609863e+00
2.675000000000000000e+03 3.686505508422851562e+01 -3.125903892517089844e+01 -8.591375946998596191e-01 5.878909111022949219e+00 1.505931496620178223e+00 9.646820425987243652e-01
2.676000000000000000e+03 6.119432067871093750e+01 2.383932495117187500e+01 -1.055650711059570312e+00 4.607656478881835938e+00 1.065601706504821777e+00 -1.706625342369079590e+00
2.677000000000000000e+03 5.874179077148437500e+01 2.724476814270019531e+01 -1.985778659582138062e-01 2.496086597442626953e+00 6.892526149749755859e-01 -9.876322150230407715e-01
2.678000000000000000e+03 1.996662330627441406e+01 -3.320194244384765625e+01 -6.668983101844787598e-01 1.750992655754089355e+00 3.252283036708831787e-01 -8.036896586418151855e-01
2.679000000000000000e+03 4.241997909545898438e+01 -9.541948318481445312e+00 -2.018346786499023438e-01 5.320263862609863281e+00 1.535528779029846191e+00 -8.917281031608581543e-01
2.680000000000000000e+03 4.136165237426757812e+01 -8.495059013366699219e+00 -8.902884125709533691e-01 6.091066837310791016e+00 1.560233473777770996e+00 -1.282668232917785645e+00
2.681000000000000000e+03 7.164694213867187500e+01 -2.148744773864746094e+01 1.304175376892089844e+00 1.062667942047119141e+01 3.579256534576416016e+00 -7.095504999160766602e-01
2.682000000000000000e+03 7.456655025482177734e+00 -1.571521949768066406e+01 5.701621770858764648e-01 5.293851852416992188e+00 1.759204149246215820e+00 2.072360515594482422e-01
2.683000000000000000e+03 6.557975006103515625e+01 -2.913530588150024414e+00 2.639481723308563232e-01 4.874905109405517578e+00 1.541656017303466797e+00 -7.581635713577270508e-01
2.684000000000000000e+03 6.369887161254882812e+01 -1.040370702743530273e+00 7.181675434112548828e-01 4.746276378631591797e+00 1.639333248138427734e+00 1.424932181835174561e-01
2.685000000000000000e+03 3.647298431396484375e+01 -7.772843360900878906e+00 -1.638772368431091309e+00 9.404138565063476562e+00 2.329609870910644531e+00 -1.516732573509216309e+00
2.686000000000000000e+03 6.579772186279296875e+01 1.854920148849487305e+00 5.431703925132751465e-01 6.220884323120117188e+00 2.029216289520263672e+00 -1.732685416936874390e-01
2.687000000000000000e+03 3.571521759033203125e+01 -6.228303432464599609e+00 -1.789118766784667969e+00 9.195317268371582031e+00 2.221859455108642578e+00 -1.330106735229492188e+00
2.688000000000000000e+03 3.482415008544921875e+01 -6.442710876464843750e+00 -1.619543552398681641e+00 8.779909133911132812e+00 2.148109674453735352e+00 -1.539085865020751953e+00
2.689000000000000000e+03 7.427355957031250000e+01 9.720842242240905762e-01 -2.206337265670299530e-02 7.139694213867187500e+00 2.135289192199707031e+00 -7.430667281150817871e-01
2.690000000000000000e+03 3.289214324951171875e+01 2.149569129943847656e+01 -5.048494338989257812e-01 5.560300350189208984e+00 1.516635298728942871e+00 -6.843869686126708984e-01
2.691000000000000000e+03 3.245650863647460938e+01 2.312286949157714844e+01 -1.033356904983520508e+00 4.926808357238769531e+00 1.168035507202148438e+00 -7.574617862701416016e-01
2.692000000000000000e+03 4.617634201049804688e+01 -1.244822597503662109e+01 1.146076202392578125e+00 3.536597251892089844e+00 1.404802083969116211e+00 1.205641508102416992e+00
2.693000000000000000e+03 7.126980590820312500e+01 -3.028622817993164062e+01 -9.161552190780639648e-01 7.648536682128906250e+00 2.019714355468750000e+00 -1.001629829406738281e-01
2.694000000000000000e+03 7.223992156982421875e+01 -2.828411865234375000e+01 -9.145807623863220215e-01 8.443634986877441406e+00 2.258716106414794922e+00 -5.211063623428344727e-01
2.695000000000000000e+03 4.796445846557617188e+01 -3.597888183593750000e+01 -7.771655321121215820e-01 4.243701934814453125e+00 1.039960980415344238e+00 -1.500920176506042480e+00
2.696000000000000000e+03 4.105458450317382812e+01 -1.205487251281738281e+01 7.576223015785217285e-01 7.236021518707275391e+00 2.398093223571777344e+00 -1.040399670600891113e+00
2.697000000000000000e+03 8.156371116638183594e+00 -1.977449798583984375e+01 1.087745666503906250e+00 5.776348114013671875e+00 2.059228181838989258e+00 1.034667611122131348e+00
2.698000000000000000e+03 7.449253845214843750e+01 -5.473745822906494141e+00 -5.223662257194519043e-01 7.802528381347656250e+00 2.184048652648925781e+00 -4.206321537494659424e-01
2.699000000000000000e+03 7.406832885742187500e+01 1.958197784423828125e+01 1.355304718017578125e-01 6.992721080780029297e+00 2.138475418090820312e+00 5.893490314483642578e-01
2.700000000000000000e+03 7.252725982666015625e+01 1.925298881530761719e+01 2.037711441516876221e-01 7.078200817108154297e+00 2.184591531753540039e+00 6.248075962066650391e-01
2.701000000000000000e+03 5.661314964294433594e+00 -2.757909059524536133e+00 1.063297629356384277e+00 9.697921276092529297e-01 6.099269390106201172e-01 8.083320856094360352e-01
2.702000000000000000e+03 8.967443466186523438e+00 2.426359653472900391e+00 1.590440034866333008e+00 7.954843521118164062e+00 2.863584995269775391e+00 -4.776695251464843750e+00
2.703000000000000000e+03 9.359889030456542969e+00 2.226308345794677734e+00 1.352830052375793457e+00 1.004279899597167969e+01 3.418688774108886719e+00 -5.134949684143066406e+00
2.704000000000000000e+03 6.245062351226806641e+00 2.398084163665771484e+00 1.118623971939086914e+00 1.152901053428649902e+00 6.814575195312500000e-01 -1.006913900375366211e+00
2.705000000000000000e+03 5.869383811950683594e+00 2.761862754821777344e+00 1.026565313339233398e+00 1.195978283882141113e+00 6.667630672454833984e-01 -8.625652790069580078e-01
2.706000000000000000e+03 6.852481365203857422e+00 -2.530736446380615234e+00 1.673980832099914551e+00 1.818643331527709961e+00 1.047787189483642578e+00 1.810033798217773438e+00
2.707000000000000000e+03 9.041169166564941406e+00 -3.023351907730102539e+00 1.011274337768554688e+00 8.088961601257324219e+00 2.730070829391479492e+00 4.076398849487304688e+00
2.708000000000000000e+03 7.492636680603027344e+00 2.248747110366821289e+00 1.908946275711059570e+00 2.467386960983276367e+00 1.312899947166442871e+00 -2.487012624740600586e+00
2.709000000000000000e+03 6.672847747802734375e+00 -2.767802715301513672e+00 1.569600105285644531e+00 1.835076451301574707e+00 1.021402955055236816e+00 1.736723423004150391e+00
2.710000000000000000e+03 8.099549293518066406e+00 -2.983228683471679688e+00 1.699153065681457520e+00 4.844027996063232422e+00 1.962954282760620117e+00 3.497259378433227539e+00
2.711000000000000000e+03 7.068701267242431641e+00 -2.666613101959228516e+00 1.811997771263122559e+00 2.291469573974609375e+00 1.231040239334106445e+00 2.186970233917236328e+00
2.712000000000000000e+03 7.467503070831298828e+00 2.501674413681030273e+00 1.860804319381713867e+00 2.753697156906127930e+00 1.384350419044494629e+00 -2.600990056991577148e+00
2.713000000000000000e+03 6.628081321716308594e+00 2.915629148483276367e+00 1.376493811607360840e+00 2.011134147644042969e+00 1.016288399696350098e+00 -1.659601092338562012e+00
2.714000000000000000e+03 6.895071029663085938e+00 2.631684541702270508e+00 1.534800529479980469e+00 2.049495935440063477e+00 1.075289011001586914e+00 -1.855446100234985352e+00
2.715000000000000000e+03 7.909424304962158203e+00 -2.745020389556884766e+00 1.914891481399536133e+00 4.030824661254882812e+00 1.783714771270751953e+00 3.261283874511718750e+00
2.716000000000000000e+03 1.036562347412109375e+01 2.602565526962280273e+00 -1.904580444097518921e-01 1.398390197753906250e+01 4.138032913208007812e+00 -2.659410238265991211e+00
2.717000000000000000e+03 9.720168113708496094e+00 -2.542677402496337891e+00 7.295638322830200195e-01 1.135107326507568359e+01 3.624191045761108398e+00 4.062900543212890625e+00
2.718000000000000000e+03 9.137120246887207031e+00 2.814180850982666016e+00 8.670859932899475098e-01 8.830379486083984375e+00 2.909239768981933594e+00 -4.375574111938476562e+00
2.719000000000000000e+03 4.433532714843750000e+00 3.249693155288696289e+00 6.211595535278320312e-01 7.060687541961669922e-01 3.981684744358062744e-01 -1.823130100965499878e-01
2.720000000000000000e+03 1.705349159240722656e+01 3.719062805175781250e+00 8.570171594619750977e-01 4.047628879547119141e+00 1.471393823623657227e+00 1.204051449894905090e-01
2.721000000000000000e+03 5.093272686004638672e+00 -2.763946771621704102e+00 8.319390416145324707e-01 7.178550958633422852e-01 4.649382531642913818e-01 4.757795035839080811e-01
2.722000000000000000e+03 4.777113914489746094e+00 -3.067248106002807617e+00 7.727857232093811035e-01 7.575562596321105957e-01 4.591026008129119873e-01 4.196160435676574707e-01
2.723000000000000000e+03 9.116909980773925781e+00 3.197149753570556641e+00 4.961620271205902100e-01 8.753134727478027344e+00 2.774788856506347656e+00 -3.920151948928833008e+00
2.724000000000000000e+03 1.082232475280761719e+01 -2.464392185211181641e+00 4.839208722114562988e-01 1.461420917510986328e+01 4.529438972473144531e+00 9.416356682777404785e-01
2.725000000000000000e+03 1.167977046966552734e+01 -2.366432189941406250e+00 1.601376771926879883e+00 1.372861194610595703e+01 4.598996639251708984e+00 -1.203062534332275391e+00
2.726000000000000000e+03 1.321379852294921875e+01 5.472368001937866211e-01 6.028839588165283203e+00 9.358165740966796875e+00 4.616101741790771484e+00 4.462652206420898438e-01
2.727000000000000000e+03 1.190957260131835938e+01 -1.912728190422058105e+00 3.036008119583129883e+00 1.359142303466796875e+01 4.988229274749755859e+00 -1.937254071235656738e+00
2.728000000000000000e+03 1.228193569183349609e+01 -1.891774535179138184e+00 3.460621833801269531e+00 1.243104171752929688e+01 4.767498970031738281e+00 -2.199556112289428711e+00
2.729000000000000000e+03 1.262419033050537109e+01 1.110628128051757812e+00 5.549056053161621094e+00 1.137334060668945312e+01 5.076719284057617188e+00 1.581433534622192383e+00
2.730000000000000000e+03 1.222209453582763672e+01 1.692207455635070801e+00 3.639293670654296875e+00 1.285159778594970703e+01 4.947267532348632812e+00 1.737719535827636719e+00
2.731000000000000000e+03 1.429519271850585938e+01 5.684050559997558594e+00 -1.464963078498840332e+00 8.764448165893554688e+00 2.189845561981201172e+00 9.062215685844421387e-02
2.732000000000000000e+03 3.099362850189208984e+00 -3.951697826385498047e+00 3.880411386489868164e-01 4.011472761631011963e-01 2.367565184831619263e-01 3.835313767194747925e-02
2.733000000000000000e+03 4.332370758056640625e+00 -4.204022407531738281e+00 6.431195139884948730e-01 1.078613281250000000e+00 5.165198445320129395e-01 5.340666770935058594e-01
2.734000000000000000e+03 3.252749681472778320e+00 3.173286437988281250e+00 3.112322092056274414e-01 2.363877296447753906e-01 1.642859876155853271e-01 2.183386385440826416e-01
2.735000000000000000e+03 2.324557542800903320e+00 2.717803001403808594e+00 9.284161776304244995e-02 -6.316465139389038086e-02 8.903090842068195343e-03 3.871812820434570312e-01
2.736000000000000000e+03 2.848183631896972656e+00 -3.100945234298706055e+00 2.714782059192657471e-01 1.367905139923095703e-01 1.224806085228919983e-01 -1.768729686737060547e-01
2.737000000000000000e+03 3.466771602630615234e+00 3.822508811950683594e+00 4.259245097637176514e-01 4.789491295814514160e-01 2.714620828628540039e-01 2.462088875472545624e-02
2.738000000000000000e+03 3.956821918487548828e+00 3.461294174194335938e+00 5.166518092155456543e-01 5.497244596481323242e-01 3.199128806591033936e-01 -3.283082693815231323e-02
2.739000000000000000e+03 3.699859380722045898e+00 -5.663448333740234375e+00 3.384558260440826416e-01 1.226257562637329102e+00 4.694140255451202393e-01 4.725058078765869141e-01
2.740000000000000000e+03 6.202511787414550781e+00 -3.366578340530395508e+00 1.252402901649475098e+00 1.933521628379821777e+00 9.557773470878601074e-01 1.503043413162231445e+00
2.741000000000000000e+03 4.038164138793945312e+00 8.453735351562500000e+00 2.922750823199748993e-02 2.216788530349731445e+00 6.738048195838928223e-01 -4.886116683483123779e-01
2.742000000000000000e+03 5.042932987213134766e+00 9.065190315246582031e+00 -6.300248205661773682e-02 3.264580011367797852e+00 9.604732394218444824e-01 -5.922096967697143555e-01
2.743000000000000000e+03 2.540571212768554688e+00 -4.810933113098144531e+00 2.598638832569122314e-01 2.908450663089752197e-01 1.652126908302307129e-01 5.820444971323013306e-02
2.744000000000000000e+03 4.517793655395507812e+00 -8.027987480163574219e+00 -7.310412079095840454e-02 2.582601070404052734e+00 7.528491020202636719e-01 7.070958614349365234e-01
2.745000000000000000e+03 4.556055068969726562e+00 6.785396575927734375e+00 2.052073776721954346e-01 2.305074453353881836e+00 7.530845999717712402e-01 -6.261101365089416504e-01
2.746000000000000000e+03 3.947067499160766602e+00 5.906036376953125000e+00 3.312176167964935303e-01 1.477542996406555176e+00 5.426281690597534180e-01 -4.249157011508941650e-01
2.747000000000000000e+03 3.332443714141845703e+00 -5.288403511047363281e+00 3.777312636375427246e-01 8.972485661506652832e-01 3.824939429759979248e-01 3.452849090099334717e-01
2.748000000000000000e+03 4.738306522369384766e+00 -6.672614574432373047e+00 1.806164681911468506e-01 2.434722423553466797e+00 7.846016883850097656e-01 8.982926607131958008e-01
2.749000000000000000e+03 3.238758563995361328e+00 5.647952556610107422e+00 2.966769635677337646e-01 8.223659396171569824e-01 3.357128798961639404e-01 -2.145166099071502686e-01
2.750000000000000000e+03 3.871024608612060547e+00 7.582245349884033203e+00 1.102356240153312683e-01 1.881199836730957031e+00 5.974306464195251465e-01 -4.242521524429321289e-01
2.751000000000000000e+03 1.291805171966552734e+01 -1.034497928619384766e+01 -1.961912989616394043e+00 8.645265579223632812e+00 2.005005598068237305e+00 5.015453696250915527e-01
2.752000000000000000e+03 6.228993415832519531e+00 -8.945385932922363281e+00 -4.959025382995605469e-01 4.406453132629394531e+00 1.173165202140808105e+00 8.774996995925903320e-01
2.753000000000000000e+03 5.759757041931152344e+00 -1.018268203735351562e+01 -4.317344129085540771e-01 4.056686878204345703e+00 1.087485790252685547e+00 5.453646183013916016e-01
2.754000000000000000e+03 5.290708065032958984e+00 -9.318826675415039062e+00 -3.368710577487945557e-01 3.523568153381347656e+00 9.560091495513916016e-01 6.630700826644897461e-01
2.755000000000000000e+03 1.484756088256835938e+01 4.925078392028808594e+00 -6.842329502105712891e-01 7.719173908233642578e+00 2.110482215881347656e+00 2.480553537607192993e-01
2.756000000000000000e+03 2.004978752136230469e+01 -9.747983217239379883e-01 3.076380252838134766e+00 6.116685867309570312e-01 1.106414675712585449e+00 -4.204930663108825684e-01
2.757000000000000000e+03 2.006950950622558594e+01 4.979690313339233398e-01 2.767465353012084961e+00 3.979543447494506836e-01 9.496259689331054688e-01 -2.878415584564208984e-01
2.758000000000000000e+03 2.195569419860839844e+01 -4.823286533355712891e+00 1.945123910903930664e+00 4.832762479782104492e-02 5.980354547500610352e-01 -1.135248914361000061e-01
2.759000000000000000e+03 1.781734657287597656e+01 -5.006286144256591797e+00 1.466497778892517090e+00 3.340044736862182617e+00 1.441962718963623047e+00 -5.718228220939636230e-01
2.760000000000000000e+03 1.122368431091308594e+01 3.279160737991333008e+00 -6.025969386100769043e-01 1.309619522094726562e+01 3.748079299926757812e+00 -7.514802813529968262e-01
2.761000000000000000e+03 1.192853832244873047e+01 2.039791584014892578e+00 2.367236137390136719e+00 1.379449081420898438e+01 4.848517894744873047e+00 1.422499299049377441e+00
2.762000000000000000e+03 8.850789070129394531e+00 1.451998901367187500e+01 8.305540084838867188e-01 6.759891033172607422e+00 2.277133464813232422e+00 -5.096202492713928223e-01
2.763000000000000000e+03 6.865526199340820312e+00 1.358725643157958984e+01 3.740589022636413574e-01 5.055224895477294922e+00 1.628785133361816406e+00 -4.836312830448150635e-01
2.764000000000000000e+03 6.502443790435791016e+00 1.146302795410156250e+01 -1.693477667868137360e-02 4.799720764160156250e+00 1.434835791587829590e+00 -4.288077652454376221e-01
2.765000000000000000e+03 6.852810668945312500e+01 -8.097604751586914062e+00 -1.359358191490173340e+00 6.623753070831298828e+00 1.579318404197692871e+00 -1.711687445640563965e+00
2.766000000000000000e+03 1.587588119506835938e+01 3.613041400909423828e+00 8.975059986114501953e-01 5.851814746856689453e+00 2.024796247482299805e+00 3.535514771938323975e-01
2.767000000000000000e+03 6.262417221069335938e+01 -6.852926254272460938e+00 1.719945222139358521e-01 2.181949615478515625e+00 7.061832547187805176e-01 -3.139300942420959473e-01
2.768000000000000000e+03 6.467321014404296875e+01 -2.019981861114501953e+00 4.548957347869873047e-01 4.818275451660156250e+00 1.581951379776000977e+00 -3.624805808067321777e-01
2.769000000000000000e+03 4.129242706298828125e+01 -1.359384536743164062e+01 1.302508711814880371e+00 7.479845523834228516e+00 2.634706258773803711e+00 -1.044075846672058105e+00
2.770000000000000000e+03 4.236617279052734375e+01 -1.073817443847656250e+01 3.255196511745452881e-01 5.808913230895996094e+00 1.840329885482788086e+00 -6.348487734794616699e-01
2.771000000000000000e+03 7.252687835693359375e+01 1.551951789855957031e+01 4.746855795383453369e-01 7.010189533233642578e+00 2.245462417602539062e+00 3.578798472881317139e-01
2.772000000000000000e+03 1.169788074493408203e+01 7.358318328857421875e+00 -1.982242941856384277e+00 9.758631706237792969e+00 2.332916736602783203e+00 -5.162327885627746582e-01
2.773000000000000000e+03 1.256166267395019531e+01 -7.386198639869689941e-01 6.796738624572753906e+00 1.099359035491943359e+01 5.337098598480224609e+00 -1.800745368003845215e+00
2.774000000000000000e+03 3.747956848144531250e+01 -3.875348806381225586e+00 -1.584885835647583008e+00 9.688038825988769531e+00 2.430945873260498047e+00 -1.004344224929809570e+00
2.775000000000000000e+03 3.786973190307617188e+01 -5.201009750366210938e+00 -2.075076103210449219e+00 9.342744827270507812e+00 2.180300712585449219e+00 -1.371830821037292480e+00
2.776000000000000000e+03 5.462783336639404297e+00 1.061730003356933594e+01 -7.114770263433456421e-02 3.714852333068847656e+00 1.093111395835876465e+00 -4.546400308609008789e-01
2.777000000000000000e+03 9.272201538085937500e+00 -1.895293807983398438e+01 1.402124643325805664e+00 6.745656013488769531e+00 2.444334268569946289e+00 7.640205621719360352e-01
2.778000000000000000e+03 7.558327674865722656e+00 -1.828656196594238281e+01 9.727948307991027832e-01 5.291399002075195312e+00 1.879258155822753906e+00 7.101874947547912598e-01
2.779000000000000000e+03 3.773044204711914062e+01 1.729728317260742188e+01 -7.476626778952777386e-04 6.877773761749267578e+00 2.063107728958129883e+00 4.435366094112396240e-01
2.780000000000000000e+03 3.693404388427734375e+01 1.696803855895996094e+01 6.645882874727249146e-02 7.223524570465087891e+00 2.186995029449462891e+00 5.700415372848510742e-02
2.781000000000000000e+03 5.781351470947265625e+01 -8.124199867248535156e+00 -1.753869950771331787e-01 1.550633192062377930e+00 4.125738441944122314e-01 1.165972352027893066e+00
2.782000000000000000e+03 1.511860561370849609e+01 -7.851297378540039062e+00 -1.174934029579162598e+00 6.716069698333740234e+00 1.662340760231018066e+00 4.128290712833404541e-01
2.783000000000000000e+03 7.318630218505859375e+01 -7.956432342529296875e+00 -1.026298761367797852e+00 8.296784400939941406e+00 2.181145906448364258e+00 -2.617548406124114990e-01
2.784000000000000000e+03 7.333705902099609375e+01 -5.632634639739990234e+00 -7.047622799873352051e-01 7.773754596710205078e+00 2.120697736740112305e+00 -5.821825861930847168e-01
2.785000000000000000e+03 7.196592712402343750e+01 2.213173484802246094e+01 -9.380090981721878052e-02 7.161045074462890625e+00 2.120173215866088867e+00 6.644538640975952148e-01
2.786000000000000000e+03 7.038059234619140625e+00 -1.943251228332519531e+01 8.679900765419006348e-01 4.810570716857910156e+00 1.703568220138549805e+00 9.504021406173706055e-01
2.787000000000000000e+03 4.496000671386718750e+01 2.261274719238281250e+01 -6.028965115547180176e-01 3.095232725143432617e+00 7.477008700370788574e-01 1.472367048263549805e+00
2.788000000000000000e+03 4.091934967041015625e+01 2.208846473693847656e+01 -7.171846628189086914e-01 4.705318927764892578e+00 1.196440339088439941e+00 1.235509276390075684e+00
2.789000000000000000e+03 3.564443588256835938e+01 -3.637868404388427734e+00 -8.904150724411010742e-01 9.303943634033203125e+00 2.524058580398559570e+00 -6.189706921577453613e-01
2.790000000000000000e+03 7.277111053466796875e+01 3.238201856613159180e+00 2.012000232934951782e-01 6.920764446258544922e+00 2.136589288711547852e+00 -7.516002058982849121e-01
2.791000000000000000e+03 6.749499511718750000e+01 5.890985488891601562e+00 7.485193014144897461e-01 7.034452438354492188e+00 2.334891557693481445e+00 -2.358214855194091797e-01
2.792000000000000000e+03 7.174833679199218750e+01 8.701095581054687500e+00 5.508927106857299805e-01 7.025958061218261719e+00 2.273055076599121094e+00 -3.462668657302856445e-01
2.793000000000000000e+03 7.060034179687500000e+01 -3.564405202865600586e+00 -5.087992548942565918e-01 6.907904148101806641e+00 1.919731378555297852e+00 -1.085094213485717773e+00
2.794000000000000000e+03 7.302689361572265625e+01 -1.679786086082458496e+00 -2.495515942573547363e-01 7.221140384674072266e+00 2.091476678848266602e+00 -8.647601604461669922e-01
2.795000000000000000e+03 1.293470001220703125e+01 -8.770971298217773438e+00 -2.002247810363769531e+00 8.547603607177734375e+00 1.963606715202331543e+00 5.877069830894470215e-01
2.796000000000000000e+03 6.029209899902343750e+01 -7.771042346954345703e+00 -1.016675084829330444e-01 1.589154601097106934e+00 4.462461471557617188e-01 5.887384414672851562e-01
2.797000000000000000e+03 7.920018196105957031e+00 -1.663923835754394531e+01 8.793656229972839355e-01 5.737652301788330078e+00 1.985105395317077637e+00 3.401310741901397705e-01
2.798000000000000000e+03 8.962594032287597656e+00 -1.600138854980468750e+01 8.750137090682983398e-01 6.515035629272460938e+00 2.217014789581298828e+00 1.539398580789566040e-01
2.799000000000000000e+03 6.392520904541015625e+00 -1.619273948669433594e+01 5.170878767967224121e-01 4.486304283142089844e+00 1.501017689704895020e+00 3.249646127223968506e-01
2.800000000000000000e+03 6.729402923583984375e+01 2.071215438842773438e+01 6.324888765811920166e-02 7.476824283599853516e+00 2.262021780014038086e+00 5.661526322364807129e-01
2.801000000000000000e+03 9.055500030517578125e+00 -2.547103691101074219e+01 -2.462675869464874268e-01 5.927554607391357422e+00 1.704385995864868164e+00 1.424696087837219238e+00
2.802000000000000000e+03 8.098208427429199219e+00 -2.724680137634277344e+01 -4.608467817306518555e-01 5.449668884277343750e+00 1.496646642684936523e+00 1.310629367828369141e+00
2.803000000000000000e+03 1.091253185272216797e+01 -2.605745887756347656e+01 -6.143922805786132812e-01 6.450366973876953125e+00 1.750792503356933594e+00 9.548412561416625977e-01
2.804000000000000000e+03 6.431307792663574219e+00 -1.150412940979003906e+01 -4.560554623603820801e-01 4.795366764068603516e+00 1.301793456077575684e+00 3.860709369182586670e-01
2.805000000000000000e+03 9.114659309387207031e+00 -2.125331497192382812e+01 1.019617676734924316e+00 6.373791217803955078e+00 2.218022584915161133e+00 1.335819840431213379e+00
2.806000000000000000e+03 1.136499023437500000e+01 -1.318539237976074219e+01 -5.140201449394226074e-01 8.500925064086914062e+00 2.396071672439575195e+00 -1.097740381956100464e-01
2.807000000000000000e+03 7.363945960998535156e+00 2.511044692993164062e+01 -5.171601772308349609e-01 5.378500938415527344e+00 1.458402156829833984e+00 -1.252759456634521484e+00
2.808000000000000000e+03 7.307526397705078125e+01 1.089156055450439453e+01 4.587101936340332031e-01 6.892348766326904297e+00 2.205317735671997070e+00 -1.237592324614524841e-01
2.809000000000000000e+03 6.880340576171875000e+01 1.297568988800048828e+01 9.045667648315429688e-01 7.528396606445312500e+00 2.529888868331909180e+00 1.281410753726959229e-01
2.810000000000000000e+03 7.336008453369140625e+01 -1.071309471130371094e+01 -7.954360246658325195e-01 8.859317779541015625e+00 2.419164657592773438e+00 4.100423157215118408e-01
2.811000000000000000e+03 7.445513153076171875e+01 -1.288238430023193359e+01 -4.821748472750186920e-03 8.874161720275878906e+00 2.660802125930786133e+00 9.048001170158386230e-01
2.812000000000000000e+03 7.340059661865234375e+01 -1.258825397491455078e+01 -2.377935051918029785e-01 9.159850120544433594e+00 2.676617145538330078e+00 8.217354416847229004e-01
2.813000000000000000e+03 7.252649688720703125e+01 5.417461872100830078e+00 3.212574124336242676e-01 6.917929649353027344e+00 2.171756029129028320e+00 -6.174164414405822754e-01
2.814000000000000000e+03 7.207363128662109375e+01 -3.826674222946166992e+00 -5.433964133262634277e-01 7.308536529541015625e+00 2.029541969299316406e+00 -9.211215376853942871e-01
2.815000000000000000e+03 6.702845764160156250e+01 2.506215095520019531e+00 5.134060382843017578e-01 6.483139038085937500e+00 2.098963499069213867e+00 -4.017996191978454590e-01
2.816000000000000000e+03 7.279924774169921875e+01 -4.604151725769042969e+00 -6.035765409469604492e-01 7.513636112213134766e+00 2.073017835617065430e+00 -7.046240568161010742e-01
2.817000000000000000e+03 7.286965179443359375e+01 1.216191196441650391e+01 4.903687834739685059e-01 6.936260223388671875e+00 2.227988719940185547e+00 -3.403969341889023781e-03
2.818000000000000000e+03 6.190795135498046875e+01 -7.721740245819091797e+00 -1.659313142299652100e-01 1.666008591651916504e+00 4.500231742858886719e-01 -3.664298355579376221e-02
2.819000000000000000e+03 6.364553451538085938e+01 -7.670292377471923828e+00 -2.162873297929763794e-01 2.103581190109252930e+00 5.661882162094116211e-01 -9.157987833023071289e-01
2.820000000000000000e+03 9.292187690734863281e+00 1.884589958190917969e+01 1.016852855682373047e+00 6.917500019073486328e+00 2.380305767059326172e+00 -1.207891464233398438e+00
2.821000000000000000e+03 6.858773040771484375e+01 1.173373794555664062e+01 9.029825925827026367e-01 7.598392009735107422e+00 2.550412416458129883e+00 3.490231186151504517e-02
2.822000000000000000e+03 3.675088882446289062e+01 2.346048545837402344e+01 -1.022615790367126465e+00 5.197824954986572266e+00 1.252562761306762695e+00 2.789536416530609131e-01
2.823000000000000000e+03 3.890052032470703125e+01 -8.947123527526855469e+00 -1.020323157310485840e+00 8.563401222229003906e+00 2.262923479080200195e+00 -1.496460795402526855e+00
2.824000000000000000e+03 3.825937271118164062e+01 -1.014751052856445312e+01 -2.325948178768157959e-01 8.990691184997558594e+00 2.627428770065307617e+00 -1.450847268104553223e+00
2.825000000000000000e+03 3.482450866699218750e+01 -4.500858783721923828e+00 -1.149489879608154297e+00 8.483242034912109375e+00 2.200125455856323242e+00 -9.142733812332153320e-01
2.826000000000000000e+03 7.233232498168945312e+00 3.007137680053710938e+01 -6.039432883262634277e-01 5.026413917541503906e+00 1.326741218566894531e+00 -5.965524911880493164e-01
2.827000000000000000e+03 1.031762695312500000e+01 2.944648742675781250e+01 -8.951254487037658691e-01 5.240926265716552734e+00 1.303740143775939941e+00 -2.600678205490112305e-01
2.828000000000000000e+03 6.738629150390625000e+01 -7.227342605590820312e+00 -1.012971162796020508e+00 5.669512271881103516e+00 1.396962285041809082e+00 -1.903148531913757324e+00
2.829000000000000000e+03 6.390850830078125000e+01 2.408954429626464844e+01 -1.139444947242736816e+00 6.351352214813232422e+00 1.563572168350219727e+00 -5.972432494163513184e-01
2.830000000000000000e+03 8.334050178527832031e+00 2.814507675170898438e+01 -7.627133727073669434e-01 5.306061744689941406e+00 1.363004446029663086e+00 -6.964612007141113281e-01
2.831000000000000000e+03 1.528150653839111328e+01 2.225716781616210938e+01 -8.642479777336120605e-01 7.097800731658935547e+00 1.870065808296203613e+00 2.287636518478393555e+00
2.832000000000000000e+03 8.444999694824218750e+00 -1.514072895050048828e+01 5.440618991851806641e-01 6.290977001190185547e+00 2.050511837005615234e+00 7.851868122816085815e-02
2.833000000000000000e+03 7.202909088134765625e+01 -2.516511344909667969e+01 -3.658838272094726562e-01 9.373879432678222656e+00 2.702398538589477539e+00 -8.455734848976135254e-01
2.834000000000000000e+03 7.091062164306640625e+01 1.881591033935546875e+01 3.218946456909179688e-01 7.190217494964599609e+00 2.253633737564086914e+00 6.309210062026977539e-01
2.835000000000000000e+03 6.095902252197265625e+01 -6.977943897247314453e+00 2.245117574930191040e-01 1.817898750305175781e+00 6.127231717109680176e-01 3.664523959159851074e-01
2.836000000000000000e+03 2.185354804992675781e+01 -1.913700819015502930e+00 2.995713472366333008e+00 -2.902750968933105469e-01 8.116315007209777832e-01 -1.763617694377899170e-01
2.837000000000000000e+03 3.236785125732421875e+01 -3.412757492065429688e+01 -7.158481478691101074e-01 3.222027063369750977e+00 7.518536448478698730e-01 1.332009911537170410e+00
2.838000000000000000e+03 1.473233699798583984e+01 2.661602973937988281e+01 -1.259771585464477539e+00 4.893148899078369141e+00 1.090013146400451660e+00 9.303368926048278809e-01
2.839000000000000000e+03 6.666241455078125000e+01 1.935039710998535156e+01 4.316479563713073730e-01 7.611448764801025391e+00 2.412929058074951172e+00 4.950960576534271240e-01
2.840000000000000000e+03 6.953285217285156250e+01 1.537064552307128906e+01 7.710548043251037598e-01 7.390767574310302734e+00 2.448546648025512695e+00 3.435286581516265869e-01
2.841000000000000000e+03 7.114222717285156250e+01 2.448018646240234375e+01 -3.283827006816864014e-01 7.136877059936523438e+00 2.042548418045043945e+00 5.040963292121887207e-01
2.842000000000000000e+03 4.471877670288085938e+01 -1.176525211334228516e+01 8.068875074386596680e-01 4.455468654632568359e+00 1.578706741333007812e+00 3.662640452384948730e-01
2.843000000000000000e+03 7.218928527832031250e+01 -1.016011118888854980e+00 -1.593422293663024902e-01 7.008303642272949219e+00 2.054688453674316406e+00 -9.185962677001953125e-01
2.844000000000000000e+03 7.943924427032470703e+00 -2.084312057495117188e+01 8.687472343444824219e-01 5.488660335540771484e+00 1.907222270965576172e+00 1.221173524856567383e+00
2.845000000000000000e+03 3.683184051513671875e+01 -5.345926284790039062e+00 -1.924007415771484375e+00 9.467701911926269531e+00 2.263108253479003906e+00 -1.210736155509948730e+00
2.846000000000000000e+03 7.196519470214843750e+01 1.442007064819335938e+01 5.535987019538879395e-01 7.048153877258300781e+00 2.280525684356689453e+00 2.538512945175170898e-01
2.847000000000000000e+03 4.111780166625976562e+01 -1.061173152923583984e+01 8.737092465162277222e-02 6.756155967712402344e+00 2.053058147430419922e+00 -1.140652537345886230e+00
2.848000000000000000e+03 7.268061828613281250e+01 6.923107147216796875e+00 4.064438641071319580e-01 6.931367397308349609e+00 2.201343297958374023e+00 -5.194402337074279785e-01
2.849000000000000000e+03 7.141005706787109375e+01 5.714408397674560547e+00 4.155679345130920410e-01 6.959825038909912109e+00 2.212617874145507812e+00 -6.023787856101989746e-01
2.850000000000000000e+03 4.626686096191406250e+01 2.371080970764160156e+01 -6.218484640121459961e-01 2.624550342559814453e+00 6.008105278015136719e-01 1.417588829994201660e+00
2.851000000000000000e+03 4.347911071777343750e+01 2.434324645996093750e+01 -7.329083085060119629e-01 3.624003887176513672e+00 8.673286437988281250e-01 1.367414593696594238e+00
2.852000000000000000e+03 8.271114349365234375e+00 1.308200359344482422e+01 3.443379104137420654e-01 6.369570255279541016e+00 2.014172554016113281e+00 -3.589055836200714111e-01
2.853000000000000000e+03 1.771486663818359375e+01 -5.841912269592285156e+00 8.693109750747680664e-01 3.563740730285644531e+00 1.329915523529052734e+00 -2.690030932426452637e-01
2.854000000000000000e+03 1.953960609436035156e+01 -6.050849914550781250e+00 1.198813796043395996e+00 1.682362794876098633e+00 8.643529415130615234e-01 -2.664504647254943848e-01
2.855000000000000000e+03 1.096668910980224609e+01 -2.270337295532226562e+01 6.618753075599670410e-01 7.432592391967773438e+00 2.428340435028076172e+00 1.230441451072692871e+00
2.856000000000000000e+03 7.827638626098632812e+00 2.660468292236328125e+01 -7.862573266029357910e-01 5.394361495971679688e+00 1.382431268692016602e+00 -1.004026889801025391e+00
2.857000000000000000e+03 8.563958168029785156e+00 2.501338768005371094e+01 -7.852057218551635742e-01 5.799923896789550781e+00 1.504415512084960938e+00 -1.230212807655334473e+00
2.858000000000000000e+03 9.441748619079589844e+00 -2.885671043395996094e+01 -7.766476869583129883e-01 5.642001152038574219e+00 1.459606051445007324e+00 9.889463782310485840e-01
2.859000000000000000e+03 1.021715545654296875e+01 -2.781243896484375000e+01 -7.716303467750549316e-01 5.877872943878173828e+00 1.531872749328613281e+00 9.589214324951171875e-01
2.860000000000000000e+03 1.184312534332275391e+01 2.866879081726074219e+01 -1.080417275428771973e+00 5.207315921783447266e+00 1.238069534301757812e+00 -3.341127932071685791e-02
2.861000000000000000e+03 2.339374542236328125e+01 -3.753273248672485352e+00 2.510934591293334961e+00 -5.601692199707031250e-01 5.852296352386474609e-01 5.004343017935752869e-02
2.862000000000000000e+03 1.108732700347900391e+01 1.174148941040039062e+01 -9.408209472894668579e-02 9.065923690795898438e+00 2.691552639007568359e+00 3.548991680145263672e-02
2.863000000000000000e+03 1.331591606140136719e+01 -1.303982615470886230e+00 4.986580371856689453e+00 9.480143547058105469e+00 4.340016841888427734e+00 -1.923026561737060547e+00
2.864000000000000000e+03 6.236414909362792969e+00 -1.213732242584228516e+01 -3.095174431800842285e-01 4.543116569519042969e+00 1.270079731941223145e+00 2.612992525100708008e-01
2.865000000000000000e+03 7.148261547088623047e+00 -1.302407646179199219e+01 -1.929752677679061890e-01 5.313014507293701172e+00 1.536011815071105957e+00 1.416563838720321655e-01
2.866000000000000000e+03 1.427120876312255859e+01 2.929493331909179688e+01 -9.438990950584411621e-01 4.446863651275634766e+00 1.050889372825622559e+00 5.807642340660095215e-01
2.867000000000000000e+03 7.207331848144531250e+01 2.074214744567871094e+01 6.307382136583328247e-02 7.139562129974365234e+00 2.160790920257568359e+00 6.713648438453674316e-01
2.868000000000000000e+03 8.525402069091796875e+00 1.994338798522949219e+01 6.444434523582458496e-01 6.060360431671142578e+00 2.011441230773925781e+00 -1.446251273155212402e+00
2.869000000000000000e+03 4.091460037231445312e+01 -2.820911216735839844e+01 4.673193097114562988e-01 7.914511680603027344e+00 2.514549255371093750e+00 -2.591099739074707031e-01
2.870000000000000000e+03 4.201119995117187500e+01 -2.705736732482910156e+01 1.120226621627807617e+00 8.380503654479980469e+00 2.850219011306762695e+00 -5.874693393707275391e-01
2.871000000000000000e+03 7.149960327148437500e+01 -1.087664127349853516e+01 -1.251220107078552246e+00 9.221331596374511719e+00 2.391033411026000977e+00 -2.191154360771179199e-01
2.872000000000000000e+03 6.822715759277343750e+01 9.407856941223144531e+00 8.707811832427978516e-01 7.523456573486328125e+00 2.518271207809448242e+00 -9.390338510274887085e-02
2.873000000000000000e+03 6.999329376220703125e+01 1.272916221618652344e+01 7.999386191368103027e-01 7.337850093841552734e+00 2.441336631774902344e+00 9.961383044719696045e-02
2.874000000000000000e+03 1.632518577575683594e+01 -3.518237686157226562e+01 -6.702862381935119629e-01 3.267553329467773438e+00 7.791801691055297852e-01 -5.192334055900573730e-01
2.875000000000000000e+03 1.469916534423828125e+01 -3.232299804687500000e+01 -1.031998157501220703e+00 4.135293960571289062e+00 9.309887886047363281e-01 -4.500375390052795410e-01
2.876000000000000000e+03 8.846193313598632812e+00 1.712039756774902344e+01 1.108949542045593262e+00 6.573935031890869141e+00 2.304865360260009766e+00 -8.834154009819030762e-01
2.877000000000000000e+03 7.497906494140625000e+01 -1.977187538146972656e+01 9.481953978538513184e-01 8.585005760192871094e+00 2.859960317611694336e+00 -5.765656232833862305e-01
2.878000000000000000e+03 6.895058441162109375e+01 7.582353591918945312e+00 7.366707921028137207e-01 7.181375503540039062e+00 2.375413894653320312e+00 -2.944772839546203613e-01
2.879000000000000000e+03 7.147041320800781250e+01 6.829444408416748047e+00 4.787438809871673584e-01 6.983621120452880859e+00 2.238709449768066406e+00 -4.920884370803833008e-01
2.880000000000000000e+03 1.965836906433105469e+01 3.031326103210449219e+01 -2.067219018936157227e-01 2.407015323638916016e+00 6.600880026817321777e-01 6.207840442657470703e-01
2.881000000000000000e+03 1.920270156860351562e+01 3.318158340454101562e+01 -1.189539134502410889e-01 2.818865537643432617e+00 8.099735379219055176e-01 3.547674417495727539e-01
2.882000000000000000e+03 9.582045555114746094e+00 -2.350629615783691406e+01 3.275479972362518311e-01 6.406195640563964844e+00 2.020123004913330078e+00 1.428660511970520020e+00
2.883000000000000000e+03 3.213530731201171875e+01 2.494558143615722656e+01 -1.151165246963500977e+00 4.368872165679931641e+00 9.653120040893554688e-01 -8.256757259368896484e-01
2.884000000000000000e+03 3.032764816284179688e+01 2.636854553222656250e+01 -1.033540368080139160e+00 3.482805728912353516e+00 7.347796559333801270e-01 -1.122131705284118652e+00
2.885000000000000000e+03 5.555241012573242188e+01 3.250742721557617188e+01 3.820140361785888672e-01 2.425654888153076172e+00 8.423007130622863770e-01 -8.088733255863189697e-02
2.886000000000000000e+03 1.110751438140869141e+01 2.702645301818847656e+01 -1.125281810760498047e+00 5.811530590057373047e+00 1.405874609947204590e+00 -2.589287161827087402e-01
2.887000000000000000e+03 6.491322326660156250e+01 4.182714968919754028e-03 5.487139821052551270e-01 5.477848529815673828e+00 1.807968735694885254e+00 -7.900467514991760254e-02
2.888000000000000000e+03 7.064840698242187500e+01 -9.341972470283508301e-01 -9.722113609313964844e-02 6.746864318847656250e+00 1.994892954826354980e+00 -9.764716029167175293e-01
2.889000000000000000e+03 6.826221466064453125e+01 6.683085441589355469e+00 7.288894653320312500e-01 7.180693149566650391e+00 2.372874736785888672e+00 -2.804946303367614746e-01
2.890000000000000000e+03 6.666732788085937500e+01 5.190594673156738281e+00 7.386937141418457031e-01 6.991236686706542969e+00 2.318979263305664062e+00 -9.566120803356170654e-02
2.891000000000000000e+03 8.567926406860351562e+00 2.543790578842163086e+00 1.741000533103942871e+00 6.174763202667236328e+00 2.374729156494140625e+00 -4.292659282684326172e+00
2.892000000000000000e+03 7.291542530059814453e+00 2.712034940719604492e+00 1.698409080505371094e+00 2.810925483703613281e+00 1.352800369262695312e+00 -2.430048704147338867e+00
2.893000000000000000e+03 7.813215732574462891e+00 -2.334540128707885742e+00 2.297690153121948242e+00 3.251825332641601562e+00 1.664854645729064941e+00 3.118511915206909180e+00
2.894000000000000000e+03 4.733798980712890625e+00 5.434727191925048828e+00 4.515714645385742188e-01 1.975889563560485840e+00 7.282382845878601074e-01 -6.918531656265258789e-01
2.895000000000000000e+03 9.461047172546386719e+00 3.188745260238647461e+00 7.639109343290328979e-02 1.013685131072998047e+01 3.063972711563110352e+00 -3.809237241744995117e+00
2.896000000000000000e+03 5.614872455596923828e+00 3.052914381027221680e+00 9.962067008018493652e-01 1.208599448204040527e+00 6.614418625831604004e-01 -7.953677773475646973e-01
2.897000000000000000e+03 8.791624069213867188e+00 3.205062866210937500e+00 7.648547291755676270e-01 7.498942375183105469e+00 2.479139089584350586e+00 -3.938213825225830078e+00
2.898000000000000000e+03 8.206275939941406250e+00 2.844376325607299805e+00 1.595129966735839844e+00 5.241342544555664062e+00 2.050941705703735352e+00 -3.697807550430297852e+00
2.899000000000000000e+03 8.629061698913574219e+00 -2.634028196334838867e+00 1.795134902000427246e+00 6.305416584014892578e+00 2.430165529251098633e+00 4.178285598754882812e+00
2.900000000000000000e+03 7.225265502929687500e+00 -3.115530490875244141e+00 1.642644047737121582e+00 3.007669210433959961e+00 1.395093917846679688e+00 2.496475696563720703e+00
2.901000000000000000e+03 9.784664154052734375e+00 3.136435747146606445e+00 -1.483630985021591187e-01 1.113552570343017578e+01 3.296148777008056641e+00 -3.483862638473510742e+00
2.902000000000000000e+03 9.448986053466796875e+00 -3.239901781082153320e+00 3.483364880084991455e-01 9.568375587463378906e+00 2.975013494491577148e+00 3.629879713058471680e+00
2.903000000000000000e+03 9.684336662292480469e+00 -2.869611978530883789e+00 4.842781126499176025e-01 1.079448509216308594e+01 3.383629083633422852e+00 3.777757406234741211e+00
2.904000000000000000e+03 1.271835613250732422e+01 4.640249907970428467e-01 6.991282939910888672e+00 1.064615631103515625e+01 5.291231632232666016e+00 6.176725625991821289e-01
2.905000000000000000e+03 1.001500988006591797e+01 -3.231751203536987305e+00 -7.724084705114364624e-02 1.133911991119384766e+01 3.378563880920410156e+00 2.989391326904296875e+00
2.906000000000000000e+03 1.076042652130126953e+01 -2.980971813201904297e+00 -6.546924263238906860e-02 1.311375713348388672e+01 3.914486408233642578e+00 1.382740139961242676e+00
2.907000000000000000e+03 1.220420074462890625e+01 1.368610262870788574e+00 4.849232673645019531e+00 1.283693313598632812e+01 5.305849552154541016e+00 1.863647341728210449e+00
2.908000000000000000e+03 1.092123413085937500e+01 -3.270994186401367188e+00 -2.289426475763320923e-01 1.254307556152343750e+01 3.694239854812622070e+00 1.045009493827819824e+00
2.909000000000000000e+03 1.125770378112792969e+01 -2.619999170303344727e+00 5.987753868103027344e-01 1.391777420043945312e+01 4.354965209960937500e+00 2.619006438180804253e-03
2.910000000000000000e+03 5.105062484741210938e+00 -3.360114574432373047e+00 8.960666060447692871e-01 1.079000353813171387e+00 5.925201177597045898e-01 6.967648267745971680e-01
2.911000000000000000e+03 3.895137071609497070e+00 4.307790279388427734e+00 5.151063203811645508e-01 8.055109977722167969e-01 3.961851894855499268e-01 -1.914546191692352295e-01
2.912000000000000000e+03 1.315571022033691406e+01 6.808490753173828125e+00 -1.950211286544799805e+00 9.651932716369628906e+00 2.310516357421875000e+00 -1.186219677329063416e-01
2.913000000000000000e+03 1.252220344543457031e+01 -1.482197284698486328e+00 4.775434017181396484e+00 1.160967826843261719e+01 4.915533542633056641e+00 -2.311672449111938477e+00
2.914000000000000000e+03 1.222056102752685547e+01 1.067100167274475098e+00 5.869405269622802734e+00 1.261708831787109375e+01 5.545948028564453125e+00 1.800557017326354980e+00
2.915000000000000000e+03 1.087877941131591797e+01 4.085049152374267578e+00 -1.234603047370910645e+00 1.175303554534912109e+01 3.155529737472534180e+00 -1.433443188667297363e+00
2.916000000000000000e+03 1.638151550292968750e+01 -1.240889430046081543e+00 3.588279724121093750e+00 4.425102233886718750e+00 2.404014587402343750e+00 -1.031059861183166504e+00
2.917000000000000000e+03 1.275393772125244141e+01 -1.032102465629577637e+00 5.954534053802490234e+00 1.067724704742431641e+01 4.989534378051757812e+00 -1.996989011764526367e+00
2.918000000000000000e+03 1.519947910308837891e+01 3.998974561691284180e+00 3.368612825870513916e-01 7.029210567474365234e+00 2.209821701049804688e+00 4.343258142471313477e-01
2.919000000000000000e+03 4.090727329254150391e+00 -3.171882390975952148e+00 5.523821115493774414e-01 5.400152802467346191e-01 3.277192115783691406e-01 1.572183668613433838e-01
2.920000000000000000e+03 3.776190519332885742e+00 -4.638085365295410156e+00 5.053633451461791992e-01 9.377478957176208496e-01 4.329333603382110596e-01 3.834418058395385742e-01
2.921000000000000000e+03 1.252999019622802734e+01 2.331589221954345703e+00 2.034215688705444336e+00 1.203427791595458984e+01 4.220548152923583984e+00 1.348361730575561523e+00
2.922000000000000000e+03 6.340156078338623047e+00 3.287924766540527344e+00 1.193547725677490234e+00 2.117963075637817383e+00 9.934532642364501953e-01 -1.507487177848815918e+00
2.923000000000000000e+03 4.911539554595947266e+00 3.194037437438964844e+00 7.583348751068115234e-01 8.802580237388610840e-01 4.915778636932373047e-01 -3.979981839656829834e-01
2.924000000000000000e+03 3.075888872146606445e+00 -2.796822786331176758e+00 2.720718979835510254e-01 1.566056907176971436e-01 1.286032795906066895e-01 -1.923869252204895020e-01
2.925000000000000000e+03 3.170926570892333984e+00 -3.367727518081665039e+00 3.525128066539764404e-01 2.585060000419616699e-01 1.833056509494781494e-01 -7.618459314107894897e-02
2.926000000000000000e+03 6.074002742767333984e+00 8.025578498840332031e+00 -1.290886402130126953e-01 4.140544414520263672e+00 1.203436732292175293e+00 -8.473222255706787109e-01
2.927000000000000000e+03 4.790515422821044922e+00 8.311245918273925781e+00 8.351344615221023560e-03 2.900906801223754883e+00 8.727774024009704590e-01 -5.920444726943969727e-01
2.928000000000000000e+03 3.183586120605468750e+00 -4.655546188354492188e+00 3.708511888980865479e-01 6.584015488624572754e-01 3.087758123874664307e-01 1.898470222949981689e-01
2.929000000000000000e+03 4.466948032379150391e+00 -7.188490390777587891e+00 9.244039654731750488e-02 2.371193647384643555e+00 7.390902042388916016e-01 7.614449858665466309e-01
2.930000000000000000e+03 4.118523120880126953e+00 -6.418783187866210938e+00 2.086937874555587769e-01 1.869363069534301758e+00 6.234170198440551758e-01 6.786228418350219727e-01
2.931000000000000000e+03 1.653390884399414062e+01 3.069641828536987305e+00 1.486899495124816895e+00 4.745965480804443359e+00 1.869859576225280762e+00 2.414822280406951904e-01
2.932000000000000000e+03 1.034663581848144531e+01 1.053369617462158203e+01 -6.486502289772033691e-01 8.512971878051757812e+00 2.359296560287475586e+00 -7.348591089248657227e-02
2.933000000000000000e+03 3.550571441650390625e+00 4.888952732086181641e+00 3.802739977836608887e-01 8.351206779479980469e-01 3.646184206008911133e-01 -1.646810173988342285e-01
2.934000000000000000e+03 5.061822891235351562e+00 -8.387452125549316406e+00 -1.975502967834472656e-01 3.154620885848999023e+00 8.871211409568786621e-01 7.776480317115783691e-01
2.935000000000000000e+03 6.028341770172119141e+00 -8.111970901489257812e+00 -3.244481086730957031e-01 4.050096035003662109e+00 1.117694377899169922e+00 1.024578571319580078e+00
2.936000000000000000e+03 1.418452358245849609e+01 6.290474414825439453e+00 -1.725824713706970215e+00 8.943135261535644531e+00 2.165193319320678711e+00 3.167008608579635620e-02
2.937000000000000000e+03 1.302292156219482422e+01 7.443717002868652344e+00 -2.032261848449707031e+00 9.553595542907714844e+00 2.256400108337402344e+00 -1.941730231046676636e-01
2.938000000000000000e+03 4.601400852203369141e+00 6.078234195709228516e+00 3.313609361648559570e-01 2.080164432525634766e+00 7.234575748443603516e-01 -6.760699748992919922e-01
2.939000000000000000e+03 5.471740722656250000e+00 8.178451538085937500e+00 -5.805563554167747498e-02 3.557066440582275391e+00 1.049703240394592285e+00 -7.672091126441955566e-01
2.940000000000000000e+03 1.148885440826416016e+01 9.752182960510253906e+00 -1.113189220428466797e+00 9.345649719238281250e+00 2.469738245010375977e+00 -5.876788403838872910e-03
2.941000000000000000e+03 4.848921298980712891e+00 -5.742055892944335938e+00 3.669941127300262451e-01 2.185648441314697266e+00 7.657927870750427246e-01 9.349042177200317383e-01
2.942000000000000000e+03 1.321185111999511719e+01 -9.692353248596191406e+00 -2.086478233337402344e+00 8.627894401550292969e+00 1.962424755096435547e+00 5.871639847755432129e-01
2.943000000000000000e+03 1.253372287750244141e+01 -9.374694824218750000e+00 -2.030942678451538086e+00 8.594151496887207031e+00 1.968962550163269043e+00 5.662354230880737305e-01
2.944000000000000000e+03 6.887372970581054688e+00 8.402333259582519531e+00 -3.462888598442077637e-01 5.116192817687988281e+00 1.430971264839172363e+00 -8.465986847877502441e-01
2.945000000000000000e+03 1.547164154052734375e+01 3.072943449020385742e+00 1.454473733901977539e+00 6.348501205444335938e+00 2.340892553329467773e+00 5.158845186233520508e-01
2.946000000000000000e+03 1.429484558105468750e+01 -7.747920513153076172e+00 -1.449382185935974121e+00 7.581409454345703125e+00 1.839608192443847656e+00 4.634164869785308838e-01
2.947000000000000000e+03 1.502748584747314453e+01 -8.796349525451660156e+00 -1.559548020362854004e+00 6.871837615966796875e+00 1.593686819076538086e+00 8.007093667984008789e-01
2.948000000000000000e+03 6.403666019439697266e+00 1.050854301452636719e+01 -1.704596877098083496e-01 4.759720325469970703e+00 1.376778244972229004e+00 -4.544910788536071777e-01
2.949000000000000000e+03 5.303693294525146484e+00 9.823152542114257812e+00 -8.550389111042022705e-02 3.569636106491088867e+00 1.045239686965942383e+00 -4.770127236843109131e-01
2.950000000000000000e+03 5.643627166748046875e+00 -8.685817718505859375e+00 -3.531795442104339600e-01 3.764560461044311523e+00 1.023414254188537598e+00 8.149803876876831055e-01
2.951000000000000000e+03 7.202337646484375000e+01 2.196255207061767578e+00 1.458820402622222900e-01 6.927448272705078125e+00 2.121999025344848633e+00 -8.344145417213439941e-01
2.952000000000000000e+03 7.113404846191406250e+01 -4.550466537475585938e+00 -6.555834412574768066e-01 7.135975360870361328e+00 1.944117665290832520e+00 -1.001586198806762695e+00
2.953000000000000000e+03 1.134022808074951172e+01 1.070199966430664062e+01 -6.192819476127624512e-01 9.103322982788085938e+00 2.545212268829345703e+00 -9.931794553995132446e-02
2.954000000000000000e+03 1.163595199584960938e+01 8.110835075378417969e+00 -1.819253325462341309e+00 9.598165512084960938e+00 2.333673477172851562e+00 -3.125767111778259277e-01
2.955000000000000000e+03 1.592199611663818359e+01 -7.635416984558105469e+00 -8.098381161689758301e-01 5.912453651428222656e+00 1.530784606933593750e+00 3.527191579341888428e-01
2.956000000000000000e+03 1.633226203918457031e+01 -8.204902648925781250e+00 -8.510109782218933105e-01 5.341422557830810547e+00 1.347123503684997559e+00 5.194805264472961426e-01
2.957000000000000000e+03 1.363121128082275391e+01 -9.158653259277343750e+00 -2.027499914169311523e+00 8.198390007019042969e+00 1.851266980171203613e+00 7.103826999664306641e-01
2.958000000000000000e+03 5.723792076110839844e+00 -1.164872360229492188e+01 -3.032192587852478027e-01 4.122296333312988281e+00 1.145723223686218262e+00 2.983956634998321533e-01
2.959000000000000000e+03 1.149724197387695312e+01 3.234179496765136719e+00 -4.668937921524047852e-01 1.296172332763671875e+01 3.748448848724365234e+00 -3.652188777923583984e-01
2.960000000000000000e+03 3.495159530639648438e+01 -2.887918233871459961e+00 -1.805092692375183105e-01 8.951327323913574219e+00 2.631245613098144531e+00 -1.857575178146362305e-01
2.961000000000000000e+03 6.619921112060546875e+01 -6.487680912017822266e+00 -4.345419108867645264e-01 4.502708435058593750e+00 1.220450043678283691e+00 -1.639145612716674805e+00
2.962000000000000000e+03 6.228754425048828125e+01 -5.156516551971435547e+00 5.523784160614013672e-01 2.783015251159667969e+00 1.000618100166320801e+00 -1.029110606759786606e-02
2.963000000000000000e+03 6.960128021240234375e+01 -7.113295555114746094e+00 -1.234994411468505859e+00 7.163261413574218750e+00 1.778480052947998047e+00 -1.419091105461120605e+00
2.964000000000000000e+03 7.188172912597656250e+01 4.025631427764892578e+00 2.764610052108764648e-01 6.937843799591064453e+00 2.164291381835937500e+00 -7.202874422073364258e-01
2.965000000000000000e+03 6.713064575195312500e+01 -2.836196422576904297e+00 -7.738406304270029068e-03 5.567020416259765625e+00 1.667784571647644043e+00 -1.021124005317687988e+00
2.966000000000000000e+03 6.122193145751953125e+01 -4.465891838073730469e+00 7.607957124710083008e-01 2.776702165603637695e+00 1.061249375343322754e+00 4.663104414939880371e-01
2.967000000000000000e+03 9.261242866516113281e+00 -1.996961212158203125e+01 1.423025488853454590e+00 6.478651523590087891e+00 2.370503187179565430e+00 9.941667914390563965e-01
2.968000000000000000e+03 8.427488327026367188e+00 -1.882143592834472656e+01 1.262079358100891113e+00 5.834214687347412109e+00 2.128888130187988281e+00 7.556036710739135742e-01
2.969000000000000000e+03 6.546716308593750000e+01 -7.531846046447753906e+00 -6.084952354431152344e-01 3.772312879562377930e+00 9.491452574729919434e-01 -1.769051790237426758e+00
2.970000000000000000e+03 6.511063385009765625e+01 -5.709417819976806641e+00 -1.077913567423820496e-01 3.982613801956176758e+00 1.162446737289428711e+00 -1.215283036231994629e+00
2.971000000000000000e+03 1.928693008422851562e+01 -1.371144652366638184e-01 3.047492980957031250e+00 1.168781876564025879e+00 1.264882445335388184e+00 -4.641041159629821777e-01
2.972000000000000000e+03 1.931504249572753906e+01 -1.666729688644409180e+00 3.056129693984985352e+00 1.339075326919555664e+00 1.318561553955078125e+00 -6.048557758331298828e-01
2.973000000000000000e+03 1.852203559875488281e+01 -7.647894024848937988e-01 3.227743864059448242e+00 1.969032406806945801e+00 1.559032797813415527e+00 -6.274355649948120117e-01
2.974000000000000000e+03 1.950454139709472656e+01 -5.145645141601562500e+00 1.687314033508300781e+00 1.697228431701660156e+00 1.015362739562988281e+00 -3.904818594455718994e-01
2.975000000000000000e+03 6.630840301513671875e+01 7.426021695137023926e-01 4.425111413002014160e-01 6.007136344909667969e+00 1.934894204139709473e+00 -3.991762101650238037e-01
2.976000000000000000e+03 7.096993255615234375e+01 2.744364976882934570e+00 2.485465556383132935e-01 6.826170444488525391e+00 2.122415065765380859e+00 -7.743482589721679688e-01
2.977000000000000000e+03 7.163330841064453125e+01 -2.938125610351562500e+00 -3.926892578601837158e-01 7.058734416961669922e+00 1.999813556671142578e+00 -9.816971421241760254e-01
2.978000000000000000e+03 7.179367065429687500e+01 1.177947521209716797e+01 6.137694716453552246e-01 7.033100605010986328e+00 2.294060945510864258e+00 -1.035241503268480301e-02
2.979000000000000000e+03 6.799876403808593750e+01 2.214229774475097656e+01 -3.464289009571075439e-01 7.283386707305908203e+00 2.081087350845336914e+00 5.421247482299804688e-01
2.980000000000000000e+03 6.929318237304687500e+01 2.145500946044921875e+01 -8.284339308738708496e-02 7.287752628326416016e+00 2.161472797393798828e+00 6.420894265174865723e-01
2.981000000000000000e+03 7.383482933044433594e+00 1.498160171508789062e+01 7.180693149566650391e-01 5.421892166137695312e+00 1.841988444328308105e+00 -6.628212332725524902e-01
2.982000000000000000e+03 7.147269439697265625e+01 1.984821128845214844e+01 1.850971281528472900e-01 7.166369438171386719e+00 2.205440044403076172e+00 6.674957871437072754e-01
2.983000000000000000e+03 4.672453308105468750e+01 -1.061914634704589844e+01 7.009935975074768066e-01 2.392620563507080078e+00 9.280842542648315430e-01 1.366739153861999512e+00
2.984000000000000000e+03 7.846474170684814453e+00 1.404316329956054688e+01 6.068855524063110352e-01 5.808633327484130859e+00 1.924655556678771973e+00 -4.099162817001342773e-01
2.985000000000000000e+03 7.598985195159912109e+00 1.169208145141601562e+01 -3.330345079302787781e-02 5.870805263519287109e+00 1.751250624656677246e+00 -3.678774237632751465e-01
2.986000000000000000e+03 2.025508499145507812e+01 -2.466859579086303711e+00 2.915661334991455078e+00 7.037819623947143555e-01 1.085832953453063965e+00 -4.511004388332366943e-01
2.987000000000000000e+03 1.017536830902099609e+01 3.484520912170410156e+00 -6.582639813423156738e-01 1.159610271453857422e+01 3.281351566314697266e+00 -2.646411657333374023e+00
2.988000000000000000e+03 8.651050567626953125e+00 2.366288566589355469e+01 -4.765951633453369141e-01 6.013012886047363281e+00 1.660925388336181641e+00 -1.342546343803405762e+00
2.989000000000000000e+03 8.738730430603027344e+00 -1.364410400390625000e+01 -8.811847120523452759e-02 6.622606754302978516e+00 1.960346579551696777e+00 -2.098763920366764069e-02
2.990000000000000000e+03 7.381908416748046875e+00 2.041122245788574219e+01 4.186001718044281006e-01 5.425694465637207031e+00 1.753288388252258301e+00 -1.549113154411315918e+00
2.991000000000000000e+03 6.983811950683593750e+01 7.015231132507324219e+00 6.358947753906250000e-01 7.096635341644287109e+00 2.319759130477905273e+00 -4.159295558929443359e-01
2.992000000000000000e+03 6.823858642578125000e+01 5.088498115539550781e+00 6.074083447456359863e-01 6.972405433654785156e+00 2.273944139480590820e+00 -3.873384892940521240e-01
2.993000000000000000e+03 4.361176681518554688e+01 -1.192477798461914062e+01 8.213270306587219238e-01 5.298566818237304688e+00 1.835968136787414551e+00 -3.449438884854316711e-02
2.994000000000000000e+03 3.995315170288085938e+01 2.303459358215332031e+01 -8.781271576881408691e-01 4.813970565795898438e+00 1.180752992630004883e+00 9.623119235038757324e-01
2.995000000000000000e+03 3.972154617309570312e+01 2.156535530090332031e+01 -7.315471768379211426e-01 5.169127941131591797e+00 1.331274271011352539e+00 9.739763736724853516e-01
2.996000000000000000e+03 7.271995544433593750e+00 1.268222141265869141e+01 2.303095161914825439e-01 5.359458446502685547e+00 1.676930427551269531e+00 -3.483167290687561035e-01
2.997000000000000000e+03 9.879905700683593750e+00 2.400435829162597656e+01 -8.271780610084533691e-01 6.408520221710205078e+00 1.674402594566345215e+00 -1.189307451248168945e+00
2.998000000000000000e+03 7.045790863037109375e+01 -8.136473655700683594e+00 -1.425077795982360840e+00 7.784101963043212891e+00 1.907707214355468750e+00 -1.051649451255798340e+00
2.999000000000000000e+03 5.448565292358398438e+01 -1.051313877105712891e+01 -4.244106113910675049e-01 1.135923981666564941e+00 2.134540230035781860e-01 1.755391120910644531e+00
3.000000000000000000e+03 3.558423995971679688e+01 2.205754280090332031e+01 -8.030710220336914062e-01 5.596589088439941406e+00 1.438055396080017090e+00 1.542789302766323090e-02
3.001000000000000000e+03 7.331703662872314453e+00 -2.172938919067382812e+01 6.447522044181823730e-01 5.125840187072753906e+00 1.731177806854248047e+00 1.384130477905273438e+00
3.002000000000000000e+03 6.006101608276367188e+00 2.185188102722167969e+01 5.370915308594703674e-02 4.704106807708740234e+00 1.427344799041748047e+00 -1.524634718894958496e+00
3.003000000000000000e+03 7.467945098876953125e+00 2.191390419006347656e+01 1.001441031694412231e-01 5.512332916259765625e+00 1.683743119239807129e+00 -1.593958258628845215e+00
3.004000000000000000e+03 7.175287628173828125e+01 -5.466742992401123047e+00 -8.726902008056640625e-01 7.543293476104736328e+00 2.001181125640869141e+00 -9.248969554901123047e-01
3.005000000000000000e+03 1.218502712249755859e+01 -1.185136127471923828e+01 -1.414556503295898438e+00 8.732420921325683594e+00 2.195359468460083008e+00 9.399493038654327393e-02
3.006000000000000000e+03 7.113054656982421875e+01 9.512277603149414062e+00 6.498121023178100586e-01 7.077701568603515625e+00 2.318254232406616211e+00 -2.659345269203186035e-01
3.007000000000000000e+03 6.872493743896484375e+01 1.702912139892578125e+01 7.083964943885803223e-01 7.485000133514404297e+00 2.458019018173217773e+00 4.530190229415893555e-01
3.008000000000000000e+03 7.033293914794921875e+01 1.383150863647460938e+01 7.547035217285156250e-01 7.255345344543457031e+00 2.403014659881591797e+00 1.927383840084075928e-01
3.009000000000000000e+03 8.767738342285156250e+00 2.996610641479492188e+01 -7.521841526031494141e-01 5.103618621826171875e+00 1.305430293083190918e+00 -5.020488500595092773e-01
3.010000000000000000e+03 7.213459491729736328e+00 -1.156778621673583984e+01 -5.871822237968444824e-01 5.419194221496582031e+00 1.449603557586669922e+00 3.307648301124572754e-01
3.011000000000000000e+03 1.038291931152343750e+01 -1.386549568176269531e+01 -4.119993001222610474e-02 7.923021316528320312e+00 2.364546537399291992e+00 -1.353776305913925171e-01
3.012000000000000000e+03 1.724816322326660156e+01 3.409899139404296875e+01 -2.367169111967086792e-01 3.238910436630249023e+00 9.006580710411071777e-01 4.100443720817565918e-01
3.013000000000000000e+03 3.720928192138671875e+01 2.099180793762207031e+01 -6.655414700508117676e-01 5.822279453277587891e+00 1.547021389007568359e+00 3.647522032260894775e-01
3.014000000000000000e+03 7.116168975830078125e+01 2.150040817260742188e+01 -1.637365482747554779e-02 7.193808078765869141e+00 2.153230428695678711e+00 6.783794164657592773e-01
3.015000000000000000e+03 7.040115356445312500e+01 2.057645416259765625e+01 8.700588345527648926e-02 7.223803520202636719e+00 2.193242788314819336e+00 6.792275905609130859e-01
3.016000000000000000e+03 6.975030517578125000e+01 1.944670486450195312e+01 2.856311798095703125e-01 7.296499729156494141e+00 2.274639368057250977e+00 6.490816473960876465e-01
3.017000000000000000e+03 6.997050476074218750e+01 3.485579729080200195e+00 3.514075875282287598e-01 6.845371246337890625e+00 2.159033775329589844e+00 -6.892349123954772949e-01
3.018000000000000000e+03 6.889939880371093750e+01 -2.902827453613281250e+01 -1.099303960800170898e+00 6.741020679473876953e+00 1.692515134811401367e+00 6.218977570533752441e-01
3.019000000000000000e+03 6.988889312744140625e+01 -2.912458610534667969e+01 -1.090122222900390625e+00 7.452074050903320312e+00 1.908585548400878906e+00 2.437674552202224731e-01
3.020000000000000000e+03 2.028169631958007812e+01 -4.383773326873779297e+00 2.190378665924072266e+00 9.804380536079406738e-01 9.512450098991394043e-01 -4.112128317356109619e-01
3.021000000000000000e+03 8.957932472229003906e+00 2.219357490539550781e+01 -1.815946251153945923e-01 6.254586696624755859e+00 1.821897625923156738e+00 -1.584671258926391602e+00
3.022000000000000000e+03 6.195941543579101562e+01 -3.413483381271362305e+00 8.528020977973937988e-01 3.325087547302246094e+00 1.253366827964782715e+00 3.567029535770416260e-01
3.023000000000000000e+03 7.031745910644531250e+01 2.253740119934082031e+01 -2.130918353796005249e-01 7.203639984130859375e+00 2.097164392471313477e+00 6.237348914146423340e-01
3.024000000000000000e+03 1.184257698059082031e+01 -3.045585250854492188e+01 -1.076595067977905273e+00 5.286974430084228516e+00 1.263113856315612793e+00 2.932950854301452637e-01
3.025000000000000000e+03 3.845249176025390625e+01 1.805818939208984375e+01 -1.615648120641708374e-01 6.421192169189453125e+00 1.877888202667236328e+00 7.187417745590209961e-01
3.026000000000000000e+03 4.036917114257812500e+01 2.001568031311035156e+01 -4.789476692676544189e-01 5.276020526885986328e+00 1.439121842384338379e+00 1.176319360733032227e+00
3.027000000000000000e+03 2.086998748779296875e+01 -1.712546944618225098e+00 2.999482393264770508e+00 1.654745936393737793e-01 9.494871497154235840e-01 -3.589891791343688965e-01
3.028000000000000000e+03 2.277208328247070312e+01 -4.445379734039306641e+00 2.115945816040039062e+00 -3.165344595909118652e-01 5.398233532905578613e-01 1.318701915442943573e-02
3.029000000000000000e+03 1.332013416290283203e+01 2.770994377136230469e+01 -1.208859801292419434e+00 5.363931179046630859e+00 1.246521472930908203e+00 4.667952060699462891e-01
3.030000000000000000e+03 9.678798675537109375e+00 2.763558769226074219e+01 -1.009594321250915527e+00 5.521723270416259766e+00 1.353638648986816406e+00 -6.255583763122558594e-01
3.031000000000000000e+03 6.978497314453125000e+01 1.159681606292724609e+01 8.169776797294616699e-01 7.309041023254394531e+00 2.437805652618408203e+00 5.368043668568134308e-03
3.032000000000000000e+03 7.199029541015625000e+01 1.073039340972900391e+01 5.663365125656127930e-01 7.011249542236328125e+00 2.273275852203369141e+00 -1.588949263095855713e-01
3.033000000000000000e+03 4.546493148803710938e+01 -2.972608184814453125e+01 3.167408108711242676e-01 7.456508159637451172e+00 2.331974744796752930e+00 -1.715247631072998047e+00
3.034000000000000000e+03 6.461643981933593750e+01 2.195329666137695312e+01 -8.997881412506103516e-01 7.357016086578369141e+00 1.937168359756469727e+00 -7.658302038908004761e-02
3.035000000000000000e+03 6.329939270019531250e+01 2.257142066955566406e+01 -9.584447741508483887e-01 6.531808853149414062e+00 1.672009229660034180e+00 -8.305779695510864258e-01
3.036000000000000000e+03 7.121025085449218750e+01 1.604601478576660156e+01 5.739896297454833984e-01 7.155174732208251953e+00 2.318749427795410156e+00 4.206526279449462891e-01
3.037000000000000000e+03 7.041230010986328125e+01 1.769003677368164062e+01 4.923482835292816162e-01 7.246445655822753906e+00 2.321638345718383789e+00 5.533407330513000488e-01
3.038000000000000000e+03 7.333340454101562500e+01 -2.784948921203613281e+01 -7.004988193511962891e-01 8.704868316650390625e+00 2.401310920715332031e+00 -8.049311637878417969e-01
3.039000000000000000e+03 4.497892379760742188e+01 2.566345214843750000e+01 -6.570953130722045898e-01 3.087788105010986328e+00 7.292078137397766113e-01 1.344436883926391602e+00
3.040000000000000000e+03 3.646615600585937500e+01 -4.352188110351562500e+00 -1.524007797241210938e+00 9.357789039611816406e+00 2.350134372711181641e+00 -9.496445655822753906e-01
3.041000000000000000e+03 1.929399490356445312e+01 2.873502159118652344e+01 -3.405343592166900635e-01 2.310717344284057617e+00 5.910548567771911621e-01 7.680338025093078613e-01
3.042000000000000000e+03 7.148409271240234375e+01 1.343096923828125000e+01 6.508322358131408691e-01 7.118527412414550781e+00 2.330807924270629883e+00 1.498090326786041260e-01
3.043000000000000000e+03 7.006681823730468750e+01 9.060591697692871094e+00 7.274820804595947266e-01 7.201224327087402344e+00 2.378611803054809570e+00 -2.232726067304611206e-01
3.044000000000000000e+03 7.059662628173828125e+01 6.218349933624267578e+00 5.399190187454223633e-01 6.967294216156005859e+00 2.252163887023925781e+00 -5.275904536247253418e-01
3.045000000000000000e+03 7.891100406646728516e+00 -1.431095695495605469e+01 1.624586731195449829e-01 5.802224159240722656e+00 1.789404869079589844e+00 4.135783016681671143e-02
3.046000000000000000e+03 7.085126495361328125e+01 2.628149604797363281e+01 -4.373174607753753662e-01 7.012959003448486328e+00 1.972692489624023438e+00 3.408927321434020996e-01
3.047000000000000000e+03 6.296007919311523438e+01 2.800349998474121094e+01 -6.735947132110595703e-01 5.088956356048583984e+00 1.324608564376831055e+00 -8.412458896636962891e-01
3.048000000000000000e+03 3.187936210632324219e+01 2.681446838378906250e+01 -1.090303063392639160e+00 3.862638235092163086e+00 8.317005038261413574e-01 -8.264179825782775879e-01
3.049000000000000000e+03 1.420494079589843750e+01 3.579368972778320312e+01 -3.080262541770935059e-01 3.832483053207397461e+00 1.057337045669555664e+00 1.551029980182647705e-01
3.050000000000000000e+03 1.685356712341308594e+01 2.966252326965332031e+01 -5.857809185981750488e-01 3.354250669479370117e+00 8.305408954620361328e-01 8.423140645027160645e-01
3.051000000000000000e+03 8.979473114013671875e+00 2.621446037292480469e+01 -8.313949704170227051e-01 5.675256252288818359e+00 1.453158378601074219e+00 -8.748244047164916992e-01
3.052000000000000000e+03 9.623211860656738281e+00 2.531017112731933594e+01 -9.832569956779479980e-01 6.097768306732177734e+00 1.534353375434875488e+00 -8.633469939231872559e-01
3.053000000000000000e+03 6.405651855468750000e+01 -4.916756153106689453e+00 3.273007273674011230e-01 3.566946506500244141e+00 1.168274164199829102e+00 -6.877825260162353516e-01
3.054000000000000000e+03 6.798423004150390625e+01 2.484519386291503906e+01 -7.006747722625732422e-01 6.958454132080078125e+00 1.877333760261535645e+00 2.005751878023147583e-01
3.055000000000000000e+03 1.072250556945800781e+01 -3.366989517211914062e+01 -8.506354689598083496e-01 4.814172744750976562e+00 1.189061164855957031e+00 2.740976214408874512e-01
3.056000000000000000e+03 7.132772064208984375e+01 -9.075345039367675781e+00 -1.408031105995178223e+00 8.459747314453125000e+00 2.115514755249023438e+00 -7.183253765106201172e-01
3.057000000000000000e+03 7.381431579589843750e+01 -1.917864227294921875e+01 1.418891310691833496e+00 9.369009971618652344e+00 3.236370325088500977e+00 -3.848353028297424316e-01
3.058000000000000000e+03 3.917161178588867188e+01 -1.093510246276855469e+01 1.784067153930664062e-01 8.379849433898925781e+00 2.567476987838745117e+00 -1.440860867500305176e+00
3.059000000000000000e+03 6.898986816406250000e+01 8.618418693542480469e+00 8.278474807739257812e-01 7.278112888336181641e+00 2.431788206100463867e+00 -2.213054895401000977e-01
3.060000000000000000e+03 8.244286537170410156e+00 1.816709709167480469e+01 9.637593030929565430e-01 5.878293991088867188e+00 2.052615880966186523e+00 -1.201236724853515625e+00
3.061000000000000000e+03 5.197259902954101562e+00 6.185909271240234375e+00 2.951128184795379639e-01 2.706614732742309570e+00 9.005182385444641113e-01 -8.705235123634338379e-01
3.062000000000000000e+03 6.590107440948486328e+00 3.535384893417358398e+00 1.164786934852600098e+00 2.573399782180786133e+00 1.121456027030944824e+00 -1.769780993461608887e+00
3.063000000000000000e+03 6.451316356658935547e+00 -3.060042142868041992e+00 1.405013799667358398e+00 1.910430312156677246e+00 9.946331977844238281e-01 1.630993008613586426e+00
3.064000000000000000e+03 9.243786811828613281e+00 -2.542871713638305664e+00 1.344051361083984375e+00 9.239809036254882812e+00 3.175158262252807617e+00 4.551743507385253906e+00
3.065000000000000000e+03 8.244108200073242188e+00 -3.790897607803344727e+00 8.610115051269531250e-01 5.938942909240722656e+00 2.039986371994018555e+00 3.257340192794799805e+00
3.066000000000000000e+03 8.759245872497558594e+00 3.574101686477661133e+00 4.951182603836059570e-01 7.546684741973876953e+00 2.412540912628173828e+00 -3.586480379104614258e+00
3.067000000000000000e+03 7.078189373016357422e+00 2.931263685226440430e+00 1.508075594902038574e+00 2.689858436584472656e+00 1.259380221366882324e+00 -2.205705642700195312e+00
3.068000000000000000e+03 9.466268539428710938e+00 3.667562007904052734e+00 -2.732243835926055908e-01 9.696969032287597656e+00 2.827123403549194336e+00 -3.271306514739990234e+00
3.069000000000000000e+03 1.093136978149414062e+01 8.021038055419921875e+00 -1.718218445777893066e+00 9.306491851806640625e+00 2.276482105255126953e+00 -5.425054430961608887e-01
3.070000000000000000e+03 1.696784782409667969e+01 -5.576166629791259766e+00 7.439382076263427734e-01 4.528055667877197266e+00 1.581598281860351562e+00 -4.262743890285491943e-01
3.071000000000000000e+03 4.568889617919921875e+00 3.724700689315795898e+00 6.875057220458984375e-01 1.005040407180786133e+00 5.077638030052185059e-01 -3.693136572837829590e-01
3.072000000000000000e+03 4.219087600708007812e+00 3.908895730972290039e+00 5.908612012863159180e-01 8.807780742645263672e-01 4.414917826652526855e-01 -2.538921236991882324e-01
3.073000000000000000e+03 1.095908832550048828e+01 3.469599246978759766e+00 -8.549443483352661133e-01 1.281366634368896484e+01 3.587616682052612305e+00 -1.296838760375976562e+00
3.074000000000000000e+03 1.568280124664306641e+01 9.492452144622802734e-01 3.635551929473876953e+00 5.332925796508789062e+00 2.690543174743652344e+00 -2.375347912311553955e-02
3.075000000000000000e+03 1.202917766571044922e+01 -2.317104578018188477e+00 2.118618965148925781e+00 1.288044834136962891e+01 4.499720096588134766e+00 -1.630522608757019043e+00
3.076000000000000000e+03 1.328844165802001953e+01 1.909806728363037109e-01 6.294140338897705078e+00 9.141502380371093750e+00 4.630692958831787109e+00 -6.348779052495956421e-02
3.077000000000000000e+03 1.309491252899169922e+01 8.744862675666809082e-01 5.693337440490722656e+00 9.834375381469726562e+00 4.658313751220703125e+00 9.854746460914611816e-01
3.078000000000000000e+03 1.285067749023437500e+01 -1.606668680906295776e-01 7.054234504699707031e+00 1.005373191833496094e+01 5.132390022277832031e+00 -6.445876955986022949e-01
3.079000000000000000e+03 1.869020080566406250e+01 -3.181200742721557617e+00 2.633675813674926758e+00 2.128377199172973633e+00 1.428615927696228027e+00 -6.946913599967956543e-01
3.080000000000000000e+03 1.145604705810546875e+01 2.815034151077270508e+00 9.635612368583679199e-02 1.376088237762451172e+01 4.157171726226806641e+00 -7.676892727613449097e-02
3.081000000000000000e+03 1.049706745147705078e+01 3.311852455139160156e+00 -7.320824265480041504e-01 1.259736824035644531e+01 3.559585809707641602e+00 -2.240702152252197266e+00
3.082000000000000000e+03 1.260002613067626953e+01 1.424309968948364258e+00 4.615301132202148438e+00 1.156022739410400391e+01 4.852658748626708984e+00 1.638995647430419922e+00
3.083000000000000000e+03 1.258166408538818359e+01 1.737552165985107422e+00 3.738429546356201172e+00 1.180857086181640625e+01 4.664100170135498047e+00 1.644305706024169922e+00
3.084000000000000000e+03 1.224848175048828125e+01 2.004053592681884766e+00 2.771926403045654297e+00 1.288472843170166016e+01 4.696996688842773438e+00 1.553458094596862793e+00
3.085000000000000000e+03 1.190534782409667969e+01 2.520324945449829102e+00 1.070980191230773926e+00 1.335781764984130859e+01 4.328639507293701172e+00 8.762229681015014648e-01
3.086000000000000000e+03 1.419274330139160156e+01 3.960435390472412109e+00 1.432308107614517212e-01 8.701400756835937500e+00 2.653389692306518555e+00 6.399546265602111816e-01
3.087000000000000000e+03 5.406808853149414062e+00 2.868375539779663086e+00 8.729791641235351562e-01 9.504618644714355469e-01 5.470322966575622559e-01 -5.650039315223693848e-01
3.088000000000000000e+03 5.656718730926513672e+00 -3.342173576354980469e+00 1.075888156890869141e+00 1.396695852279663086e+00 7.417752146720886230e-01 1.045355558395385742e+00
3.089000000000000000e+03 2.975393533706665039e+00 4.417612075805664062e+00 3.631828427314758301e-01 3.457735478878021240e-01 2.126869112253189087e-01 4.924738779664039612e-02
3.090000000000000000e+03 4.151644706726074219e+00 5.212136268615722656e+00 4.558685123920440674e-01 1.359620451927185059e+00 5.446466803550720215e-01 -4.562597572803497314e-01
3.091000000000000000e+03 3.795445919036865234e+00 -5.181958675384521484e+00 4.405775964260101318e-01 1.159171223640441895e+00 4.799246490001678467e-01 4.809876084327697754e-01
3.092000000000000000e+03 4.282701969146728516e+00 -5.225682735443115234e+00 5.005692839622497559e-01 1.465021610260009766e+00 5.896772742271423340e-01 6.698330640792846680e-01
3.093000000000000000e+03 3.572073698043823242e+00 -3.435749053955078125e+00 4.367556571960449219e-01 4.519127309322357178e-01 2.666005194187164307e-01 2.873383089900016785e-02
3.094000000000000000e+03 3.903117418289184570e+00 -4.148374557495117188e+00 5.273113846778869629e-01 8.388699889183044434e-01 4.098544120788574219e-01 3.277514576911926270e-01
3.095000000000000000e+03 4.486146926879882812e+00 -3.454438447952270508e+00 7.097485065460205078e-01 8.118239641189575195e-01 4.564717411994934082e-01 4.078402817249298096e-01
3.096000000000000000e+03 6.212321281433105469e+00 -3.968068361282348633e+00 1.057954430580139160e+00 2.480253458023071289e+00 1.061462402343750000e+00 1.637399673461914062e+00
3.097000000000000000e+03 1.057741928100585938e+01 9.631693840026855469e+00 -1.065756440162658691e+00 8.700469970703125000e+00 2.290414094924926758e+00 -2.736468911170959473e-01
3.098000000000000000e+03 1.407531261444091797e+01 -8.534790039062500000e+00 -1.806613683700561523e+00 7.881261825561523438e+00 1.822394371032714844e+00 6.372428536415100098e-01
3.099000000000000000e+03 1.440898036956787109e+01 -6.992249965667724609e+00 -1.054786920547485352e+00 7.489515304565429688e+00 1.930418491363525391e+00 1.276869922876358032e-01
3.100000000000000000e+03 1.640009307861328125e+01 4.916679561138153076e-01 3.562302589416503906e+00 4.335281372070312500e+00 2.369275093078613281e+00 -3.351684510707855225e-01
3.101000000000000000e+03 1.649302291870117188e+01 1.849916100502014160e+00 2.692789077758789062e+00 4.484800815582275391e+00 2.153276920318603516e+00 8.379621803760528564e-02
3.102000000000000000e+03 5.137196540832519531e+00 -6.218275070190429688e+00 2.522927224636077881e-01 2.637391805648803711e+00 8.669053912162780762e-01 1.047783493995666504e+00
3.103000000000000000e+03 6.060478687286376953e+00 9.650273323059082031e+00 -2.097516506910324097e-01 4.351365566253662109e+00 1.242484211921691895e+00 -6.032016277313232422e-01
3.104000000000000000e+03 5.738751411437988281e+00 8.891842842102050781e+00 -1.383791416883468628e-01 3.919445991516113281e+00 1.134320139884948730e+00 -6.569231748580932617e-01
3.105000000000000000e+03 8.298598289489746094e+00 8.851879119873046875e+00 -7.478795647621154785e-01 6.821711063385009766e+00 1.822149515151977539e+00 -7.259218096733093262e-01
3.106000000000000000e+03 5.198389053344726562e+00 6.816222190856933594e+00 1.773993968963623047e-01 2.930446863174438477e+00 9.323539137840270996e-01 -8.747791051864624023e-01
3.107000000000000000e+03 5.286177635192871094e+00 7.488425254821777344e+00 4.381600022315979004e-02 3.230052471160888672e+00 9.821605682373046875e-01 -7.795506715774536133e-01
3.108000000000000000e+03 5.882565975189208984e+00 7.406784534454345703e+00 -3.158374875783920288e-02 3.828468561172485352e+00 1.139065384864807129e+00 -9.638919234275817871e-01
3.109000000000000000e+03 1.492095375061035156e+01 3.431106567382812500e+00 9.465413689613342285e-01 7.359738826751708984e+00 2.491883993148803711e+00 6.027754545211791992e-01
3.110000000000000000e+03 1.462222099304199219e+01 4.314676761627197266e+00 -6.730336695909500122e-02 8.000794410705566406e+00 2.380047321319580078e+00 5.016790628433227539e-01
3.111000000000000000e+03 5.948828220367431641e+00 -9.529612541198730469e+00 -4.748495519161224365e-01 4.198081970214843750e+00 1.116969704627990723e+00 6.855011582374572754e-01
3.112000000000000000e+03 4.929600238800048828e+00 -7.510361671447753906e+00 -6.083129905164241791e-03 2.824831724166870117e+00 8.456245660781860352e-01 8.830982446670532227e-01
3.113000000000000000e+03 1.777645492553710938e+01 1.433610469102859497e-01 3.257204055786132812e+00 2.698051214218139648e+00 1.786576628684997559e+00 -5.232252478599548340e-01
3.114000000000000000e+03 1.708092880249023438e+01 1.032736063003540039e+00 3.098632335662841797e+00 3.580881118774414062e+00 2.003854036331176758e+00 -2.415035814046859741e-01
3.115000000000000000e+03 1.419916725158691406e+01 5.060018062591552734e+00 -9.998648762702941895e-01 8.779644012451171875e+00 2.333933830261230469e+00 2.650604844093322754e-01
3.116000000000000000e+03 1.295328998565673828e+01 3.707530975341796875e+00 -9.608062356710433960e-02 1.074627399444580078e+01 3.195058107376098633e+00 6.155952811241149902e-01
3.117000000000000000e+03 1.370132827758789062e+01 5.840889453887939453e+00 -1.616887450218200684e+00 9.400808334350585938e+00 2.335176467895507812e+00 5.828610807657241821e-02
3.118000000000000000e+03 1.005150413513183594e+01 1.149139404296875000e+01 -1.335195600986480713e-01 7.979925155639648438e+00 2.353921651840209961e+00 -1.127247959375381470e-01
3.119000000000000000e+03 9.293935775756835938e+00 1.350401210784912109e+01 6.514362096786499023e-01 7.112174987792968750e+00 2.329083442687988281e+00 -2.254780530929565430e-01
3.120000000000000000e+03 1.664339065551757812e+01 -6.155120849609375000e+00 3.928300440311431885e-01 4.823618888854980469e+00 1.564934730529785156e+00 -2.546694874763488770e-01
3.121000000000000000e+03 1.508839988708496094e+01 -7.035119056701660156e+00 -8.013145923614501953e-01 6.801157951354980469e+00 1.799952983856201172e+00 9.608922898769378662e-02
3.122000000000000000e+03 1.693655586242675781e+01 -7.792029380798339844e+00 -4.154805839061737061e-01 4.610135555267333984e+00 1.258396506309509277e+00 3.425001800060272217e-01
3.123000000000000000e+03 7.083078002929687500e+01 7.894473552703857422e+00 6.123972535133361816e-01 7.033614158630371094e+00 2.293803453445434570e+00 -3.949878215789794922e-01
3.124000000000000000e+03 6.650985717773437500e+01 -3.704669952392578125e+00 -6.048483029007911682e-02 5.226066112518310547e+00 1.549674391746520996e+00 -1.094453454017639160e+00
3.125000000000000000e+03 7.081254577636718750e+01 4.609520912170410156e+00 4.012038409709930420e-01 6.889084339141845703e+00 2.187086343765258789e+00 -6.507862210273742676e-01
3.126000000000000000e+03 6.459152221679687500e+00 -1.087781620025634766e+01 -5.216789841651916504e-01 4.785680770874023438e+00 1.279200553894042969e+00 4.784823954105377197e-01
3.127000000000000000e+03 7.086005687713623047e+00 -1.222710514068603516e+01 -4.285562634468078613e-01 5.287916660308837891e+00 1.457808017730712891e+00 1.797591000795364380e-01
3.128000000000000000e+03 1.170257186889648438e+01 -1.073151779174804688e+01 -1.732536077499389648e+00 8.548364639282226562e+00 2.044748783111572266e+00 2.918697893619537354e-01
3.129000000000000000e+03 6.438924407958984375e+01 -6.712283611297607422e+00 -2.401689440011978149e-02 3.049161434173583984e+00 9.075433611869812012e-01 -1.197981119155883789e+00
3.130000000000000000e+03 6.793629455566406250e+01 -6.046541690826416016e+00 -7.648883461952209473e-01 5.898885250091552734e+00 1.540199160575866699e+00 -1.526003599166870117e+00
3.131000000000000000e+03 1.212808895111083984e+01 -1.002431297302246094e+01 -1.943992853164672852e+00 8.690376281738281250e+00 2.023915052413940430e+00 4.823928177356719971e-01
3.132000000000000000e+03 1.546240997314453125e+01 2.195820569992065430e+00 2.490310192108154297e+00 6.058041095733642578e+00 2.564505338668823242e+00 4.639036655426025391e-01
3.133000000000000000e+03 6.379875183105468750e+01 -3.077042102813720703e+00 5.713979601860046387e-01 4.102668285369873047e+00 1.402219891548156738e+00 -2.468085139989852905e-01
3.134000000000000000e+03 6.301327133178710938e+01 -4.140296459197998047e+00 5.601794719696044922e-01 3.427995204925537109e+00 1.196452379226684570e+00 -1.439186036586761475e-01
3.135000000000000000e+03 6.333568572998046875e+01 -5.912616252899169922e+00 2.288184314966201782e-01 2.849430322647094727e+00 9.234746098518371582e-01 -5.351436138153076172e-01
3.136000000000000000e+03 6.750220298767089844e+00 9.359278678894042969e+00 -3.155010640621185303e-01 4.991968154907226562e+00 1.402940154075622559e+00 -6.316556334495544434e-01
3.137000000000000000e+03 7.084746551513671875e+01 1.154297447204589844e+01 7.272940874099731445e-01 7.183382511138916016e+00 2.373203039169311523e+00 -4.780678451061248779e-02
3.138000000000000000e+03 1.865447616577148438e+01 -5.079415798187255859e+00 1.607483506202697754e+00 2.513811826705932617e+00 1.236388564109802246e+00 -4.664652943611145020e-01
3.139000000000000000e+03 1.266801929473876953e+01 -1.835607409477233887e+00 3.778649091720581055e+00 1.126955413818359375e+01 4.514461040496826172e+00 -2.207050323486328125e+00
3.140000000000000000e+03 2.049956703186035156e+01 -3.737747907638549805e+00 2.510423183441162109e+00 6.981437802314758301e-01 9.625700712203979492e-01 -3.722101747989654541e-01
3.141000000000000000e+03 2.092265129089355469e+01 -4.309303760528564453e+00 2.233386993408203125e+00 5.023956894874572754e-01 8.207347989082336426e-01 -2.842982709407806396e-01
3.142000000000000000e+03 7.073609161376953125e+01 -6.294295787811279297e+00 -9.919512867927551270e-01 7.340857028961181641e+00 1.904671669006347656e+00 -1.049424886703491211e+00
3.143000000000000000e+03 8.659008026123046875e+00 1.211004352569580078e+01 1.188945546746253967e-01 6.697754383087158203e+00 2.044994592666625977e+00 -2.265921831130981445e-01
3.144000000000000000e+03 9.924610137939453125e+00 -1.168454742431640625e+01 -1.043180823326110840e+00 7.545806884765625000e+00 1.950787782669067383e+00 1.470373123884201050e-01
3.145000000000000000e+03 1.033075523376464844e+01 -2.478739738464355469e+01 -1.501200497150421143e-01 6.645239353179931641e+00 1.948535799980163574e+00 1.271941304206848145e+00
3.146000000000000000e+03 6.996214294433593750e+01 1.653490257263183594e+01 6.457857489585876465e-01 7.311308860778808594e+00 2.387128353118896484e+00 4.671803414821624756e-01
3.147000000000000000e+03 1.318635940551757812e+01 -5.648061633110046387e-01 6.239356994628906250e+00 9.444746971130371094e+00 4.705231189727783203e+00 -1.269499540328979492e+00
3.148000000000000000e+03 7.150513458251953125e+01 3.646318435668945312e+01 -9.150284528732299805e-02 6.605575561523437500e+00 1.954221725463867188e+00 -1.540503464639186859e-02
3.149000000000000000e+03 6.905971527099609375e+01 5.995905876159667969e+00 6.465688347816467285e-01 6.995238304138183594e+00 2.292542219161987305e+00 -4.303162693977355957e-01
3.150000000000000000e+03 6.921530914306640625e+01 2.569590950012207031e+01 -5.575500726699829102e-01 6.953166961669921875e+00 1.918685078620910645e+00 2.415555268526077271e-01
3.151000000000000000e+03 6.492683410644531250e+01 2.553818130493164062e+01 -9.282323718070983887e-01 6.225449085235595703e+00 1.589164972305297852e+00 -5.150184035301208496e-01
3.152000000000000000e+03 7.240898895263671875e+01 -6.356850624084472656e+00 -9.154466390609741211e-01 7.787631511688232422e+00 2.061655282974243164e+00 -6.346086859703063965e-01
3.153000000000000000e+03 6.998050689697265625e+01 1.525459051132202148e+00 1.886665374040603638e-01 6.709549903869628906e+00 2.069464921951293945e+00 -8.198734521865844727e-01
3.154000000000000000e+03 6.894766998291015625e+01 2.364510536193847656e+00 3.553815186023712158e-01 6.628883838653564453e+00 2.095279693603515625e+00 -6.758310198783874512e-01
3.155000000000000000e+03 1.094436931610107422e+01 2.442968750000000000e+01 -1.120379924774169922e+00 6.772931575775146484e+00 1.695765495300292969e+00 -6.843465566635131836e-01
3.156000000000000000e+03 6.850165557861328125e+01 -5.004539966583251953e+00 -5.898721218109130859e-01 6.170448780059814453e+00 1.674172997474670410e+00 -1.364052891731262207e+00
3.157000000000000000e+03 7.097183704376220703e+00 -1.481149578094482422e+01 3.299130797386169434e-01 5.105083942413330078e+00 1.630499124526977539e+00 1.231600642204284668e-01
3.158000000000000000e+03 9.400500297546386719e+00 -1.451182746887207031e+01 3.317798972129821777e-01 7.018144607543945312e+00 2.204977512359619141e+00 -1.294037848711013794e-01
3.159000000000000000e+03 6.796182250976562500e+01 1.880124664306640625e+01 4.989283084869384766e-01 7.526929855346679688e+00 2.407757520675659180e+00 5.346611738204956055e-01
3.160000000000000000e+03 9.697109222412109375e+00 1.248762607574462891e+01 2.149134129285812378e-01 7.775974750518798828e+00 2.397266626358032227e+00 -1.387687176465988159e-01
3.161000000000000000e+03 9.723992347717285156e+00 -1.302444934844970703e+01 -4.363160133361816406e-01 7.384483814239501953e+00 2.084450244903564453e+00 -9.949837625026702881e-02
3.162000000000000000e+03 1.062949562072753906e+01 -1.235432338714599609e+01 -9.614669084548950195e-01 8.121977806091308594e+00 2.148153305053710938e+00 -7.798012811690568924e-03
3.163000000000000000e+03 1.054314422607421875e+01 -2.970115852355957031e+01 -9.899885654449462891e-01 5.568909168243408203e+00 1.373676180839538574e+00 6.309301257133483887e-01
3.164000000000000000e+03 1.224136257171630859e+01 -3.286417770385742188e+01 -9.699487686157226562e-01 4.766677856445312500e+00 1.139018654823303223e+00 7.689064741134643555e-02
3.165000000000000000e+03 6.903932952880859375e+01 -5.993172645568847656e+00 -8.815097808837890625e-01 6.524254322052001953e+00 1.692823410034179688e+00 -1.482903122901916504e+00
3.166000000000000000e+03 3.840729141235351562e+01 2.139524841308593750e+01 -7.464255690574645996e-01 5.433172702789306641e+00 1.406024098396301270e+00 7.347975969314575195e-01
3.167000000000000000e+03 3.740752029418945312e+01 1.888620567321777344e+01 -3.227095305919647217e-01 6.315302848815917969e+00 1.797778010368347168e+00 3.726387619972229004e-01
3.168000000000000000e+03 6.855761718750000000e+01 2.010429382324218750e+01 1.778656840324401855e-01 7.353904724121093750e+00 2.259531259536743164e+00 6.409933567047119141e-01
3.169000000000000000e+03 3.904287719726562500e+01 -2.841412734985351562e+01 9.255629777908325195e-02 7.333678245544433594e+00 2.227870464324951172e+00 2.544180750846862793e-01
3.170000000000000000e+03 7.288511753082275391e+00 -3.035188674926757812e+01 -5.808585286140441895e-01 5.154386043548583984e+00 1.372058153152465820e+00 1.004798889160156250e+00
3.171000000000000000e+03 9.520699501037597656e+00 -3.102937316894531250e+01 -8.537377715110778809e-01 5.270832061767578125e+00 1.325128316879272461e+00 6.901928186416625977e-01
3.172000000000000000e+03 3.808364868164062500e+01 -2.773876380920410156e+01 2.521806359291076660e-01 7.221995830535888672e+00 2.242253065109252930e+00 5.619214177131652832e-01
3.173000000000000000e+03 6.647640991210937500e+01 3.278882217407226562e+01 -2.473224550485610962e-01 5.633836746215820312e+00 1.615954279899597168e+00 -2.846722602844238281e-01
3.174000000000000000e+03 4.383849716186523438e+01 2.804110908508300781e+01 -6.277658343315124512e-01 3.289061784744262695e+00 7.983887791633605957e-01 1.116945147514343262e+00
3.175000000000000000e+03 4.190078353881835938e+01 2.566259574890136719e+01 -8.546682000160217285e-01 3.935070753097534180e+00 9.241207242012023926e-01 1.116235375404357910e+00
3.176000000000000000e+03 3.865305328369140625e+01 2.392465400695800781e+01 -9.708915948867797852e-01 4.865071296691894531e+00 1.168253898620605469e+00 7.116730213165283203e-01
3.177000000000000000e+03 4.215662002563476562e+01 2.300966644287109375e+01 -7.440558075904846191e-01 4.188461780548095703e+00 1.033321738243103027e+00 1.330160379409790039e+00
3.178000000000000000e+03 3.988709640502929688e+01 -2.945444869995117188e+01 -2.251409441232681274e-01 7.367299079895019531e+00 2.142647504806518555e+00 1.907521039247512817e-01
3.179000000000000000e+03 6.609286499023437500e+01 2.466161727905273438e+01 -9.100707173347473145e-01 6.787444114685058594e+00 1.763211965560913086e+00 -8.299174159765243530e-02
3.180000000000000000e+03 1.009285926818847656e+01 3.479065322875976562e+01 -4.427411556243896484e-01 4.545172691345214844e+00 1.230729579925537109e+00 -6.847901642322540283e-02
3.181000000000000000e+03 7.001913452148437500e+01 3.109796714782714844e+01 -3.343538045883178711e-01 6.528385162353515625e+00 1.858209490776062012e+00 -7.979626767337322235e-03
3.182000000000000000e+03 6.852324676513671875e+01 2.848680305480957031e+01 -5.552294254302978516e-01 6.523819446563720703e+00 1.790577054023742676e+00 -3.046026639640331268e-02
3.183000000000000000e+03 6.376410293579101562e+01 2.653626251220703125e+01 -8.864867091178894043e-01 5.616173267364501953e+00 1.418905973434448242e+00 -7.825691699981689453e-01
3.184000000000000000e+03 6.529196929931640625e+01 2.334451103210449219e+01 -8.152093291282653809e-01 6.927607536315917969e+00 1.833719372749328613e+00 -1.436882764101028442e-01
3.185000000000000000e+03 1.388681125640869141e+01 3.217213058471679688e+01 -6.181722283363342285e-01 4.138849735260009766e+00 1.056203246116638184e+00 2.986593544483184814e-01
3.186000000000000000e+03 2.988210296630859375e+01 2.776736450195312500e+01 -8.689069747924804688e-01 3.176335573196411133e+00 6.922285556793212891e-01 -1.005167484283447266e+00
3.187000000000000000e+03 2.793812370300292969e+01 2.915278816223144531e+01 -5.120035409927368164e-01 2.492585659027099609e+00 5.941746234893798828e-01 -9.144281744956970215e-01
3.188000000000000000e+03 3.544396972656250000e+01 2.360496139526367188e+01 -1.065188646316528320e+00 5.211339473724365234e+00 1.243845224380493164e+00 -1.723746210336685181e-02
3.189000000000000000e+03 3.117587852478027344e+01 2.837532806396484375e+01 -9.274365305900573730e-01 3.525566816329956055e+00 7.794390320777893066e-01 -8.395907282829284668e-01
3.190000000000000000e+03 7.082915496826171875e+01 6.712222099304199219e-01 7.652082294225692749e-02 6.760824203491210938e+00 2.051203489303588867e+00 -9.036980867385864258e-01
3.191000000000000000e+03 3.611960983276367188e+01 1.917201614379882812e+01 -2.447376847267150879e-01 6.351209163665771484e+00 1.831941366195678711e+00 3.783898195251822472e-03
3.192000000000000000e+03 6.812267303466796875e+01 2.771309614181518555e-01 2.274886965751647949e-01 6.308441638946533203e+00 1.960779070854187012e+00 -7.633067965507507324e-01
3.193000000000000000e+03 7.149383544921875000e+01 -1.566262543201446533e-01 -7.151596993207931519e-02 6.913748741149902344e+00 2.052669763565063477e+00 -9.329018592834472656e-01
3.194000000000000000e+03 6.480101776123046875e+01 -3.899426460266113281e+00 2.462693303823471069e-01 4.321980953216552734e+00 1.370475172996520996e+00 -7.437304854393005371e-01
3.195000000000000000e+03 6.841699123382568359e+00 3.199003458023071289e+00 1.345780968666076660e+00 2.672767639160156250e+00 1.205564618110656738e+00 -1.980300784111022949e+00
3.196000000000000000e+03 7.668086528778076172e+00 -3.011271238327026367e+00 1.718051552772521973e+00 3.786009788513183594e+00 1.651218414306640625e+00 2.972051858901977539e+00
3.197000000000000000e+03 6.948214054107666016e+00 -2.954804182052612305e+00 1.605012059211730957e+00 2.448562622070312500e+00 1.216072440147399902e+00 2.134965181350708008e+00
3.198000000000000000e+03 8.061890602111816406e+00 3.351878404617309570e+00 1.074753165245056152e+00 5.458343505859375000e+00 1.959928989410400391e+00 -3.294052362442016602e+00
3.199000000000000000e+03 5.766174793243408203e+00 6.236032962799072266e+00 2.467509657144546509e-01 3.336474895477294922e+00 1.074967741966247559e+00 -1.147388815879821777e+00
3.200000000000000000e+03 7.859128475189208984e+00 -3.234824419021606445e+00 1.495577096939086914e+00 4.513190269470214844e+00 1.802630186080932617e+00 3.154967784881591797e+00
3.201000000000000000e+03 8.447814941406250000e+00 3.572123527526855469e+00 7.221244573593139648e-01 6.636980533599853516e+00 2.207731485366821289e+00 -3.482210874557495117e+00
3.202000000000000000e+03 7.687272071838378906e+00 3.185116767883300781e+00 1.402786731719970703e+00 4.169030189514160156e+00 1.671545147895812988e+00 -2.949316740036010742e+00
3.203000000000000000e+03 7.286633968353271484e+00 3.192782402038574219e+00 1.374318122863769531e+00 3.421967029571533203e+00 1.438885569572448730e+00 -2.459228277206420898e+00
3.204000000000000000e+03 8.503158569335937500e+00 -3.519495248794555664e+00 9.410307407379150391e-01 6.464697360992431641e+00 2.221718311309814453e+00 3.519191265106201172e+00
3.205000000000000000e+03 8.294957160949707031e+00 -3.243100404739379883e+00 1.326365828514099121e+00 5.767612457275390625e+00 2.128193616867065430e+00 3.594971895217895508e+00
3.206000000000000000e+03 5.404541492462158203e+00 -3.592945575714111328e+00 9.895789027214050293e-01 1.418321728706359863e+00 7.223702073097229004e-01 9.593278169631958008e-01
3.207000000000000000e+03 4.984253883361816406e+00 3.680095672607421875e+00 7.834547758102416992e-01 1.227781534194946289e+00 6.033709049224853516e-01 -5.871698856353759766e-01
3.208000000000000000e+03 1.120268440246582031e+01 -3.149415016174316406e+00 -4.608682915568351746e-02 1.276997756958007812e+01 3.817167282104492188e+00 5.350947976112365723e-01
3.209000000000000000e+03 4.880113601684570312e+00 -3.736671686172485352e+00 8.263281583786010742e-01 1.168751001358032227e+00 5.985237360000610352e-01 6.808314919471740723e-01
3.210000000000000000e+03 1.325276470184326172e+01 -1.855309307575225830e-01 6.396142482757568359e+00 9.179009437561035156e+00 4.672545433044433594e+00 -6.739870309829711914e-01
3.211000000000000000e+03 1.031377983093261719e+01 -3.658820390701293945e+00 -4.820704758167266846e-01 1.115500450134277344e+01 3.201880216598510742e+00 2.235395431518554688e+00
3.212000000000000000e+03 6.020301342010498047e+00 3.709875345230102539e+00 1.006563425064086914e+00 2.130823850631713867e+00 9.412162303924560547e-01 -1.310130476951599121e+00
3.213000000000000000e+03 1.184015560150146484e+01 6.704649448394775391e+00 -1.946722269058227539e+00 9.994321823120117188e+00 2.414279937744140625e+00 -4.999981820583343506e-01
3.214000000000000000e+03 1.149502468109130859e+01 -2.972247362136840820e+00 3.956529498100280762e-01 1.294720840454101562e+01 4.002858638763427734e+00 -1.803651452064514160e-01
3.215000000000000000e+03 1.182260608673095703e+01 -2.823284626007080078e+00 8.855339884757995605e-01 1.281168842315673828e+01 4.109166622161865234e+00 -8.422215580940246582e-01
3.216000000000000000e+03 1.117020034790039062e+01 3.798498868942260742e+00 -9.949557185173034668e-01 1.222575092315673828e+01 3.369238615036010742e+00 -1.020491242408752441e+00
3.217000000000000000e+03 1.506081581115722656e+01 2.655861139297485352e+00 2.013187885284423828e+00 6.909946441650390625e+00 2.676940202713012695e+00 6.652870774269104004e-01
3.218000000000000000e+03 1.294852542877197266e+01 4.413974761962890625e+00 -9.324713945388793945e-01 1.053100776672363281e+01 2.879560947418212891e+00 2.570212781429290771e-01
3.219000000000000000e+03 1.288202095031738281e+01 2.154310941696166992e+00 2.742699861526489258e+00 1.104960536956787109e+01 4.137691497802734375e+00 1.462189674377441406e+00
3.220000000000000000e+03 1.256443500518798828e+01 2.049016952514648438e+00 2.813941240310668945e+00 1.185169506072998047e+01 4.399690628051757812e+00 1.466033935546875000e+00
3.221000000000000000e+03 1.185054874420166016e+01 3.353718042373657227e+00 -3.758924901485443115e-01 1.265127944946289062e+01 3.682616233825683594e+00 6.470535695552825928e-02
3.222000000000000000e+03 1.348297023773193359e+01 9.858270287513732910e-01 5.126669883728027344e+00 9.147439956665039062e+00 4.282232761383056641e+00 8.171689510345458984e-01
3.223000000000000000e+03 1.294204044342041016e+01 1.828869342803955078e+00 3.564343214035034180e+00 1.081476879119873047e+01 4.313733577728271484e+00 1.509531974792480469e+00
3.224000000000000000e+03 5.310484409332275391e+00 3.180624723434448242e+00 8.865921497344970703e-01 1.098953247070312500e+00 5.956636071205139160e-01 -6.438363790512084961e-01
3.225000000000000000e+03 5.790691852569580078e+00 3.349194049835205078e+00 9.942365288734436035e-01 1.604390025138854980e+00 7.795879840850830078e-01 -1.001057624816894531e+00
3.226000000000000000e+03 4.194321632385253906e+00 -3.818096637725830078e+00 6.491435766220092773e-01 8.343352079391479492e-01 4.450436234474182129e-01 3.728601634502410889e-01
3.227000000000000000e+03 7.302458763122558594e+00 -1.089633655548095703e+01 -6.984182000160217285e-01 5.549427032470703125e+00 1.455302715301513672e+00 4.559794664382934570e-01
3.228000000000000000e+03 6.554083347320556641e+00 -8.427959442138671875e+00 -5.170801877975463867e-01 4.647546291351318359e+00 1.239139795303344727e+00 1.024499177932739258e+00
3.229000000000000000e+03 5.777657032012939453e+00 6.808900356292724609e+00 8.496918529272079468e-02 3.593156099319458008e+00 1.103437662124633789e+00 -1.006620407104492188e+00
3.230000000000000000e+03 5.263248443603515625e+00 5.607748508453369141e+00 4.299486875534057617e-01 2.496781349182128906e+00 8.780189752578735352e-01 -9.376860260963439941e-01
3.231000000000000000e+03 4.391868591308593750e+00 4.626586437225341797e+00 5.401970744132995605e-01 1.309691429138183594e+00 5.549665689468383789e-01 -4.491738080978393555e-01
3.232000000000000000e+03 8.576692581176757812e+00 9.936578750610351562e+00 -6.001618504524230957e-01 6.989940166473388672e+00 1.916933536529541016e+00 -4.455960392951965332e-01
3.233000000000000000e+03 1.623873519897460938e+01 -6.676717281341552734e+00 -1.136800050735473633e-01 5.405069828033447266e+00 1.587416887283325195e+00 -7.288096845149993896e-02
3.234000000000000000e+03 5.558433532714843750e+00 -6.586064815521240234e+00 1.087522506713867188e-01 3.202044248580932617e+00 9.932389259338378906e-01 1.177698254585266113e+00
3.235000000000000000e+03 4.294911861419677734e+00 -4.697387695312500000e+00 6.046643257141113281e-01 1.287426829338073730e+00 5.676273703575134277e-01 6.210054755210876465e-01
3.236000000000000000e+03 4.764986515045166016e+00 -5.212710380554199219e+00 5.374639630317687988e-01 1.810729146003723145e+00 7.044579386711120605e-01 8.526524901390075684e-01
3.237000000000000000e+03 1.076177310943603516e+01 8.790866851806640625e+00 -1.417016983032226562e+00 9.072244644165039062e+00 2.296568393707275391e+00 -2.986273765563964844e-01
3.238000000000000000e+03 6.192575931549072266e+00 -7.242660522460937500e+00 -1.827098876237869263e-01 4.031988620758056641e+00 1.154783606529235840e+00 1.242795228958129883e+00
3.239000000000000000e+03 1.410986709594726562e+01 4.472982883453369141e+00 -5.362165570259094238e-01 8.908426284790039062e+00 2.511662960052490234e+00 3.900526762008666992e-01
3.240000000000000000e+03 1.356499004364013672e+01 5.139212608337402344e+00 -1.321550488471984863e+00 9.692062377929687500e+00 2.511153459548950195e+00 1.619831174612045288e-01
3.241000000000000000e+03 1.575080299377441406e+01 1.586884737014770508e+00 3.128963708877563477e+00 5.395993709564208984e+00 2.557487249374389648e+00 1.990559995174407959e-01
3.242000000000000000e+03 1.532391834259033203e+01 4.403234422206878662e-01 4.112605094909667969e+00 5.726122856140136719e+00 2.951618432998657227e+00 -2.512029707431793213e-01
3.243000000000000000e+03 1.461297988891601562e+01 3.012008905410766602e+00 1.482188463211059570e+00 7.803086757659912109e+00 2.785582542419433594e+00 8.134301304817199707e-01
3.244000000000000000e+03 1.106200218200683594e+01 7.321195602416992188e+00 -1.823435664176940918e+00 9.594257354736328125e+00 2.331246614456176758e+00 -6.357587575912475586e-01
3.245000000000000000e+03 5.236319065093994141e+00 -7.017347812652587891e+00 5.958409234881401062e-02 3.033564090728759766e+00 9.279444217681884766e-01 1.009003400802612305e+00
3.246000000000000000e+03 5.472570419311523438e+00 -7.808225154876708984e+00 -1.698208153247833252e-01 3.453388929367065430e+00 9.850704669952392578e-01 9.581806063652038574e-01
3.247000000000000000e+03 6.359877586364746094e+00 8.673968315124511719e+00 -2.474562972784042358e-01 4.576827049255371094e+00 1.298811197280883789e+00 -8.006406426429748535e-01
3.248000000000000000e+03 6.604443073272705078e+00 7.846153259277343750e+00 -2.377521693706512451e-01 4.742860794067382812e+00 1.351532578468322754e+00 -1.034939885139465332e+00
3.249000000000000000e+03 1.329158592224121094e+01 -8.177360534667968750e+00 -1.834110021591186523e+00 8.388304710388183594e+00 1.966258406639099121e+00 5.362408757209777832e-01
3.250000000000000000e+03 1.260930728912353516e+01 -7.881494998931884766e+00 -1.859877705574035645e+00 8.712467193603515625e+00 2.055776834487915039e+00 5.483244061470031738e-01
3.251000000000000000e+03 1.496886920928955078e+01 1.960006475448608398e+00 2.904637336730957031e+00 6.834741592407226562e+00 2.921813726425170898e+00 6.158848404884338379e-01
3.252000000000000000e+03 7.260632514953613281e+00 1.011384487152099609e+01 -3.316046297550201416e-01 5.604820251464843750e+00 1.581964731216430664e+00 -5.343828201293945312e-01
3.253000000000000000e+03 1.732352828979492188e+01 -6.622140884399414062e+00 3.000325858592987061e-01 4.047323703765869141e+00 1.304206967353820801e+00 -7.271099835634231567e-02
3.254000000000000000e+03 1.390735816955566406e+01 1.367096781730651855e+00 4.177247047424316406e+00 8.411015510559082031e+00 3.776479005813598633e+00 8.794904947280883789e-01
3.255000000000000000e+03 1.141466331481933594e+01 -9.630197525024414062e+00 -1.873697996139526367e+00 8.473746299743652344e+00 1.980014562606811523e+00 5.240219831466674805e-01
3.256000000000000000e+03 9.544775962829589844e+00 -1.096637344360351562e+01 -1.222650885581970215e+00 7.425755500793457031e+00 1.860931396484375000e+00 3.596419095993041992e-01
3.257000000000000000e+03 1.867114257812500000e+01 -4.155867099761962891e+00 2.118003368377685547e+00 2.317367076873779297e+00 1.330611109733581543e+00 -6.140435934066772461e-01
3.258000000000000000e+03 9.420279502868652344e+00 1.027961444854736328e+01 -5.938158035278320312e-01 7.588582515716552734e+00 2.098429918289184570e+00 -3.044945001602172852e-01
3.259000000000000000e+03 8.048316001892089844e+00 1.075405311584472656e+01 -2.590905427932739258e-01 6.238541603088378906e+00 1.793835282325744629e+00 -3.808099925518035889e-01
3.260000000000000000e+03 8.202627182006835938e+00 -1.275759983062744141e+01 -3.993996679782867432e-01 6.181471347808837891e+00 1.734621405601501465e+00 6.966531276702880859e-02
3.261000000000000000e+03 1.354894542694091797e+01 -7.541769504547119141e+00 -1.621366739273071289e+00 8.291221618652343750e+00 2.000956535339355469e+00 3.998050093650817871e-01
3.262000000000000000e+03 7.011264038085937500e+01 -5.283909320831298828e+00 -8.654547333717346191e-01 7.009274005889892578e+00 1.843145728111267090e+00 -1.235516667366027832e+00
3.263000000000000000e+03 6.839868164062500000e+01 -8.894012570381164551e-01 5.042826756834983826e-02 6.255214214324951172e+00 1.891692757606506348e+00 -8.736405372619628906e-01
3.264000000000000000e+03 7.015787506103515625e+01 -2.534554004669189453e+00 -2.995046973228454590e-01 6.652860641479492188e+00 1.906006813049316406e+00 -1.096003770828247070e+00
3.265000000000000000e+03 1.970511245727539062e+01 -3.314502477645874023e+00 2.629431724548339844e+00 1.269945621490478516e+00 1.169813156127929688e+00 -5.289002060890197754e-01
3.266000000000000000e+03 1.952882575988769531e+01 -4.243845939636230469e+00 2.180947780609130859e+00 1.626655817031860352e+00 1.142281055450439453e+00 -4.818557500839233398e-01
3.267000000000000000e+03 1.844491004943847656e+01 -2.212758064270019531e+00 2.985219001770019531e+00 2.153227806091308594e+00 1.541533946990966797e+00 -7.631415724754333496e-01
3.268000000000000000e+03 1.042704105377197266e+01 -1.104253959655761719e+01 -1.385509848594665527e+00 7.955529212951660156e+00 1.971005797386169434e+00 2.439025938510894775e-01
3.269000000000000000e+03 9.124334335327148438e+00 -1.222151565551757812e+01 -7.553447484970092773e-01 7.118678092956542969e+00 1.909000039100646973e+00 7.712690532207489014e-02
3.270000000000000000e+03 6.906126403808593750e+01 -3.091882705688476562e+00 -3.200602233409881592e-01 6.319959163665771484e+00 1.799969792366027832e+00 -1.129052400588989258e+00
3.271000000000000000e+03 6.686027526855468750e+01 -5.417281627655029297e+00 -4.624845683574676514e-01 5.247335433959960938e+00 1.435455322265625000e+00 -1.522138595581054688e+00
3.272000000000000000e+03 6.569352722167968750e+01 -1.086187839508056641e+00 4.069392085075378418e-01 5.342856884002685547e+00 1.724938750267028809e+00 -4.843031466007232666e-01
3.273000000000000000e+03 6.906198883056640625e+01 4.275632858276367188e+00 5.086715221405029297e-01 6.825014591217041016e+00 2.200105667114257812e+00 -5.510082840919494629e-01
3.274000000000000000e+03 1.715720176696777344e+01 -1.095402479171752930e+00 3.423188447952270508e+00 3.440248727798461914e+00 2.059031009674072266e+00 -8.362237811088562012e-01
3.275000000000000000e+03 1.620363044738769531e+01 -5.724356174468994141e-01 3.842887163162231445e+00 4.639605522155761719e+00 2.544747829437255859e+00 -7.879500985145568848e-01
3.276000000000000000e+03 6.685604095458984375e+01 -3.293515145778656006e-01 2.786781787872314453e-01 5.940601825714111328e+00 1.865783929824829102e+00 -5.945235490798950195e-01
3.277000000000000000e+03 6.810459899902343750e+01 3.330858945846557617e+00 4.758093357086181641e-01 6.716681480407714844e+00 2.157747268676757812e+00 -5.018178820610046387e-01
3.278000000000000000e+03 6.768722534179687500e+01 1.449234127998352051e+00 3.446512222290039062e-01 6.425954341888427734e+00 2.031181812286376953e+00 -5.879123806953430176e-01
3.279000000000000000e+03 6.731240081787109375e+01 -3.473923873901367188e+01 -3.295393586158752441e-01 4.691859722137451172e+00 1.308696150779724121e+00 6.943715810775756836e-01
3.280000000000000000e+03 4.412160491943359375e+01 -3.181312942504882812e+01 -8.315489888191223145e-01 6.943214893341064453e+00 1.833499789237976074e+00 -8.802193403244018555e-01
3.281000000000000000e+03 4.231085968017578125e+01 -3.048841285705566406e+01 -3.730370700359344482e-01 7.635224342346191406e+00 2.178656101226806641e+00 -3.114092648029327393e-01
3.282000000000000000e+03 6.660722351074218750e+01 2.266794013977050781e+01 -6.354655027389526367e-01 7.255488395690917969e+00 1.986006855964660645e+00 2.398487329483032227e-01
3.283000000000000000e+03 3.556129455566406250e+01 2.537301445007324219e+01 -1.156690716743469238e+00 4.813400268554687500e+00 1.097012877464294434e+00 -3.102600574493408203e-02
3.284000000000000000e+03 6.581750488281250000e+01 -4.691995143890380859e+00 -1.005952246487140656e-02 4.607888698577880859e+00 1.379348754882812500e+00 -1.151330351829528809e+00
3.285000000000000000e+03 6.913043975830078125e+01 3.359191513061523438e+01 -2.158070653676986694e-01 6.197873592376708984e+00 1.794620037078857422e+00 -1.053150370717048645e-01
3.286000000000000000e+03 6.457460784912109375e+01 2.795693016052246094e+01 -7.028651237487792969e-01 5.631042957305908203e+00 1.478453397750854492e+00 -6.188645958900451660e-01
3.287000000000000000e+03 6.702190399169921875e+01 2.798332405090332031e+01 -6.650366187095642090e-01 6.343884468078613281e+00 1.703654408454895020e+00 -2.202329188585281372e-01
3.288000000000000000e+03 3.387279510498046875e+01 2.534092712402343750e+01 -1.197385549545288086e+00 4.711060523986816406e+00 1.054102420806884766e+00 -3.850656151771545410e-01
3.289000000000000000e+03 8.461080551147460938e+00 -4.687257289886474609e+00 7.145549356937408447e-02 6.650858879089355469e+00 2.016694307327270508e+00 2.769494771957397461e+00
3.290000000000000000e+03 9.101250648498535156e+00 3.617989063262939453e+00 7.190990447998046875e-02 8.614841461181640625e+00 2.606025457382202148e+00 -3.532895803451538086e+00
3.291000000000000000e+03 7.522385120391845703e+00 3.428303956985473633e+00 1.207811474800109863e+00 4.128954887390136719e+00 1.601029872894287109e+00 -2.723243474960327148e+00
3.292000000000000000e+03 7.348306179046630859e+00 3.717906713485717773e+00 1.046164631843566895e+00 4.104609489440917969e+00 1.545232176780700684e+00 -2.518356800079345703e+00
3.293000000000000000e+03 7.167871952056884766e+00 -4.091720581054687500e+00 1.025425195693969727e+00 3.925004243850708008e+00 1.485128879547119141e+00 2.408442020416259766e+00
3.294000000000000000e+03 7.050220489501953125e+00 -3.490381479263305664e+00 1.359525799751281738e+00 3.156267404556274414e+00 1.354737877845764160e+00 2.325493335723876953e+00
3.295000000000000000e+03 1.227506637573242188e+01 -8.440378189086914062e+00 -1.945819735527038574e+00 8.658015251159667969e+00 2.013658523559570312e+00 6.142333149909973145e-01
3.296000000000000000e+03 9.722005844116210938e+00 -3.532434463500976562e+00 -4.603728279471397400e-02 1.005087280273437500e+01 3.001450777053833008e+00 3.134882926940917969e+00
3.297000000000000000e+03 5.748583793640136719e+00 5.724979400634765625e+00 3.743635714054107666e-01 3.114902019500732422e+00 1.046779632568359375e+00 -1.172061920166015625e+00
3.298000000000000000e+03 9.376514434814453125e+00 4.124804973602294922e+00 -4.937475025653839111e-01 9.214411735534667969e+00 2.616199254989624023e+00 -2.980461835861206055e+00
3.299000000000000000e+03 9.567851066589355469e+00 -3.688770294189453125e+00 -3.281801939010620117e-02 9.639086723327636719e+00 2.881880521774291992e+00 3.128658294677734375e+00
3.300000000000000000e+03 9.988232612609863281e+00 -3.622897386550903320e+00 -2.967307865619659424e-01 1.061998558044433594e+01 3.096976280212402344e+00 2.746762752532958984e+00
3.301000000000000000e+03 9.834694862365722656e+00 3.628303289413452148e+00 -5.752081871032714844e-01 1.070296382904052734e+01 3.038326740264892578e+00 -3.007682800292968750e+00
3.302000000000000000e+03 4.573241710662841797e+00 4.148915767669677734e+00 6.437216997146606445e-01 1.199620008468627930e+00 5.530024766921997070e-01 -4.620911777019500732e-01
3.303000000000000000e+03 1.170424365997314453e+01 -3.419821977615356445e+00 2.811511978507041931e-02 1.202196216583251953e+01 3.615023136138916016e+00 -1.755703240633010864e-01
3.304000000000000000e+03 1.515319442749023438e+01 -6.305697917938232422e+00 -3.762537240982055664e-01 6.745153427124023438e+00 1.910669922828674316e+00 -2.219996154308319092e-01
3.305000000000000000e+03 6.858862400054931641e+00 3.748730182647705078e+00 1.069370269775390625e+00 3.263327836990356445e+00 1.299809455871582031e+00 -2.034474372863769531e+00
3.306000000000000000e+03 1.379629230499267578e+01 1.341979801654815674e-01 5.628722667694091797e+00 8.176677703857421875e+00 4.141620159149169922e+00 -2.338459044694900513e-01
3.307000000000000000e+03 6.706725597381591797e+00 5.032943725585937500e+00 4.778604507446289062e-01 3.870719909667968750e+00 1.304574131965637207e+00 -1.783615469932556152e+00
3.308000000000000000e+03 1.400426959991455078e+01 5.065607428550720215e-01 5.175317287445068359e+00 7.914664745330810547e+00 3.926994562149047852e+00 1.438174992799758911e-01
3.309000000000000000e+03 1.229912757873535156e+01 2.986635684967041016e+00 5.793895125389099121e-01 1.207690620422363281e+01 3.796888828277587891e+00 7.520018815994262695e-01
3.310000000000000000e+03 1.100825214385986328e+01 -3.665017843246459961e+00 -5.058553814888000488e-01 1.189346599578857422e+01 3.416283130645751953e+00 1.040579319000244141e+00
3.311000000000000000e+03 1.217892360687255859e+01 -2.728021860122680664e+00 1.456426262855529785e+00 1.219401836395263672e+01 4.095133304595947266e+00 -1.387589812278747559e+00
3.312000000000000000e+03 1.362601947784423828e+01 -9.158748984336853027e-01 5.344807624816894531e+00 8.598243713378906250e+00 4.182915687561035156e+00 -1.467012643814086914e+00
3.313000000000000000e+03 1.498709201812744141e+01 1.128253221511840820e+00 3.812680482864379883e+00 6.507476329803466797e+00 3.096046924591064453e+00 2.783152759075164795e-01
3.314000000000000000e+03 1.254221534729003906e+01 -2.630760192871093750e+00 1.942443132400512695e+00 1.149359226226806641e+01 4.030810832977294922e+00 -1.683701038360595703e+00
3.315000000000000000e+03 1.460021686553955078e+01 -1.508525729179382324e+00 4.148307800292968750e+00 7.081396102905273438e+00 3.368911027908325195e+00 -1.568516373634338379e+00
3.316000000000000000e+03 1.144454479217529297e+01 4.086613655090332031e+00 -1.176132678985595703e+00 1.184996986389160156e+01 3.202151060104370117e+00 -7.454825639724731445e-01
3.317000000000000000e+03 5.258900642395019531e+00 -3.884109735488891602e+00 8.931670188903808594e-01 1.532229304313659668e+00 7.276189327239990234e-01 9.427160024642944336e-01
3.318000000000000000e+03 1.384830093383789062e+01 -6.230235099792480469e+00 -8.768619894981384277e-01 8.191802978515625000e+00 2.194482326507568359e+00 -1.090131625533103943e-01
3.319000000000000000e+03 1.252248001098632812e+01 5.107052326202392578e+00 -1.525138854980468750e+00 1.058557701110839844e+01 2.718131303787231445e+00 -1.165294721722602844e-01
3.320000000000000000e+03 1.652799415588378906e+01 -2.754290580749511719e+00 2.752226352691650391e+00 4.559031963348388672e+00 2.193377494812011719e+00 -1.151656508445739746e+00
3.321000000000000000e+03 1.291216087341308594e+01 -1.391833424568176270e+00 4.955655574798583984e+00 1.043816947937011719e+01 4.618147850036621094e+00 -2.134206056594848633e+00
3.322000000000000000e+03 1.384836959838867188e+01 1.759101152420043945e+00 3.627476692199707031e+00 8.721918106079101562e+00 3.704818487167358398e+00 1.101478695869445801e+00
3.323000000000000000e+03 1.345103836059570312e+01 1.296110749244689941e+00 4.631458282470703125e+00 9.391502380371093750e+00 4.206888198852539062e+00 1.135886430740356445e+00
3.324000000000000000e+03 1.240860557556152344e+01 2.523594379425048828e+00 1.416361570358276367e+00 1.231664562225341797e+01 4.119902133941650391e+00 1.145839095115661621e+00
3.325000000000000000e+03 1.310545253753662109e+01 3.089518308639526367e+00 8.850686550140380859e-01 1.068538188934326172e+01 3.471135139465332031e+00 9.970408082008361816e-01
3.326000000000000000e+03 1.372712993621826172e+01 3.239136219024658203e+00 9.269896745681762695e-01 9.482902526855468750e+00 3.122967720031738281e+00 9.379348754882812500e-01
3.327000000000000000e+03 1.265073871612548828e+01 2.830167531967163086e+00 9.849060177803039551e-01 1.164026165008544922e+01 3.787550210952758789e+00 1.037457227706909180e+00
3.328000000000000000e+03 6.474346160888671875e+00 -7.632640838623046875e+00 -3.361697196960449219e-01 4.426012516021728516e+00 1.226952791213989258e+00 1.215345740318298340e+00
3.329000000000000000e+03 4.773721218109130859e+00 -4.210053920745849609e+00 7.305169701576232910e-01 1.343006730079650879e+00 6.220570802688598633e-01 7.292026281356811523e-01
3.330000000000000000e+03 4.941033840179443359e+00 4.815543174743652344e+00 5.944564342498779297e-01 1.822183966636657715e+00 7.249921560287475586e-01 -7.593801617622375488e-01
3.331000000000000000e+03 5.577216625213623047e+00 4.081997871398925781e+00 8.309248685836791992e-01 1.972461700439453125e+00 8.410159349441528320e-01 -1.050032019615173340e+00
3.332000000000000000e+03 6.325201034545898438e+00 6.321374416351318359e+00 9.136483818292617798e-02 4.079435348510742188e+00 1.251240015029907227e+00 -1.280429124832153320e+00
3.333000000000000000e+03 6.289414882659912109e+00 6.785901069641113281e+00 -3.320052754133939743e-03 4.124930381774902344e+00 1.236483097076416016e+00 -1.168466567993164062e+00
3.334000000000000000e+03 5.311935424804687500e+00 -5.522340297698974609e+00 4.664220213890075684e-01 2.553543090820312500e+00 9.059895277023315430e-01 1.174503207206726074e+00
3.335000000000000000e+03 5.600328445434570312e+00 -5.857680320739746094e+00 3.243020772933959961e-01 2.934594392776489258e+00 9.776689410209655762e-01 1.271516203880310059e+00
3.336000000000000000e+03 4.755839347839355469e+00 -4.713135719299316406e+00 6.517047286033630371e-01 1.566173315048217773e+00 6.653634309768676758e-01 8.032416701316833496e-01
3.337000000000000000e+03 7.310631752014160156e+00 8.951829910278320312e+00 -4.654356539249420166e-01 5.669354915618896484e+00 1.561175704002380371e+00 -7.299812436103820801e-01
3.338000000000000000e+03 1.354198265075683594e+01 4.454125404357910156e+00 -6.659294962882995605e-01 9.720771789550781250e+00 2.716452836990356445e+00 4.503266215324401855e-01
3.339000000000000000e+03 8.571631431579589844e+00 8.237928390502929688e+00 -8.489277958869934082e-01 7.042887687683105469e+00 1.858187913894653320e+00 -9.266467690467834473e-01
3.340000000000000000e+03 1.309254264831542969e+01 6.112954616546630859e+00 -1.837050676345825195e+00 9.823924064636230469e+00 2.396062135696411133e+00 -9.513739496469497681e-02
3.341000000000000000e+03 1.287415504455566406e+01 -7.314609050750732422e+00 -1.664787888526916504e+00 8.689423561096191406e+00 2.107390642166137695e+00 4.474655985832214355e-01
3.342000000000000000e+03 8.073075294494628906e+00 4.630345344543457031e+00 9.576127678155899048e-02 6.293686866760253906e+00 1.916834354400634766e+00 -2.606078147888183594e+00
3.343000000000000000e+03 9.991959571838378906e+00 8.583255767822265625e+00 -1.275016427040100098e+00 8.437500000000000000e+00 2.148745059967041016e+00 -6.263035535812377930e-01
3.344000000000000000e+03 9.737887382507324219e+00 9.423995971679687500e+00 -9.690464735031127930e-01 8.136562347412109375e+00 2.150254726409912109e+00 -3.486780524253845215e-01
3.345000000000000000e+03 1.509250640869140625e+01 1.561022639274597168e+00 3.476468324661254883e+00 6.506179809570312500e+00 2.994794368743896484e+00 4.456237852573394775e-01
3.346000000000000000e+03 1.066561985015869141e+01 -4.077625751495361328e+00 -7.192748785018920898e-01 1.103990745544433594e+01 3.096189975738525391e+00 1.653180956840515137e+00
3.347000000000000000e+03 5.717613697052001953e+00 -7.288917064666748047e+00 -7.935542613267898560e-02 3.578300237655639648e+00 1.049683451652526855e+00 1.114713549613952637e+00
3.348000000000000000e+03 1.705129432678222656e+01 -4.974278926849365234e+00 1.243742823600769043e+00 4.336948394775390625e+00 1.674207329750061035e+00 -6.252350211143493652e-01
3.349000000000000000e+03 7.768446445465087891e+00 -8.878355979919433594e+00 -9.126040339469909668e-01 5.926168441772460938e+00 1.504069328308105469e+00 9.682539105415344238e-01
3.350000000000000000e+03 1.466074752807617188e+01 2.317972183227539062e+00 2.469379901885986328e+00 7.383811950683593750e+00 2.955957651138305664e+00 7.719728350639343262e-01
3.351000000000000000e+03 1.696524810791015625e+01 -2.910065650939941406e-01 3.549878120422363281e+00 3.558916568756103516e+00 2.132638454437255859e+00 -6.672090291976928711e-01
3.352000000000000000e+03 1.583642482757568359e+01 1.353942696005105972e-02 4.014812946319580078e+00 5.042244911193847656e+00 2.717117309570312500e+00 -5.077610015869140625e-01
3.353000000000000000e+03 9.446352958679199219e+00 4.649378776550292969e+00 -7.534030675888061523e-01 9.022306442260742188e+00 2.480670928955078125e+00 -2.516417026519775391e+00
3.354000000000000000e+03 7.826160430908203125e+00 -1.195476245880126953e+01 -6.220222115516662598e-01 5.946247100830078125e+00 1.597267508506774902e+00 2.662514746189117432e-01
3.355000000000000000e+03 6.891279220581054688e+00 -7.959455013275146484e+00 -5.206397175788879395e-01 4.927412033081054688e+00 1.322031736373901367e+00 1.177981257438659668e+00
3.356000000000000000e+03 1.187777519226074219e+01 -9.019603729248046875e+00 -1.978702902793884277e+00 8.671474456787109375e+00 2.007831573486328125e+00 6.094825863838195801e-01
3.357000000000000000e+03 1.275901508331298828e+01 5.572652816772460938e+00 -1.666734933853149414e+00 1.015714454650878906e+01 2.547122955322265625e+00 -1.240553557872772217e-01
3.358000000000000000e+03 1.086398696899414062e+01 -1.029989337921142578e+01 -1.639737129211425781e+00 8.275030136108398438e+00 1.990588068962097168e+00 4.401574730873107910e-01
3.359000000000000000e+03 1.778756713867187500e+01 -4.174483776092529297e+00 1.985186576843261719e+00 3.287295103073120117e+00 1.581744432449340820e+00 -7.532888054847717285e-01
3.360000000000000000e+03 1.280113124847412109e+01 -2.191773891448974609e+00 3.035052061080932617e+00 1.097271919250488281e+01 4.202331542968750000e+00 -2.059989690780639648e+00
3.361000000000000000e+03 6.808601379394531250e+00 -9.200960159301757812e+00 -6.687749028205871582e-01 5.029229164123535156e+00 1.308136224746704102e+00 8.612707257270812988e-01
3.362000000000000000e+03 8.607037544250488281e+00 -1.140956306457519531e+01 -8.740908503532409668e-01 6.565579891204833984e+00 1.707446694374084473e+00 2.745282053947448730e-01
3.363000000000000000e+03 1.748703575134277344e+01 -2.530949115753173828e+00 2.882786750793457031e+00 3.389318227767944336e+00 1.881631493568420410e+00 -9.422446489334106445e-01
3.364000000000000000e+03 1.558131599426269531e+01 -8.045399188995361328e-01 4.071999549865722656e+00 5.423269271850585938e+00 2.848580598831176758e+00 -9.139130711555480957e-01
3.365000000000000000e+03 6.950217437744140625e+01 -4.226182460784912109e+00 -5.122742056846618652e-01 6.477824211120605469e+00 1.789664983749389648e+00 -1.244761347770690918e+00
3.366000000000000000e+03 6.642166900634765625e+01 -2.038136959075927734e+00 1.674803346395492554e-01 5.464696884155273438e+00 1.689653158187866211e+00 -7.765468955039978027e-01
3.367000000000000000e+03 6.929283142089843750e+01 4.195544421672821045e-01 1.482271403074264526e-01 6.522635936737060547e+00 2.001258850097656250e+00 -8.171681165695190430e-01
3.368000000000000000e+03 6.754709625244140625e+01 -4.334064006805419922e+00 -3.225463926792144775e-01 5.691973209381103516e+00 1.610828042030334473e+00 -1.262537002563476562e+00
3.369000000000000000e+03 6.705580902099609375e+01 2.582789039611816406e+01 -7.368117570877075195e-01 6.699279308319091797e+00 1.788740277290344238e+00 -5.136798322200775146e-02
3.370000000000000000e+03 6.971245574951171875e+01 -3.236004638671875000e+01 -7.842485904693603516e-01 6.424856185913085938e+00 1.692182302474975586e+00 3.740174472332000732e-01
3.371000000000000000e+03 6.737570953369140625e+01 -1.358794093132019043e+00 1.316156685352325439e-01 5.890044212341308594e+00 1.806498050689697266e+00 -8.393321037292480469e-01
3.372000000000000000e+03 6.876232910156250000e+01 -1.961659193038940430e+00 -7.608742266893386841e-02 6.216578006744384766e+00 1.842147231101989746e+00 -1.011759281158447266e+00
3.373000000000000000e+03 3.780437850952148438e+01 2.276432228088378906e+01 -9.198107123374938965e-01 5.266085624694824219e+00 1.303882360458374023e+00 5.603428483009338379e-01
3.374000000000000000e+03 3.787157440185546875e+01 2.658194541931152344e+01 -1.049315333366394043e+00 4.460418701171875000e+00 1.023331046104431152e+00 4.447355866432189941e-01
3.375000000000000000e+03 3.929361343383789062e+01 1.908255958557128906e+01 -3.735058009624481201e-01 5.898930549621582031e+00 1.657627463340759277e+00 9.673426747322082520e-01
3.376000000000000000e+03 8.906984329223632812e+00 -3.618617248535156250e+01 -5.544742345809936523e-01 4.670621395111083984e+00 1.234844207763671875e+00 3.056998550891876221e-01
3.377000000000000000e+03 6.592816162109375000e+01 2.684799385070800781e+01 -7.647860646247863770e-01 6.241056919097900391e+00 1.642881274223327637e+00 -2.869644761085510254e-01
3.378000000000000000e+03 1.108328723907470703e+01 3.144499778747558594e+01 -7.514134049415588379e-01 4.772944927215576172e+00 1.206459403038024902e+00 -5.711684376001358032e-02
3.379000000000000000e+03 4.676507186889648438e+01 -3.106139755249023438e+01 -4.161226451396942139e-01 6.365850448608398438e+00 1.784918308258056641e+00 -1.973954796791076660e+00
3.380000000000000000e+03 8.727688789367675781e+00 -3.821030616760253906e+00 5.348793864250183105e-01 7.181302547454833984e+00 2.314854621887207031e+00 3.400094270706176758e+00
3.381000000000000000e+03 7.953598022460937500e+00 -4.058851718902587891e+00 7.721719145774841309e-01 5.397883892059326172e+00 1.851016759872436523e+00 2.949639797210693359e+00
3.382000000000000000e+03 9.935133934020996094e+00 -4.097156524658203125e+00 -4.923012554645538330e-01 9.937425613403320312e+00 2.833537101745605469e+00 2.540299177169799805e+00
3.383000000000000000e+03 9.032699584960937500e+00 4.027525901794433594e+00 -1.017362773418426514e-01 8.372449874877929688e+00 2.481214046478271484e+00 -3.193755626678466797e+00
3.384000000000000000e+03 7.354459285736083984e+00 4.258869171142578125e+00 7.341778278350830078e-01 4.522691249847412109e+00 1.577060699462890625e+00 -2.400760173797607422e+00
3.385000000000000000e+03 7.610875129699707031e+00 -4.319736957550048828e+00 7.262907028198242188e-01 4.848392009735107422e+00 1.672404766082763672e+00 2.644840002059936523e+00
3.386000000000000000e+03 1.033341407775878906e+01 3.930368185043334961e+00 -1.006788849830627441e+00 1.137600994110107422e+01 3.110766410827636719e+00 -2.274127721786499023e+00
3.387000000000000000e+03 1.053913974761962891e+01 7.196108341217041016e+00 -1.678984403610229492e+00 9.253262519836425781e+00 2.272283554077148438e+00 -9.301968812942504883e-01
3.388000000000000000e+03 6.378762722015380859e+00 -4.301334857940673828e+00 9.289197921752929688e-01 2.964938879013061523e+00 1.168157696723937988e+00 1.816880583763122559e+00
3.389000000000000000e+03 1.137130260467529297e+01 -3.577267408370971680e+00 -2.876125872135162354e-01 1.199338340759277344e+01 3.511731147766113281e+00 4.256733357906341553e-01
3.390000000000000000e+03 1.203364181518554688e+01 -3.272234439849853516e+00 4.466906189918518066e-01 1.182640838623046875e+01 3.681929826736450195e+00 -6.935738921165466309e-01
3.391000000000000000e+03 9.992953300476074219e+00 4.141510486602783203e+00 -8.942217826843261719e-01 1.045295047760009766e+01 2.867618560791015625e+00 -2.526090145111083984e+00
3.392000000000000000e+03 1.362802600860595703e+01 7.158671021461486816e-01 5.386159896850585938e+00 8.659928321838378906e+00 4.213826656341552734e+00 4.977499544620513916e-01
3.393000000000000000e+03 6.343254089355468750e+00 3.960034132003784180e+00 9.824468493461608887e-01 2.691395044326782227e+00 1.102152585983276367e+00 -1.587884783744812012e+00
3.394000000000000000e+03 7.623688220977783203e+00 -3.455602407455444336e+00 1.358579277992248535e+00 4.215346336364746094e+00 1.672177672386169434e+00 2.903877019882202148e+00
3.395000000000000000e+03 7.768296718597412109e+00 -3.736643075942993164e+00 1.121075272560119629e+00 4.748428821563720703e+00 1.760851263999938965e+00 2.949716091156005859e+00
3.396000000000000000e+03 9.226238250732421875e+00 4.475797653198242188e+00 -5.601156949996948242e-01 8.709269523620605469e+00 2.444746255874633789e+00 -2.693682432174682617e+00
3.397000000000000000e+03 8.962656974792480469e+00 -3.556425809860229492e+00 5.661184787750244141e-01 7.877025127410888672e+00 2.532943010330200195e+00 3.600448131561279297e+00
3.398000000000000000e+03 8.187537193298339844e+00 3.694413661956787109e+00 7.656602859497070312e-01 5.969658851623535156e+00 2.020595788955688477e+00 -3.224859476089477539e+00
3.399000000000000000e+03 6.047940731048583984e+00 -4.740620613098144531e+00 7.363917827606201172e-01 2.801813840866088867e+00 1.061461687088012695e+00 1.540902137756347656e+00
3.400000000000000000e+03 1.101734447479248047e+01 -4.055537223815917969e+00 -7.036361098289489746e-01 1.127260303497314453e+01 3.170690059661865234e+00 1.083051443099975586e+00
3.401000000000000000e+03 1.170582675933837891e+01 3.752971649169921875e+00 -7.672568559646606445e-01 1.217050457000732422e+01 3.420974254608154297e+00 -3.402937650680541992e-01
3.402000000000000000e+03 1.233692169189453125e+01 3.541077852249145508e+00 -2.558423280715942383e-01 1.173070335388183594e+01 3.442458152770996094e+00 4.015307426452636719e-01
3.403000000000000000e+03 1.023443031311035156e+01 4.650869846343994141e+00 -1.263900399208068848e+00 1.043087291717529297e+01 2.750091791152954102e+00 -2.023178100585937500e+00
3.404000000000000000e+03 1.307333946228027344e+01 -6.730173587799072266e+00 -1.426928758621215820e+00 8.740712165832519531e+00 2.194134950637817383e+00 2.648962438106536865e-01
3.405000000000000000e+03 6.507178783416748047e+00 -3.658105611801147461e+00 1.219359517097473145e+00 2.538167953491210938e+00 1.127258181571960449e+00 1.854168534278869629e+00
3.406000000000000000e+03 1.599927997589111328e+01 -5.760062217712402344e+00 3.511330187320709229e-01 5.783887386322021484e+00 1.840506196022033691e+00 -4.875326454639434814e-01
3.407000000000000000e+03 5.437416553497314453e+00 5.047513008117675781e+00 5.759866237640380859e-01 2.402995824813842773e+00 8.936946988105773926e-01 -1.023136496543884277e+00
3.408000000000000000e+03 9.900848388671875000e+00 4.848579883575439453e+00 -1.122214436531066895e+00 9.843739509582519531e+00 2.616457462310791016e+00 -2.165812492370605469e+00
3.409000000000000000e+03 1.307635784149169922e+01 -1.759799718856811523e+00 4.057157993316650391e+00 1.016617488861083984e+01 4.266999721527099609e+00 -2.085572004318237305e+00
3.410000000000000000e+03 1.382753944396972656e+01 -1.555305361747741699e+00 4.339290618896484375e+00 8.579991340637207031e+00 3.875784635543823242e+00 -1.791867733001708984e+00
3.411000000000000000e+03 1.324027919769287109e+01 -2.123656988143920898e+00 3.258589744567871094e+00 9.928980827331542969e+00 3.956271171569824219e+00 -2.009389877319335938e+00
3.412000000000000000e+03 1.292925071716308594e+01 -2.537635564804077148e+00 2.407564163208007812e+00 1.062624168395996094e+01 3.910141706466674805e+00 -1.885392785072326660e+00
3.413000000000000000e+03 1.383680629730224609e+01 1.003854155540466309e+00 4.770461082458496094e+00 8.304448127746582031e+00 3.922472715377807617e+00 6.790633201599121094e-01
3.414000000000000000e+03 1.056260967254638672e+01 4.384136199951171875e+00 -1.260662555694580078e+00 1.097520256042480469e+01 2.914361953735351562e+00 -1.789013862609863281e+00
3.415000000000000000e+03 1.336576557159423828e+01 -2.467947721481323242e+00 2.740629434585571289e+00 9.782794952392578125e+00 3.757027149200439453e+00 -1.930685758590698242e+00
3.416000000000000000e+03 1.307336521148681641e+01 -2.875256776809692383e+00 1.872981190681457520e+00 1.031178474426269531e+01 3.655429840087890625e+00 -1.687176227569580078e+00
3.417000000000000000e+03 1.391017913818359375e+01 -2.459620714187622070e+00 2.847902059555053711e+00 8.569643020629882812e+00 3.425263404846191406e+00 -1.817523002624511719e+00
3.418000000000000000e+03 5.220996856689453125e+00 -4.280127525329589844e+00 8.196220993995666504e-01 1.701140046119689941e+00 7.562286257743835449e-01 9.907667040824890137e-01
3.419000000000000000e+03 1.402738094329833984e+01 2.344557762145996094e+00 2.593907117843627930e+00 8.722812652587890625e+00 3.395015954971313477e+00 1.129028916358947754e+00
3.420000000000000000e+03 5.945398330688476562e+00 -6.205966949462890625e+00 1.928675919771194458e-01 3.390625715255737305e+00 1.075047969818115234e+00 1.385983705520629883e+00
3.421000000000000000e+03 6.710198879241943359e+00 6.640668869018554688e+00 -3.994790837168693542e-02 4.594176769256591797e+00 1.366268634796142578e+00 -1.343227148056030273e+00
3.422000000000000000e+03 1.317579078674316406e+01 2.624875307083129883e+00 1.772074937820434570e+00 1.050263786315917969e+01 3.682413816452026367e+00 1.246819376945495605e+00
3.423000000000000000e+03 1.320317840576171875e+01 2.276221990585327148e+00 2.550290584564208984e+00 1.038659954071044922e+01 3.881067037582397461e+00 1.376217603683471680e+00
3.424000000000000000e+03 6.420955657958984375e+00 7.297722816467285156e+00 -1.006966531276702881e-01 4.370788574218750000e+00 1.281027555465698242e+00 -1.061886906623840332e+00
3.425000000000000000e+03 5.047366142272949219e+00 4.214989662170410156e+00 7.128868699073791504e-01 1.616063714027404785e+00 6.986851692199707031e-01 -7.118926644325256348e-01
3.426000000000000000e+03 6.289851665496826172e+00 -6.560109615325927734e+00 1.201027818024158478e-02 3.914670944213867188e+00 1.178004384040832520e+00 1.439494371414184570e+00
3.427000000000000000e+03 6.935728073120117188e+00 -7.248433113098144531e+00 -3.852220773696899414e-01 4.906718254089355469e+00 1.356448888778686523e+00 1.414653301239013672e+00
3.428000000000000000e+03 7.122595310211181641e+00 -8.719622611999511719e+00 -6.953554749488830566e-01 5.272023677825927734e+00 1.373000502586364746e+00 1.002331495285034180e+00
3.429000000000000000e+03 1.167260456085205078e+01 -8.106398582458496094e+00 -1.900522708892822266e+00 8.758952140808105469e+00 2.057528734207153320e+00 7.097055912017822266e-01
3.430000000000000000e+03 1.026392650604248047e+01 7.817864894866943359e+00 -1.533316731452941895e+00 8.935833930969238281e+00 2.220755338668823242e+00 -7.278588414192199707e-01
3.431000000000000000e+03 1.372580051422119141e+01 -6.881410121917724609e+00 -1.272351026535034180e+00 8.186052322387695312e+00 2.074110507965087891e+00 2.032508403062820435e-01
3.432000000000000000e+03 1.450386810302734375e+01 -6.274536609649658203e+00 -6.093680858612060547e-01 7.481938838958740234e+00 2.061771154403686523e+00 -1.854589879512786865e-01
3.433000000000000000e+03 1.461537551879882812e+01 1.684306383132934570e+00 3.461690187454223633e+00 7.355787277221679688e+00 3.245243310928344727e+00 6.856078505516052246e-01
3.434000000000000000e+03 1.427931118011474609e+01 1.994247913360595703e+00 3.112308263778686523e+00 8.035084724426269531e+00 3.344218015670776367e+00 8.996742367744445801e-01
3.435000000000000000e+03 1.359075450897216797e+01 3.829070568084716797e+00 2.648890390992164612e-02 9.670619964599609375e+00 2.909132719039916992e+00 6.572026014328002930e-01
3.436000000000000000e+03 1.300035572052001953e+01 5.099740505218505859e+00 -1.398934483528137207e+00 1.017315006256103516e+01 2.632264852523803711e+00 9.627902507781982422e-02
3.437000000000000000e+03 1.049820232391357422e+01 5.218047142028808594e+00 -1.493633627891540527e+00 1.020178031921386719e+01 2.612443923950195312e+00 -1.543682336807250977e+00
3.438000000000000000e+03 1.575277042388916016e+01 -6.388599395751953125e+00 -1.438277810811996460e-01 6.089230060577392578e+00 1.783620595932006836e+00 -2.170692533254623413e-01
3.439000000000000000e+03 1.272091197967529297e+01 -3.003845214843750000e+00 1.440997481346130371e+00 1.091113853454589844e+01 3.705640792846679688e+00 -1.503303408622741699e+00
3.440000000000000000e+03 7.736574649810791016e+00 8.483867645263671875e+00 -5.667349696159362793e-01 6.090336322784423828e+00 1.657080411911010742e+00 -8.506440520286560059e-01
3.441000000000000000e+03 8.973389625549316406e+00 9.164926528930664062e+00 -8.261095285415649414e-01 7.375498294830322266e+00 1.964816689491271973e+00 -5.965642333030700684e-01
3.442000000000000000e+03 7.303316116333007812e+00 8.102998733520507812e+00 -4.745161831378936768e-01 5.640435218811035156e+00 1.549775719642639160e+00 -9.517467021942138672e-01
3.443000000000000000e+03 1.476672458648681641e+01 7.045140266418457031e-01 4.327887058258056641e+00 6.680202960968017578e+00 3.302427053451538086e+00 6.493905931711196899e-02
3.444000000000000000e+03 1.465504455566406250e+01 -2.387336939573287964e-01 4.776618957519531250e+00 6.676920890808105469e+00 3.436061859130859375e+00 -6.791886091232299805e-01
3.445000000000000000e+03 1.226852798461914062e+01 -7.082544803619384766e+00 -1.694373369216918945e+00 8.976698875427246094e+00 2.184697628021240234e+00 5.497434735298156738e-01
3.446000000000000000e+03 1.081561565399169922e+01 -9.169255256652832031e+00 -1.793842673301696777e+00 8.358360290527343750e+00 1.969355106353759766e+00 6.844758987426757812e-01
3.447000000000000000e+03 7.793187618255615234e+00 -9.499067306518554688e+00 -8.963061571121215820e-01 5.933367252349853516e+00 1.511118292808532715e+00 7.989755868911743164e-01
3.448000000000000000e+03 1.768075180053710938e+01 -3.336487770080566406e+00 2.477278709411621094e+00 3.279119729995727539e+00 1.726919531822204590e+00 -9.090031385421752930e-01
3.449000000000000000e+03 7.891815185546875000e+00 -1.012488651275634766e+01 -9.082626104354858398e-01 5.960383415222167969e+00 1.515636205673217773e+00 6.604309082031250000e-01
3.450000000000000000e+03 6.798844146728515625e+01 -3.265441894531250000e+00 -2.156786918640136719e-01 5.943157672882080078e+00 1.718243718147277832e+00 -1.170913815498352051e+00
3.451000000000000000e+03 1.558407211303710938e+01 -2.994868040084838867e+00 2.479360580444335938e+00 5.979272365570068359e+00 2.537589788436889648e+00 -1.395940542221069336e+00
3.452000000000000000e+03 6.784515380859375000e+01 -2.297338962554931641e+00 -6.568947434425354004e-02 5.986400127410888672e+00 1.776213169097900391e+00 -9.828112721443176270e-01
3.453000000000000000e+03 3.810636901855468750e+01 2.002956962585449219e+01 -5.083950757980346680e-01 5.839343547821044922e+00 1.599284529685974121e+00 6.123566031455993652e-01
3.454000000000000000e+03 7.047811889648437500e+01 -3.689540863037109375e+01 -1.630077213048934937e-01 6.383001327514648438e+00 1.865998148918151855e+00 1.717748790979385376e-01
3.455000000000000000e+03 6.977433013916015625e+01 -3.449040603637695312e+01 -4.416341483592987061e-01 6.087089061737060547e+00 1.693636417388916016e+00 3.336844146251678467e-01
3.456000000000000000e+03 1.723532104492187500e+01 -1.805402159690856934e+00 3.183337211608886719e+00 3.449506044387817383e+00 1.989852905273437500e+00 -9.152797460556030273e-01
3.457000000000000000e+03 4.689089965820312500e+01 -2.974790382385253906e+01 6.175644397735595703e-01 6.621173381805419922e+00 2.171621322631835938e+00 -2.278114557266235352e+00
3.458000000000000000e+03 6.573178100585937500e+01 2.947212791442871094e+01 -5.593854188919067383e-01 5.764591217041015625e+00 1.561561822891235352e+00 -4.168011546134948730e-01
3.459000000000000000e+03 6.509278869628906250e+01 3.538414382934570312e+01 -3.965505585074424744e-02 5.108854293823242188e+00 1.520759820938110352e+00 -2.874414920806884766e-01
3.460000000000000000e+03 3.585639190673828125e+01 2.757228279113769531e+01 -1.101908683776855469e+00 4.319155216217041016e+00 9.651739001274108887e-01 -2.927120402455329895e-02
3.461000000000000000e+03 3.371590805053710938e+01 2.755687522888183594e+01 -1.106933355331420898e+00 4.160293102264404297e+00 9.160078763961791992e-01 -4.295786023139953613e-01
3.462000000000000000e+03 6.010013961791992188e+01 2.868613052368164062e+01 -2.368234395980834961e-01 3.436437845230102539e+00 9.598842859268188477e-01 -9.917713999748229980e-01
3.463000000000000000e+03 9.032072067260742188e+00 -4.775230884552001953e+00 -3.298422694206237793e-01 7.797305583953857422e+00 2.240238904953002930e+00 2.653908967971801758e+00
3.464000000000000000e+03 7.076732158660888672e+00 7.668683528900146484e+00 -3.538477718830108643e-01 5.305645465850830078e+00 1.485539317131042480e+00 -1.062776565551757812e+00
3.465000000000000000e+03 6.926521778106689453e+00 7.153486728668212891e+00 -2.525246739387512207e-01 5.079342365264892578e+00 1.448045253753662109e+00 -1.279371142387390137e+00
3.466000000000000000e+03 8.472546577453613281e+00 -4.095026493072509766e+00 4.897034764289855957e-01 6.581687450408935547e+00 2.121417284011840820e+00 3.146479368209838867e+00
3.467000000000000000e+03 9.202791213989257812e+00 -3.833303451538085938e+00 1.377613544464111328e-01 8.422546386718750000e+00 2.568092346191406250e+00 3.272015333175659180e+00
3.468000000000000000e+03 9.338934898376464844e+00 -4.466978073120117188e+00 -3.510872721672058105e-01 8.529332160949707031e+00 2.453473567962646484e+00 2.739932537078857422e+00
3.469000000000000000e+03 8.715270042419433594e+00 3.956712722778320312e+00 1.403182744979858398e-01 7.528163909912109375e+00 2.300544738769531250e+00 -3.206404209136962891e+00
3.470000000000000000e+03 7.902357578277587891e+00 3.856473445892333984e+00 7.785339355468750000e-01 5.404087066650390625e+00 1.854786396026611328e+00 -2.956813097000122070e+00
3.471000000000000000e+03 9.685964584350585938e+00 4.396235466003417969e+00 -8.628851175308227539e-01 9.775180816650390625e+00 2.673688888549804688e+00 -2.582067012786865234e+00
3.472000000000000000e+03 8.186046600341796875e+00 -4.378412246704101562e+00 4.663894772529602051e-01 6.030003070831298828e+00 1.948917746543884277e+00 2.921239376068115234e+00
3.473000000000000000e+03 8.051533699035644531e+00 4.249415874481201172e+00 4.147397577762603760e-01 6.078340530395507812e+00 1.947924017906188965e+00 -2.885264873504638672e+00
3.474000000000000000e+03 8.410020828247070312e+00 3.891423702239990234e+00 4.730363786220550537e-01 6.683508396148681641e+00 2.146963357925415039e+00 -3.233053207397460938e+00
3.475000000000000000e+03 6.614646434783935547e+00 -6.914833068847656250e+00 -2.047316730022430420e-01 4.483616352081298828e+00 1.283665418624877930e+00 1.437973737716674805e+00
3.476000000000000000e+03 1.425545501708984375e+01 8.842482566833496094e-01 4.560978412628173828e+00 7.631339073181152344e+00 3.657695293426513672e+00 4.214077591896057129e-01
3.477000000000000000e+03 9.284520149230957031e+00 7.232508182525634766e+00 -1.205805540084838867e+00 8.088557243347167969e+00 2.064825534820556641e+00 -1.212303280830383301e+00
3.478000000000000000e+03 1.362132930755615234e+01 -5.863153934478759766e-01 5.631762981414794922e+00 8.500914573669433594e+00 4.239803314208984375e+00 -1.130858421325683594e+00
3.479000000000000000e+03 1.410670089721679688e+01 -3.477847576141357422e-01 5.290049076080322266e+00 7.617321014404296875e+00 3.872210979461669922e+00 -8.338810205459594727e-01
3.480000000000000000e+03 5.652174472808837891e+00 -4.287754535675048828e+00 8.815078139305114746e-01 2.115752220153808594e+00 8.991780281066894531e-01 1.276730895042419434e+00
3.481000000000000000e+03 1.173377990722656250e+01 4.380892753601074219e+00 -1.299018025398254395e+00 1.140727615356445312e+01 3.032477617263793945e+00 -5.288006067276000977e-01
3.482000000000000000e+03 1.209826564788818359e+01 4.043750762939453125e+00 -9.259634613990783691e-01 1.155925178527832031e+01 3.189986705780029297e+00 -5.856376141309738159e-02
3.483000000000000000e+03 6.098392963409423828e+00 5.593958854675292969e+00 3.353771865367889404e-01 3.532479524612426758e+00 1.160356998443603516e+00 -1.316918373107910156e+00
3.484000000000000000e+03 1.247637462615966797e+01 -6.561301231384277344e+00 -1.486661791801452637e+00 9.065312385559082031e+00 2.273595094680786133e+00 4.208572506904602051e-01
3.485000000000000000e+03 1.281802082061767578e+01 -5.002731323242187500e+00 -6.301150918006896973e-01 9.596811294555664062e+00 2.690008878707885742e+00 -2.669009864330291748e-01
3.486000000000000000e+03 1.237510585784912109e+01 -3.137160062789916992e+00 9.262416362762451172e-01 1.149308872222900391e+01 3.725799322128295898e+00 -1.158020377159118652e+00
3.487000000000000000e+03 5.812024116516113281e+00 5.315093040466308594e+00 5.236397981643676758e-01 2.932022333145141602e+00 1.036698698997497559e+00 -1.256916642189025879e+00
3.488000000000000000e+03 1.085973548889160156e+01 4.818910121917724609e+00 -1.532875299453735352e+00 1.089324378967285156e+01 2.808110475540161133e+00 -1.324438095092773438e+00
3.489000000000000000e+03 1.400116634368896484e+01 -6.344054341316223145e-01 5.281819343566894531e+00 7.834539413452148438e+00 3.934907674789428711e+00 -1.094152331352233887e+00
3.490000000000000000e+03 9.738278388977050781e+00 7.448053359985351562e+00 -1.335061907768249512e+00 8.412230491638183594e+00 2.123150587081909180e+00 -1.018596649169921875e+00
3.491000000000000000e+03 7.172876358032226562e+00 6.420361995697021484e+00 -1.673835366964340210e-01 5.206605911254882812e+00 1.511766791343688965e+00 -1.532052755355834961e+00
3.492000000000000000e+03 1.348370647430419922e+01 -1.667027473449707031e+00 4.272873878479003906e+00 9.229052543640136719e+00 4.050578117370605469e+00 -1.972647666931152344e+00
3.493000000000000000e+03 1.501863384246826172e+01 -9.658101201057434082e-01 4.281766414642333984e+00 6.315292835235595703e+00 3.179117679595947266e+00 -1.114012122154235840e+00
3.494000000000000000e+03 1.327353858947753906e+01 -3.202464103698730469e+00 1.486128091812133789e+00 9.800159454345703125e+00 3.385886430740356445e+00 -1.556877732276916504e+00
3.495000000000000000e+03 7.259763240814208984e+00 -7.553135395050048828e+00 -5.534290671348571777e-01 5.284425258636474609e+00 1.419298887252807617e+00 1.366915106773376465e+00
3.496000000000000000e+03 5.205593109130859375e+00 -4.728327274322509766e+00 6.829478740692138672e-01 1.944192528724670410e+00 7.881421446800231934e-01 1.032666444778442383e+00
3.497000000000000000e+03 1.408302974700927734e+01 -1.834482789039611816e+00 3.801745414733886719e+00 8.072872161865234375e+00 3.562385082244873047e+00 -1.764753580093383789e+00
3.498000000000000000e+03 7.858652591705322266e+00 -4.689363479614257812e+00 4.070673882961273193e-01 5.437704086303710938e+00 1.753431439399719238e+00 2.615580797195434570e+00
3.499000000000000000e+03 1.691537475585937500e+01 -4.288589477539062500e+00 1.698180198669433594e+00 4.369923114776611328e+00 1.820430994033813477e+00 -8.605040311813354492e-01
3.500000000000000000e+03 1.673151969909667969e+01 -3.528669834136962891e+00 2.216022968292236328e+00 4.507898807525634766e+00 2.017176389694213867e+00 -1.025475144386291504e+00
3.501000000000000000e+03 1.372890758514404297e+01 -2.041029453277587891e+00 3.508807182312011719e+00 8.783228874206542969e+00 3.687610864639282227e+00 -1.876143097877502441e+00
3.502000000000000000e+03 9.811875343322753906e+00 -9.090373992919921875e+00 -1.500924229621887207e+00 7.647513866424560547e+00 1.843976855278015137e+00 8.060113191604614258e-01
3.503000000000000000e+03 1.164185523986816406e+01 5.936215877532958984e+00 -1.905407071113586426e+00 1.034806537628173828e+01 2.532797336578369141e+00 -6.492593884468078613e-01
3.504000000000000000e+03 1.088523769378662109e+01 6.757709503173828125e+00 -1.847251892089843750e+00 9.747696876525878906e+00 2.370133638381958008e+00 -8.547563552856445312e-01
3.505000000000000000e+03 1.209082508087158203e+01 5.200462341308593750e+00 -1.592024564743041992e+00 1.073182773590087891e+01 2.741940975189208984e+00 -3.310922980308532715e-01
3.506000000000000000e+03 5.198067188262939453e+00 -5.156641483306884766e+00 5.587946772575378418e-01 2.178180932998657227e+00 8.210926651954650879e-01 1.052842855453491211e+00
3.507000000000000000e+03 5.657014369964599609e+00 -4.769226551055908203e+00 7.024878859519958496e-01 2.435291290283203125e+00 9.413337707519531250e-01 1.320722818374633789e+00
3.508000000000000000e+03 1.449646091461181641e+01 3.160499930381774902e-01 4.803236484527587891e+00 6.982826232910156250e+00 3.535818815231323242e+00 -2.076757252216339111e-01
3.509000000000000000e+03 1.199942779541015625e+01 -7.593458175659179688e+00 -1.810841441154479980e+00 8.832108497619628906e+00 2.106380224227905273e+00 6.604148745536804199e-01
3.510000000000000000e+03 1.641854858398437500e+01 -5.200597763061523438e+00 8.691557645797729492e-01 5.208677291870117188e+00 1.823349833488464355e+00 -6.404468417167663574e-01
3.511000000000000000e+03 8.012311935424804688e+00 7.988848686218261719e+00 -7.085738182067871094e-01 6.538955688476562500e+00 1.749114513397216797e+00 -9.904886484146118164e-01
3.512000000000000000e+03 1.240565109252929688e+01 4.523221969604492188e+00 -1.161232590675354004e+00 1.097972965240478516e+01 2.945549011230468750e+00 7.291075889952480793e-04
3.513000000000000000e+03 1.488481044769287109e+01 -5.474075675010681152e-01 4.563055992126464844e+00 6.386902332305908203e+00 3.284987449645996094e+00 -9.156076908111572266e-01
3.514000000000000000e+03 1.571886730194091797e+01 -1.353053927421569824e+00 3.724626541137695312e+00 5.331715583801269531e+00 2.716902732849121094e+00 -1.094830632209777832e+00
3.515000000000000000e+03 8.143098831176757812e+00 -1.070914363861083984e+01 -9.241580963134765625e-01 6.268771171569824219e+00 1.603384017944335938e+00 4.843036234378814697e-01
3.516000000000000000e+03 9.376464843750000000e+00 -1.012847805023193359e+01 -1.301964640617370605e+00 7.280286788940429688e+00 1.793496608734130859e+00 5.447500944137573242e-01
3.517000000000000000e+03 9.246009826660156250e+00 8.402921676635742188e+00 -1.090069055557250977e+00 7.861197948455810547e+00 2.031338691711425781e+00 -7.245265841484069824e-01
3.518000000000000000e+03 1.128528308868408203e+01 -8.632155418395996094e+00 -1.875259518623352051e+00 8.541091918945312500e+00 1.999749779701232910e+00 6.969923973083496094e-01
3.519000000000000000e+03 1.529845905303955078e+01 -5.573518753051757812e+00 2.218974083662033081e-01 6.592501640319824219e+00 2.044319629669189453e+00 -5.690956115722656250e-01
3.520000000000000000e+03 1.225518512725830078e+01 -3.691792726516723633e+00 1.407223939895629883e-01 1.112723445892333984e+01 3.380387067794799805e+00 -5.847556591033935547e-01
3.521000000000000000e+03 7.528769493103027344e+00 7.719948291778564453e+00 -4.973514080047607422e-01 5.849372863769531250e+00 1.605606436729431152e+00 -1.108878970146179199e+00
3.522000000000000000e+03 8.177058219909667969e+00 7.496854305267333984e+00 -7.193054556846618652e-01 6.621627330780029297e+00 1.770696520805358887e+00 -1.197539687156677246e+00
3.523000000000000000e+03 1.021228790283203125e+01 -9.722855567932128906e+00 -1.597163081169128418e+00 7.949152946472167969e+00 1.905596852302551270e+00 5.399423837661743164e-01
3.524000000000000000e+03 1.196081542968750000e+01 4.754868984222412109e+00 -1.469026565551757812e+00 1.112365913391113281e+01 2.896389722824096680e+00 -3.918664455413818359e-01
3.525000000000000000e+03 1.533676719665527344e+01 -2.379638433456420898e+00 3.040204286575317383e+00 6.105625629425048828e+00 2.743748903274536133e+00 -1.483509898185729980e+00
3.526000000000000000e+03 3.262804794311523438e+01 2.969156074523925781e+01 -9.123238325119018555e-01 3.643707036972045898e+00 8.194149732589721680e-01 -5.228350758552551270e-01
3.527000000000000000e+03 2.793065834045410156e+01 3.142428970336914062e+01 -3.676504194736480713e-01 2.574172258377075195e+00 6.619565486907958984e-01 -6.479519009590148926e-01
3.528000000000000000e+03 7.449298381805419922e+00 -3.914613246917724609e+00 1.068564176559448242e+00 4.163292884826660156e+00 1.569557070732116699e+00 2.645994424819946289e+00
3.529000000000000000e+03 1.145292758941650391e+01 -7.296325683593750000e+00 -1.762323141098022461e+00 8.933709144592285156e+00 2.151415824890136719e+00 8.134990930557250977e-01
3.530000000000000000e+03 6.868868827819824219e+00 4.708983421325683594e+00 5.690755844116210938e-01 3.990070581436157227e+00 1.367743849754333496e+00 -1.905427575111389160e+00
3.531000000000000000e+03 6.286730289459228516e+00 4.460155487060546875e+00 7.461276054382324219e-01 2.999250888824462891e+00 1.123613476753234863e+00 -1.573896288871765137e+00
3.532000000000000000e+03 5.811655044555664062e+00 4.608797073364257812e+00 7.127474546432495117e-01 2.498987197875976562e+00 9.635204076766967773e-01 -1.209021687507629395e+00
3.533000000000000000e+03 8.925660133361816406e+00 4.427571296691894531e+00 -3.098933398723602295e-01 8.046264648437500000e+00 2.320911407470703125e+00 -2.882434368133544922e+00
3.534000000000000000e+03 6.649479389190673828e+00 -6.244035243988037109e+00 1.346240844577550888e-02 4.292828559875488281e+00 1.291887283325195312e+00 1.630775809288024902e+00
3.535000000000000000e+03 8.740832328796386719e+00 -4.416672706604003906e+00 1.051778718829154968e-01 7.274123668670654297e+00 2.213790416717529297e+00 2.983124256134033203e+00
3.536000000000000000e+03 1.172661495208740234e+01 -6.839629650115966797e+00 -1.646517753601074219e+00 9.082374572753906250e+00 2.230756998062133789e+00 7.319388985633850098e-01
3.537000000000000000e+03 1.036768913269042969e+01 -4.562944889068603516e+00 -8.832038640975952148e-01 1.012394237518310547e+01 2.772221565246582031e+00 1.894576907157897949e+00
3.538000000000000000e+03 5.989500045776367188e+00 -5.465368270874023438e+00 4.608256220817565918e-01 3.164397001266479492e+00 1.087566733360290527e+00 1.502368330955505371e+00
3.539000000000000000e+03 6.034871578216552734e+00 -4.307899475097656250e+00 8.943645358085632324e-01 2.466679573059082031e+00 1.008313179016113281e+00 1.500019431114196777e+00
3.540000000000000000e+03 8.962410926818847656e+00 5.552570819854736328e+00 -8.056830763816833496e-01 7.970327377319335938e+00 2.149393320083618164e+00 -2.121211767196655273e+00
3.541000000000000000e+03 1.158642673492431641e+01 -4.016614437103271484e+00 -5.300025939941406250e-01 1.133179283142089844e+01 3.240537166595458984e+00 3.149589896202087402e-01
3.542000000000000000e+03 1.426352310180664062e+01 -2.892775274813175201e-02 5.104793548583984375e+00 7.292920112609863281e+00 3.719314098358154297e+00 -4.850129783153533936e-01
3.543000000000000000e+03 6.273750305175781250e+00 -5.069763660430908203e+00 5.761565566062927246e-01 3.280330181121826172e+00 1.156945943832397461e+00 1.690550923347473145e+00
3.544000000000000000e+03 1.399997615814208984e+01 -9.010592103004455566e-01 4.982469081878662109e+00 7.895492076873779297e+00 3.863388299942016602e+00 -1.329157829284667969e+00
3.545000000000000000e+03 9.322635650634765625e+00 5.106508255004882812e+00 -8.350507020950317383e-01 8.530014991760253906e+00 2.308489322662353516e+00 -2.287833452224731445e+00
3.546000000000000000e+03 1.073016262054443359e+01 -4.496551513671875000e+00 -9.257292151451110840e-01 1.049300289154052734e+01 2.870182037353515625e+00 1.484264016151428223e+00
3.547000000000000000e+03 1.131089210510253906e+01 -4.223037242889404297e+00 -7.309873700141906738e-01 1.114766597747802734e+01 3.125003576278686523e+00 7.384806871414184570e-01
3.548000000000000000e+03 6.674479484558105469e+00 4.065797328948974609e+00 9.120044708251953125e-01 3.246517658233642578e+00 1.247556567192077637e+00 -1.864377617835998535e+00
3.549000000000000000e+03 6.910429954528808594e+00 4.230274200439453125e+00 8.211031556129455566e-01 3.815386533737182617e+00 1.390946984291076660e+00 -2.082042932510375977e+00
3.550000000000000000e+03 5.588440895080566406e+00 -5.212968826293945312e+00 5.734429955482482910e-01 2.608489274978637695e+00 9.545796513557434082e-01 1.324421286582946777e+00
3.551000000000000000e+03 1.006334781646728516e+01 6.862113475799560547e+00 -1.554982662200927734e+00 9.029514312744140625e+00 2.242359399795532227e+00 -1.105383872985839844e+00
3.552000000000000000e+03 7.342978000640869141e+00 -8.216210365295410156e+00 -7.140699625015258789e-01 5.484413623809814453e+00 1.431102991104125977e+00 1.181458711624145508e+00
3.553000000000000000e+03 1.294947433471679688e+01 -3.374891996383666992e+00 1.034933924674987793e+00 1.035180282592773438e+01 3.416020870208740234e+00 -1.329430818557739258e+00
3.554000000000000000e+03 1.131526851654052734e+01 5.512622833251953125e+00 -1.711407542228698730e+00 1.052192974090576172e+01 2.643156528472900391e+00 -9.193373322486877441e-01
3.555000000000000000e+03 1.085054206848144531e+01 5.814355850219726562e+00 -1.745003938674926758e+00 1.015877628326416016e+01 2.524131536483764648e+00 -1.159427046775817871e+00
3.556000000000000000e+03 1.416087055206298828e+01 -1.513331532478332520e+00 4.274304866790771484e+00 7.727413177490234375e+00 3.600515365600585938e+00 -1.613700509071350098e+00
3.557000000000000000e+03 1.448890018463134766e+01 -5.234670042991638184e-01 4.834622383117675781e+00 6.995521068572998047e+00 3.549042940139770508e+00 -9.256187677383422852e-01
3.558000000000000000e+03 8.548666954040527344e+00 -1.015194606781005859e+01 -1.070246219635009766e+00 6.637709140777587891e+00 1.670238852500915527e+00 5.521575808525085449e-01
3.559000000000000000e+03 1.321137523651123047e+01 -6.144338607788085938e+00 -1.096649765968322754e+00 8.800434112548828125e+00 2.311135530471801758e+00 5.231061577796936035e-02
3.560000000000000000e+03 1.572377586364746094e+01 -1.956961274147033691e+00 3.310344696044921875e+00 5.501095771789550781e+00 2.643432140350341797e+00 -1.306665897369384766e+00
3.561000000000000000e+03 1.002714252471923828e+01 5.388561248779296875e+00 -1.400115728378295898e+00 9.605399131774902344e+00 2.461585044860839844e+00 -1.791014909744262695e+00
3.562000000000000000e+03 1.129417324066162109e+01 6.355977535247802734e+00 -1.869964361190795898e+00 9.969609260559082031e+00 2.429893493652343750e+00 -7.990823388099670410e-01
3.563000000000000000e+03 9.286643028259277344e+00 7.749956130981445312e+00 -1.215527415275573730e+00 8.011336326599121094e+00 2.038742542266845703e+00 -1.003209114074707031e+00
3.564000000000000000e+03 1.384183883666992188e+01 -2.821191549301147461e+00 2.315260410308837891e+00 8.708956718444824219e+00 3.307265043258666992e+00 -1.726512908935546875e+00
3.565000000000000000e+03 1.507134342193603516e+01 -4.113804340362548828e+00 1.288724422454833984e+00 6.906358242034912109e+00 2.458524942398071289e+00 -1.189703702926635742e+00
3.566000000000000000e+03 8.409418106079101562e+00 4.596529006958007812e+00 -4.534990713000297546e-02 6.896163463592529297e+00 2.055243968963623047e+00 -2.725786209106445312e+00
3.567000000000000000e+03 1.285634899139404297e+01 -3.932479858398437500e+00 3.060505688190460205e-01 1.014139938354492188e+01 3.134235143661499023e+00 -8.980004787445068359e-01
3.568000000000000000e+03 1.457725429534912109e+01 -5.593884468078613281e+00 -1.494378894567489624e-01 7.524349212646484375e+00 2.212473392486572266e+00 -5.390112400054931641e-01
3.569000000000000000e+03 1.158930397033691406e+01 4.952655315399169922e+00 -1.575398445129394531e+00 1.090751743316650391e+01 2.799635648727416992e+00 -6.780194044113159180e-01
3.570000000000000000e+03 1.642339897155761719e+01 -1.978217005729675293e+00 3.200592756271362305e+00 4.534963607788085938e+00 2.320666790008544922e+00 -1.176103830337524414e+00
3.571000000000000000e+03 1.112398147583007812e+01 -7.755532264709472656e+00 -1.784791827201843262e+00 8.664599418640136719e+00 2.063942193984985352e+00 8.604853749275207520e-01
3.572000000000000000e+03 1.032604122161865234e+01 -8.674880027770996094e+00 -1.688082456588745117e+00 8.132138252258300781e+00 1.933216810226440430e+00 8.032014966011047363e-01
3.573000000000000000e+03 8.999585151672363281e+00 -8.751270294189453125e+00 -1.305581688880920410e+00 7.129871368408203125e+00 1.747286915779113770e+00 9.856805205345153809e-01
3.574000000000000000e+03 8.502098083496093750e+00 -9.467645645141601562e+00 -1.144402742385864258e+00 6.676498889923095703e+00 1.659628868103027344e+00 7.675159573554992676e-01
3.575000000000000000e+03 3.949168777465820312e+01 2.539941978454589844e+01 -9.983704090118408203e-01 4.467840671539306641e+00 1.040840983390808105e+00 7.781620025634765625e-01
3.576000000000000000e+03 4.046591949462890625e+01 2.671522140502929688e+01 -9.111927747726440430e-01 4.129243850708007812e+00 9.654152989387512207e-01 8.475421667098999023e-01
3.577000000000000000e+03 6.835217285156250000e+01 3.615746307373046875e+01 -7.647027075290679932e-02 5.906898021697998047e+00 1.749128341674804688e+00 -1.181397438049316406e-01
3.578000000000000000e+03 7.247604370117187500e+01 -3.541796112060546875e+01 -3.187088966369628906e-01 7.532689571380615234e+00 2.164194107055664062e+00 1.150480434298515320e-01
3.579000000000000000e+03 6.336606216430664062e+01 -3.803260421752929688e+01 4.852739274501800537e-01 2.561688899993896484e+00 9.140888452529907227e-01 3.804781734943389893e-01
3.580000000000000000e+03 7.297984123229980469e+00 -4.417199134826660156e+00 7.360272407531738281e-01 4.385779380798339844e+00 1.536541938781738281e+00 2.402557611465454102e+00
3.581000000000000000e+03 6.349096298217773438e+00 -5.845191001892089844e+00 2.714403569698333740e-01 3.721517562866210938e+00 1.197887420654296875e+00 1.614569783210754395e+00
3.582000000000000000e+03 6.735124111175537109e+00 -4.718335151672363281e+00 7.135606408119201660e-01 3.625272274017333984e+00 1.301649928092956543e+00 1.977229118347167969e+00
3.583000000000000000e+03 7.217250823974609375e+00 -5.473984718322753906e+00 1.876926273107528687e-01 4.783420562744140625e+00 1.491333961486816406e+00 2.084654808044433594e+00
3.584000000000000000e+03 8.270998001098632812e+00 -5.535539627075195312e+00 -2.622871696949005127e-01 6.401431083679199219e+00 1.841743111610412598e+00 2.284141302108764648e+00
3.585000000000000000e+03 9.988189697265625000e+00 -4.574054718017578125e+00 -7.389388084411621094e-01 9.533312797546386719e+00 2.638312101364135742e+00 2.255197286605834961e+00
3.586000000000000000e+03 8.343899726867675781e+00 4.230417251586914062e+00 2.862683534622192383e-01 6.536232948303222656e+00 2.046750307083129883e+00 -2.981232881546020508e+00
3.587000000000000000e+03 8.627478599548339844e+00 4.328225135803222656e+00 -3.647352382540702820e-02 7.422125816345214844e+00 2.215695619583129883e+00 -2.932919979095458984e+00
3.588000000000000000e+03 6.049211502075195312e+00 5.020463943481445312e+00 5.494257807731628418e-01 3.114953517913818359e+00 1.099313735961914062e+00 -1.353491187095642090e+00
3.589000000000000000e+03 7.809847354888916016e+00 4.403142452239990234e+00 4.378057420253753662e-01 5.550689220428466797e+00 1.796548485755920410e+00 -2.607812881469726562e+00
3.590000000000000000e+03 6.661943912506103516e+00 4.410508632659912109e+00 7.743347883224487305e-01 3.499638319015502930e+00 1.282191872596740723e+00 -1.835752487182617188e+00
3.591000000000000000e+03 7.045041084289550781e+00 -4.361182689666748047e+00 8.688930273056030273e-01 3.722827911376953125e+00 1.377516269683837891e+00 2.250648498535156250e+00
3.592000000000000000e+03 6.380161285400390625e+00 -4.700232505798339844e+00 7.701539993286132812e-01 3.244591712951660156e+00 1.204423666000366211e+00 1.846199393272399902e+00
3.593000000000000000e+03 1.183342170715332031e+01 -4.439497947692871094e+00 -6.712958812713623047e-01 1.072202777862548828e+01 3.015219688415527344e+00 2.033283114433288574e-01
3.594000000000000000e+03 9.590994834899902344e+00 4.967995643615722656e+00 -1.033243179321289062e+00 9.271088600158691406e+00 2.471353769302368164e+00 -2.308903694152832031e+00
3.595000000000000000e+03 9.423179626464843750e+00 5.749078273773193359e+00 -1.093162894248962402e+00 8.544499397277832031e+00 2.235401153564453125e+00 -1.913298487663269043e+00
3.596000000000000000e+03 6.360990047454833984e+00 4.918309688568115234e+00 5.388046503067016602e-01 3.442742824554443359e+00 1.194464206695556641e+00 -1.553202033042907715e+00
3.597000000000000000e+03 1.141472816467285156e+01 4.669562816619873047e+00 -1.468941926956176758e+00 1.122207832336425781e+01 2.925940990447998047e+00 -8.568898439407348633e-01
3.598000000000000000e+03 1.215121364593505859e+01 -4.272057056427001953e+00 -4.536873698234558105e-01 1.072176170349121094e+01 3.080422163009643555e+00 -1.406078487634658813e-01
3.599000000000000000e+03 6.969247817993164062e+00 -6.593648910522460938e+00 -1.979468613862991333e-01 4.771535873413085938e+00 1.372076630592346191e+00 1.630332231521606445e+00
3.600000000000000000e+03 7.565321445465087891e+00 4.587675094604492188e+00 4.475537538528442383e-01 5.090394496917724609e+00 1.661384463310241699e+00 -2.414564847946166992e+00
3.601000000000000000e+03 7.368191242218017578e+00 5.297845840454101562e+00 1.332135051488876343e-01 5.199671745300292969e+00 1.599865555763244629e+00 -2.039472579956054688e+00
3.602000000000000000e+03 1.123884773254394531e+01 -6.574059963226318359e+00 -1.602472901344299316e+00 9.192934989929199219e+00 2.277138710021972656e+00 9.376002550125122070e-01
3.603000000000000000e+03 7.565230846405029297e+00 -7.812671184539794922e+00 -6.894766092300415039e-01 5.642387390136718750e+00 1.485873222351074219e+00 1.352362751960754395e+00
3.604000000000000000e+03 1.451652812957763672e+01 -1.101331233978271484e+00 4.507554054260253906e+00 7.076035022735595703e+00 3.475076675415039062e+00 -1.348901987075805664e+00
3.605000000000000000e+03 1.358567905426025391e+01 -3.035196304321289062e+00 1.839990496635437012e+00 9.239158630371093750e+00 3.323744773864746094e+00 -1.668227434158325195e+00
3.606000000000000000e+03 1.387796497344970703e+01 -3.766925573348999023e+00 1.118504524230957031e+00 8.656615257263183594e+00 2.932536125183105469e+00 -1.304906606674194336e+00
3.607000000000000000e+03 9.625284194946289062e+00 6.483110904693603516e+00 -1.305438876152038574e+00 8.572644233703613281e+00 2.180161714553833008e+00 -1.433200836181640625e+00
3.608000000000000000e+03 1.096864223480224609e+01 -6.983604431152343750e+00 -1.635338664054870605e+00 8.887239456176757812e+00 2.175570249557495117e+00 1.027249813079833984e+00
3.609000000000000000e+03 1.042675781250000000e+01 6.299386024475097656e+00 -1.634802937507629395e+00 9.531721115112304688e+00 2.369075536727905273e+00 -1.254965901374816895e+00
3.610000000000000000e+03 1.151592159271240234e+01 -4.583333969116210938e+00 -8.846085667610168457e-01 1.069785594940185547e+01 2.943974256515502930e+00 5.671495199203491211e-01
3.611000000000000000e+03 1.300514793395996094e+01 -4.309045791625976562e+00 5.448916181921958923e-02 9.760751724243164062e+00 2.944572210311889648e+00 -7.656769752502441406e-01
3.612000000000000000e+03 7.369577407836914062e+00 6.953616619110107422e+00 -3.475662469863891602e-01 5.589850425720214844e+00 1.572685241699218750e+00 -1.316642165184020996e+00
3.613000000000000000e+03 8.705300331115722656e+00 7.674473285675048828e+00 -9.439461231231689453e-01 7.359476566314697266e+00 1.924659132957458496e+00 -1.046764731407165527e+00
3.614000000000000000e+03 8.289525985717773438e+00 7.007945060729980469e+00 -7.450532913208007812e-01 6.835701465606689453e+00 1.827194452285766602e+00 -1.356009483337402344e+00
3.615000000000000000e+03 1.322911357879638672e+01 -3.744471311569213867e+00 7.514504194259643555e-01 9.715038299560546875e+00 3.139946460723876953e+00 -1.190478324890136719e+00
3.616000000000000000e+03 1.513481140136718750e+01 -1.438083410263061523e+00 3.915675401687622070e+00 6.306290626525878906e+00 3.066589832305908203e+00 -1.340509891510009766e+00
3.617000000000000000e+03 1.458305740356445312e+01 -1.962624669075012207e+00 3.610249042510986328e+00 7.241454601287841797e+00 3.255511045455932617e+00 -1.678153038024902344e+00
3.618000000000000000e+03 1.074773979187011719e+01 -8.216110229492187500e+00 -1.771519064903259277e+00 8.446403503417968750e+00 2.002465248107910156e+00 8.787001967430114746e-01
3.619000000000000000e+03 1.391729450225830078e+01 -5.618316173553466797e+00 -4.735715687274932861e-01 8.268034934997558594e+00 2.338339090347290039e+00 -3.751317858695983887e-01
3.620000000000000000e+03 1.530059719085693359e+01 -4.820680141448974609e+00 7.561079263687133789e-01 6.565970897674560547e+00 2.196623563766479492e+00 -9.029844999313354492e-01
3.621000000000000000e+03 1.517433547973632812e+01 -1.917440533638000488e+00 3.554830312728881836e+00 6.350600719451904297e+00 2.971629381179809570e+00 -1.497333765029907227e+00
3.622000000000000000e+03 1.164753627777099609e+01 -5.796177387237548828e+00 -1.364817261695861816e+00 9.665546417236328125e+00 2.490218877792358398e+00 6.952964067459106445e-01
3.623000000000000000e+03 1.460233116149902344e+01 -2.481832981109619141e+00 2.900249958038330078e+00 7.367016315460205078e+00 3.080179929733276367e+00 -1.643679380416870117e+00
3.624000000000000000e+03 8.372287750244140625e+00 -8.333246231079101562e+00 -1.061639308929443359e+00 6.514957904815673828e+00 1.635995626449584961e+00 1.141513943672180176e+00
3.625000000000000000e+03 1.608681488037109375e+01 -4.557446002960205078e+00 1.184986233711242676e+00 5.577847480773925781e+00 2.028850078582763672e+00 -8.498754501342773438e-01
3.626000000000000000e+03 1.582321166992187500e+01 -3.776696443557739258e+00 1.807151198387145996e+00 5.809403896331787109e+00 2.284966468811035156e+00 -1.183287024497985840e+00
3.627000000000000000e+03 9.927876472473144531e+00 5.966977119445800781e+00 -1.433133125305175781e+00 9.279739379882812500e+00 2.353981733322143555e+00 -1.539057016372680664e+00
3.628000000000000000e+03 9.256936073303222656e+00 6.784167766571044922e+00 -1.226522684097290039e+00 8.164353370666503906e+00 2.081349134445190430e+00 -1.422592401504516602e+00
3.629000000000000000e+03 7.846364498138427734e+00 -8.347501754760742188e+00 -8.935399055480957031e-01 6.010390758514404297e+00 1.535055160522460938e+00 1.158775568008422852e+00
3.630000000000000000e+03 9.182394981384277344e+00 -9.367453575134277344e+00 -1.358924388885498047e+00 7.231569766998291016e+00 1.761793613433837891e+00 7.973442673683166504e-01
3.631000000000000000e+03 1.456074333190917969e+01 -4.950866222381591797e+00 3.133842945098876953e-01 7.657108306884765625e+00 2.391147851943969727e+00 -8.106445670127868652e-01
3.632000000000000000e+03 3.718980789184570312e+01 2.487835311889648438e+01 -1.089168429374694824e+00 4.854662418365478516e+00 1.129648208618164062e+00 3.232280313968658447e-01
3.633000000000000000e+03 4.089991760253906250e+01 2.428774261474609375e+01 -8.904599547386169434e-01 4.339431762695312500e+00 1.034691452980041504e+00 1.086652040481567383e+00
3.634000000000000000e+03 7.985666275024414062e+00 -5.283823490142822266e+00 3.423611167818307877e-03 5.901546955108642578e+00 1.771491169929504395e+00 2.410713195800781250e+00
3.635000000000000000e+03 6.996880054473876953e+00 -5.996458053588867188e+00 1.029034517705440521e-02 4.640509128570556641e+00 1.395239830017089844e+00 1.795647859573364258e+00
3.636000000000000000e+03 8.725517272949218750e+00 -5.000555038452148438e+00 -2.571620643138885498e-01 7.156281948089599609e+00 2.069736003875732422e+00 2.602062463760375977e+00
3.637000000000000000e+03 7.194850921630859375e+00 -5.042102813720703125e+00 4.216246008872985840e-01 4.556160449981689453e+00 1.493335604667663574e+00 2.216664552688598633e+00
3.638000000000000000e+03 9.198597908020019531e+00 -5.187790870666503906e+00 -5.895571708679199219e-01 7.958593845367431641e+00 2.210711002349853516e+00 2.376673221588134766e+00
3.639000000000000000e+03 8.077895164489746094e+00 -5.827804088592529297e+00 -2.844119668006896973e-01 6.046531200408935547e+00 1.728635668754577637e+00 2.170476436614990234e+00
3.640000000000000000e+03 7.298873901367187500e+00 5.678587436676025391e+00 -3.963483124971389771e-02 5.259964466094970703e+00 1.566098928451538086e+00 -1.776686906814575195e+00
3.641000000000000000e+03 8.714050292968750000e+00 5.287142276763916016e+00 -5.958269834518432617e-01 7.512209415435791016e+00 2.074914693832397461e+00 -2.186526536941528320e+00
3.642000000000000000e+03 7.803803920745849609e+00 6.863985061645507812e+00 -5.398467779159545898e-01 6.211267948150634766e+00 1.701426386833190918e+00 -1.469981074333190918e+00
3.643000000000000000e+03 1.339995098114013672e+01 -4.374517917633056641e+00 2.435738146305084229e-01 9.277448654174804688e+00 2.856306791305541992e+00 -9.044702649116516113e-01
3.644000000000000000e+03 6.788942337036132812e+00 -5.591976642608642578e+00 2.752355933189392090e-01 4.186872959136962891e+00 1.338632583618164062e+00 1.855870127677917480e+00
3.645000000000000000e+03 9.211253166198730469e+00 4.777101039886474609e+00 -7.046684026718139648e-01 8.530913352966308594e+00 2.347873687744140625e+00 -2.546497583389282227e+00
3.646000000000000000e+03 7.306273460388183594e+00 4.716856479644775391e+00 4.338323473930358887e-01 4.730968475341796875e+00 1.549440264701843262e+00 -2.185258865356445312e+00
3.647000000000000000e+03 1.216472530364990234e+01 -5.403546810150146484e+00 -1.091059803962707520e+00 9.799132347106933594e+00 2.612421751022338867e+00 2.604189217090606689e-01
3.648000000000000000e+03 7.690735816955566406e+00 -7.211757659912109375e+00 -6.064116358757019043e-01 5.730514526367187500e+00 1.537230849266052246e+00 1.570971250534057617e+00
3.649000000000000000e+03 1.002501296997070312e+01 -4.983506202697753906e+00 -9.186379313468933105e-01 9.293803215026855469e+00 2.512549400329589844e+00 2.000524520874023438e+00
3.650000000000000000e+03 8.918737411499023438e+00 4.822558403015136719e+00 -4.890333712100982666e-01 7.919877529144287109e+00 2.229253292083740234e+00 -2.544868469238281250e+00
3.651000000000000000e+03 6.719530105590820312e+00 -5.142766952514648438e+00 4.851976037025451660e-01 3.822314262390136719e+00 1.292253613471984863e+00 1.885808467864990234e+00
3.652000000000000000e+03 9.867815971374511719e+00 -8.211874008178710938e+00 -1.525218605995178223e+00 7.855719089508056641e+00 1.899150252342224121e+00 1.054854989051818848e+00
3.653000000000000000e+03 1.191926002502441406e+01 -3.851089239120483398e+00 -2.146118581295013428e-01 1.131091690063476562e+01 3.328891515731811523e+00 -1.566376984119415283e-01
3.654000000000000000e+03 1.073855209350585938e+01 -5.110610008239746094e+00 -1.143199443817138672e+00 9.883282661437988281e+00 2.622025012969970703e+00 1.433809757232666016e+00
3.655000000000000000e+03 8.757849693298339844e+00 5.921082973480224609e+00 -7.924494743347167969e-01 7.609297752380371094e+00 2.045054435729980469e+00 -1.976079940795898438e+00
3.656000000000000000e+03 7.238811492919921875e+00 -6.324234962463378906e+00 -1.824496835470199585e-01 5.011644363403320312e+00 1.448758482933044434e+00 1.744696855545043945e+00
3.657000000000000000e+03 7.350828647613525391e+00 -6.887042999267578125e+00 -4.274470210075378418e-01 5.340721607208251953e+00 1.473982334136962891e+00 1.613664627075195312e+00
3.658000000000000000e+03 1.194375038146972656e+01 -6.382896900177001953e+00 -1.526888489723205566e+00 9.306397438049316406e+00 2.333852529525756836e+00 5.988531708717346191e-01
3.659000000000000000e+03 1.261959838867187500e+01 -6.026150226593017578e+00 -1.253850340843200684e+00 9.242416381835937500e+00 2.396569728851318359e+00 2.250988930463790894e-01
3.660000000000000000e+03 1.270107936859130859e+01 -5.479734420776367188e+00 -9.452819824218750000e-01 9.450229644775390625e+00 2.551484346389770508e+00 1.609988324344158173e-02
3.661000000000000000e+03 1.247841072082519531e+01 -4.089521884918212891e+00 -1.015793159604072571e-01 1.049687004089355469e+01 3.118587255477905273e+00 -5.187522172927856445e-01
3.662000000000000000e+03 9.210962295532226562e+00 6.158134937286376953e+00 -1.081701159477233887e+00 8.251590728759765625e+00 2.150967121124267578e+00 -1.744827508926391602e+00
3.663000000000000000e+03 1.473349666595458984e+01 -3.087868452072143555e+00 2.202140092849731445e+00 7.322209835052490234e+00 2.857305049896240234e+00 -1.544746398925781250e+00
3.664000000000000000e+03 8.991437911987304688e+00 6.482184410095214844e+00 -1.022257328033447266e+00 7.841361999511718750e+00 2.045731544494628906e+00 -1.646122813224792480e+00
3.665000000000000000e+03 1.329563045501708984e+01 -5.590174198150634766e+00 -7.448632121086120605e-01 8.906993865966796875e+00 2.448639154434204102e+00 -2.275580167770385742e-01
3.666000000000000000e+03 1.374447917938232422e+01 -4.630578041076660156e+00 1.766915470361709595e-01 8.694267272949218750e+00 2.661287784576416016e+00 -8.672912120819091797e-01
3.667000000000000000e+03 1.063074874877929688e+01 -7.380890369415283203e+00 -1.658538103103637695e+00 8.582023620605468750e+00 2.077045679092407227e+00 1.092785000801086426e+00
3.668000000000000000e+03 1.077999496459960938e+01 -6.272393226623535156e+00 -1.466587543487548828e+00 9.117534637451171875e+00 2.295284271240234375e+00 1.198670864105224609e+00
3.669000000000000000e+03 8.783741950988769531e+00 7.184735298156738281e+00 -1.006179094314575195e+00 7.488620758056640625e+00 1.944732546806335449e+00 -1.332707762718200684e+00
3.670000000000000000e+03 8.455816268920898438e+00 6.618799686431884766e+00 -7.713181972503662109e-01 7.038086891174316406e+00 1.880030632019042969e+00 -1.604692697525024414e+00
3.671000000000000000e+03 7.911860942840576172e+00 -7.919582366943359375e+00 -8.905012011528015137e-01 6.130578517913818359e+00 1.572023153305053711e+00 1.305708527565002441e+00
3.672000000000000000e+03 9.370886802673339844e+00 -8.061561584472656250e+00 -1.372012495994567871e+00 7.502538204193115234e+00 1.839157700538635254e+00 1.165399909019470215e+00
3.673000000000000000e+03 1.462041759490966797e+01 -3.649086236953735352e+00 1.592832088470458984e+00 7.488342285156250000e+00 2.724352359771728516e+00 -1.384333133697509766e+00
3.674000000000000000e+03 8.194341659545898438e+00 -4.975957870483398438e+00 3.420948237180709839e-02 6.218052864074707031e+00 1.875678658485412598e+00 2.560022115707397461e+00
3.675000000000000000e+03 8.398963928222656250e+00 -6.137301445007324219e+00 -5.812581777572631836e-01 6.594923019409179688e+00 1.804099559783935547e+00 2.017231225967407227e+00
3.676000000000000000e+03 9.118838310241699219e+00 -5.584627151489257812e+00 -7.237091660499572754e-01 7.722755908966064453e+00 2.099714040756225586e+00 2.204371452331542969e+00
3.677000000000000000e+03 8.544121742248535156e+00 -5.759786128997802734e+00 -5.009127259254455566e-01 6.883748531341552734e+00 1.914850831031799316e+00 2.218737602233886719e+00
3.678000000000000000e+03 9.550477981567382812e+00 -5.255839824676513672e+00 -7.829484343528747559e-01 8.471329689025878906e+00 2.306514501571655273e+00 2.252864122390747070e+00
3.679000000000000000e+03 7.662180900573730469e+00 4.947003841400146484e+00 1.946760267019271851e-01 5.517817020416259766e+00 1.713747859001159668e+00 -2.373977661132812500e+00
3.680000000000000000e+03 8.580930709838867188e+00 4.937932491302490234e+00 -3.289172351360321045e-01 7.232922077178955078e+00 2.071201324462890625e+00 -2.516907691955566406e+00
3.681000000000000000e+03 6.613636016845703125e+00 5.437090873718261719e+00 3.305439651012420654e-01 4.069190979003906250e+00 1.319920539855957031e+00 -1.634995460510253906e+00
3.682000000000000000e+03 9.441662788391113281e+00 -5.756359577178955078e+00 -9.204483628273010254e-01 8.051192283630371094e+00 2.139223098754882812e+00 1.999332189559936523e+00
3.683000000000000000e+03 9.952619552612304688e+00 -5.419979095458984375e+00 -1.043797373771667480e+00 8.949692726135253906e+00 2.371768474578857422e+00 1.896744728088378906e+00
3.684000000000000000e+03 7.384845733642578125e+00 4.980865955352783203e+00 3.048899769783020020e-01 5.040199279785156250e+00 1.603526830673217773e+00 -2.160208463668823242e+00
3.685000000000000000e+03 1.359649562835693359e+01 -4.060241222381591797e+00 5.595808625221252441e-01 9.131369590759277344e+00 2.907284975051879883e+00 -1.087793350219726562e+00
3.686000000000000000e+03 1.391095542907714844e+01 -5.064304351806640625e+00 -8.744325488805770874e-02 8.419173240661621094e+00 2.499518871307373047e+00 -6.764516830444335938e-01
3.687000000000000000e+03 9.027009010314941406e+00 5.201791286468505859e+00 -7.745571732521057129e-01 8.109512329101562500e+00 2.200486421585083008e+00 -2.313688039779663086e+00
3.688000000000000000e+03 1.039667606353759766e+01 -5.043531894683837891e+00 -1.066589832305908203e+00 9.663181304931640625e+00 2.578977584838867188e+00 1.712294101715087891e+00
3.689000000000000000e+03 7.628008365631103516e+00 -5.738566875457763672e+00 -8.224251121282577515e-02 5.424327850341796875e+00 1.602625608444213867e+00 2.112458229064941406e+00
3.690000000000000000e+03 7.741925239562988281e+00 6.328586578369140625e+00 -3.767988085746765137e-01 6.056206226348876953e+00 1.703822255134582520e+00 -1.651444554328918457e+00
3.691000000000000000e+03 8.626749038696289062e+00 6.302060604095458984e+00 -7.991908192634582520e-01 7.397776126861572266e+00 1.979575514793395996e+00 -1.758036732673645020e+00
3.692000000000000000e+03 1.209654426574707031e+01 -5.909952163696289062e+00 -1.333495855331420898e+00 9.489728927612304688e+00 2.446870088577270508e+00 4.561238884925842285e-01
3.693000000000000000e+03 1.146966457366943359e+01 -6.182785987854003906e+00 -1.499366402626037598e+00 9.379472732543945312e+00 2.364032030105590820e+00 8.291494250297546387e-01
3.694000000000000000e+03 8.360560417175292969e+00 5.275478363037109375e+00 -3.477932512760162354e-01 6.867658138275146484e+00 1.955959439277648926e+00 -2.336842775344848633e+00
3.695000000000000000e+03 8.265457153320312500e+00 -6.994778633117675781e+00 -7.875277400016784668e-01 6.446830749511718750e+00 1.697790861129760742e+00 1.668586373329162598e+00
3.696000000000000000e+03 8.328190803527832031e+00 -7.491142749786376953e+00 -9.415665268898010254e-01 6.542450904846191406e+00 1.680265307426452637e+00 1.458511233329772949e+00
3.697000000000000000e+03 1.400873565673828125e+01 -4.339393138885498047e+00 5.158737301826477051e-01 8.392525672912597656e+00 2.672519683837890625e+00 -9.998509287834167480e-01
3.698000000000000000e+03 1.241663932800292969e+01 -4.698388576507568359e+00 -6.105780005455017090e-01 1.010717296600341797e+01 2.848978519439697266e+00 -1.434563994407653809e-01
3.699000000000000000e+03 1.055998706817626953e+01 -6.677556991577148438e+00 -1.535748958587646484e+00 8.845154762268066406e+00 2.192821502685546875e+00 1.247175574302673340e+00
3.700000000000000000e+03 1.104490566253662109e+01 -5.919057846069335938e+00 -1.422425150871276855e+00 9.467915534973144531e+00 2.413647174835205078e+00 1.109701037406921387e+00
3.701000000000000000e+03 1.296703910827636719e+01 -4.644094944000244141e+00 -2.764040231704711914e-01 9.595609664916992188e+00 2.795761823654174805e+00 -5.215736627578735352e-01
3.702000000000000000e+03 8.318229675292968750e+00 -7.889939785003662109e+00 -9.956095218658447266e-01 6.451167583465576172e+00 1.636667370796203613e+00 1.277178525924682617e+00
3.703000000000000000e+03 1.021833610534667969e+01 -7.773514270782470703e+00 -1.599914789199829102e+00 8.183949470520019531e+00 1.975210428237915039e+00 1.068026304244995117e+00
3.704000000000000000e+03 8.235228538513183594e+00 6.273314952850341797e+00 -6.235609650611877441e-01 6.798383712768554688e+00 1.852446794509887695e+00 -1.757457733154296875e+00
3.705000000000000000e+03 1.334951400756835938e+01 -4.716194629669189453e+00 -1.776973009109497070e-01 9.187092781066894531e+00 2.702818632125854492e+00 -6.088833212852478027e-01
3.706000000000000000e+03 1.334261608123779297e+01 -5.109083175659179688e+00 -4.450986087322235107e-01 9.039499282836914062e+00 2.578320264816284180e+00 -4.236510992050170898e-01
3.707000000000000000e+03 9.504928588867187500e+00 -8.559193611145019531e+00 -1.452178478240966797e+00 7.531180381774902344e+00 1.823700547218322754e+00 9.742430448532104492e-01
3.708000000000000000e+03 8.472915649414062500e+00 -5.253618240356445312e+00 -2.343277931213378906e-01 6.734089851379394531e+00 1.949928641319274902e+00 2.472353458404541016e+00
3.709000000000000000e+03 7.334291458129882812e+00 -5.840958118438720703e+00 -2.718580886721611023e-02 5.046708583831787109e+00 1.505856871604919434e+00 1.965631961822509766e+00
3.710000000000000000e+03 7.735916614532470703e+00 5.759930610656738281e+00 -2.077531814575195312e-01 5.900428771972656250e+00 1.707802653312683105e+00 -1.968117594718933105e+00
3.711000000000000000e+03 8.700023651123046875e+00 -7.719805240631103516e+00 -1.094988584518432617e+00 6.850185871124267578e+00 1.726559162139892578e+00 1.361820101737976074e+00
3.712000000000000000e+03 6.963479995727539062e+00 5.544127941131591797e+00 2.356932163238525391e-01 4.442722320556640625e+00 1.403524637222290039e+00 -1.782064318656921387e+00
3.713000000000000000e+03 7.723394870758056641e+00 5.305097103118896484e+00 -4.144817963242530823e-02 5.826450824737548828e+00 1.735500812530517578e+00 -2.134764432907104492e+00
3.714000000000000000e+03 8.265601158142089844e+00 5.775918483734130859e+00 -4.782426655292510986e-01 6.791740417480468750e+00 1.894049286842346191e+00 -1.982931494712829590e+00
3.715000000000000000e+03 1.132009029388427734e+01 -5.038222789764404297e+00 -1.162253499031066895e+00 1.021514701843261719e+01 2.715868234634399414e+00 8.719802498817443848e-01
3.716000000000000000e+03 1.089130878448486328e+01 -4.835582256317138672e+00 -1.057884573936462402e+00 1.018593692779541016e+01 2.738415718078613281e+00 1.314215660095214844e+00
3.717000000000000000e+03 9.771635055541992188e+00 -7.242927551269531250e+00 -1.394509196281433105e+00 7.985679626464843750e+00 1.977351188659667969e+00 1.365573763847351074e+00
3.718000000000000000e+03 1.024015617370605469e+01 -6.970086097717285156e+00 -1.493438959121704102e+00 8.469078063964843750e+00 2.092691659927368164e+00 1.293544769287109375e+00
3.719000000000000000e+03 1.031382846832275391e+01 -6.041110038757324219e+00 -1.323692321777343750e+00 8.956731796264648438e+00 2.289911746978759766e+00 1.508715629577636719e+00
3.720000000000000000e+03 9.193520545959472656e+00 -7.494952678680419922e+00 -1.251532673835754395e+00 7.385821342468261719e+00 1.840286612510681152e+00 1.376015901565551758e+00
3.721000000000000000e+03 8.069823265075683594e+00 -4.114960479736328125e+01 -3.289543390274047852e-01 4.701604366302490234e+00 1.311794996261596680e+00 7.448720186948776245e-02
3.722000000000000000e+03 9.336229324340820312e+00 -6.251967430114746094e+00 -1.018062114715576172e+00 7.799355506896972656e+00 2.034388065338134766e+00 1.833707332611083984e+00
3.723000000000000000e+03 1.038737869262695312e+01 -5.545467853546142578e+00 -1.206716656684875488e+00 9.257117271423339844e+00 2.415120124816894531e+00 1.570915818214416504e+00
3.724000000000000000e+03 9.860137939453125000e+00 -5.893455028533935547e+00 -1.144023537635803223e+00 8.566303253173828125e+00 2.226683855056762695e+00 1.778894066810607910e+00
3.725000000000000000e+03 7.979408740997314453e+00 5.047292232513427734e+00 -5.513062328100204468e-02 6.155858993530273438e+00 1.830218553543090820e+00 -2.311517953872680664e+00
3.726000000000000000e+03 1.015724849700927734e+01 -6.515812397003173828e+00 -1.378731846809387207e+00 8.539171218872070312e+00 2.148131847381591797e+00 1.440615177154541016e+00
3.727000000000000000e+03 8.856073379516601562e+00 -6.272111892700195312e+00 -8.346852064132690430e-01 7.241712093353271484e+00 1.922108054161071777e+00 1.951052665710449219e+00
3.728000000000000000e+03 8.913060188293457031e+00 -6.875073909759521484e+00 -1.012519598007202148e+00 7.200617313385009766e+00 1.856429338455200195e+00 1.681040883064270020e+00
3.729000000000000000e+03 9.453614234924316406e+00 -6.722039222717285156e+00 -1.206334233283996582e+00 7.860661029815673828e+00 1.996297955513000488e+00 1.612467169761657715e+00
3.730000000000000000e+03 9.742795944213867188e+00 -6.379156589508056641e+00 -1.233786582946777344e+00 8.274460792541503906e+00 2.112202405929565430e+00 1.647516608238220215e+00
3.731000000000000000e+03 6.718826293945312500e+01 2.391863632202148438e+01 -6.605468988418579102e-01 7.032977581024169922e+00 1.911729216575622559e+00 1.977142542600631714e-01
3.732000000000000000e+03 1.087510776519775391e+01 -3.196040153503417969e+01 -9.367562532424926758e-01 5.058952331542968750e+00 1.236658811569213867e+00 3.731373250484466553e-01
3.733000000000000000e+03 1.376465415954589844e+01 -3.436560058593750000e+01 -8.332585096359252930e-01 4.092452526092529297e+00 9.777581095695495605e-01 -1.496852487325668335e-01
3.734000000000000000e+03 3.670879364013671875e+01 -2.954489326477050781e+01 -4.528850615024566650e-01 6.434429645538330078e+00 1.794463396072387695e+00 9.296059608459472656e-01
3.735000000000000000e+03 1.535520172119140625e+01 3.367392730712890625e+01 -3.868367969989776611e-01 3.692535638809204102e+00 9.917096495628356934e-01 3.851136565208435059e-01
3.736000000000000000e+03 4.242685699462890625e+01 -3.778741073608398438e+01 -1.536840081214904785e+00 5.602977275848388672e+00 1.219841122627258301e+00 -2.745593786239624023e-01
3.737000000000000000e+03 4.226079559326171875e+01 -3.486592483520507812e+01 -1.389609932899475098e+00 6.238125801086425781e+00 1.454554796218872070e+00 -2.883791625499725342e-01
3.738000000000000000e+03 4.605253982543945312e+01 2.869321823120117188e+01 -3.950294554233551025e-01 2.753905534744262695e+00 7.076628208160400391e-01 1.116576671600341797e+00
3.739000000000000000e+03 4.188800430297851562e+01 2.747789955139160156e+01 -8.051007390022277832e-01 3.758765459060668945e+00 8.860994577407836914e-01 1.012766599655151367e+00
3.740000000000000000e+03 4.007421112060546875e+01 -3.205529403686523438e+01 -9.719101190567016602e-01 6.750870704650878906e+00 1.733688116073608398e+00 3.454975485801696777e-01
3.741000000000000000e+03 2.242895889282226562e+01 3.286950683593750000e+01 1.817221008241176605e-02 2.270651578903198242e+00 6.866471767425537109e-01 -1.417775545269250870e-02
3.742000000000000000e+03 1.168076896667480469e+01 3.761650466918945312e+01 -2.424452453851699829e-01 4.174864768981933594e+00 1.179725885391235352e+00 4.167903959751129150e-02
3.743000000000000000e+03 8.360465049743652344e+00 3.837621307373046875e+01 -1.937710195779800415e-01 4.546028614044189453e+00 1.305677175521850586e+00 -8.683847635984420776e-02
3.744000000000000000e+03 5.865516185760498047e+00 3.838003540039062500e+01 -1.649280339479446411e-01 4.829634666442871094e+00 1.399412035942077637e+00 -1.640199273824691772e-01
3.745000000000000000e+03 2.411870574951171875e+01 -3.657618331909179688e+01 1.482028979808092117e-02 1.103511095046997070e+00 3.354994058609008789e-01 -5.923781543970108032e-02
3.746000000000000000e+03 3.614211654663085938e+01 -3.349375915527343750e+01 -1.117807984352111816e+00 5.330483436584472656e+00 1.263802647590637207e+00 1.036658763885498047e+00
3.747000000000000000e+03 3.143005180358886719e+01 -3.778180694580078125e+01 -5.791226029396057129e-01 3.004367828369140625e+00 7.275735735893249512e-01 7.774122953414916992e-01
3.748000000000000000e+03 3.132542800903320312e+01 3.351673507690429688e+01 -5.101254582405090332e-01 3.074431180953979492e+00 7.692916989326477051e-01 -4.263836741447448730e-01
3.749000000000000000e+03 2.221756172180175781e+01 -4.090539550781250000e+01 1.484742015600204468e-01 1.672808647155761719e+00 5.463848114013671875e-01 -8.714551478624343872e-02
3.750000000000000000e+03 2.115236091613769531e+01 -3.777449035644531250e+01 -4.019414633512496948e-02 1.703074812889099121e+00 4.988642036914825439e-01 -3.348946869373321533e-01
3.751000000000000000e+03 3.896442031860351562e+01 2.826441764831542969e+01 -9.716336131095886230e-01 4.118810653686523438e+00 9.441531300544738770e-01 5.482728481292724609e-01
3.752000000000000000e+03 3.685994720458984375e+01 2.994010925292968750e+01 -9.399810433387756348e-01 3.918842554092407227e+00 8.936584591865539551e-01 1.277637779712677002e-01
3.753000000000000000e+03 7.562282562255859375e+01 -3.757057952880859375e+01 -1.475880742073059082e-01 8.746576309204101562e+00 2.579696416854858398e+00 -1.207244172692298889e-01
3.754000000000000000e+03 7.216541290283203125e+01 -4.110086059570312500e+01 4.978109523653984070e-02 6.962882518768310547e+00 2.103799104690551758e+00 6.960389018058776855e-02
3.755000000000000000e+03 4.508811950683593750e+01 -3.460070419311523438e+01 -1.228519201278686523e+00 5.820186138153076172e+00 1.377500057220458984e+00 -9.992598295211791992e-01
3.756000000000000000e+03 4.546325302124023438e+01 3.126913452148437500e+01 -2.866664528846740723e-01 2.872859477996826172e+00 7.758579254150390625e-01 8.765885233879089355e-01
3.757000000000000000e+03 8.832245826721191406e+00 -3.856435394287109375e+01 -4.231525361537933350e-01 4.639787673950195312e+00 1.264990448951721191e+00 2.184324562549591064e-01
3.758000000000000000e+03 5.116867446899414062e+01 -3.779018783569335938e+01 -1.315080374479293823e-01 2.488956451416015625e+00 7.072345018386840820e-01 -1.034841060638427734e+00
3.759000000000000000e+03 6.728318786621093750e+01 -3.779072570800781250e+01 1.195169016718864441e-01 4.574524402618408203e+00 1.408212304115295410e+00 4.388527572154998779e-01
3.760000000000000000e+03 6.212530136108398438e+01 3.411957168579101562e+01 5.828211829066276550e-02 4.255199432373046875e+00 1.294044494628906250e+00 -4.619995951652526855e-01
3.761000000000000000e+03 6.754808807373046875e+01 4.129478073120117188e+01 7.817967981100082397e-02 5.608623027801513672e+00 1.706040859222412109e+00 -3.437826409935951233e-02
3.762000000000000000e+03 6.780020141601562500e+01 3.877900314331054688e+01 2.928823046386241913e-02 5.714811325073242188e+00 1.723229885101318359e+00 -8.991549909114837646e-02
3.763000000000000000e+03 3.907349777221679688e+01 -3.449383544921875000e+01 -1.300550222396850586e+00 5.944042682647705078e+00 1.393047690391540527e+00 5.114123225212097168e-01
3.764000000000000000e+03 3.802715301513671875e+01 -3.751174163818359375e+01 -1.401907682418823242e+00 5.199343204498291016e+00 1.139230608940124512e+00 5.081623196601867676e-01
3.765000000000000000e+03 4.567225646972656250e+01 -3.696636962890625000e+01 -1.220574975013732910e+00 5.131651401519775391e+00 1.173322916030883789e+00 -7.625420093536376953e-01
3.766000000000000000e+03 6.755106353759765625e+01 -4.097966384887695312e+01 3.323198556900024414e-01 4.631270885467529297e+00 1.489077329635620117e+00 1.109336614608764648e-01
3.767000000000000000e+03 6.376734161376953125e+01 3.822069168090820312e+01 1.651688814163208008e-01 4.681551456451416016e+00 1.454016089439392090e+00 -1.855793595314025879e-01
3.768000000000000000e+03 5.286322402954101562e+01 3.691451263427734375e+01 4.352051317691802979e-01 2.658226013183593750e+00 9.280293583869934082e-01 1.304265558719635010e-01
3.769000000000000000e+03 3.943320083618164062e+01 3.663021087646484375e+01 -4.009496271610260010e-01 3.157204627990722656e+00 8.268765211105346680e-01 1.938471943140029907e-01
3.770000000000000000e+03 4.376956939697265625e+01 3.735308456420898438e+01 -1.090097278356552124e-01 2.872344493865966797e+00 8.290004134178161621e-01 3.320133090019226074e-01
3.771000000000000000e+03 3.621038436889648438e+01 3.465238189697265625e+01 -5.756655931472778320e-01 3.319235563278198242e+00 8.230710029602050781e-01 2.056640200316905975e-02
3.772000000000000000e+03 3.240563201904296875e+01 3.665202713012695312e+01 -3.779410123825073242e-01 3.020039081573486328e+00 7.926294207572937012e-01 -2.155875712633132935e-01
3.773000000000000000e+03 2.070975303649902344e+01 3.535646057128906250e+01 3.802833613008260727e-03 2.749284744262695312e+00 8.259263038635253906e-01 9.235085546970367432e-02
3.774000000000000000e+03 2.369251632690429688e+01 3.693077087402343750e+01 3.071383945643901825e-02 2.599416971206665039e+00 7.890392541885375977e-01 -7.750871777534484863e-02
3.775000000000000000e+03 3.451896286010742188e+01 -3.608595657348632812e+01 -1.019240379333496094e+00 4.207695007324218750e+00 9.565363526344299316e-01 9.197343587875366211e-01
3.776000000000000000e+03 5.176531982421875000e+01 3.091818809509277344e+01 2.263208925724029541e-01 2.020891666412353516e+00 6.741638183593750000e-01 5.109962224960327148e-01
3.777000000000000000e+03 4.855917358398437500e+01 3.130151367187500000e+01 -5.445424001663923264e-03 2.379278421401977539e+00 7.121499180793762207e-01 7.896251082420349121e-01
3.778000000000000000e+03 1.225705909729003906e+01 3.358844375610351562e+01 -5.560861229896545410e-01 4.458766460418701172e+00 1.170804023742675781e+00 1.024646237492561340e-01
3.779000000000000000e+03 5.467235183715820312e+01 3.016725349426269531e+01 2.891494631767272949e-01 1.930281043052673340e+00 6.658291816711425781e-01 3.372864797711372375e-02
3.780000000000000000e+03 4.470838165283203125e+01 3.416458129882812500e+01 -1.941114515066146851e-01 2.891064643859863281e+00 8.090859651565551758e-01 5.986188650131225586e-01
3.781000000000000000e+03 4.277221298217773438e+01 3.064035415649414062e+01 -5.622431039810180664e-01 3.310314893722534180e+00 8.244215250015258789e-01 8.058918714523315430e-01
3.782000000000000000e+03 2.799213790893554688e+01 3.412670516967773438e+01 -2.207182347774505615e-01 2.644713878631591797e+00 7.271987199783325195e-01 -4.274303019046783447e-01
3.783000000000000000e+03 2.487954139709472656e+01 3.382491302490234375e+01 -2.622434310615062714e-02 2.360942602157592773e+00 7.004154920578002930e-01 -2.377953678369522095e-01
3.784000000000000000e+03 2.548513031005859375e+01 3.114467239379882812e+01 -1.467380970716476440e-01 2.114334821701049805e+00 5.902789831161499023e-01 -5.114429593086242676e-01
3.785000000000000000e+03 5.695609283447265625e+01 3.510402297973632812e+01 4.068760871887207031e-01 2.967751979827880859e+00 1.012388467788696289e+00 -1.599156558513641357e-01
3.786000000000000000e+03 5.847098922729492188e+01 -4.089606094360351562e+01 8.811064958572387695e-01 1.278427243232727051e+00 6.478601694107055664e-01 -4.078878089785575867e-02
3.787000000000000000e+03 5.217987823486328125e+01 3.376887130737304688e+01 3.442898094654083252e-01 2.367383718490600586e+00 8.135020136833190918e-01 2.999768257141113281e-01
3.788000000000000000e+03 4.060300445556640625e+01 2.963829421997070312e+01 -7.899238467216491699e-01 3.696156978607177734e+00 8.718699812889099121e-01 6.844872832298278809e-01
3.789000000000000000e+03 2.443344593048095703e-01 1.782597899436950684e+00 -1.101222261786460876e-02 -2.930113673210144043e-01 -9.120707213878631592e-02 7.294259965419769287e-02
3.790000000000000000e+03 5.424190759658813477e-01 2.181635856628417969e+00 -1.591657102108001709e-02 -4.100134670734405518e-01 -1.277790069580078125e-01 1.664842218160629272e-01
3.791000000000000000e+03 1.396625041961669922e-01 -2.031654119491577148e+00 -6.373758427798748016e-03 -4.091450273990631104e-01 -1.246556341648101807e-01 -4.255599156022071838e-02
3.792000000000000000e+03 4.506930112838745117e-01 -2.768070459365844727e+00 -1.665498712100088596e-04 -5.197539329528808594e-01 -1.559761464595794678e-01 -1.081265360116958618e-01
3.793000000000000000e+03 1.697093725204467773e+00 -1.688047528266906738e+00 -6.816697120666503906e-02 -1.258098781108856201e-01 -5.819305405020713806e-02 -3.149449825286865234e-01
3.794000000000000000e+03 2.118225574493408203e+00 -1.700582027435302734e+00 -7.400476187467575073e-02 -7.063424587249755859e-02 -4.339170083403587341e-02 -3.450588881969451904e-01
3.795000000000000000e+03 2.718032360076904297e+00 -1.612142682075500488e+00 -1.048395931720733643e-01 -2.588613145053386688e-02 -3.921771794557571411e-02 -3.539541959762573242e-01
3.796000000000000000e+03 2.892358541488647461e+00 -1.612621307373046875e+00 -1.128625273704528809e-01 -2.152360975742340088e-04 -3.392332792282104492e-02 -3.440511226654052734e-01
3.797000000000000000e+03 3.146127700805664062e+00 -2.171639680862426758e+00 9.615002572536468506e-02 7.319608330726623535e-02 5.080383270978927612e-02 -2.983720898628234863e-01
3.798000000000000000e+03 4.124647617340087891e+00 -1.646487474441528320e+00 -4.614451900124549866e-02 1.030664220452308655e-01 1.707657054066658020e-02 -2.308967560529708862e-01
3.799000000000000000e+03 4.313887596130371094e+00 -1.627936124801635742e+00 -4.676837101578712463e-02 1.147599518299102783e-01 2.039747498929500580e-02 -1.933266669511795044e-01
3.800000000000000000e+03 5.319838047027587891e+00 -1.598091602325439453e+00 2.528703510761260986e-01 2.505795955657958984e-01 1.510349810123443604e-01 9.166856110095977783e-02
3.801000000000000000e+03 5.281403541564941406e+00 -1.930617928504943848e+00 4.993639290332794189e-01 3.592226207256317139e-01 2.575759589672088623e-01 1.922703087329864502e-01
3.802000000000000000e+03 5.596208095550537109e+00 -1.821260213851928711e+00 5.169425010681152344e-01 3.645658493041992188e-01 2.644525170326232910e-01 2.920933067798614502e-01
3.803000000000000000e+03 5.988708496093750000e+00 -1.969536185264587402e+00 8.948992490768432617e-01 6.187301874160766602e-01 4.540888369083404541e-01 6.082294583320617676e-01
3.804000000000000000e+03 6.067965507507324219e+00 -1.653693079948425293e+00 6.702216863632202148e-01 4.361504614353179932e-01 3.319116532802581787e-01 4.748943448066711426e-01
3.805000000000000000e+03 6.426295757293701172e+00 -2.002866983413696289e+00 1.251779675483703613e+00 8.644169569015502930e-01 6.348589658737182617e-01 9.861753582954406738e-01
3.806000000000000000e+03 6.475600719451904297e+00 -1.667127013206481934e+00 9.660513401031494141e-01 6.129159927368164062e-01 4.736902117729187012e-01 7.449553608894348145e-01
3.807000000000000000e+03 6.647692680358886719e+00 -2.005581378936767578e+00 1.420490384101867676e+00 1.001446008682250977e+00 7.265809178352355957e-01 1.196924567222595215e+00
3.808000000000000000e+03 7.700629234313964844e+00 -1.622522234916687012e+00 2.373461723327636719e+00 1.604705810546875000e+00 1.193450331687927246e+00 2.234874248504638672e+00
3.809000000000000000e+03 8.183648109436035156e+00 -2.006380319595336914e+00 2.669227123260498047e+00 3.548285484313964844e+00 1.865253806114196777e+00 3.545836925506591797e+00
3.810000000000000000e+03 8.260732650756835938e+00 -1.676653504371643066e+00 3.026664257049560547e+00 3.129642486572265625e+00 1.846891999244689941e+00 3.527221918106079102e+00
3.811000000000000000e+03 8.642924308776855469e+00 -2.196009874343872070e+00 2.514247894287109375e+00 5.866113662719726562e+00 2.514108419418334961e+00 4.504592895507812500e+00
3.812000000000000000e+03 9.161975860595703125e+00 -1.901271939277648926e+00 2.591535568237304688e+00 8.257400512695312500e+00 3.254680871963500977e+00 5.386346817016601562e+00
3.813000000000000000e+03 9.490923881530761719e+00 -1.890346407890319824e+00 2.069786071777343750e+00 1.098238468170166016e+01 3.915651321411132812e+00 5.501372337341308594e+00
3.814000000000000000e+03 9.318449020385742188e+00 -1.870924115180969238e+00 2.450766086578369141e+00 9.675124168395996094e+00 3.637767076492309570e+00 5.526480197906494141e+00
3.815000000000000000e+03 9.682178497314453125e+00 -1.913871765136718750e+00 1.583112001419067383e+00 1.250387859344482422e+01 4.226097106933593750e+00 5.091778278350830078e+00
3.816000000000000000e+03 1.031553745269775391e+01 -1.912373661994934082e+00 8.792517185211181641e-01 1.623290824890136719e+01 5.133647918701171875e+00 2.669762372970581055e+00
3.817000000000000000e+03 1.030281066894531250e+01 -1.614032030105590820e+00 1.229588270187377930e+00 1.778813171386718750e+01 5.705316066741943359e+00 2.800690650939941406e+00
3.818000000000000000e+03 1.075512027740478516e+01 -1.898221850395202637e+00 1.209907293319702148e+00 1.668866920471191406e+01 5.369573116302490234e+00 6.104822754859924316e-01
3.819000000000000000e+03 1.070830059051513672e+01 -1.526859641075134277e+00 2.072606086730957031e+00 1.839609336853027344e+01 6.140609741210937500e+00 2.029605209827423096e-01
3.820000000000000000e+03 1.101631164550781250e+01 -1.903279662132263184e+00 1.638014554977416992e+00 1.627304267883300781e+01 5.373317241668701172e+00 -3.100460767745971680e-01
3.821000000000000000e+03 1.157031059265136719e+01 -1.431164383888244629e+00 4.412315368652343750e+00 1.530858707427978516e+01 5.916270732879638672e+00 -2.403766632080078125e+00
3.822000000000000000e+03 1.177228546142578125e+01 -1.078617334365844727e+00 6.248277187347412109e+00 1.429686355590820312e+01 6.163542270660400391e+00 -2.669762849807739258e+00
3.823000000000000000e+03 1.159959030151367188e+01 -3.209709227085113525e-01 1.034892463684082031e+01 1.434131336212158203e+01 7.407071590423583984e+00 -1.574181914329528809e+00
3.824000000000000000e+03 1.195966434478759766e+01 6.275076419115066528e-02 9.419480323791503906e+00 1.285722637176513672e+01 6.683012008666992188e+00 -6.065926700830459595e-02
3.825000000000000000e+03 1.199845695495605469e+01 2.865538001060485840e-01 9.151529312133789062e+00 1.278201007843017578e+01 6.580061912536621094e+00 6.517409682273864746e-01
3.826000000000000000e+03 1.205699443817138672e+01 5.213449597358703613e-01 8.153785705566406250e+00 1.266160488128662109e+01 6.244616985321044922e+00 1.269685626029968262e+00
3.827000000000000000e+03 1.157801055908203125e+01 1.312907576560974121e+00 4.782762050628662109e+00 1.567077922821044922e+01 6.136062622070312500e+00 2.080823659896850586e+00
3.828000000000000000e+03 1.128141212463378906e+01 1.110396146774291992e+00 5.417739868164062500e+00 1.711845970153808594e+01 6.760859966278076172e+00 2.282594919204711914e+00
3.829000000000000000e+03 1.065362548828125000e+01 2.089267730712890625e+00 4.434734880924224854e-01 1.618542098999023438e+01 4.988668441772460938e+00 -1.658943414688110352e+00
3.830000000000000000e+03 9.729275703430175781e+00 1.976612687110900879e+00 1.172837257385253906e+00 1.313786506652832031e+01 4.293210506439208984e+00 -5.132595062255859375e+00
3.831000000000000000e+03 9.284754753112792969e+00 1.772578716278076172e+00 2.466975450515747070e+00 9.613725662231445312e+00 3.624210357666015625e+00 -5.960215568542480469e+00
3.832000000000000000e+03 9.293401718139648438e+00 1.595336914062500000e+00 2.913989543914794922e+00 9.398279190063476562e+00 3.693680763244628906e+00 -6.267317771911621094e+00
3.833000000000000000e+03 9.115441322326660156e+00 1.804895520210266113e+00 2.679048776626586914e+00 8.301506042480468750e+00 3.294166326522827148e+00 -5.695385456085205078e+00
3.834000000000000000e+03 8.904739379882812500e+00 1.618958830833435059e+00 3.253886699676513672e+00 6.319995880126953125e+00 2.872164726257324219e+00 -5.368342399597167969e+00
3.835000000000000000e+03 8.931485176086425781e+00 1.855144500732421875e+00 2.659516572952270508e+00 7.064832210540771484e+00 2.917304515838623047e+00 -5.291639328002929688e+00
3.836000000000000000e+03 8.537589073181152344e+00 1.958947896957397461e+00 2.619749784469604492e+00 5.141526222229003906e+00 2.328382730484008789e+00 -4.449259757995605469e+00
3.837000000000000000e+03 8.101291656494140625e+00 2.035809993743896484e+00 2.465213775634765625e+00 3.400138378143310547e+00 1.759605646133422852e+00 -3.493523836135864258e+00
3.838000000000000000e+03 7.783190727233886719e+00 1.823061704635620117e+00 2.298525333404541016e+00 2.275776863098144531e+00 1.372290611267089844e+00 -2.649288654327392578e+00
3.839000000000000000e+03 7.591157436370849609e+00 1.901623487472534180e+00 2.106856822967529297e+00 2.057687520980834961e+00 1.249363303184509277e+00 -2.375293016433715820e+00
3.840000000000000000e+03 6.989644050598144531e+00 2.118286132812500000e+00 1.539968252182006836e+00 1.525971293449401855e+00 9.197818636894226074e-01 -1.657711505889892578e+00
3.841000000000000000e+03 7.124657630920410156e+00 1.684067130088806152e+00 1.496718883514404297e+00 1.072815895080566406e+00 7.708604335784912109e-01 -1.394842505455017090e+00
3.842000000000000000e+03 6.479748249053955078e+00 1.978033900260925293e+00 1.080412864685058594e+00 9.034565091133117676e-01 5.951607823371887207e-01 -9.391592144966125488e-01
3.843000000000000000e+03 6.079403400421142578e+00 1.681044816970825195e+00 5.402672290802001953e-01 4.868688881397247314e-01 3.081408441066741943e-01 -4.266477525234222412e-01
3.844000000000000000e+03 5.649768829345703125e+00 1.876492738723754883e+00 4.510070383548736572e-01 4.364904165267944336e-01 2.662492394447326660e-01 -2.503363490104675293e-01
3.845000000000000000e+03 5.463598728179931641e+00 1.882814168930053711e+00 3.814295232295989990e-01 3.822085559368133545e-01 2.290914207696914673e-01 -1.561902016401290894e-01
3.846000000000000000e+03 5.270797252655029297e+00 1.868634462356567383e+00 3.064425289630889893e-01 3.373475968837738037e-01 1.931370347738265991e-01 -7.782408595085144043e-02
3.847000000000000000e+03 5.018093109130859375e+00 2.034527063369750977e+00 3.535626828670501709e-01 3.449887931346893311e-01 2.095654457807540894e-01 -4.893334582448005676e-02
3.848000000000000000e+03 4.930033206939697266e+00 1.843206882476806641e+00 1.613805592060089111e-01 2.803742587566375732e-01 1.325264424085617065e-01 5.639181658625602722e-02
3.849000000000000000e+03 4.906805038452148438e+00 1.616989850997924805e+00 -1.726134493947029114e-02 1.896809637546539307e-01 5.172588676214218140e-02 1.458622813224792480e-01
3.850000000000000000e+03 4.755949974060058594e+00 1.892174363136291504e+00 1.269764304161071777e-01 2.328776717185974121e-01 1.079562306404113770e-01 1.216048821806907654e-01
3.851000000000000000e+03 4.318520069122314453e+00 1.663293719291687012e+00 -1.000343412160873413e-01 1.309576183557510376e-01 9.276980534195899963e-03 2.709490954875946045e-01
3.852000000000000000e+03 4.566530704498291016e+00 1.929455399513244629e+00 1.435878872871398926e-01 2.294146567583084106e-01 1.119007617235183716e-01 1.548505127429962158e-01
3.853000000000000000e+03 4.368942260742187500e+00 1.985847949981689453e+00 1.294172108173370361e-01 2.018528431653976440e-01 9.938101470470428467e-02 1.940666884183883667e-01
3.854000000000000000e+03 3.972213029861450195e+00 2.081629753112792969e+00 8.967570960521697998e-02 1.863140016794204712e-01 8.279691636562347412e-02 2.644973993301391602e-01
3.855000000000000000e+03 3.595755100250244141e+00 2.005118370056152344e+00 -1.302875811234116554e-03 7.136435806751251221e-02 2.101844549179077148e-02 3.600090742111206055e-01
3.856000000000000000e+03 3.029030561447143555e+00 2.007764101028442383e+00 -4.437488690018653870e-02 2.520347759127616882e-02 -5.751422606408596039e-03 4.155927896499633789e-01
3.857000000000000000e+03 2.258387327194213867e+00 1.671000599861145020e+00 -1.320880204439163208e-01 -8.451419323682785034e-02 -6.498066335916519165e-02 4.101071059703826904e-01
3.858000000000000000e+03 1.749193191528320312e+00 1.783819198608398438e+00 -9.186753630638122559e-02 -1.324138641357421875e-01 -6.728442013263702393e-02 3.912757039070129395e-01
3.859000000000000000e+03 1.312283873558044434e+00 1.618633508682250977e+00 -7.071296125650405884e-02 -1.933225691318511963e-01 -7.921066135168075562e-02 3.270028829574584961e-01
3.860000000000000000e+03 1.113543748855590820e+00 1.616956233978271484e+00 -5.394824594259262085e-02 -2.025953680276870728e-01 -7.696308195590972900e-02 2.765296697616577148e-01
3.861000000000000000e+03 9.046478271484375000e-01 1.799169421195983887e+00 -1.674374006688594818e-02 -2.736710309982299805e-01 -8.712443709373474121e-02 2.484183162450790405e-01
3.862000000000000000e+03 2.445465028285980225e-01 3.657179594039916992e+00 1.894515007734298706e-02 -9.433832168579101562e-01 -2.773314118385314941e-01 5.699943378567695618e-02
3.863000000000000000e+03 7.763014984130859375e+01 3.691979217529296875e+01 -2.777580544352531433e-02 7.979698181152343750e+00 2.385576725006103516e+00 8.524591103196144104e-03
3.864000000000000000e+03 4.704076385498046875e+01 -1.494179153442382812e+01 2.239713430404663086e+00 3.995866775512695312e+00 1.870674014091491699e+00 2.090710401535034180e+00
3.865000000000000000e+03 5.204771804809570312e+01 -5.727412223815917969e+00 9.242399930953979492e-01 1.936035990715026855e+00 8.580827713012695312e-01 2.118144273757934570e+00
3.866000000000000000e+03 4.911908721923828125e+01 -6.413595676422119141e+00 -1.004693508148193359e+00 -2.027409970760345459e-01 -3.622303605079650879e-01 2.079431295394897461e+00
3.867000000000000000e+03 3.937368011474609375e+01 -1.851693868637084961e+00 7.440993934869766235e-02 9.462277412414550781e+00 2.861006259918212891e+00 -1.506055593490600586e+00
3.868000000000000000e+03 7.959846854209899902e-01 -2.107422113418579102e+00 3.996297251433134079e-03 -2.752160131931304932e-01 -8.136591315269470215e-02 -2.050741910934448242e-01
3.869000000000000000e+03 1.545752525329589844e+00 1.839207530021667480e+00 -6.084245070815086365e-02 -1.934732347726821899e-01 -7.629470527172088623e-02 3.830479681491851807e-01
3.870000000000000000e+03 3.634295701980590820e+00 -1.949730753898620605e+00 7.337990403175354004e-02 1.153450161218643188e-01 5.661747604608535767e-02 -2.587124407291412354e-01
3.871000000000000000e+03 4.829911708831787109e+00 -2.455962657928466797e+00 6.255778670310974121e-01 5.120686888694763184e-01 3.412939608097076416e-01 2.338413596153259277e-01
3.872000000000000000e+03 5.083912372589111328e+00 -2.183440208435058594e+00 5.771678686141967773e-01 4.241264164447784424e-01 3.003882765769958496e-01 2.272921055555343628e-01
3.873000000000000000e+03 7.120665073394775391e+00 2.446354389190673828e+00 1.670580267906188965e+00 2.084588527679443359e+00 1.126550674438476562e+00 -2.024937152862548828e+00
3.874000000000000000e+03 6.779009342193603516e+00 2.279045104980468750e+00 1.424729347229003906e+00 1.451339483261108398e+00 8.628206253051757812e-01 -1.467844843864440918e+00
3.875000000000000000e+03 6.246245503425598145e-01 -2.306971073150634766e+00 7.861891761422157288e-03 -3.155349791049957275e-01 -9.230192750692367554e-02 -1.787533015012741089e-01
3.876000000000000000e+03 1.168196082115173340e+00 -2.063536643981933594e+00 -6.049852352589368820e-03 -2.360051274299621582e-01 -7.261649519205093384e-02 -2.620027065277099609e-01
3.877000000000000000e+03 1.455338001251220703e+00 -2.888402938842773438e+00 6.320316344499588013e-02 -2.597798109054565430e-01 -5.897299572825431824e-02 -2.684167325496673584e-01
3.878000000000000000e+03 6.309558868408203125e+00 1.998839855194091797e+00 9.352143406867980957e-01 8.028815984725952148e-01 5.214287638664245605e-01 -7.473465204238891602e-01
3.879000000000000000e+03 6.578772068023681641e+00 2.328380584716796875e+00 1.321803689002990723e+00 1.400385499000549316e+00 8.166567683219909668e-01 -1.338959813117980957e+00
3.880000000000000000e+03 5.964208245277404785e-01 1.905375838279724121e+00 -5.448967684060335159e-03 -3.143541812896728516e-01 -9.594094008207321167e-02 1.646499633789062500e-01
3.881000000000000000e+03 2.812262296676635742e+00 -1.792720437049865723e+00 -7.390847057104110718e-02 -3.035311354324221611e-03 -2.308313548564910889e-02 -3.562472760677337646e-01
3.882000000000000000e+03 2.983808755874633789e+00 -1.944940686225891113e+00 1.072742231190204620e-02 2.974045835435390472e-02 1.214036438614130020e-02 -3.342537283897399902e-01
3.883000000000000000e+03 7.979588031768798828e+00 -2.009456157684326172e+00 2.549927711486816406e+00 2.893360137939453125e+00 1.632986307144165039e+00 3.150449275970458984e+00
3.884000000000000000e+03 7.572702884674072266e+00 -2.164473533630371094e+00 2.194367885589599609e+00 2.299635410308837891e+00 1.348200917243957520e+00 2.510164499282836914e+00
3.885000000000000000e+03 8.028857231140136719e+00 -2.248611688613891602e+00 2.479399919509887695e+00 3.568534851074218750e+00 1.814380407333374023e+00 3.440953016281127930e+00
3.886000000000000000e+03 8.352317810058593750e+00 -2.726376771926879883e+00 1.887820601463317871e+00 5.346940994262695312e+00 2.170428514480590820e+00 3.872081041336059570e+00
3.887000000000000000e+03 9.120177268981933594e+00 -2.232768535614013672e+00 2.036882877349853516e+00 8.618007659912109375e+00 3.196467399597167969e+00 5.014692306518554688e+00
3.888000000000000000e+03 5.671665191650390625e+00 2.101948261260986328e+00 6.896113753318786621e-01 5.778261423110961914e-01 3.802312612533569336e-01 -3.881287574768066406e-01
3.889000000000000000e+03 3.072920322418212891e+00 2.454059839248657227e+00 1.405713707208633423e-01 7.282452285289764404e-02 6.401876360177993774e-02 3.638260960578918457e-01
3.890000000000000000e+03 2.757952451705932617e+00 2.168342113494873047e+00 -1.807888504117727280e-03 7.096979767084121704e-03 1.586727332323789597e-03 4.151091575622558594e-01
3.891000000000000000e+03 2.457338094711303711e+00 2.061717987060546875e+00 -5.206829681992530823e-02 -4.054709896445274353e-02 -2.778461948037147522e-02 4.339312314987182617e-01
3.892000000000000000e+03 2.589524984359741211e+00 2.391459703445434570e+00 8.292528241872787476e-02 -9.936593472957611084e-03 2.189660631120204926e-02 4.065602719783782959e-01
3.893000000000000000e+03 6.993858337402343750e+00 -2.356967687606811523e+00 1.784637331962585449e+00 1.746768951416015625e+00 1.059421896934509277e+00 1.897418975830078125e+00
3.894000000000000000e+03 7.255517005920410156e+00 -2.230129957199096680e+00 1.964045166969299316e+00 1.860955357551574707e+00 1.147500157356262207e+00 2.103033065795898438e+00
3.895000000000000000e+03 6.695851325988769531e+00 -2.309111118316650391e+00 1.555279731750488281e+00 1.321911573410034180e+00 8.631573915481567383e-01 1.459814071655273438e+00
3.896000000000000000e+03 6.897972106933593750e+00 -2.197909593582153320e+00 1.686292529106140137e+00 1.429987311363220215e+00 9.348839521408081055e-01 1.616225838661193848e+00
3.897000000000000000e+03 5.685570240020751953e+00 -2.083188772201538086e+00 8.269543051719665527e-01 4.742400050163269043e-01 3.903582990169525146e-01 4.868546426296234131e-01
3.898000000000000000e+03 3.177180767059326172e+00 -2.469360113143920898e+00 1.772061884403228760e-01 1.217383667826652527e-01 8.968336880207061768e-02 -2.443557232618331909e-01
3.899000000000000000e+03 1.125470924377441406e+01 2.085847854614257812e+00 1.260409951210021973e+00 1.552131271362304688e+01 5.034516811370849609e+00 3.045713901519775391e-01
3.900000000000000000e+03 1.062000560760498047e+01 2.756927490234375000e+00 -3.554500043392181396e-01 1.402266311645507812e+01 4.100163936614990234e+00 -1.964452147483825684e+00
3.901000000000000000e+03 9.548515319824218750e+00 2.053627490997314453e+00 1.400622963905334473e+00 1.149381637573242188e+01 3.868331909179687500e+00 -5.232384204864501953e+00
3.902000000000000000e+03 9.766997337341308594e+00 2.695979595184326172e+00 2.028035968542098999e-01 1.180888843536376953e+01 3.603507518768310547e+00 -4.010010719299316406e+00
3.903000000000000000e+03 9.324832916259765625e+00 1.917421460151672363e+00 2.118438005447387695e+00 1.006095218658447266e+01 3.653817176818847656e+00 -5.676506996154785156e+00
3.904000000000000000e+03 9.165773391723632812e+00 1.985651850700378418e+00 2.115526437759399414e+00 8.853468894958496094e+00 3.290698766708374023e+00 -5.507015228271484375e+00
3.905000000000000000e+03 8.814063072204589844e+00 2.195357799530029297e+00 2.103567361831665039e+00 6.941437721252441406e+00 2.713501453399658203e+00 -4.824003696441650391e+00
3.906000000000000000e+03 8.739517211914062500e+00 1.911517739295959473e+00 2.712992429733276367e+00 5.949381828308105469e+00 2.598712205886840820e+00 -4.893912792205810547e+00
3.907000000000000000e+03 1.210044765472412109e+01 -3.918950259685516357e-01 8.610943794250488281e+00 1.248043441772460938e+01 6.327413558959960938e+00 -1.432241082191467285e+00
3.908000000000000000e+03 1.220355129241943359e+01 -8.513858914375305176e-01 6.924598217010498047e+00 1.237938117980957031e+01 5.791193962097167969e+00 -2.247710704803466797e+00
3.909000000000000000e+03 1.185287189483642578e+01 -1.579325079917907715e+00 4.043224811553955078e+00 1.413360404968261719e+01 5.453048706054687500e+00 -2.328313589096069336e+00
3.910000000000000000e+03 9.631514549255371094e+00 -2.177221298217773438e+00 1.269472360610961914e+00 1.184446334838867188e+01 3.934180498123168945e+00 4.763696670532226562e+00
3.911000000000000000e+03 8.995024681091308594e+00 -2.002967596054077148e+00 2.462180137634277344e+00 7.356543064117431641e+00 2.945616960525512695e+00 5.110816001892089844e+00
3.912000000000000000e+03 8.900488853454589844e+00 -2.246684789657592773e+00 2.287133693695068359e+00 7.229693889617919922e+00 2.855048179626464844e+00 4.809588432312011719e+00
3.913000000000000000e+03 2.777281951904296875e+01 -1.737347841262817383e+00 3.388349771499633789e+00 2.328066676855087280e-01 1.086346983909606934e+00 5.387027561664581299e-02
3.914000000000000000e+03 4.341199874877929688e+01 -2.517089080810546875e+01 2.169081926345825195e+00 9.486823081970214844e+00 3.496771335601806641e+00 -1.618792653083801270e+00
3.915000000000000000e+03 1.173744010925292969e+01 -3.581719589233398438e+01 -6.951964497566223145e-01 4.359214782714843750e+00 1.099205493927001953e+00 5.235201120376586914e-02
3.916000000000000000e+03 6.021978855133056641e+00 2.434939622879028320e+00 1.015594363212585449e+00 1.027617573738098145e+00 6.129635572433471680e-01 -8.379919528961181641e-01
3.917000000000000000e+03 2.935490846633911133e+00 -2.365241289138793945e+00 1.071061044931411743e-01 5.234552174806594849e-02 4.783548787236213684e-02 -2.988306581974029541e-01
3.918000000000000000e+03 1.217381763458251953e+01 -1.553681373596191406e+00 4.454419136047363281e+00 1.278344726562500000e+01 5.171360015869140625e+00 -2.444859743118286133e+00
3.919000000000000000e+03 8.268286585807800293e-01 2.338468313217163086e+00 -1.267844624817371368e-02 -4.475095570087432861e-01 -1.380563974380493164e-01 2.277236878871917725e-01
3.920000000000000000e+03 7.305245399475097656e+00 2.308982372283935547e+00 1.749620556831359863e+00 2.207897186279296875e+00 1.187255263328552246e+00 -2.201485395431518555e+00
3.921000000000000000e+03 1.109805774688720703e+01 2.907627105712890625e+00 -3.141502737998962402e-01 1.389677524566650391e+01 4.074787616729736328e+00 -8.396868705749511719e-01
3.922000000000000000e+03 6.405601501464843750e+00 2.651870727539062500e+00 1.270136475563049316e+00 1.542851090431213379e+00 8.438962697982788086e-01 -1.317797541618347168e+00
3.923000000000000000e+03 1.734619903564453125e+01 2.437373352050781250e+01 -9.909638762474060059e-01 2.647202730178833008e+00 4.968716800212860107e-01 1.873022317886352539e+00
3.924000000000000000e+03 9.532898902893066406e+00 2.293345689773559570e+00 9.713663458824157715e-01 1.094665145874023438e+01 3.575405120849609375e+00 -4.825232982635498047e+00
3.925000000000000000e+03 9.243454933166503906e+00 2.132630586624145508e+00 1.756371259689331055e+00 9.337169647216796875e+00 3.328062295913696289e+00 -5.374145984649658203e+00
3.926000000000000000e+03 2.794800758361816406e+00 -2.690363645553588867e+00 1.511660218238830566e-01 6.187657266855239868e-02 6.391277909278869629e-02 -2.776696979999542236e-01
3.927000000000000000e+03 1.009123229980468750e+01 3.053986310958862305e+00 -4.022866785526275635e-01 1.218141841888427734e+01 3.533739566802978516e+00 -3.038252353668212891e+00
3.928000000000000000e+03 1.006933975219726562e+01 2.639429330825805664e+00 -2.625763975083827972e-02 1.307211971282958984e+01 3.913758754730224609e+00 -3.453028678894042969e+00
3.929000000000000000e+03 8.843503952026367188e+00 2.693725109100341797e+00 1.308383703231811523e+00 7.597057819366455078e+00 2.671632528305053711e+00 -4.385118484497070312e+00
3.930000000000000000e+03 7.707806587219238281e+00 2.686419010162353516e+00 1.797667145729064941e+00 3.635536193847656250e+00 1.629961013793945312e+00 -3.009223461151123047e+00
3.931000000000000000e+03 8.484411239624023438e+00 2.820841073989868164e+00 1.511283993721008301e+00 6.210358619689941406e+00 2.316492795944213867e+00 -3.985194921493530273e+00
3.932000000000000000e+03 6.111311435699462891e+00 3.003069400787353516e+00 1.158944368362426758e+00 1.611862659454345703e+00 8.312420845031738281e-01 -1.187644720077514648e+00
3.933000000000000000e+03 5.624560832977294922e+00 2.580219984054565430e+00 8.499685525894165039e-01 8.315261006355285645e-01 5.044484138488769531e-01 -5.818554759025573730e-01
3.934000000000000000e+03 7.770536422729492188e+00 -2.091015577316284180e+00 2.403235673904418945e+00 2.586692333221435547e+00 1.496978402137756348e+00 2.819985628128051758e+00
3.935000000000000000e+03 8.536803245544433594e+00 -2.976342916488647461e+00 1.450998902320861816e+00 6.360792636871337891e+00 2.343537330627441406e+00 3.918162822723388672e+00
3.936000000000000000e+03 8.930685997009277344e+00 -2.635888576507568359e+00 1.580465912818908691e+00 7.573598384857177734e+00 2.746219158172607422e+00 4.431571960449218750e+00
3.937000000000000000e+03 1.303861427307128906e+01 1.194436550140380859e+00 5.124931812286376953e+00 1.024449539184570312e+01 4.610827922821044922e+00 1.299909353256225586e+00
3.938000000000000000e+03 3.050697326660156250e+00 3.735264587402343750e+01 -7.378775626420974731e-02 5.188591003417968750e+00 1.534440994262695312e+00 -7.186925411224365234e-02
3.939000000000000000e+03 7.618095874786376953e+00 -2.379269599914550781e+00 2.150297403335571289e+00 2.769728183746337891e+00 1.476007699966430664e+00 2.756464481353759766e+00
3.940000000000000000e+03 7.462658882141113281e+00 -2.806760549545288086e+00 1.856922149658203125e+00 3.068042516708374023e+00 1.477489352226257324e+00 2.712784051895141602e+00
3.941000000000000000e+03 7.713756561279296875e+00 -2.567572116851806641e+00 2.111575603485107422e+00 3.297859430313110352e+00 1.622830510139465332e+00 3.035470962524414062e+00
3.942000000000000000e+03 1.207373523712158203e+01 2.341166257858276367e+00 1.665652036666870117e+00 1.323980712890625000e+01 4.471637725830078125e+00 1.223595857620239258e+00
3.943000000000000000e+03 3.362850427627563477e+00 -2.923193454742431641e+00 3.459237813949584961e-01 2.226726412773132324e-01 1.705789268016815186e-01 -1.356311291456222534e-01
3.944000000000000000e+03 3.154909706115722656e+01 2.105753517150878906e+01 -1.896275877952575684e-01 5.225573062896728516e+00 1.510783553123474121e+00 -1.039456605911254883e+00
3.945000000000000000e+03 4.740545654296875000e+01 -3.405189132690429688e+01 -8.521184325218200684e-01 4.779245376586914062e+00 1.178138136863708496e+00 -1.643426656723022461e+00
3.946000000000000000e+03 4.682177352905273438e+01 -7.828107357025146484e+00 -2.926186919212341309e-01 7.842433452606201172e-01 1.474873870611190796e-01 1.240830421447753906e+00
3.947000000000000000e+03 3.804379272460937500e+01 -1.997148704528808594e+01 1.609277963638305664e+00 1.040251541137695312e+01 3.603538036346435547e+00 -7.900894880294799805e-01
3.948000000000000000e+03 3.319136047363281250e+01 -7.612938880920410156e+00 -9.920379519462585449e-01 6.807214260101318359e+00 1.744552850723266602e+00 -2.184660673141479492e+00
3.949000000000000000e+03 4.279451370239257812e+01 -2.820260238647460938e+01 6.817690730094909668e-01 8.196448326110839844e+00 2.663465261459350586e+00 -7.394317984580993652e-01
3.950000000000000000e+03 6.458312225341796875e+01 5.398756504058837891e+00 9.306534528732299805e-01 7.141817092895507812e+00 2.421741247177124023e+00 5.069866776466369629e-01
3.951000000000000000e+03 3.353163909912109375e+01 -1.970977902412414551e+00 1.134986877441406250e+00 7.525959014892578125e+00 2.598283767700195312e+00 6.487872600555419922e-01
3.952000000000000000e+03 3.391792297363281250e+01 -3.350222349166870117e+00 -5.531838163733482361e-03 7.737256526947021484e+00 2.319517374038696289e+00 -2.662878036499023438e-01
3.953000000000000000e+03 9.392757415771484375e+00 2.500444889068603516e+00 9.163163304328918457e-01 1.028670597076416016e+01 3.360906839370727539e+00 -4.698216438293457031e+00
3.954000000000000000e+03 9.111979484558105469e+00 2.255474567413330078e+00 1.705438852310180664e+00 8.709744453430175781e+00 3.124555110931396484e+00 -5.086644649505615234e+00
3.955000000000000000e+03 7.493703842163085938e+00 2.945018291473388672e+00 1.539939641952514648e+00 3.556156396865844727e+00 1.528828859329223633e+00 -2.739875555038452148e+00
3.956000000000000000e+03 4.645487308502197266e+00 3.653392791748046875e+01 -1.397968083620071411e-01 4.942495346069335938e+00 1.440809488296508789e+00 -2.039573490619659424e-01
3.957000000000000000e+03 5.870472717285156250e+01 -1.161475467681884766e+01 -1.788179636001586914e+00 7.731375098228454590e-01 -3.045126497745513916e-01 3.619047999382019043e-01
3.958000000000000000e+03 4.361246490478515625e+01 -1.945755958557128906e+01 1.670137166976928711e+00 9.937465667724609375e+00 3.482280969619750977e+00 -3.639049828052520752e-01
3.959000000000000000e+03 8.757179260253906250e+00 -3.236190319061279297e+00 1.052731752395629883e+00 7.128329277038574219e+00 2.454318284988403320e+00 3.816733360290527344e+00
3.960000000000000000e+03 5.452491283416748047e+00 2.160435438156127930e+00 6.196181178092956543e-01 5.508514046669006348e-01 3.511408269405364990e-01 -3.085641264915466309e-01
3.961000000000000000e+03 1.833798408508300781e+01 -8.982633590698242188e+00 -4.026358127593994141e-01 2.355323553085327148e+00 5.858063101768493652e-01 6.697733402252197266e-01
3.962000000000000000e+03 1.101058578491210938e+01 -2.796648263931274414e+00 2.274236679077148438e-01 1.359735298156738281e+01 4.147433280944824219e+00 7.101761698722839355e-01
3.963000000000000000e+03 9.833475112915039062e+00 -2.247491836547851562e+00 9.884456396102905273e-01 1.285721683502197266e+01 4.153698921203613281e+00 4.289541721343994141e+00
3.964000000000000000e+03 1.004495334625244141e+01 -2.346450090408325195e+00 6.134226322174072266e-01 1.335182666778564453e+01 4.189574718475341797e+00 3.523597955703735352e+00
3.965000000000000000e+03 1.019034099578857422e+01 -2.541659593582153320e+00 3.097647726535797119e-01 1.342636680603027344e+01 4.120839595794677734e+00 2.966674089431762695e+00
3.966000000000000000e+03 1.028631591796875000e+01 -2.845693826675415039e+00 3.148609027266502380e-02 1.280675697326660156e+01 3.851472854614257812e+00 2.560358285903930664e+00
3.967000000000000000e+03 4.667794227600097656e+00 2.621734857559204102e+00 5.258457660675048828e-01 5.777273774147033691e-01 3.310719430446624756e-01 -1.011100560426712036e-01
3.968000000000000000e+03 1.240129280090332031e+01 -2.258521318435668945e+00 2.610633611679077148e+00 1.197634983062744141e+01 4.376095294952392578e+00 -1.943182349205017090e+00
3.969000000000000000e+03 4.359582424163818359e+00 2.411238193511962891e+00 3.340154588222503662e-01 3.053157925605773926e-01 1.917993724346160889e-01 1.042571067810058594e-01
3.970000000000000000e+03 4.619796276092529297e+00 2.189184188842773438e+00 2.866742014884948730e-01 3.542781472206115723e-01 1.922857016324996948e-01 7.196746766567230225e-02
3.971000000000000000e+03 4.829507350921630859e+00 2.163928508758544922e+00 3.667144179344177246e-01 3.841200768947601318e-01 2.252503484487533569e-01 -2.868205308914184570e-02
3.972000000000000000e+03 6.193100452423095703e+00 -2.785245895385742188e+00 1.317114830017089844e+00 1.380967140197753906e+00 8.094245791435241699e-01 1.251461863517761230e+00
3.973000000000000000e+03 7.295732498168945312e+00 -2.597987890243530273e+00 1.899099707603454590e+00 2.462944984436035156e+00 1.308613419532775879e+00 2.410154819488525391e+00
3.974000000000000000e+03 9.360482215881347656e+00 -2.905840873718261719e+00 7.818584442138671875e-01 9.539994239807128906e+00 3.096555709838867188e+00 4.081624507904052734e+00
3.975000000000000000e+03 9.192888259887695312e+00 -3.351669788360595703e+00 5.194114446640014648e-01 8.656150817871093750e+00 2.752668619155883789e+00 3.676741838455200195e+00
3.976000000000000000e+03 1.229946422576904297e+01 -1.950575858354568481e-01 8.296271324157714844e+00 1.163979053497314453e+01 5.980818271636962891e+00 -8.799372315406799316e-01
3.977000000000000000e+03 1.211044120788574219e+01 -2.002859264612197876e-01 8.981762886047363281e+00 1.242412185668945312e+01 6.421765327453613281e+00 -9.425345063209533691e-01
3.978000000000000000e+03 1.220245742797851562e+01 -3.467418253421783447e-02 8.720988273620605469e+00 1.199442863464355469e+01 6.214624881744384766e+00 -4.210528433322906494e-01
3.979000000000000000e+03 3.928430938720703125e+01 -1.981649589538574219e+01 1.874588966369628906e+00 9.742096900939941406e+00 3.485005617141723633e+00 -1.206731557846069336e+00
3.980000000000000000e+03 3.082559585571289062e+01 -4.724072456359863281e+00 8.219965100288391113e-01 3.017260551452636719e+00 1.151777148246765137e+00 -9.431871175765991211e-01
3.981000000000000000e+03 9.177274703979492188e+00 2.539201974868774414e+00 1.183374166488647461e+00 9.106515884399414062e+00 3.086966991424560547e+00 -4.640013217926025391e+00
3.982000000000000000e+03 8.714665412902832031e+00 2.938328266143798828e+00 1.175596714019775391e+00 7.264372825622558594e+00 2.531990766525268555e+00 -4.157297611236572266e+00
3.983000000000000000e+03 5.504075527191162109e+00 -2.038013935089111328e+00 6.612840294837951660e-01 5.497539639472961426e-01 3.633114099502563477e-01 3.822165131568908691e-01
3.984000000000000000e+03 5.924642086029052734e+00 -3.065143585205078125e+00 1.196594119071960449e+00 1.418603777885437012e+00 7.845593690872192383e-01 1.150141119956970215e+00
3.985000000000000000e+03 8.044189453125000000e+00 -3.500313043594360352e+00 1.206569671630859375e+00 5.231772422790527344e+00 1.931502699851989746e+00 3.265006303787231445e+00
3.986000000000000000e+03 1.299394702911376953e+01 1.511883497238159180e+00 4.323413848876953125e+00 1.064159297943115234e+01 4.489501953125000000e+00 1.484360575675964355e+00
3.987000000000000000e+03 1.340100765228271484e+01 1.625979781150817871e+00 4.008445739746093750e+00 9.603382110595703125e+00 4.083548545837402344e+00 1.260548114776611328e+00
3.988000000000000000e+03 4.954207992553710938e+01 -1.211595821380615234e+01 9.889822602272033691e-01 1.418397665023803711e+00 7.222139835357666016e-01 2.163289070129394531e+00
3.989000000000000000e+03 8.339821815490722656e+00 3.225818395614624023e+00 1.023837804794311523e+00 6.158970832824707031e+00 2.154842615127563477e+00 -3.571280956268310547e+00
3.990000000000000000e+03 7.925156593322753906e+00 2.991414785385131836e+00 1.547772407531738281e+00 4.541912555694580078e+00 1.826905608177185059e+00 -3.289571762084960938e+00
3.991000000000000000e+03 7.788703918457031250e+00 3.483449220657348633e+00 1.130505800247192383e+00 4.741781234741210938e+00 1.761686086654663086e+00 -2.988702297210693359e+00
3.992000000000000000e+03 3.995685195922851562e+01 -9.973476409912109375e+00 -2.461488991975784302e-01 7.633700370788574219e+00 2.216265439987182617e+00 -1.325057387351989746e+00
3.993000000000000000e+03 1.186343955993652344e+01 2.894247531890869141e+00 2.763372957706451416e-01 1.306137371063232422e+01 4.001313209533691406e+00 3.777469992637634277e-01
3.994000000000000000e+03 1.218104553222656250e+01 2.602575778961181641e+00 1.122725129127502441e+00 1.269157886505126953e+01 4.144291400909423828e+00 9.802559614181518555e-01
3.995000000000000000e+03 1.079955959320068359e+01 3.107516288757324219e+00 -5.954312086105346680e-01 1.338270664215087891e+01 3.836182594299316406e+00 -1.567900180816650391e+00
3.996000000000000000e+03 7.249958038330078125e+01 -1.929587173461914062e+01 1.810091018676757812e+00 1.036662387847900391e+01 3.653014421463012695e+00 -4.422910809516906738e-01
3.997000000000000000e+03 7.329840850830078125e+01 -1.989192390441894531e+01 1.475085616111755371e+00 9.684921264648437500e+00 3.348001956939697266e+00 -5.689164996147155762e-01
3.998000000000000000e+03 2.715637016296386719e+01 2.641524314880371094e+01 -6.983955502510070801e-01 2.012362003326416016e+00 3.941899240016937256e-01 -1.153001308441162109e+00
3.999000000000000000e+03 1.368972206115722656e+01 -2.382445633411407471e-01 5.841349601745605469e+00 8.359647750854492188e+00 4.260299205780029297e+00 -7.244106531143188477e-01
4.000000000000000000e+03 1.817181396484375000e+01 -8.250201225280761719e+00 -1.648273169994354248e-01 2.616329669952392578e+00 7.354507446289062500e-01 3.982681035995483398e-01
4.001000000000000000e+03 1.274062061309814453e+01 3.041608810424804688e+01 -8.863816261291503906e-01 4.796058177947998047e+00 1.172903060913085938e+00 2.383167892694473267e-01
4.002000000000000000e+03 1.409801197052001953e+01 8.137351989746093750e+00 -1.928757548332214355e+00 8.914052963256835938e+00 2.095588684082031250e+00 -2.512941658496856689e-01
4.003000000000000000e+03 4.906561374664306641e+00 2.459699153900146484e+00 5.295652151107788086e-01 4.731723070144653320e-01 3.008212447166442871e-01 -1.516596674919128418e-01
4.004000000000000000e+03 1.537983226776123047e+01 3.085927009582519531e+01 -6.381292343139648438e-01 3.894111394882202148e+00 9.767946004867553711e-01 6.385464072227478027e-01
4.005000000000000000e+03 1.757321739196777344e+01 -8.395051956176757812e+00 -5.868252515792846680e-01 3.773730039596557617e+00 9.560714364051818848e-01 6.124808788299560547e-01
4.006000000000000000e+03 8.560342788696289062e+00 3.095770120620727539e+00 1.005108952522277832e+00 6.636123180389404297e+00 2.292369604110717773e+00 -3.781615734100341797e+00
4.007000000000000000e+03 5.399558067321777344e+00 2.449055433273315430e+00 7.314449548721313477e-01 7.089833021163940430e-01 4.321284592151641846e-01 -4.061264693737030029e-01
4.008000000000000000e+03 5.163674831390380859e+00 2.415741443634033203e+00 5.930346250534057617e-01 5.334810018539428711e-01 3.379546701908111572e-01 -2.244640886783599854e-01
4.009000000000000000e+03 1.229585361480712891e+01 2.281463146209716797e+00 2.006078481674194336e+00 1.275140666961669922e+01 4.427245616912841797e+00 1.358281731605529785e+00
4.010000000000000000e+03 7.077774047851562500e+00 3.458366155624389648e+00 1.226628184318542480e+00 3.271223783493041992e+00 1.349355578422546387e+00 -2.245390892028808594e+00
4.011000000000000000e+03 3.791872787475585938e+01 9.252672195434570312e+00 1.775496602058410645e+00 1.266824340820312500e+01 4.333121776580810547e+00 1.276233434677124023e+00
4.012000000000000000e+03 1.231547355651855469e+01 -3.714055716991424561e-01 8.132697105407714844e+00 1.166652774810791016e+01 5.939767360687255859e+00 -1.269223213195800781e+00
4.013000000000000000e+03 1.253158187866210938e+01 -1.575427651405334473e-01 7.705066204071044922e+00 1.096192550659179688e+01 5.600097179412841797e+00 -6.968106627464294434e-01
4.014000000000000000e+03 1.252110290527343750e+01 -3.841796219348907471e-01 7.563828468322753906e+00 1.102609825134277344e+01 5.576978206634521484e+00 -1.176143646240234375e+00
4.015000000000000000e+03 1.063693237304687500e+01 -3.273173570632934570e+00 -3.111568093299865723e-01 1.238016319274902344e+01 3.620701789855957031e+00 1.738791465759277344e+00
4.016000000000000000e+03 9.973369598388671875e+00 -2.589842796325683594e+00 4.309439659118652344e-01 1.240333652496337891e+01 3.850284337997436523e+00 3.511095762252807617e+00
4.017000000000000000e+03 4.606705474853515625e+01 -9.345548629760742188e+00 2.324637025594711304e-01 2.164252996444702148e+00 7.190150022506713867e-01 9.069762229919433594e-01
4.018000000000000000e+03 9.990870475769042969e+00 -2.883357048034667969e+00 1.693909317255020142e-01 1.186858177185058594e+01 3.611391782760620117e+00 3.277271986007690430e+00
4.019000000000000000e+03 1.032818889617919922e+01 -3.234772205352783203e+00 -2.228962630033493042e-01 1.199694061279296875e+01 3.532213211059570312e+00 2.358938217163085938e+00
4.020000000000000000e+03 1.281061267852783203e+01 2.491230010986328125e+00 1.796709656715393066e+00 1.121406078338623047e+01 3.903231143951416016e+00 1.234855175018310547e+00
4.021000000000000000e+03 3.970279693603515625e+01 -1.226812362670898438e+01 8.614627718925476074e-01 8.129070281982421875e+00 2.697159767150878906e+00 -1.393049240112304688e+00
4.022000000000000000e+03 7.345785522460937500e+01 -2.147463417053222656e+01 1.028103590011596680e+00 9.368019104003906250e+00 3.118836641311645508e+00 -9.884699583053588867e-01
4.023000000000000000e+03 1.761457824707031250e+01 -7.806789875030517578e+00 -1.731886714696884155e-01 3.717815876007080078e+00 1.063388109207153320e+00 2.830993533134460449e-01
4.024000000000000000e+03 1.238252544403076172e+01 -5.402672290802001953e-01 7.600903511047363281e+00 1.151113033294677734e+01 5.733610153198242188e+00 -1.589075088500976562e+00
4.025000000000000000e+03 1.279131317138671875e+01 -4.886769056320190430e-01 6.846160888671875000e+00 1.028727054595947266e+01 5.140029430389404297e+00 -1.288401246070861816e+00
4.026000000000000000e+03 1.367859649658203125e+01 2.134109258651733398e+00 2.873863935470581055e+00 9.118820190429687500e+00 3.597805261611938477e+00 1.137110471725463867e+00
4.027000000000000000e+03 1.331219387054443359e+01 1.958831548690795898e+00 3.225724220275878906e+00 1.007066249847412109e+01 3.988915920257568359e+00 1.350142478942871094e+00
4.028000000000000000e+03 1.065841484069824219e+01 3.701060533523559570e+00 -9.476713538169860840e-01 1.206833553314208984e+01 3.336199283599853516e+00 -1.834204077720642090e+00
4.029000000000000000e+03 7.456767082214355469e+00 -3.266517639160156250e+00 1.534088373184204102e+00 3.597319364547729492e+00 1.539422392845153809e+00 2.731957435607910156e+00
4.030000000000000000e+03 6.836723327636718750e+01 2.360276794433593750e+01 -4.841668307781219482e-01 7.147468090057373047e+00 1.998990416526794434e+00 3.906684219837188721e-01
4.031000000000000000e+03 6.748688507080078125e+01 7.391314506530761719e+00 8.527361154556274414e-01 7.326562404632568359e+00 2.453789472579956055e+00 -1.004895940423011780e-01
4.032000000000000000e+03 5.248920440673828125e+01 2.632823371887207031e+01 -1.822619736194610596e-01 1.126995325088500977e+00 2.834199965000152588e-01 6.334338784217834473e-01
4.033000000000000000e+03 9.517057418823242188e+00 -3.489672899246215820e+00 1.283062547445297241e-01 9.640610694885253906e+00 2.930675029754638672e+00 3.413576364517211914e+00
4.034000000000000000e+03 9.726083755493164062e+00 -3.213634252548217773e+00 1.500717252492904663e-01 1.045349884033203125e+01 3.181071281433105469e+00 3.393466472625732422e+00
4.035000000000000000e+03 5.616883087158203125e+01 -9.950234413146972656e+00 -5.545030832290649414e-01 1.203262567520141602e+00 1.946278512477874756e-01 1.410061597824096680e+00
4.036000000000000000e+03 4.095270919799804688e+01 -3.034431648254394531e+01 -4.216241836547851562e-01 7.353422641754150391e+00 2.079539537429809570e+00 -3.102813288569450378e-02
4.037000000000000000e+03 6.542909240722656250e+01 2.950412034988403320e+00 6.876285076141357422e-01 6.375816822052001953e+00 2.119033575057983398e+00 1.438301801681518555e-02
4.038000000000000000e+03 8.997250556945800781e+00 -4.135579109191894531e+00 1.005822792649269104e-01 7.867141246795654297e+00 2.390317201614379883e+00 3.146145343780517578e+00
4.039000000000000000e+03 1.064666748046875000e+01 -3.670619487762451172e+00 -5.569795370101928711e-01 1.159730815887451172e+01 3.312098741531372070e+00 1.707256317138671875e+00
4.040000000000000000e+03 3.597410202026367188e+00 -3.843662023544311523e+00 5.013516545295715332e-01 6.279897689819335938e-01 3.388024270534515381e-01 1.791057288646697998e-01
4.041000000000000000e+03 3.891053199768066406e+00 -3.559528112411499023e+00 5.815123319625854492e-01 6.499705314636230469e-01 3.694448471069335938e-01 2.274289578199386597e-01
4.042000000000000000e+03 1.260564804077148438e+01 -3.536578893661499023e+00 5.960112214088439941e-01 1.075844287872314453e+01 3.406336307525634766e+00 -1.015436887741088867e+00
4.043000000000000000e+03 6.740116119384765625e+00 -3.299132108688354492e+00 1.431550264358520508e+00 2.518756389617919922e+00 1.185091972351074219e+00 2.004903793334960938e+00
4.044000000000000000e+03 5.409037590026855469e+00 3.582901477813720703e+00 8.855773806571960449e-01 1.391826033592224121e+00 6.832210421562194824e-01 -7.911150455474853516e-01
4.045000000000000000e+03 7.604279518127441406e+00 4.035515308380126953e+00 8.020770549774169922e-01 4.802149772644042969e+00 1.681268095970153809e+00 -2.639751434326171875e+00
4.046000000000000000e+03 7.120282649993896484e+00 3.981069326400756836e+00 9.213300347328186035e-01 3.918074607849121094e+00 1.451821327209472656e+00 -2.269924163818359375e+00
4.047000000000000000e+03 5.602695941925048828e+00 -3.876811265945434570e+00 9.933717250823974609e-01 1.805233836174011230e+00 8.395816683769226074e-01 1.192102074623107910e+00
4.048000000000000000e+03 5.921849250793457031e+00 -3.667849540710449219e+00 1.108119249343872070e+00 1.917739868164062500e+00 9.077577590942382812e-01 1.363982796669006348e+00
4.049000000000000000e+03 1.319655132293701172e+01 -9.405194520950317383e-01 5.708498954772949219e+00 9.561945915222167969e+00 4.581133365631103516e+00 -1.677437424659729004e+00
4.050000000000000000e+03 1.566654777526855469e+01 2.820487785339355469e+01 -9.171568751335144043e-01 4.142465114593505859e+00 9.675924181938171387e-01 1.024662494659423828e+00
4.051000000000000000e+03 6.973400878906250000e+01 2.397777366638183594e+01 -4.174161553382873535e-01 7.154631137847900391e+00 2.021164417266845703e+00 4.945057332515716553e-01
4.052000000000000000e+03 1.665943717956542969e+01 -7.193522930145263672e+00 -2.168197780847549438e-01 4.749173641204833984e+00 1.359706163406372070e+00 1.444228440523147583e-01
4.053000000000000000e+03 7.358604907989501953e+00 -3.564732074737548828e+00 1.319758653640747070e+00 3.744042634963989258e+00 1.519140362739562988e+00 2.627134799957275391e+00
4.054000000000000000e+03 1.343900394439697266e+01 -2.774516105651855469e+00 2.264808893203735352e+00 9.557159423828125000e+00 3.546590566635131836e+00 -1.801802992820739746e+00
4.055000000000000000e+03 8.256811141967773438e+00 -2.857064247131347656e+01 -5.901727676391601562e-01 5.428565025329589844e+00 1.451517581939697266e+00 1.182705760002136230e+00
4.056000000000000000e+03 3.702448654174804688e+01 1.785747718811035156e+01 -3.850408643484115601e-02 6.745009899139404297e+00 2.011951684951782227e+00 1.386702954769134521e-01
4.057000000000000000e+03 7.508313751220703125e+01 -2.084037971496582031e+01 7.195350527763366699e-01 8.492341995239257812e+00 2.763563156127929688e+00 -8.595254421234130859e-01
4.058000000000000000e+03 6.860526561737060547e+00 -3.880479812622070312e+00 1.139450669288635254e+00 3.213256597518920898e+00 1.305812120437622070e+00 2.167227268218994141e+00
4.059000000000000000e+03 1.140339469909667969e+01 3.538429975509643555e+00 -7.575241327285766602e-01 1.261680984497070312e+01 3.557785511016845703e+00 -5.943124294281005859e-01
4.060000000000000000e+03 1.114599800109863281e+01 4.417612552642822266e+00 -1.390486598014831543e+00 1.143215656280517578e+01 3.012501001358032227e+00 -1.114540815353393555e+00
4.061000000000000000e+03 1.431416893005371094e+01 -7.880314588546752930e-01 4.884034156799316406e+00 7.270387649536132812e+00 3.646326541900634766e+00 -1.170332551002502441e+00
4.062000000000000000e+03 1.348584938049316406e+01 2.490833520889282227e+00 2.069020509719848633e+00 9.856019973754882812e+00 3.577512025833129883e+00 1.168569922447204590e+00
4.063000000000000000e+03 1.385475349426269531e+01 2.727312088012695312e+00 1.761900901794433594e+00 9.103743553161621094e+00 3.259693384170532227e+00 1.012565851211547852e+00
4.064000000000000000e+03 1.442026042938232422e+01 1.294241547584533691e+00 4.007698059082031250e+00 7.498814582824707031e+00 3.451953649520874023e+00 6.103882193565368652e-01
4.065000000000000000e+03 7.069974422454833984e+00 -1.393367767333984375e+01 1.324945595115423203e-02 5.212219715118408203e+00 1.567640781402587891e+00 8.575285971164703369e-02
4.066000000000000000e+03 9.536116600036621094e+00 -4.025625228881835938e+00 -2.564379572868347168e-01 9.225852966308593750e+00 2.690824508666992188e+00 2.889033317565917969e+00
4.067000000000000000e+03 9.352677345275878906e+00 -3.595064163208007812e+00 2.077695727348327637e-01 9.053545951843261719e+00 2.778394699096679688e+00 3.327273607254028320e+00
4.068000000000000000e+03 1.031468963623046875e+01 -4.098703861236572266e+00 -6.556866168975830078e-01 1.058934879302978516e+01 2.980098724365234375e+00 2.075501918792724609e+00
4.069000000000000000e+03 6.497502326965332031e+00 -1.025649166107177734e+01 -5.781942605972290039e-01 4.769258499145507812e+00 1.257319331169128418e+00 5.695192813873291016e-01
4.070000000000000000e+03 1.495971870422363281e+01 5.427790433168411255e-02 4.535038471221923828e+00 6.250220298767089844e+00 3.235577583312988281e+00 -4.829796552658081055e-01
4.071000000000000000e+03 1.176131439208984375e+01 2.512872505187988281e+01 -1.205440878868103027e+00 6.434478282928466797e+00 1.568711280822753906e+00 -1.966387033462524414e-01
4.072000000000000000e+03 7.479184722900390625e+01 -2.183085632324218750e+01 6.099593043327331543e-01 8.734317779541015625e+00 2.803282976150512695e+00 -1.089556932449340820e+00
4.073000000000000000e+03 4.267658710479736328e+00 -5.805387020111083984e+00 3.312653601169586182e-01 1.717453598976135254e+00 6.146156787872314453e-01 6.983300447463989258e-01
4.074000000000000000e+03 1.600449180603027344e+01 2.555209398269653320e+00 2.054138660430908203e+00 5.389787197113037109e+00 2.233177900314331055e+00 3.384420573711395264e-01
4.075000000000000000e+03 1.370524883270263672e+01 -1.238340854644775391e+00 4.859077453613281250e+00 8.605096817016601562e+00 4.039252281188964844e+00 -1.680342912673950195e+00
4.076000000000000000e+03 7.113125324249267578e+00 4.473384380340576172e+00 6.755917668342590332e-01 4.238371372222900391e+00 1.474188923835754395e+00 -2.171627044677734375e+00
4.077000000000000000e+03 5.937001705169677734e+00 -6.891320228576660156e+00 6.392424693331122398e-04 3.645934820175170898e+00 1.093972206115722656e+00 1.286611676216125488e+00
4.078000000000000000e+03 4.653797149658203125e+00 1.060447120666503906e+01 -8.027657866477966309e-02 2.959998846054077148e+00 8.639166951179504395e-01 -4.210808575153350830e-01
4.079000000000000000e+03 9.687848091125488281e+00 -4.792171955108642578e+00 -6.840194463729858398e-01 8.935354232788085938e+00 2.475400447845458984e+00 2.363066673278808594e+00
4.080000000000000000e+03 6.565274238586425781e+00 -9.678865432739257812e+00 -6.192199587821960449e-01 4.806576728820800781e+00 1.256207108497619629e+00 7.125470638275146484e-01
4.081000000000000000e+03 7.218986988067626953e+00 -1.023756217956542969e+01 -7.710481882095336914e-01 5.535612583160400391e+00 1.429369211196899414e+00 6.533309221267700195e-01
4.082000000000000000e+03 6.975915527343750000e+01 1.036959934234619141e+01 8.128509521484375000e-01 7.311406612396240234e+00 2.437277317047119141e+00 -1.288665682077407837e-01
4.083000000000000000e+03 1.105365657806396484e+01 -4.387289047241210938e+00 -8.720016479492187500e-01 1.078694534301757812e+01 2.974483251571655273e+00 1.121912956237792969e+00
4.084000000000000000e+03 6.728900146484375000e+01 4.267138004302978516e+00 6.412676572799682617e-01 6.777050018310546875e+00 2.225495338439941406e+00 -3.057809770107269287e-01
4.085000000000000000e+03 1.429787826538085938e+01 2.650750398635864258e+00 2.002067565917968750e+00 8.231259346008300781e+00 3.069998025894165039e+00 9.547870159149169922e-01
4.086000000000000000e+03 7.630142688751220703e+00 -5.069548130035400391e+00 2.736261785030364990e-01 5.192567825317382812e+00 1.639858245849609375e+00 2.377434015274047852e+00
4.087000000000000000e+03 6.734869956970214844e+00 -4.296097755432128906e+00 9.258168339729309082e-01 3.381527662277221680e+00 1.292203307151794434e+00 2.068813562393188477e+00
4.088000000000000000e+03 1.354117393493652344e+01 -3.506340265274047852e+00 1.252167701721191406e+00 9.293834686279296875e+00 3.163800716400146484e+00 -1.409890413284301758e+00
4.089000000000000000e+03 1.412274646759033203e+01 -3.459921121597290039e+00 1.639729380607604980e+00 8.337245941162109375e+00 2.993092536926269531e+00 -1.559235453605651855e+00
4.090000000000000000e+03 1.572210311889648438e+01 -6.971454143524169922e+00 -5.683370828628540039e-01 6.102361202239990234e+00 1.660207271575927734e+00 7.739986479282379150e-02
4.091000000000000000e+03 1.238247013092041016e+01 7.430179119110107422e+00 -2.004590511322021484e+00 9.775804519653320312e+00 2.331364154815673828e+00 -2.909973561763763428e-01
4.092000000000000000e+03 8.923299789428710938e+00 -5.314970016479492188e+00 -4.684943854808807373e-01 7.403923034667968750e+00 2.080628633499145508e+00 2.448879957199096680e+00
4.093000000000000000e+03 1.533251094818115234e+01 -3.245824277400970459e-01 4.309429645538330078e+00 5.719907760620117188e+00 3.008801221847534180e+00 -7.107042670249938965e-01
4.094000000000000000e+03 3.678491210937500000e+01 2.225921630859375000e+01 -8.633681535720825195e-01 5.534741878509521484e+00 1.401412129402160645e+00 2.958502769470214844e-01
4.095000000000000000e+03 1.247128582000732422e+01 6.808925151824951172e+00 -2.002159357070922852e+00 9.899363517761230469e+00 2.369161128997802734e+00 -3.069153130054473877e-01
4.096000000000000000e+03 9.585948944091796875e+00 5.336258888244628906e+00 -1.115021824836730957e+00 8.988843917846679688e+00 2.362146615982055664e+00 -2.047029972076416016e+00
4.097000000000000000e+03 7.118606090545654297e+00 -4.663792133331298828e+00 6.855233311653137207e-01 4.168397426605224609e+00 1.456176280975341797e+00 2.279343366622924805e+00
4.098000000000000000e+03 7.324378204345703125e+01 2.697730445861816406e+01 -2.779937088489532471e-01 7.139134883880615234e+00 2.058342456817626953e+00 3.813181817531585693e-01
4.099000000000000000e+03 1.434710979461669922e+01 3.445846319198608398e+00 8.183494210243225098e-01 8.335550308227539062e+00 2.746169805526733398e+00 7.547389268875122070e-01
4.100000000000000000e+03 1.409176063537597656e+01 -1.192371249198913574e+00 4.729228496551513672e+00 7.819262981414794922e+00 3.764547348022460938e+00 -1.513554453849792480e+00
4.101000000000000000e+03 1.122440814971923828e+01 5.037768840789794922e+00 -1.633606195449829102e+00 1.082950019836425781e+01 2.758768320083618164e+00 -1.061110258102416992e+00
4.102000000000000000e+03 7.134117126464843750e+00 4.906710147857666016e+00 4.051922559738159180e-01 4.528508186340332031e+00 1.480110049247741699e+00 -2.026459932327270508e+00
4.103000000000000000e+03 1.119985294342041016e+01 -4.706964969635009766e+00 -1.004892826080322266e+00 1.052005767822265625e+01 2.854549407958984375e+00 9.893831610679626465e-01
4.104000000000000000e+03 7.040053367614746094e+00 5.196625232696533203e+00 3.285741806030273438e-01 4.536598682403564453e+00 1.459551811218261719e+00 -1.871443986892700195e+00
4.105000000000000000e+03 6.292665004730224609e+00 5.271701812744140625e+00 4.237153232097625732e-01 3.616714715957641602e+00 1.212128996849060059e+00 -1.471957325935363770e+00
4.106000000000000000e+03 1.232250690460205078e+01 5.864778518676757812e+00 -1.863538146018981934e+00 1.028023338317871094e+01 2.525008440017700195e+00 -3.115844726562500000e-01
4.107000000000000000e+03 1.787986946105957031e+01 -1.387874841690063477e+00 3.277982234954833984e+00 2.666692018508911133e+00 1.783402204513549805e+00 -8.005809187889099121e-01
4.108000000000000000e+03 7.141956329345703125e+00 -9.629085540771484375e+00 -7.621198892593383789e-01 5.352711677551269531e+00 1.377177596092224121e+00 7.895026803016662598e-01
4.109000000000000000e+03 1.268797588348388672e+01 -4.438772201538085938e+00 -2.691373825073242188e-01 1.008069229125976562e+01 2.943466424942016602e+00 -4.908495545387268066e-01
4.110000000000000000e+03 7.355370330810546875e+01 1.869934463500976562e+01 2.066295146942138672e-01 7.002106666564941406e+00 2.162620782852172852e+00 5.758495330810546875e-01
4.111000000000000000e+03 7.308385467529296875e+01 1.784962081909179688e+01 3.012836277484893799e-01 7.004160404205322266e+00 2.191633224487304688e+00 5.390619635581970215e-01
4.112000000000000000e+03 8.699687957763671875e+00 -5.511311054229736328e+00 -4.587554335594177246e-01 7.140372753143310547e+00 2.004485130310058594e+00 2.370916128158569336e+00
4.113000000000000000e+03 1.381561660766601562e+01 -3.278836011886596680e+00 1.712992668151855469e+00 8.927618026733398438e+00 3.192183256149291992e+00 -1.568882107734680176e+00
4.114000000000000000e+03 1.414110183715820312e+01 -3.102280378341674805e+00 2.070784091949462891e+00 8.359117507934570312e+00 3.128970623016357422e+00 -1.696301817893981934e+00
4.115000000000000000e+03 1.206033134460449219e+01 -4.896596908569335938e+00 -8.861163854598999023e-01 1.021371650695800781e+01 2.798280000686645508e+00 1.834937483072280884e-01
4.116000000000000000e+03 1.166556549072265625e+01 -4.977513790130615234e+00 -1.051614284515380859e+00 1.025815677642822266e+01 2.761962652206420898e+00 5.473803877830505371e-01
4.117000000000000000e+03 6.973091888427734375e+01 -1.528492450714111328e+00 -1.426211446523666382e-01 6.550239086151123047e+00 1.922285437583923340e+00 -9.997522234916687012e-01
4.118000000000000000e+03 8.851595878601074219e+00 -5.807708263397216797e+00 -6.637197136878967285e-01 7.328861713409423828e+00 1.999542593955993652e+00 2.190005064010620117e+00
4.119000000000000000e+03 7.877918243408203125e+00 -7.568794250488281250e+00 -7.697623968124389648e-01 6.052700519561767578e+00 1.584881424903869629e+00 1.490462422370910645e+00
4.120000000000000000e+03 8.421034812927246094e+00 -8.861567497253417969e+00 -1.124862432479858398e+00 6.610868453979492188e+00 1.645801782608032227e+00 9.835746288299560547e-01
4.121000000000000000e+03 1.171355628967285156e+01 5.312112331390380859e+00 -1.716381311416625977e+00 1.082040405273437500e+01 2.731206893920898438e+00 -6.460478305816650391e-01
4.122000000000000000e+03 1.250580596923828125e+01 6.277392864227294922e+00 -1.899247288703918457e+00 1.004427814483642578e+01 2.443509340286254883e+00 -2.671525180339813232e-01
4.123000000000000000e+03 1.204197597503662109e+01 6.218754768371582031e+00 -1.935899496078491211e+00 1.016735553741455078e+01 2.469436883926391602e+00 -4.951039552688598633e-01
4.124000000000000000e+03 7.205487823486328125e+01 9.685688972473144531e+00 5.350662469863891602e-01 6.979294300079345703e+00 2.254308223724365234e+00 -2.302319258451461792e-01
4.125000000000000000e+03 1.137350177764892578e+01 -5.366181373596191406e+00 -1.239234924316406250e+00 9.948906898498535156e+00 2.612901449203491211e+00 8.454374074935913086e-01
4.126000000000000000e+03 1.172096920013427734e+01 -5.390960693359375000e+00 -1.214238643646240234e+00 9.962059974670410156e+00 2.624346494674682617e+00 6.095527410507202148e-01
4.127000000000000000e+03 1.129137420654296875e+01 -5.651177883148193359e+00 -1.341350317001342773e+00 9.741814613342285156e+00 2.520139455795288086e+00 9.398819208145141602e-01
4.128000000000000000e+03 7.007997131347656250e+01 -1.009980142116546631e-01 2.009031549096107483e-02 6.687986373901367188e+00 2.012423038482666016e+00 -9.153103828430175781e-01
4.129000000000000000e+03 1.197290229797363281e+01 5.593913078308105469e+00 -1.781803488731384277e+00 1.051822757720947266e+01 2.620927333831787109e+00 -4.848766028881072998e-01
4.130000000000000000e+03 1.425682258605957031e+01 -4.020497798919677734e+00 9.818831682205200195e-01 8.028317451477050781e+00 2.703060150146484375e+00 -1.208937406539916992e+00
4.131000000000000000e+03 7.561094760894775391e+00 -5.442431926727294922e+00 8.873952180147171021e-02 5.213161468505859375e+00 1.590570330619812012e+00 2.188922882080078125e+00
4.132000000000000000e+03 7.829482078552246094e+00 -5.566876888275146484e+00 -5.966048687696456909e-02 5.650839328765869141e+00 1.677353620529174805e+00 2.264922857284545898e+00
4.133000000000000000e+03 7.505332469940185547e+00 -6.169913291931152344e+00 -2.337931990623474121e-01 5.435523033142089844e+00 1.560518860816955566e+00 1.901773214340209961e+00
4.134000000000000000e+03 8.040800094604492188e+00 -6.463296890258789062e+00 -5.434053540229797363e-01 6.149341106414794922e+00 1.681780695915222168e+00 1.897578358650207520e+00
4.135000000000000000e+03 8.868814468383789062e+00 -8.210806846618652344e+00 -1.229878664016723633e+00 7.054584980010986328e+00 1.747411966323852539e+00 1.209558248519897461e+00
4.136000000000000000e+03 7.867262840270996094e+00 9.482715606689453125e+00 -4.928237497806549072e-01 6.231491565704345703e+00 1.721600294113159180e+00 -5.827454328536987305e-01
4.137000000000000000e+03 1.078925991058349609e+01 -5.537900924682617188e+00 -1.290143847465515137e+00 9.575516700744628906e+00 2.485611915588378906e+00 1.320646643638610840e+00
4.138000000000000000e+03 1.109449958801269531e+01 -5.416018962860107422e+00 -1.282644271850585938e+00 9.872915267944335938e+00 2.577081203460693359e+00 1.069184899330139160e+00
4.139000000000000000e+03 1.102273654937744141e+01 -5.111593723297119141e+00 -1.172532916069030762e+00 1.000588512420654297e+01 2.650005578994750977e+00 1.140379428863525391e+00
4.140000000000000000e+03 8.855154037475585938e+00 6.789200305938720703e+00 -9.854539632797241211e-01 7.563101768493652344e+00 1.973294377326965332e+00 -1.421307325363159180e+00
4.141000000000000000e+03 7.572632789611816406e+00 -6.518822669982910156e+00 -3.918308615684509277e-01 5.558696269989013672e+00 1.550059676170349121e+00 1.754878520965576172e+00
4.142000000000000000e+03 7.817106246948242188e+00 -6.051891326904296875e+00 -2.680616676807403564e-01 5.725739955902099609e+00 1.637303590774536133e+00 2.067350149154663086e+00
4.143000000000000000e+03 7.692329406738281250e+00 7.298604965209960938e+00 -5.596356987953186035e-01 6.116994380950927734e+00 1.667207717895507812e+00 -1.215167284011840820e+00
4.144000000000000000e+03 1.448373985290527344e+01 -4.398922920227050781e+00 7.118320465087890625e-01 7.770813941955566406e+00 2.544793844223022461e+00 -1.046591997146606445e+00
4.145000000000000000e+03 7.185227203369140625e+01 9.235643744468688965e-01 3.288136795163154602e-02 6.906209945678710938e+00 2.081727266311645508e+00 -8.594896197319030762e-01
4.146000000000000000e+03 6.934131622314453125e+01 -5.820032954216003418e-01 4.624177515506744385e-02 6.444567680358886719e+00 1.947242856025695801e+00 -9.164654612541198730e-01
4.147000000000000000e+03 6.993950366973876953e+00 5.930910110473632812e+00 3.492870554327964783e-02 4.795368194580078125e+00 1.449089050292968750e+00 -1.608397960662841797e+00
4.148000000000000000e+03 7.265039825439453125e+01 -2.875496387481689453e+00 -3.981976211071014404e-01 7.257317543029785156e+00 2.057735919952392578e+00 -8.383136987686157227e-01
4.149000000000000000e+03 6.486354827880859375e+00 5.870947360992431641e+00 2.140007466077804565e-01 4.082141399383544922e+00 1.288842558860778809e+00 -1.470878601074218750e+00
4.150000000000000000e+03 9.900979042053222656e+00 -9.946446865797042847e-03 3.185454559326171875e+01 5.810814857482910156e+00 1.129960823059082031e+01 1.126162910461425781e+01
4.151000000000000000e+03 9.904818534851074219e+00 -2.906142920255661011e-02 2.935297584533691406e+01 1.720608329772949219e+01 1.396771717071533203e+01 2.177374649047851562e+01
4.152000000000000000e+03 9.912311553955078125e+00 -4.706101492047309875e-02 2.717794227600097656e+01 2.841567802429199219e+01 1.667808532714843750e+01 2.542626380920410156e+01
4.153000000000000000e+03 9.923169136047363281e+00 -6.325436383485794067e-02 2.356345176696777344e+01 4.009682464599609375e+01 1.909808349609375000e+01 2.650035095214843750e+01
4.154000000000000000e+03 9.936976432800292969e+00 -7.701997458934783936e-02 2.030803108215332031e+01 5.068236160278320312e+01 2.129711723327636719e+01 2.476799774169921875e+01
4.155000000000000000e+03 9.953202247619628906e+00 -8.782950043678283691e-02 1.730766296386718750e+01 5.983830642700195312e+01 2.314379119873046875e+01 2.065682792663574219e+01
4.156000000000000000e+03 9.971223831176757812e+00 -9.526807069778442383e-02 1.572623634338378906e+01 6.649633026123046875e+01 2.466677093505859375e+01 1.481892585754394531e+01
4.157000000000000000e+03 9.990350723266601562e+00 -9.905018657445907593e-02 1.571344852447509766e+01 7.020254516601562500e+01 2.577479743957519531e+01 7.974463939666748047e+00
4.158000000000000000e+03 1.000984764099121094e+01 -9.903068840503692627e-02 1.774737548828125000e+01 7.089969635009765625e+01 2.659412193298339844e+01 1.221297621726989746e+00
4.159000000000000000e+03 1.002896595001220703e+01 -9.521032124757766724e-02 2.138795280456542969e+01 6.883601379394531250e+01 2.706719017028808594e+01 -4.612005233764648438e+00
4.160000000000000000e+03 1.004697322845458984e+01 -8.773572742938995361e-02 2.621126747131347656e+01 6.482067871093750000e+01 2.730958366394042969e+01 -8.721977233886718750e+00
4.161000000000000000e+03 1.006317710876464844e+01 -7.689376920461654663e-02 3.153918075561523438e+01 5.971866989135742188e+01 2.737735557556152344e+01 -1.079558372497558594e+01
4.162000000000000000e+03 1.007695674896240234e+01 -6.310057640075683594e-02 3.650889968872070312e+01 5.445598983764648438e+01 2.728946685791015625e+01 -1.083528518676757812e+01
4.163000000000000000e+03 1.008778285980224609e+01 -4.688554257154464722e-02 4.077943420410156250e+01 4.994065093994140625e+01 2.721602630615234375e+01 -9.058709144592285156e+00
4.164000000000000000e+03 1.009523963928222656e+01 -2.887100912630558014e-02 4.368048095703125000e+01 4.653212738037109375e+01 2.706378364562988281e+01 -6.042203426361083984e+00
4.165000000000000000e+03 1.009904003143310547e+01 -9.748386219143867493e-03 4.526894760131835938e+01 4.488855743408203125e+01 2.704725265502929688e+01 -2.167032480239868164e+00
4.166000000000000000e+03 1.009904003143310547e+01 9.748386219143867493e-03 4.523174285888671875e+01 4.480010223388671875e+01 2.700955390930175781e+01 1.913883328437805176e+00
4.167000000000000000e+03 1.009523963928222656e+01 2.887100912630558014e-02 4.372292327880859375e+01 4.660388565063476562e+01 2.709804344177246094e+01 5.763544082641601562e+00
4.168000000000000000e+03 1.008778285980224609e+01 4.688554257154464722e-02 4.076499557495117188e+01 4.991585540771484375e+01 2.720425605773925781e+01 8.804903030395507812e+00
4.169000000000000000e+03 1.007695674896240234e+01 6.310057640075683594e-02 3.654494476318359375e+01 5.452064132690429688e+01 2.731967544555664062e+01 1.056016826629638672e+01
4.170000000000000000e+03 1.006317710876464844e+01 7.689376920461654663e-02 3.153589057922363281e+01 5.970684814453125000e+01 2.737282180786132812e+01 1.054420948028564453e+01
4.171000000000000000e+03 1.004697322845458984e+01 8.773572742938995361e-02 2.627264404296875000e+01 6.486016845703125000e+01 2.733984375000000000e+01 8.448794364929199219e+00
4.172000000000000000e+03 1.002896595001220703e+01 9.521032124757766724e-02 2.145473098754882812e+01 6.886672210693359375e+01 2.709643745422363281e+01 4.347114086151123047e+00
4.173000000000000000e+03 1.000984764099121094e+01 9.903068840503692627e-02 1.779232025146484375e+01 7.092152404785156250e+01 2.661415290832519531e+01 -1.485378980636596680e+00
4.174000000000000000e+03 9.990350723266601562e+00 9.905018657445907593e-02 1.586719322204589844e+01 7.027015686035156250e+01 2.584120559692382812e+01 -8.203553199768066406e+00
4.175000000000000000e+03 9.971223831176757812e+00 9.526807069778442383e-02 1.587495708465576172e+01 6.653997039794921875e+01 2.472447776794433594e+01 -1.508867835998535156e+01
4.176000000000000000e+03 9.953202247619628906e+00 8.782950043678283691e-02 1.751643371582031250e+01 5.994455337524414062e+01 2.323829650878906250e+01 -2.088976097106933594e+01
4.177000000000000000e+03 9.936976432800292969e+00 7.701997458934783936e-02 2.058917236328125000e+01 5.075872802734375000e+01 2.140437126159667969e+01 -2.501522254943847656e+01
4.178000000000000000e+03 9.923169136047363281e+00 6.325436383485794067e-02 2.394926261901855469e+01 4.021849441528320312e+01 1.925032806396484375e+01 -2.671932220458984375e+01
4.179000000000000000e+03 9.912311553955078125e+00 4.706101492047309875e-02 2.761544418334960938e+01 2.843829727172851562e+01 1.681612205505371094e+01 -2.562885475158691406e+01
4.180000000000000000e+03 9.904818534851074219e+00 2.906142920255661011e-02 2.990022277832031250e+01 1.730254554748535156e+01 1.416083049774169922e+01 -2.191209793090820312e+01
4.181000000000000000e+03 9.900979042053222656e+00 9.946446865797042847e-03 3.240017700195312500e+01 5.761044025421142578e+00 1.144836616516113281e+01 -1.132291984558105469e+01
