# el_label, x, y, sXX, sYY, sZZ, sXY
1.000000000000000000e+00 3.504442977905273438e+01 -1.202743434906005859e+01 1.120898214740720378e-13 4.803849782157240678e-14 4.803849782157240678e-14 -8.006416303595401129e-15
2.000000000000000000e+00 3.545411300659179688e+01 -1.138150501251220703e+01 2.001604075898850282e-14 -1.401122870069854143e-13 -3.602887167211341057e-14 -6.204972381176551699e-14
3.000000000000000000e+00 3.701015853881835938e+01 -1.191539096832275391e+01 -7.205774334422682115e-14 -8.006416303595401129e-15 -2.401924891078620339e-14 -5.004010105043830980e-14
4.000000000000000000e+00 3.668528747558593750e+01 -1.258737659454345703e+01 1.150922347877003649e-13 9.507618894651417851e-14 6.305052373213257400e-14 5.604491073703601889e-14
5.000000000000000000e+00 3.622821426391601562e+01 -1.165186595916748047e+01 5.604491073703601889e-14 2.401924891078620339e-14 2.401924891078620339e-14 1.000802037949425141e-14
6.000000000000000000e+00 3.586091995239257812e+01 -1.231086349487304688e+01 -9.207378240914942946e-14 5.204170427930421283e-14 -1.200962445539310169e-14 -1.601283260719080226e-14
7.000000000000000000e+00 3.469964599609375000e+01 -1.110315227508544922e+01 1.701363388281057487e-13 2.101684169579509653e-13 1.140914348673333079e-13 -1.861491782115601290e-13
8.000000000000000000e+00 3.398358917236328125e+01 -1.079784393310546875e+01 3.382710778154773834e-13 -1.981587908084919691e-13 4.203368474684290867e-14 -2.381908689383371858e-13
9.000000000000000000e+00 3.304805755615234375e+01 -1.080496406555175781e+01 -3.592879303532942048e-13 -6.114900252818245008e-13 -2.912333731380084556e-13 4.803849375581425996e-13
1.000000000000000000e+01 3.247866439819335938e+01 -1.032735252380371094e+01 -1.281026608575264181e-13 -1.921539912862896271e-13 -9.607699564314481355e-14 3.843079825725792542e-13
1.100000000000000000e+01 3.202696228027343750e+01 -9.930921554565429688e+00 7.806255641895631925e-14 -5.804651735403371093e-14 6.004812227696550847e-15 1.881507780522942430e-13
1.200000000000000000e+01 3.260358428955078125e+01 -1.014072608947753906e+01 8.686961198121900818e-13 -2.682149478645118323e-13 1.801443651368306309e-13 -1.681347389873716347e-13
1.300000000000000000e+01 3.328606796264648438e+01 -1.046376800537109375e+01 6.880513953727573906e-13 4.778829784148064252e-13 3.497802904522256950e-13 -2.952365999245309958e-13
1.400000000000000000e+01 3.359528350830078125e+01 -1.132435989379882812e+01 -3.281379616811019861e-13 -3.377706719260632241e-15 -9.945469876251541996e-14 2.359703415739239363e-13
1.500000000000000000e+01 3.424757385253906250e+01 -1.173601341247558594e+01 -1.421138868477195283e-13 -1.180946345488015359e-13 -7.806255641895631925e-14 5.904731727440076794e-14
1.600000000000000000e+01 3.826198196411132812e+01 -1.252883338928222656e+01 -3.602887167211341057e-14 7.606094980195862720e-14 1.200962445539310169e-14 5.204170427930421283e-14
1.700000000000000000e+01 3.878078079223632812e+01 -1.273593711853027344e+01 1.240994476235310340e-13 -8.406736949368581735e-14 1.200962445539310169e-14 -7.205774334422682115e-14
1.800000000000000000e+01 3.746259689331054688e+01 -1.293888759613037109e+01 2.451964887096973189e-14 1.050842118671072717e-14 1.050842118671072717e-14 1.601283260719080226e-14
1.900000000000000000e+01 3.923814773559570312e+01 -1.391720581054687500e+01 1.170938346284344789e-13 1.130906281707026728e-13 6.905533680686207210e-14 -9.457578898633065001e-14
2.000000000000000000e+01 3.880344772338867188e+01 -1.336954689025878906e+01 4.403528797570881170e-14 -1.641315257533762506e-13 -3.602887167211341057e-14 -1.401122768425900472e-14
2.100000000000000000e+01 3.970389938354492188e+01 -1.333049583435058594e+01 6.305052373213257400e-14 -1.301042606982605321e-14 1.501202929869195624e-14 -4.703769451307356075e-14
2.200000000000000000e+01 3.817409896850585938e+01 -1.332935810089111328e+01 -1.100882199392720293e-14 -1.190954344691685929e-13 -3.903127820947815962e-14 5.604491073703601889e-14
2.300000000000000000e+01 3.769431304931640625e+01 -1.221975231170654297e+01 5.304250758780305885e-14 -2.301844560228735737e-14 9.007217918028352643e-15 2.401924891078620339e-14
2.400000000000000000e+01 3.923266983032226562e+01 -1.298685264587402344e+01 1.281026608575264181e-13 1.921539912862896271e-13 9.607699564314481355e-14 -5.604491073703601889e-14
2.500000000000000000e+01 4.088659667968750000e+01 -1.412661933898925781e+01 7.405934996122451319e-14 -1.401122768425900472e-14 1.801443583605670529e-14 -5.604491073703601889e-14
2.600000000000000000e+01 4.108477783203125000e+01 -1.516452312469482422e+01 7.155734338404329264e-14 -1.065854151357896462e-13 -1.050842118671072717e-14 -8.006416303595401129e-15
2.700000000000000000e+01 3.987519454956054688e+01 -1.433080673217773438e+01 8.106496295632106830e-14 -1.100882199392720293e-14 2.101684237342145434e-14 -8.006416303595401129e-15
2.800000000000000000e+01 4.168745040893554688e+01 -1.558723735809326172e+01 2.161732300326804634e-13 1.841475648182988589e-13 1.200962343895356499e-13 -7.205774334422682115e-14
2.900000000000000000e+01 4.210943603515625000e+01 -1.497935009002685547e+01 4.403528797570881170e-14 -1.641315257533762506e-13 -3.602887167211341057e-14 -1.511210996835501974e-13
3.000000000000000000e+01 4.149871826171875000e+01 -1.455105972290039062e+01 2.061652172764827373e-13 2.141716301919463494e-13 1.261010474642651480e-13 3.102486190588275849e-14
3.100000000000000000e+01 4.048069763183593750e+01 -1.474565982818603516e+01 4.103288143834406265e-14 1.090874217129708668e-13 4.503609128420765773e-14 -6.004811719476782494e-14
3.200000000000000000e+01 4.027304840087890625e+01 -1.370619010925292969e+01 9.607699564314481355e-14 -1.601283260719080226e-14 2.401924891078620339e-14 -1.381106736137241442e-13
3.300000000000000000e+01 4.393293762207031250e+01 -1.628159904479980469e+01 1.601283260719080226e-14 1.441154866884536423e-13 4.803849782157240678e-14 -4.003208151797700565e-15
3.400000000000000000e+01 4.349453735351562500e+01 -1.687784004211425781e+01 1.060850151756061177e-13 -4.603689120457471473e-14 1.801443583605670529e-14 -4.203368474684290867e-14
3.500000000000000000e+01 4.454083633422851562e+01 -1.671368789672851562e+01 1.020818019416107336e-13 -2.001604075898850282e-15 3.002405859738391247e-14 -5.404330750817011586e-14
3.600000000000000000e+01 4.332546997070312500e+01 -1.584721183776855469e+01 3.452766840343103605e-14 6.054852393121493148e-14 2.852285871683332696e-14 -7.405934996122451319e-14
3.700000000000000000e+01 4.228987503051757812e+01 -1.601399040222167969e+01 1.261010474642651480e-13 5.404330750817011586e-14 5.404330750817011586e-14 -1.291034607778934751e-13
3.800000000000000000e+01 4.271836471557617188e+01 -1.541066265106201172e+01 9.757819552369539906e-14 8.757017599123409490e-14 5.554451077685249039e-14 -7.005614350349270714e-14
3.900000000000000000e+01 4.409748458862304688e+01 -1.730638694763183594e+01 -4.703769451307356075e-14 -8.306656957331876034e-14 -3.903127820947815962e-14 -2.101684237342145434e-14
4.000000000000000000e+01 4.289202880859375000e+01 -1.644699668884277344e+01 5.604491073703601889e-14 2.401924891078620339e-14 2.401924891078620339e-14 -5.804651735403371093e-14
4.100000000000000000e+01 4.508955001831054688e+01 -1.887680053710937500e+01 3.062454261536229350e-13 2.341876692568689577e-13 1.621299259126421366e-13 -8.606896933441993136e-14
4.200000000000000000e+01 4.559312438964843750e+01 -2.291388702392578125e+01 -2.602085213965210642e-14 1.261010474642651480e-13 3.002405859738391247e-14 0.000000000000000000e+00
4.300000000000000000e+01 3.522487640380859375e+01 -2.181151962280273438e+01 -1.261010474642651480e-13 -5.404330750817011586e-14 -5.404330750817011586e-14 9.207378240914942946e-14
4.400000000000000000e+01 3.438399887084960938e+01 -2.414153289794921875e+01 -3.402726844324750755e-14 -1.060850151756061177e-13 -4.203368474684290867e-14 -1.040834085586084257e-13
4.500000000000000000e+01 3.181159019470214844e+01 -2.729299926757812500e+01 -4.322213634634468338e-14 -1.100256699442490882e-13 -4.597434290361766818e-14 -9.307458910578006450e-14
4.600000000000000000e+01 3.054325103759765625e+01 -2.846208572387695312e+01 -1.271018609371593611e-13 3.702967498061225660e-14 -2.702165375408505793e-14 -6.605293026949732305e-14
4.700000000000000000e+01 3.198659133911132812e+01 -2.859294128417968750e+01 -1.000802021008766196e-13 -1.000802021008766196e-13 -6.004811719476782494e-14 -1.085870149765237602e-13
4.800000000000000000e+01 4.580358505249023438e+01 -3.875608444213867188e+01 -4.403528797570881170e-14 -7.606094980195862720e-14 -3.602887167211341057e-14 -1.100882199392720293e-14
4.900000000000000000e+01 4.223457336425781250e+01 -3.878691101074218750e+01 1.150922280114367868e-14 -6.505213034913026604e-15 1.501203056924137712e-15 -9.007217918028352643e-15
5.000000000000000000e+01 4.999781799316406250e+01 -3.492320251464843750e+01 4.153328478665938017e-14 6.355093046857968053e-14 3.152526186606628700e-14 1.901523745048965680e-14
5.100000000000000000e+01 5.855250549316406250e+01 -3.080937004089355469e+01 7.506014988159157020e-14 -1.050842084789754827e-13 -9.007217918028352643e-15 -8.006416303595401129e-15
5.200000000000000000e+01 5.161226272583007812e+01 -3.007620048522949219e+01 1.000802037949425141e-15 -9.107298248878237246e-14 -2.702165375408505793e-14 -2.802245536851800944e-14
5.300000000000000000e+01 5.327947998046875000e+01 -3.127626800537109375e+01 3.402726844324750755e-14 -5.404330750817011586e-14 -6.004812227696550847e-15 2.001604075898850282e-14
5.400000000000000000e+01 4.862701034545898438e+01 -2.858548545837402344e+01 9.357498906596359300e-14 1.316054605788111176e-13 6.755413692631148659e-14 -3.402726844324750755e-14
5.500000000000000000e+01 4.617073059082031250e+01 -2.532364273071289062e+01 -6.104892389139845998e-14 1.110890215537049808e-13 1.501202929869195624e-14 -8.006416303595401129e-15
5.600000000000000000e+01 4.586816787719726562e+01 -2.455050468444824219e+01 9.507618894651417851e-14 3.152526254369264480e-13 1.230986477031639770e-13 -3.602887167211341057e-14
5.700000000000000000e+01 4.566366958618164062e+01 -2.374489784240722656e+01 2.802245536851800944e-14 3.322662782932750414e-13 1.080866150163402317e-13 2.401924891078620339e-14
5.800000000000000000e+01 4.562919235229492188e+01 -2.127271842956542969e+01 -1.581267126786467525e-13 2.982389996856321668e-13 4.203368474684290867e-14 -5.604491073703601889e-14
5.900000000000000000e+01 4.368666839599609375e+01 -1.790466308593750000e+01 1.361090737729900302e-13 -5.604491073703601889e-14 2.401924891078620339e-14 -8.706977603105056640e-14
6.000000000000000000e+01 4.066088104248046875e+01 -1.576175403594970703e+01 9.407538902614712151e-14 2.461972954063279539e-13 1.020818019416107336e-13 -1.090874217129708668e-13
6.100000000000000000e+01 4.005274581909179688e+01 -1.534924888610839844e+01 -1.521218996039172544e-13 7.205774334422682115e-14 -2.401924891078620339e-14 -6.605293026949732305e-14
6.200000000000000000e+01 3.602322769165039062e+01 -1.683014678955078125e+01 -1.921539912862896271e-13 -1.281026608575264181e-13 -9.607699564314481355e-14 -4.003208151797700565e-15
6.300000000000000000e+01 3.710806274414062500e+01 -1.357804203033447266e+01 -1.401122768425900472e-14 -1.661331391466375207e-13 -5.404330750817011586e-14 -2.201764398785440585e-14
6.400000000000000000e+01 3.597091674804687500e+01 -1.386610507965087891e+01 6.805453688649501509e-14 -1.080866150163402317e-13 -1.200962445539310169e-14 8.406736949368581735e-14
6.500000000000000000e+01 3.898365020751953125e+01 -1.553754615783691406e+01 2.301844560228735737e-14 -1.731387521417340758e-13 -4.503609128420765773e-14 1.401122870069854143e-13
6.600000000000000000e+01 3.503380966186523438e+01 -2.261765098571777344e+01 8.406736949368581735e-14 3.602887167211341057e-14 3.602887167211341057e-14 -4.003208151797700565e-14
6.700000000000000000e+01 2.892416763305664062e+01 -2.912549591064453125e+01 -3.903127820947815962e-14 2.902325867701685547e-14 -3.002406113848275424e-15 -7.205774334422682115e-14
6.800000000000000000e+01 3.022720336914062500e+01 -2.983127784729003906e+01 -1.200962343895356499e-13 -4.003208151797700565e-14 -4.803849782157240678e-14 -8.907137587178468041e-14
6.900000000000000000e+01 3.025744438171386719e+01 -3.622483062744140625e+01 7.881315466516571749e-15 1.635060224150150510e-13 5.141620432907480220e-14 -4.578669122448295048e-14
7.000000000000000000e+01 3.477927017211914062e+01 -3.842073440551757812e+01 1.951563910473907981e-14 1.055846084391590112e-13 3.753007494079578510e-14 -1.401122768425900472e-14
7.100000000000000000e+01 2.471662139892578125e+01 -2.941470527648925781e+01 2.321860694161348437e-13 8.006416303595401129e-15 7.205774334422682115e-14 4.403528797570881170e-14
7.200000000000000000e+01 2.237369155883789062e+01 -2.863776206970214844e+01 3.262614516660183872e-13 2.542037218743187221e-13 1.741395520621011328e-13 -2.982389996856321668e-13
7.300000000000000000e+01 1.750469207763671875e+01 -2.561104774475097656e+01 5.743508967037680435e-13 8.866636808449457341e-13 4.383043678436032708e-13 -6.695052498506548488e-13
7.400000000000000000e+01 1.742857360839843750e+01 -2.437150955200195312e+01 7.638621180895699414e-13 9.550153636656011358e-13 5.156632499475621856e-13 -7.506015123684428580e-13
7.500000000000000000e+01 1.585601139068603516e+01 -2.251770782470703125e+01 6.747907354415216830e-13 1.414383475790981226e-12 6.267522308436856981e-13 -1.039082665396651173e-12
7.600000000000000000e+01 1.529211521148681641e+01 -2.190587806701660156e+01 9.615205767005141624e-13 2.243547795460765215e-12 9.615205767005141624e-13 -1.072202981781955611e-12
7.700000000000000000e+01 1.396588706970214844e+01 -2.058884429931640625e+01 7.005614079298727592e-13 2.221780485284208240e-12 8.767025733852351621e-13 -5.564458941363648048e-13
7.800000000000000000e+01 1.460162162780761719e+01 -1.950432395935058594e+01 7.806255641895631925e-14 3.144519800796219400e-12 9.667747288485961654e-13 -2.161732300326804634e-13
7.900000000000000000e+01 1.442190361022949219e+01 -1.721010780334472656e+01 1.080866150163402317e-13 2.974383543283276587e-12 9.247410779830711469e-13 2.001604042017532392e-13
8.000000000000000000e+01 1.390272045135498047e+01 -1.259147262573242188e+01 1.911531778133954140e-13 1.139913467437803085e-12 3.993200084831394214e-13 2.121700303512122354e-13
8.100000000000000000e+01 5.746069431304931641e+00 -1.865612149238586426e+00 -2.622101212372551782e-13 -1.581267126786467525e-13 -1.261010474642651480e-13 -1.881507780522942430e-13
8.200000000000000000e+01 3.431973457336425781e+00 -1.844195723533630371e+00 -3.162534253572935050e-13 -4.403528797570881170e-14 -1.080866150163402317e-13 -1.801443651368306309e-13
8.300000000000000000e+01 2.311698150634765625e+01 -2.899341583251953125e+01 3.582871304329271478e-13 2.221780431074099615e-13 1.741395520621011328e-13 -2.101684169579509653e-13
8.400000000000000000e+01 2.040969848632812500e+01 -2.716661834716796875e+01 4.753809650613616267e-13 4.953970176788113911e-13 2.912333731380084556e-13 -3.547843171591152922e-13
8.500000000000000000e+01 1.466266727447509766e+01 -1.591557216644287109e+01 3.502807039649363796e-13 2.712173367835912785e-12 9.187362242507601806e-13 5.584474939770989188e-13
8.600000000000000000e+01 1.430523490905761719e+01 -1.477485752105712891e+01 4.243400607024244708e-13 1.817456450094179221e-12 6.725389559494865388e-13 4.053248080053417635e-13
8.700000000000000000e+01 1.749025154113769531e+01 -1.161176681518554688e+01 7.986400169662788429e-13 6.625309025357073445e-13 4.383512866926175811e-13 4.803849375581425996e-13
8.800000000000000000e+01 1.632405662536621094e+01 -1.214188861846923828e+01 7.290842734229696642e-13 9.072270387190661811e-13 4.908934044846324785e-13 5.244202424745103563e-13
8.900000000000000000e+01 1.856107902526855469e+01 -1.192380523681640625e+01 1.013812406421010781e-12 2.972381997652651098e-13 3.933151818558827673e-13 3.803047557860567141e-13
9.000000000000000000e+01 2.018413925170898438e+01 -1.165627288818359375e+01 6.835477821785784780e-13 -7.305854326459387815e-14 1.831467648979318019e-13 1.000802021008766196e-13
9.100000000000000000e+01 1.976592254638671875e+01 -1.033029460906982422e+01 5.664539475501439991e-13 1.741395520621011328e-13 2.221780431074099615e-13 3.482791041242022656e-13
9.200000000000000000e+01 2.327908706665039062e+01 -4.996461868286132812e+00 2.121700303512122354e-13 5.484394947734283488e-13 2.281828697346666157e-13 6.004811990527325616e-13
9.300000000000000000e+01 2.324415779113769531e+01 -1.927904129028320312e+00 3.783031559453226000e-13 1.621299259126421366e-13 1.621299259126421366e-13 3.682951296365977178e-13
9.400000000000000000e+01 2.207876777648925781e+01 -4.236319541931152344e+00 2.802245536851800944e-14 3.322662782932750414e-13 1.080866150163402317e-13 2.802245740139708285e-13
9.500000000000000000e+01 1.878440093994140625e+01 -1.416083097457885742e+00 -6.645325565865500828e-13 -5.604491073703601889e-14 -2.161732300326804634e-13 -1.441154866884536423e-13
9.600000000000000000e+01 1.569141769409179688e+01 -2.348475456237792969e+00 -6.124908523072458699e-13 1.200962445539310169e-14 -1.801443651368306309e-13 6.405133042876320904e-14
9.700000000000000000e+01 2.197105407714843750e+01 -1.150011634826660156e+01 8.606896933441993136e-14 -1.461170865291877563e-13 -1.801443583605670529e-14 1.601283260719080226e-14
9.800000000000000000e+01 2.340022468566894531e+01 -1.167581081390380859e+00 9.607699564314481355e-14 -9.607699564314481355e-14 0.000000000000000000e+00 1.561251128379126385e-13
9.900000000000000000e+01 1.570258903503417969e+01 -1.707293868064880371e+00 -6.365100503960552381e-13 -4.403528797570881170e-14 -2.041636038832214672e-13 8.406736949368581735e-14
1.000000000000000000e+02 1.264079189300537109e+01 -1.823595166206359863e+00 -7.445967128462405160e-13 -1.361090737729900302e-13 -2.642117210779892922e-13 -1.000802021008766196e-13
1.010000000000000000e+02 1.112415790557861328e+01 -1.834095239639282227e+00 -6.505213034913026604e-13 -5.004010105043830980e-14 -2.101684169579509653e-13 -1.200962343895356499e-13
1.020000000000000000e+02 1.109858989715576172e+01 -2.506724119186401367e+00 -6.144924521479799839e-13 -1.261010474642651480e-13 -2.221780431074099615e-13 -3.602887167211341057e-14
1.030000000000000000e+02 1.159963798522949219e+01 -6.295587539672851562e+00 -3.042437992078345088e-13 1.441154866884536423e-13 -4.803849782157240678e-14 -3.002405995263662808e-13
1.040000000000000000e+02 1.641550064086914062e+01 -1.321575069427490234e+01 9.102294655852216643e-13 1.076362523416696249e-12 5.959775858585536490e-13 9.227394239322284086e-13
1.050000000000000000e+02 3.506835103034973145e-01 -9.153374671936035156e+00 3.803047490097931360e-14 -5.784635465945486832e-13 -1.621299259126421366e-13 -3.602887167211341057e-14
1.060000000000000000e+02 1.049220085144042969e+00 -1.080119895935058594e+01 -7.606094980195862720e-14 -7.646127112535816561e-13 -2.522020949285302960e-13 -1.321058605389946461e-13
1.070000000000000000e+02 1.068944811820983887e+00 -1.885114860534667969e+01 -3.602887167211341057e-14 -1.365093910306314218e-12 -4.203368339159019307e-13 -3.202566521438160452e-14
1.080000000000000000e+02 1.099608182907104492e+00 -2.686715888977050781e+01 -4.403528797570881170e-14 -1.116894987954197838e-12 -3.482791041242022656e-13 1.321058605389946461e-13
1.090000000000000000e+02 1.231566548347473145e+00 -3.477188491821289062e+01 -1.401122768425900472e-14 -3.262614516660183872e-13 -1.020818019416107336e-13 -3.602887167211341057e-14
1.100000000000000000e+02 2.024656772613525391e+00 -4.003636169433593750e+01 1.701363422162375377e-14 -1.070858150959731747e-13 -2.702165375408505793e-14 -4.803849782157240678e-14
1.110000000000000000e+02 3.941150009632110596e-01 -3.641993713378906250e+01 -4.003208151797700565e-15 -4.363496868518834670e-13 -1.321058605389946461e-13 -4.003208151797700565e-15
1.120000000000000000e+02 5.371612071990966797e+00 -3.859210586547851562e+01 -1.040208568695195901e-13 -2.170489401273970054e-14 -3.771772661993050280e-14 8.406736949368581735e-14
1.130000000000000000e+02 8.126192092895507812e+00 -3.560124588012695312e+01 -1.401122870069854143e-13 1.801443651368306309e-13 1.200962445539310169e-14 1.005806020610601481e-13
1.140000000000000000e+02 6.350347995758056641e+00 -3.200361251831054688e+01 -8.506816941405287436e-14 -1.050842084789754827e-13 -5.704571743366665393e-14 1.160930347080674219e-13
1.150000000000000000e+02 1.323743820190429688e+01 -2.352174377441406250e+01 1.621299259126421366e-13 1.579265581155842035e-12 5.224186426337762423e-13 -8.406736949368581735e-14
1.160000000000000000e+02 1.263918399810791016e+01 -1.810197257995605469e+01 4.003208084035064784e-13 1.681347335663607723e-12 6.245004513516505540e-13 6.004812227696550847e-15
1.170000000000000000e+02 1.378547763824462891e+01 -1.900042152404785156e+01 1.791435652164635739e-13 2.593078095997070065e-12 8.316664414434460362e-13 -1.321058605389946461e-13
1.180000000000000000e+02 3.552962243556976318e-01 -1.638782691955566406e+01 -9.207378240914942946e-14 -1.389113216815340834e-12 -4.443560862148199231e-13 8.006416303595401129e-15
1.190000000000000000e+02 1.867661094665527344e+01 -3.886030578613281250e+01 -1.731387521417340758e-13 5.034034170417478471e-13 9.907939540424598457e-14 -7.005614350349270714e-14
1.200000000000000000e+02 1.716617774963378906e+01 -3.564250946044921875e+01 -1.631307258330091936e-13 5.534435214803179459e-13 1.170938346284344789e-13 -6.555253030931379454e-14
1.210000000000000000e+02 1.947925567626953125e+01 -2.851643753051757812e+01 2.997402131187099084e-13 5.859695866548830789e-13 2.657129345110670338e-13 -3.923143819355157103e-13
1.220000000000000000e+02 1.843229484558105469e+01 -3.040380287170410156e+01 3.803047490097931360e-14 6.224988515109164400e-13 1.981587908084919691e-13 -2.942358000041639388e-13
1.230000000000000000e+02 2.222215270996093750e+01 -3.917323303222656250e+01 -1.165934346682509504e-13 4.418540728613751245e-13 9.757819552369539906e-14 -4.203368474684290867e-14
1.240000000000000000e+02 2.216965484619140625e+01 -3.699312210083007812e+01 -7.255814330441034965e-14 4.378508731799068965e-13 1.095878216731543953e-13 -6.204972381176551699e-14
1.250000000000000000e+02 2.555010414123535156e+01 -2.947345352172851562e+01 2.361892690976030718e-13 -3.602887167211341057e-14 6.004811719476782494e-14 -1.361090737729900302e-13
1.260000000000000000e+02 5.806317138671875000e+01 -3.682051849365234375e+01 -3.402726844324750755e-14 -2.602085213965210642e-14 -1.801443583605670529e-14 -2.602085213965210642e-14
1.270000000000000000e+02 5.976556777954101562e+01 -2.943948554992675781e+01 5.604491073703601889e-14 1.040834085586084257e-13 4.803849782157240678e-14 1.130906281707026728e-13
1.280000000000000000e+02 5.576375961303710938e+01 -3.037410736083984375e+01 1.601283260719080226e-13 1.601283260719080226e-13 9.607699564314481355e-14 1.801443583605670529e-14
1.290000000000000000e+02 6.226386260986328125e+01 -4.120870971679687500e+01 7.005613842129502361e-15 3.002406113848275424e-15 3.002406113848275424e-15 -2.602085213965210642e-14
1.300000000000000000e+02 6.194940948486328125e+01 -2.836930847167968750e+01 5.004010105043830980e-14 -7.005614350349270714e-14 -6.004812227696550847e-15 2.401924891078620339e-14
1.310000000000000000e+02 6.380126190185546875e+01 -2.678284072875976562e+01 6.980593674713736485e-14 1.628805326291810074e-13 6.980593674713736485e-14 4.303448466720996568e-14
1.320000000000000000e+02 6.261198043823242188e+01 -2.789018249511718750e+01 1.691355389077386917e-13 1.010810020212436766e-13 8.106496295632106830e-14 1.461170865291877563e-13
1.330000000000000000e+02 6.631591033935546875e+01 -3.828837585449218750e+01 -2.502005052521915490e-14 -4.503609128420765773e-14 -2.101684237342145434e-14 -1.301042606982605321e-14
1.340000000000000000e+02 7.302369689941406250e+01 -3.727292633056640625e+01 1.376102770416724047e-14 -1.313552673749829314e-13 -3.527827173183811782e-14 -7.681155651849749799e-14
1.350000000000000000e+02 6.724160003662109375e+01 -2.897606468200683594e+01 2.814755705262978608e-14 2.258059462068723322e-13 7.618605318013629835e-14 -5.992302059285373184e-14
1.360000000000000000e+02 6.757226562500000000e+01 -2.262807464599609375e+01 1.483688931262772126e-13 2.394418756150595851e-13 1.163432279118956081e-13 8.294146619514108920e-14
1.370000000000000000e+02 7.191820526123046875e+01 -2.024499130249023438e+01 1.401122768425900472e-14 1.661331391466375207e-13 5.404330750817011586e-14 -1.000802037949425141e-14
1.380000000000000000e+02 7.145877838134765625e+01 -1.824062728881835938e+01 7.005614350349270714e-14 3.002405859738391247e-14 3.002405859738391247e-14 -7.606094980195862720e-14
1.390000000000000000e+02 6.840484619140625000e+01 -1.856120300292968750e+01 2.001604042017532392e-13 4.003208151797700565e-14 7.205774334422682115e-14 -1.281026608575264181e-13
1.400000000000000000e+02 7.860644531250000000e+01 -3.739971923828125000e+01 7.205774334422682115e-14 -1.521218996039172544e-13 -2.401924891078620339e-14 -2.001604075898850282e-14
1.410000000000000000e+02 7.892815399169921875e+01 -3.889794158935546875e+01 1.361090737729900302e-13 -3.763015561045884860e-13 -7.205774334422682115e-14 -6.805453688649501509e-14
1.420000000000000000e+02 7.865042114257812500e+01 -3.570420837402343750e+01 7.005614350349270714e-14 3.002405859738391247e-14 3.002405859738391247e-14 1.200962445539310169e-14
1.430000000000000000e+02 7.889893341064453125e+01 -3.015431785583496094e+01 -6.805453688649501509e-14 -2.121700303512122354e-13 -8.406736949368581735e-14 2.001604075898850282e-14
1.440000000000000000e+02 7.964673614501953125e+01 -2.309272384643554688e+01 -3.803047490097931360e-14 -6.204972381176551699e-14 -3.002405859738391247e-14 1.200962445539310169e-14
1.450000000000000000e+02 7.581069946289062500e+01 -1.824118614196777344e+01 -6.805453688649501509e-14 -2.121700303512122354e-13 -8.406736949368581735e-14 7.606094980195862720e-14
1.460000000000000000e+02 7.289024353027343750e+01 -1.811784362792968750e+01 -5.804651735403371093e-14 -1.621299259126421366e-13 -6.605293026949732305e-14 -2.001604042017532392e-13
1.470000000000000000e+02 7.963132476806640625e+01 -1.915250015258789062e+01 -2.001604075898850282e-15 1.821459649775647449e-13 5.404330750817011586e-14 1.200962445539310169e-14
1.480000000000000000e+02 7.656723785400390625e+01 -1.827217483520507812e+01 -1.601283260719080226e-13 -1.601283260719080226e-13 -9.607699564314481355e-14 3.202566521438160452e-14
1.490000000000000000e+02 6.798270416259765625e+01 -2.192318534851074219e+01 7.105694342385976414e-14 2.191756433463087905e-13 8.706977603105056640e-14 1.040834085586084257e-13
1.500000000000000000e+02 6.769226074218750000e+01 -2.480036354064941406e+01 3.702967498061225660e-14 2.732189474663471174e-13 9.307458910578006450e-14 7.856295637913984775e-14
1.510000000000000000e+02 5.079713439941406250e+01 -2.982898521423339844e+01 8.406736949368581735e-14 3.602887167211341057e-14 3.602887167211341057e-14 3.602887167211341057e-14
1.520000000000000000e+02 4.746689987182617188e+01 -2.741251182556152344e+01 2.727185542824271669e-14 -7.981396305586224704e-14 -1.576263093303314350e-14 -9.107298248878237246e-14
1.530000000000000000e+02 3.495725250244140625e+01 -2.443606376647949219e+01 -2.201764398785440585e-14 2.001604075898850282e-15 -6.004812227696550847e-15 5.804651735403371093e-14
1.540000000000000000e+02 3.511536407470703125e+01 -2.730696678161621094e+01 -1.100882216333379238e-13 9.007218256841531545e-14 -6.004812227696550847e-15 3.602887167211341057e-14
1.550000000000000000e+02 4.592433547973632812e+01 -3.158434295654296875e+01 -2.251804564210382886e-14 2.752205540833448094e-14 1.501203056924137712e-15 -9.007217918028352643e-15
1.560000000000000000e+02 4.685343551635742188e+01 -2.930546951293945312e+01 -6.893024020494797899e-14 1.077113184343343744e-13 1.163432363822250806e-14 9.807859548387892756e-14
1.570000000000000000e+02 3.788029253482818604e-01 -3.003349685668945312e+01 -4.203368474684290867e-14 -9.787843278930008495e-13 -3.062454261536229350e-13 2.001604075898850282e-14
1.580000000000000000e+02 7.305770397186279297e+00 -2.964091873168945312e+01 -1.271018609371593611e-13 3.702967498061225660e-14 -2.702165375408505793e-14 2.141716301919463494e-13
1.590000000000000000e+02 3.521408462524414062e+01 -2.961745262145996094e+01 9.607699564314481355e-14 1.441154866884536423e-13 7.205774334422682115e-14 -5.204170427930421283e-14
1.600000000000000000e+02 6.374853134155273438e+01 -2.787682151794433594e+01 8.256616283687165381e-14 1.726383521815505473e-13 7.656135653840573374e-14 1.701363422162375377e-14
1.610000000000000000e+02 6.902630615234375000e+01 -2.842879295349121094e+01 -5.979791721467606069e-14 1.573761195146350378e-13 2.927345865710861972e-14 1.351082687704252897e-14
1.620000000000000000e+02 3.625751435756683350e-01 -2.282316970825195312e+01 -3.202566521438160452e-14 -1.569257527742062841e-12 -4.803849375581425996e-13 4.803849782157240678e-14
1.630000000000000000e+02 1.471013832092285156e+01 -2.404561233520507812e+01 3.042437992078345088e-13 1.457167719820517959e-12 5.284234421559785844e-13 -5.004009901755923639e-13
1.640000000000000000e+02 7.889087677001953125e+01 -3.094339179992675781e+01 6.405133042876320904e-14 -3.843079825725792542e-13 -9.607699564314481355e-14 1.040834085586084257e-13
1.650000000000000000e+02 7.893334197998046875e+01 -2.383045959472656250e+01 1.000802037949425141e-14 5.004010105043830980e-14 1.801443583605670529e-14 1.521218996039172544e-13
1.660000000000000000e+02 4.569595718383789062e+01 -1.977492713928222656e+01 -1.701363388281057487e-13 1.100882216333379238e-13 -1.801443583605670529e-14 1.200962445539310169e-14
1.670000000000000000e+02 4.306917953491210938e+01 -1.747853851318359375e+01 1.401122768425900472e-14 8.606896933441993136e-14 3.002405859738391247e-14 -8.206576287668812530e-14
1.680000000000000000e+02 4.186018753051757812e+01 -1.660649108886718750e+01 2.802245536851800944e-14 -6.805453688649501509e-14 -1.200962445539310169e-14 -4.103288143834406265e-14
1.690000000000000000e+02 4.024118804931640625e+01 -1.632741737365722656e+01 5.004010189747125706e-16 -4.553649124439118623e-14 -1.351082687704252897e-14 2.001604075898850282e-15
1.700000000000000000e+02 3.689325332641601562e+01 -1.761547088623046875e+01 -6.004812227696550847e-15 -9.407538902614712151e-14 -3.002405859738391247e-14 -8.006416303595401129e-14
1.710000000000000000e+02 3.873057556152343750e+01 -1.451451587677001953e+01 -3.602887167211341057e-14 -8.406736949368581735e-14 -3.602887167211341057e-14 1.301042606982605321e-14
1.720000000000000000e+02 3.502919006347656250e+01 -1.531900882720947266e+01 9.607699564314481355e-14 -9.607699564314481355e-14 0.000000000000000000e+00 7.005614350349270714e-14
1.730000000000000000e+02 3.567646789550781250e+01 -1.527514076232910156e+01 -8.006416303595401129e-14 -4.003208084035064784e-13 -1.441154866884536423e-13 -1.721379386688398627e-13
1.740000000000000000e+02 3.462678146362304688e+01 -1.378910350799560547e+01 -1.461170865291877563e-13 -3.142518255165593910e-13 -1.381106736137241442e-13 -2.602085213965210642e-14
1.750000000000000000e+02 3.438167190551757812e+01 -1.305970096588134766e+01 -1.801443583605670529e-14 -1.220978477827969200e-13 -4.203368474684290867e-14 9.607699564314481355e-14
1.760000000000000000e+02 3.412154388427734375e+01 -1.238341045379638672e+01 -3.202566521438160452e-14 -1.281026608575264181e-13 -4.803849782157240678e-14 -1.200962445539310169e-14
1.770000000000000000e+02 3.503977966308593750e+01 -1.317763710021972656e+01 1.080866150163402317e-13 2.522020949285302960e-13 1.080866150163402317e-13 6.004811719476782494e-14
1.780000000000000000e+02 3.534570693969726562e+01 -1.770944595336914062e+01 -2.221780431074099615e-13 4.203368474684290867e-14 -5.404330750817011586e-14 4.803849782157240678e-14
1.790000000000000000e+02 3.539271545410156250e+01 -1.852280807495117188e+01 7.005614350349270714e-14 -1.301042606982605321e-13 -1.801443583605670529e-14 -2.802245536851800944e-14
1.800000000000000000e+02 3.540022277832031250e+01 -2.016762924194335938e+01 1.180946345488015359e-13 -1.801443583605670529e-14 3.002405859738391247e-14 -5.604491073703601889e-14
1.810000000000000000e+02 3.535116577148437500e+01 -2.099371147155761719e+01 8.006416303595401129e-15 -8.807057595141762341e-14 -2.401924891078620339e-14 1.601283260719080226e-14
1.820000000000000000e+02 3.476519012451171875e+01 -2.340443038940429688e+01 -1.601283260719080226e-14 1.761411519028352468e-13 4.803849782157240678e-14 -3.202566521438160452e-14
1.830000000000000000e+02 3.286836624145507812e+01 -2.604597091674804688e+01 -2.376904825306808133e-13 -1.476182999622654979e-13 -1.155926347478838934e-13 -1.601283260719080226e-14
1.840000000000000000e+02 3.234248733520507812e+01 -2.666527366638183594e+01 -6.004811719476782494e-14 2.001604075898850282e-14 -1.200962445539310169e-14 -1.681347389873716347e-13
1.850000000000000000e+02 3.122853851318359375e+01 -2.790677833557128906e+01 -1.015814019814272051e-13 -4.353488801552528320e-14 -4.353488801552528320e-14 -4.253408470702643718e-14
1.860000000000000000e+02 2.807583045959472656e+01 -2.930455017089843750e+01 -5.204170427930421283e-14 -6.805453688649501509e-14 -3.602887167211341057e-14 2.001604075898850282e-14
1.870000000000000000e+02 2.723332405090332031e+01 -2.942631340026855469e+01 -3.803047490097931360e-14 9.807859548387892756e-14 1.801443583605670529e-14 -4.003208151797700565e-14
1.880000000000000000e+02 2.389933204650878906e+01 -2.926333427429199219e+01 2.121700303512122354e-13 -9.207378240914942946e-14 3.602887167211341057e-14 -1.120898214740720378e-13
1.890000000000000000e+02 2.167157173156738281e+01 -2.821852302551269531e+01 4.223384337566360447e-13 3.983192085627723644e-13 2.461972954063279539e-13 -2.762213472274482884e-13
1.900000000000000000e+02 2.102266693115234375e+01 -2.771591949462890625e+01 3.602887302736612618e-13 2.802245740139708285e-13 1.921539912862896271e-13 -4.473584859759210941e-13
1.910000000000000000e+02 1.979346275329589844e+01 -2.663033676147460938e+01 3.622903301143953758e-13 2.582069215557869502e-13 1.861491782115601290e-13 -4.943961906533900219e-13
1.920000000000000000e+02 1.917057991027832031e+01 -2.610655784606933594e+01 6.695365290833310556e-13 5.214178698184634975e-13 3.572863034075057787e-13 -5.844683461167510252e-13
1.930000000000000000e+02 1.856451797485351562e+01 -2.555973625183105469e+01 7.856295908964527897e-13 7.656135382790030253e-13 4.653729116475824323e-13 -6.550249166854815730e-13
1.940000000000000000e+02 1.688503646850585938e+01 -2.376273536682128906e+01 6.666592191478803997e-13 1.208593555096504346e-12 5.625758105892719740e-13 -8.615654305439701677e-13
1.950000000000000000e+02 1.636093902587890625e+01 -2.314591979980468750e+01 6.996856978351562173e-13 1.285655284490039296e-12 5.956022892765477916e-13 -8.495557772894568593e-13
1.960000000000000000e+02 1.450119781494140625e+01 -1.793869209289550781e+01 1.100882199392720293e-14 2.841276909928969197e-12 8.556856937423640286e-13 1.601283260719080226e-14
1.970000000000000000e+02 1.456194019317626953e+01 -1.870944404602050781e+01 6.405133042876320904e-14 2.818258430445363949e-12 8.646929201307218538e-13 -5.204170427930421283e-14
1.980000000000000000e+02 1.500337314605712891e+01 -1.520968151092529297e+01 4.758813785740723112e-13 2.171239967332927456e-12 7.941364037720999303e-13 8.286640687873991773e-13
1.990000000000000000e+02 1.701606559753417969e+01 -1.262237071990966797e+01 1.005680890127369498e-12 7.970137137075505862e-13 5.408083919924977501e-13 8.161540562302838087e-13
2.000000000000000000e+02 1.775176239013671875e+01 -1.219327163696289062e+01 1.180946399698123983e-12 4.603689391508014594e-13 4.923945908126559079e-13 5.564458941363648048e-13
2.010000000000000000e+02 2.152035331726074219e+01 -1.125438976287841797e+01 3.823063556267908281e-13 1.981587908084919691e-13 1.741395520621011328e-13 4.263416605431585849e-13
2.020000000000000000e+02 1.994524955749511719e+01 -1.097432708740234375e+01 6.905534087262021892e-13 -7.005614350349270714e-14 1.861491782115601290e-13 2.481988952470620680e-13
2.030000000000000000e+02 2.245851707458496094e+01 -8.908801078796386719e+00 1.100882216333379238e-13 -9.007218256841531545e-14 6.004812227696550847e-15 4.003208084035064784e-13
2.040000000000000000e+02 2.285415077209472656e+01 -7.309545993804931641e+00 7.205774334422682115e-14 1.681347389873716347e-13 7.205774334422682115e-14 3.022421993671003948e-13
2.050000000000000000e+02 2.303159141540527344e+01 -6.512943267822265625e+00 7.405934996122451319e-14 4.663737386730038015e-13 1.621299259126421366e-13 3.582871304329271478e-13
2.060000000000000000e+02 2.317062377929687500e+01 -5.743364810943603516e+00 5.604491073703601889e-14 1.841475648182988589e-13 7.205774334422682115e-14 2.361892690976030718e-13
2.070000000000000000e+02 2.368618583679199219e+01 -2.691613674163818359e+00 2.361892690976030718e-13 6.044843987342007896e-13 2.522020949285302960e-13 4.403528865333516951e-13
2.080000000000000000e+02 2.351301956176757812e+01 -3.488981485366821289e+00 4.083272077664429345e-13 4.723785381952061435e-13 2.642117210779892922e-13 5.924747996897961055e-13
2.090000000000000000e+02 2.339140319824218750e+01 -4.246577262878417969e+00 1.200962343895356499e-13 4.403528865333516951e-13 1.681347389873716347e-13 3.602887302736612618e-13
2.100000000000000000e+02 2.351446342468261719e+01 -4.579643011093139648e-01 -6.004811719476782494e-14 2.001604075898850282e-14 -1.200962445539310169e-14 -4.003208151797700565e-15
2.110000000000000000e+02 2.430358123779296875e+01 -2.399426251649856567e-01 7.606094980195862720e-14 2.842277736954390566e-13 1.080866150163402317e-13 -2.001604042017532392e-13
2.120000000000000000e+02 2.270428657531738281e+01 -6.901724338531494141e-01 -2.391916688587042428e-13 -3.312654512678536722e-13 -1.711371387484728057e-13 -2.441956955655938399e-13
2.130000000000000000e+02 1.956103324890136719e+01 -1.306519627571105957e+00 -6.825469551531571089e-13 -1.801443583605670529e-14 -2.101684169579509653e-13 -1.000802021008766196e-13
2.140000000000000000e+02 2.033913612365722656e+01 -1.171740293502807617e+00 -5.124106434301056723e-13 -1.281026608575264181e-13 -1.921539912862896271e-13 -1.000802021008766196e-13
2.150000000000000000e+02 2.111806678771972656e+01 -1.032503962516784668e+00 -4.263416605431585849e-13 4.603689120457471473e-14 -1.140914348673333079e-13 -5.204170427930421283e-14
2.160000000000000000e+02 1.647124862670898438e+01 -1.649878501892089844e+00 -6.905534087262021892e-13 7.005614350349270714e-14 -1.861491782115601290e-13 -6.405133042876320904e-14
2.170000000000000000e+02 1.340475273132324219e+01 -1.805661439895629883e+00 -6.405133042876320904e-13 0.000000000000000000e+00 -1.921539912862896271e-13 -9.607699564314481355e-14
2.180000000000000000e+02 1.417122745513916016e+01 -1.776822566986083984e+00 -6.545245031727708884e-13 -6.004812227696550847e-15 -1.981587908084919691e-13 3.602887167211341057e-14
2.190000000000000000e+02 1.188153171539306641e+01 -1.830339193344116211e+00 -5.924747996897961055e-13 1.120898214740720378e-13 -1.441154866884536423e-13 -7.205774334422682115e-14
2.200000000000000000e+02 1.036672306060791016e+01 -1.836912751197814941e+00 -6.705373561087524248e-13 -1.501202997631831404e-13 -2.461972954063279539e-13 4.003208151797700565e-15
2.210000000000000000e+02 7.294657230377197266e+00 -1.852637648582458496e+00 -3.903127820947815962e-13 -3.002405859738391247e-14 -1.261010474642651480e-13 -1.521218996039172544e-13
2.220000000000000000e+02 6.520900249481201172e+00 -1.860528469085693359e+00 -3.742999562638543720e-13 -2.061652172764827373e-13 -1.741395520621011328e-13 -1.961571909677578551e-13
2.230000000000000000e+02 4.971642017364501953e+00 -1.863768219947814941e+00 -2.982389996856321668e-13 -8.206576287668812530e-14 -1.140914348673333079e-13 -1.601283260719080226e-13
2.240000000000000000e+02 4.130632877349853516e+00 -2.569379568099975586e+00 -2.602085213965210642e-13 -2.001604075898850282e-14 -8.406736949368581735e-14 -1.761411519028352468e-13
2.250000000000000000e+02 4.200086116790771484e+00 -1.854988217353820801e+00 -1.160930347080674219e-13 -4.003208151797700565e-15 -3.602887167211341057e-14 -4.403528797570881170e-14
2.260000000000000000e+02 2.666265964508056641e+00 -1.840523958206176758e+00 -1.140914348673333079e-13 -1.861491782115601290e-13 -9.007218256841531545e-14 -4.003208151797700565e-14
2.270000000000000000e+02 3.833294808864593506e-01 -1.894141674041748047e+00 -8.006416303595401129e-14 -8.006416303595401129e-14 -4.803849782157240678e-14 1.000802021008766196e-13
2.280000000000000000e+02 4.694409966468811035e-01 -4.203360748291015625e+01 0.000000000000000000e+00 -1.601283260719080226e-13 -4.803849782157240678e-14 -1.401122768425900472e-14
2.290000000000000000e+02 6.158118247985839844e-01 -4.115930938720703125e+01 1.701363422162375377e-14 -1.070858150959731747e-13 -2.702165375408505793e-14 1.601283260719080226e-14
2.300000000000000000e+02 6.399483680725097656e-01 -4.034858322143554688e+01 1.601283260719080226e-14 -1.761411519028352468e-13 -4.803849782157240678e-14 -1.200962445539310169e-14
2.310000000000000000e+02 5.451100468635559082e-01 -3.875755310058593750e+01 -4.603689120457471473e-14 -2.942358000041639388e-13 -1.020818019416107336e-13 -4.003208151797700565e-14
2.320000000000000000e+02 6.091434359550476074e-01 -3.954814529418945312e+01 5.004010189747125706e-15 -1.351082738526229732e-13 -3.903127820947815962e-14 8.006416303595401129e-15
2.330000000000000000e+02 4.054172635078430176e-01 -3.720153808593750000e+01 1.200962445539310169e-14 -4.523625126828106913e-13 -1.321058605389946461e-13 -3.202566521438160452e-14
2.340000000000000000e+02 4.092951118946075439e-01 -3.563136291503906250e+01 -1.200962445539310169e-14 -5.084074437486374443e-13 -1.561251128379126385e-13 3.602887167211341057e-14
2.350000000000000000e+02 4.084467887878417969e-01 -3.483416748046875000e+01 -1.601283260719080226e-14 -4.643721388322696875e-13 -1.441154866884536423e-13 -5.204170427930421283e-14
2.360000000000000000e+02 4.011364579200744629e-01 -3.403242492675781250e+01 -7.806255641895631925e-14 -5.824667462760169112e-13 -1.981587908084919691e-13 4.803849782157240678e-14
2.370000000000000000e+02 3.937809765338897705e-01 -3.323036575317382812e+01 -3.402726844324750755e-14 -7.465983126869746300e-13 -2.341876692568689577e-13 -3.602887167211341057e-14
2.380000000000000000e+02 3.880328536033630371e-01 -3.242940521240234375e+01 2.001604075898850282e-15 -8.226592692651968353e-13 -2.461972954063279539e-13 -4.003208151797700565e-14
2.390000000000000000e+02 1.179790258407592773e+00 -3.317941665649414062e+01 -6.204972381176551699e-14 -7.586079117313793141e-13 -2.461972954063279539e-13 4.003208151797700565e-14
2.400000000000000000e+02 3.841447830200195312e-01 -3.163045501708984375e+01 4.403528797570881170e-14 -8.046448164884811849e-13 -2.281828697346666157e-13 1.601283260719080226e-14
2.410000000000000000e+02 3.754014372825622559e-01 -2.923437690734863281e+01 8.606896933441993136e-14 -1.106887042960635892e-12 -3.062454261536229350e-13 7.205774334422682115e-14
2.420000000000000000e+02 3.714425265789031982e-01 -2.843584060668945312e+01 -8.606896933441993136e-14 -1.134909440730913488e-12 -3.662935297958636038e-13 6.405133042876320904e-14
2.430000000000000000e+02 3.684759736061096191e-01 -2.763607978820800781e+01 2.221780431074099615e-13 -1.002803634402027466e-12 -2.341876692568689577e-13 5.204170427930421283e-14
2.440000000000000000e+02 3.665908873081207275e-01 -2.683532333374023438e+01 -1.641315257533762506e-13 -1.397119616178277290e-12 -4.683753385137379155e-13 4.003208151797700565e-14
2.450000000000000000e+02 3.655441105365753174e-01 -2.603413963317871094e+01 1.281026608575264181e-13 -1.409129215222681974e-12 -3.843079825725792542e-13 4.403528797570881170e-14
2.460000000000000000e+02 3.648663163185119629e-01 -2.523197364807128906e+01 -9.007218256841531545e-14 -1.251002556754143846e-12 -4.023224082442405924e-13 6.405133042876320904e-14
2.470000000000000000e+02 3.641816079616546631e-01 -2.443005752563476562e+01 1.180946345488015359e-13 -1.299040952931762583e-12 -3.542839036464046076e-13 3.202566521438160452e-14
2.480000000000000000e+02 3.606074154376983643e-01 -2.201811027526855469e+01 -2.802245536851800944e-14 -1.613292832658430598e-12 -4.923945908126559079e-13 0.000000000000000000e+00
2.490000000000000000e+02 3.588887751102447510e-01 -2.121493530273437500e+01 -9.207378240914942946e-14 -1.389113216815340834e-12 -4.443560862148199231e-13 8.006416303595401129e-14
2.500000000000000000e+02 3.574495017528533936e-01 -2.041114997863769531e+01 7.405934996122451319e-14 -1.455166065769675221e-12 -4.143320343936995886e-13 2.802245536851800944e-14
2.510000000000000000e+02 3.563528656959533691e-01 -1.960734558105468750e+01 8.006416303595401129e-15 -1.689353735026544179e-12 -5.044041898570605920e-13 -1.601283260719080226e-14
2.520000000000000000e+02 3.558258116245269775e-01 -1.880335426330566406e+01 -1.000802037949425141e-14 -1.651323283842487388e-12 -4.983993903348582499e-13 -4.003208151797700565e-15
2.530000000000000000e+02 1.796716094017028809e+00 -2.052255439758300781e+01 5.004010105043830980e-14 -1.030826032172305062e-12 -2.942358000041639388e-13 8.006416303595401129e-14
2.540000000000000000e+02 3.557934165000915527e-01 -1.799903488159179688e+01 -2.001604075898850282e-14 -1.381106817452404378e-12 -4.203368339159019307e-13 -6.805453688649501509e-14
2.550000000000000000e+02 3.539604842662811279e-01 -1.558197021484375000e+01 2.401924891078620339e-14 -1.385110017133872606e-12 -4.083272077664429345e-13 -1.160930347080674219e-13
2.560000000000000000e+02 3.528024256229400635e-01 -1.477808475494384766e+01 -1.261010474642651480e-13 -1.495198171004574750e-12 -4.863897912904535659e-13 -9.207378240914942946e-14
2.570000000000000000e+02 3.518331050872802734e-01 -1.397449874877929688e+01 4.603689120457471473e-14 -1.307047460714916287e-12 -3.783031559453226000e-13 -1.601283260719080226e-14
2.580000000000000000e+02 3.509301841259002686e-01 -1.317076396942138672e+01 -2.602085213965210642e-14 -1.154925547558471877e-12 -3.542839036464046076e-13 -4.403528797570881170e-14
2.590000000000000000e+02 3.500293195247650146e-01 -1.236740398406982422e+01 7.806255641895631925e-14 -1.018816433127900378e-12 -2.822261738547049426e-13 -4.803849782157240678e-14
2.600000000000000000e+02 3.494004905223846436e-01 -1.156432437896728516e+01 -1.401122768425900472e-14 -9.667747288485961654e-13 -2.942358000041639388e-13 -8.406736949368581735e-14
2.610000000000000000e+02 1.752602338790893555e+00 -1.325025939941406250e+01 -7.806255641895631925e-14 -9.027234255248872685e-13 -2.942358000041639388e-13 -1.641315257533762506e-13
2.620000000000000000e+02 3.493129014968872070e-01 -1.076139354705810547e+01 -1.401122768425900472e-14 -9.667747288485961654e-13 -2.942358000041639388e-13 -6.405133042876320904e-14
2.630000000000000000e+02 3.522467315196990967e-01 -8.348195075988769531e+00 4.003208151797700565e-15 -6.845485549938912229e-13 -2.041636038832214672e-13 -6.004811719476782494e-14
2.640000000000000000e+02 3.566277027130126953e-01 -7.543258190155029297e+00 -1.200962343895356499e-13 -6.004811990527325616e-13 -2.161732300326804634e-13 4.003208151797700565e-15
2.650000000000000000e+02 3.655253648757934570e-01 -6.737414360046386719e+00 9.607699564314481355e-14 -4.163336342344337027e-13 -9.607699564314481355e-14 -5.604491073703601889e-14
2.660000000000000000e+02 5.685676574707031250e+00 -3.345495462417602539e+00 -3.042437992078345088e-13 -1.761411519028352468e-13 -1.441154866884536423e-13 -3.722983564231202580e-13
2.670000000000000000e+02 1.098899364471435547e+00 -6.775293350219726562e+00 -1.301042606982605321e-13 -4.903929909719217939e-13 -1.861491782115601290e-13 -1.681347389873716347e-13
2.680000000000000000e+02 4.857016086578369141e+00 -3.350198268890380859e+00 -1.901523778930283570e-13 1.000802037949425141e-14 -5.404330750817011586e-14 -1.761411519028352468e-13
2.690000000000000000e+02 1.905490636825561523e+00 -1.852559328079223633e+00 -5.004010105043830980e-14 -2.502004950877961820e-13 -9.007218256841531545e-14 -1.321058605389946461e-13
2.700000000000000000e+02 7.955620574951171875e+01 -4.203795242309570312e+01 6.004811719476782494e-14 -2.001604075898850282e-14 1.200962445539310169e-14 -2.001604075898850282e-15
2.710000000000000000e+02 7.948686981201171875e+01 -4.119103622436523438e+01 -6.004812227696550847e-15 -9.407538902614712151e-14 -3.002405859738391247e-14 -1.601283260719080226e-14
2.720000000000000000e+02 7.506038665771484375e+01 -3.694903945922851562e+01 -6.004812227696550847e-15 -1.741395520621011328e-13 -5.404330750817011586e-14 8.006416303595401129e-15
2.730000000000000000e+02 4.907177734375000000e+01 -3.587422943115234375e+01 -6.054852393121493148e-14 4.553649124439118623e-14 -4.503608959014176322e-15 -2.001604075898850282e-14
2.740000000000000000e+02 1.350231838226318359e+01 -4.081174468994140625e+01 -2.326864558237912162e-13 4.778829784148064252e-13 7.355895000104098469e-14 -4.153328478665938017e-14
2.750000000000000000e+02 1.616783142089843750e+00 -4.194162368774414062e+01 8.006416303595401129e-15 -1.681347389873716347e-13 -4.803849782157240678e-14 1.401122768425900472e-14
2.760000000000000000e+02 7.962218475341796875e+01 -1.836741447448730469e+01 1.401122768425900472e-14 3.262614516660183872e-13 1.020818019416107336e-13 4.803849782157240678e-14
2.770000000000000000e+02 7.886433410644531250e+01 -1.834113311767578125e+01 9.607699564314481355e-14 2.241796429481440756e-13 9.607699564314481355e-14 -1.601283260719080226e-14
2.780000000000000000e+02 7.810166168212890625e+01 -1.831820678710937500e+01 -3.402726844324750755e-14 2.141716301919463494e-13 5.404330750817011586e-14 0.000000000000000000e+00
2.790000000000000000e+02 7.733512115478515625e+01 -1.829630088806152344e+01 -4.003208151797700565e-14 -2.001604042017532392e-13 -7.205774334422682115e-14 7.606094980195862720e-14
2.800000000000000000e+02 7.964341735839843750e+01 -2.072489547729492188e+01 -9.807859548387892756e-14 -4.203368474684290867e-14 -4.203368474684290867e-14 9.207378240914942946e-14
2.810000000000000000e+02 7.497037506103515625e+01 -1.963356018066406250e+01 -1.801443651368306309e-13 -2.602085213965210642e-13 -1.321058605389946461e-13 5.204170427930421283e-14
2.820000000000000000e+02 7.964775848388671875e+01 -2.230029869079589844e+01 -1.220978477827969200e-13 -9.807859548387892756e-14 -6.605293026949732305e-14 -6.004811719476782494e-14
2.830000000000000000e+02 7.964605712890625000e+01 -2.467462348937988281e+01 -1.180946345488015359e-13 -1.421138868477195283e-13 -7.806255641895631925e-14 1.200962445539310169e-14
2.840000000000000000e+02 7.964537811279296875e+01 -2.546624183654785156e+01 1.801443583605670529e-14 -3.582871304329271478e-13 -1.020818019416107336e-13 9.607699564314481355e-14
2.850000000000000000e+02 7.964498901367187500e+01 -2.625715255737304688e+01 -4.603689120457471473e-14 -2.942358000041639388e-13 -1.020818019416107336e-13 4.003208151797700565e-14
2.860000000000000000e+02 7.893206024169921875e+01 -2.541490936279296875e+01 -2.602085213965210642e-14 -1.941555911270237411e-13 -6.605293026949732305e-14 -6.004811719476782494e-14
2.870000000000000000e+02 7.964132690429687500e+01 -2.783934402465820312e+01 -1.401122768425900472e-14 -3.262614516660183872e-13 -1.020818019416107336e-13 2.001604075898850282e-14
2.880000000000000000e+02 7.963100433349609375e+01 -3.021045303344726562e+01 2.201764398785440585e-14 -4.023224082442405924e-13 -1.140914348673333079e-13 -8.006416303595401129e-15
2.890000000000000000e+02 7.962766265869140625e+01 -3.100078964233398438e+01 2.802245536851800944e-14 -3.082470259943570490e-13 -8.406736949368581735e-14 -4.003208151797700565e-14
2.900000000000000000e+02 7.962508392333984375e+01 -3.179078865051269531e+01 -5.204170427930421283e-14 -3.883111822540474822e-13 -1.321058605389946461e-13 4.803849782157240678e-14
2.910000000000000000e+02 7.962167358398437500e+01 -3.257832717895507812e+01 -2.602085213965210642e-14 -1.941555911270237411e-13 -6.605293026949732305e-14 4.003208151797700565e-14
2.920000000000000000e+02 7.888429260253906250e+01 -3.173178863525390625e+01 4.003208151797700565e-14 -1.200962343895356499e-13 -2.401924891078620339e-14 2.802245536851800944e-14
2.930000000000000000e+02 7.959738159179687500e+01 -3.415880584716796875e+01 -1.481186999224490264e-13 -2.922341730583755126e-13 -1.321058605389946461e-13 1.601283260719080226e-14
2.940000000000000000e+02 7.953514862060546875e+01 -3.656405639648437500e+01 5.004010105043830980e-14 -7.005614350349270714e-14 -6.004812227696550847e-15 2.401924891078620339e-14
2.950000000000000000e+02 7.954798126220703125e+01 -3.736196899414062500e+01 1.401122768425900472e-14 -1.541235129971785245e-13 -4.203368474684290867e-14 -4.003208151797700565e-14
2.960000000000000000e+02 7.958954620361328125e+01 -3.814579010009765625e+01 1.801443583605670529e-14 -3.582871304329271478e-13 -1.020818019416107336e-13 -4.403528797570881170e-14
2.970000000000000000e+02 7.963307189941406250e+01 -3.891433334350585938e+01 -7.005614350349270714e-14 -3.502807039649363796e-13 -1.261010474642651480e-13 8.006416303595401129e-15
2.980000000000000000e+02 7.955219268798828125e+01 -4.042731094360351562e+01 -1.160930347080674219e-13 -3.242598518252842732e-13 -1.321058605389946461e-13 4.003208151797700565e-15
2.990000000000000000e+02 7.963854980468750000e+01 -1.993891525268554688e+01 -7.806255641895631925e-14 5.804651735403371093e-14 -6.004812227696550847e-15 -3.202566521438160452e-14
3.000000000000000000e+02 7.360464477539062500e+01 -1.811505317687988281e+01 -2.101684169579509653e-13 -9.007218256841531545e-14 -9.007218256841531545e-14 3.202566521438160452e-14
3.010000000000000000e+02 7.433061981201171875e+01 -1.815529632568359375e+01 -1.381106736137241442e-13 -2.421940957248597259e-13 -1.140914348673333079e-13 -1.080866150163402317e-13
3.020000000000000000e+02 7.217948913574218750e+01 -1.816909408569335938e+01 -3.402726844324750755e-14 2.141716301919463494e-13 5.404330750817011586e-14 4.803849782157240678e-14
3.030000000000000000e+02 7.071220397949218750e+01 -1.832374000549316406e+01 -4.803849782157240678e-14 4.803849782157240678e-14 0.000000000000000000e+00 1.601283260719080226e-14
3.040000000000000000e+02 6.877655029296875000e+01 -1.946515655517578125e+01 8.606896933441993136e-14 -1.461170865291877563e-13 -1.801443583605670529e-14 1.601283260719080226e-14
3.050000000000000000e+02 6.898626708984375000e+01 -1.847071838378906250e+01 -7.806255641895631925e-14 -2.622101212372551782e-13 -1.020818019416107336e-13 -1.200962445539310169e-14
3.060000000000000000e+02 7.000088500976562500e+01 -2.142727470397949219e+01 -1.263512525265545958e-14 -5.116600096085124894e-14 -1.914033913460143344e-14 4.178348476675114442e-14
3.070000000000000000e+02 7.072743988037109375e+01 -1.913501739501953125e+01 1.010810020212436766e-13 8.907137587178468041e-14 5.704571743366665393e-14 -6.405133042876320904e-14
3.080000000000000000e+02 6.709044647216796875e+01 -2.328123474121093750e+01 1.238492544197028478e-13 1.288532540215381328e-13 7.581074982186686295e-14 1.847730681566600586e-13
3.090000000000000000e+02 6.656798553466796875e+01 -2.389403724670410156e+01 1.084619183746096671e-13 1.730136487635564047e-13 8.444266607569167471e-14 1.097129182750684884e-13
3.100000000000000000e+02 6.492235565185546875e+01 -2.563669395446777344e+01 2.289647421313545372e-13 1.072421909305634746e-13 1.008620744975645411e-13 5.000882520589389202e-14
3.110000000000000000e+02 6.436431884765625000e+01 -2.621005249023437500e+01 7.743705308059511960e-14 7.393424658304684205e-14 4.541139125434530410e-14 1.786431517037528893e-13
3.120000000000000000e+02 6.322422027587890625e+01 -2.735027503967285156e+01 1.215974478226133915e-13 1.235990476633475055e-13 7.355895000104098469e-14 4.603689120457471473e-14
3.130000000000000000e+02 6.051644897460937500e+01 -2.912174224853515625e+01 1.521218996039172544e-13 8.807057595141762341e-14 7.205774334422682115e-14 7.305854326459387815e-14
3.140000000000000000e+02 6.124517440795898438e+01 -2.877197074890136719e+01 1.321058605389946461e-13 -1.200962445539310169e-14 3.602887167211341057e-14 2.201764398785440585e-14
3.150000000000000000e+02 5.739213943481445312e+01 -3.013842201232910156e+01 6.805453688649501509e-14 -1.080866150163402317e-13 -1.200962445539310169e-14 5.404330750817011586e-14
3.160000000000000000e+02 5.818924713134765625e+01 -2.992283439636230469e+01 -1.200962445539310169e-14 5.204170427930421283e-14 1.200962445539310169e-14 1.601283260719080226e-14
3.170000000000000000e+02 5.658548355102539062e+01 -3.029922485351562500e+01 6.004811719476782494e-14 -2.001604075898850282e-14 1.200962445539310169e-14 -4.803849782157240678e-14
3.180000000000000000e+02 5.493582916259765625e+01 -3.037988281250000000e+01 1.261010474642651480e-13 5.404330750817011586e-14 5.404330750817011586e-14 1.401122768425900472e-14
3.190000000000000000e+02 5.328155899047851562e+01 -3.031166839599609375e+01 0.000000000000000000e+00 0.000000000000000000e+00 0.000000000000000000e+00 -8.006416303595401129e-15
3.200000000000000000e+02 5.244722366333007812e+01 -3.023118972778320312e+01 3.602887167211341057e-14 -7.606094980195862720e-14 -1.200962445539310169e-14 -4.403528797570881170e-14
3.210000000000000000e+02 5.002136993408203125e+01 -2.949370956420898438e+01 -2.802245536851800944e-14 -1.200962445539310169e-14 -1.200962445539310169e-14 -5.604491073703601889e-14
3.220000000000000000e+02 4.929545593261718750e+01 -2.907889556884765625e+01 1.251002526260957745e-14 1.426142868079030568e-13 4.653729455289003225e-14 -1.120898214740720378e-13
3.230000000000000000e+02 4.802274703979492188e+01 -2.802104377746582031e+01 1.105573491371088235e-13 4.738171863866678934e-14 4.738171863866678934e-14 -4.778829445334885351e-14
3.240000000000000000e+02 4.652214050292968750e+01 -2.606751060485839844e+01 2.602085213965210642e-14 1.941555911270237411e-13 6.605293026949732305e-14 4.403528797570881170e-14
3.250000000000000000e+02 4.567289352416992188e+01 -1.934409904479980469e+01 8.546849209270512837e-13 3.662935297958636038e-13 3.662935297958636038e-13 4.003208084035064784e-13
3.260000000000000000e+02 4.559974670410156250e+01 -2.208232498168945312e+01 9.207378240914942946e-14 4.283432603838926989e-13 1.561251128379126385e-13 4.803849782157240678e-14
3.270000000000000000e+02 7.222779846191406250e+01 -1.882741737365722656e+01 -2.201764398785440585e-14 -2.381908689383371858e-13 -7.806255641895631925e-14 -1.040834085586084257e-13
3.280000000000000000e+02 6.983761596679687500e+01 -1.843841934204101562e+01 1.200962343895356499e-13 1.200962343895356499e-13 7.205774334422682115e-14 4.003208151797700565e-14
3.290000000000000000e+02 6.807768249511718750e+01 -2.299999427795410156e+01 6.305052373213257400e-14 2.702165375408505793e-14 2.702165375408505793e-14 1.281026608575264181e-13
3.300000000000000000e+02 7.359216308593750000e+01 -1.875544738769531250e+01 -1.060850151756061177e-13 -2.742197473867141744e-13 -1.140914348673333079e-13 -5.204170427930421283e-14
3.310000000000000000e+02 6.980122375488281250e+01 -1.935667991638183594e+01 -7.606094980195862720e-14 3.602887167211341057e-14 -1.200962445539310169e-14 2.401924891078620339e-14
3.320000000000000000e+02 6.830879211425781250e+01 -2.116996192932128906e+01 9.607699564314481355e-14 -1.601283260719080226e-14 2.401924891078620339e-14 1.200962445539310169e-14
3.330000000000000000e+02 4.203020095825195312e+01 -1.763040542602539062e+01 -2.001604075898850282e-14 3.803047557860567141e-13 1.080866150163402317e-13 -1.721379386688398627e-13
3.340000000000000000e+02 4.126134490966796875e+01 -1.617921638488769531e+01 1.060850151756061177e-13 3.402726844324750755e-14 4.203368474684290867e-14 7.906335633932337625e-14
3.350000000000000000e+02 3.943255996704101562e+01 -1.494014835357666016e+01 5.004010189747125706e-15 -9.507618894651417851e-14 -2.702165375408505793e-14 -8.606896933441993136e-14
3.360000000000000000e+02 3.939805221557617188e+01 -1.745519447326660156e+01 -1.050842118671072717e-14 3.157530389496371326e-13 9.157338244896590096e-14 -1.321058605389946461e-13
3.370000000000000000e+02 7.454669189453125000e+01 -2.148667716979980469e+01 1.190954344691685929e-13 -2.692157477848788893e-13 -4.503609128420765773e-14 1.321058605389946461e-13
3.380000000000000000e+02 7.506732940673828125e+01 -1.820106697082519531e+01 -1.521218996039172544e-13 -2.481988952470620680e-13 -1.200962343895356499e-13 4.803849782157240678e-14
3.390000000000000000e+02 4.246181488037109375e+01 -1.704264068603515625e+01 1.160930347080674219e-13 4.003208151797700565e-15 3.602887167211341057e-14 -1.481186999224490264e-13
3.400000000000000000e+02 4.264820861816406250e+01 -1.808987808227539062e+01 1.476182999622654979e-13 1.751403587587317678e-14 4.953969770212299228e-14 -1.060850151756061177e-13
3.410000000000000000e+02 4.142771530151367188e+01 -1.717984390258789062e+01 1.308548674147994029e-13 1.018316019615189694e-13 6.980593674713736485e-14 7.606094980195862720e-14
3.420000000000000000e+02 4.500953674316406250e+01 -2.055636787414550781e+01 4.003208151797700565e-14 2.001604042017532392e-13 7.205774334422682115e-14 -1.000802021008766196e-13
3.430000000000000000e+02 4.437192916870117188e+01 -1.837222290039062500e+01 1.120898214740720378e-13 2.081668171172168513e-13 9.607699564314481355e-14 -8.606896933441993136e-14
3.440000000000000000e+02 1.262107563018798828e+01 -2.494295358657836914e+00 -5.864700001675937635e-13 2.061652172764827373e-13 -1.140914348673333079e-13 -4.403528797570881170e-14
3.450000000000000000e+02 9.603961944580078125e+00 -1.839019417762756348e+00 -6.024827988934666756e-13 -2.582069215557869502e-13 -2.582069215557869502e-13 -2.321860694161348437e-13
3.460000000000000000e+02 1.034217166900634766e+01 -2.507124900817871094e+00 -5.304250419967126984e-13 -9.007218256841531545e-14 -1.861491782115601290e-13 -2.562053217150528361e-13
3.470000000000000000e+02 8.836082458496093750e+00 -1.841373324394226074e+00 -3.803047557860567141e-13 -3.002405995263662808e-13 -2.041636038832214672e-13 -8.006416303595401129e-14
3.480000000000000000e+02 1.185698127746582031e+01 -2.504132509231567383e+00 -6.765421556309547668e-13 -2.441956955655938399e-13 -2.762213472274482884e-13 -1.521218996039172544e-13
3.490000000000000000e+02 2.306730079650878906e+01 -2.710417509078979492e+00 2.982389996856321668e-13 2.421940957248597259e-13 1.621299259126421366e-13 4.403528865333516951e-13
3.500000000000000000e+02 2.259875488281250000e+01 -4.989470005035400391e+00 5.804651735403371093e-14 1.621299259126421366e-13 6.605293026949732305e-14 3.562855034871387216e-13
3.510000000000000000e+02 2.246781730651855469e+01 -5.724998474121093750e+00 9.807859548387892756e-14 3.622903301143953758e-13 1.381106736137241442e-13 4.803849375581425996e-13
3.520000000000000000e+02 7.893585968017578125e+01 -2.303500366210937500e+01 3.602887167211341057e-14 -7.606094980195862720e-14 -1.200962445539310169e-14 -2.802245536851800944e-14
3.530000000000000000e+02 7.890356445312500000e+01 -1.989736366271972656e+01 -3.602887167211341057e-14 7.606094980195862720e-14 1.200962445539310169e-14 5.604491073703601889e-14
3.540000000000000000e+02 7.812794494628906250e+01 -1.909206581115722656e+01 -6.204972381176551699e-14 -1.180946345488015359e-13 -5.404330750817011586e-14 1.200962343895356499e-13
3.550000000000000000e+02 7.738770294189453125e+01 -2.061468505859375000e+01 -1.801443583605670529e-14 3.803047490097931360e-14 6.004812227696550847e-15 8.406736949368581735e-14
3.560000000000000000e+02 1.493673229217529297e+01 -1.744897603988647461e+00 -6.765421556309547668e-13 7.606094980195862720e-14 -1.801443651368306309e-13 -1.160930347080674219e-13
3.570000000000000000e+02 1.569284629821777344e+01 -2.991521120071411133e+00 -4.883913911311876799e-13 -7.205774334422682115e-14 -1.681347389873716347e-13 4.003208151797700565e-15
3.580000000000000000e+02 1.339053058624267578e+01 -2.473481893539428711e+00 -5.484394947734283488e-13 -5.204170427930421283e-14 -1.801443651368306309e-13 -9.607699564314481355e-14
3.590000000000000000e+02 1.415930747985839844e+01 -2.442481756210327148e+00 -5.484394947734283488e-13 -5.204170427930421283e-14 -1.801443651368306309e-13 4.003208151797700565e-15
3.600000000000000000e+02 8.066729545593261719e+00 -1.845827341079711914e+00 -4.223384337566360447e-13 -3.182550251980276190e-13 -2.221780431074099615e-13 -2.081668171172168513e-13
3.610000000000000000e+02 1.183944702148437500e+01 -3.166224479675292969e+00 -5.184154429523080143e-13 9.807859548387892756e-14 -1.261010474642651480e-13 -1.801443651368306309e-13
3.620000000000000000e+02 7.277421951293945312e+00 -2.552655458450317383e+00 -2.962373998448980528e-13 -2.642117210779892922e-13 -1.681347389873716347e-13 -2.602085213965210642e-13
3.630000000000000000e+02 1.059890151023864746e+00 -8.387722969055175781e+00 -4.003208151797700565e-14 -5.204170427930421283e-13 -1.681347389873716347e-13 8.006416303595401129e-15
3.640000000000000000e+02 8.052318572998046875e+00 -2.531458616256713867e+00 -3.422742774969456114e-13 -2.381908689383371858e-13 -1.741395520621011328e-13 -2.001604042017532392e-13
3.650000000000000000e+02 5.704030036926269531e+00 -2.599925041198730469e+00 -2.281828697346666157e-13 -5.204170427930421283e-14 -8.406736949368581735e-14 -2.281828697346666157e-13
3.660000000000000000e+02 3.798998594284057617e-01 -5.929835319519042969e+00 -1.321058605389946461e-13 -3.082470259943570490e-13 -1.321058605389946461e-13 1.200962445539310169e-14
3.670000000000000000e+02 3.986047506332397461e-01 -5.119265556335449219e+00 8.006416303595401129e-14 -2.401924687790712998e-13 -4.803849782157240678e-14 6.405133042876320904e-14
3.680000000000000000e+02 1.146963715553283691e+00 -1.874813437461853027e+00 -5.204170427930421283e-14 -6.805453688649501509e-14 -3.602887167211341057e-14 -8.006416303595401129e-15
3.690000000000000000e+02 3.889749646186828613e-01 -2.688770294189453125e+00 7.806255641895631925e-14 -5.804651735403371093e-14 6.004812227696550847e-15 4.003208151797700565e-14
3.700000000000000000e+02 4.144656956195831299e-01 -4.306380271911621094e+00 -3.202566521438160452e-14 -1.281026608575264181e-13 -4.803849782157240678e-14 -3.202566521438160452e-14
3.710000000000000000e+02 1.875486373901367188e+01 -2.000824928283691406e+00 -5.644523477094098851e-13 1.240994476235310340e-13 -1.321058605389946461e-13 -7.205774334422682115e-14
3.720000000000000000e+02 1.724168395996093750e+01 -1.575298070907592773e+00 -7.325870595917272077e-13 5.204170427930421283e-14 -2.041636038832214672e-13 0.000000000000000000e+00
3.730000000000000000e+02 1.801194763183593750e+01 -1.497937083244323730e+00 -5.684555473908781131e-13 1.681347389873716347e-13 -1.200962343895356499e-13 -3.602887167211341057e-14
3.740000000000000000e+02 1.945533943176269531e+01 -3.068342924118041992e+00 -2.522020949285302960e-13 -1.080866150163402317e-13 -1.080866150163402317e-13 -8.006416303595401129e-14
3.750000000000000000e+02 1.645701408386230469e+01 -2.275131940841674805e+00 -4.803849375581425996e-13 1.601283260719080226e-13 -9.607699564314481355e-14 -6.405133042876320904e-14
3.760000000000000000e+02 1.722129821777343750e+01 -2.190796852111816406e+00 -6.705373561087524248e-13 1.701363388281057487e-13 -1.501202997631831404e-13 8.006416303595401129e-15
3.770000000000000000e+02 7.954781341552734375e+01 -3.575991821289062500e+01 -3.402726844324750755e-14 -1.060850151756061177e-13 -4.203368474684290867e-14 3.202566521438160452e-14
3.780000000000000000e+02 7.957266235351562500e+01 -3.495766067504882812e+01 7.205774334422682115e-14 -1.521218996039172544e-13 -2.401924891078620339e-14 8.406736949368581735e-14
3.790000000000000000e+02 7.963497161865234375e+01 -2.942134666442871094e+01 -2.201764398785440585e-14 -2.381908689383371858e-13 -7.806255641895631925e-14 0.000000000000000000e+00
3.800000000000000000e+02 7.963848876953125000e+01 -2.863106727600097656e+01 -3.402726844324750755e-14 -4.263416605431585849e-13 -1.381106736137241442e-13 -1.601283260719080226e-14
3.810000000000000000e+02 7.893244171142578125e+01 -2.462099456787109375e+01 -1.801443583605670529e-14 -2.822261738547049426e-13 -9.007218256841531545e-14 4.803849782157240678e-14
3.820000000000000000e+02 7.964629364013671875e+01 -2.388435745239257812e+01 5.404330750817011586e-14 -1.140914348673333079e-13 -1.801443583605670529e-14 0.000000000000000000e+00
3.830000000000000000e+02 7.964674377441406250e+01 -2.151121902465820312e+01 1.060850151756061177e-13 -4.603689120457471473e-14 1.801443583605670529e-14 -2.001604075898850282e-14
3.840000000000000000e+02 7.893025970458984375e+01 -2.145114707946777344e+01 -1.401122768425900472e-14 -6.004812227696550847e-15 -6.004812227696550847e-15 1.080866150163402317e-13
3.850000000000000000e+02 7.821733856201171875e+01 -2.299903869628906250e+01 -2.001604075898850282e-15 -1.381106736137241442e-13 -4.203368474684290867e-14 1.080866150163402317e-13
3.860000000000000000e+02 7.892556762695312500e+01 -2.778660392761230469e+01 -4.203368474684290867e-14 -3.382710778154773834e-13 -1.140914348673333079e-13 -2.802245536851800944e-14
3.870000000000000000e+02 7.893114471435546875e+01 -2.699531173706054688e+01 -3.402726844324750755e-14 -4.263416605431585849e-13 -1.381106736137241442e-13 2.802245536851800944e-14
3.880000000000000000e+02 7.964373016357421875e+01 -2.704793739318847656e+01 1.281026608575264181e-13 -1.281026608575264181e-13 0.000000000000000000e+00 -2.001604075898850282e-14
3.890000000000000000e+02 7.891844177246093750e+01 -2.857868385314941406e+01 -6.004811719476782494e-14 -3.002405995263662808e-13 -1.080866150163402317e-13 -2.001604075898850282e-14
3.900000000000000000e+02 7.890929412841796875e+01 -2.936839103698730469e+01 2.401924891078620339e-14 -2.642117210779892922e-13 -7.205774334422682115e-14 -2.401924891078620339e-14
3.910000000000000000e+02 7.818096160888671875e+01 -3.012283515930175781e+01 -2.001604075898850282e-15 -1.381106736137241442e-13 -4.203368474684290867e-14 1.601283260719080226e-14
3.920000000000000000e+02 7.881533813476562500e+01 -3.407232284545898438e+01 1.100882216333379238e-13 -9.007218256841531545e-14 6.004812227696550847e-15 4.003208151797700565e-14
3.930000000000000000e+02 7.885926818847656250e+01 -3.328411483764648438e+01 -8.206576287668812530e-14 -2.181748434259417335e-13 -9.007218256841531545e-14 4.003208151797700565e-15
3.940000000000000000e+02 7.961399841308593750e+01 -3.336574554443359375e+01 2.041636038832214672e-13 -4.003208151797700565e-15 6.004811719476782494e-14 6.405133042876320904e-14
3.950000000000000000e+02 7.755246734619140625e+01 -3.752531051635742188e+01 -3.002406113848275424e-15 -2.071660171968497943e-13 -6.305052373213257400e-14 1.040834085586084257e-13
3.960000000000000000e+02 7.874385070800781250e+01 -3.819751739501953125e+01 4.003208151797700565e-14 -1.200962343895356499e-13 -2.401924891078620339e-14 -2.001604075898850282e-14
3.970000000000000000e+02 7.835420989990234375e+01 -3.911848449707031250e+01 -2.351884725653678038e-14 -1.015814019814272051e-13 -3.753007494079578510e-14 1.160930347080674219e-13
3.980000000000000000e+02 7.890922546386718750e+01 -3.950933837890625000e+01 1.100882199392720293e-14 -3.612895301940283188e-13 -1.050842084789754827e-13 7.205774334422682115e-14
3.990000000000000000e+02 7.962192535400390625e+01 -3.967161560058593750e+01 9.207378240914942946e-14 -3.722983564231202580e-13 -8.406736949368581735e-14 -3.202566521438160452e-14
4.000000000000000000e+02 7.866417694091796875e+01 -4.013710784912109375e+01 -4.353488801552528320e-14 -2.016616040823038247e-13 -7.355895000104098469e-14 1.160930347080674219e-13
4.010000000000000000e+02 7.832301330566406250e+01 -4.085297012329101562e+01 1.551243095294137925e-14 -1.306046606584440606e-13 -3.452766840343103605e-14 3.803047490097931360e-14
4.020000000000000000e+02 7.841840362548828125e+01 -4.186571502685546875e+01 3.602887167211341057e-14 -7.606094980195862720e-14 -1.200962445539310169e-14 4.403528797570881170e-14
4.030000000000000000e+02 7.888643646240234375e+01 -1.911817741394042969e+01 -3.202566521438160452e-14 3.202566521438160452e-14 0.000000000000000000e+00 -4.403528797570881170e-14
4.040000000000000000e+02 2.273766899108886719e+01 -4.246425151824951172e+00 3.402726776562114974e-13 4.203368339159019307e-13 2.281828697346666157e-13 5.484394947734283488e-13
4.050000000000000000e+02 2.190195846557617188e+01 -8.847815394401550293e-01 -2.592077214761540072e-13 -1.110890215537049808e-13 -1.110890215537049808e-13 -2.201764432666758475e-13
4.060000000000000000e+02 2.178604125976562500e+01 -5.684013366699218750e+00 -5.804651735403371093e-14 1.581267126786467525e-13 3.002405859738391247e-14 4.763817378766743715e-13
4.070000000000000000e+02 4.492522811889648438e+01 -2.402544212341308594e+01 1.120898214740720378e-13 1.281026608575264181e-13 7.205774334422682115e-14 -1.240994476235310340e-13
4.080000000000000000e+02 4.480018615722656250e+01 -2.308282089233398438e+01 4.603689120457471473e-14 1.341074739322559162e-13 5.404330750817011586e-14 -8.406736949368581735e-14
4.090000000000000000e+02 4.639334869384765625e+01 -2.725174140930175781e+01 -8.606896933441993136e-14 6.605293026949732305e-14 -6.004812227696550847e-15 -2.952365863720038397e-14
4.100000000000000000e+02 4.595568466186523438e+01 -2.649452400207519531e+01 7.005614350349270714e-14 1.901523778930283570e-13 7.806255641895631925e-14 -4.403528797570881170e-14
4.110000000000000000e+02 4.695346832275390625e+01 -2.676735115051269531e+01 -2.101684237342145434e-14 -9.007217918028352643e-15 -9.007217918028352643e-15 2.001604075898850282e-14
4.120000000000000000e+02 4.883022308349609375e+01 -2.983040237426757812e+01 -8.206576287668812530e-14 -5.804651735403371093e-14 -4.203368474684290867e-14 -1.401122870069854143e-13
4.130000000000000000e+02 6.710527038574218750e+01 -2.434342002868652344e+01 5.304250758780305885e-14 -2.301844560228735737e-14 9.007217918028352643e-15 1.321058605389946461e-13
4.140000000000000000e+02 6.861164093017578125e+01 -2.035681533813476562e+01 -9.207378240914942946e-14 -1.080866150163402317e-13 -6.004811719476782494e-14 6.204972381176551699e-14
4.150000000000000000e+02 6.175408172607421875e+01 -2.948779487609863281e+01 1.871499781319271860e-13 -5.704571743366665393e-14 3.903127820947815962e-14 -2.001604075898850282e-14
4.160000000000000000e+02 6.312290954589843750e+01 -2.845267677307128906e+01 3.438693218517883954e-14 2.434919941455421233e-13 8.336368162616125677e-14 -1.554370679748579703e-14
4.170000000000000000e+02 5.683911514282226562e+01 -3.131045150756835938e+01 5.504411081666896188e-14 -4.503609128420765773e-14 3.002406113848275424e-15 -2.001604075898850282e-14
4.180000000000000000e+02 4.962136077880859375e+01 -3.030250549316406250e+01 4.003208151797700565e-15 -1.240994476235310340e-13 -3.602887167211341057e-14 -1.381106736137241442e-13
4.190000000000000000e+02 5.048888397216796875e+01 -3.068939590454101562e+01 -4.603689120457471473e-14 2.602085213965210642e-14 -6.004812227696550847e-15 -5.804651735403371093e-14
4.200000000000000000e+02 5.898514556884765625e+01 -2.970015716552734375e+01 6.605293026949732305e-14 7.405934996122451319e-14 4.203368474684290867e-14 2.802245536851800944e-14
4.210000000000000000e+02 4.747424316406250000e+01 -2.864677429199218750e+01 6.405133042876320904e-14 9.607699564314481355e-14 4.803849782157240678e-14 -1.663833255742021289e-14
4.220000000000000000e+02 5.501365280151367188e+01 -3.230475616455078125e+01 3.803047490097931360e-14 6.204972381176551699e-14 3.002405859738391247e-14 5.204170427930421283e-14
4.230000000000000000e+02 5.939432525634765625e+01 -3.052770042419433594e+01 5.204170427930421283e-14 6.805453688649501509e-14 3.602887167211341057e-14 9.207378240914942946e-14
4.240000000000000000e+02 5.410929870605468750e+01 -3.035285758972167969e+01 1.200962343895356499e-13 -4.003208151797700565e-14 2.401924891078620339e-14 -7.205774334422682115e-14
4.250000000000000000e+02 6.602716827392578125e+01 -2.448351860046386719e+01 5.954771723458429644e-14 8.556856937423640286e-14 4.353488801552528320e-14 9.995509872269894847e-14
4.260000000000000000e+02 6.661709594726562500e+01 -2.606574249267578125e+01 5.404330750817011586e-14 1.261010474642651480e-13 5.404330750817011586e-14 1.730136487635564047e-13
4.270000000000000000e+02 6.101137161254882812e+01 -2.989534950256347656e+01 -1.000802037949425141e-15 9.107298248878237246e-14 2.702165375408505793e-14 5.604491073703601889e-14
4.280000000000000000e+02 5.416449356079101562e+01 -3.129448509216308594e+01 4.003208151797700565e-14 2.001604042017532392e-13 7.205774334422682115e-14 4.403528797570881170e-14
4.290000000000000000e+02 4.492670440673828125e+01 -2.131236839294433594e+01 1.621299259126421366e-13 2.982389996856321668e-13 1.381106736137241442e-13 8.406736949368581735e-14
4.300000000000000000e+02 5.593183517456054688e+01 -3.138854408264160156e+01 2.001604075898850282e-14 -6.004811719476782494e-14 -1.200962445539310169e-14 4.403528797570881170e-14
4.310000000000000000e+02 6.022199249267578125e+01 -3.023298263549804688e+01 8.706977603105056640e-14 8.306656957331876034e-14 5.104090097080536681e-14 6.405133042876320904e-14
4.320000000000000000e+02 4.558000183105468750e+01 -2.570895957946777344e+01 -1.411130869273524713e-13 3.102486190588275849e-14 -3.302646513474866152e-14 -6.405133042876320904e-14
4.330000000000000000e+02 4.523954772949218750e+01 -2.489057350158691406e+01 -2.602085213965210642e-14 2.862293735361731706e-13 7.806255641895631925e-14 4.003208151797700565e-15
4.340000000000000000e+02 5.141196060180664062e+01 -3.098783683776855469e+01 4.203368474684290867e-14 1.801443583605670529e-14 1.801443583605670529e-14 -5.604491073703601889e-14
4.350000000000000000e+02 6.658079528808593750e+01 -2.496276473999023438e+01 5.929751725449253219e-14 2.084170238735721936e-13 8.031436301604577555e-14 2.081668171172168513e-13
4.360000000000000000e+02 4.690296936035156250e+01 -2.797029495239257812e+01 -7.180754336413505690e-14 -6.079872391130669573e-14 -3.978187814975345238e-14 1.251002547436781426e-15
4.370000000000000000e+02 4.566725158691406250e+01 -2.049452781677246094e+01 2.822261738547049426e-13 2.582069215557869502e-13 1.621299259126421366e-13 1.601283260719080226e-14
4.380000000000000000e+02 7.166290283203125000e+01 -1.962415504455566406e+01 -4.603689120457471473e-14 -2.942358000041639388e-13 -1.020818019416107336e-13 -1.200962445539310169e-14
4.390000000000000000e+02 7.150901031494140625e+01 -1.896274185180664062e+01 2.201764398785440585e-14 2.381908689383371858e-13 7.806255641895631925e-14 4.403528797570881170e-14
4.400000000000000000e+02 6.547717285156250000e+01 -2.506208992004394531e+01 -1.251002526260957745e-14 1.576263127184632240e-13 4.353488801552528320e-14 8.362951444632754638e-14
4.410000000000000000e+02 6.603544616699218750e+01 -2.555659103393554688e+01 7.881315635923161200e-14 3.377706846315574329e-14 3.377706846315574329e-14 7.105694342385976414e-14
4.420000000000000000e+02 4.418887710571289062e+01 -2.130331230163574219e+01 7.205774334422682115e-14 1.681347389873716347e-13 7.205774334422682115e-14 -2.361892690976030718e-13
4.430000000000000000e+02 6.491493988037109375e+01 -2.671647453308105469e+01 1.773921585795576461e-13 3.505309107212917219e-13 1.583769194350020948e-13 -2.001604075898850282e-15
4.440000000000000000e+02 6.434152221679687500e+01 -2.729557418823242188e+01 -1.000802037949425141e-15 9.107298248878237246e-14 2.702165375408505793e-14 1.010810020212436766e-13
4.450000000000000000e+02 4.485771942138671875e+01 -2.214916801452636719e+01 -8.006416303595401129e-15 4.083272077664429345e-13 1.200962343895356499e-13 -1.721379386688398627e-13
4.460000000000000000e+02 6.547837066650390625e+01 -2.613843536376953125e+01 1.000802037949425141e-15 2.291836696550336727e-13 6.905533680686207210e-14 5.004010105043830980e-14
4.470000000000000000e+02 2.976174926757812500e+01 -2.887169837951660156e+01 -1.050842084789754827e-13 -4.503609128420765773e-14 -4.503609128420765773e-14 -3.202566521438160452e-14
4.480000000000000000e+02 3.265059280395507812e+01 -2.938349723815917969e+01 -4.303448466720996568e-14 7.305854326459387815e-14 9.007217918028352643e-15 -5.804651735403371093e-14
4.490000000000000000e+02 1.579345893859863281e+01 -1.279733085632324219e+01 6.315060778992742652e-13 1.019817260153321747e-12 4.953970176788113911e-13 7.280834463975482951e-13
4.500000000000000000e+02 1.937357902526855469e+01 -1.175945377349853516e+01 6.585277028542391164e-13 -3.803047490097931360e-14 1.861491782115601290e-13 3.042437992078345088e-13
4.510000000000000000e+02 3.634241104125976562e+01 -2.306607627868652344e+01 9.207378240914942946e-14 1.080866150163402317e-13 6.004811719476782494e-14 -1.200962445539310169e-14
4.520000000000000000e+02 2.534877204895019531e+01 -3.121772003173828125e+01 6.004811719476782494e-14 3.002405995263662808e-13 1.080866150163402317e-13 -3.202566521438160452e-13
4.530000000000000000e+02 4.684638082981109619e-01 -3.797785568237304688e+01 4.003208151797700565e-15 -3.642919299551294898e-13 -1.080866150163402317e-13 -3.202566521438160452e-14
4.540000000000000000e+02 1.180846095085144043e+00 -3.702881622314453125e+01 -1.851483647386659159e-13 -4.453568861351869801e-13 -1.891515779726613000e-13 -8.006416303595401129e-15
4.550000000000000000e+02 1.072971224784851074e+00 -7.582004547119140625e+00 4.203368474684290867e-14 -4.623705389915355735e-13 -1.261010474642651480e-13 -2.481988952470620680e-13
4.560000000000000000e+02 1.189361095428466797e+00 -3.635533523559570312e+01 -9.207378240914942946e-14 -2.682149478645118323e-13 -1.080866150163402317e-13 1.200962445539310169e-14
4.570000000000000000e+02 1.062154054641723633e+00 -1.561540985107421875e+01 -1.941555911270237411e-13 -1.226983250245117230e-12 -4.263416605431585849e-13 -5.204170427930421283e-14
4.580000000000000000e+02 1.128748297691345215e+00 -2.923658752441406250e+01 4.003208151797700565e-15 -1.004805180032652956e-12 -3.002405995263662808e-13 2.642117210779892922e-13
4.590000000000000000e+02 1.084864616394042969e+00 -2.206362342834472656e+01 4.203368474684290867e-14 -1.263012155798548530e-12 -3.662935297958636038e-13 -8.807057595141762341e-14
4.600000000000000000e+02 1.869992256164550781e+00 -3.920687484741210938e+01 -1.601283260719080226e-14 -1.441154866884536423e-13 -4.803849782157240678e-14 -2.001604075898850282e-14
4.610000000000000000e+02 2.677037954330444336e+00 -3.792652893066406250e+01 -1.137161247328002944e-13 -1.402373768326359293e-13 -7.618605318013629835e-14 5.604491073703601889e-14
4.620000000000000000e+02 1.636959791183471680e+00 -3.843013381958007812e+01 3.002406113848275424e-15 -2.732189474663471174e-13 -8.106496295632106830e-14 1.200962445539310169e-14
4.630000000000000000e+02 1.269584298133850098e+00 -3.558413314819335938e+01 -1.240994476235310340e-13 -5.564458941363648048e-13 -2.041636038832214672e-13 1.200962445539310169e-14
4.640000000000000000e+02 1.931413173675537109e+00 -3.080310440063476562e+01 5.604491073703601889e-14 -6.164940519887140979e-13 -1.681347389873716347e-13 3.202566521438160452e-14
4.650000000000000000e+02 1.164781928062438965e+00 -3.238631820678710938e+01 8.807057595141762341e-14 -6.485197036505685464e-13 -1.681347389873716347e-13 6.004811719476782494e-14
4.660000000000000000e+02 3.813439309597015381e-01 -3.083249282836914062e+01 2.401924891078620339e-14 -9.047250253656213825e-13 -2.642117210779892922e-13 -5.604491073703601889e-14
4.670000000000000000e+02 1.156141400337219238e+00 -3.159913635253906250e+01 3.002405859738391247e-14 -8.106496160106835269e-13 -2.341876692568689577e-13 -3.602887167211341057e-14
4.680000000000000000e+02 1.887802720069885254e+00 -2.924609947204589844e+01 4.803849782157240678e-14 -8.486801214048489417e-13 -2.401924687790712998e-13 1.040834085586084257e-13
4.690000000000000000e+02 1.114863991737365723e+00 -2.844997024536132812e+01 7.405934996122451319e-14 -9.747811282115326215e-13 -2.702165477052459464e-13 6.405133042876320904e-14
4.700000000000000000e+02 1.838746666908264160e+00 -2.769935417175292969e+01 3.402726844324750755e-14 -8.546849209270512837e-13 -2.461972954063279539e-13 2.241796429481440756e-13
4.710000000000000000e+02 1.097281217575073242e+00 -2.527420043945312500e+01 1.160930347080674219e-13 -1.277023408893795953e-12 -3.482791041242022656e-13 6.405133042876320904e-14
4.720000000000000000e+02 1.097668409347534180e+00 -2.607259368896484375e+01 -2.221780431074099615e-13 -1.238992849289521914e-12 -4.383512866926175811e-13 7.205774334422682115e-14
4.730000000000000000e+02 3.637205660343170166e-01 -2.362806320190429688e+01 2.001604075898850282e-15 -1.463172573552828926e-12 -4.383512866926175811e-13 -1.200962445539310169e-14
4.740000000000000000e+02 1.096678018569946289e+00 -2.447626113891601562e+01 -7.205774334422682115e-14 -1.128904695418819770e-12 -3.602887302736612618e-13 -5.204170427930421283e-14
4.750000000000000000e+02 1.095056056976318359e+00 -2.367731094360351562e+01 6.805453688649501509e-14 -1.389113216815340834e-12 -3.963175816169839383e-13 4.403528797570881170e-14
4.760000000000000000e+02 1.079401612281799316e+00 -2.126153182983398438e+01 5.604491073703601889e-14 -1.257007302066237564e-12 -3.602887302736612618e-13 -9.607699564314481355e-14
4.770000000000000000e+02 1.068564414978027344e+00 -1.804541015625000000e+01 1.240994476235310340e-13 -1.365093910306314218e-12 -3.722983564231202580e-13 -4.003208151797700565e-15
4.780000000000000000e+02 1.070703625679016113e+00 -1.965513610839843750e+01 -2.001604075898850282e-15 -1.419137268636461169e-12 -4.263416605431585849e-13 5.604491073703601889e-14
4.790000000000000000e+02 3.559511601924896240e-01 -1.719437980651855469e+01 7.405934996122451319e-14 -1.455166065769675221e-12 -4.143320343936995886e-13 -5.604491073703601889e-14
4.800000000000000000e+02 1.065854549407958984e+00 -1.642537689208984375e+01 4.003208151797700565e-15 -1.325061805071414689e-12 -3.963175816169839383e-13 -6.405133042876320904e-14
4.810000000000000000e+02 1.058531880378723145e+00 -1.481050491333007812e+01 -4.803849782157240678e-14 -1.072859791458047329e-12 -3.362694779747432694e-13 -5.204170427930421283e-14
4.820000000000000000e+02 1.049010753631591797e+00 -1.160181140899658203e+01 1.801443583605670529e-14 -8.386720679910697474e-13 -2.461972954063279539e-13 0.000000000000000000e+00
4.830000000000000000e+02 1.050266265869140625e+00 -1.240271663665771484e+01 -7.405934996122451319e-14 -9.467587304412550253e-13 -3.062454261536229350e-13 -1.160930347080674219e-13
4.840000000000000000e+02 3.499435186386108398e-01 -9.958276748657226562e+00 -7.606094980195862720e-14 -9.247410779830711469e-13 -3.002405995263662808e-13 -7.606094980195862720e-14
4.850000000000000000e+02 1.053918004035949707e+00 -9.193817138671875000e+00 6.805453688649501509e-14 -7.485999125277087440e-13 -2.041636038832214672e-13 -1.681347389873716347e-13
4.860000000000000000e+02 3.280684232711791992e+00 -3.224250316619873047e+00 -2.001604042017532392e-13 -4.003208151797700565e-14 -7.205774334422682115e-14 -1.961571909677578551e-13
4.870000000000000000e+02 3.367265701293945312e+00 -2.532431125640869141e+00 -1.501202997631831404e-13 -1.100882216333379238e-13 -7.806255641895631925e-14 -9.207378240914942946e-14
4.880000000000000000e+02 1.235565781593322754e+00 -3.446817874908447266e+00 -7.806255641895631925e-14 -2.622101212372551782e-13 -1.020818019416107336e-13 -1.160930347080674219e-13
4.890000000000000000e+02 1.140429615974426270e+00 -5.964436531066894531e+00 3.202566521438160452e-14 -1.921539912862896271e-13 -4.803849782157240678e-14 -4.003208151797700565e-14
4.900000000000000000e+02 4.080924093723297119e-01 -3.494411230087280273e+00 7.205774334422682115e-14 -1.521218996039172544e-13 -2.401924891078620339e-14 2.401924891078620339e-14
4.910000000000000000e+02 1.540299034118652344e+01 -1.450645828247070312e+01 7.045646076113409872e-13 1.857488555329078750e-12 7.686159651451585084e-13 1.008808379714121184e-12
4.920000000000000000e+02 2.921601867675781250e+01 -3.014817047119140625e+01 1.501202929869195624e-14 -8.506816941405287436e-14 -2.101684237342145434e-14 0.000000000000000000e+00
4.930000000000000000e+02 3.391147994995117188e+01 -2.481295585632324219e+01 1.401122768425900472e-14 6.004812227696550847e-15 6.004812227696550847e-15 -4.803849782157240678e-14
4.940000000000000000e+02 3.450114059448242188e+01 -2.515943717956542969e+01 3.002406113848275424e-15 -7.305854326459387815e-14 -2.101684237342145434e-14 -7.506014988159157020e-14
4.950000000000000000e+02 1.587530422210693359e+01 -1.383903217315673828e+01 6.240000378389398694e-13 1.502704211064909146e-12 6.380112909341872918e-13 1.088872590183920241e-12
4.960000000000000000e+02 2.130454635620117188e+01 -2.902400779724121094e+01 3.232590519049172162e-13 3.672943297162306608e-13 2.071660171968497943e-13 -3.002405995263662808e-13
4.970000000000000000e+02 1.309552383422851562e+01 -1.711571693420410156e+01 4.443560862148199231e-13 1.837472448501520361e-12 6.845485549938912229e-13 1.421138868477195283e-13
4.980000000000000000e+02 2.285523414611816406e+01 -2.973183822631835938e+01 2.001604042017532392e-13 3.602887302736612618e-13 1.681347389873716347e-13 -2.802245740139708285e-13
4.990000000000000000e+02 1.527025604248046875e+01 -1.345004940032958984e+01 5.964779993712643336e-13 1.525222222825695084e-12 6.365100503960552381e-13 7.410938724673743483e-13
5.000000000000000000e+02 2.639069557189941406e+01 -2.947663307189941406e+01 8.807057595141762341e-14 -8.006416303595401129e-15 2.401924891078620339e-14 -8.006416303595401129e-14
5.010000000000000000e+02 2.820625877380371094e+01 -3.023470687866210938e+01 6.204972381176551699e-14 1.180946345488015359e-13 5.404330750817011586e-14 -1.401122768425900472e-14
5.020000000000000000e+02 2.544956398010253906e+01 -3.032248497009277344e+01 8.206576287668812530e-14 2.181748434259417335e-13 9.007218256841531545e-14 -1.841475648182988589e-13
5.030000000000000000e+02 3.546995925903320312e+01 -1.454039382934570312e+01 1.140914348673333079e-13 2.602085213965210642e-14 4.203368474684290867e-14 3.602887167211341057e-14
5.040000000000000000e+02 1.483209991455078125e+01 -2.258246040344238281e+01 3.672943297162306608e-13 1.804446024024353168e-12 6.515221305167240295e-13 -7.686159651451585084e-13
5.050000000000000000e+02 1.533863735198974609e+01 -2.309557723999023438e+01 4.496102925730105504e-13 1.839724336413772754e-12 6.868003886960349913e-13 -8.807057730667033901e-13
5.060000000000000000e+02 3.339483261108398438e+01 -2.543706321716308594e+01 3.652927163229693908e-14 -1.215974478226133915e-13 -2.552045048540268340e-14 -7.205774334422682115e-14
5.070000000000000000e+02 3.401285552978515625e+01 -2.582382583618164062e+01 -1.481186999224490264e-13 2.802245536851800944e-14 -3.602887167211341057e-14 -1.281026608575264181e-13
5.080000000000000000e+02 2.919843673706054688e+01 -3.117471313476562500e+01 4.803849782157240678e-14 1.120898214740720378e-13 4.803849782157240678e-14 -5.004010105043830980e-14
5.090000000000000000e+02 3.566679000854492188e+01 -2.281684494018554688e+01 0.000000000000000000e+00 0.000000000000000000e+00 0.000000000000000000e+00 9.607699564314481355e-14
5.100000000000000000e+02 3.589398193359375000e+01 -2.196641731262207031e+01 -7.205774334422682115e-14 -8.006416303595401129e-15 -2.401924891078620339e-14 2.401924891078620339e-14
5.110000000000000000e+02 3.518078613281250000e+01 -1.610457992553710938e+01 -2.261812563414053456e-13 -7.405934996122451319e-14 -9.007218256841531545e-14 8.006416303595401129e-15
5.120000000000000000e+02 3.528264999389648438e+01 -1.690261650085449219e+01 1.941555911270237411e-13 -5.404330750817011586e-14 4.203368474684290867e-14 5.604491073703601889e-14
5.130000000000000000e+02 2.207405090332031250e+01 -2.939661979675292969e+01 2.131708302715792924e-13 4.573665122846459763e-13 2.011612041221202962e-13 -1.841475648182988589e-13
5.140000000000000000e+02 2.058710861206054688e+01 -2.850100517272949219e+01 2.897321868099850262e-13 5.359294822163129801e-13 2.476985088394056955e-13 -4.443560862148199231e-13
5.150000000000000000e+02 1.844803619384765625e+01 -1.090631961822509766e+01 5.054050168824819611e-13 4.453568861351869801e-13 2.852285736158061136e-13 4.923945908126559079e-13
5.160000000000000000e+02 2.093844795227050781e+01 -1.150148296356201172e+01 5.994804262374198167e-13 2.111692168783180223e-13 2.431948956452267829e-13 1.761411519028352468e-13
5.170000000000000000e+02 2.203724479675292969e+01 -1.054903221130371094e+01 2.241796429481440756e-13 -2.241796429481440756e-13 0.000000000000000000e+00 3.803047557860567141e-13
5.180000000000000000e+02 1.798529052734375000e+01 -2.497547531127929688e+01 5.339278823755788661e-13 6.320064914119849497e-13 3.497802904522256950e-13 -7.866303637117655345e-13
5.190000000000000000e+02 1.871668243408203125e+01 -2.681271171569824219e+01 4.178348476675114442e-13 7.280834463975482951e-13 3.437754909300233530e-13 -5.304250419967126984e-13
5.200000000000000000e+02 3.541022491455078125e+01 -1.934299850463867188e+01 -6.805453688649501509e-14 -5.204170427930421283e-14 -3.602887167211341057e-14 4.003208151797700565e-15
5.210000000000000000e+02 4.040398788452148438e+01 -1.730453300476074219e+01 -1.030826086382413687e-13 5.304250758780305885e-14 -1.501202929869195624e-14 1.000802037949425141e-14
5.220000000000000000e+02 2.636217498779296875e+01 -3.033342361450195312e+01 1.541235129971785245e-13 6.605293026949732305e-14 6.605293026949732305e-14 -2.481988952470620680e-13
5.230000000000000000e+02 3.614440917968750000e+01 -1.850292968750000000e+01 -2.001604075898850282e-14 6.004811719476782494e-14 1.200962445539310169e-14 7.606094980195862720e-14
5.240000000000000000e+02 3.748760604858398438e+01 -1.470081138610839844e+01 3.002405859738391247e-14 -2.502004950877961820e-13 -6.605293026949732305e-14 9.907939540424598457e-14
5.250000000000000000e+02 3.524831390380859375e+01 -1.383708000183105469e+01 -1.921539912862896271e-13 -1.281026608575264181e-13 -9.607699564314481355e-14 -8.006416303595401129e-15
5.260000000000000000e+02 2.221268653869628906e+01 -9.722200393676757812e+00 2.522020949285302960e-13 -2.121700303512122354e-13 1.200962445539310169e-14 3.823063556267908281e-13
5.270000000000000000e+02 1.935080146789550781e+01 -2.732939338684082031e+01 3.332670782136420984e-13 7.375910862986168048e-13 3.212574520641831022e-13 -4.423544863740858091e-13
5.280000000000000000e+02 3.614214706420898438e+01 -1.935835266113281250e+01 9.607699564314481355e-14 6.405133042876320904e-14 4.803849782157240678e-14 -3.602887167211341057e-14
5.290000000000000000e+02 2.454472732543945312e+01 -3.023999977111816406e+01 1.331066604593617031e-13 5.704571743366665393e-14 5.704571743366665393e-14 -9.607699564314481355e-14
5.300000000000000000e+02 1.580741119384765625e+01 -2.374880027770996094e+01 5.945702372285588400e-13 1.398589577483733137e-12 5.979479064666115562e-13 -7.628613452742571965e-13
5.310000000000000000e+02 1.637040710449218750e+01 -2.436605644226074219e+01 6.617509817029298969e-13 1.198626592945062352e-12 5.581132886574302621e-13 -6.324364859935927008e-13
5.320000000000000000e+02 3.603826904296875000e+01 -2.110094833374023438e+01 2.401924891078620339e-14 -1.040834085586084257e-13 -2.401924891078620339e-14 -5.004010105043830980e-14
5.330000000000000000e+02 3.611079788208007812e+01 -2.022576904296875000e+01 -2.001604075898850282e-15 -1.381106736137241442e-13 -4.203368474684290867e-14 -1.200962445539310169e-14
5.340000000000000000e+02 3.635897827148437500e+01 -1.312652778625488281e+01 -1.281026608575264181e-13 -3.202566521438160452e-14 -4.803849782157240678e-14 1.821459649775647449e-13
5.350000000000000000e+02 3.261692047119140625e+01 -2.786259269714355469e+01 -1.025822086780578402e-13 4.753809447325708926e-14 -1.651323256737433076e-14 -1.381106736137241442e-13
5.360000000000000000e+02 3.304053115844726562e+01 -2.710192871093750000e+01 -5.004010105043830980e-14 -9.007218256841531545e-14 -4.203368474684290867e-14 2.902325867701685547e-14
5.370000000000000000e+02 3.350959014892578125e+01 -2.644517517089843750e+01 -7.606094980195862720e-14 3.602887167211341057e-14 -1.200962445539310169e-14 -2.051644071917203133e-14
5.380000000000000000e+02 1.364030456542968750e+01 -1.830005645751953125e+01 1.791435652164635739e-13 2.593078095997070065e-12 8.316664414434460362e-13 -6.004811719476782494e-14
5.390000000000000000e+02 1.343115425109863281e+01 -1.767940330505371094e+01 2.514515017645185813e-13 2.258059624699049195e-12 7.528532918604780022e-13 3.602887167211341057e-14
5.400000000000000000e+02 1.692978096008300781e+01 -2.498168563842773438e+01 3.957859159766513590e-13 9.931395983375779224e-13 4.166776515837633532e-13 -7.113200002975550440e-13
5.410000000000000000e+02 2.411294364929199219e+01 -1.040548920631408691e+00 6.405133042876320904e-13 3.202566521438160452e-13 2.882309733769072846e-13 3.642919299551294898e-13
5.420000000000000000e+02 2.266426277160644531e+01 -8.108769416809082031e+00 1.941555911270237411e-13 2.662133209187234062e-13 1.381106736137241442e-13 4.143320343936995886e-13
5.430000000000000000e+02 2.102276229858398438e+01 -9.940295219421386719e+00 2.441956955655938399e-13 1.160930347080674219e-13 1.080866150163402317e-13 5.194162157676207592e-13
5.440000000000000000e+02 2.199848747253417969e+01 -7.960746288299560547e+00 1.240994476235310340e-13 2.361892690976030718e-13 1.080866150163402317e-13 4.243400607024244708e-13
5.450000000000000000e+02 2.233176231384277344e+01 -6.464552879333496094e+00 8.006416303595401129e-14 8.006416303595401129e-14 4.803849782157240678e-14 3.642919299551294898e-13
5.460000000000000000e+02 2.390354537963867188e+01 -1.862122297286987305e+00 3.742999562638543720e-13 5.264218423152444704e-13 2.702165477052459464e-13 5.584474939770989188e-13
5.470000000000000000e+02 3.671277618408203125e+01 -1.416210556030273438e+01 -4.813232196707387112e-14 1.166247139009271572e-13 2.054771656371644911e-14 8.056456299613753980e-14
5.480000000000000000e+02 3.793896484375000000e+01 -1.406027126312255859e+01 8.006416303595401129e-14 -8.006416303595401129e-14 0.000000000000000000e+00 -1.401122768425900472e-14
5.490000000000000000e+02 3.963027954101562500e+01 -1.592378520965576172e+01 7.606094980195862720e-14 2.041636038832214672e-13 8.406736949368581735e-14 -2.061652172764827373e-13
5.500000000000000000e+02 3.618437957763671875e+01 -1.449775409698486328e+01 3.002405859738391247e-14 -1.000802037949425141e-14 6.004812227696550847e-15 1.200962445539310169e-14
5.510000000000000000e+02 6.871219635009765625e+01 -1.883148765563964844e+01 -3.502807039649363796e-13 -1.501202997631831404e-13 -1.501202997631831404e-13 8.006416303595401129e-15
5.520000000000000000e+02 4.329217529296875000e+01 -1.853489875793457031e+01 -1.451162933850842773e-14 3.953167816966168813e-14 7.506014649345978118e-15 -6.004811719476782494e-14
5.530000000000000000e+02 4.510108566284179688e+01 -1.991517448425292969e+01 2.321860694161348437e-13 3.282630515067525012e-13 1.681347389873716347e-13 -1.200962343895356499e-13
5.540000000000000000e+02 4.522270584106445312e+01 -1.945751762390136719e+01 -1.641315257533762506e-13 -1.160930347080674219e-13 -8.406736949368581735e-14 5.204170427930421283e-14
5.550000000000000000e+02 3.692629337310791016e+00 -4.185555648803710938e+01 -3.953167816966168813e-14 -8.556856937423640286e-14 -3.753007494079578510e-14 -2.401924891078620339e-14
5.560000000000000000e+02 3.488585281372070312e+01 -1.260382175445556641e+01 -1.881507780522942430e-13 -1.721379386688398627e-13 -1.080866150163402317e-13 9.607699564314481355e-14
5.570000000000000000e+02 2.201919937133789062e+01 -1.113909053802490234e+01 2.682149478645118323e-13 -6.805453688649501509e-14 6.004811719476782494e-14 2.962373998448980528e-13
5.580000000000000000e+02 7.291550445556640625e+01 -1.874427413940429688e+01 -5.204170427930421283e-14 -6.805453688649501509e-14 -3.602887167211341057e-14 3.602887167211341057e-14
5.590000000000000000e+02 7.352534484863281250e+01 -1.933866310119628906e+01 -1.000802037949425141e-14 -5.004010105043830980e-14 -1.801443583605670529e-14 1.601283260719080226e-13
5.600000000000000000e+02 7.234724426269531250e+01 -1.943188095092773438e+01 -7.005614350349270714e-14 -3.002405859738391247e-14 -3.002405859738391247e-14 1.120898214740720378e-13
5.610000000000000000e+02 7.091931152343750000e+01 -1.987129783630371094e+01 -7.606094980195862720e-14 1.961571909677578551e-13 3.602887167211341057e-14 -4.003208151797700565e-15
5.620000000000000000e+02 4.083430862426757812e+01 -1.674566459655761719e+01 2.201764398785440585e-14 1.581267126786467525e-13 5.404330750817011586e-14 -6.805453688649501509e-14
5.630000000000000000e+02 4.098976516723632812e+01 -1.773732948303222656e+01 -3.803047490097931360e-14 -6.204972381176551699e-14 -3.002405859738391247e-14 -9.807859548387892756e-14
5.640000000000000000e+02 2.217621612548828125e+01 -7.214070320129394531e+00 2.321860694161348437e-13 3.282630515067525012e-13 1.681347389873716347e-13 5.284234421559785844e-13
5.650000000000000000e+02 2.018358421325683594e+01 -9.685122489929199219e+00 4.443560862148199231e-13 2.361892690976030718e-13 2.041636038832214672e-13 4.723785381952061435e-13
5.660000000000000000e+02 1.918999862670898438e+01 -1.103698539733886719e+01 6.785437554716888808e-13 6.204972381176551699e-14 2.221780431074099615e-13 4.603689391508014594e-13
5.670000000000000000e+02 3.610922622680664062e+01 -1.765908622741699219e+01 2.401924891078620339e-14 5.604491073703601889e-14 2.401924891078620339e-14 0.000000000000000000e+00
5.680000000000000000e+02 3.586535644531250000e+01 -1.603442382812500000e+01 5.204170427930421283e-14 -9.207378240914942946e-14 -1.200962445539310169e-14 5.804651735403371093e-14
5.690000000000000000e+02 7.503892517089843750e+01 -1.892495918273925781e+01 6.004811719476782494e-14 -2.001604075898850282e-14 1.200962445539310169e-14 5.204170427930421283e-14
5.700000000000000000e+02 7.429366302490234375e+01 -1.883824157714843750e+01 -3.602887167211341057e-14 7.606094980195862720e-14 1.200962445539310169e-14 -8.006416303595401129e-15
5.710000000000000000e+02 4.220093154907226562e+01 -1.868535995483398438e+01 7.606094980195862720e-14 2.041636038832214672e-13 8.406736949368581735e-14 -7.806255641895631925e-14
5.720000000000000000e+02 3.914818954467773438e+01 -1.905513191223144531e+01 -4.203368474684290867e-14 -1.801443583605670529e-14 -1.801443583605670529e-14 -9.607699564314481355e-14
5.730000000000000000e+02 2.263965225219726562e+01 -1.323483347892761230e+00 -3.602887167211341057e-14 -2.441956955655938399e-13 -8.406736949368581735e-14 4.403528797570881170e-14
5.740000000000000000e+02 2.185839080810546875e+01 -1.481467008590698242e+00 -2.021620040424873532e-13 -1.781427517435693608e-13 -1.140914348673333079e-13 -4.803849782157240678e-14
5.750000000000000000e+02 1.492542934417724609e+01 -2.402829647064208984e+00 -6.184956518294482120e-13 -8.206576287668812530e-14 -2.101684169579509653e-13 -9.607699564314481355e-14
5.760000000000000000e+02 9.582348823547363281e+00 -2.510529041290283203e+00 -5.104090435893715583e-13 -3.102486258350911630e-13 -2.461972954063279539e-13 -4.003208151797700565e-14
5.770000000000000000e+02 1.032925224304199219e+01 -3.161895990371704102e+00 -4.163336342344337027e-13 -2.241796429481440756e-13 -1.921539912862896271e-13 -2.562053217150528361e-13
5.780000000000000000e+02 2.289363098144531250e+01 -3.488594770431518555e+00 1.160930347080674219e-13 3.242598518252842732e-13 1.321058605389946461e-13 4.563657394693332314e-13
5.790000000000000000e+02 2.030184936523437500e+01 -1.759115815162658691e+00 -3.662935297958636038e-13 2.602085213965210642e-14 -1.020818019416107336e-13 -3.602887167211341057e-14
5.800000000000000000e+02 2.094673728942871094e+01 -2.888679742813110352e+00 -8.006416303595401129e-14 -8.006416303595401129e-14 -4.803849782157240678e-14 1.761411519028352468e-13
5.810000000000000000e+02 7.735717010498046875e+01 -1.906929969787597656e+01 -2.201764398785440585e-14 8.206576287668812530e-14 1.801443583605670529e-14 4.803849782157240678e-14
5.820000000000000000e+02 6.893338012695312500e+01 -2.155749893188476562e+01 -3.402726844324750755e-14 -1.060850151756061177e-13 -4.203368474684290867e-14 1.080866150163402317e-13
5.830000000000000000e+02 7.657903289794921875e+01 -1.904118728637695312e+01 -2.001604075898850282e-15 -1.381106736137241442e-13 -4.203368474684290867e-14 1.561251128379126385e-13
5.840000000000000000e+02 7.576820373535156250e+01 -1.974562644958496094e+01 2.401924891078620339e-14 -2.642117210779892922e-13 -7.205774334422682115e-14 1.120898214740720378e-13
5.850000000000000000e+02 1.645239067077636719e+01 -2.902602195739746094e+00 -5.764619467538145692e-13 2.562053217150528361e-13 -9.607699564314481355e-14 -8.406736949368581735e-14
5.860000000000000000e+02 1.492748451232910156e+01 -3.060230970382690430e+00 -5.624507478686757711e-13 -5.804651735403371093e-14 -1.861491782115601290e-13 -1.601283260719080226e-14
5.870000000000000000e+02 1.798583221435546875e+01 -2.101047754287719727e+00 -5.964779993712643336e-13 -1.641315257533762506e-13 -2.281828697346666157e-13 -6.405133042876320904e-14
5.880000000000000000e+02 8.819356918334960938e+00 -2.518230676651000977e+00 -4.203368339159019307e-13 -1.801443651368306309e-13 -1.801443651368306309e-13 -3.242598518252842732e-13
5.890000000000000000e+02 1.032618427276611328e+01 -3.800793409347534180e+00 -3.883111822540474822e-13 1.080866150163402317e-13 -8.406736949368581735e-14 -2.481988952470620680e-13
5.900000000000000000e+02 5.770793914794921875e+01 -3.108645248413085938e+01 8.006416303595401129e-15 -8.807057595141762341e-14 -2.401924891078620339e-14 -8.006416303595401129e-15
5.910000000000000000e+02 3.827656555175781250e+01 -1.514604091644287109e+01 2.401924891078620339e-14 5.604491073703601889e-14 2.401924891078620339e-14 -4.003208151797700565e-14
5.920000000000000000e+02 6.494657039642333984e+00 -2.579288482666015625e+00 -3.462775042834681516e-13 -1.941555911270237411e-13 -1.621299259126421366e-13 -2.922341730583755126e-13
5.930000000000000000e+02 4.912352085113525391e+00 -2.597125291824340820e+00 -2.622101212372551782e-13 -1.581267126786467525e-13 -1.261010474642651480e-13 -9.607699564314481355e-14
5.940000000000000000e+02 6.503451824188232422e+00 -3.291305303573608398e+00 -1.401122870069854143e-13 -6.004811719476782494e-14 -6.004811719476782494e-14 -2.481988952470620680e-13
5.950000000000000000e+02 8.824825286865234375e+00 -3.180077075958251953e+00 -3.502807039649363796e-13 -1.501202997631831404e-13 -1.501202997631831404e-13 -2.962373998448980528e-13
5.960000000000000000e+02 7.295113563537597656e+00 -3.238828897476196289e+00 -2.401924687790712998e-13 -2.401924687790712998e-13 -1.441154866884536423e-13 -4.043240080849747065e-13
5.970000000000000000e+02 8.065813064575195312e+00 -3.202512741088867188e+00 -3.122502256758252770e-13 -8.807057595141762341e-14 -1.200962343895356499e-13 -1.641315257533762506e-13
5.980000000000000000e+02 2.621113061904907227e+00 -2.515263557434082031e+00 -1.961571909677578551e-13 -8.406736949368581735e-14 -8.406736949368581735e-14 -1.561251128379126385e-13
5.990000000000000000e+02 4.805305957794189453e+00 -4.142786026000976562e+00 -1.341074739322559162e-13 -1.261010474642651480e-13 -7.806255641895631925e-14 -2.522020949285302960e-13
6.000000000000000000e+02 1.891644239425659180e+00 -2.560347080230712891e+00 -1.301042606982605321e-13 -3.302646513474866152e-13 -1.381106736137241442e-13 -8.406736949368581735e-14
6.010000000000000000e+02 1.197101235389709473e+00 -5.144577980041503906e+00 -9.607699564314481355e-14 -3.843079825725792542e-13 -1.441154866884536423e-13 -4.003208151797700565e-14
6.020000000000000000e+02 1.108031177520751953e+01 -3.165106296539306641e+00 -5.964779993712643336e-13 -1.641315257533762506e-13 -2.281828697346666157e-13 -6.004811719476782494e-14
6.030000000000000000e+02 1.872860717773437500e+01 -2.589659214019775391e+00 -3.322662782932750414e-13 1.321058605389946461e-13 -6.004811719476782494e-14 -4.003208151797700565e-15
6.040000000000000000e+02 1.720874977111816406e+01 -2.804122447967529297e+00 -3.482791041242022656e-13 -1.200962445539310169e-14 -1.080866150163402317e-13 1.801443651368306309e-13
6.050000000000000000e+02 1.937137222290039062e+01 -4.263324737548828125e+00 -1.381106736137241442e-13 7.806255641895631925e-14 -1.801443583605670529e-14 1.281026608575264181e-13
6.060000000000000000e+02 1.952848815917968750e+01 -1.884728074073791504e+00 -3.742999562638543720e-13 1.140914348673333079e-13 -7.806255641895631925e-14 -8.406736949368581735e-14
6.070000000000000000e+02 1.474302291870117188e+01 -2.333691024780273438e+01 3.742999562638543720e-13 1.647320084161019160e-12 6.064859985749349036e-13 -6.685357562680183108e-13
6.080000000000000000e+02 1.260922527313232422e+01 -3.159594535827636719e+00 -5.364298957290236647e-13 -1.841475648182988589e-13 -2.161732300326804634e-13 -1.361090737729900302e-13
6.090000000000000000e+02 1.338508701324462891e+01 -3.141347885131835938e+00 -5.284234421559785844e-13 4.803849782157240678e-14 -1.441154866884536423e-13 -2.802245536851800944e-14
6.100000000000000000e+02 6.940286254882812500e+01 -2.080500602722167969e+01 6.280032375204080974e-14 2.099182237541227791e-13 8.181556289659636105e-14 -4.803849782157240678e-14
6.110000000000000000e+02 7.858965301513671875e+01 -3.655179977416992188e+01 -8.006416303595401129e-14 -4.003208084035064784e-13 -1.441154866884536423e-13 -2.802245536851800944e-14
6.120000000000000000e+02 7.722589874267578125e+01 -3.911521911621093750e+01 7.405934996122451319e-14 -9.407538902614712151e-14 -6.004812227696550847e-15 6.004812227696550847e-15
6.130000000000000000e+02 7.736894989013671875e+01 -4.011397171020507812e+01 -1.501202929869195624e-14 -2.351884691772360148e-13 -7.506014988159157020e-14 3.602887167211341057e-14
6.140000000000000000e+02 7.873733520507812500e+01 -3.487900161743164062e+01 -1.120898214740720378e-13 -3.682951296365977178e-13 -1.441154866884536423e-13 -4.003208151797700565e-15
6.150000000000000000e+02 7.761231994628906250e+01 -3.650436401367187500e+01 9.607699564314481355e-14 -9.607699564314481355e-14 0.000000000000000000e+00 7.005614350349270714e-14
6.160000000000000000e+02 7.814479064941406250e+01 -3.246179962158203125e+01 -7.806255641895631925e-14 -2.622101212372551782e-13 -1.020818019416107336e-13 1.160930347080674219e-13
6.170000000000000000e+02 7.887525177001953125e+01 -3.251001739501953125e+01 -6.004811719476782494e-14 -3.002405995263662808e-13 -1.080866150163402317e-13 4.003208151797700565e-15
6.180000000000000000e+02 7.821548461914062500e+01 -2.697195816040039062e+01 -6.605293026949732305e-14 -3.943159817762498243e-13 -1.381106736137241442e-13 8.006416303595401129e-15
6.190000000000000000e+02 7.893275451660156250e+01 -2.620590209960937500e+01 4.803849782157240678e-14 -2.081668171172168513e-13 -4.803849782157240678e-14 4.803849782157240678e-14
6.200000000000000000e+02 7.820848846435546875e+01 -2.379987144470214844e+01 -1.601283260719080226e-14 -1.441154866884536423e-13 -4.803849782157240678e-14 -1.200962343895356499e-13
6.210000000000000000e+02 7.893601989746093750e+01 -2.223831748962402344e+01 4.603689120457471473e-14 -2.602085213965210642e-14 6.004812227696550847e-15 0.000000000000000000e+00
6.220000000000000000e+02 7.814300537109375000e+01 -3.321122360229492188e+01 -3.202566521438160452e-14 -2.882309733769072846e-13 -9.607699564314481355e-14 4.403528797570881170e-14
6.230000000000000000e+02 7.891858673095703125e+01 -2.067342758178710938e+01 -6.805453688649501509e-14 1.080866150163402317e-13 1.200962445539310169e-14 -2.401924891078620339e-14
6.240000000000000000e+02 7.737059783935546875e+01 -1.984296035766601562e+01 -2.001604075898850282e-15 -1.381106736137241442e-13 -4.203368474684290867e-14 1.401122870069854143e-13
6.250000000000000000e+02 7.821339416503906250e+01 -2.219598388671875000e+01 -1.120898214740720378e-13 -3.682951296365977178e-13 -1.441154866884536423e-13 2.001604075898850282e-14
6.260000000000000000e+02 7.745275878906250000e+01 -2.460272216796875000e+01 6.004811719476782494e-14 -2.001604075898850282e-14 1.200962445539310169e-14 1.601283260719080226e-14
6.270000000000000000e+02 7.820645141601562500e+01 -2.539623641967773438e+01 8.606896933441993136e-14 -1.461170865291877563e-13 -1.801443583605670529e-14 -2.401924891078620339e-14
6.280000000000000000e+02 7.821139526367187500e+01 -2.775989913940429688e+01 -1.000802037949425141e-14 -3.702967294773318319e-13 -1.140914348673333079e-13 3.202566521438160452e-14
6.290000000000000000e+02 7.821301269531250000e+01 -2.618757057189941406e+01 9.207378240914942946e-14 -5.204170427930421283e-14 1.200962445539310169e-14 4.403528797570881170e-14
6.300000000000000000e+02 7.819227600097656250e+01 -2.933747100830078125e+01 -5.604491073703601889e-14 -1.841475648182988589e-13 -7.205774334422682115e-14 4.003208151797700565e-15
6.310000000000000000e+02 7.820357513427734375e+01 -2.854985237121582031e+01 7.205774334422682115e-14 -1.521218996039172544e-13 -2.401924891078620339e-14 -4.003208151797700565e-15
6.320000000000000000e+02 7.816021728515625000e+01 -3.169320869445800781e+01 -6.805453688649501509e-14 -2.121700303512122354e-13 -8.406736949368581735e-14 -2.802245536851800944e-14
6.330000000000000000e+02 7.817381286621093750e+01 -3.090948295593261719e+01 -2.321860694161348437e-13 -3.282630515067525012e-13 -1.681347389873716347e-13 6.405133042876320904e-14
6.340000000000000000e+02 7.808847045898437500e+01 -3.396678924560546875e+01 -6.204972381176551699e-14 -2.782229470681824024e-13 -1.020818019416107336e-13 -4.403528797570881170e-14
6.350000000000000000e+02 7.777009582519531250e+01 -3.558874893188476562e+01 1.701363422162375377e-14 -2.672141479441447753e-13 -7.506014988159157020e-14 -1.601283260719080226e-14
6.360000000000000000e+02 2.107689094543457031e+01 -1.626370906829833984e+00 -2.081668171172168513e-13 -2.722181475459800604e-13 -1.441154866884536423e-13 1.000802021008766196e-13
6.370000000000000000e+02 2.178418159484863281e+01 -2.129798650741577148e+00 -5.404330750817011586e-14 -2.061652172764827373e-13 -7.806255641895631925e-14 1.080866150163402317e-13
6.380000000000000000e+02 3.925082015991210938e+01 -1.649392700195312500e+01 -6.605293026949732305e-14 6.004812227696550847e-15 -1.801443583605670529e-14 1.601283260719080226e-14
6.390000000000000000e+02 6.604640197753906250e+01 -2.665048599243164062e+01 2.480738054214115529e-13 3.386463743974832408e-13 1.760160485246575757e-13 6.810144895924574726e-14
6.400000000000000000e+02 4.399293136596679688e+01 -2.307429504394531250e+01 3.202566521438160452e-14 2.882309733769072846e-13 9.607699564314481355e-14 -1.200962445539310169e-14
6.410000000000000000e+02 6.547552490234375000e+01 -2.722802352905273438e+01 9.498236480101271417e-14 -1.253191750675772265e-13 -9.101042910562764238e-15 9.695269345588362030e-16
6.420000000000000000e+02 1.483080482482910156e+01 -2.117639160156250000e+01 8.626913202899877398e-13 3.160532816362526809e-12 1.206967251837776089e-12 -1.036830885904616029e-12
6.430000000000000000e+02 1.409531593322753906e+01 -2.245880317687988281e+01 4.283432603838926989e-13 1.853485247227393273e-12 6.845485549938912229e-13 -3.542839036464046076e-13
6.440000000000000000e+02 4.411807250976562500e+01 -2.214806556701660156e+01 4.203368474684290867e-14 3.382710778154773834e-13 1.140914348673333079e-13 -6.405133042876320904e-14
6.450000000000000000e+02 6.662856292724609375e+01 -2.718999099731445312e+01 -4.960224939121182786e-14 7.024379179449563582e-14 6.192462212765374036e-15 1.283528540613546043e-13
6.460000000000000000e+02 5.503355407714843750e+01 -3.133670234680175781e+01 4.603689120457471473e-14 -2.602085213965210642e-14 6.004812227696550847e-15 4.403528797570881170e-14
6.470000000000000000e+02 5.809828948974609375e+01 -3.207352828979492188e+01 4.403528797570881170e-14 -8.406736949368581735e-14 -1.200962445539310169e-14 -1.501202929869195624e-14
6.480000000000000000e+02 3.786908340454101562e+01 -1.585140800476074219e+01 -1.361090737729900302e-13 -1.040834085586084257e-13 -7.205774334422682115e-14 1.281026608575264181e-13
6.490000000000000000e+02 3.687442398071289062e+01 -1.939458274841308594e+01 1.801443583605670529e-14 -3.803047490097931360e-14 -6.004812227696550847e-15 1.000802021008766196e-13
6.500000000000000000e+02 4.399124908447265625e+01 -1.893603515625000000e+01 2.742197473867141744e-13 2.662133209187234062e-13 1.621299259126421366e-13 -9.607699564314481355e-14
6.510000000000000000e+02 4.441395568847656250e+01 -1.984275245666503906e+01 6.405133042876320904e-14 9.607699564314481355e-14 4.803849782157240678e-14 -6.405133042876320904e-14
6.520000000000000000e+02 3.113242340087890625e+01 -2.922913932800292969e+01 -5.604491073703601889e-14 -2.401924891078620339e-14 -2.401924891078620339e-14 1.501203056924137712e-15
6.530000000000000000e+02 3.354904937744140625e+01 -2.815085411071777344e+01 -6.204972381176551699e-14 -1.180946345488015359e-13 -5.404330750817011586e-14 7.606094980195862720e-14
6.540000000000000000e+02 3.465423965454101562e+01 -2.623876953125000000e+01 -1.301042606982605321e-13 -9.007218256841531545e-14 -6.605293026949732305e-14 3.903127820947815962e-14
6.550000000000000000e+02 3.412546157836914062e+01 -2.682905960083007812e+01 -9.319968570769415761e-14 -1.107137249716991234e-13 -6.117402049331255309e-14 -7.512270157068040577e-14
6.560000000000000000e+02 6.155539321899414062e+01 -3.075992965698242188e+01 7.405934996122451319e-14 1.461170865291877563e-13 6.605293026949732305e-14 -4.203368474684290867e-14
6.570000000000000000e+02 6.304919815063476562e+01 -2.965235137939453125e+01 5.754611739385018243e-14 2.752205540833448094e-14 2.552045048540268340e-14 1.676343424153198952e-14
6.580000000000000000e+02 5.235526275634765625e+01 -3.118577384948730469e+01 9.007218256841531545e-14 -1.901523778930283570e-13 -3.002405859738391247e-14 2.201764398785440585e-14
6.590000000000000000e+02 5.421392059326171875e+01 -3.221839141845703125e+01 -1.000802037949425141e-14 -2.101684169579509653e-13 -6.605293026949732305e-14 2.001604075898850282e-14
6.600000000000000000e+02 1.303703308105468750e+01 -1.930703163146972656e+01 2.371900690179701288e-13 2.114694704069552955e-12 7.055654346367623564e-13 -3.362694779747432694e-13
6.610000000000000000e+02 1.388178253173828125e+01 -1.976366424560546875e+01 2.902325732176413986e-13 2.732189474663471174e-12 9.067266252063554965e-13 -4.163336342344337027e-13
6.620000000000000000e+02 1.408861255645751953e+01 -2.150006866455078125e+01 6.154932249632927288e-13 2.116696141279961196e-12 8.196568423990413521e-13 -4.123304345529654746e-13
6.630000000000000000e+02 1.465036296844482422e+01 -2.032433891296386719e+01 3.983192085627723644e-13 3.464776642675415630e-12 1.158928747239940105e-12 -4.843881914497194519e-13
6.640000000000000000e+02 1.203146100044250488e+00 -3.397565460205078125e+01 -1.801443583605670529e-14 -6.024827988934666756e-13 -1.861491782115601290e-13 -2.401924891078620339e-14
6.650000000000000000e+02 2.724932909011840820e+00 -3.232967376708984375e+01 -1.080866150163402317e-13 -4.123304345529654746e-13 -1.561251128379126385e-13 9.607699564314481355e-14
6.660000000000000000e+02 3.868410110473632812e+00 -3.642256546020507812e+01 3.502807175174635357e-14 -1.451162866088206993e-13 -3.302646513474866152e-14 8.406736949368581735e-14
6.670000000000000000e+02 2.242409467697143555e+00 -3.724909210205078125e+01 -6.004811719476782494e-14 -6.004811719476782494e-14 -3.602887167211341057e-14 5.604491073703601889e-14
6.680000000000000000e+02 2.128493309020996094e+00 -3.544003677368164062e+01 -1.341074739322559162e-13 -4.463576860555540371e-13 -1.741395520621011328e-13 8.807057595141762341e-14
6.690000000000000000e+02 2.450486421585083008e+00 -1.330994892120361328e+01 -3.402726844324750755e-14 -7.465983126869746300e-13 -2.341876692568689577e-13 -1.361090737729900302e-13
6.700000000000000000e+02 2.513431787490844727e+00 -1.980286407470703125e+01 7.005614350349270714e-14 -1.090874135814545731e-12 -3.062454261536229350e-13 8.006416303595401129e-14
6.710000000000000000e+02 1.781298995018005371e+00 -1.729692268371582031e+01 8.206576287668812530e-14 -1.222980050563649002e-12 -3.422742774969456114e-13 -1.401122870069854143e-13
6.720000000000000000e+02 1.104790806770324707e+00 -2.766031837463378906e+01 -3.803047490097931360e-14 -1.022819632809368606e-12 -3.182550251980276190e-13 1.441154866884536423e-13
6.730000000000000000e+02 1.837063550949096680e+00 -2.533837890625000000e+01 -1.140914348673333079e-13 -1.146919148195535421e-12 -3.783031559453226000e-13 1.281026608575264181e-13
6.740000000000000000e+02 1.837696194648742676e+00 -2.374526977539062500e+01 -1.200962445539310169e-14 -1.148920693826160910e-12 -3.482791041242022656e-13 2.802245536851800944e-14
6.750000000000000000e+02 1.074307322502136230e+00 -2.045812606811523438e+01 4.203368474684290867e-14 -1.263012155798548530e-12 -3.662935297958636038e-13 -1.120898214740720378e-13
6.760000000000000000e+02 1.789366483688354492e+00 -1.972195625305175781e+01 6.004812227696550847e-15 -1.026822832490836834e-12 -3.062454261536229350e-13 -1.040834085586084257e-13
6.770000000000000000e+02 1.052417278289794922e+00 -1.320436191558837891e+01 -1.000802037949425141e-14 -1.170938346284344789e-12 -3.542839036464046076e-13 -1.040834085586084257e-13
6.780000000000000000e+02 1.750454306602478027e+00 -1.245201969146728516e+01 6.605293026949732305e-14 -8.867105725889057322e-13 -2.461972954063279539e-13 -1.521218996039172544e-13
6.790000000000000000e+02 1.994720935821533203e+00 -5.228148460388183594e+00 -3.402726844324750755e-14 -1.060850151756061177e-13 -4.203368474684290867e-14 -2.922341730583755126e-13
6.800000000000000000e+02 1.770753622055053711e+00 -8.447778701782226562e+00 4.203368474684290867e-14 -6.224988515109164400e-13 -1.741395520621011328e-13 -3.402726776562114974e-13
6.810000000000000000e+02 2.386600971221923828e+00 -3.733212232589721680e+00 -1.561251128379126385e-13 -3.642919299551294898e-13 -1.561251128379126385e-13 -1.961571909677578551e-13
6.820000000000000000e+02 1.753811001777648926e+00 -1.005641746520996094e+01 -2.001604075898850282e-14 -7.405934589546636637e-13 -2.281828697346666157e-13 -3.122502256758252770e-13
6.830000000000000000e+02 1.769372463226318359e+00 -1.566196441650390625e+01 -8.406736949368581735e-14 -1.156927093189097366e-12 -3.722983564231202580e-13 -5.604491073703601889e-14
6.840000000000000000e+02 1.140755057334899902e+00 -3.002542304992675781e+01 2.021620040424873532e-13 -7.826271640302973065e-13 -1.741395520621011328e-13 -1.160930347080674219e-13
6.850000000000000000e+02 1.090771794319152832e+00 -2.287051391601562500e+01 8.006416303595401129e-15 -1.369097109987782446e-12 -4.083272077664429345e-13 -6.805453688649501509e-14
6.860000000000000000e+02 1.817227840423583984e+00 -2.212661933898925781e+01 -5.404330750817011586e-14 -1.327063459122257427e-12 -4.143320343936995886e-13 -3.202566521438160452e-14
6.870000000000000000e+02 1.393429398536682129e+00 -3.769920730590820312e+01 2.852285871683332696e-14 -3.537835172387482352e-13 -9.757819552369539906e-14 2.001604075898850282e-14
6.880000000000000000e+02 1.149146437644958496e+00 -3.081399726867675781e+01 5.604491073703601889e-14 -6.164940519887140979e-13 -1.681347389873716347e-13 1.240994476235310340e-13
6.890000000000000000e+02 1.913834571838378906e+00 -3.002485466003417969e+01 -6.004812227696550847e-15 -7.345886594324613217e-13 -2.221780431074099615e-13 2.361892690976030718e-13
6.900000000000000000e+02 1.859468102455139160e+00 -2.847269630432128906e+01 -5.804651735403371093e-14 -8.026432166477470709e-13 -2.582069215557869502e-13 3.162534253572935050e-13
6.910000000000000000e+02 1.832218050956726074e+00 -2.613180160522460938e+01 1.160930347080674219e-13 -9.567666754348169711e-13 -2.522020949285302960e-13 1.000802021008766196e-13
6.920000000000000000e+02 2.596003532409667969e+00 -2.383064842224121094e+01 1.120898214740720378e-13 -1.072859791458047329e-12 -2.882309733769072846e-13 1.481186999224490264e-13
6.930000000000000000e+02 1.806275129318237305e+00 -2.132364654541015625e+01 7.005614350349270714e-14 -1.090874135814545731e-12 -3.062454261536229350e-13 -9.207378240914942946e-14
6.940000000000000000e+02 1.068315386772155762e+00 -1.723791122436523438e+01 -1.801443583605670529e-14 -1.242996048970990142e-12 -3.783031559453226000e-13 1.601283260719080226e-14
6.950000000000000000e+02 1.785021185874938965e+00 -1.891840362548828125e+01 2.602085213965210642e-14 -1.246999248652458370e-12 -3.662935297958636038e-13 1.601283260719080226e-14
6.960000000000000000e+02 1.762551188468933105e+00 -1.485354995727539062e+01 -1.801443651368306309e-13 -9.007218256841531545e-13 -3.242598518252842732e-13 -1.281026608575264181e-13
6.970000000000000000e+02 1.055143952369689941e+00 -1.400752067565917969e+01 -1.220978477827969200e-13 -1.058848538362799907e-12 -3.542839036464046076e-13 -3.202566521438160452e-14
6.980000000000000000e+02 1.756634950637817383e+00 -1.405104446411132812e+01 -6.004811719476782494e-14 -9.407538767089440590e-13 -3.002405995263662808e-13 -1.561251128379126385e-13
6.990000000000000000e+02 1.051025986671447754e+00 -9.999741554260253906e+00 3.402726844324750755e-14 -6.945566084076704172e-13 -1.981587908084919691e-13 -6.405133042876320904e-14
7.000000000000000000e+02 1.751212477684020996e+00 -1.085630989074707031e+01 -3.803047490097931360e-14 -7.025630077706068732e-13 -2.221780431074099615e-13 -1.521218996039172544e-13
7.010000000000000000e+02 1.750037193298339844e+00 -1.165423107147216797e+01 -7.005614350349270714e-14 -6.705373561087524248e-13 -2.221780431074099615e-13 -2.281828697346666157e-13
7.020000000000000000e+02 1.961454510688781738e+00 -3.267758846282958984e+00 -3.803047490097931360e-14 2.582069215557869502e-13 6.605293026949732305e-14 -3.202566521438160452e-14
7.030000000000000000e+02 1.265156745910644531e+00 -4.299824714660644531e+00 1.000802037949425141e-14 -1.100882216333379238e-13 -3.002405859738391247e-14 -1.281026608575264181e-13
7.040000000000000000e+02 2.005424022674560547e+00 -3.390832138061523438e+01 -1.200962445539310169e-14 -5.084074437486374443e-13 -1.561251128379126385e-13 -5.204170427930421283e-14
7.050000000000000000e+02 2.653267860412597656e+00 -2.925554084777832031e+01 -3.202566521438160452e-14 -7.686159651451585084e-13 -2.401924687790712998e-13 2.081668171172168513e-13
7.060000000000000000e+02 2.067195892333984375e+00 -3.468016433715820312e+01 -5.004010105043830980e-14 -5.704571472316122271e-13 -1.861491782115601290e-13 -2.001604075898850282e-14
7.070000000000000000e+02 1.820334672927856445e+00 -3.662984085083007812e+01 1.251002547436781426e-16 -4.117049312146042750e-13 -1.234739442851698343e-13 7.956375629950690476e-14
7.080000000000000000e+02 1.400691127777099609e+01 -1.656648826599121094e+01 3.983192085627723644e-13 2.423942557089331373e-12 8.466785215641148277e-13 2.502004950877961820e-13
7.090000000000000000e+02 6.717534637451171875e+01 -2.545664787292480469e+01 4.153328478665938017e-14 -3.652927163229693908e-14 1.501203056924137712e-15 3.402726844324750755e-14
7.100000000000000000e+02 1.232617092132568359e+01 -1.757929420471191406e+01 4.283432603838926989e-13 1.533228622188631540e-12 5.884716000083278775e-13 -9.007218256841531545e-14
7.110000000000000000e+02 1.796675872802734375e+01 -2.700973272323608398e+00 -4.663737386730038015e-13 4.863897912904535659e-13 6.004812227696550847e-15 -1.801443651368306309e-13
7.120000000000000000e+02 3.373067092895507812e+01 -2.739421463012695312e+01 -8.606896933441993136e-14 1.461170865291877563e-13 1.801443583605670529e-14 -3.002405859738391247e-14
7.130000000000000000e+02 6.245705413818359375e+01 -2.900078010559082031e+01 7.480994990149980595e-14 7.781235643886455500e-14 4.578669122448295048e-14 4.403528797570881170e-14
7.140000000000000000e+02 6.489875030517578125e+01 -2.781122398376464844e+01 1.449911967831701842e-13 2.315605660777736441e-13 1.129655247925250017e-13 6.880513852083620235e-15
7.150000000000000000e+02 1.809771537780761719e+01 -2.624204063415527344e+01 4.503609128420765773e-13 6.505213034913026604e-13 3.302646513474866152e-13 -6.245004513516505540e-13
7.160000000000000000e+02 2.064227676391601562e+01 -1.082354450225830078e+01 2.622101212372551782e-13 -1.621299259126421366e-13 3.002405859738391247e-14 2.181748434259417335e-13
7.170000000000000000e+02 2.178851890563964844e+01 -8.695296287536621094e+00 2.552045217946857791e-13 1.551243129175455815e-13 1.230986477031639770e-13 4.203368339159019307e-13
7.180000000000000000e+02 2.727746963500976562e+01 -3.031118583679199219e+01 4.003208151797700565e-14 -1.200962343895356499e-13 -2.401924891078620339e-14 -2.401924891078620339e-14
7.190000000000000000e+02 2.825013351440429688e+01 -3.117399024963378906e+01 1.511210996835501974e-13 1.901523745048965680e-14 5.104090097080536681e-14 -2.401924891078620339e-14
7.200000000000000000e+02 1.895234298706054688e+01 -2.800418090820312500e+01 2.161732300326804634e-13 5.044041898570605920e-13 2.161732300326804634e-13 -4.403528865333516951e-13
7.210000000000000000e+02 1.826145553588867188e+01 -2.759604835510253906e+01 2.532028948488973530e-13 6.575269300389263716e-13 2.732189474663471174e-13 -4.363496868518834670e-13
7.220000000000000000e+02 6.069245529174804688e+01 -3.108756065368652344e+01 -6.004812227696550847e-15 6.605293026949732305e-14 1.801443583605670529e-14 8.406736949368581735e-14
7.230000000000000000e+02 1.644201087951660156e+01 -2.560182380676269531e+01 4.680000419317320581e-13 8.868356895196105594e-13 4.064507248564136477e-13 -6.234996243262291848e-13
7.240000000000000000e+02 3.535382080078125000e+01 -2.364957427978515625e+01 -1.000802037949425141e-14 -5.004010105043830980e-14 -1.801443583605670529e-14 -6.605293026949732305e-14
7.250000000000000000e+02 6.906868743896484375e+01 -2.270805358886718750e+01 6.405133042876320904e-14 -6.405133042876320904e-14 0.000000000000000000e+00 5.204170427930421283e-14
7.260000000000000000e+02 6.760575866699218750e+01 -2.368885612487792969e+01 3.002405859738391247e-14 1.501202997631831404e-13 5.404330750817011586e-14 6.405133042876320904e-14
7.270000000000000000e+02 5.330532073974609375e+01 -3.228667449951171875e+01 -8.006416303595401129e-15 -7.205774334422682115e-14 -2.401924891078620339e-14 4.403528797570881170e-14
7.280000000000000000e+02 2.631826210021972656e+01 -3.119702529907226562e+01 6.805453688649501509e-14 2.121700303512122354e-13 8.406736949368581735e-14 -1.721379386688398627e-13
7.290000000000000000e+02 6.851512908935546875e+01 -2.228583717346191406e+01 1.821459649775647449e-13 7.806255641895631925e-14 7.806255641895631925e-14 4.403528797570881170e-14
7.300000000000000000e+02 6.950896453857421875e+01 -2.203958892822265625e+01 2.702165375408505793e-14 1.030826086382413687e-13 3.903127820947815962e-14 -5.404330750817011586e-14
7.310000000000000000e+02 1.530676937103271484e+01 -2.441674232482910156e+01 2.364394758539584140e-13 1.382357769919018153e-12 4.856391981264418511e-13 -6.925550085669363032e-13
7.320000000000000000e+02 4.576369857788085938e+01 -2.777221679687500000e+01 6.054852393121493148e-14 2.547041082819750946e-13 9.457578898633065001e-14 -3.602887167211341057e-14
7.330000000000000000e+02 4.458348464965820312e+01 -2.533308410644531250e+01 -1.065854151357896462e-13 9.157338244896590096e-14 -4.503608959014176322e-15 -1.561251128379126385e-13
7.340000000000000000e+02 2.141040802001953125e+01 -4.226430416107177734e+00 1.200962445539310169e-14 1.881507780522942430e-13 6.004811719476782494e-14 5.484394947734283488e-13
7.350000000000000000e+02 5.454419326782226562e+01 -3.313315200805664062e+01 -5.504411081666896188e-14 -1.551243129175455815e-13 -6.305052373213257400e-14 2.752205540833448094e-14
7.360000000000000000e+02 5.600586700439453125e+01 -3.258261108398437500e+01 7.005613842129502361e-15 3.002406113848275424e-15 3.002406113848275424e-15 0.000000000000000000e+00
7.370000000000000000e+02 2.150395584106445312e+01 -9.408769607543945312e+00 1.005806020610601481e-13 -1.856487782513766005e-13 -2.552045048540268340e-14 5.244202424745103563e-13
7.380000000000000000e+02 2.131749725341796875e+01 -1.059087085723876953e+01 2.241796429481440756e-13 9.607699564314481355e-14 9.607699564314481355e-14 5.484394947734283488e-13
7.390000000000000000e+02 2.082762145996093750e+01 -6.988044261932373047e+00 8.606896933441993136e-14 1.741395520621011328e-13 7.806255641895631925e-14 3.923143819355157103e-13
7.400000000000000000e+02 2.133552742004394531e+01 -7.794685840606689453e+00 1.921539912862896271e-13 2.882309733769072846e-13 1.441154866884536423e-13 4.403528865333516951e-13
7.410000000000000000e+02 1.760114097595214844e+01 -2.695294380187988281e+01 3.615397369503836611e-13 8.869607522402067623e-13 3.745501630202097143e-13 -4.373504867722505240e-13
7.420000000000000000e+02 2.164715766906738281e+01 -6.397746562957763672e+00 2.141716301919463494e-13 2.061652172764827373e-13 1.261010474642651480e-13 5.164138431115739003e-13
7.430000000000000000e+02 1.702760124206542969e+01 -2.622524833679199219e+01 2.725934441279859177e-13 8.945919092312459853e-13 3.501556141392858645e-13 -6.405133042876320904e-13
7.440000000000000000e+02 1.259477233886718750e+01 -1.549565505981445312e+01 3.773023560249555430e-13 1.414133241929571572e-12 5.374306685443364096e-13 -5.854691731421723944e-14
7.450000000000000000e+02 2.367076492309570312e+01 -3.004039001464843750e+01 1.571259127582796955e-13 1.130906281707026728e-13 8.106496295632106830e-14 -1.681347389873716347e-13
7.460000000000000000e+02 2.433879661560058594e+01 -3.116522979736328125e+01 1.401122870069854143e-13 3.803047557860567141e-13 1.561251128379126385e-13 -1.160930347080674219e-13
7.470000000000000000e+02 3.682927322387695312e+01 -1.670615577697753906e+01 7.005613842129502361e-15 1.631307258330091936e-13 5.104090097080536681e-14 7.205774334422682115e-14
7.480000000000000000e+02 3.683232116699218750e+01 -2.030498123168945312e+01 -3.202566521438160452e-14 -1.281026608575264181e-13 -4.803849782157240678e-14 2.001604075898850282e-14
7.490000000000000000e+02 3.836543273925781250e+01 -1.679809761047363281e+01 -1.321058605389946461e-13 1.721379386688398627e-13 1.200962445539310169e-14 -4.803849782157240678e-14
7.500000000000000000e+02 3.765491104125976562e+01 -1.669044303894042969e+01 5.604491073703601889e-14 2.401924891078620339e-14 2.401924891078620339e-14 4.803849782157240678e-14
7.510000000000000000e+02 3.659803771972656250e+01 -1.589428424835205078e+01 1.601283260719080226e-14 -1.761411519028352468e-13 -4.803849782157240678e-14 2.401924891078620339e-14
7.520000000000000000e+02 4.811455535888671875e+01 -2.927363967895507812e+01 -1.801443583605670529e-14 1.981587908084919691e-13 5.404330750817011586e-14 5.104090097080536681e-14
7.530000000000000000e+02 5.225558853149414062e+01 -3.218585586547851562e+01 5.604491073703601889e-14 2.401924891078620339e-14 2.401924891078620339e-14 4.803849782157240678e-14
7.540000000000000000e+02 6.369622421264648438e+01 -2.902078247070312500e+01 7.668645314031982685e-14 7.218284672240449229e-14 4.466078792593822233e-14 4.778829445334885351e-14
7.550000000000000000e+02 1.757899665832519531e+01 -1.109159660339355469e+01 4.433552862944528661e-13 6.475188766251471773e-13 3.272622515863854442e-13 4.803849375581425996e-13
7.560000000000000000e+02 1.814120674133300781e+01 -1.139892578125000000e+01 7.038140144473292725e-13 4.145822411500549309e-13 3.355188848107315547e-13 4.140818276373442464e-13
7.570000000000000000e+02 5.118886184692382812e+01 -3.193607711791992188e+01 -6.004812227696550847e-15 -9.407538902614712151e-14 -3.002405859738391247e-14 4.003208151797700565e-15
7.580000000000000000e+02 6.234753036499023438e+01 -3.026531982421875000e+01 4.853889778175593528e-14 6.505213034913026604e-15 1.651323256737433076e-14 5.254210593355363584e-15
7.590000000000000000e+02 6.816934204101562500e+01 -2.410458564758300781e+01 1.230986477031639770e-13 1.271018609371593611e-13 7.506014988159157020e-14 2.552045048540268340e-14
7.600000000000000000e+02 2.729170417785644531e+01 -3.124548339843750000e+01 1.381106736137241442e-13 8.206576287668812530e-14 6.605293026949732305e-14 -1.401122870069854143e-13
7.610000000000000000e+02 4.916297149658203125e+01 -3.118606376647949219e+01 -4.403528797570881170e-14 1.641315257533762506e-13 3.602887167211341057e-14 -9.607699564314481355e-14
7.620000000000000000e+02 1.440032291412353516e+01 -1.199817848205566406e+01 1.961571909677578551e-13 1.044837285267552485e-12 3.722983564231202580e-13 2.812253739343378856e-13
7.630000000000000000e+02 1.477424621582031250e+01 -1.411286067962646484e+01 4.633713118068483183e-13 1.708369014828681198e-12 6.515221305167240295e-13 6.204972516701823260e-13
7.640000000000000000e+02 5.213080978393554688e+01 -3.325659179687500000e+01 6.004812227696550847e-15 -6.605293026949732305e-14 -1.801443583605670529e-14 2.602085213965210642e-14
7.650000000000000000e+02 2.005549812316894531e+01 -2.932415962219238281e+01 3.571612135818552636e-13 5.648276442914157425e-13 2.765966438094541457e-13 -3.422742774969456114e-13
7.660000000000000000e+02 2.092156982421875000e+01 -2.998254585266113281e+01 1.741395520621011328e-13 4.863897912904535659e-13 1.981587908084919691e-13 -3.002405995263662808e-13
7.670000000000000000e+02 1.554010009765625000e+01 -1.175520420074462891e+01 3.642919299551294898e-13 7.966384171255447288e-13 3.482791041242022656e-13 4.623705389915355735e-13
7.680000000000000000e+02 3.661379241943359375e+01 -2.216256523132324219e+01 1.000802037949425141e-14 -1.100882216333379238e-13 -3.002405859738391247e-14 -6.004812227696550847e-15
7.690000000000000000e+02 4.751916503906250000e+01 -3.001918601989746094e+01 -1.363592771412135835e-14 3.990698152793112352e-14 7.881315466516571749e-15 -3.903127820947815962e-14
7.700000000000000000e+02 3.579540634155273438e+01 -1.329006767272949219e+01 -9.807859548387892756e-14 1.180946345488015359e-13 6.004812227696550847e-15 -1.601283260719080226e-14
7.710000000000000000e+02 1.384548664093017578e+01 -1.540449142456054688e+01 4.603689391508014594e-13 1.741395439305848392e-12 6.605293026949732305e-13 2.061652172764827373e-13
7.720000000000000000e+02 5.894796371459960938e+01 -3.168321037292480469e+01 -3.602887167211341057e-14 -1.641315257533762506e-13 -6.004811719476782494e-14 5.804651735403371093e-14
7.730000000000000000e+02 5.981500244140625000e+01 -3.136287689208984375e+01 4.003208151797700565e-15 3.602887167211341057e-14 1.200962445539310169e-14 7.205774334422682115e-14
7.740000000000000000e+02 2.532078170776367188e+01 -3.218259811401367188e+01 -1.401122768425900472e-14 3.142518255165593910e-13 9.007218256841531545e-14 -1.941555911270237411e-13
7.750000000000000000e+02 6.862732696533203125e+01 -2.340132522583007812e+01 6.204972381176551699e-14 1.180946345488015359e-13 5.404330750817011586e-14 -4.003208151797700565e-15
7.760000000000000000e+02 1.154979944229125977e+00 -2.637933969497680664e+00 7.606094980195862720e-14 -3.602887167211341057e-14 1.200962445539310169e-14 6.405133042876320904e-14
7.770000000000000000e+02 3.704512405395507812e+01 -2.338128852844238281e+01 1.050842084789754827e-13 4.503609128420765773e-14 4.503609128420765773e-14 -3.202566521438160452e-14
7.780000000000000000e+02 1.509804439544677734e+01 -1.239851760864257812e+01 5.624507478686757711e-13 1.259008956117080302e-12 5.464378949326942347e-13 4.163336342344337027e-13
7.790000000000000000e+02 7.124897003173828125e+01 -2.054637527465820312e+01 1.180946345488015359e-13 6.204972381176551699e-14 5.404330750817011586e-14 1.240994476235310340e-13
7.800000000000000000e+02 3.639250564575195312e+01 -1.519065284729003906e+01 -3.002405859738391247e-14 -1.501202997631831404e-13 -5.404330750817011586e-14 1.921539912862896271e-13
7.810000000000000000e+02 4.533033752441406250e+01 -2.696784019470214844e+01 -9.057258252859884395e-14 2.356888826899466993e-13 4.353488801552528320e-14 -7.205774334422682115e-14
7.820000000000000000e+02 4.495185089111328125e+01 -2.614968872070312500e+01 -1.391114735340912012e-13 1.691355389077386917e-13 9.007217918028352643e-15 5.204170427930421283e-14
7.830000000000000000e+02 3.512689208984375000e+01 -2.551939201354980469e+01 -1.601283260719080226e-14 -1.441154866884536423e-13 -4.803849782157240678e-14 6.705373696612795809e-14
7.840000000000000000e+02 3.557806777954101562e+01 -2.476347732543945312e+01 3.803047490097931360e-14 -1.801443583605670529e-14 6.004812227696550847e-15 2.101684237342145434e-14
7.850000000000000000e+02 2.181790351867675781e+01 -3.022795677185058594e+01 1.361090737729900302e-13 4.243400607024244708e-13 1.681347389873716347e-13 -2.642117210779892922e-13
7.860000000000000000e+02 2.254511451721191406e+01 -3.051192474365234375e+01 1.741395520621011328e-13 4.063256079257088205e-13 1.741395520621011328e-13 -2.291836696550336727e-13
7.870000000000000000e+02 1.995798301696777344e+01 -2.788873100280761719e+01 3.175044320340159043e-13 4.105790143635323908e-13 2.184250366297699197e-13 -3.953167816966168813e-13
7.880000000000000000e+02 3.176302719116210938e+01 -2.999670982360839844e+01 -2.777225538842624519e-14 1.253504543002534333e-13 2.927345865710861972e-14 -1.291034607778934751e-13
7.890000000000000000e+02 4.468441390991210938e+01 -1.927273178100585938e+01 2.261812563414053456e-13 3.943159817762498243e-13 1.861491782115601290e-13 -1.100882216333379238e-13
7.900000000000000000e+02 4.418238449096679688e+01 -2.453490829467773438e+01 7.831275639904808350e-14 3.995701881344404516e-13 1.433648935244419276e-13 3.002406113848275424e-15
7.910000000000000000e+02 1.668075942993164062e+01 -1.145177555084228516e+01 5.234194696591976115e-13 7.275830328848376105e-13 3.753007561842214290e-13 4.523625126828106913e-13
7.920000000000000000e+02 1.963196945190429688e+01 -9.701747894287109375e+00 1.841475648182988589e-13 -1.040834085586084257e-13 2.401924891078620339e-14 3.162534253572935050e-13
7.930000000000000000e+02 4.285229492187500000e+01 -1.922223472595214844e+01 1.628805326291810074e-13 6.980593674713736485e-14 6.980593674713736485e-14 -8.406736949368581735e-14
7.940000000000000000e+02 4.426493835449218750e+01 -2.052863883972167969e+01 7.205774334422682115e-14 1.681347389873716347e-13 7.205774334422682115e-14 -6.405133042876320904e-14
7.950000000000000000e+02 3.017546844482421875e+01 -3.171654891967773438e+01 -5.754611400571839341e-15 4.328468803543351895e-14 1.125902282105191443e-14 -6.805453688649501509e-14
7.960000000000000000e+02 3.091905784606933594e+01 -3.074497604370117188e+01 1.951563910473907981e-14 4.553649124439118623e-14 1.951563910473907981e-14 2.270569562717265205e-14
7.970000000000000000e+02 4.627324295043945312e+01 -2.855185508728027344e+01 -3.327666511484042577e-14 -1.426142935841666348e-14 -1.426142935841666348e-14 6.004811719476782494e-14
7.980000000000000000e+02 4.828415298461914062e+01 -3.066271781921386719e+01 1.301042606982605321e-14 9.707779556351187056e-14 3.302646513474866152e-14 -1.401122768425900472e-14
7.990000000000000000e+02 2.008311510086059570e+00 -4.092482757568359375e+01 -5.404330750817011586e-14 -2.061652172764827373e-13 -7.806255641895631925e-14 -2.001604075898850282e-14
8.000000000000000000e+02 7.256526947021484375e+01 -1.999083137512207031e+01 6.004812227696550847e-15 -2.261812563414053456e-13 -6.605293026949732305e-14 8.006416303595401129e-15
8.010000000000000000e+02 7.009812927246093750e+01 -2.021514129638671875e+01 -3.002405859738391247e-14 -1.501202997631831404e-13 -5.404330750817011586e-14 2.001604075898850282e-14
8.020000000000000000e+02 7.317591094970703125e+01 -1.974365997314453125e+01 8.006416303595401129e-15 -8.807057595141762341e-14 -2.401924891078620339e-14 -3.002405859738391247e-14
8.030000000000000000e+02 7.296066284179687500e+01 -1.928887557983398438e+01 -6.004811719476782494e-14 -3.002405995263662808e-13 -1.080866150163402317e-13 -1.561251128379126385e-13
8.040000000000000000e+02 7.655052947998046875e+01 -2.061457252502441406e+01 -7.405934996122451319e-14 -3.062454261536229350e-13 -1.140914348673333079e-13 1.200962343895356499e-13
8.050000000000000000e+02 3.861312103271484375e+01 -1.615462303161621094e+01 1.220978477827969200e-13 9.807859548387892756e-14 6.605293026949732305e-14 -5.004010105043830980e-14
8.060000000000000000e+02 2.126609802246093750e+01 -4.929989337921142578e+00 -1.401122768425900472e-14 3.142518255165593910e-13 9.007218256841531545e-14 1.961571909677578551e-13
8.070000000000000000e+02 2.192948150634765625e+01 -4.964366436004638672e+00 2.602085213965210642e-14 1.941555911270237411e-13 6.605293026949732305e-14 5.684555473908781131e-13
8.080000000000000000e+02 4.170374679565429688e+01 -1.922008705139160156e+01 4.103288143834406265e-14 1.090874217129708668e-13 4.503609128420765773e-14 -8.706977603105056640e-14
8.090000000000000000e+02 3.983146667480468750e+01 -1.688907432556152344e+01 3.202566521438160452e-14 2.882309733769072846e-13 9.607699564314481355e-14 -3.222582519845501592e-13
8.100000000000000000e+02 4.538201522827148438e+01 -3.268965911865234375e+01 -5.604491073703601889e-14 -2.401924891078620339e-14 -2.401924891078620339e-14 -2.802245536851800944e-14
8.110000000000000000e+02 4.113167953491210938e+01 -1.872817993164062500e+01 -1.661331391466375207e-13 1.461170865291877563e-13 -6.004812227696550847e-15 -5.954771723458429644e-14
8.120000000000000000e+02 4.343225097656250000e+01 -2.127829551696777344e+01 2.001604075898850282e-14 2.602085213965210642e-13 8.406736949368581735e-14 6.405133042876320904e-14
8.130000000000000000e+02 3.770003890991210938e+01 -1.853386116027832031e+01 8.206576287668812530e-14 5.804651735403371093e-14 4.203368474684290867e-14 8.006416303595401129e-15
8.140000000000000000e+02 7.580474853515625000e+01 -1.899467658996582031e+01 -4.603689120457471473e-14 2.602085213965210642e-14 -6.004812227696550847e-15 7.205774334422682115e-14
8.150000000000000000e+02 2.223533821105957031e+01 -3.498008966445922852e+00 2.101684169579509653e-13 2.502004950877961820e-13 1.381106736137241442e-13 4.843881914497194519e-13
8.160000000000000000e+02 1.949310302734375000e+01 -2.473583459854125977e+00 -3.582871304329271478e-13 -6.204972381176551699e-14 -1.261010474642651480e-13 -3.602887167211341057e-14
8.170000000000000000e+02 7.418911743164062500e+01 -1.950987434387207031e+01 3.002405859738391247e-14 -3.302646513474866152e-13 -9.007218256841531545e-14 -5.604491073703601889e-14
8.180000000000000000e+02 4.158743286132812500e+01 -1.819448471069335938e+01 8.381716951359405310e-14 2.189254365899534482e-13 9.082278250869060821e-14 1.701363422162375377e-14
8.190000000000000000e+02 2.035165596008300781e+01 -8.753394126892089844e+00 2.842277736954390566e-13 2.361892690976030718e-13 1.561251128379126385e-13 5.604491480279416571e-13
8.200000000000000000e+02 2.039755821228027344e+01 -1.021252632141113281e+01 3.742999562638543720e-13 -1.140914348673333079e-13 7.806255641895631925e-14 4.783833377174084855e-13
8.210000000000000000e+02 1.182507705688476562e+01 -3.815245628356933594e+00 -4.603689391508014594e-13 -6.004811719476782494e-14 -1.561251128379126385e-13 8.006416303595401129e-15
8.220000000000000000e+02 1.106749629974365234e+01 -3.806889295578002930e+00 -4.363496868518834670e-13 -4.003208151797700565e-15 -1.321058605389946461e-13 -2.682149478645118323e-13
8.230000000000000000e+02 1.571127891540527344e+01 -3.643860578536987305e+00 -4.663737386730038015e-13 1.661331391466375207e-13 -9.007218256841531545e-14 -6.405133042876320904e-14
8.240000000000000000e+02 7.485118103027343750e+01 -2.032614898681640625e+01 1.220978477827969200e-13 -3.823063556267908281e-13 -7.806255641895631925e-14 4.003208151797700565e-14
8.250000000000000000e+02 1.415846252441406250e+01 -3.108657836914062500e+00 -5.404330954104918927e-13 -1.401122870069854143e-13 -2.041636038832214672e-13 -4.003208151797700565e-15
8.260000000000000000e+02 1.416928958892822266e+01 -3.784750223159790039e+00 -5.084074437486374443e-13 1.481186999224490264e-13 -1.080866150163402317e-13 -1.120898214740720378e-13
8.270000000000000000e+02 5.715630054473876953e+00 -4.119517803192138672e+00 -1.090874217129708668e-13 -1.000802037949425141e-15 -3.302646513474866152e-14 -2.602085213965210642e-13
8.280000000000000000e+02 6.571620941162109375e+00 -3.984998226165771484e+00 -1.901523778930283570e-13 -3.102486258350911630e-13 -1.501202997631831404e-13 -4.523625126828106913e-13
8.290000000000000000e+02 4.046735286712646484e+00 -3.296571731567382812e+00 -1.180946345488015359e-13 -1.421138868477195283e-13 -7.806255641895631925e-14 -2.121700303512122354e-13
8.300000000000000000e+02 3.934098720550537109e+00 -4.028336048126220703e+00 -9.007218256841531545e-14 3.002405859738391247e-14 -1.801443583605670529e-14 -1.401122870069854143e-13
8.310000000000000000e+02 8.111922264099121094e+00 -3.854685783386230469e+00 -3.562855034871387216e-13 -2.441956955655938399e-13 -1.801443651368306309e-13 -4.123304345529654746e-13
8.320000000000000000e+02 8.855017662048339844e+00 -3.823945283889770508e+00 -3.362694779747432694e-13 -1.441154866884536423e-13 -1.441154866884536423e-13 -2.722181475459800604e-13
8.330000000000000000e+02 9.578350067138671875e+00 -3.166333913803100586e+00 -4.803849375581425996e-13 -1.601283260719080226e-13 -1.921539912862896271e-13 -1.801443651368306309e-13
8.340000000000000000e+02 1.794749021530151367e+00 -7.646011829376220703e+00 -5.804651735403371093e-14 -4.823865916089853378e-13 -1.621299259126421366e-13 -1.961571909677578551e-13
8.350000000000000000e+02 3.134366750717163086e+00 -3.910000562667846680e+00 -9.807859548387892756e-14 -4.203368474684290867e-14 -4.203368474684290867e-14 -3.722983564231202580e-13
8.360000000000000000e+02 2.589400768280029297e+00 -3.153690814971923828e+00 7.405934996122451319e-14 -1.401122768425900472e-14 1.801443583605670529e-14 -2.522020949285302960e-13
8.370000000000000000e+02 2.122585296630859375e+00 -4.416622161865234375e+00 -3.803047490097931360e-14 -6.204972381176551699e-14 -3.002405859738391247e-14 -2.361892690976030718e-13
8.380000000000000000e+02 7.817003631591796875e+01 -2.063526153564453125e+01 -7.606094980195862720e-14 -1.240994476235310340e-13 -6.004811719476782494e-14 1.521218996039172544e-13
8.390000000000000000e+02 7.657239532470703125e+01 -1.981518554687500000e+01 -4.603689120457471473e-14 2.602085213965210642e-14 -6.004812227696550847e-15 4.803849782157240678e-14
8.400000000000000000e+02 2.149781227111816406e+01 -7.105734825134277344e+00 4.003208151797700565e-14 4.003208151797700565e-14 2.401924891078620339e-14 3.963175816169839383e-13
8.410000000000000000e+02 1.105682659149169922e+01 -4.431148529052734375e+00 -3.542839036464046076e-13 -1.060850151756061177e-13 -1.381106736137241442e-13 -1.601283260719080226e-13
8.420000000000000000e+02 1.882979202270507812e+01 -2.882140541076660156e+01 2.762213472274482884e-13 6.445165039691003184e-13 2.762213472274482884e-13 -3.903127820947815962e-13
8.430000000000000000e+02 1.870704078674316406e+01 -3.175431251525878906e+00 -3.983192085627723644e-13 5.804651735403371093e-14 -1.020818019416107336e-13 1.801443651368306309e-13
8.440000000000000000e+02 1.403220558166503906e+01 -2.334770393371582031e+01 3.903127820947815962e-13 1.471178972915765382e-12 5.584474939770989188e-13 -3.722983564231202580e-13
8.450000000000000000e+02 1.795794677734375000e+01 -3.293154716491699219e+00 -4.463576860555540371e-13 -5.404330750817011586e-14 -1.501202997631831404e-13 -1.040834085586084257e-13
8.460000000000000000e+02 1.260095405578613281e+01 -3.820500373840332031e+00 -4.443560862148199231e-13 8.406736949368581735e-14 -1.080866150163402317e-13 -2.522020949285302960e-13
8.470000000000000000e+02 1.338601398468017578e+01 -3.814998626708984375e+00 -3.943159817762498243e-13 1.401122768425900472e-14 -1.140914348673333079e-13 5.204170427930421283e-14
8.480000000000000000e+02 7.819464111328125000e+01 -2.140677642822265625e+01 5.604491073703601889e-14 3.442758773376797254e-13 1.200962343895356499e-13 2.401924891078620339e-14
8.490000000000000000e+02 7.749249267578125000e+01 -2.218122482299804688e+01 1.200962445539310169e-14 1.881507780522942430e-13 6.004811719476782494e-14 1.601283260719080226e-14
8.500000000000000000e+02 7.378581237792968750e+01 -2.064751815795898438e+01 1.531227130768114675e-13 -4.303448466720996568e-14 3.302646513474866152e-14 -4.903929774193946378e-14
8.510000000000000000e+02 7.749073791503906250e+01 -2.855195999145507812e+01 -1.721379386688398627e-13 -3.482791041242022656e-13 -1.561251128379126385e-13 5.204170427930421283e-14
8.520000000000000000e+02 7.748805236816406250e+01 -2.698999786376953125e+01 -4.003208151797700565e-14 -2.001604042017532392e-13 -7.205774334422682115e-14 2.802245536851800944e-14
8.530000000000000000e+02 7.676188659667968750e+01 -3.017816734313964844e+01 5.604491073703601889e-14 -1.361090737729900302e-13 -2.401924891078620339e-14 -1.000802021008766196e-13
8.540000000000000000e+02 7.669209289550781250e+01 -2.378081512451171875e+01 2.401924891078620339e-14 -2.642117210779892922e-13 -7.205774334422682115e-14 7.205774334422682115e-14
8.550000000000000000e+02 7.746641540527343750e+01 -2.541851806640625000e+01 9.807859548387892756e-14 4.203368474684290867e-14 4.203368474684290867e-14 -8.006416303595401129e-15
8.560000000000000000e+02 7.820323944091796875e+01 -2.459662818908691406e+01 5.404330750817011586e-14 -1.140914348673333079e-13 -1.801443583605670529e-14 -3.202566521438160452e-14
8.570000000000000000e+02 7.749891662597656250e+01 -2.298652458190917969e+01 -6.204972381176551699e-14 -4.383512866926175811e-13 -1.501202997631831404e-13 -4.003208151797700565e-14
8.580000000000000000e+02 7.660511779785156250e+01 -3.630805206298828125e+01 0.000000000000000000e+00 -1.601283260719080226e-13 -4.803849782157240678e-14 1.601283260719080226e-14
8.590000000000000000e+02 7.745340728759765625e+01 -3.167261505126953125e+01 -1.140914348673333079e-13 -1.861491782115601290e-13 -9.007218256841531545e-14 -4.003208151797700565e-15
8.600000000000000000e+02 7.746508026123046875e+01 -3.319004440307617188e+01 -4.003208151797700565e-15 -2.762213472274482884e-13 -8.406736949368581735e-14 -7.606094980195862720e-14
8.610000000000000000e+02 7.794538879394531250e+01 -3.475291442871093750e+01 1.801443583605670529e-14 -3.803047490097931360e-14 -6.004812227696550847e-15 8.006416303595401129e-15
8.620000000000000000e+02 7.719940185546875000e+01 -3.454019927978515625e+01 -8.406736949368581735e-14 -3.562855034871387216e-13 -1.321058605389946461e-13 -7.606094980195862720e-14
8.630000000000000000e+02 7.744161224365234375e+01 -3.383704757690429688e+01 -1.200962445539310169e-14 -1.881507780522942430e-13 -6.004811719476782494e-14 4.803849782157240678e-14
8.640000000000000000e+02 7.692887878417968750e+01 -3.351339340209960938e+01 -3.702967498061225660e-14 -1.531227130768114675e-13 -5.704571743366665393e-14 -1.000802021008766196e-13
8.650000000000000000e+02 7.747886657714843750e+01 -3.090313720703125000e+01 -6.004812227696550847e-15 -9.407538902614712151e-14 -3.002405859738391247e-14 8.006416303595401129e-15
8.660000000000000000e+02 7.747537231445312500e+01 -3.012685012817382812e+01 -8.807057595141762341e-14 -3.122502256758252770e-13 -1.200962343895356499e-13 5.204170427930421283e-14
8.670000000000000000e+02 2.025750923156738281e+01 -2.359053611755371094e+00 -2.762213472274482884e-13 -1.641315257533762506e-13 -1.321058605389946461e-13 6.805453688649501509e-14
8.680000000000000000e+02 3.690843200683593750e+01 -1.850241661071777344e+01 8.006416303595401129e-15 7.205774334422682115e-14 2.401924891078620339e-14 4.803849782157240678e-14
8.690000000000000000e+02 1.649834823608398438e+01 -4.188931941986083984e+00 -3.763015561045884860e-13 -2.401924891078620339e-14 -1.200962343895356499e-13 5.604491073703601889e-14
8.700000000000000000e+02 1.911886596679687500e+01 -1.034631156921386719e+01 3.863095824133133682e-13 3.943159817762498243e-13 2.341876692568689577e-13 5.724587470723463412e-13
8.710000000000000000e+02 6.721746063232421875e+01 -2.660685157775878906e+01 1.850232749130154009e-13 2.165485401672134769e-13 1.204715445240686633e-13 -3.452766840343103605e-14
8.720000000000000000e+02 4.323371124267578125e+01 -2.289530181884765625e+01 -4.003208151797700565e-14 1.200962343895356499e-13 2.401924891078620339e-14 1.200962445539310169e-14
8.730000000000000000e+02 6.547906494140625000e+01 -2.833610725402832031e+01 6.767923352822557970e-14 5.116600096085124894e-14 3.565357170197576420e-14 -3.734242326166106740e-14
8.740000000000000000e+02 1.494623088836669922e+01 -3.726723194122314453e+00 -3.943159817762498243e-13 1.401122768425900472e-14 -1.140914348673333079e-13 6.405133042876320904e-14
8.750000000000000000e+02 1.646254348754882812e+01 -3.536990404129028320e+00 -4.523625126828106913e-13 -1.481186999224490264e-13 -1.801443651368306309e-13 6.004811719476782494e-14
8.760000000000000000e+02 3.524582147598266602e+00 -3.724940109252929688e+01 -7.656135653840573374e-14 -7.856295637913984775e-14 -4.653729455289003225e-14 -8.006416303595401129e-15
8.770000000000000000e+02 3.011960268020629883e+00 -3.666717529296875000e+01 -6.104892389139845998e-14 -2.091676170375839083e-13 -8.106496295632106830e-14 1.401122768425900472e-14
8.780000000000000000e+02 1.776208043098449707e+00 -1.647779655456542969e+01 -1.080866150163402317e-13 -1.052843684630488941e-12 -3.482791041242022656e-13 -4.003208151797700565e-15
8.790000000000000000e+02 2.460306644439697266e+00 -1.490547466278076172e+01 -3.402726844324750755e-14 -9.067266252063554965e-13 -2.822261738547049426e-13 -1.361090737729900302e-13
8.800000000000000000e+02 2.603192567825317383e+00 -2.849908828735351562e+01 7.806255641895631925e-14 -6.985598080891386452e-13 -1.861491782115601290e-13 6.004811719476782494e-14
8.810000000000000000e+02 1.829108476638793945e+00 -2.293648910522460938e+01 8.807057595141762341e-14 -1.128904695418819770e-12 -3.122502256758252770e-13 1.200962343895356499e-13
8.820000000000000000e+02 2.543513536453247070e+00 -2.139705848693847656e+01 9.607699564314481355e-14 -8.967185717925763022e-13 -2.401924687790712998e-13 1.160930347080674219e-13
8.830000000000000000e+02 2.570477962493896484e+00 -2.621623229980468750e+01 -5.204170427930421283e-14 -7.085678072928092153e-13 -2.281828697346666157e-13 1.841475648182988589e-13
8.840000000000000000e+02 2.453552246093750000e+00 -1.410503578186035156e+01 -5.404330750817011586e-14 -5.264218423152444704e-13 -1.741395520621011328e-13 -1.561251128379126385e-13
8.850000000000000000e+02 2.954351663589477539e+00 -3.538591003417968750e+01 -4.003208151797700565e-14 -5.204170427930421283e-13 -1.681347389873716347e-13 2.802245536851800944e-14
8.860000000000000000e+02 2.503099918365478516e+00 -3.606451034545898438e+01 -1.170938346284344789e-13 -2.732189474663471174e-13 -1.170938346284344789e-13 8.356696953350228885e-14
8.870000000000000000e+02 1.943477153778076172e+00 -3.234774780273437500e+01 -1.200962445539310169e-14 -5.084074437486374443e-13 -1.561251128379126385e-13 6.004811719476782494e-14
8.880000000000000000e+02 2.481963396072387695e+00 -8.529319763183593750e+00 -1.801443583605670529e-14 -6.024827988934666756e-13 -1.861491782115601290e-13 -1.961571909677578551e-13
8.890000000000000000e+02 1.758974075317382812e+00 -9.251455307006835938e+00 4.403528797570881170e-14 -4.843881914497194519e-13 -1.321058605389946461e-13 -2.201764432666758475e-13
8.900000000000000000e+02 3.162930250167846680e+00 -1.021254539489746094e+01 -4.403528797570881170e-14 -4.763817378766743715e-13 -1.561251128379126385e-13 -2.722181475459800604e-13
8.910000000000000000e+02 1.783219575881958008e+00 -1.811026763916015625e+01 4.403528797570881170e-14 -1.124901495737351542e-12 -3.242598518252842732e-13 -1.521218996039172544e-13
8.920000000000000000e+02 2.484037876129150391e+00 -1.654147911071777344e+01 2.001604075898850282e-14 -1.020818087178743117e-12 -3.002405995263662808e-13 -2.161732300326804634e-13
8.930000000000000000e+02 2.527914524078369141e+00 -2.059982490539550781e+01 1.481186999224490264e-13 -8.286640687873991773e-13 -2.041636038832214672e-13 -8.406736949368581735e-14
8.940000000000000000e+02 2.458141803741455078e+00 -1.012792396545410156e+01 -2.201764398785440585e-14 -5.584474939770989188e-13 -1.741395520621011328e-13 -1.761411519028352468e-13
8.950000000000000000e+02 2.454914569854736328e+00 -1.092617607116699219e+01 -9.807859548387892756e-14 -6.825469551531571089e-13 -2.341876692568689577e-13 -2.562053217150528361e-13
8.960000000000000000e+02 2.465029954910278320e+00 -9.326950073242187500e+00 1.200962445539310169e-14 -4.523625126828106913e-13 -1.321058605389946461e-13 -3.482791041242022656e-13
8.970000000000000000e+02 3.186168670654296875e+00 -1.660554885864257812e+01 1.000802037949425141e-14 -7.506015123684428580e-13 -2.221780431074099615e-13 1.601283260719080226e-14
8.980000000000000000e+02 2.493076086044311523e+00 -1.736804008483886719e+01 1.481186999224490264e-13 -8.286640687873991773e-13 -2.041636038832214672e-13 -1.281026608575264181e-13
8.990000000000000000e+02 2.496714830398559570e+00 -1.818892478942871094e+01 5.404330750817011586e-14 -1.074861337088672819e-12 -3.062454261536229350e-13 -7.205774334422682115e-14
9.000000000000000000e+02 2.471003770828247070e+00 -1.571791267395019531e+01 -8.006416303595401129e-14 -7.205774605473225236e-13 -2.401924687790712998e-13 -1.801443651368306309e-13
9.010000000000000000e+02 3.770046710968017578e+00 -4.766514301300048828e+00 -7.005614350349270714e-14 -1.901523778930283570e-13 -7.806255641895631925e-14 -2.662133209187234062e-13
9.020000000000000000e+02 1.904349565505981445e+00 -6.037848949432373047e+00 -2.201764398785440585e-14 -5.584474939770989188e-13 -1.741395520621011328e-13 -2.882309733769072846e-13
9.030000000000000000e+02 2.576343297958374023e+00 -6.943361759185791016e+00 1.601283260719080226e-14 -4.963977904941241359e-13 -1.441154866884536423e-13 -3.562855034871387216e-13
9.040000000000000000e+02 1.839857816696166992e+00 -2.454379653930664062e+01 1.220978477827969200e-13 -1.182947945328749473e-12 -3.182550251980276190e-13 1.120898214740720378e-13
9.050000000000000000e+02 2.580904006958007812e+00 -2.301520729064941406e+01 -1.801443583605670529e-14 -1.082867736451609275e-12 -3.302646513474866152e-13 2.401924891078620339e-14
9.060000000000000000e+02 3.409994125366210938e+00 -6.290826797485351562e+00 -1.200962343895356499e-13 -6.004811990527325616e-13 -2.161732300326804634e-13 -3.122502256758252770e-13
9.070000000000000000e+02 4.609778404235839844e+00 -4.946063518524169922e+00 -8.206576287668812530e-14 -5.804651735403371093e-14 -4.203368474684290867e-14 -1.981587908084919691e-13
9.080000000000000000e+02 3.366291999816894531e+00 -2.392656517028808594e+01 6.405133042876320904e-14 -8.646929201307218538e-13 -2.401924687790712998e-13 1.160930347080674219e-13
9.090000000000000000e+02 1.830672144889831543e+00 -2.691883659362792969e+01 -8.606896933441993136e-14 -1.134909440730913488e-12 -3.662935297958636038e-13 1.721379386688398627e-13
9.100000000000000000e+02 2.561267614364624023e+00 -2.220090675354003906e+01 1.080866150163402317e-13 -1.028824486541679573e-12 -2.762213472274482884e-13 2.401924891078620339e-14
9.110000000000000000e+02 2.567842245101928711e+00 -2.775208091735839844e+01 1.200962445539310169e-14 -7.726191648266267364e-13 -2.281828697346666157e-13 8.406736949368581735e-14
9.120000000000000000e+02 2.557226657867431641e+00 -2.699223327636718750e+01 -1.601283260719080226e-13 -1.120898296055883314e-12 -3.843079825725792542e-13 1.160930347080674219e-13
9.130000000000000000e+02 1.939156770706176758e+00 -3.157581520080566406e+01 -4.603689120457471473e-14 -6.144924521479799839e-13 -1.981587908084919691e-13 8.406736949368581735e-14
9.140000000000000000e+02 2.705013751983642578e+00 -3.002662849426269531e+01 1.000802037949425141e-14 -5.904731998490619915e-13 -1.741395520621011328e-13 5.604491073703601889e-14
9.150000000000000000e+02 2.738849878311157227e+00 -3.080182647705078125e+01 -4.403528797570881170e-14 -4.763817378766743715e-13 -1.561251128379126385e-13 2.081668171172168513e-13
9.160000000000000000e+02 1.960569262504577637e+00 -3.312677764892578125e+01 -6.405133042876320904e-14 -5.764619467538145692e-13 -1.921539912862896271e-13 6.805453688649501509e-14
9.170000000000000000e+02 3.521414518356323242e+00 -3.001244926452636719e+01 -4.803849782157240678e-14 -4.323464600653609269e-13 -1.441154866884536423e-13 2.001604042017532392e-13
9.180000000000000000e+02 2.721772193908691406e+00 -3.307909774780273438e+01 -4.803849782157240678e-14 -4.323464600653609269e-13 -1.441154866884536423e-13 6.004811719476782494e-14
9.190000000000000000e+02 2.927685260772705078e+00 -3.458710098266601562e+01 -1.401122768425900472e-14 -3.262614516660183872e-13 -1.020818019416107336e-13 1.200962445539310169e-14
9.200000000000000000e+02 2.796931505203247070e+00 -3.382733917236328125e+01 -1.000802021008766196e-13 -5.004009901755923639e-13 -1.801443651368306309e-13 1.000802021008766196e-13
9.210000000000000000e+02 1.195051193237304688e+01 -1.846592140197753906e+01 4.873905641057663107e-13 1.764413918789453639e-12 6.755413286055333977e-13 -9.207378240914942946e-14
9.220000000000000000e+02 1.286915779113769531e+01 -1.866939735412597656e+01 3.402726776562114974e-13 2.341876692568689577e-12 8.046448164884811849e-13 -1.521218996039172544e-13
9.230000000000000000e+02 3.179914474487304688e+00 -3.866456604003906250e+01 -4.003208151797700565e-14 -4.003208151797700565e-14 -2.401924891078620339e-14 4.603689120457471473e-14
9.240000000000000000e+02 4.396228790283203125e+00 -3.775128936767578125e+01 -6.968084014522327174e-14 -1.492446032209937545e-13 -6.567763368749146569e-14 7.743705308059511960e-14
9.250000000000000000e+02 1.409783077239990234e+01 -2.406848335266113281e+01 1.781427517435693608e-13 1.723381094949349990e-12 5.704571472316122271e-13 -3.122502256758252770e-13
9.260000000000000000e+02 6.605274200439453125e+01 -2.775876808166503906e+01 1.352333772308006443e-13 1.037081052003389903e-13 7.168244676222096379e-14 -3.753007324672989059e-15
9.270000000000000000e+02 6.430818176269531250e+01 -2.840682411193847656e+01 9.670249220524243516e-14 -1.479935965442713552e-13 -1.538733096289549712e-14 3.215076520442748664e-14
9.280000000000000000e+02 2.863091278076171875e+01 -3.198415756225585938e+01 1.951563910473907981e-14 1.256006475040816195e-13 4.353488801552528320e-14 -5.529431079676072613e-14
9.290000000000000000e+02 2.940679550170898438e+01 -3.275467300415039062e+01 1.027698569690607688e-13 1.355461153474540881e-13 7.149479169495445707e-14 -6.255012377194904549e-14
9.300000000000000000e+02 2.115058135986328125e+01 -8.448721885681152344e+00 1.881507780522942430e-13 1.721379386688398627e-13 1.080866150163402317e-13 5.444362950919601207e-13
9.310000000000000000e+02 2.060992431640625000e+01 -9.471906661987304688e+00 2.592077214761540072e-13 7.105694342385976414e-14 9.907939540424598457e-14 4.941460110020889918e-13
9.320000000000000000e+02 3.534095764160156250e+01 -2.660279464721679688e+01 -5.804651735403371093e-14 -8.206576287668812530e-14 -4.203368474684290867e-14 -3.602887167211341057e-14
9.330000000000000000e+02 6.214370727539062500e+01 -3.185868644714355469e+01 2.502005052521915490e-14 8.506816941405287436e-14 3.302646513474866152e-14 5.904731727440076794e-14
9.340000000000000000e+02 6.107162475585937500e+01 -3.208286285400390625e+01 -3.502807175174635357e-14 1.451162866088206993e-13 3.302646513474866152e-14 8.807057595141762341e-14
9.350000000000000000e+02 1.587172412872314453e+01 -2.500321197509765625e+01 3.366447745567491268e-13 1.150797230946298821e-12 4.462325962299035220e-13 -5.384314955697577787e-13
9.360000000000000000e+02 5.344172286987304688e+01 -3.344038391113281250e+01 5.304250758780305885e-14 -2.301844560228735737e-14 9.007217918028352643e-15 5.604491073703601889e-14
9.370000000000000000e+02 1.437298393249511719e+01 -2.458782386779785156e+01 2.994430875133402559e-13 1.683864961528336313e-12 5.949924255545246954e-13 -4.208372474286126153e-13
9.380000000000000000e+02 6.782527923583984375e+01 -2.598360633850097656e+01 4.178348476675114442e-14 2.009109973657649539e-13 7.280834328450211390e-14 5.104090097080536681e-14
9.390000000000000000e+02 4.012186813354492188e+01 -1.883678817749023438e+01 5.804651735403371093e-14 -7.806255641895631925e-14 -6.004812227696550847e-15 -1.271018609371593611e-13
9.400000000000000000e+02 2.003039741516113281e+01 -7.489946365356445312e+00 7.806255641895631925e-14 2.622101212372551782e-13 1.020818019416107336e-13 3.322662782932750414e-13
9.410000000000000000e+02 2.053396224975585938e+01 -8.229341506958007812e+00 2.762213472274482884e-13 3.242598518252842732e-13 1.801443651368306309e-13 4.843881914497194519e-13
9.420000000000000000e+02 1.484391021728515625e+01 -2.506406402587890625e+01 1.964073909478496194e-14 1.335194975415898710e-12 4.064507248564136477e-13 -3.692959295569647749e-13
9.430000000000000000e+02 3.890065765380859375e+01 -1.704538917541503906e+01 -5.504411081666896188e-14 -1.150922347877003649e-13 -5.104090097080536681e-14 -1.040834085586084257e-13
9.440000000000000000e+02 2.020345878601074219e+01 -2.972784757614135742e+00 -1.641315257533762506e-13 -1.160930347080674219e-13 -8.406736949368581735e-14 2.281828697346666157e-13
9.450000000000000000e+02 1.138790416717529297e+01 -1.659760093688964844e+01 5.049046033697712765e-13 1.151422707179605709e-12 4.968982040068348205e-13 7.831275639904808350e-14
9.460000000000000000e+02 1.361632061004638672e+01 -1.429964160919189453e+01 4.921444111613548777e-13 1.491945564487118236e-12 5.952269926945419343e-13 2.301844695754007297e-13
9.470000000000000000e+02 1.328500175476074219e+01 -1.600890922546386719e+01 4.275926672198809841e-13 1.611541412468997514e-12 6.117402049331255309e-13 2.963624896705485678e-13
9.480000000000000000e+02 4.305566406250000000e+01 -2.466204452514648438e+01 8.857097591160115191e-14 2.667137344314340908e-13 1.065854151357896462e-13 2.401924891078620339e-14
9.490000000000000000e+02 4.362602233886718750e+01 -2.395665931701660156e+01 -1.861491782115601290e-13 4.603689120457471473e-14 -4.203368474684290867e-14 -5.354290754798658736e-14
9.500000000000000000e+02 1.701003456115722656e+01 -2.744663238525390625e+01 2.341876692568689577e-13 8.666945199714559678e-13 3.302646513474866152e-13 -4.263416605431585849e-13
9.510000000000000000e+02 2.112201118469238281e+01 -5.627162933349609375e+00 8.406736949368581735e-14 1.961571909677578551e-13 8.406736949368581735e-14 3.602887302736612618e-13
9.520000000000000000e+02 2.097938156127929688e+01 -6.315489292144775391e+00 3.602887167211341057e-14 4.043240080849747065e-13 1.321058605389946461e-13 2.682149478645118323e-13
9.530000000000000000e+02 4.343830108642578125e+01 -2.044078254699707031e+01 -6.204972381176551699e-14 -1.180946345488015359e-13 -5.404330750817011586e-14 -1.000802021008766196e-13
9.540000000000000000e+02 4.338343048095703125e+01 -2.209506607055664062e+01 1.220978477827969200e-13 4.183352340751678167e-13 1.621299259126421366e-13 -5.204170427930421283e-14
9.550000000000000000e+02 3.677003860473632812e+01 -2.123708343505859375e+01 -1.100882216333379238e-13 9.007218256841531545e-14 -6.004812227696550847e-15 4.803849782157240678e-14
9.560000000000000000e+02 3.759187698364257812e+01 -1.945443534851074219e+01 -1.401122768425900472e-14 -6.004812227696550847e-15 -6.004812227696550847e-15 -7.405934996122451319e-14
9.570000000000000000e+02 1.596569061279296875e+01 -2.627269935607910156e+01 2.271820562617724026e-13 1.143916667119271313e-12 4.113296346325984176e-13 -4.093280076868099915e-13
9.580000000000000000e+02 1.658137130737304688e+01 -2.677442169189453125e+01 3.793039558656896570e-13 1.151923066482207769e-12 4.593681121253800903e-13 -5.034034170417478471e-13
9.590000000000000000e+02 1.712746620178222656e+01 -2.848070335388183594e+01 7.005614350349270714e-14 6.705373561087524248e-13 2.221780431074099615e-13 -3.542839036464046076e-13
9.600000000000000000e+02 2.253069877624511719e+01 -2.021281719207763672e+00 7.806255641895631925e-14 1.020818019416107336e-13 5.404330750817011586e-14 2.281828697346666157e-13
9.610000000000000000e+02 5.693236160278320312e+01 -3.461683273315429688e+01 1.000802037949425141e-14 5.004010105043830980e-14 1.801443583605670529e-14 2.602085213965210642e-14
9.620000000000000000e+02 5.870264053344726562e+01 -3.305088806152343750e+01 7.506015284620688559e-16 9.182358242905766521e-14 2.777225538842624519e-14 2.401924891078620339e-14
9.630000000000000000e+02 5.939360809326171875e+01 -3.252489852905273438e+01 7.005614350349270714e-14 1.901523778930283570e-13 7.806255641895631925e-14 3.502807175174635357e-14
9.640000000000000000e+02 2.627980995178222656e+01 -3.203567504882812500e+01 3.002405859738391247e-14 1.501202997631831404e-13 5.404330750817011586e-14 -2.281828697346666157e-13
9.650000000000000000e+02 6.432760620117187500e+01 -2.956836128234863281e+01 5.304250758780305885e-14 -2.301844560228735737e-14 9.007217918028352643e-15 5.604491073703601889e-14
9.660000000000000000e+02 4.427863693237304688e+01 -2.663897132873535156e+01 -1.311050606186275891e-13 8.106496295632106830e-14 -1.501202929869195624e-14 -1.441154866884536423e-13
9.670000000000000000e+02 1.799674415588378906e+01 -2.858881568908691406e+01 1.060850151756061177e-13 7.546047120499110861e-13 2.582069215557869502e-13 -3.662935297958636038e-13
9.680000000000000000e+02 5.713636398315429688e+01 -3.249695205688476562e+01 7.205774334422682115e-14 8.006416303595401129e-15 2.401924891078620339e-14 4.203368474684290867e-14
9.690000000000000000e+02 3.740344619750976562e+01 -2.241216468811035156e+01 -4.603689120457471473e-14 2.602085213965210642e-14 -6.004812227696550847e-15 8.006416303595401129e-15
9.700000000000000000e+02 6.964341735839843750e+01 -2.315268516540527344e+01 -1.401122768425900472e-14 -8.606896933441993136e-14 -3.002405859738391247e-14 -6.505213034913026604e-14
9.710000000000000000e+02 3.711611557006835938e+01 -1.541567707061767578e+01 -6.455173038894673754e-14 1.095878216731543953e-13 1.351082687704252897e-14 -3.402726844324750755e-14
9.720000000000000000e+02 5.014841842651367188e+01 -3.159603500366210938e+01 9.207378240914942946e-14 -5.204170427930421283e-14 1.200962445539310169e-14 -6.004811719476782494e-14
9.730000000000000000e+02 1.946587181091308594e+01 -3.098704910278320312e+01 8.306656957331876034e-14 6.074868256003562728e-13 2.071660171968497943e-13 -2.982389996856321668e-13
9.740000000000000000e+02 3.599039459228515625e+01 -2.394305419921875000e+01 -3.402726844324750755e-14 -1.060850151756061177e-13 -4.203368474684290867e-14 5.804651735403371093e-14
9.750000000000000000e+02 3.665550994873046875e+01 -2.429524230957031250e+01 -2.802245536851800944e-14 -1.200962445539310169e-14 -1.200962445539310169e-14 1.000802037949425141e-15
9.760000000000000000e+02 4.361771011352539062e+01 -1.963098907470703125e+01 1.090874217129708668e-13 3.212574520641831022e-13 1.291034607778934751e-13 -2.121700303512122354e-13
9.770000000000000000e+02 6.019380187988281250e+01 -3.219679641723632812e+01 -6.605293026949732305e-14 6.004812227696550847e-15 -1.801443583605670529e-14 1.020818019416107336e-13
9.780000000000000000e+02 5.559392166137695312e+01 -3.387633514404296875e+01 5.804651735403371093e-14 2.001604075898850282e-15 1.801443583605670529e-14 7.105694342385976414e-14
9.790000000000000000e+02 5.780621337890625000e+01 -3.367654800415039062e+01 6.405133042876320904e-14 5.604491073703601889e-14 3.602887167211341057e-14 1.951563910473907981e-14
9.800000000000000000e+02 3.754802703857421875e+01 -2.037813758850097656e+01 1.801443583605670529e-14 2.822261738547049426e-13 9.007218256841531545e-14 -3.202566521438160452e-14
9.810000000000000000e+02 1.410632801055908203e+01 -1.367240619659423828e+01 4.743801380359402575e-13 1.587271980518778491e-12 6.184956518294482120e-13 3.352686780543762124e-13
9.820000000000000000e+02 2.335269165039062500e+01 -3.092526435852050781e+01 1.761411519028352468e-13 4.643721388322696875e-13 1.921539912862896271e-13 -2.181748434259417335e-13
9.830000000000000000e+02 7.164875030517578125e+01 -2.117612075805664062e+01 1.561251128379126385e-13 1.240994476235310340e-13 8.406736949368581735e-14 1.401122768425900472e-14
9.840000000000000000e+02 5.059319686889648438e+01 -3.392197799682617188e+01 -3.402726844324750755e-14 -1.060850151756061177e-13 -4.203368474684290867e-14 -2.001604075898850282e-15
9.850000000000000000e+02 4.680906677246093750e+01 -3.080646324157714844e+01 5.473136211210367745e-16 2.345629577920618162e-16 2.345629577920618162e-16 1.125902282105191443e-14
9.860000000000000000e+02 6.490582275390625000e+01 -2.893470382690429688e+01 1.190954344691685929e-13 5.104090097080536681e-14 5.104090097080536681e-14 -2.301844560228735737e-14
9.870000000000000000e+02 4.864960098266601562e+01 -3.220583343505859375e+01 4.003208151797700565e-15 -4.403528797570881170e-14 -1.200962445539310169e-14 -2.001604075898850282e-14
9.880000000000000000e+02 5.093946456909179688e+01 -3.291525650024414062e+01 -4.203368474684290867e-14 -1.781427517435693608e-13 -6.605293026949732305e-14 8.006416303595401129e-15
9.890000000000000000e+02 2.652585411071777344e+01 -3.279219818115234375e+01 9.107298248878237246e-14 2.391916688587042428e-13 9.907939540424598457e-14 -2.061652172764827373e-13
9.900000000000000000e+02 2.709815025329589844e+01 -3.213783264160156250e+01 -8.006416303595401129e-15 8.807057595141762341e-14 2.401924891078620339e-14 -1.281026608575264181e-13
9.910000000000000000e+02 6.307401275634765625e+01 -3.110607719421386719e+01 7.243304670249625654e-14 5.391820751812423373e-14 3.790537491093343148e-14 4.053248147816053415e-14
9.920000000000000000e+02 4.463664627075195312e+01 -2.747922515869140625e+01 -1.251002526260957745e-14 1.776423517833858323e-13 4.953969770212299228e-14 -1.000802021008766196e-13
9.930000000000000000e+02 1.460355472564697266e+01 -1.303736782073974609e+01 4.783833377174084855e-13 1.222980050563649002e-12 5.104090435893715583e-13 3.552847035667716646e-13
9.940000000000000000e+02 6.877118682861328125e+01 -2.450654792785644531e+01 -1.140914348673333079e-13 1.341074739322559162e-13 6.004812227696550847e-15 2.802245536851800944e-14
9.950000000000000000e+02 6.921061706542968750e+01 -2.381363868713378906e+01 8.506816941405287436e-14 -5.504411081666896188e-14 9.007217918028352643e-15 2.001604075898850282e-14
9.960000000000000000e+02 7.059053039550781250e+01 -2.092690849304199219e+01 3.803047490097931360e-14 2.221780431074099615e-13 7.806255641895631925e-14 -7.005614350349270714e-14
9.970000000000000000e+02 4.350687408447265625e+01 -2.518634033203125000e+01 -8.576403747340838324e-14 -3.675601896414512626e-14 -3.675601896414512626e-14 -6.774178521731441527e-14
9.980000000000000000e+02 2.078857231140136719e+01 -3.126651000976562500e+01 1.461170865291877563e-13 5.544442942956306908e-13 2.101684169579509653e-13 -2.622101212372551782e-13
9.990000000000000000e+02 4.267433166503906250e+01 -2.204707908630371094e+01 9.607699564314481355e-14 2.241796429481440756e-13 9.607699564314481355e-14 8.006416303595401129e-15
1.000000000000000000e+03 7.814800262451171875e+01 -1.986647224426269531e+01 -3.202566521438160452e-14 3.202566521438160452e-14 0.000000000000000000e+00 4.803849782157240678e-14
1.001000000000000000e+03 3.577715301513671875e+01 -2.589915466308593750e+01 -4.203368474684290867e-14 -1.801443583605670529e-14 -1.801443583605670529e-14 3.402726844324750755e-14
1.002000000000000000e+03 1.588089656829833984e+01 -1.110139179229736328e+01 4.583673393100673454e-13 1.042835739636926995e-12 4.503609128420765773e-13 3.502807039649363796e-13
1.003000000000000000e+03 1.780722618103027344e+01 -1.066639137268066406e+01 5.144122432708397863e-13 5.864700001675937635e-13 3.302646513474866152e-13 4.163336342344337027e-13
1.004000000000000000e+03 3.241898727416992188e+01 -3.067000389099121094e+01 -4.803849782157240678e-14 4.803849782157240678e-14 0.000000000000000000e+00 -6.054852393121493148e-14
1.005000000000000000e+03 7.006098175048828125e+01 -2.253278732299804688e+01 9.983000212078485536e-14 4.278428468711820143e-14 4.278428468711820143e-14 5.604491073703601889e-14
1.006000000000000000e+03 1.482786083221435547e+01 -1.140187358856201172e+01 2.061652172764827373e-13 1.014813233446432150e-12 3.662935297958636038e-13 1.921539912862896271e-13
1.007000000000000000e+03 4.504662322998046875e+01 -2.833690261840820312e+01 -4.153328478665938017e-14 -6.355093046857968053e-14 -3.152526186606628700e-14 -1.701363388281057487e-13
1.008000000000000000e+03 4.613586044311523438e+01 -2.999567985534667969e+01 5.604491073703601889e-14 2.401924891078620339e-14 2.401924891078620339e-14 3.402726844324750755e-14
1.009000000000000000e+03 4.225794219970703125e+01 -1.980240249633789062e+01 -3.202566521438160452e-14 3.202566521438160452e-14 0.000000000000000000e+00 -3.803047490097931360e-14
1.010000000000000000e+03 3.443604278564453125e+01 -2.808514022827148438e+01 3.602887167211341057e-14 2.441956955655938399e-13 8.406736949368581735e-14 -2.001604075898850282e-14
1.011000000000000000e+03 1.691097640991210938e+01 -1.077229499816894531e+01 4.163336342344337027e-13 5.444362950919601207e-13 2.882309733769072846e-13 3.763015561045884860e-13
1.012000000000000000e+03 1.730657958984375000e+01 -1.031097602844238281e+01 4.593681121253800903e-13 7.916343904186551317e-13 3.753007561842214290e-13 4.483592858962881511e-13
1.013000000000000000e+03 4.761638641357421875e+01 -3.163061714172363281e+01 5.754611400571839341e-15 -1.326062689695076471e-14 -2.251804479507088161e-15 -4.703769451307356075e-14
1.014000000000000000e+03 3.726665496826171875e+01 -3.027737998962402344e+01 3.352686848306397904e-14 1.516214996437337259e-13 5.554451077685249039e-14 1.601283260719080226e-14
1.015000000000000000e+03 3.367533493041992188e+01 -2.903810501098632812e+01 8.006416303595401129e-15 7.205774334422682115e-14 2.401924891078620339e-14 -2.602085213965210642e-14
1.016000000000000000e+03 3.121700668334960938e+01 -3.253079223632812500e+01 5.004010189747125706e-16 1.145918348275168364e-13 3.452766840343103605e-14 -3.803047490097931360e-14
1.017000000000000000e+03 3.638659715652465820e+00 -3.954628372192382812e+01 -1.160930347080674219e-13 -1.641315257533762506e-13 -8.406736949368581735e-14 5.604491073703601889e-14
1.018000000000000000e+03 7.601419067382812500e+01 -3.876671218872070312e+01 1.000802037949425141e-14 -1.901523778930283570e-13 -5.404330750817011586e-14 -1.000802037949425141e-14
1.019000000000000000e+03 7.632780456542968750e+01 -3.744491195678710938e+01 1.120898214740720378e-13 -1.120898214740720378e-13 0.000000000000000000e+00 -1.601283260719080226e-14
1.020000000000000000e+03 7.225610351562500000e+01 -2.083434486389160156e+01 -3.202566521438160452e-14 -1.281026608575264181e-13 -4.803849782157240678e-14 1.060850151756061177e-13
1.021000000000000000e+03 7.286202239990234375e+01 -2.051739311218261719e+01 -5.604491073703601889e-14 1.361090737729900302e-13 2.401924891078620339e-14 -1.601283260719080226e-14
1.022000000000000000e+03 7.345338439941406250e+01 -2.020434761047363281e+01 1.200962343895356499e-13 -2.001604042017532392e-13 -2.401924891078620339e-14 9.207378240914942946e-14
1.023000000000000000e+03 7.409088134765625000e+01 -2.015284156799316406e+01 4.003208151797700565e-15 -4.403528797570881170e-14 -1.200962445539310169e-14 1.361090737729900302e-13
1.024000000000000000e+03 4.268661880493164062e+01 -2.130825996398925781e+01 7.205774334422682115e-14 1.681347389873716347e-13 7.205774334422682115e-14 -1.000802021008766196e-13
1.025000000000000000e+03 4.054782485961914062e+01 -1.828641700744628906e+01 7.230794332431858540e-14 3.054948058845569081e-13 1.133408281507944371e-13 2.201764398785440585e-14
1.026000000000000000e+03 4.068153762817382812e+01 -1.923888587951660156e+01 5.904731727440076794e-14 -1.291034607778934751e-13 -2.101684237342145434e-14 -2.351884725653678038e-14
1.027000000000000000e+03 1.868652725219726562e+01 -4.899588108062744141e+00 -2.882309733769072846e-13 -3.522823038056704936e-13 -1.921539912862896271e-13 1.321058605389946461e-13
1.028000000000000000e+03 3.906618881225585938e+01 -2.103724861145019531e+01 -2.301844560228735737e-14 -1.471179000020819694e-13 -5.104090097080536681e-14 -1.240994476235310340e-13
1.029000000000000000e+03 2.061321449279785156e+01 -4.891407489776611328e+00 6.805453688649501509e-14 2.121700303512122354e-13 8.406736949368581735e-14 4.203368339159019307e-13
1.030000000000000000e+03 2.155008697509765625e+01 -3.519347190856933594e+00 -8.807057595141762341e-14 8.006416303595401129e-15 -2.401924891078620339e-14 3.002405995263662808e-13
1.031000000000000000e+03 2.013638687133789062e+01 -3.598646879196166992e+00 -1.781427517435693608e-13 -1.220978477827969200e-13 -9.007218256841531545e-14 1.321058605389946461e-13
1.032000000000000000e+03 4.118717575073242188e+01 -1.967861175537109375e+01 -7.005614350349270714e-14 5.004010105043830980e-14 -6.004812227696550847e-15 -8.156536291650459680e-14
1.033000000000000000e+03 3.996058654785156250e+01 -1.786788940429687500e+01 -1.351082687704252897e-14 -5.154130431912068433e-14 -1.951563910473907981e-14 -2.001604042017532392e-13
1.034000000000000000e+03 1.180598735809326172e+01 -4.450678825378417969e+00 -3.963175816169839383e-13 1.961571909677578551e-13 -6.004811719476782494e-14 -2.922341730583755126e-13
1.035000000000000000e+03 7.569097137451171875e+01 -2.050574302673339844e+01 -6.605293026949732305e-14 -7.405934996122451319e-14 -4.203368474684290867e-14 9.207378240914942946e-14
1.036000000000000000e+03 9.591594696044921875e+00 -3.805544853210449219e+00 -3.642919299551294898e-13 -1.561251128379126385e-13 -1.561251128379126385e-13 -2.842277736954390566e-13
1.037000000000000000e+03 9.620942115783691406e+00 -4.433554649353027344e+00 -3.622903301143953758e-13 -1.801443583605670529e-14 -1.140914348673333079e-13 -1.441154866884536423e-13
1.038000000000000000e+03 7.691077423095703125e+01 -3.535857391357421875e+01 5.604491073703601889e-14 2.401924891078620339e-14 2.401924891078620339e-14 4.803849782157240678e-14
1.039000000000000000e+03 7.561278533935546875e+01 -3.587435150146484375e+01 8.256616283687165381e-14 1.251002526260957745e-14 2.852285871683332696e-14 -4.003208151797700565e-14
1.040000000000000000e+03 5.332828521728515625e+00 -5.300516605377197266e+00 -9.957980214069309111e-14 -2.256808563812218171e-13 -9.757819552369539906e-14 -3.382710778154773834e-13
1.041000000000000000e+03 3.574047803878784180e+00 -5.520310878753662109e+00 -1.100882199392720293e-14 4.103288143834406265e-14 9.007217918028352643e-15 -3.562855034871387216e-13
1.042000000000000000e+03 7.357597827911376953e+00 -3.903181314468383789e+00 -2.141716301919463494e-13 -4.603689120457471473e-14 -7.806255641895631925e-14 -2.922341730583755126e-13
1.043000000000000000e+03 1.034862995147705078e+01 -5.038293838500976562e+00 -2.061652172764827373e-13 1.861491782115601290e-13 -6.004812227696550847e-15 -3.402726776562114974e-13
1.044000000000000000e+03 2.952768802642822266e+00 -4.612359046936035156e+00 -3.202566521438160452e-14 3.202566521438160452e-14 0.000000000000000000e+00 -2.481988952470620680e-13
1.045000000000000000e+03 2.790668725967407227e+00 -5.362144470214843750e+00 -4.003208151797700565e-14 -2.001604042017532392e-13 -7.205774334422682115e-14 -2.081668171172168513e-13
1.046000000000000000e+03 8.191679954528808594e+00 -4.493771076202392578e+00 -2.361892690976030718e-13 3.602887167211341057e-14 -6.004811719476782494e-14 -4.403528865333516951e-13
1.047000000000000000e+03 5.950399398803710938e+00 -4.842538833618164062e+00 -2.041636038832214672e-13 -3.162534253572935050e-13 -1.561251128379126385e-13 -2.221780431074099615e-13
1.048000000000000000e+03 6.728446483612060547e+00 -4.651785373687744141e+00 -2.181748434259417335e-13 -3.222582519845501592e-13 -1.621299259126421366e-13 -3.482791041242022656e-13
1.049000000000000000e+03 6.294006824493408203e+00 -5.446562767028808594e+00 -1.701363388281057487e-13 -2.101684169579509653e-13 -1.140914348673333079e-13 -2.862293735361731706e-13
1.050000000000000000e+03 7.743628692626953125e+01 -2.138891601562500000e+01 -2.161732300326804634e-13 -3.442758773376797254e-13 -1.681347389873716347e-13 5.604491073703601889e-14
1.051000000000000000e+03 2.047950935363769531e+01 -5.558853149414062500e+00 -7.606094980195862720e-14 3.602887167211341057e-14 -1.200962445539310169e-14 3.562855034871387216e-13
1.052000000000000000e+03 1.720914268493652344e+01 -3.416204690933227539e+00 -4.023224082442405924e-13 1.020818019416107336e-13 -9.007218256841531545e-14 4.803849782157240678e-14
1.053000000000000000e+03 1.754763031005859375e+01 -2.950728797912597656e+01 2.314354559233323949e-14 6.961829116663986738e-13 2.157979334506746061e-13 -3.402726776562114974e-13
1.054000000000000000e+03 1.774967384338378906e+01 -3.147123527526855469e+01 2.401924891078620339e-14 6.965582082484045312e-13 2.161732300326804634e-13 -2.161732300326804634e-13
1.055000000000000000e+03 7.748372650146484375e+01 -2.933867645263671875e+01 6.605293026949732305e-14 7.405934996122451319e-14 4.203368474684290867e-14 4.003208151797700565e-15
1.056000000000000000e+03 7.675983428955078125e+01 -3.163617515563964844e+01 7.606094980195862720e-14 1.240994476235310340e-13 6.004811719476782494e-14 -2.802245536851800944e-14
1.057000000000000000e+03 1.338393878936767578e+01 -4.503837108612060547e+00 -4.763817378766743715e-13 1.160930347080674219e-13 -1.080866150163402317e-13 -1.240994476235310340e-13
1.058000000000000000e+03 7.746636199951171875e+01 -2.379082679748535156e+01 1.220978477827969200e-13 -2.221780431074099615e-13 -3.002405859738391247e-14 1.281026608575264181e-13
1.059000000000000000e+03 7.666822814941406250e+01 -2.464194488525390625e+01 1.381106736137241442e-13 -7.806255641895631925e-14 1.801443583605670529e-14 4.803849782157240678e-14
1.060000000000000000e+03 2.102201080322265625e+01 -2.244557857513427734e+00 -1.180946345488015359e-13 -1.421138868477195283e-13 -7.806255641895631925e-14 2.001604042017532392e-13
1.061000000000000000e+03 7.749150848388671875e+01 -2.776884078979492188e+01 -5.404330750817011586e-14 -2.061652172764827373e-13 -7.806255641895631925e-14 8.006416303595401129e-15
1.062000000000000000e+03 1.498309707641601562e+01 -4.415407180786132812e+00 -4.203368339159019307e-13 1.401122870069854143e-13 -8.406736949368581735e-14 -6.405133042876320904e-14
1.063000000000000000e+03 1.575219058990478516e+01 -4.324117183685302734e+00 -4.103288347122313606e-13 -1.301042606982605321e-13 -1.621299259126421366e-13 -6.004811719476782494e-14
1.064000000000000000e+03 7.680800628662109375e+01 -2.220823860168457031e+01 -9.607699564314481355e-14 -2.241796429481440756e-13 -9.607699564314481355e-14 2.121700303512122354e-13
1.065000000000000000e+03 7.680760192871093750e+01 -2.297538948059082031e+01 4.803849782157240678e-14 -2.081668171172168513e-13 -4.803849782157240678e-14 8.807057595141762341e-14
1.066000000000000000e+03 7.678504180908203125e+01 -2.937148094177246094e+01 2.001604075898850282e-15 -1.821459649775647449e-13 -5.404330750817011586e-14 -2.802245536851800944e-14
1.067000000000000000e+03 7.747998046875000000e+01 -2.621356201171875000e+01 -5.004010105043830980e-14 -2.502004950877961820e-13 -9.007218256841531545e-14 0.000000000000000000e+00
1.068000000000000000e+03 7.677410125732421875e+01 -2.859218406677246094e+01 -5.804651735403371093e-14 -1.621299259126421366e-13 -6.605293026949732305e-14 8.006416303595401129e-15
1.069000000000000000e+03 7.740282440185546875e+01 -3.246155929565429688e+01 9.607699564314481355e-14 -9.607699564314481355e-14 0.000000000000000000e+00 -6.805453688649501509e-14
1.070000000000000000e+03 7.652008056640625000e+01 -3.418792724609375000e+01 1.311050606186275891e-13 -8.106496295632106830e-14 1.501202929869195624e-14 4.003208151797700565e-14
1.071000000000000000e+03 7.673314666748046875e+01 -2.628338813781738281e+01 8.807057595141762341e-14 -8.006416303595401129e-15 2.401924891078620339e-14 8.406736949368581735e-14
1.072000000000000000e+03 1.785858345031738281e+01 -1.020074844360351562e+01 4.383512866926175811e-13 7.826271640302973065e-13 3.662935297958636038e-13 4.123304345529654746e-13
1.073000000000000000e+03 7.672516632080078125e+01 -2.548852157592773438e+01 -5.804651735403371093e-14 -1.621299259126421366e-13 -6.605293026949732305e-14 0.000000000000000000e+00
1.074000000000000000e+03 6.722428894042968750e+01 -2.777499389648437500e+01 1.703865455844610910e-13 -2.752205498481800731e-15 5.029030103053007406e-14 -8.631917609077527365e-14
1.075000000000000000e+03 1.258433246612548828e+01 -4.479939937591552734e+00 -2.522020949285302960e-13 2.121700303512122354e-13 -1.200962445539310169e-14 -5.204170427930421283e-14
1.076000000000000000e+03 7.599398803710937500e+01 -3.254679870605468750e+01 -1.245998475837145625e-13 -1.906527778532118855e-13 -9.457578898633065001e-14 -1.961571909677578551e-13
1.077000000000000000e+03 6.781714630126953125e+01 -2.720309257507324219e+01 -3.928147818956992388e-14 2.119198235948568931e-13 5.179150429921244858e-14 1.601283260719080226e-14
1.078000000000000000e+03 7.680644989013671875e+01 -3.093522834777832031e+01 -8.206576287668812530e-14 -2.181748434259417335e-13 -9.007218256841531545e-14 -1.200962343895356499e-13
1.079000000000000000e+03 7.622594451904296875e+01 -3.128962135314941406e+01 -5.513793496217042622e-14 -2.066343380039900590e-13 -7.853168392272721898e-14 -7.105694342385976414e-14
1.080000000000000000e+03 2.167897605895996094e+01 -2.815216302871704102e+00 7.606094980195862720e-14 1.240994476235310340e-13 6.004811719476782494e-14 2.762213472274482884e-13
1.081000000000000000e+03 4.370940208435058594e+00 -2.993824577331542969e+01 -5.004010189747125706e-15 -5.054050168824819611e-13 -1.531227130768114675e-13 8.006416303595401129e-14
1.082000000000000000e+03 3.583725452423095703e+00 -3.080732345581054688e+01 1.801443583605670529e-14 -5.184154429523080143e-13 -1.501202997631831404e-13 -6.405133042876320904e-14
1.083000000000000000e+03 3.378876686096191406e+00 -2.475259780883789062e+01 2.602085213965210642e-14 -7.666143110943157701e-13 -2.221780431074099615e-13 2.001604042017532392e-13
1.084000000000000000e+03 2.589773893356323242e+00 -2.543137741088867188e+01 -4.003208151797700565e-15 -9.167346786201346909e-13 -2.762213472274482884e-13 1.721379386688398627e-13
1.085000000000000000e+03 3.295737743377685547e+00 -2.147334289550781250e+01 1.421138868477195283e-13 -9.227394239322284086e-13 -2.341876692568689577e-13 -1.200962445539310169e-14
1.086000000000000000e+03 3.341924428939819336e+00 -2.309628105163574219e+01 1.721379386688398627e-13 -9.327474773460076030e-13 -2.281828697346666157e-13 2.201764432666758475e-13
1.087000000000000000e+03 3.147180557250976562e+00 -1.496277713775634766e+01 -5.404330750817011586e-14 -5.264218423152444704e-13 -1.741395520621011328e-13 -2.161732300326804634e-13
1.088000000000000000e+03 2.664831161499023438e+00 -6.147003650665283203e+00 -2.802245536851800944e-14 -3.322662782932750414e-13 -1.080866150163402317e-13 -2.802245740139708285e-13
1.089000000000000000e+03 2.516763687133789062e+00 -7.736359596252441406e+00 5.204170427930421283e-14 -2.522020949285302960e-13 -6.004811719476782494e-14 -4.123304345529654746e-13
1.090000000000000000e+03 1.924425697326660156e+01 -2.983609008789062500e+01 1.401122870069854143e-13 6.204972516701823260e-13 2.281828697346666157e-13 -3.342678781340091554e-13
1.091000000000000000e+03 3.144497156143188477e+00 -1.417013645172119141e+01 3.803047490097931360e-14 -5.784635465945486832e-13 -1.621299259126421366e-13 -2.281828697346666157e-13
1.092000000000000000e+03 2.452164888381958008e+00 -1.172291278839111328e+01 7.005614350349270714e-14 -6.104891982564031316e-13 -1.621299259126421366e-13 -1.361090737729900302e-13
1.093000000000000000e+03 2.502421855926513672e+00 -1.900032043457031250e+01 1.801443583605670529e-14 -9.988004347205592381e-13 -2.942358000041639388e-13 -1.681347389873716347e-13
1.094000000000000000e+03 3.886000633239746094e+00 -1.665335845947265625e+01 5.404330750817011586e-14 -7.546047120499110861e-13 -2.101684169579509653e-13 -1.240994476235310340e-13
1.095000000000000000e+03 2.450233936309814453e+00 -1.251743221282958984e+01 -1.421138868477195283e-13 -8.386720679910697474e-13 -2.942358000041639388e-13 -2.161732300326804634e-13
1.096000000000000000e+03 3.157812118530273438e+00 -1.100897979736328125e+01 0.000000000000000000e+00 -6.405133042876320904e-13 -1.921539912862896271e-13 -2.441956955655938399e-13
1.097000000000000000e+03 3.160069704055786133e+00 -1.577424240112304688e+01 6.805453688649501509e-14 -7.485999125277087440e-13 -2.041636038832214672e-13 -6.805453688649501509e-14
1.098000000000000000e+03 3.152956247329711914e+00 -1.180593681335449219e+01 4.403528797570881170e-14 -4.843881914497194519e-13 -1.321058605389946461e-13 -3.362694779747432694e-13
1.099000000000000000e+03 3.343650102615356445e+00 -2.851753997802734375e+01 -6.204972381176551699e-14 -7.586079117313793141e-13 -2.461972954063279539e-13 2.201764432666758475e-13
1.100000000000000000e+03 3.202240467071533203e+00 -1.744393730163574219e+01 3.002405859738391247e-14 -8.106496160106835269e-13 -2.341876692568689577e-13 -6.004811719476782494e-14
1.101000000000000000e+03 2.599952459335327148e+00 -2.463685226440429688e+01 -1.009741958682895111e-28 -9.607698751162851991e-13 -2.882309733769072846e-13 1.401122870069854143e-13
1.102000000000000000e+03 4.068086624145507812e+00 -2.154298591613769531e+01 9.407538902614712151e-14 -7.145726068150115573e-13 -1.861491782115601290e-13 1.961571909677578551e-13
1.103000000000000000e+03 3.360838651657104492e+00 -2.555887794494628906e+01 -1.240994476235310340e-13 -8.767025733852351621e-13 -3.002405995263662808e-13 1.761411519028352468e-13
1.104000000000000000e+03 3.313514471054077148e+00 -2.633538818359375000e+01 -8.006416303595401129e-14 -7.205774605473225236e-13 -2.401924687790712998e-13 2.321860694161348437e-13
1.105000000000000000e+03 3.146117925643920898e+00 -1.338429164886474609e+01 8.006416303595401129e-15 -4.083272077664429345e-13 -1.200962343895356499e-13 -2.361892690976030718e-13
1.106000000000000000e+03 3.148944377899169922e+00 -1.259815406799316406e+01 1.401122768425900472e-14 -6.345084505553211240e-13 -1.861491782115601290e-13 -2.682149478645118323e-13
1.107000000000000000e+03 4.319943904876708984e+00 -5.717429161071777344e+00 3.602887167211341057e-14 -3.963175816169839383e-13 -1.080866150163402317e-13 -1.481186999224490264e-13
1.108000000000000000e+03 2.743014812469482422e+00 -3.157235717773437500e+01 -8.606896933441993136e-14 -4.943961906533900219e-13 -1.741395520621011328e-13 6.805453688649501509e-14
1.109000000000000000e+03 3.421230792999267578e+00 -2.924464607238769531e+01 -4.003208151797700565e-15 -5.964779993712643336e-13 -1.801443651368306309e-13 2.401924891078620339e-14
1.110000000000000000e+03 3.533049583435058594e+00 -3.368486022949218750e+01 -3.803047490097931360e-14 -3.823063556267908281e-13 -1.261010474642651480e-13 9.607699564314481355e-14
1.111000000000000000e+03 4.167621135711669922e+00 -2.917593765258789062e+01 3.602887167211341057e-14 -7.606094980195862720e-14 -1.200962445539310169e-14 2.642117210779892922e-13
1.112000000000000000e+03 3.270706415176391602e+00 -2.067827033996582031e+01 1.441154866884536423e-13 -7.846287638710314205e-13 -1.921539912862896271e-13 8.006416303595401129e-14
1.113000000000000000e+03 3.242776632308959961e+00 -1.988405418395996094e+01 2.341876692568689577e-13 -8.146528156921517549e-13 -1.741395520621011328e-13 -4.803849782157240678e-14
1.114000000000000000e+03 3.171944141387939453e+00 -9.418098449707031250e+00 1.401122768425900472e-14 -6.345084505553211240e-13 -1.861491782115601290e-13 -2.722181475459800604e-13
1.115000000000000000e+03 3.230972766876220703e+00 -7.848641872406005859e+00 -5.404330750817011586e-14 -5.264218423152444704e-13 -1.741395520621011328e-13 -3.082470259943570490e-13
1.116000000000000000e+03 4.126417636871337891e+00 -6.472449302673339844e+00 6.004812227696550847e-15 -2.261812563414053456e-13 -6.605293026949732305e-14 -2.802245740139708285e-13
1.117000000000000000e+03 3.272231817245483398e+00 -2.708605384826660156e+01 -1.401122768425900472e-14 -6.465181038098344324e-13 -1.981587908084919691e-13 2.842277736954390566e-13
1.118000000000000000e+03 1.432718181610107422e+01 -2.559437179565429688e+01 1.083368149964319960e-13 1.190203751527674214e-12 3.895621889307698815e-13 -3.622903301143953758e-13
1.119000000000000000e+03 3.289868116378784180e+00 -2.781082344055175781e+01 2.001604075898850282e-15 -5.024025900163264780e-13 -1.501202997631831404e-13 2.161732300326804634e-13
1.120000000000000000e+03 1.800085639953613281e+01 -4.446602344512939453e+00 -3.943159817762498243e-13 1.401122768425900472e-14 -1.140914348673333079e-13 5.204170427930421283e-14
1.121000000000000000e+03 3.517499685287475586e+00 -3.237107086181640625e+01 -2.201764398785440585e-14 -2.381908689383371858e-13 -7.806255641895631925e-14 1.281026608575264181e-13
1.122000000000000000e+03 2.091453933715820312e+01 -9.027429580688476562e+00 2.441956955655938399e-13 1.961571909677578551e-13 1.321058605389946461e-13 5.484394947734283488e-13
1.123000000000000000e+03 6.664578247070312500e+01 -2.832768249511718750e+01 2.964875862724626610e-14 1.042085119367860968e-13 4.015718150802288777e-14 7.856295637913984775e-14
1.124000000000000000e+03 3.878481626510620117e+00 -3.441479492187500000e+01 -1.481186999224490264e-13 -2.922341730583755126e-13 -1.321058605389946461e-13 9.207378240914942946e-14
1.125000000000000000e+03 3.429363965988159180e+00 -3.305864715576171875e+01 -1.261010474642651480e-13 -3.742999562638543720e-13 -1.501202997631831404e-13 1.761411519028352468e-13
1.126000000000000000e+03 1.230078029632568359e+01 -1.958503532409667969e+01 4.743801380359402575e-13 1.347079457529598567e-12 5.464378949326942347e-13 -1.160930347080674219e-13
1.127000000000000000e+03 2.084953689575195312e+01 -3.551509141921997070e+00 7.806255641895631925e-14 2.622101212372551782e-13 1.020818019416107336e-13 3.602887302736612618e-13
1.128000000000000000e+03 1.200417613983154297e+01 -1.606567382812500000e+01 3.407105327035697684e-13 1.088559797857158173e-12 4.287811154312509698e-13 -5.516921080671484401e-14
1.129000000000000000e+03 1.896747970581054688e+01 -8.957836151123046875e+00 2.161732300326804634e-13 5.044041898570605920e-13 2.161732300326804634e-13 3.322662782932750414e-13
1.130000000000000000e+03 2.032827568054199219e+01 -6.222204208374023438e+00 6.004811719476782494e-14 3.002405995263662808e-13 1.080866150163402317e-13 4.403528865333516951e-13
1.131000000000000000e+03 3.842067718505859375e+01 -1.746538352966308594e+01 1.841475648182988589e-13 5.604491073703601889e-14 7.205774334422682115e-14 2.201764398785440585e-14
1.132000000000000000e+03 6.843963623046875000e+01 -2.661989021301269531e+01 9.732799554360363481e-14 -4.978990107034654555e-14 1.426142935841666348e-14 -3.803047490097931360e-14
1.133000000000000000e+03 6.834343719482421875e+01 -2.525973701477050781e+01 1.651323256737433076e-13 2.502005052521915490e-14 5.704571743366665393e-14 4.003208151797700565e-15
1.134000000000000000e+03 1.133868217468261719e+01 -1.874708557128906250e+01 4.523625126828106913e-13 1.429145213630023115e-12 5.644523477094098851e-13 -1.120898214740720378e-13
1.135000000000000000e+03 3.818800354003906250e+01 -2.287138748168945312e+01 1.281026608575264181e-13 1.921539912862896271e-13 9.607699564314481355e-14 -6.405133042876320904e-14
1.136000000000000000e+03 2.068012237548828125e+01 -7.630044937133789062e+00 1.501202997631831404e-13 1.100882216333379238e-13 7.806255641895631925e-14 5.964779993712643336e-13
1.137000000000000000e+03 1.492648696899414062e+01 -2.686478614807128906e+01 1.621299259126421366e-13 1.098880643597699436e-12 3.783031559453226000e-13 -3.963175816169839383e-13
1.138000000000000000e+03 1.536515331268310547e+01 -2.567211914062500000e+01 3.495301108009246649e-13 1.189203032922470094e-12 4.616199458275238587e-13 -5.317386071387875113e-13
1.139000000000000000e+03 1.384857273101806641e+01 -2.503629493713378906e+01 4.303448466720996568e-14 1.328064286147678796e-12 4.113296346325984176e-13 -2.066656172366662658e-13
1.140000000000000000e+03 5.332442092895507812e+01 -3.481959152221679688e+01 1.401122768425900472e-14 -7.405934996122451319e-14 -1.801443583605670529e-14 1.070858150959731747e-13
1.141000000000000000e+03 4.259711837768554688e+01 -2.052703285217285156e+01 1.511210996835501974e-13 3.392718777358444404e-13 1.471179000020819694e-13 6.004811719476782494e-14
1.142000000000000000e+03 4.114871597290039062e+01 -2.101552391052246094e+01 4.803849782157240678e-14 4.323464600653609269e-13 1.441154866884536423e-13 7.205774334422682115e-14
1.143000000000000000e+03 3.888473129272460938e+01 -1.802590560913085938e+01 -8.782037597132585915e-14 1.453664933651760416e-13 1.726383420171551802e-14 -1.461170865291877563e-13
1.144000000000000000e+03 1.614769554138183594e+01 -1.041540241241455078e+01 1.851483647386659159e-13 7.656135382790030253e-13 2.852285736158061136e-13 2.321860694161348437e-13
1.145000000000000000e+03 6.553560638427734375e+01 -2.946820449829101562e+01 6.405133042876320904e-14 9.607699564314481355e-14 4.803849782157240678e-14 8.506817110811876886e-15
1.146000000000000000e+03 6.607330322265625000e+01 -2.888232803344726562e+01 1.226686124639747577e-13 -3.892963425580764358e-14 2.512169447888967094e-14 -9.632719562323657780e-15
1.147000000000000000e+03 1.291809177398681641e+01 -1.380875492095947266e+01 3.707971429900425164e-13 1.165433960274853131e-12 4.608692984534035197e-13 1.641315257533762506e-13
1.148000000000000000e+03 3.756114196777343750e+01 -2.138044548034667969e+01 6.204972381176551699e-14 -4.203368474684290867e-14 6.004812227696550847e-15 -2.401924891078620339e-14
1.149000000000000000e+03 4.026949310302734375e+01 -1.976057052612304688e+01 5.904731727440076794e-14 7.105694342385976414e-14 3.903127820947815962e-14 -2.001604075898850282e-14
1.150000000000000000e+03 1.903039741516113281e+01 -9.671303749084472656e+00 3.182550251980276190e-13 1.821459649775647449e-13 1.501202997631831404e-13 4.923945908126559079e-13
1.151000000000000000e+03 6.372553634643554688e+01 -3.026819610595703125e+01 5.854691731421723944e-14 -2.351884725653678038e-14 1.050842118671072717e-14 1.125902282105191443e-13
1.152000000000000000e+03 6.939864349365234375e+01 -2.487616920471191406e+01 1.531227130768114675e-13 -1.631307258330091936e-13 -3.002406113848275424e-15 5.604491073703601889e-14
1.153000000000000000e+03 2.725019073486328125e+01 -3.353179931640625000e+01 -5.004010189747125706e-15 2.952365999245309958e-13 8.706977603105056640e-14 -1.020818019416107336e-13
1.154000000000000000e+03 3.033202934265136719e+01 -3.369959640502929688e+01 5.229972406756502878e-14 1.086886589301942763e-13 4.829651422170143371e-14 -3.766690464309524478e-14
1.155000000000000000e+03 1.563798713684082031e+01 -2.709130668640136719e+01 1.611291259922750796e-13 8.696969468376114509e-13 3.092478259147241060e-13 -3.162534253572935050e-13
1.156000000000000000e+03 1.634407997131347656e+01 -2.743785095214843750e+01 4.103288143834406265e-14 7.496006853430214889e-13 2.371900690179701288e-13 -3.042437992078345088e-13
1.157000000000000000e+03 3.441263580322265625e+01 -2.737554359436035156e+01 -3.602887167211341057e-14 -2.441956955655938399e-13 -8.406736949368581735e-14 -4.403528797570881170e-14
1.158000000000000000e+03 3.576849746704101562e+01 -2.745752716064453125e+01 -1.401122768425900472e-14 -3.262614516660183872e-13 -1.020818019416107336e-13 -6.805453688649501509e-14
1.159000000000000000e+03 7.106525421142578125e+01 -2.155478286743164062e+01 -6.805453688649501509e-14 -2.922341730583755126e-13 -1.080866150163402317e-13 8.706977603105056640e-14
1.160000000000000000e+03 1.312431049346923828e+01 -1.490543079376220703e+01 4.448564997275306077e-13 1.471679332218367442e-12 5.749607604257911397e-13 2.131708302715792924e-13
1.161000000000000000e+03 6.073096847534179688e+01 -3.297087478637695312e+01 -1.000802037949425141e-14 1.901523778930283570e-13 5.404330750817011586e-14 5.954771723458429644e-14
1.162000000000000000e+03 5.489883804321289062e+01 -3.523483657836914062e+01 3.002406113848275424e-15 4.703769451307356075e-14 1.501202929869195624e-14 3.102486190588275849e-14
1.163000000000000000e+03 3.823720169067382812e+01 -2.039623260498046875e+01 -7.005614350349270714e-14 -3.002405859738391247e-14 -3.002405859738391247e-14 -1.040834085586084257e-13
1.164000000000000000e+03 2.552742767333984375e+01 -3.324473190307617188e+01 1.200962445539310169e-14 3.482791041242022656e-13 1.080866150163402317e-13 -1.601283260719080226e-13
1.165000000000000000e+03 1.960462188720703125e+01 -9.056577682495117188e+00 2.862293735361731706e-13 2.141716301919463494e-13 1.501202997631831404e-13 3.002405995263662808e-13
1.166000000000000000e+03 1.658919525146484375e+01 -4.867955207824707031e+00 -2.902325732176413986e-13 1.501202997631831404e-13 -4.203368474684290867e-14 5.604491073703601889e-14
1.167000000000000000e+03 5.966485977172851562e+01 -3.342120742797851562e+01 -1.601283260719080226e-14 1.601283260719080226e-14 0.000000000000000000e+00 1.120898214740720378e-13
1.168000000000000000e+03 4.091774368286132812e+01 -2.476975250244140625e+01 -1.281026608575264181e-13 2.081668171172168513e-13 2.401924891078620339e-14 3.903127820947815962e-14
1.169000000000000000e+03 3.876178741455078125e+01 -2.214876174926757812e+01 -2.101684169579509653e-13 -9.007218256841531545e-14 -9.007218256841531545e-14 -2.051644071917203133e-14
1.170000000000000000e+03 3.835246658325195312e+01 -2.131042098999023438e+01 3.602887167211341057e-14 8.406736949368581735e-14 3.602887167211341057e-14 -5.604491073703601889e-14
1.171000000000000000e+03 6.620740509033203125e+01 -3.002687263488769531e+01 1.000802037949425141e-14 5.004010105043830980e-14 1.801443583605670529e-14 -8.006416303595401129e-15
1.172000000000000000e+03 5.830331039428710938e+01 -3.500604248046875000e+01 2.001604075898850282e-15 -2.201764398785440585e-14 -6.004812227696550847e-15 5.604491073703601889e-14
1.173000000000000000e+03 2.617370223999023438e+01 -3.442413330078125000e+01 5.004010189747125706e-16 2.747201608994248589e-13 8.256616283687165381e-14 -1.761411519028352468e-13
1.174000000000000000e+03 4.391080093383789062e+01 -2.585806655883789062e+01 -6.705373696612795809e-14 3.372702778951103264e-13 8.106496295632106830e-14 6.204972381176551699e-14
1.175000000000000000e+03 4.555672073364257812e+01 -2.917221260070800781e+01 -7.005613842129502361e-15 -3.002406113848275424e-15 -3.002406113848275424e-15 -2.001604075898850282e-14
1.176000000000000000e+03 4.981088256835937500e+01 -3.253557968139648438e+01 -2.401924891078620339e-14 -5.604491073703601889e-14 -2.401924891078620339e-14 -6.805453688649501509e-14
1.177000000000000000e+03 5.184477996826171875e+01 -3.442107772827148438e+01 2.001604075898850282e-14 -6.004811719476782494e-14 -1.200962445539310169e-14 1.801443583605670529e-14
1.178000000000000000e+03 2.410246467590332031e+01 -3.347898101806640625e+01 1.701363422162375377e-14 3.732991563434873150e-13 1.170938346284344789e-13 -1.601283260719080226e-13
1.179000000000000000e+03 2.414627647399902344e+01 -3.222125625610351562e+01 1.040834085586084257e-13 4.563657394693332314e-13 1.681347389873716347e-13 -1.521218996039172544e-13
1.180000000000000000e+03 6.397179794311523438e+01 -3.162651443481445312e+01 6.004812227696550847e-15 9.407538902614712151e-14 3.002405859738391247e-14 9.007218256841531545e-14
1.181000000000000000e+03 7.124838256835937500e+01 -2.307450103759765625e+01 -1.401122768425900472e-14 -6.004812227696550847e-15 -6.004812227696550847e-15 8.006416303595401129e-15
1.182000000000000000e+03 4.158927536010742188e+01 -2.019467163085937500e+01 1.160930347080674219e-13 1.641315257533762506e-13 8.406736949368581735e-14 -9.207378240914942946e-14
1.183000000000000000e+03 4.284740066528320312e+01 -2.575846290588378906e+01 -1.163432363822250806e-14 1.780176619179188457e-13 4.991500106039242768e-14 8.106496295632106830e-14
1.184000000000000000e+03 2.064047241210937500e+01 -3.285171127319335938e+01 2.001604075898850282e-14 4.203368339159019307e-13 1.321058605389946461e-13 -1.981587908084919691e-13
1.185000000000000000e+03 1.054833984375000000e+01 -7.324569225311279297e+00 -1.301042606982605321e-13 3.102486258350911630e-13 5.404330750817011586e-14 -4.043240080849747065e-13
1.186000000000000000e+03 4.952307128906250000e+01 -3.344885635375976562e+01 4.403528797570881170e-14 -1.641315257533762506e-13 -3.602887167211341057e-14 7.806255641895631925e-14
1.187000000000000000e+03 3.690951538085937500e+01 -2.559350967407226562e+01 -7.856295637913984775e-14 1.035830085984248972e-13 7.506014649345978118e-15 1.200962445539310169e-14
1.188000000000000000e+03 4.714537811279296875e+01 -3.386964035034179688e+01 -1.326062689695076471e-14 8.581876935432816711e-14 2.176744400776264160e-14 1.601283260719080226e-14
1.189000000000000000e+03 3.622945785522460938e+01 -2.514058303833007812e+01 -4.503609128420765773e-14 -2.502005052521915490e-14 -2.101684237342145434e-14 6.505213034913026604e-14
1.190000000000000000e+03 4.199280929565429688e+01 -2.409205245971679688e+01 -1.561251128379126385e-13 4.363496868518834670e-13 8.406736949368581735e-14 1.561251128379126385e-13
1.191000000000000000e+03 1.515576362609863281e+01 -1.079566669464111328e+01 1.180946345488015359e-13 7.826271640302973065e-13 2.702165477052459464e-13 2.982389996856321668e-13
1.192000000000000000e+03 1.452073478698730469e+01 -1.051981735229492188e+01 1.561251128379126385e-13 8.446768675132720894e-13 3.002405995263662808e-13 1.901523778930283570e-13
1.193000000000000000e+03 4.665188217163085938e+01 -3.249876022338867188e+01 -6.004812227696550847e-15 -9.407538902614712151e-14 -3.002405859738391247e-14 3.502807175174635357e-14
1.194000000000000000e+03 7.062318420410156250e+01 -2.297590446472167969e+01 1.200962343895356499e-13 -4.003208151797700565e-14 2.401924891078620339e-14 -3.602887167211341057e-14
1.195000000000000000e+03 3.465932464599609375e+01 -2.881977844238281250e+01 -9.607699564314481355e-14 -6.405133042876320904e-14 -4.803849782157240678e-14 3.602887167211341057e-14
1.196000000000000000e+03 4.257421875000000000e+01 -2.426848030090332031e+01 -8.506816941405287436e-14 1.501202929869195624e-14 -2.101684237342145434e-14 -5.304250758780305885e-14
1.197000000000000000e+03 4.245275115966796875e+01 -2.521762084960937500e+01 -9.407538902614712151e-14 7.405934996122451319e-14 -6.004812227696550847e-15 -2.702165375408505793e-14
1.198000000000000000e+03 2.284295272827148438e+01 -3.193287277221679688e+01 8.907137587178468041e-14 3.813055557064237711e-13 1.411130869273524713e-13 -2.071660171968497943e-13
1.199000000000000000e+03 2.194272994995117188e+01 -3.117136001586914062e+01 1.741395520621011328e-13 4.863897912904535659e-13 1.981587908084919691e-13 -2.271820562617724026e-13
1.200000000000000000e+03 6.981970977783203125e+01 -2.423161315917968750e+01 3.202566521438160452e-14 -3.202566521438160452e-14 0.000000000000000000e+00 8.006416303595401129e-15
1.201000000000000000e+03 7.554558563232421875e+01 -2.425033187866210938e+01 5.954771723458429644e-14 -1.546239129573620530e-13 -2.852285871683332696e-14 -1.276022524270134170e-14
1.202000000000000000e+03 2.240840530395507812e+01 -3.328692245483398438e+01 3.903127820947815962e-14 4.513617127624436343e-13 1.471179000020819694e-13 -1.961571909677578551e-13
1.203000000000000000e+03 3.643857192993164062e+01 -2.636118698120117188e+01 -1.531227130768114675e-13 -3.702967498061225660e-14 -5.704571743366665393e-14 -6.004811719476782494e-14
1.204000000000000000e+03 3.186074638366699219e+01 -3.148133277893066406e+01 5.204170427930421283e-14 6.805453688649501509e-14 3.602887167211341057e-14 -7.606094980195862720e-14
1.205000000000000000e+03 3.570827484130859375e+01 -3.074361038208007812e+01 -7.055654346367623564e-14 1.551243095294137925e-14 -1.651323256737433076e-14 -1.801443583605670529e-14
1.206000000000000000e+03 4.528464889526367188e+01 -3.070167160034179688e+01 4.403528797570881170e-14 -1.641315257533762506e-13 -3.602887167211341057e-14 -3.402726844324750755e-14
1.207000000000000000e+03 3.246363449096679688e+01 -3.326775741577148438e+01 2.602085213965210642e-14 3.402726844324750755e-14 1.801443583605670529e-14 -2.001604075898850282e-14
1.208000000000000000e+03 7.630743408203125000e+01 -4.174171447753906250e+01 6.855493684667854359e-14 -2.336872557441582732e-13 -4.953969770212299228e-14 -3.002405859738391247e-14
1.209000000000000000e+03 3.408423233032226562e+01 -2.997270202636718750e+01 -5.404330750817011586e-14 1.140914348673333079e-13 1.801443583605670529e-14 5.204170427930421283e-14
1.210000000000000000e+03 3.311472320556640625e+01 -3.020438766479492188e+01 6.405133042876320904e-14 9.607699564314481355e-14 4.803849782157240678e-14 -1.000802021008766196e-13
1.211000000000000000e+03 3.967911958694458008e+00 -3.540549468994140625e+01 -1.070858150959731747e-13 -1.831467648979318019e-13 -8.706977603105056640e-14 2.401924891078620339e-14
1.212000000000000000e+03 3.892341613769531250e+00 -4.062386322021484375e+01 -4.703769451307356075e-14 -4.303448466720996568e-14 -2.702165375408505793e-14 5.404330750817011586e-14
1.213000000000000000e+03 7.441581726074218750e+01 -3.822764205932617188e+01 2.927345865710861972e-14 -1.018316019615189694e-13 -2.176744400776264160e-14 -7.606094980195862720e-14
1.214000000000000000e+03 3.846897125244140625e+01 -1.872629165649414062e+01 -2.201764398785440585e-14 4.023224082442405924e-13 1.140914348673333079e-13 -1.601283260719080226e-14
1.215000000000000000e+03 7.208773040771484375e+01 -2.178592872619628906e+01 7.506014988159157020e-14 -1.451162866088206993e-13 -2.101684237342145434e-14 6.955573676704560060e-14
1.216000000000000000e+03 7.322389221191406250e+01 -2.101920890808105469e+01 3.252606517456513302e-14 -3.978187950500616799e-13 -1.095878216731543953e-13 1.000802021008766196e-13
1.217000000000000000e+03 1.775515556335449219e+01 -9.620503425598144531e+00 3.542839036464046076e-13 4.263416605431585849e-13 2.341876692568689577e-13 4.643721388322696875e-13
1.218000000000000000e+03 1.537854194641113281e+01 -1.016727733612060547e+01 2.291836696550336727e-13 9.217385969068070395e-13 3.452767043631010946e-13 3.883111822540474822e-13
1.219000000000000000e+03 2.073720169067382812e+01 -4.221153736114501953e+00 -6.004811719476782494e-14 2.001604075898850282e-14 -1.200962445539310169e-14 1.761411519028352468e-13
1.220000000000000000e+03 1.796585655212402344e+01 -3.877094507217407227e+00 -2.101684169579509653e-13 2.301844695754007297e-13 6.004812227696550847e-15 8.006416303595401129e-15
1.221000000000000000e+03 3.889268112182617188e+01 -1.969191360473632812e+01 6.004812227696550847e-15 4.143320343936995886e-13 1.261010474642651480e-13 -3.202566521438160452e-14
1.222000000000000000e+03 3.952047729492187500e+01 -1.844330024719238281e+01 8.406736949368581735e-14 2.762213472274482884e-13 1.080866150163402317e-13 -1.601283260719080226e-14
1.223000000000000000e+03 4.322443771362304688e+01 -2.638800811767578125e+01 1.601283260719080226e-14 1.441154866884536423e-13 4.803849782157240678e-14 -1.321058605389946461e-13
1.224000000000000000e+03 4.387036132812500000e+01 -2.797638893127441406e+01 -1.261010474642651480e-13 -5.404330750817011586e-14 -5.404330750817011586e-14 -5.604491073703601889e-14
1.225000000000000000e+03 7.593247985839843750e+01 -2.359171295166015625e+01 -4.803849782157240678e-14 -1.120898214740720378e-13 -4.803849782157240678e-14 1.721379386688398627e-13
1.226000000000000000e+03 1.340193939208984375e+01 -1.319333457946777344e+01 3.340176713776538131e-13 1.149671286990172625e-12 4.451066793788316378e-13 1.721379386688398627e-13
1.227000000000000000e+03 1.177150917053222656e+01 -5.071919918060302734e+00 -2.281828697346666157e-13 2.682149478645118323e-13 1.200962445539310169e-14 -1.761411519028352468e-13
1.228000000000000000e+03 1.033218479156494141e+01 -4.424881458282470703e+00 -4.283432603838926989e-13 -9.207378240914942946e-14 -1.561251128379126385e-13 -3.202566521438160452e-13
1.229000000000000000e+03 1.723488426208496094e+01 -4.025813102722167969e+00 -4.223384337566360447e-13 2.001604075898850282e-15 -1.261010474642651480e-13 7.205774334422682115e-14
1.230000000000000000e+03 1.407375907897949219e+01 -3.070627784729003906e+01 -1.881507780522942430e-13 7.085678072928092153e-13 1.561251128379126385e-13 -1.291034607778934751e-13
1.231000000000000000e+03 1.828830909729003906e+01 -3.383168029785156250e+01 -1.010810020212436766e-13 5.514419216395838319e-13 1.351082738526229732e-13 -1.676343390271881062e-13
1.232000000000000000e+03 8.909012794494628906e+00 -4.456879138946533203e+00 -3.502807039649363796e-13 1.701363388281057487e-13 -5.404330750817011586e-14 -3.482791041242022656e-13
1.233000000000000000e+03 1.104465579986572266e+01 -5.039246559143066406e+00 -2.481988952470620680e-13 1.681347389873716347e-13 -2.401924891078620339e-14 -2.201764432666758475e-13
1.234000000000000000e+03 5.583063125610351562e+00 -6.257269382476806641e+00 -1.251002475438980910e-13 -4.653729116475824323e-13 -1.771419518232023038e-13 -4.003208084035064784e-13
1.235000000000000000e+03 6.942880630493164062e+00 -5.311025142669677734e+00 -9.007218256841531545e-14 -2.902325732176413986e-13 -1.140914348673333079e-13 -4.303448602246268129e-13
1.236000000000000000e+03 7.561676788330078125e+01 -3.186890411376953125e+01 1.073360150760649390e-13 2.502005094873562853e-16 3.227586519447336877e-14 -2.602085213965210642e-14
1.237000000000000000e+03 7.624854087829589844e+00 -5.191479682922363281e+00 -1.661331391466375207e-13 -9.407538902614712151e-14 -7.806255641895631925e-14 -3.362694779747432694e-13
1.238000000000000000e+03 7.470421791076660156e+00 -4.550733566284179688e+00 -1.861491782115601290e-13 -3.542839036464046076e-13 -1.621299259126421366e-13 -4.723785381952061435e-13
1.239000000000000000e+03 6.315366744995117188e+00 -5.964422702789306641e+00 -6.405133042876320904e-14 6.405133042876320904e-14 0.000000000000000000e+00 -3.442758773376797254e-13
1.240000000000000000e+03 7.609542083740234375e+01 -2.942861175537109375e+01 7.205774334422682115e-14 -1.521218996039172544e-13 -2.401924891078620339e-14 -1.080866150163402317e-13
1.241000000000000000e+03 1.102866458892822266e+01 -5.632677555084228516e+00 -3.222582519845501592e-13 1.821459649775647449e-13 -4.203368474684290867e-14 -2.001604042017532392e-13
1.242000000000000000e+03 8.301576614379882812e+00 -5.131491184234619141e+00 -2.602085213965210642e-13 -2.001604075898850282e-14 -8.406736949368581735e-14 -4.443560862148199231e-13
1.243000000000000000e+03 1.421417617797851562e+01 -5.215723514556884766e+00 -4.083272077664429345e-13 8.006416303595401129e-15 -1.200962343895356499e-13 -2.001604075898850282e-14
1.244000000000000000e+03 1.418875789642333984e+01 -4.482396602630615234e+00 -3.002405995263662808e-13 1.000802021008766196e-13 -6.004811719476782494e-14 7.205774334422682115e-14
1.245000000000000000e+03 1.508027267456054688e+01 -5.855193138122558594e+00 -2.922341730583755126e-13 3.322662782932750414e-13 1.200962445539310169e-14 -1.200962445539310169e-14
1.246000000000000000e+03 7.152136993408203125e+01 -2.216124153137207031e+01 1.761411519028352468e-13 1.441154866884536423e-13 9.607699564314481355e-14 2.952365863720038397e-14
1.247000000000000000e+03 1.253849411010742188e+01 -5.136271476745605469e+00 -2.542037218743187221e-13 3.943159817762498243e-13 4.203368474684290867e-14 -1.361090737729900302e-13
1.248000000000000000e+03 7.193664550781250000e+01 -2.281492233276367188e+01 1.941555911270237411e-13 -5.404330750817011586e-14 4.203368474684290867e-14 9.607699564314481355e-14
1.249000000000000000e+03 7.141811370849609375e+01 -2.440338325500488281e+01 2.221780431074099615e-13 -2.021620040424873532e-13 6.004812227696550847e-15 1.801443583605670529e-14
1.250000000000000000e+03 7.617795562744140625e+01 -2.289534568786621094e+01 4.003208151797700565e-14 -1.200962343895356499e-13 -2.401924891078620339e-14 4.203368474684290867e-14
1.251000000000000000e+03 7.675399017333984375e+01 -2.782006835937500000e+01 -1.000802021008766196e-13 -1.801443651368306309e-13 -8.406736949368581735e-14 4.003208151797700565e-15
1.252000000000000000e+03 7.550687408447265625e+01 -2.203268051147460938e+01 1.841475648182988589e-13 2.161732300326804634e-13 1.200962343895356499e-13 -6.004811719476782494e-14
1.253000000000000000e+03 7.590627288818359375e+01 -3.369824981689453125e+01 -4.728789449316532501e-14 -2.026624073908026707e-14 -2.026624073908026707e-14 -8.406736949368581735e-14
1.254000000000000000e+03 7.642790985107421875e+01 -3.307645416259765625e+01 4.653729455289003225e-14 -7.155734338404329264e-14 -7.506014649345978118e-15 -5.204170427930421283e-14
1.255000000000000000e+03 7.534966278076171875e+01 -3.440697860717773438e+01 -1.451162933850842773e-14 3.953167816966168813e-14 7.506014649345978118e-15 -7.405934996122451319e-14
1.256000000000000000e+03 7.673796081542968750e+01 -2.705223846435546875e+01 -2.201764398785440585e-14 -2.381908689383371858e-13 -7.806255641895631925e-14 2.001604075898850282e-14
1.257000000000000000e+03 7.604454803466796875e+01 -2.868090438842773438e+01 1.060850151756061177e-13 -4.603689120457471473e-14 1.801443583605670529e-14 -1.441154866884536423e-13
1.258000000000000000e+03 7.598973846435546875e+01 -2.791757011413574219e+01 -1.801443583605670529e-14 -2.822261738547049426e-13 -9.007218256841531545e-14 -1.160930347080674219e-13
1.259000000000000000e+03 4.093265056610107422e+00 -2.851066207885742188e+01 -1.881507780522942430e-13 -4.923945908126559079e-13 -2.041636038832214672e-13 1.441154866884536423e-13
1.260000000000000000e+03 7.596986389160156250e+01 -2.637541770935058594e+01 1.000802037949425141e-14 -1.100882216333379238e-13 -3.002405859738391247e-14 -6.805453688649501509e-14
1.261000000000000000e+03 7.592486572265625000e+01 -2.484552764892578125e+01 -6.905533680686207210e-14 -4.413536864537187521e-13 -1.531227130768114675e-13 1.080866150163402317e-13
1.262000000000000000e+03 7.600598907470703125e+01 -2.560721969604492188e+01 2.021620040424873532e-13 -1.421138868477195283e-13 1.801443583605670529e-14 0.000000000000000000e+00
1.263000000000000000e+03 7.551985168457031250e+01 -3.023158454895019531e+01 -8.206576287668812530e-14 -2.181748434259417335e-13 -9.007218256841531545e-14 -7.205774334422682115e-14
1.264000000000000000e+03 1.827850341796875000e+01 -6.137841224670410156e+00 -8.006416303595401129e-14 2.401924687790712998e-13 4.803849782157240678e-14 2.081668171172168513e-13
1.265000000000000000e+03 7.470724487304687500e+01 -3.371036529541015625e+01 -1.200962445539310169e-14 -1.881507780522942430e-13 -6.004811719476782494e-14 -8.807057595141762341e-14
1.266000000000000000e+03 3.318196058273315430e+00 -2.227661323547363281e+01 6.805453688649501509e-14 -7.485999125277087440e-13 -2.041636038832214672e-13 1.601283260719080226e-13
1.267000000000000000e+03 4.175071239471435547e+00 -2.487716484069824219e+01 -8.406736949368581735e-14 -6.765421556309547668e-13 -2.281828697346666157e-13 2.161732300326804634e-13
1.268000000000000000e+03 4.099266529083251953e+00 -2.317150497436523438e+01 -2.001604075898850282e-15 -7.786239643488290785e-13 -2.341876692568689577e-13 1.000802021008766196e-13
1.269000000000000000e+03 4.028542518615722656e+00 -2.074260520935058594e+01 3.042437992078345088e-13 -9.447570763904122870e-13 -1.921539912862896271e-13 5.604491073703601889e-14
1.270000000000000000e+03 3.824402093887329102e+00 -1.502392482757568359e+01 2.602085213965210642e-14 -7.666143110943157701e-13 -2.221780431074099615e-13 -9.207378240914942946e-14
1.271000000000000000e+03 3.834316968917846680e+00 -1.424760818481445312e+01 1.401122768425900472e-14 -3.142518255165593910e-13 -9.007218256841531545e-14 -1.721379386688398627e-13
1.272000000000000000e+03 3.204936265945434570e+00 -1.827289772033691406e+01 1.681347389873716347e-13 -5.684555473908781131e-13 -1.200962343895356499e-13 -7.606094980195862720e-14
1.273000000000000000e+03 3.854959487915039062e+00 -1.110290527343750000e+01 3.402726844324750755e-14 -2.141716301919463494e-13 -5.404330750817011586e-14 -3.522823038056704936e-13
1.274000000000000000e+03 3.865311861038208008e+00 -1.030922985076904297e+01 3.402726844324750755e-14 -5.344282958882895507e-13 -1.501202997631831404e-13 -1.681347389873716347e-13
1.275000000000000000e+03 3.878177642822265625e+00 -9.521019935607910156e+00 -8.807057595141762341e-14 -3.122502256758252770e-13 -1.200962343895356499e-13 -2.962373998448980528e-13
1.276000000000000000e+03 3.898260593414306641e+00 -8.743238449096679688e+00 -2.201764398785440585e-14 -5.584474939770989188e-13 -1.741395520621011328e-13 -2.321860694161348437e-13
1.277000000000000000e+03 3.191643476486206055e+00 -8.629651069641113281e+00 -6.605293026949732305e-14 -3.943159817762498243e-13 -1.381106736137241442e-13 -3.763015561045884860e-13
1.278000000000000000e+03 3.841890096664428711e+00 -1.347218513488769531e+01 -1.801443583605670529e-14 -6.024827988934666756e-13 -1.861491782115601290e-13 -2.001604042017532392e-13
1.279000000000000000e+03 5.712553977966308594e+00 -2.256403732299804688e+01 2.582069215557869502e-13 -5.984795992119984476e-13 -1.020818019416107336e-13 8.406736949368581735e-14
1.280000000000000000e+03 4.156218051910400391e+00 -2.572500801086425781e+01 -7.105694342385976414e-14 -5.794643736199700523e-13 -1.951563910473907981e-13 2.361892690976030718e-13
1.281000000000000000e+03 3.300343036651611328e+00 -7.070608139038085938e+00 7.205774334422682115e-14 -1.521218996039172544e-13 -2.401924891078620339e-14 -2.922341730583755126e-13
1.282000000000000000e+03 1.932333755493164062e+01 -4.856609344482421875e+00 -7.806255641895631925e-14 5.804651735403371093e-14 -6.004812227696550847e-15 2.642117210779892922e-13
1.283000000000000000e+03 1.869183921813964844e+01 -3.756886720657348633e+00 -2.301844695754007297e-13 1.301042606982605321e-13 -3.002405859738391247e-14 6.805453688649501509e-14
1.284000000000000000e+03 3.218277215957641602e+00 -1.908454513549804688e+01 1.561251128379126385e-13 -9.167346786201346909e-13 -2.281828697346666157e-13 4.003208151797700565e-15
1.285000000000000000e+03 5.065674781799316406e+00 -1.657065773010253906e+01 1.020818019416107336e-13 -6.425149041283662044e-13 -1.621299259126421366e-13 -1.401122870069854143e-13
1.286000000000000000e+03 3.827643632888793945e+00 -1.581758689880371094e+01 1.200962445539310169e-14 -6.124908523072458699e-13 -1.801443651368306309e-13 -3.202566521438160452e-14
1.287000000000000000e+03 3.847817897796630859e+00 -1.189818763732910156e+01 1.601283260719080226e-14 -4.963977904941241359e-13 -1.441154866884536423e-13 -2.481988952470620680e-13
1.288000000000000000e+03 4.050854682922363281e+00 -3.326549911499023438e+01 -1.346078738924394447e-13 -2.406928822917819843e-13 -1.125902282105191443e-13 1.120898214740720378e-13
1.289000000000000000e+03 3.977851390838623047e+00 -1.994753646850585938e+01 2.582069215557869502e-13 -5.984795992119984476e-13 -1.020818019416107336e-13 8.406736949368581735e-14
1.290000000000000000e+03 3.844879627227783203e+00 -1.268957042694091797e+01 -2.401924891078620339e-14 -3.763015561045884860e-13 -1.200962343895356499e-13 -3.642919299551294898e-13
1.291000000000000000e+03 4.063592910766601562e+00 -2.651561355590820312e+01 -4.303448466720996568e-14 -5.674547203654567440e-13 -1.831467648979318019e-13 2.121700303512122354e-13
1.292000000000000000e+03 3.935720443725585938e+00 -7.978334426879882812e+00 -8.206576287668812530e-14 -2.181748434259417335e-13 -9.007218256841531545e-14 -3.122502256758252770e-13
1.293000000000000000e+03 4.800119876861572266e+00 -6.678189277648925781e+00 -8.206576287668812530e-14 -3.783031559453226000e-13 -1.381106736137241442e-13 -2.441956955655938399e-13
1.294000000000000000e+03 4.455512523651123047e+00 -3.169507408142089844e+01 -5.204170427930421283e-14 -3.883111822540474822e-13 -1.321058605389946461e-13 8.006416303595401129e-14
1.295000000000000000e+03 3.581510543823242188e+00 -3.160678482055664062e+01 -5.804651735403371093e-14 -4.823865916089853378e-13 -1.621299259126421366e-13 1.881507780522942430e-13
1.296000000000000000e+03 7.581158447265625000e+01 -3.075878715515136719e+01 1.901523745048965680e-14 -1.691355389077386917e-13 -4.503609128420765773e-14 -7.906335633932337625e-14
1.297000000000000000e+03 4.006569385528564453e+00 -7.224630832672119141e+00 -4.003208151797700565e-14 -5.204170427930421283e-13 -1.681347389873716347e-13 -2.962373998448980528e-13
1.298000000000000000e+03 3.948045492172241211e+00 -2.720338630676269531e+01 -2.041636038832214672e-13 -6.365100503960552381e-13 -2.522020949285302960e-13 1.681347389873716347e-13
1.299000000000000000e+03 6.664120483398437500e+01 -2.945122337341308594e+01 -7.556054984177509870e-14 1.706367387882892772e-13 2.852285871683332696e-14 6.680353698603619383e-14
1.300000000000000000e+03 6.717161560058593750e+01 -3.119439315795898438e+01 -7.506014649345978118e-15 4.253408470702643718e-14 1.050842118671072717e-14 4.803849782157240678e-14
1.301000000000000000e+03 4.701297760009765625e+00 -3.381172561645507812e+01 -9.482598896642241426e-14 -1.778925585397411746e-13 -8.181556289659636105e-14 1.060850151756061177e-13
1.302000000000000000e+03 1.995693588256835938e+01 -8.061264991760253906e+00 7.806255641895631925e-14 2.622101212372551782e-13 1.020818019416107336e-13 4.323464600653609269e-13
1.303000000000000000e+03 1.241044712066650391e+01 -2.025317764282226562e+01 5.034034170417478471e-13 1.588272807544199861e-12 6.275028782178060371e-13 -1.961571909677578551e-13
1.304000000000000000e+03 1.215058231353759766e+01 -1.899334716796875000e+01 4.733793652206275127e-13 1.758409173477359921e-12 6.695365290833310556e-13 -6.805453688649501509e-14
1.305000000000000000e+03 1.315199470520019531e+01 -2.002319717407226562e+01 6.024827988934666756e-13 1.859490209379921488e-12 7.385918591139295497e-13 -3.763015561045884860e-13
1.306000000000000000e+03 6.804247856140136719e+00 -3.495068359375000000e+01 -1.215974478226133915e-13 1.651323256737433076e-14 -3.152526186606628700e-14 1.461170865291877563e-13
1.307000000000000000e+03 7.052410125732421875e+01 -2.199469184875488281e+01 1.413632801311806575e-13 1.063352151556978820e-13 7.430954994131627744e-14 -3.903127820947815962e-14
1.308000000000000000e+03 1.080624103546142578e+01 -1.613187408447265625e+01 3.069960193176346497e-13 9.565165499936245652e-13 3.790537491093343148e-13 -9.570169228487537816e-14
1.309000000000000000e+03 1.166061115264892578e+01 -1.798792648315429688e+01 2.562053217150528361e-13 1.184949599379592211e-12 4.323464600653609269e-13 -6.204972381176551699e-14
1.310000000000000000e+03 1.943266487121582031e+01 -8.082262039184570312e+00 1.961571909677578551e-13 4.043240080849747065e-13 1.801443651368306309e-13 2.522020949285302960e-13
1.311000000000000000e+03 6.908851623535156250e+01 -2.621159934997558594e+01 5.804651735403371093e-14 8.206576287668812530e-14 4.203368474684290867e-14 1.190954344691685929e-13
1.312000000000000000e+03 1.381444644927978516e+01 -2.615864753723144531e+01 3.127506188597452275e-14 1.157177327050507021e-12 3.565357102434940639e-13 -2.081668171172168513e-13
1.313000000000000000e+03 1.329514217376708984e+01 -2.560901832580566406e+01 -2.189254484484147098e-15 1.222542249726399355e-12 3.661058815048606752e-13 -1.002678503918795483e-13
1.314000000000000000e+03 1.342314815521240234e+01 -2.438207817077636719e+01 2.041636038832214672e-13 1.437151721413176819e-12 4.923945908126559079e-13 -1.100882216333379238e-13
1.315000000000000000e+03 1.996747207641601562e+01 -4.860754013061523438e+00 -1.561251128379126385e-13 1.160930347080674219e-13 -1.200962445539310169e-14 2.842277736954390566e-13
1.316000000000000000e+03 2.005711174011230469e+01 -4.229888439178466797e+00 -9.007218256841531545e-14 1.901523778930283570e-13 3.002405859738391247e-14 3.923143819355157103e-13
1.317000000000000000e+03 7.609339904785156250e+01 -3.496625137329101562e+01 -6.104892389139845998e-14 -2.091676170375839083e-13 -8.106496295632106830e-14 -5.604491073703601889e-14
1.318000000000000000e+03 1.259848117828369141e+01 -1.657626914978027344e+01 4.183352340751678167e-13 1.323060259440789199e-12 5.224186426337762423e-13 4.003208151797700565e-14
1.319000000000000000e+03 4.197088241577148438e+01 -2.142119598388671875e+01 5.604491073703601889e-14 3.442758773376797254e-13 1.200962343895356499e-13 7.205774334422682115e-14
1.320000000000000000e+03 1.432745933532714844e+01 -2.663616180419921875e+01 5.204170427930421283e-14 1.028824486541679573e-12 3.242598518252842732e-13 -1.901523778930283570e-13
1.321000000000000000e+03 7.098712158203125000e+01 -2.250739860534667969e+01 -6.505213034913026604e-15 -4.853889778175593528e-14 -1.651323256737433076e-14 1.441154866884536423e-13
1.322000000000000000e+03 1.467940044403076172e+01 -2.766165542602539062e+01 8.907137587178468041e-14 8.616905474746749949e-13 2.852285736158061136e-13 -2.001604042017532392e-13
1.323000000000000000e+03 3.827465438842773438e+01 -1.955536079406738281e+01 -4.603689120457471473e-14 1.861491782115601290e-13 4.203368474684290867e-14 -1.040834085586084257e-13
1.324000000000000000e+03 3.640654373168945312e+01 -2.751038932800292969e+01 -9.207378240914942946e-14 5.204170427930421283e-14 -1.200962445539310169e-14 -6.405133042876320904e-14
1.325000000000000000e+03 4.101811218261718750e+01 -2.048397254943847656e+01 8.006416303595401129e-15 -8.807057595141762341e-14 -2.401924891078620339e-14 -8.006416303595401129e-15
1.326000000000000000e+03 6.902826690673828125e+01 -2.554796028137207031e+01 8.006416303595401129e-15 2.321860694161348437e-13 7.205774334422682115e-14 -5.604491073703601889e-14
1.327000000000000000e+03 5.278690338134765625e+01 -3.638270950317382812e+01 -2.251804564210382886e-14 1.276022608973428896e-13 3.152526186606628700e-14 2.001604075898850282e-15
1.328000000000000000e+03 1.542631340026855469e+01 -2.799046707153320312e+01 2.502005052521915490e-14 9.257419050084925161e-13 2.852285736158061136e-13 -2.842277736954390566e-13
1.329000000000000000e+03 1.875591659545898438e+01 -5.991353511810302734e+00 -3.602887167211341057e-14 7.606094980195862720e-14 1.200962445539310169e-14 4.803849782157240678e-14
1.330000000000000000e+03 1.624616241455078125e+01 -2.841549682617187500e+01 1.801443583605670529e-14 9.227394239322284086e-13 2.822261738547049426e-13 -2.602085213965210642e-13
1.331000000000000000e+03 4.226470947265625000e+01 -2.341704368591308594e+01 4.803849782157240678e-14 1.120898214740720378e-13 4.803849782157240678e-14 -8.206576287668812530e-14
1.332000000000000000e+03 3.955544281005859375e+01 -2.398999786376953125e+01 1.100882216333379238e-13 1.501202997631831404e-13 7.806255641895631925e-14 6.104892389139845998e-14
1.333000000000000000e+03 5.994168090820312500e+01 -3.475951004028320312e+01 -2.001604075898850282e-15 -5.804651735403371093e-14 -1.801443583605670529e-14 -1.901523745048965680e-14
1.334000000000000000e+03 3.323906707763671875e+01 -3.101703834533691406e+01 3.002405859738391247e-14 -1.000802037949425141e-14 6.004812227696550847e-15 6.004812227696550847e-15
1.335000000000000000e+03 3.434485626220703125e+01 -3.101002693176269531e+01 1.301042606982605321e-14 9.707779556351187056e-14 3.302646513474866152e-14 -2.201764398785440585e-14
1.336000000000000000e+03 6.525927734375000000e+01 -3.123746681213378906e+01 2.401924891078620339e-14 5.604491073703601889e-14 2.401924891078620339e-14 -1.601283260719080226e-14
1.337000000000000000e+03 1.173945331573486328e+01 -1.394119453430175781e+01 4.243400607024244708e-13 7.766223645080949645e-13 3.602887302736612618e-13 -8.606896933441993136e-14
1.338000000000000000e+03 6.148910903930664062e+01 -3.409887695312500000e+01 -3.702967498061225660e-14 4.703769451307356075e-14 3.002406113848275424e-15 7.856295637913984775e-14
1.339000000000000000e+03 6.285218048095703125e+01 -3.322346496582031250e+01 9.007217918028352643e-15 2.101684237342145434e-14 9.007217918028352643e-15 2.852285871683332696e-14
1.340000000000000000e+03 7.665066528320312500e+01 -2.142415809631347656e+01 -2.001604075898850282e-15 2.201764398785440585e-14 6.004812227696550847e-15 6.405133042876320904e-14
1.341000000000000000e+03 7.544828796386718750e+01 -2.117948532104492188e+01 1.721379386688398627e-13 -1.321058605389946461e-13 1.200962445539310169e-14 -7.606094980195862720e-14
1.342000000000000000e+03 3.941094207763671875e+01 -2.165610504150390625e+01 1.336070739720723877e-13 3.117498121631145924e-13 1.336070739720723877e-13 -1.153424279915285511e-13
1.343000000000000000e+03 7.003582763671875000e+01 -2.527884674072265625e+01 8.807057595141762341e-14 3.122502256758252770e-13 1.200962343895356499e-13 -5.604491073703601889e-14
1.344000000000000000e+03 4.183847808837890625e+01 -2.078878402709960938e+01 6.405133042876320904e-14 -6.405133042876320904e-14 0.000000000000000000e+00 -1.200962343895356499e-13
1.345000000000000000e+03 3.775335311889648438e+01 -2.379774665832519531e+01 -7.305854326459387815e-14 -7.706175649858926224e-14 -4.503609128420765773e-14 5.204170427930421283e-14
1.346000000000000000e+03 6.448004913330078125e+01 -3.077901268005371094e+01 -5.604491073703601889e-14 5.604491073703601889e-14 0.000000000000000000e+00 3.903127820947815962e-14
1.347000000000000000e+03 2.897493743896484375e+01 -3.482015991210937500e+01 6.129912217742432973e-15 1.627554292510033362e-13 5.066560100066772043e-14 -7.005614350349270714e-14
1.348000000000000000e+03 5.622635269165039062e+01 -3.611278152465820312e+01 1.013312020013354409e-13 -9.382518904605535726e-14 2.251804479507088161e-15 3.502807175174635357e-14
1.349000000000000000e+03 3.706505966186523438e+01 -2.703210639953613281e+01 -1.134033798398832726e-13 -4.860144608271298183e-14 -4.860144608271298183e-14 5.004010189747125706e-15
1.350000000000000000e+03 3.599246597290039062e+01 -2.693570899963378906e+01 2.001604075898850282e-15 5.804651735403371093e-14 1.801443583605670529e-14 2.502005052521915490e-14
1.351000000000000000e+03 3.160317611694335938e+01 -3.470203399658203125e+01 2.802245536851800944e-14 9.207378240914942946e-14 3.602887167211341057e-14 -4.503609128420765773e-14
1.352000000000000000e+03 1.419423294067382812e+01 -1.104505920410156250e+01 3.402726844324750755e-14 8.266624689466650633e-13 2.582069215557869502e-13 2.552045217946857791e-13
1.353000000000000000e+03 1.375647640228271484e+01 -1.156008338928222656e+01 2.962373998448980528e-13 7.445967128462405160e-13 3.122502256758252770e-13 2.111692168783180223e-13
1.354000000000000000e+03 3.734123611450195312e+01 -2.471537971496582031e+01 9.007217918028352643e-15 1.411130869273524713e-13 4.503609128420765773e-14 -4.003208151797700565e-15
1.355000000000000000e+03 3.998473358154296875e+01 -2.331051063537597656e+01 -3.753007494079578510e-14 -1.075862150561567032e-13 -4.353488801552528320e-14 0.000000000000000000e+00
1.356000000000000000e+03 4.218361663818359375e+01 -2.627223014831542969e+01 -5.829671733412547519e-14 2.076664239332969009e-14 -1.125902282105191443e-14 -1.100882216333379238e-13
1.357000000000000000e+03 2.016260910034179688e+01 -6.868678092956542969e+00 5.204170427930421283e-14 3.883111822540474822e-13 1.321058605389946461e-13 3.442758773376797254e-13
1.358000000000000000e+03 1.242913722991943359e+01 -1.441679000854492188e+01 3.222582519845501592e-13 1.259008956117080302e-12 4.743801380359402575e-13 -8.106496295632106830e-14
1.359000000000000000e+03 6.573928070068359375e+01 -3.062777519226074219e+01 2.001604075898850282e-15 5.804651735403371093e-14 1.801443583605670529e-14 1.251002526260957745e-14
1.360000000000000000e+03 6.501014709472656250e+01 -3.008916473388671875e+01 4.003208151797700565e-14 -4.003208151797700565e-14 0.000000000000000000e+00 5.004010189747125706e-16
1.361000000000000000e+03 4.188172912597656250e+01 -2.258760452270507812e+01 5.804651735403371093e-14 3.222582519845501592e-13 1.140914348673333079e-13 -1.321058605389946461e-13
1.362000000000000000e+03 5.124189758300781250e+01 -3.567732238769531250e+01 3.953167816966168813e-14 -7.455974992140804170e-14 -1.050842118671072717e-14 2.001604075898850282e-14
1.363000000000000000e+03 7.394731140136718750e+01 -2.504405975341796875e+01 1.441154866884536423e-13 -1.441154866884536423e-13 0.000000000000000000e+00 8.006416303595401129e-14
1.364000000000000000e+03 7.027268218994140625e+01 -2.359395980834960938e+01 4.553649124439118623e-14 -3.007410130390769654e-13 -7.656135653840573374e-14 4.003208151797700565e-15
1.365000000000000000e+03 6.406375885009765625e+01 -3.262802124023437500e+01 5.004010189747125706e-15 -1.501202929869195624e-14 -3.002406113848275424e-15 4.503609128420765773e-14
1.366000000000000000e+03 1.400838661193847656e+01 -1.025745773315429688e+01 1.556247128777291100e-13 8.902133587576632756e-13 3.137514391089030186e-13 2.041636038832214672e-13
1.367000000000000000e+03 4.898707199096679688e+01 -3.420455169677734375e+01 1.188452361831427231e-14 -4.065758146820641628e-14 -8.631917100857759012e-15 2.001604075898850282e-15
1.368000000000000000e+03 3.510553359985351562e+01 -2.795676612854003906e+01 3.202566521438160452e-14 -3.202566521438160452e-14 0.000000000000000000e+00 5.604491073703601889e-14
1.369000000000000000e+03 3.533292770385742188e+01 -2.848773574829101562e+01 -5.004010189747125706e-15 9.507618894651417851e-14 2.702165375408505793e-14 1.000802037949425141e-15
1.370000000000000000e+03 4.845565414428710938e+01 -3.331155776977539062e+01 6.004812227696550847e-15 -6.605293026949732305e-14 -1.801443583605670529e-14 -6.004811719476782494e-14
1.371000000000000000e+03 2.223451232910156250e+01 -3.502724838256835938e+01 -1.501202929869195624e-14 4.853889642650321967e-13 1.411130869273524713e-13 -1.481186999224490264e-13
1.372000000000000000e+03 3.760784530639648438e+01 -2.612211608886718750e+01 4.353488801552528320e-14 4.153328478665938017e-14 2.552045048540268340e-14 -8.006416303595401129e-15
1.373000000000000000e+03 4.145610427856445312e+01 -2.514112854003906250e+01 -7.405934996122451319e-14 -6.605293026949732305e-14 -4.203368474684290867e-14 -1.130906281707026728e-13
1.374000000000000000e+03 2.014257240295410156e+01 -3.460456466674804688e+01 -9.657739560332834206e-14 4.618701254788248889e-13 1.095878216731543953e-13 -1.401122870069854143e-13
1.375000000000000000e+03 1.903829193115234375e+01 -3.230759811401367188e+01 -2.001604075898850282e-15 6.625309025357073445e-13 1.981587908084919691e-13 -2.261812563414053456e-13
1.376000000000000000e+03 4.425215911865234375e+01 -3.084266662597656250e+01 1.401122768425900472e-14 6.004812227696550847e-15 6.004812227696550847e-15 -7.405934996122451319e-14
1.377000000000000000e+03 3.297449874877929688e+01 -3.201115036010742188e+01 3.602887167211341057e-14 4.003208151797700565e-15 1.200962445539310169e-14 1.401122768425900472e-14
1.378000000000000000e+03 4.419784927368164062e+01 -2.895530891418457031e+01 -3.052446194569922999e-14 5.554451077685249039e-14 7.506014649345978118e-15 -4.003208151797700565e-14
1.379000000000000000e+03 4.474666213989257812e+01 -2.983019638061523438e+01 -3.484042007261163587e-14 1.680721805220192211e-13 3.996952982888817008e-14 -1.813953582610258741e-14
1.380000000000000000e+03 3.585550308227539062e+01 -3.226904678344726562e+01 5.004010189747125706e-15 2.502005052521915490e-14 9.007217918028352643e-15 -4.003208151797700565e-15
1.381000000000000000e+03 3.399477767944335938e+01 -3.381303405761718750e+01 7.105694342385976414e-14 9.907939540424598457e-14 5.104090097080536681e-14 -6.004812227696550847e-15
1.382000000000000000e+03 7.471570587158203125e+01 -3.522287750244140625e+01 -3.815557489102519573e-14 -2.908580765560025982e-13 -9.870409882224012721e-14 -5.004010105043830980e-14
1.383000000000000000e+03 7.088901996612548828e+00 -4.155377197265625000e+01 -8.356696953350228885e-14 2.386912824510478703e-13 4.653729455289003225e-14 4.203368474684290867e-14
1.384000000000000000e+03 6.049478912353515625e+01 -3.659286499023437500e+01 3.102486190588275849e-14 5.904731727440076794e-14 2.702165375408505793e-14 3.803047490097931360e-14
1.385000000000000000e+03 5.976970195770263672e+00 -3.619493484497070312e+01 -1.190954344691685929e-13 -1.100882199392720293e-14 -3.903127820947815962e-14 1.185950345089850644e-13
1.386000000000000000e+03 2.710651206970214844e+01 -3.590647888183593750e+01 -1.276022524270134170e-14 3.605389099249622920e-13 1.043336085387001899e-13 -8.406736949368581735e-14
1.387000000000000000e+03 6.250741004943847656e+00 -3.988230895996093750e+01 -1.371098736933570872e-13 -1.301042606982605321e-14 -4.503609128420765773e-14 4.103288143834406265e-14
1.388000000000000000e+03 4.913607120513916016e+00 -3.662350082397460938e+01 -1.811451650571976879e-13 -1.691355389077386917e-13 -1.050842084789754827e-13 1.321058605389946461e-13
1.389000000000000000e+03 4.048805999755859375e+01 -2.054408264160156250e+01 -5.604491073703601889e-14 2.962373998448980528e-13 7.205774334422682115e-14 -7.205774334422682115e-14
1.390000000000000000e+03 4.073471450805664062e+01 -2.008547019958496094e+01 1.403624802108136005e-13 3.275124583427407865e-13 1.403624802108136005e-13 -7.330875002094922044e-14
1.391000000000000000e+03 7.310324859619140625e+01 -2.191645812988281250e+01 -3.903127820947815962e-14 -9.107298248878237246e-14 -3.903127820947815962e-14 2.036632039230379387e-13
1.392000000000000000e+03 7.256191253662109375e+01 -2.239834594726562500e+01 1.921539912862896271e-13 4.803849782157240678e-14 7.205774334422682115e-14 -7.005613842129502361e-15
1.393000000000000000e+03 7.044427490234375000e+01 -2.467144012451171875e+01 1.120898214740720378e-13 -2.722181475459800604e-13 -4.803849782157240678e-14 -3.302646513474866152e-14
1.394000000000000000e+03 7.457687377929687500e+01 -2.502097702026367188e+01 1.261010474642651480e-13 5.404330750817011586e-14 5.404330750817011586e-14 3.602887167211341057e-14
1.395000000000000000e+03 3.973971176147460938e+01 -1.940503692626953125e+01 -6.805453688649501509e-14 2.682149478645118323e-13 6.004811719476782494e-14 -4.603689120457471473e-14
1.396000000000000000e+03 3.991563796997070312e+01 -2.035322189331054688e+01 8.306656957331876034e-14 1.271018609371593611e-13 6.305052373213257400e-14 -8.006416303595401129e-14
1.397000000000000000e+03 3.939554977416992188e+01 -1.999213218688964844e+01 4.903929774193946378e-14 2.101684237342145434e-14 2.101684237342145434e-14 1.200962445539310169e-14
1.398000000000000000e+03 1.038242435455322266e+01 -5.649175167083740234e+00 -2.602085213965210642e-13 3.002405995263662808e-13 1.200962445539310169e-14 -3.883111822540474822e-13
1.399000000000000000e+03 7.475248718261718750e+01 -2.095393371582031250e+01 4.403528797570881170e-14 -1.641315257533762506e-13 -3.602887167211341057e-14 1.481186999224490264e-13
1.400000000000000000e+03 7.610604858398437500e+01 -3.016089439392089844e+01 1.801443583605670529e-14 -3.803047490097931360e-14 -6.004812227696550847e-15 -4.003208151797700565e-15
1.401000000000000000e+03 7.488863372802734375e+01 -3.052020835876464844e+01 5.004010189747125706e-15 -1.351082738526229732e-13 -3.903127820947815962e-14 -4.403528797570881170e-14
1.402000000000000000e+03 1.191943645477294922e+01 -1.500884151458740234e+01 3.422742774969456114e-13 1.038832431535241518e-12 4.143320343936995886e-13 -1.571259127582796955e-13
1.403000000000000000e+03 1.110037231445312500e+01 -1.835769844055175781e+01 6.224988515109164400e-13 1.078864536770141047e-12 5.104090435893715583e-13 -6.605293026949732305e-14
1.404000000000000000e+03 1.170818138122558594e+01 -5.683585166931152344e+00 -2.481988952470620680e-13 1.681347389873716347e-13 -2.401924891078620339e-14 -2.081668171172168513e-13
1.405000000000000000e+03 9.668965339660644531e+00 -5.059412956237792969e+00 -2.922341730583755126e-13 3.322662782932750414e-13 1.200962445539310169e-14 -2.642117210779892922e-13
1.406000000000000000e+03 9.743454933166503906e+00 -5.697327136993408203e+00 -1.961571909677578551e-13 -8.406736949368581735e-14 -8.406736949368581735e-14 -2.401924687790712998e-13
1.407000000000000000e+03 4.089943313598632812e+01 -2.243532943725585938e+01 -6.204972381176551699e-14 2.021620040424873532e-13 4.203368474684290867e-14 -5.204170427930421283e-14
1.408000000000000000e+03 1.582602882385253906e+01 -5.059669017791748047e+00 -3.302646513474866152e-13 2.702165477052459464e-13 -1.801443583605670529e-14 5.204170427930421283e-14
1.409000000000000000e+03 1.832342720031738281e+01 -8.956274032592773438e+00 1.761411519028352468e-13 4.643721388322696875e-13 1.921539912862896271e-13 4.843881914497194519e-13
1.410000000000000000e+03 4.991004943847656250e+00 -5.977706432342529297e+00 -1.521218996039172544e-13 -8.807057595141762341e-14 -7.205774334422682115e-14 -2.441956955655938399e-13
1.411000000000000000e+03 6.133306980133056641e+00 -6.475911617279052734e+00 -1.401122870069854143e-13 -6.004811719476782494e-14 -6.004811719476782494e-14 -3.442758773376797254e-13
1.412000000000000000e+03 5.834822654724121094e+00 -5.731481552124023438e+00 -6.405133042876320904e-14 -9.607699564314481355e-14 -4.803849782157240678e-14 -1.881507780522942430e-13
1.413000000000000000e+03 6.783174514770507812e+00 -6.195799350738525391e+00 4.403528797570881170e-14 1.561251128379126385e-13 6.004811719476782494e-14 -3.252606517456513302e-13
1.414000000000000000e+03 8.985600471496582031e+00 -5.091342926025390625e+00 -3.002405995263662808e-13 1.000802021008766196e-13 -6.004811719476782494e-14 -2.241796429481440756e-13
1.415000000000000000e+03 1.321224308013916016e+01 -1.106573772430419922e+01 2.326864727644501613e-14 9.249912034242635528e-13 2.844779804517943989e-13 1.641315257533762506e-13
1.416000000000000000e+03 7.802479743957519531e+00 -5.818828582763671875e+00 -3.122502256758252770e-13 -2.481988952470620680e-13 -1.681347389873716347e-13 -4.483592858962881511e-13
1.417000000000000000e+03 7.212157726287841797e+00 -5.924093246459960938e+00 -2.321860694161348437e-13 -1.681347389873716347e-13 -1.200962343895356499e-13 -4.043240080849747065e-13
1.418000000000000000e+03 1.336088657379150391e+01 -5.225723743438720703e+00 -2.762213472274482884e-13 1.561251128379126385e-13 -3.602887167211341057e-14 1.601283260719080226e-14
1.419000000000000000e+03 7.519757843017578125e+01 -3.120656967163085938e+01 3.803047490097931360e-14 -1.781427517435693608e-13 -4.203368474684290867e-14 -3.102486190588275849e-14
1.420000000000000000e+03 1.100435924530029297e+01 -6.199463367462158203e+00 -2.902325732176413986e-13 1.501202997631831404e-13 -4.203368474684290867e-14 -1.761411519028352468e-13
1.421000000000000000e+03 1.503697681427001953e+01 -5.127127647399902344e+00 -2.441956955655938399e-13 1.240994476235310340e-13 -3.602887167211341057e-14 -4.003208151797700565e-15
1.422000000000000000e+03 1.383464622497558594e+01 -6.265552520751953125e+00 -2.071660171968497943e-13 2.772221471478153454e-13 2.101684237342145434e-14 6.805453688649501509e-14
1.423000000000000000e+03 4.804852008819580078e+00 -2.885074043273925781e+01 -6.104892389139845998e-14 -3.292638514271195582e-13 -1.170938346284344789e-13 1.701363388281057487e-13
1.424000000000000000e+03 7.428781890869140625e+01 -2.374816894531250000e+01 8.206576287668812530e-14 -1.020818019416107336e-13 -6.004812227696550847e-15 1.200962343895356499e-13
1.425000000000000000e+03 7.507021331787109375e+01 -2.471531105041503906e+01 2.489495053517327278e-14 -2.638364244959834348e-13 -7.168244676222096379e-14 -7.255814330441034965e-14
1.426000000000000000e+03 7.622492980957031250e+01 -2.229126930236816406e+01 4.803849782157240678e-14 -4.803849782157240678e-14 0.000000000000000000e+00 4.003208151797700565e-14
1.427000000000000000e+03 7.363542175292968750e+01 -2.149187850952148438e+01 2.221780431074099615e-13 -1.220978477827969200e-13 3.002405859738391247e-14 4.203368474684290867e-14
1.428000000000000000e+03 7.529956054687500000e+01 -2.883195686340332031e+01 9.107298248878237246e-14 3.903127820947815962e-14 3.903127820947815962e-14 -5.204170427930421283e-14
1.429000000000000000e+03 7.396100616455078125e+01 -3.616926574707031250e+01 6.405133042876320904e-14 9.607699564314481355e-14 4.803849782157240678e-14 -5.504411081666896188e-14
1.430000000000000000e+03 7.536712646484375000e+01 -3.308623123168945312e+01 -2.727185542824271669e-14 7.981396305586224704e-14 1.576263093303314350e-14 -2.101684237342145434e-14
1.431000000000000000e+03 7.595280456542968750e+01 -2.714831924438476562e+01 -5.404330750817011586e-14 -2.061652172764827373e-13 -7.806255641895631925e-14 -8.006416303595401129e-14
1.432000000000000000e+03 7.520487976074218750e+01 -2.806786346435546875e+01 8.206576287668812530e-14 -1.020818019416107336e-13 -6.004812227696550847e-15 -3.202566521438160452e-14
1.433000000000000000e+03 4.016950130462646484e+00 -2.784940147399902344e+01 -6.204972381176551699e-14 -4.383512866926175811e-13 -1.501202997631831404e-13 2.882309733769072846e-13
1.434000000000000000e+03 7.516408538818359375e+01 -2.642402839660644531e+01 1.381106736137241442e-13 -7.806255641895631925e-14 1.801443583605670529e-14 6.805453688649501509e-14
1.435000000000000000e+03 7.532344818115234375e+01 -2.514499855041503906e+01 2.702165375408505793e-14 -2.171740299530475204e-13 -5.704571743366665393e-14 -1.761411519028352468e-13
1.436000000000000000e+03 7.535023498535156250e+01 -2.569337654113769531e+01 4.003208151797700565e-15 -3.642919299551294898e-13 -1.080866150163402317e-13 4.003208151797700565e-15
1.437000000000000000e+03 4.321191310882568359e+00 -3.254030990600585938e+01 -8.006416303595401129e-14 -4.003208084035064784e-13 -1.441154866884536423e-13 1.561251128379126385e-13
1.438000000000000000e+03 5.389165401458740234e+00 -3.079917144775390625e+01 -1.321058605389946461e-13 -3.082470259943570490e-13 -1.321058605389946461e-13 1.361090737729900302e-13
1.439000000000000000e+03 4.087182044982910156e+00 -2.234886741638183594e+01 2.141716301919463494e-13 -7.546047120499110861e-13 -1.621299259126421366e-13 1.561251128379126385e-13
1.440000000000000000e+03 4.806339740753173828e+00 -2.077480125427246094e+01 2.742197473867141744e-13 -4.543641125235448053e-13 -5.404330750817011586e-14 1.441154866884536423e-13
1.441000000000000000e+03 4.133520603179931641e+00 -2.401624298095703125e+01 1.281026608575264181e-13 -4.483592858962881511e-13 -9.607699564314481355e-14 3.242598518252842732e-13
1.442000000000000000e+03 4.874423503875732422e+00 -2.242847251892089844e+01 4.203368474684290867e-14 -6.224988515109164400e-13 -1.741395520621011328e-13 1.761411519028352468e-13
1.443000000000000000e+03 5.736582756042480469e+00 -2.164460754394531250e+01 1.261010474642651480e-13 -2.662133209187234062e-13 -4.203368474684290867e-14 6.405133042876320904e-14
1.444000000000000000e+03 4.833456993103027344e+00 -2.323968315124511719e+01 1.541235129971785245e-13 -5.744603469130804552e-13 -1.261010474642651480e-13 3.002405995263662808e-13
1.445000000000000000e+03 3.916461467742919922e+00 -1.751809501647949219e+01 1.601283260719080226e-13 -4.803849375581425996e-13 -9.607699564314481355e-14 8.006416303595401129e-14
1.446000000000000000e+03 1.242806625366210938e+01 -5.788778781890869141e+00 -2.101684169579509653e-13 7.005614350349270714e-14 -4.203368474684290867e-14 -1.281026608575264181e-13
1.447000000000000000e+03 1.319304180145263672e+01 -5.957031726837158203e+00 -3.783031559453226000e-13 -2.001604075898850282e-15 -1.140914348673333079e-13 3.002405859738391247e-14
1.448000000000000000e+03 4.510199546813964844e+00 -1.509700679779052734e+01 6.405133042876320904e-14 -3.843079825725792542e-13 -9.607699564314481355e-14 -2.562053217150528361e-13
1.449000000000000000e+03 4.979077339172363281e+00 -2.593263053894042969e+01 2.001604075898850282e-14 -2.201764432666758475e-13 -6.004811719476782494e-14 2.481988952470620680e-13
1.450000000000000000e+03 4.873743534088134766e+00 -2.160213661193847656e+01 3.422742774969456114e-13 -7.225790603880566376e-13 -1.140914348673333079e-13 8.807057595141762341e-14
1.451000000000000000e+03 4.536623477935791016e+00 -1.433950424194335938e+01 1.801443651368306309e-13 -3.803047557860567141e-13 -6.004811719476782494e-14 -1.961571909677578551e-13
1.452000000000000000e+03 4.563295364379882812e+00 -1.041744709014892578e+01 -1.401122870069854143e-13 -3.803047557860567141e-13 -1.561251128379126385e-13 -3.322662782932750414e-13
1.453000000000000000e+03 4.583272933959960938e+00 -9.634036064147949219e+00 -6.204972381176551699e-14 -4.383512866926175811e-13 -1.501202997631831404e-13 -2.842277736954390566e-13
1.454000000000000000e+03 4.603425502777099609e+00 -8.864830970764160156e+00 6.204972381176551699e-14 1.180946345488015359e-13 5.404330750817011586e-14 -2.762213472274482884e-13
1.455000000000000000e+03 3.903328657150268555e+00 -1.835466194152832031e+01 1.361090737729900302e-13 -5.364298957290236647e-13 -1.200962343895356499e-13 1.200962343895356499e-13
1.456000000000000000e+03 4.479800224304199219e+00 -1.584537792205810547e+01 9.207378240914942946e-14 -6.925550085669363032e-13 -1.801443651368306309e-13 -1.881507780522942430e-13
1.457000000000000000e+03 4.543672084808349609e+00 -1.120452404022216797e+01 1.200962445539310169e-14 -4.523625126828106913e-13 -1.321058605389946461e-13 -2.321860694161348437e-13
1.458000000000000000e+03 4.540861606597900391e+00 -1.356768417358398438e+01 -1.200962445539310169e-14 -5.084074437486374443e-13 -1.561251128379126385e-13 -2.682149478645118323e-13
1.459000000000000000e+03 3.930866479873657227e+00 -1.915493392944335938e+01 1.641315257533762506e-13 -5.244202424745103563e-13 -1.080866150163402317e-13 8.006416303595401129e-15
1.460000000000000000e+03 5.287171840667724609e+00 -1.847478485107421875e+01 2.381908689383371858e-13 -2.181748434259417335e-13 6.004812227696550847e-15 2.001604075898850282e-14
1.461000000000000000e+03 4.509609222412109375e+00 -1.657900810241699219e+01 1.401122870069854143e-13 -5.804651464352827972e-13 -1.321058605389946461e-13 -2.401924891078620339e-14
1.462000000000000000e+03 4.533290386199951172e+00 -1.278338623046875000e+01 5.204170427930421283e-14 -2.522020949285302960e-13 -6.004811719476782494e-14 -2.842277736954390566e-13
1.463000000000000000e+03 4.721001148223876953e+00 -1.997341728210449219e+01 2.762213472274482884e-13 -4.763817378766743715e-13 -6.004811719476782494e-14 8.406736949368581735e-14
1.464000000000000000e+03 4.644433021545410156e+00 -1.919496345520019531e+01 1.961571909677578551e-13 -3.963175816169839383e-13 -6.004811719476782494e-14 6.405133042876320904e-14
1.465000000000000000e+03 5.434683799743652344e+00 -6.879099845886230469e+00 -5.204170427930421283e-14 -6.805453688649501509e-14 -3.602887167211341057e-14 -2.081668171172168513e-13
1.466000000000000000e+03 4.633655548095703125e+00 -8.117420196533203125e+00 4.003208151797700565e-14 -4.403528865333516951e-13 -1.200962343895356499e-13 -2.001604042017532392e-13
1.467000000000000000e+03 7.490458679199218750e+01 -3.238420104980468750e+01 -5.804651735403371093e-14 -1.621299259126421366e-13 -6.605293026949732305e-14 -7.806255641895631925e-14
1.468000000000000000e+03 1.806016540527343750e+01 -5.000829696655273438e+00 -1.581267126786467525e-13 -2.201764398785440585e-14 -5.404330750817011586e-14 2.161732300326804634e-13
1.469000000000000000e+03 1.986653518676757812e+01 -5.486829757690429688e+00 -7.005614350349270714e-14 -3.002405859738391247e-14 -3.002405859738391247e-14 3.883111822540474822e-13
1.470000000000000000e+03 1.730926895141601562e+01 -4.615012645721435547e+00 -3.282630515067525012e-13 8.807057595141762341e-14 -7.205774334422682115e-14 9.607699564314481355e-14
1.471000000000000000e+03 4.867659568786621094e+00 -2.406597518920898438e+01 3.803047490097931360e-14 -2.582069215557869502e-13 -6.605293026949732305e-14 1.721379386688398627e-13
1.472000000000000000e+03 5.248898029327392578e+00 -2.974045181274414062e+01 -9.707779556351187056e-14 -1.331066604593617031e-13 -6.905533680686207210e-14 3.242598518252842732e-13
1.473000000000000000e+03 1.328495025634765625e+01 -2.167048645019531250e+01 5.684555473908781131e-13 1.593276834251089458e-12 6.485197036505685464e-13 -2.562053217150528361e-13
1.474000000000000000e+03 4.470709323883056641e+00 -3.080771255493164062e+01 -4.403528797570881170e-14 -3.162534253572935050e-13 -1.080866150163402317e-13 2.401924687790712998e-13
1.475000000000000000e+03 4.540249824523925781e+00 -2.753465652465820312e+01 6.355093046857968053e-14 -3.387714913281880680e-13 -8.256616283687165381e-14 2.401924687790712998e-13
1.476000000000000000e+03 4.793019294738769531e+00 -2.680384445190429688e+01 -1.671339390670045777e-13 -4.833873644242980827e-13 -1.951563910473907981e-13 2.481988952470620680e-13
1.477000000000000000e+03 6.134111881256103516e+00 -3.320636749267578125e+01 -1.000802021008766196e-13 -2.001604075898850282e-14 -3.602887167211341057e-14 1.881507780522942430e-13
1.478000000000000000e+03 5.164262771606445312e+00 -3.284799957275390625e+01 -6.805453688649501509e-14 -2.121700303512122354e-13 -8.406736949368581735e-14 8.406736949368581735e-14
1.479000000000000000e+03 7.449923706054687500e+01 -3.163793182373046875e+01 -5.154130431912068433e-14 -1.135910281308862013e-13 -4.953969770212299228e-14 -1.601283260719080226e-14
1.480000000000000000e+03 1.144754886627197266e+01 -1.923873901367187500e+01 4.763817378766743715e-13 8.446768675132720894e-13 3.963175816169839383e-13 -1.361090737729900302e-13
1.481000000000000000e+03 7.597728729248046875e+01 -2.165869712829589844e+01 -6.004812227696550847e-15 -4.143320343936995886e-13 -1.261010474642651480e-13 1.481186999224490264e-13
1.482000000000000000e+03 7.503874969482421875e+01 -2.223520851135253906e+01 -4.003208151797700565e-15 -2.762213472274482884e-13 -8.406736949368581735e-14 6.004811719476782494e-14
1.483000000000000000e+03 1.683219146728515625e+01 -5.413809299468994141e+00 -8.807057595141762341e-14 6.485197036505685464e-13 1.681347389873716347e-13 1.120898214740720378e-13
1.484000000000000000e+03 1.851536560058593750e+01 -6.749613761901855469e+00 2.201764398785440585e-14 5.584474939770989188e-13 1.741395520621011328e-13 2.341876692568689577e-13
1.485000000000000000e+03 1.190669155120849609e+01 -1.707905960083007812e+01 2.682149478645118323e-13 1.453164520139049731e-12 5.164138431115739003e-13 -3.502807175174635357e-14
1.486000000000000000e+03 5.671620368957519531e+00 -1.677906036376953125e+01 1.761411519028352468e-13 -3.362694779747432694e-13 -4.803849782157240678e-14 -1.361090737729900302e-13
1.487000000000000000e+03 1.423641872406005859e+01 -7.164020538330078125e+00 -1.621299259126421366e-13 5.024025900163264780e-13 1.020818019416107336e-13 1.040834085586084257e-13
1.488000000000000000e+03 1.583993053436279297e+01 -5.879024982452392578e+00 -1.761411519028352468e-13 3.362694779747432694e-13 4.803849782157240678e-14 4.003208151797700565e-14
1.489000000000000000e+03 4.252915573120117188e+01 -2.690312385559082031e+01 -1.075862116680249142e-14 1.783929584999247031e-13 5.029030103053007406e-14 5.004010105043830980e-14
1.490000000000000000e+03 4.357120513916015625e+01 -2.712852287292480469e+01 -9.757819552369539906e-14 2.326864558237912162e-13 4.053248147816053415e-14 2.401924891078620339e-14
1.491000000000000000e+03 1.219917297363281250e+01 -1.331385326385498047e+01 2.557049082023421516e-13 1.070357778104602531e-12 3.978187950500616799e-13 -1.060850151756061177e-13
1.492000000000000000e+03 1.927619934082031250e+01 -5.436111450195312500e+00 -6.004811719476782494e-14 2.001604075898850282e-14 -1.200962445539310169e-14 1.240994476235310340e-13
1.493000000000000000e+03 1.246113491058349609e+01 -2.265338325500488281e+01 3.963175816169839383e-13 1.405126015541213746e-12 5.404330954104918927e-13 4.003208151797700565e-15
1.494000000000000000e+03 1.238177013397216797e+01 -2.358884429931640625e+01 2.121700303512122354e-13 1.349081111580441306e-12 4.683753385137379155e-13 -9.207378240914942946e-14
1.495000000000000000e+03 1.392134761810302734e+01 -2.736674880981445312e+01 4.803849782157240678e-14 1.072859791458047329e-12 3.362694779747432694e-13 -1.561251128379126385e-13
1.496000000000000000e+03 6.900138092041015625e+01 -2.728818702697753906e+01 3.502806921064751181e-15 -1.851483749030612830e-14 -4.503608959014176322e-15 -1.000802037949425141e-15
1.497000000000000000e+03 6.958739471435546875e+01 -2.681178665161132812e+01 2.134210234754074786e-13 2.044138106395768095e-13 1.253504543002534333e-13 -5.704571743366665393e-14
1.498000000000000000e+03 1.276544094085693359e+01 -2.499412155151367188e+01 1.508709064797220112e-13 1.162681713059998678e-12 3.940658021249487941e-13 -1.100882216333379238e-13
1.499000000000000000e+03 1.704862785339355469e+01 -9.689795494079589844e+00 2.101684169579509653e-13 7.305854597509930937e-13 2.822261738547049426e-13 3.682951296365977178e-13
1.500000000000000000e+03 1.471354484558105469e+01 -9.961206436157226562e+00 3.002405859738391247e-14 7.906335633932337625e-13 2.461972954063279539e-13 3.202566521438160452e-14
1.501000000000000000e+03 4.301868820190429688e+01 -2.832937049865722656e+01 -9.407538902614712151e-14 -8.606896933441993136e-14 -5.404330750817011586e-14 -6.004811719476782494e-14
1.502000000000000000e+03 1.446189785003662109e+01 -2.844517707824707031e+01 -1.601283260719080226e-14 8.166544155328858690e-13 2.401924687790712998e-13 -2.582069215557869502e-13
1.503000000000000000e+03 4.203333282470703125e+01 -2.203127479553222656e+01 1.200962445539310169e-14 1.881507780522942430e-13 6.004811719476782494e-14 -1.481186999224490264e-13
1.504000000000000000e+03 4.059077835083007812e+01 -2.182380294799804688e+01 -3.202566521438160452e-14 1.921539912862896271e-13 4.803849782157240678e-14 -2.201764398785440585e-14
1.505000000000000000e+03 1.937466430664062500e+01 -7.400434017181396484e+00 3.202566521438160452e-14 2.882309733769072846e-13 9.607699564314481355e-14 3.402726776562114974e-13
1.506000000000000000e+03 1.972385597229003906e+01 -6.112002849578857422e+00 5.604491073703601889e-14 3.442758773376797254e-13 1.200962343895356499e-13 6.805453688649501509e-14
1.507000000000000000e+03 7.242754364013671875e+01 -3.413418960571289062e+01 8.606896933441993136e-14 1.401122768425900472e-14 3.002405859738391247e-14 5.604491073703601889e-14
1.508000000000000000e+03 7.289048767089843750e+01 -3.255435180664062500e+01 3.302646513474866152e-14 -1.230986477031639770e-13 -2.702165375408505793e-14 1.200962445539310169e-14
1.509000000000000000e+03 1.584110355377197266e+01 -2.944944572448730469e+01 -2.401924891078620339e-14 6.645325565865500828e-13 1.921539912862896271e-13 -2.326864558237912162e-13
1.510000000000000000e+03 7.415612792968750000e+01 -2.108339881896972656e+01 1.576263093303314350e-14 -3.135012323525476763e-13 -8.932157585187644466e-14 -1.060850151756061177e-13
1.511000000000000000e+03 3.630007171630859375e+01 -2.823940849304199219e+01 3.002405859738391247e-14 1.501202997631831404e-13 5.404330750817011586e-14 -1.601283260719080226e-14
1.512000000000000000e+03 7.015436553955078125e+01 -2.632254219055175781e+01 -4.128308141843582690e-15 -9.632719562323657780e-15 -4.128308141843582690e-15 -5.122855264994008451e-14
1.513000000000000000e+03 3.689854431152343750e+01 -2.887318801879882812e+01 -6.630313024958908730e-14 -5.129110433902892008e-14 -3.527827173183811782e-14 6.004812227696550847e-15
1.514000000000000000e+03 3.973497009277343750e+01 -2.104948997497558594e+01 -2.502005052521915490e-14 3.552847035667716646e-13 9.907939540424598457e-14 1.281026608575264181e-13
1.515000000000000000e+03 3.993238449096679688e+01 -2.221127510070800781e+01 -1.513713098280373287e-14 -1.437401901064477849e-13 -4.766319446330297138e-14 6.505213034913026604e-14
1.516000000000000000e+03 3.889200210571289062e+01 -2.346760177612304688e+01 -1.100882216333379238e-13 1.000802037949425141e-14 -3.002405859738391247e-14 -4.403528797570881170e-14
1.517000000000000000e+03 1.265059280395507812e+01 -1.265980625152587891e+01 1.941555911270237411e-13 8.266624689466650633e-13 3.062454261536229350e-13 3.702967498061225660e-14
1.518000000000000000e+03 1.137499904632568359e+01 -1.558344364166259766e+01 5.909735591516640518e-13 1.005305647755472265e-12 4.788837512301191701e-13 -3.778027492088754935e-14
1.519000000000000000e+03 1.950618171691894531e+01 -6.735518455505371094e+00 1.761411519028352468e-13 4.643721388322696875e-13 1.921539912862896271e-13 2.722181475459800604e-13
1.520000000000000000e+03 1.886329269409179688e+01 -8.200906753540039062e+00 6.805453688649501509e-14 3.722983564231202580e-13 1.321058605389946461e-13 4.143320343936995886e-13
1.521000000000000000e+03 6.783870697021484375e+01 -2.842394447326660156e+01 -9.832879546397069181e-14 1.408628801709971290e-13 1.276022524270134170e-14 -4.503609128420765773e-14
1.522000000000000000e+03 3.593650054931640625e+01 -2.897873878479003906e+01 -1.781427517435693608e-13 1.981587908084919691e-13 6.004812227696550847e-15 -2.201764398785440585e-14
1.523000000000000000e+03 4.158081436157226562e+01 -2.321302604675292969e+01 -8.006416303595401129e-15 4.083272077664429345e-13 1.200962343895356499e-13 4.803849782157240678e-14
1.524000000000000000e+03 7.508831787109375000e+01 -2.172082710266113281e+01 -7.606094980195862720e-14 -1.240994476235310340e-13 -6.004811719476782494e-14 5.604491073703601889e-14
1.525000000000000000e+03 6.241088867187500000e+01 -3.570002365112304688e+01 -6.104892389139845998e-14 3.102486190588275849e-14 -9.007217918028352643e-15 4.053248147816053415e-14
1.526000000000000000e+03 6.377602386474609375e+01 -3.459626007080078125e+01 -1.776423585596494104e-14 2.527025050531091915e-14 2.251804479507088161e-15 1.075862116680249142e-14
1.527000000000000000e+03 5.007497024536132812e+01 -4.005696868896484375e+01 2.192381814828704700e-14 -9.354370983328738620e-14 -2.148596818312645956e-14 -1.166559863573397859e-14
1.528000000000000000e+03 3.938032531738281250e+01 -2.278700828552246094e+01 2.060401138983050662e-13 2.255557530030441460e-13 1.294787573598993324e-13 -8.031436301604577555e-14
1.529000000000000000e+03 3.844757843017578125e+01 -2.428258132934570312e+01 8.306656957331876034e-14 1.271018609371593611e-13 6.305052373213257400e-14 -4.803849782157240678e-14
1.530000000000000000e+03 6.485144805908203125e+01 -3.201639938354492188e+01 -1.301042606982605321e-14 1.831467648979318019e-13 5.104090097080536681e-14 -4.403528797570881170e-14
1.531000000000000000e+03 7.373281097412109375e+01 -3.208473968505859375e+01 7.806255641895631925e-14 -5.804651735403371093e-14 6.004812227696550847e-15 -1.240994476235310340e-13
1.532000000000000000e+03 7.396329498291015625e+01 -3.441273880004882812e+01 3.265116516461101515e-14 1.512462030617278685e-13 5.516921080671484401e-14 -6.605293026949732305e-14
1.533000000000000000e+03 1.626673316955566406e+01 -9.676030158996582031e+00 2.191756433463087905e-13 8.716985466783455649e-13 3.272622515863854442e-13 2.481988952470620680e-13
1.534000000000000000e+03 7.479312896728515625e+01 -2.297633361816406250e+01 5.804651735403371093e-14 -3.983192085627723644e-13 -1.020818019416107336e-13 2.001604075898850282e-15
1.535000000000000000e+03 6.697196960449218750e+01 -3.016007232666015625e+01 4.403528797570881170e-14 1.561251128379126385e-13 6.004811719476782494e-14 0.000000000000000000e+00
1.536000000000000000e+03 5.471179199218750000e+01 -3.681570053100585938e+01 8.406736949368581735e-14 3.602887167211341057e-14 3.602887167211341057e-14 9.007218256841531545e-14
1.537000000000000000e+03 5.439010620117187500e+01 -3.882550811767578125e+01 -2.101684237342145434e-14 -8.907137587178468041e-14 -3.302646513474866152e-14 0.000000000000000000e+00
1.538000000000000000e+03 5.366195678710937500e+00 -3.183517456054687500e+01 -1.130906281707026728e-13 -1.170938346284344789e-13 -6.905533680686207210e-14 2.642117210779892922e-13
1.539000000000000000e+03 5.094263076782226562e+00 -3.552845382690429688e+01 -4.203368474684290867e-14 -1.801443583605670529e-14 -1.801443583605670529e-14 9.307458910578006450e-14
1.540000000000000000e+03 3.903073883056640625e+01 -3.174458694458007812e+01 1.501202929869195624e-14 7.506014988159157020e-14 2.702165375408505793e-14 1.801443583605670529e-14
1.541000000000000000e+03 4.117658996582031250e+01 -2.620790672302246094e+01 -2.802245740139708285e-13 -2.802245740139708285e-13 -1.681347389873716347e-13 -1.541235129971785245e-13
1.542000000000000000e+03 4.006995773315429688e+01 -2.588916587829589844e+01 -1.691355389077386917e-13 1.901523745048965680e-14 -4.503609128420765773e-14 -1.200962445539310169e-14
1.543000000000000000e+03 3.431684112548828125e+01 -3.227510070800781250e+01 -3.302646513474866152e-14 -3.702967498061225660e-14 -2.101684237342145434e-14 1.801443583605670529e-14
1.544000000000000000e+03 6.579541015625000000e+01 -3.260278701782226562e+01 -3.302646513474866152e-14 3.002406113848275424e-15 -9.007217918028352643e-15 2.952365863720038397e-14
1.545000000000000000e+03 4.801498794555664062e+01 -3.501788330078125000e+01 -2.001604075898850282e-14 -2.001604075898850282e-14 -1.200962445539310169e-14 -2.502005094873562853e-15
1.546000000000000000e+03 3.834170532226562500e+01 -2.662856292724609375e+01 -1.981587908084919691e-13 1.801443583605670529e-14 -5.404330750817011586e-14 -3.002406113848275424e-15
1.547000000000000000e+03 4.080778121948242188e+01 -2.559187698364257812e+01 1.671339390670045777e-13 1.631307258330091936e-13 9.907939540424598457e-14 -1.240994476235310340e-13
1.548000000000000000e+03 4.267595672607421875e+01 -3.625364685058593750e+01 -7.005613842129502361e-15 3.702967498061225660e-14 9.007217918028352643e-15 -2.101684237342145434e-14
1.549000000000000000e+03 4.539504241943359375e+01 -3.437735748291015625e+01 -3.953167816966168813e-14 -5.504410996963601463e-15 -1.351082687704252897e-14 -2.201764398785440585e-14
1.550000000000000000e+03 4.765563583374023438e+01 -3.636034393310546875e+01 -4.103288143834406265e-14 -2.902325867701685547e-14 -2.101684237342145434e-14 -1.601283260719080226e-14
1.551000000000000000e+03 5.183576202392578125e+01 -3.810952377319335938e+01 -3.177546523428984027e-14 9.257418745153064149e-15 -6.755413438521264483e-15 -7.005614350349270714e-14
1.552000000000000000e+03 3.331066513061523438e+01 -3.556605911254882812e+01 6.004812227696550847e-15 9.407538902614712151e-14 3.002405859738391247e-14 -2.201764398785440585e-14
1.553000000000000000e+03 7.371235656738281250e+01 -3.973529052734375000e+01 -3.327666511484042577e-14 -1.743897452659293190e-13 -6.229992379185728124e-14 -6.605293026949732305e-14
1.554000000000000000e+03 1.948505783081054688e+01 -3.659171676635742188e+01 -1.075862150561567032e-13 6.229992650236271245e-13 1.546239129573620530e-13 -1.140914348673333079e-13
1.555000000000000000e+03 4.312012863159179688e+01 -3.046768951416015625e+01 -9.807859548387892756e-14 3.803047490097931360e-14 -1.801443583605670529e-14 -4.503609128420765773e-14
1.556000000000000000e+03 5.779577255249023438e+01 -3.904793930053710938e+01 2.401924891078620339e-14 5.604491073703601889e-14 2.401924891078620339e-14 -6.004812227696550847e-15
1.557000000000000000e+03 2.432396888732910156e+01 -3.498156356811523438e+01 5.304250758780305885e-14 4.573665122846459763e-13 1.531227130768114675e-13 -1.361090737729900302e-13
1.558000000000000000e+03 5.641266822814941406e+00 -3.439796066284179688e+01 -1.150922347877003649e-13 -1.351082738526229732e-13 -7.506014988159157020e-14 5.604491073703601889e-14
1.559000000000000000e+03 1.672629547119140625e+01 -3.040039825439453125e+01 -2.023496489453584929e-14 8.605958827512250053e-13 2.521082843355559877e-13 -2.104186237143063076e-13
1.560000000000000000e+03 1.682366752624511719e+01 -3.275063705444335938e+01 -8.287891450605225363e-14 6.964956497830521176e-13 1.840850199054736014e-13 -1.401122870069854143e-13
1.561000000000000000e+03 3.580579376220703125e+01 -3.406447601318359375e+01 -1.301042606982605321e-14 6.305052373213257400e-14 1.501202929869195624e-14 2.602085213965210642e-14
1.562000000000000000e+03 9.567605018615722656e+00 -3.651533126831054688e+01 -1.346078738924394447e-13 2.396920823714149273e-13 3.152526186606628700e-14 1.020818019416107336e-13
1.563000000000000000e+03 6.951745510101318359e+00 -3.720817565917968750e+01 -1.348580670962676309e-13 3.227586519447336877e-14 -3.077466192579099424e-14 1.133408281507944371e-13
1.564000000000000000e+03 6.141629409790039062e+01 -3.874695587158203125e+01 -6.505213034913026604e-15 -8.506817110811876886e-15 -4.503608959014176322e-15 1.000802037949425141e-14
1.565000000000000000e+03 7.084794616699218750e+01 -2.406758117675781250e+01 -3.452766840343103605e-14 -8.056456299613753980e-14 -3.452766840343103605e-14 -3.502806921064751181e-15
1.566000000000000000e+03 7.314678192138671875e+01 -2.286589813232421875e+01 5.104090097080536681e-14 -1.611291259922750796e-13 -3.302646513474866152e-14 2.081668171172168513e-13
1.567000000000000000e+03 7.540048217773437500e+01 -2.956217575073242188e+01 3.402726844324750755e-14 1.060850151756061177e-13 4.203368474684290867e-14 7.205774334422682115e-14
1.568000000000000000e+03 7.454322052001953125e+01 -2.904894256591796875e+01 1.501202997631831404e-13 1.100882216333379238e-13 7.806255641895631925e-14 2.001604075898850282e-14
1.569000000000000000e+03 7.299204826354980469e+00 -1.514888191223144531e+01 1.560625679250873810e-13 1.720128420669257696e-14 5.197915259021537726e-14 -2.189567158226296550e-13
1.570000000000000000e+03 7.393930053710937500e+01 -3.007674217224121094e+01 1.401122768425900472e-14 6.004812227696550847e-15 6.004812227696550847e-15 1.601283260719080226e-14
1.571000000000000000e+03 7.409663391113281250e+01 -2.193841171264648438e+01 8.882117589169291616e-14 -1.663833323504657069e-13 -2.326864727644501613e-14 5.954771723458429644e-14
1.572000000000000000e+03 1.125647926330566406e+01 -1.454092884063720703e+01 4.273424604635256419e-13 1.103884561884371784e-12 4.593681121253800903e-13 -7.906335633932337625e-14
1.573000000000000000e+03 9.864375114440917969e+00 -6.369232654571533203e+00 -2.201764432666758475e-13 2.001604075898850282e-14 -6.004811719476782494e-14 -4.443560862148199231e-13
1.574000000000000000e+03 1.225374507904052734e+01 -6.430531501770019531e+00 -2.301844695754007297e-13 1.301042606982605321e-13 -3.002405859738391247e-14 -1.160930347080674219e-13
1.575000000000000000e+03 5.250811576843261719e+00 -2.811702537536621094e+01 -1.286030608177099466e-13 -1.466175000418984409e-13 -8.256616283687165381e-14 1.861491782115601290e-13
1.576000000000000000e+03 8.428318023681640625e+00 -5.777948379516601562e+00 -2.181748434259417335e-13 -1.621299259126421366e-13 -1.140914348673333079e-13 -4.403528865333516951e-13
1.577000000000000000e+03 9.083421707153320312e+00 -5.738046646118164062e+00 -2.642117210779892922e-13 2.401924891078620339e-14 -7.205774334422682115e-14 -2.321860694161348437e-13
1.578000000000000000e+03 5.326083660125732422e+00 -8.251713752746582031e+00 -9.807859548387892756e-14 -4.203368474684290867e-14 -4.203368474684290867e-14 -4.203368339159019307e-13
1.579000000000000000e+03 1.793369483947753906e+01 -6.894319534301757812e+00 -5.204170427930421283e-14 2.522020949285302960e-13 6.004811719476782494e-14 3.642919299551294898e-13
1.580000000000000000e+03 6.627792835235595703e+00 -6.623319149017333984e+00 -2.401924891078620339e-14 -5.604491073703601889e-14 -2.401924891078620339e-14 -2.962373998448980528e-13
1.581000000000000000e+03 7.524552917480468750e+01 -2.332950973510742188e+01 3.602887167211341057e-14 -7.606094980195862720e-14 -1.200962445539310169e-14 -2.201764398785440585e-14
1.582000000000000000e+03 7.049119949340820312e+00 -6.610075950622558594e+00 -2.081668171172168513e-13 4.803849782157240678e-14 -4.803849782157240678e-14 -4.363496868518834670e-13
1.583000000000000000e+03 1.135515689849853516e+01 -8.269532203674316406e+00 -2.001604075898850282e-15 3.422742774969456114e-13 1.020818019416107336e-13 -1.421138868477195283e-13
1.584000000000000000e+03 1.319352340698242188e+01 -1.207285213470458984e+01 2.251804564210382886e-13 8.456776945386934585e-13 3.212574520641831022e-13 7.405934996122451319e-14
1.585000000000000000e+03 7.451951026916503906e+00 -6.455428600311279297e+00 -1.921539912862896271e-13 3.202566521438160452e-14 -4.803849782157240678e-14 -4.243400607024244708e-13
1.586000000000000000e+03 9.891820907592773438e+00 -7.012836456298828125e+00 -1.841475648182988589e-13 1.040834085586084257e-13 -2.401924891078620339e-14 -3.002405995263662808e-13
1.587000000000000000e+03 7.528150939941406250e+01 -2.277314949035644531e+01 -9.007218256841531545e-14 -1.301042606982605321e-13 -6.605293026949732305e-14 -8.006416303595401129e-14
1.588000000000000000e+03 7.450728607177734375e+01 -2.243047332763671875e+01 1.951563910473907981e-13 -1.451162866088206993e-13 1.501202929869195624e-14 8.406736949368581735e-14
1.589000000000000000e+03 1.434476470947265625e+01 -5.897324085235595703e+00 -3.062454261536229350e-13 1.661331391466375207e-13 -4.203368474684290867e-14 2.401924891078620339e-14
1.590000000000000000e+03 1.552651691436767578e+01 -8.824571609497070312e+00 1.801443583605670529e-14 6.024827988934666756e-13 1.861491782115601290e-13 2.401924687790712998e-13
1.591000000000000000e+03 7.510638427734375000e+01 -2.726112556457519531e+01 -3.702967498061225660e-14 -4.733793652206275127e-13 -1.531227130768114675e-13 -1.200962445539310169e-14
1.592000000000000000e+03 7.441510772705078125e+01 -2.829541587829589844e+01 1.000802021008766196e-13 -1.401122870069854143e-13 -1.200962445539310169e-14 7.205774334422682115e-14
1.593000000000000000e+03 1.292376518249511719e+01 -6.642092227935791016e+00 -2.241796429481440756e-13 2.241796429481440756e-13 0.000000000000000000e+00 2.602085213965210642e-14
1.594000000000000000e+03 5.595472335815429688e+00 -2.074683952331542969e+01 1.100882216333379238e-13 -4.103288347122313606e-13 -9.007218256841531545e-14 1.521218996039172544e-13
1.595000000000000000e+03 7.425985717773437500e+01 -2.753518676757812500e+01 1.060850151756061177e-13 -4.603689120457471473e-14 1.801443583605670529e-14 6.805453688649501509e-14
1.596000000000000000e+03 7.482960510253906250e+01 -2.551169013977050781e+01 -9.057258252859884395e-14 -8.456776945386934585e-14 -5.254210423948774134e-14 1.561251128379126385e-13
1.597000000000000000e+03 7.040827178955078125e+01 -3.123978233337402344e+01 3.202566521438160452e-14 -3.202566521438160452e-14 0.000000000000000000e+00 1.200962445539310169e-14
1.598000000000000000e+03 1.706464767456054688e+01 -5.872945308685302734e+00 -2.121700303512122354e-13 4.123304345529654746e-13 6.004811719476782494e-14 1.601283260719080226e-14
1.599000000000000000e+03 5.522036552429199219e+00 -2.333611488342285156e+01 1.801443583605670529e-14 -3.803047490097931360e-14 -6.004812227696550847e-15 8.807057595141762341e-14
1.600000000000000000e+03 4.993208408355712891e+00 -2.497808265686035156e+01 -8.006416303595401129e-14 -5.604491480279416571e-13 -1.921539912862896271e-13 2.802245740139708285e-13
1.601000000000000000e+03 1.276233577728271484e+01 -2.631293678283691406e+01 2.502005052521915490e-14 9.257419050084925161e-13 2.852285736158061136e-13 -8.807057595141762341e-14
1.602000000000000000e+03 5.232549667358398438e+00 -1.520039176940917969e+01 2.341876692568689577e-13 -4.943961906533900219e-13 -7.806255641895631925e-14 -1.200962343895356499e-13
1.603000000000000000e+03 5.269433498382568359e+00 -1.444171428680419922e+01 1.421138868477195283e-13 -1.220978477827969200e-13 6.004812227696550847e-15 -2.121700303512122354e-13
1.604000000000000000e+03 4.846537113189697266e+00 -1.708156204223632812e+01 -3.002405859738391247e-14 -4.703769383544720295e-13 -1.501202997631831404e-13 -3.602887167211341057e-14
1.605000000000000000e+03 4.620956897735595703e+00 -1.767613983154296875e+01 1.140914348673333079e-13 -4.543641125235448053e-13 -1.020818019416107336e-13 6.405133042876320904e-14
1.606000000000000000e+03 5.288191318511962891e+00 -9.756513595581054688e+00 -5.604491073703601889e-14 -2.401924891078620339e-14 -2.401924891078620339e-14 -3.122502256758252770e-13
1.607000000000000000e+03 5.308773994445800781e+00 -8.987484931945800781e+00 -6.004811719476782494e-14 -3.002405995263662808e-13 -1.080866150163402317e-13 -2.722181475459800604e-13
1.608000000000000000e+03 1.357144927978515625e+01 -6.923525333404541016e+00 -1.561251128379126385e-13 4.363496868518834670e-13 8.406736949368581735e-14 1.601283260719080226e-14
1.609000000000000000e+03 4.595598220825195312e+00 -1.843412780761718750e+01 1.641315257533762506e-13 -2.041636038832214672e-13 -1.200962445539310169e-14 -8.406736949368581735e-14
1.610000000000000000e+03 5.816144943237304688e+00 -1.608180999755859375e+01 1.060850151756061177e-13 -3.662935297958636038e-13 -7.806255641895631925e-14 -1.721379386688398627e-13
1.611000000000000000e+03 4.531721115112304688e+00 -1.199311161041259766e+01 -6.204972381176551699e-14 -1.180946345488015359e-13 -5.404330750817011586e-14 -3.282630515067525012e-13
1.612000000000000000e+03 1.074435424804687500e+01 -1.879986000061035156e+01 3.783031559453226000e-13 4.823865916089853378e-13 2.582069215557869502e-13 -7.205774334422682115e-14
1.613000000000000000e+03 5.242461204528808594e+00 -1.365486431121826172e+01 3.002405859738391247e-14 -3.302646513474866152e-13 -9.007218256841531545e-14 -6.004811719476782494e-14
1.614000000000000000e+03 5.205037593841552734e+00 -1.286625671386718750e+01 1.801443583605670529e-14 -1.981587908084919691e-13 -5.404330750817011586e-14 -2.241796429481440756e-13
1.615000000000000000e+03 5.827307224273681641e+00 -1.776443862915039062e+01 2.401924687790712998e-13 -4.003208084035064784e-13 -4.803849782157240678e-14 -2.401924891078620339e-14
1.616000000000000000e+03 5.470982074737548828e+00 -1.994073104858398438e+01 1.661331391466375207e-13 -3.863095824133133682e-13 -6.605293026949732305e-14 -1.200962445539310169e-14
1.617000000000000000e+03 5.365949630737304688e+00 -1.918282699584960938e+01 2.562053217150528361e-13 -9.607699564314481355e-14 4.803849782157240678e-14 4.403528797570881170e-14
1.618000000000000000e+03 5.359648227691650391e+00 -7.549097537994384766e+00 -1.200962445539310169e-14 -1.881507780522942430e-13 -6.004811719476782494e-14 -3.803047557860567141e-13
1.619000000000000000e+03 4.692416191101074219e+00 -7.391722202301025391e+00 -1.200962445539310169e-14 -1.881507780522942430e-13 -6.004811719476782494e-14 -1.281026608575264181e-13
1.620000000000000000e+03 5.779232025146484375e+00 -2.632538986206054688e+01 -1.901523745048965680e-14 -1.911531778133954140e-13 -6.305052373213257400e-14 1.040834085586084257e-13
1.621000000000000000e+03 5.531969547271728516e+00 -2.721085929870605469e+01 -6.805453688649501509e-14 -2.121700303512122354e-13 -8.406736949368581735e-14 1.321058605389946461e-13
1.622000000000000000e+03 7.417137908935546875e+01 -3.292367935180664062e+01 -1.401122768425900472e-14 -6.004812227696550847e-15 -6.004812227696550847e-15 -5.104090097080536681e-14
1.623000000000000000e+03 6.017323970794677734e+00 -1.534852027893066406e+01 1.180946345488015359e-13 -1.781427517435693608e-13 -1.801443583605670529e-14 -2.201764432666758475e-13
1.624000000000000000e+03 1.126601696014404297e+01 -1.754070091247558594e+01 4.463576860555540371e-13 1.174941545965813017e-12 4.863897912904535659e-13 2.201764398785440585e-14
1.625000000000000000e+03 1.156387615203857422e+01 -1.980606460571289062e+01 5.404330954104918927e-13 1.421138814267086659e-12 5.884716000083278775e-13 -6.805453688649501509e-14
1.626000000000000000e+03 6.363475799560546875e+00 -3.081545829772949219e+01 -1.090874217129708668e-13 -1.000802037949425141e-15 -3.302646513474866152e-14 2.041636038832214672e-13
1.627000000000000000e+03 6.226748466491699219e+00 -2.963133239746093750e+01 -5.204170427930421283e-14 -6.805453688649501509e-14 -3.602887167211341057e-14 1.080866150163402317e-13
1.628000000000000000e+03 1.068999481201171875e+01 -1.800391197204589844e+01 5.056551965337829913e-13 9.029736051761882987e-13 4.225886405129913870e-13 -8.606896933441993136e-14
1.629000000000000000e+03 1.814487838745117188e+01 -5.558152198791503906e+00 -1.601283260719080226e-14 1.761411519028352468e-13 4.803849782157240678e-14 3.442758773376797254e-13
1.630000000000000000e+03 1.759287452697753906e+01 -5.701819419860839844e+00 -2.361892690976030718e-13 1.961571909677578551e-13 -1.200962445539310169e-14 2.441956955655938399e-13
1.631000000000000000e+03 7.417553710937500000e+01 -3.085943031311035156e+01 1.020818019416107336e-13 -2.001604075898850282e-15 3.002405859738391247e-14 -8.406736949368581735e-14
1.632000000000000000e+03 7.283425903320312500e+01 -2.884880065917968750e+01 8.606896933441993136e-14 -1.461170865291877563e-13 -1.801443583605670529e-14 -4.003208151797700565e-14
1.633000000000000000e+03 7.069914245605468750e+01 -2.576115036010742188e+01 2.652125209983563492e-13 8.506816941405287436e-14 1.050842084789754827e-13 9.507618725244828400e-15
1.634000000000000000e+03 1.624913787841796875e+01 -8.935613632202148438e+00 1.481186999224490264e-13 6.124908523072458699e-13 2.281828697346666157e-13 1.841475648182988589e-13
1.635000000000000000e+03 1.747903251647949219e+01 -7.623075962066650391e+00 7.806255641895631925e-14 2.622101212372551782e-13 1.020818019416107336e-13 1.841475648182988589e-13
1.636000000000000000e+03 6.543262481689453125e+00 -2.299272918701171875e+01 5.954771723458429644e-14 2.552045048540268340e-14 2.552045048540268340e-14 3.763015561045884860e-13
1.637000000000000000e+03 1.327184772491455078e+01 -2.256995773315429688e+01 3.322662782932750414e-13 1.629305631384303510e-12 5.884716000083278775e-13 -1.441154866884536423e-13
1.638000000000000000e+03 7.338871002197265625e+01 -3.122414016723632812e+01 8.006416303595401129e-15 -8.807057595141762341e-14 -2.401924891078620339e-14 1.601283260719080226e-14
1.639000000000000000e+03 1.365817832946777344e+01 -1.065028858184814453e+01 1.879631297612913143e-13 9.498236615626542978e-13 3.413360360419309680e-13 7.856295637913984775e-14
1.640000000000000000e+03 1.323996829986572266e+01 -1.017997264862060547e+01 -7.105694342385976414e-14 7.015621807451855041e-13 1.891515779726613000e-13 1.561251128379126385e-13
1.641000000000000000e+03 1.870389175415039062e+01 -5.457667350769042969e+00 -1.421138868477195283e-13 1.220978477827969200e-13 -6.004812227696550847e-15 2.161732300326804634e-13
1.642000000000000000e+03 1.665753173828125000e+01 -6.531942367553710938e+00 -1.761411519028352468e-13 1.761411519028352468e-13 0.000000000000000000e+00 2.401924891078620339e-14
1.643000000000000000e+03 1.269230842590332031e+01 -1.147627925872802734e+01 2.121700303512122354e-13 7.085678072928092153e-13 2.762213472274482884e-13 3.002405859738391247e-14
1.644000000000000000e+03 1.105282020568847656e+01 -1.349090480804443359e+01 2.041636038832214672e-13 6.365100503960552381e-13 2.522020949285302960e-13 -5.804651735403371093e-14
1.645000000000000000e+03 6.112644195556640625e+00 -2.371142959594726562e+01 2.099182237541227791e-13 -3.675445364725860031e-13 -4.728789449316532501e-14 1.140914348673333079e-13
1.646000000000000000e+03 1.549056243896484375e+01 -9.507449150085449219e+00 1.060850151756061177e-13 5.944763995305302196e-13 2.101684169579509653e-13 2.481988952470620680e-13
1.647000000000000000e+03 1.696554565429687500e+01 -8.975687980651855469e+00 1.240994476235310340e-13 5.564458941363648048e-13 2.041636038832214672e-13 2.842277736954390566e-13
1.648000000000000000e+03 1.239778614044189453e+01 -7.763932228088378906e+00 -1.901523778930283570e-13 4.103288347122313606e-13 6.605293026949732305e-14 9.007217918028352643e-15
1.649000000000000000e+03 1.330938529968261719e+01 -2.684105682373046875e+01 1.251002526260957745e-14 1.043336098939529055e-12 3.167538388700041896e-13 -4.928949772203122803e-14
1.650000000000000000e+03 1.367798137664794922e+01 -2.831145286560058594e+01 -5.404330750817011586e-14 7.546047120499110861e-13 2.101684169579509653e-13 -2.802245536851800944e-14
1.651000000000000000e+03 1.219710254669189453e+01 -2.579319572448730469e+01 6.855493684667854359e-14 1.127403509090796341e-12 3.587875168405835202e-13 6.405133042876320904e-14
1.652000000000000000e+03 6.848779296875000000e+01 -2.911449432373046875e+01 4.453568793589234021e-14 1.105886215935214523e-13 4.653729455289003225e-14 2.802245536851800944e-14
1.653000000000000000e+03 7.143408203125000000e+01 -2.373878860473632812e+01 1.801443583605670529e-14 -3.582871304329271478e-13 -1.020818019416107336e-13 -1.000802037949425141e-14
1.654000000000000000e+03 6.968106079101562500e+01 -3.388163757324218750e+01 5.504411081666896188e-14 -1.251002475438980910e-13 -2.101684237342145434e-14 -2.401924891078620339e-14
1.655000000000000000e+03 7.308766174316406250e+01 -3.519791793823242188e+01 -5.504410996963601463e-15 -2.797241605012601440e-13 -8.556856937423640286e-14 -1.235990476633475055e-13
1.656000000000000000e+03 7.014916992187500000e+01 -2.738460350036621094e+01 2.326864727644501613e-14 -3.577867169202164632e-14 -3.753007324672989059e-15 1.100882216333379238e-13
1.657000000000000000e+03 7.071334838867187500e+01 -2.687669563293457031e+01 1.329815706337111880e-13 -1.717626420868340054e-13 -1.163432363822250806e-14 -5.104090097080536681e-14
1.658000000000000000e+03 1.455998802185058594e+01 -2.925804519653320312e+01 -1.040834085586084257e-13 9.047250253656213825e-13 2.401924687790712998e-13 -1.321058605389946461e-13
1.659000000000000000e+03 1.376940441131591797e+01 -2.942332458496093750e+01 -5.204170427930421283e-14 7.325870595917272077e-13 2.041636038832214672e-13 -1.060850151756061177e-13
1.660000000000000000e+03 3.871628570556640625e+01 -2.560488128662109375e+01 8.706977603105056640e-14 8.306656957331876034e-14 5.104090097080536681e-14 -9.207378240914942946e-14
1.661000000000000000e+03 4.318568801879882812e+01 -2.932639503479003906e+01 1.601283260719080226e-14 -1.601283260719080226e-14 0.000000000000000000e+00 -4.803849782157240678e-14
1.662000000000000000e+03 4.220803070068359375e+01 -2.983478927612304688e+01 -5.477827122023909423e-14 9.090096703785396914e-14 1.083680908409764138e-14 -6.054852393121493148e-14
1.663000000000000000e+03 1.898641395568847656e+01 -6.455294609069824219e+00 1.751403519824681898e-13 5.154130160861525312e-13 2.071660171968497943e-13 1.576263127184632240e-13
1.664000000000000000e+03 4.153778457641601562e+01 -2.673178482055664062e+01 -2.952365863720038397e-14 1.245998475837145625e-13 2.852285871683332696e-14 7.606094980195862720e-14
1.665000000000000000e+03 4.228583908081054688e+01 -2.812188911437988281e+01 1.451162933850842773e-14 2.807249604216272010e-13 8.857097591160115191e-14 -8.306656957331876034e-14
1.666000000000000000e+03 4.128789520263671875e+01 -2.160386085510253906e+01 9.207378240914942946e-14 1.080866150163402317e-13 6.004811719476782494e-14 -1.240994476235310340e-13
1.667000000000000000e+03 3.890940856933593750e+01 -2.999263000488281250e+01 -5.904731727440076794e-14 8.907137587178468041e-14 9.007217918028352643e-15 -3.502807175174635357e-14
1.668000000000000000e+03 1.145982933044433594e+01 -1.285396099090576172e+01 2.271820562617724026e-13 4.633713118068483183e-13 2.071660171968497943e-13 -2.001604075898850282e-14
1.669000000000000000e+03 1.757132339477539062e+01 -8.287464141845703125e+00 1.381106736137241442e-13 5.624507478686757711e-13 2.101684169579509653e-13 3.162534253572935050e-13
1.670000000000000000e+03 1.872427368164062500e+01 -7.440186977386474609e+00 1.060850151756061177e-13 2.742197473867141744e-13 1.140914348673333079e-13 2.041636038832214672e-13
1.671000000000000000e+03 6.613571166992187500e+01 -3.146449279785156250e+01 1.000802037949425141e-14 5.004010105043830980e-14 1.801443583605670529e-14 6.004812227696550847e-15
1.672000000000000000e+03 4.043986511230468750e+01 -2.115593528747558594e+01 5.604491073703601889e-14 2.401924891078620339e-14 2.401924891078620339e-14 -1.040834085586084257e-13
1.673000000000000000e+03 3.915943908691406250e+01 -2.693909454345703125e+01 1.200962445539310169e-14 2.802245536851800944e-14 1.200962445539310169e-14 1.601283260719080226e-14
1.674000000000000000e+03 3.888034820556640625e+01 -2.830251693725585938e+01 -1.801443583605670529e-14 3.803047490097931360e-14 6.004812227696550847e-15 -2.902325867701685547e-14
1.675000000000000000e+03 4.129806900024414062e+01 -2.397064971923828125e+01 1.200962445539310169e-14 1.881507780522942430e-13 6.004811719476782494e-14 -1.761411519028352468e-13
1.676000000000000000e+03 3.911268997192382812e+01 -2.474643325805664062e+01 -9.407538902614712151e-14 -6.004812227696550847e-15 -3.002405859738391247e-14 2.602085213965210642e-14
1.677000000000000000e+03 4.182056427001953125e+01 -2.570834922790527344e+01 3.803047490097931360e-14 -1.801443583605670529e-14 6.004812227696550847e-15 4.803849782157240678e-14
1.678000000000000000e+03 6.780654144287109375e+01 -2.975435447692871094e+01 -4.153328478665938017e-14 -6.355093046857968053e-14 -3.152526186606628700e-14 -2.802245536851800944e-14
1.679000000000000000e+03 6.490515899658203125e+01 -3.363085937500000000e+01 -4.103288143834406265e-14 1.100882199392720293e-14 -9.007217918028352643e-15 -2.502005052521915490e-14
1.680000000000000000e+03 7.062393951416015625e+01 -3.231499099731445312e+01 9.607699564314481355e-14 -9.607699564314481355e-14 0.000000000000000000e+00 -2.401924891078620339e-14
1.681000000000000000e+03 6.495890045166015625e+01 -3.573584747314453125e+01 0.000000000000000000e+00 0.000000000000000000e+00 0.000000000000000000e+00 -1.200962445539310169e-14
1.682000000000000000e+03 6.387529754638671875e+01 -3.741819000244140625e+01 -2.855413117324595573e-14 -2.367522309112708029e-14 -1.566880678753167916e-14 9.007217918028352643e-15
1.683000000000000000e+03 4.394541168212890625e+01 -3.233648681640625000e+01 -4.103288143834406265e-14 -2.902325867701685547e-14 -2.101684237342145434e-14 -4.503609128420765773e-14
1.684000000000000000e+03 6.598417663574218750e+01 -3.461528778076171875e+01 4.741299448321120713e-14 -7.118204002577385725e-14 -7.130714679208331741e-15 8.006416303595401129e-15
1.685000000000000000e+03 5.016020965576171875e+01 -3.697730636596679688e+01 -4.491099129416177560e-14 -9.144828584705180785e-14 -4.090778144829818053e-14 2.731876750099344886e-14
1.686000000000000000e+03 1.353134155273437500e+01 -3.601766204833984375e+01 -2.512638534735156526e-13 5.671419822488033002e-13 9.476343727733357869e-14 8.506817110811876886e-15
1.687000000000000000e+03 2.238992881774902344e+01 -4.140516281127929688e+01 -1.396118734942747297e-13 4.548644989312011777e-13 9.457578898633065001e-14 -5.904731727440076794e-14
1.688000000000000000e+03 4.546106719970703125e+01 -3.646795272827148438e+01 1.050842118671072717e-14 4.503608959014176322e-15 4.503608959014176322e-15 2.401924891078620339e-14
1.689000000000000000e+03 4.843922424316406250e+01 -3.810773468017578125e+01 -1.000802037949425141e-15 1.100882199392720293e-14 3.002406113848275424e-15 2.351884725653678038e-14
1.690000000000000000e+03 3.012833786010742188e+01 -3.979205322265625000e+01 2.245549564708088780e-14 1.583143609696496812e-13 5.423095918730483356e-14 -1.125902282105191443e-14
1.691000000000000000e+03 2.830162429809570312e+01 -3.772193908691406250e+01 -2.852285871683332696e-14 2.537033083616080376e-13 6.755413692631148659e-14 -9.007217918028352643e-15
1.692000000000000000e+03 2.678641510009765625e+01 -4.119728851318359375e+01 -5.154130431912068433e-14 2.867297870488838551e-13 7.055654346367623564e-14 0.000000000000000000e+00
1.693000000000000000e+03 2.480729484558105469e+01 -3.674911117553710938e+01 -3.953167816966168813e-14 3.147522390292700756e-13 8.256616283687165381e-14 -1.421138868477195283e-13
1.694000000000000000e+03 1.577488613128662109e+01 -3.145974159240722656e+01 -1.203464411458909922e-13 7.033136009346185880e-13 1.748901452261128475e-13 -1.771419518232023038e-13
1.695000000000000000e+03 1.545127964019775391e+01 -3.419812774658203125e+01 -2.129831819805763637e-13 6.064234401095824900e-13 1.180320896359762783e-13 -9.932960216060132685e-14
1.696000000000000000e+03 7.273695468902587891e+00 -3.355788040161132812e+01 -1.291034607778934751e-13 -2.101684237342145434e-14 -4.503609128420765773e-14 7.405934996122451319e-14
1.697000000000000000e+03 1.285801601409912109e+01 -2.949998283386230469e+01 -6.405133042876320904e-14 7.045646076113409872e-13 1.921539912862896271e-13 -4.403528797570881170e-14
1.698000000000000000e+03 3.553301239013671875e+01 -3.611503982543945312e+01 5.954771723458429644e-14 1.055846084391590112e-13 4.953969770212299228e-14 -4.003208151797700565e-14
1.699000000000000000e+03 3.336669158935546875e+01 -4.107522583007812500e+01 -3.002406113848275424e-15 1.931547912066566841e-13 5.704571743366665393e-14 -3.702967498061225660e-14
1.700000000000000000e+03 3.210543441772460938e+01 -3.752910232543945312e+01 2.552045048540268340e-14 1.596279261117244941e-13 5.554451077685249039e-14 -5.204170427930421283e-14
1.701000000000000000e+03 1.197330665588378906e+01 -8.079948425292968750e+00 -2.762213472274482884e-13 4.763817378766743715e-13 6.004811719476782494e-14 -1.180946345488015359e-13
1.702000000000000000e+03 7.931963920593261719e+00 -6.444756984710693359e+00 -1.841475648182988589e-13 -2.161732300326804634e-13 -1.200962343895356499e-13 -3.602887302736612618e-13
1.703000000000000000e+03 1.572445392608642578e+01 -6.700736999511718750e+00 -1.000802021008766196e-13 3.002405995263662808e-13 6.004811719476782494e-14 4.003208151797700565e-14
1.704000000000000000e+03 1.479922103881835938e+01 -8.696940422058105469e+00 4.203368474684290867e-14 6.585277028542391164e-13 2.101684169579509653e-13 6.405133042876320904e-14
1.705000000000000000e+03 1.920714187622070312e+01 -5.984632968902587891e+00 4.803849782157240678e-14 1.120898214740720378e-13 4.803849782157240678e-14 2.842277736954390566e-13
1.706000000000000000e+03 7.468773651123046875e+01 -2.979362678527832031e+01 6.104892389139845998e-14 -1.110890215537049808e-13 -1.501202929869195624e-14 -1.321058605389946461e-13
1.707000000000000000e+03 6.958145904541015625e+01 -3.257426834106445312e+01 4.303448466720996568e-14 -7.305854326459387815e-14 -9.007217918028352643e-15 2.201764398785440585e-14
1.708000000000000000e+03 7.493984222412109375e+01 -2.390755653381347656e+01 7.606094980195862720e-14 -3.562855034871387216e-13 -8.406736949368581735e-14 -2.001604075898850282e-15
1.709000000000000000e+03 7.219524383544921875e+01 -2.355094718933105469e+01 1.981587908084919691e-13 -9.807859548387892756e-14 3.002405859738391247e-14 2.802245536851800944e-14
1.710000000000000000e+03 7.360498046875000000e+01 -2.855942726135253906e+01 1.751403519824681898e-13 7.506014988159157020e-14 7.506014988159157020e-14 -4.803849782157240678e-14
1.711000000000000000e+03 6.180204391479492188e+00 -2.852260589599609375e+01 -3.502807175174635357e-14 -1.751403519824681898e-13 -6.305052373213257400e-14 2.882309733769072846e-13
1.712000000000000000e+03 1.439117336273193359e+01 -6.510561943054199219e+00 -1.861491782115601290e-13 2.862293735361731706e-13 3.002405859738391247e-14 4.003208151797700565e-14
1.713000000000000000e+03 1.267721176147460938e+01 -7.255183696746826172e+00 -2.041636038832214672e-13 3.242598518252842732e-13 3.602887167211341057e-14 -6.805453688649501509e-14
1.714000000000000000e+03 3.973384094238281250e+01 -2.518164443969726562e+01 2.451964954859608969e-13 1.050842084789754827e-13 1.050842084789754827e-13 1.020818019416107336e-13
1.715000000000000000e+03 1.046540927886962891e+01 -6.266870975494384766e+00 -3.502807039649363796e-13 1.701363388281057487e-13 -5.404330750817011586e-14 -3.562855034871387216e-13
1.716000000000000000e+03 9.193814277648925781e+00 -6.392218112945556641e+00 -1.261010474642651480e-13 -2.141716301919463494e-13 -1.020818019416107336e-13 -1.521218996039172544e-13
1.717000000000000000e+03 1.266123771667480469e+01 -9.100439071655273438e+00 -1.080866150163402317e-13 5.484394947734283488e-13 1.321058605389946461e-13 -4.003208151797700565e-14
1.718000000000000000e+03 7.403383636474609375e+01 -2.275084686279296875e+01 -9.557658890669770702e-14 -4.898925774592111093e-13 -1.756407519426517183e-13 6.805453688649501509e-14
1.719000000000000000e+03 5.768569946289062500e+00 -2.483916091918945312e+01 1.511210996835501974e-13 -3.012413994467333378e-13 -4.503609128420765773e-14 1.401122870069854143e-13
1.720000000000000000e+03 8.737192153930664062e+00 -7.184174537658691406e+00 1.501202929869195624e-14 -8.506816941405287436e-14 -2.101684237342145434e-14 -2.441956955655938399e-13
1.721000000000000000e+03 1.118507194519042969e+01 -9.340732574462890625e+00 -3.903127820947815962e-14 3.492799040445693226e-13 9.307458910578006450e-14 -6.004811719476782494e-14
1.722000000000000000e+03 7.476551532745361328e+00 -8.478269577026367188e+00 8.006416303595401129e-14 2.401924687790712998e-13 9.607699564314481355e-14 -5.284234421559785844e-13
1.723000000000000000e+03 7.447576522827148438e+00 -9.215468406677246094e+00 6.004812227696550847e-15 -2.261812563414053456e-13 -6.605293026949732305e-14 -4.083272077664429345e-13
1.724000000000000000e+03 1.369035530090332031e+01 -9.900830268859863281e+00 5.504411081666896188e-14 7.556055390753324552e-13 2.431948956452267829e-13 4.803849782157240678e-14
1.725000000000000000e+03 1.205674552917480469e+01 -7.033815860748291016e+00 -2.401924687790712998e-13 2.401924687790712998e-13 0.000000000000000000e+00 -1.040834085586084257e-13
1.726000000000000000e+03 8.534246444702148438e+00 -6.469123840332031250e+00 -2.041636038832214672e-13 -1.561251128379126385e-13 -1.080866150163402317e-13 -5.884716000083278775e-13
1.727000000000000000e+03 7.429731750488281250e+01 -2.319706726074218750e+01 2.101684169579509653e-13 -2.301844695754007297e-13 -6.004812227696550847e-15 9.607699564314481355e-14
1.728000000000000000e+03 7.111652374267578125e+01 -2.509705924987792969e+01 1.080866150163402317e-13 -6.805453688649501509e-14 1.200962445539310169e-14 -3.202566521438160452e-14
1.729000000000000000e+03 7.466731262207031250e+01 -2.446614074707031250e+01 -2.001604075898850282e-14 -2.602085213965210642e-13 -8.406736949368581735e-14 1.321058605389946461e-13
1.730000000000000000e+03 6.382444381713867188e+00 -2.061424827575683594e+01 4.903929774193946378e-14 -2.992397996059992238e-13 -7.506014988159157020e-14 8.006416303595401129e-14
1.731000000000000000e+03 1.078416728973388672e+01 -1.710126876831054688e+01 3.182550251980276190e-13 9.027234255248872685e-13 3.662935297958636038e-13 -1.591275125990138095e-13
1.732000000000000000e+03 7.441040039062500000e+01 -2.618727874755859375e+01 9.707779556351187056e-14 -1.871499781319271860e-13 -2.702165375408505793e-14 -4.003208151797700565e-14
1.733000000000000000e+03 7.295447540283203125e+01 -2.406729316711425781e+01 7.005614350349270714e-14 3.002405859738391247e-14 3.002405859738391247e-14 1.120898214740720378e-13
1.734000000000000000e+03 7.308196258544921875e+01 -2.569314384460449219e+01 -3.602887167211341057e-14 -2.441956955655938399e-13 -8.406736949368581735e-14 5.604491073703601889e-14
1.735000000000000000e+03 6.046323776245117188e+00 -7.048067092895507812e+00 -1.921539912862896271e-13 -4.483592858962881511e-13 -1.921539912862896271e-13 -4.443560862148199231e-13
1.736000000000000000e+03 1.623349571228027344e+01 -8.240230560302734375e+00 0.000000000000000000e+00 3.202566521438160452e-13 9.607699564314481355e-14 2.762213472274482884e-13
1.737000000000000000e+03 7.388342285156250000e+01 -2.690799713134765625e+01 -6.505213034913026604e-14 -2.852285736158061136e-13 -1.050842084789754827e-13 5.504411081666896188e-14
1.738000000000000000e+03 5.534663677215576172e+00 -2.402182579040527344e+01 7.205774334422682115e-14 -1.521218996039172544e-13 -2.401924891078620339e-14 3.322662782932750414e-13
1.739000000000000000e+03 8.424629211425781250e+00 -2.304331398010253906e+01 2.321860694161348437e-13 4.883913911311876799e-13 2.161732300326804634e-13 1.000802021008766196e-13
1.740000000000000000e+03 6.059721946716308594e+00 -1.453092288970947266e+01 1.781427517435693608e-13 -1.981587908084919691e-13 -6.004812227696550847e-15 -2.021620040424873532e-13
1.741000000000000000e+03 5.145642280578613281e+00 -1.591964912414550781e+01 2.061652172764827373e-13 -5.064057896977947060e-13 -9.007218256841531545e-14 -4.003208151797700565e-14
1.742000000000000000e+03 5.442040443420410156e+00 -1.734136581420898438e+01 2.802245740139708285e-13 -3.602887302736612618e-13 -2.401924891078620339e-14 -5.804651735403371093e-14
1.743000000000000000e+03 6.312061309814453125e+00 -1.690073585510253906e+01 1.261010474642651480e-13 -2.662133209187234062e-13 -4.203368474684290867e-14 -1.401122870069854143e-13
1.744000000000000000e+03 5.930604934692382812e+00 -1.369690513610839844e+01 6.605293026949732305e-14 -8.606896933441993136e-14 -6.004812227696550847e-15 -3.202566521438160452e-13
1.745000000000000000e+03 5.259504795074462891e+00 -1.053960037231445312e+01 2.401924891078620339e-14 -2.642117210779892922e-13 -7.205774334422682115e-14 -3.002405995263662808e-13
1.746000000000000000e+03 5.226151943206787109e+00 -1.131515216827392578e+01 -1.220978477827969200e-13 -9.807859548387892756e-14 -6.605293026949732305e-14 -4.043240080849747065e-13
1.747000000000000000e+03 5.260546207427978516e+00 -1.784805679321289062e+01 2.361892690976030718e-13 -3.602887167211341057e-14 6.004811719476782494e-14 -8.006416303595401129e-15
1.748000000000000000e+03 7.391942501068115234e+00 -1.625828933715820312e+01 2.401924687790712998e-13 2.524354896707237777e-29 7.205774334422682115e-14 -1.846479647784823874e-13
1.749000000000000000e+03 7.230976104736328125e+00 -1.019076633453369141e+01 1.040834085586084257e-13 1.361090737729900302e-13 7.205774334422682115e-14 -2.882309733769072846e-13
1.750000000000000000e+03 6.095707416534423828e+00 -1.909446144104003906e+01 2.722181475459800604e-13 -1.120898214740720378e-13 4.803849782157240678e-14 1.601283260719080226e-14
1.751000000000000000e+03 6.666437149047851562e+00 -1.082127285003662109e+01 6.605293026949732305e-14 -2.461972954063279539e-13 -5.404330750817011586e-14 -2.802245740139708285e-13
1.752000000000000000e+03 6.301865100860595703e+00 -2.758395767211914062e+01 -1.651323256737433076e-13 -3.452767043631010946e-13 -1.531227130768114675e-13 2.722181475459800604e-13
1.753000000000000000e+03 6.200623989105224609e+00 -2.563236999511718750e+01 4.453568793589234021e-14 2.907329867303520832e-13 1.005806020610601481e-13 2.769719674965143152e-13
1.754000000000000000e+03 1.021523761749267578e+01 -1.760703849792480469e+01 5.009014036883030485e-13 8.551853344397619683e-13 4.068260214384195050e-13 0.000000000000000000e+00
1.755000000000000000e+03 5.992068290710449219e+00 -9.883842468261718750e+00 9.607699564314481355e-14 -9.607699564314481355e-14 0.000000000000000000e+00 -3.362694779747432694e-13
1.756000000000000000e+03 5.841739177703857422e+00 -1.292203617095947266e+01 5.004010105043830980e-14 -2.301844695754007297e-13 -5.404330750817011586e-14 -1.761411519028352468e-13
1.757000000000000000e+03 7.990425586700439453e+00 -1.370426940917968750e+01 2.552045217946857791e-13 1.551243129175455815e-13 1.230986477031639770e-13 -2.842277736954390566e-13
1.758000000000000000e+03 6.019790172576904297e+00 -7.679508209228515625e+00 -6.004811719476782494e-14 2.001604075898850282e-14 -1.200962445539310169e-14 -2.401924687790712998e-13
1.759000000000000000e+03 6.228219032287597656e+00 -1.983307647705078125e+01 1.100882216333379238e-13 -9.007218256841531545e-14 6.004812227696550847e-15 1.160930347080674219e-13
1.760000000000000000e+03 6.998652935028076172e+00 -1.964976882934570312e+01 3.162534253572935050e-13 4.403528797570881170e-14 1.080866150163402317e-13 1.200962343895356499e-13
1.761000000000000000e+03 7.264904022216796875e+00 -2.434951782226562500e+01 1.100882216333379238e-13 2.301844695754007297e-13 1.020818019416107336e-13 2.121700303512122354e-13
1.762000000000000000e+03 7.997714996337890625e+00 -2.219605636596679688e+01 9.607699564314481355e-14 2.241796429481440756e-13 9.607699564314481355e-14 1.160930347080674219e-13
1.763000000000000000e+03 1.023268985748291016e+01 -1.665890312194824219e+01 3.383961676411278985e-13 4.960224939121182786e-13 2.503256120185010092e-13 -7.174499167504622132e-14
1.764000000000000000e+03 1.415379619598388672e+01 -9.827916145324707031e+00 6.004811719476782494e-14 6.204972516701823260e-13 2.041636038832214672e-13 3.042437992078345088e-13
1.765000000000000000e+03 1.483882999420166016e+01 -8.013942718505859375e+00 -3.202566521438160452e-14 6.725389559494865388e-13 1.921539912862896271e-13 7.205774334422682115e-14
1.766000000000000000e+03 7.253614044189453125e+01 -3.159360885620117188e+01 -1.000802037949425141e-14 -5.004010105043830980e-14 -1.801443583605670529e-14 -6.004811719476782494e-14
1.767000000000000000e+03 1.720948982238769531e+01 -6.408132076263427734e+00 2.802245536851800944e-14 3.322662782932750414e-13 1.080866150163402317e-13 1.441154866884536423e-13
1.768000000000000000e+03 5.973583698272705078e+00 -1.840161514282226562e+01 3.002405995263662808e-13 -1.000802021008766196e-13 6.004811719476782494e-14 -8.006416303595401129e-14
1.769000000000000000e+03 1.018488597869873047e+01 -1.853251266479492188e+01 5.089078030512395046e-13 7.671147246070264547e-13 3.828067691395015126e-13 -6.004811719476782494e-14
1.770000000000000000e+03 7.358599853515625000e+01 -2.236318206787109375e+01 1.738893453057457905e-13 -2.126704235351321859e-14 4.578669122448295048e-14 1.876503747039789255e-14
1.771000000000000000e+03 7.294651794433593750e+01 -2.348026847839355469e+01 1.120898214740720378e-13 -2.722181475459800604e-13 -4.803849782157240678e-14 2.401924891078620339e-14
1.772000000000000000e+03 1.775246047973632812e+01 -6.279227256774902344e+00 -3.602887167211341057e-14 3.963175816169839383e-13 1.080866150163402317e-13 1.881507780522942430e-13
1.773000000000000000e+03 1.555186653137207031e+01 -8.139090538024902344e+00 6.805453688649501509e-14 5.324266418374468124e-13 1.801443651368306309e-13 1.000802021008766196e-13
1.774000000000000000e+03 1.560540866851806641e+01 -7.443022727966308594e+00 -2.001604075898850282e-14 5.404330954104918927e-13 1.561251128379126385e-13 5.204170427930421283e-14
1.775000000000000000e+03 1.323416137695312500e+01 -2.081444931030273438e+01 5.884716000083278775e-13 1.853485247227393273e-12 7.325870595917272077e-13 -2.762213472274482884e-13
1.776000000000000000e+03 1.171499729156494141e+01 -2.113271141052246094e+01 3.502807039649363796e-13 1.110890242642104120e-12 4.383512866926175811e-13 8.807057595141762341e-14
1.777000000000000000e+03 6.922737884521484375e+01 -3.045398330688476562e+01 2.401924891078620339e-14 -1.040834085586084257e-13 -2.401924891078620339e-14 -4.003208151797700565e-15
1.778000000000000000e+03 7.336048126220703125e+01 -3.350585937500000000e+01 4.253408470702643718e-14 -1.876503780921107145e-13 -4.353488801552528320e-14 -1.140914348673333079e-13
1.779000000000000000e+03 1.171411991119384766e+01 -2.187791252136230469e+01 4.923945908126559079e-13 1.309049006345541777e-12 5.404330954104918927e-13 4.003208151797700565e-14
1.780000000000000000e+03 1.809524345397949219e+01 -7.553949356079101562e+00 -6.004812227696550847e-15 3.863095824133133682e-13 1.140914348673333079e-13 3.843079825725792542e-13
1.781000000000000000e+03 1.183241176605224609e+01 -1.218025970458984375e+01 1.676343390271881062e-13 7.581074982186686295e-13 2.777225606605260300e-13 -1.361090737729900302e-13
1.782000000000000000e+03 1.060759258270263672e+01 -1.408909225463867188e+01 1.931547912066566841e-13 6.375108774214766072e-13 2.491996951674291250e-13 -1.851483647386659159e-13
1.783000000000000000e+03 8.088019371032714844e+00 -2.839747047424316406e+01 -3.803047490097931360e-14 2.582069215557869502e-13 6.605293026949732305e-14 2.762213472274482884e-13
1.784000000000000000e+03 1.451073837280273438e+01 -3.237832260131835938e+01 -1.636311257931927221e-13 6.390120637495000366e-13 1.426142868079030568e-13 -4.203368474684290867e-14
1.785000000000000000e+03 6.821530151367187500e+01 -3.071320724487304688e+01 4.103288143834406265e-14 -5.104090097080536681e-14 -3.002406113848275424e-15 1.200962445539310169e-14
1.786000000000000000e+03 4.147275924682617188e+01 -2.219858932495117188e+01 9.207378240914942946e-14 2.682149478645118323e-13 1.080866150163402317e-13 7.005614350349270714e-14
1.787000000000000000e+03 7.129619598388671875e+01 -2.635559654235839844e+01 9.282438912568830025e-14 3.978187814975345238e-14 3.978187814975345238e-14 1.301042606982605321e-13
1.788000000000000000e+03 6.738789081573486328e+00 -2.522015762329101562e+01 1.331066604593617031e-13 5.704571743366665393e-14 5.704571743366665393e-14 3.202566521438160452e-13
1.789000000000000000e+03 1.020262622833251953e+01 -1.567217826843261719e+01 3.948163952889605088e-13 7.611099250848241127e-13 3.467778906911245240e-13 -7.731195647868102649e-14
1.790000000000000000e+03 1.074267864227294922e+01 -1.511837863922119141e+01 2.401924687790712998e-13 6.405133042876320904e-13 2.642117210779892922e-13 -1.025822086780578402e-13
1.791000000000000000e+03 6.961246490478515625e+01 -2.893310356140136719e+01 1.881507780522942430e-13 9.207378240914942946e-14 8.406736949368581735e-14 -7.956375629950690476e-14
1.792000000000000000e+03 7.127429962158203125e+01 -2.744652748107910156e+01 -2.026624073908026707e-14 -4.728789449316532501e-14 -2.026624073908026707e-14 1.521218996039172544e-13
1.793000000000000000e+03 1.015950679779052734e+01 -2.629411506652832031e+01 7.506014988159157020e-14 8.556856937423640286e-13 2.792237469885494594e-13 1.441154866884536423e-13
1.794000000000000000e+03 1.261935806274414062e+01 -2.718786430358886719e+01 3.602887167211341057e-14 1.044837285267552485e-12 3.242598518252842732e-13 -7.806255641895631925e-14
1.795000000000000000e+03 1.271367263793945312e+01 -1.051354694366455078e+01 1.696359388679222202e-13 6.360096910934531778e-13 2.416936822121490414e-13 -7.105694342385976414e-14
1.796000000000000000e+03 4.021918869018554688e+01 -2.447013473510742188e+01 -6.705373696612795809e-14 1.701363422162375377e-14 -1.501202929869195624e-14 -5.204170427930421283e-14
1.797000000000000000e+03 4.152264785766601562e+01 -2.887878227233886719e+01 -3.828067826920286687e-14 -3.928147818956992388e-14 -2.326864727644501613e-14 -9.107298248878237246e-14
1.798000000000000000e+03 7.281494903564453125e+01 -2.698069763183593750e+01 -1.313552673749829314e-13 -3.064956058049239651e-13 -1.313552673749829314e-13 -1.851483749030612830e-14
1.799000000000000000e+03 7.411882781982421875e+01 -2.435157394409179688e+01 -4.403528797570881170e-14 -1.561251128379126385e-13 -6.004811719476782494e-14 8.406736949368581735e-14
1.800000000000000000e+03 4.103117370605468750e+01 -2.789418601989746094e+01 6.004812227696550847e-15 9.407538902614712151e-14 3.002405859738391247e-14 1.601283260719080226e-14
1.801000000000000000e+03 4.004647445678710938e+01 -2.821592712402343750e+01 -1.240994476235310340e-13 8.406736949368581735e-14 -1.200962445539310169e-14 -5.404330750817011586e-14
1.802000000000000000e+03 4.061624908447265625e+01 -2.370001411437988281e+01 -4.603689120457471473e-14 1.060850151756061177e-13 1.801443583605670529e-14 1.801443583605670529e-14
1.803000000000000000e+03 4.092474746704101562e+01 -2.303743743896484375e+01 1.801443583605670529e-14 1.220978477827969200e-13 4.203368474684290867e-14 -1.361090737729900302e-13
1.804000000000000000e+03 4.124524688720703125e+01 -3.086375617980957031e+01 -7.043144008549856450e-14 8.419246609559991046e-14 4.128308141843582690e-15 -2.977385861729214822e-14
1.805000000000000000e+03 4.251715469360351562e+01 -3.176225852966308594e+01 -3.402726844324750755e-14 5.404330750817011586e-14 6.004812227696550847e-15 -6.204972381176551699e-14
1.806000000000000000e+03 6.695770263671875000e+01 -3.342010879516601562e+01 -5.104090097080536681e-14 1.000802037949425141e-15 -1.501202929869195624e-14 -2.201764398785440585e-14
1.807000000000000000e+03 7.180689239501953125e+01 -3.857159042358398438e+01 -1.047714618919925664e-14 -2.736567957374418103e-14 -1.135284781358632603e-14 3.502807175174635357e-14
1.808000000000000000e+03 7.063517761230468750e+01 -3.700428390502929688e+01 -1.000802037949425141e-15 -6.905533680686207210e-14 -2.101684237342145434e-14 -6.004811719476782494e-14
1.809000000000000000e+03 6.855632781982421875e+01 -3.265014266967773438e+01 7.806255641895631925e-14 -5.804651735403371093e-14 6.004812227696550847e-15 1.000802037949425141e-14
1.810000000000000000e+03 6.997276306152343750e+01 -3.539324569702148438e+01 1.501202929869195624e-14 -8.506816941405287436e-14 -2.101684237342145434e-14 5.004010189747125706e-15
1.811000000000000000e+03 4.004904174804687500e+01 -2.696671295166015625e+01 2.401924891078620339e-14 5.604491073703601889e-14 2.401924891078620339e-14 1.801443583605670529e-14
1.812000000000000000e+03 8.600896835327148438e+00 -3.225617980957031250e+01 -9.907939540424598457e-14 2.091676170375839083e-13 3.302646513474866152e-14 1.741395520621011328e-13
1.813000000000000000e+03 7.201085662841796875e+01 -3.606878662109375000e+01 6.630313024958908730e-14 5.129110433902892008e-14 3.527827173183811782e-14 1.110890215537049808e-13
1.814000000000000000e+03 6.923149108886718750e+01 -2.955661201477050781e+01 1.601283260719080226e-14 -1.601283260719080226e-14 0.000000000000000000e+00 -5.404330750817011586e-14
1.815000000000000000e+03 6.682554626464843750e+01 -4.101026535034179688e+01 -3.903127820947815962e-14 6.905533680686207210e-14 9.007217918028352643e-15 4.803849782157240678e-14
1.816000000000000000e+03 4.173482131958007812e+01 -3.328991317749023438e+01 -2.301844560228735737e-14 1.301042606982605321e-14 -3.002406113848275424e-15 -3.803047490097931360e-14
1.817000000000000000e+03 4.342456054687500000e+01 -3.411454010009765625e+01 -2.301844560228735737e-14 1.301042606982605321e-14 -3.002406113848275424e-15 -3.702967498061225660e-14
1.818000000000000000e+03 1.504510116577148438e+01 -3.023585891723632812e+01 -6.655333022968085155e-14 7.721187513139160519e-13 2.116696303910287069e-13 -1.080866150163402317e-13
1.819000000000000000e+03 7.438911437988281250e+00 -3.216400146484375000e+01 -1.321058605389946461e-13 1.721379386688398627e-13 1.200962445539310169e-14 1.841475648182988589e-13
1.820000000000000000e+03 4.681955718994140625e+01 -4.120687103271484375e+01 4.203368474684290867e-14 1.801443583605670529e-14 1.801443583605670529e-14 6.004812227696550847e-15
1.821000000000000000e+03 6.832785797119140625e+01 -3.580669784545898438e+01 1.401122768425900472e-14 -7.405934996122451319e-14 -1.801443583605670529e-14 2.001604075898850282e-14
1.822000000000000000e+03 3.773071670532226562e+01 -3.391703033447265625e+01 9.107298248878237246e-14 3.903127820947815962e-14 3.903127820947815962e-14 -5.404330750817011586e-14
1.823000000000000000e+03 2.559087944030761719e+01 -3.880100631713867188e+01 -7.405934996122451319e-14 2.942358000041639388e-13 6.605293026949732305e-14 -9.907939540424598457e-14
1.824000000000000000e+03 3.832041549682617188e+01 -3.867943191528320312e+01 2.451964887096973189e-14 9.057258252859884395e-14 3.452766840343103605e-14 -7.005613842129502361e-15
1.825000000000000000e+03 1.786863327026367188e+01 -4.128227615356445312e+01 -1.761411519028352468e-13 4.963977904941241359e-13 9.607699564314481355e-14 2.101684237342145434e-14
1.826000000000000000e+03 4.039060592651367188e+01 -2.275088500976562500e+01 1.055846084391590112e-13 3.197562386311053606e-13 1.276022608973428896e-13 -6.154932385158198849e-14
1.827000000000000000e+03 3.937676239013671875e+01 -2.591183471679687500e+01 -2.141716301919463494e-13 -4.603689120457471473e-14 -7.806255641895631925e-14 5.604491073703601889e-14
1.828000000000000000e+03 9.320789337158203125e+00 -6.998383998870849609e+00 -1.601283260719080226e-13 -1.601283260719080226e-13 -9.607699564314481355e-14 -4.203368339159019307e-13
1.829000000000000000e+03 1.189546775817871094e+01 -7.579844951629638672e+00 -1.140914348673333079e-13 4.543641125235448053e-13 1.020818019416107336e-13 -1.561251128379126385e-13
1.830000000000000000e+03 1.017541599273681641e+01 -7.948558807373046875e+00 -8.081476297622930405e-14 1.483688931262772126e-13 2.026624073908026707e-14 -3.012413994467333378e-13
1.831000000000000000e+03 1.478405857086181641e+01 -9.353071212768554688e+00 2.401924891078620339e-14 6.965582082484045312e-13 2.161732300326804634e-13 1.561251128379126385e-13
1.832000000000000000e+03 7.363350677490234375e+01 -2.363858413696289062e+01 3.602887167211341057e-14 -7.606094980195862720e-14 -1.200962445539310169e-14 2.241796429481440756e-13
1.833000000000000000e+03 6.822856903076171875e+00 -1.441512298583984375e+01 9.107298248878237246e-14 -2.812253739343378856e-13 -5.704571743366665393e-14 -3.362694779747432694e-13
1.834000000000000000e+03 7.731757640838623047e+00 -6.912687301635742188e+00 -2.582069215557869502e-13 1.981587908084919691e-13 -1.801443583605670529e-14 -3.763015561045884860e-13
1.835000000000000000e+03 9.141291618347167969e+00 -7.818235397338867188e+00 9.607699564314481355e-14 2.241796429481440756e-13 9.607699564314481355e-14 -3.482791041242022656e-13
1.836000000000000000e+03 7.352877044677734375e+01 -2.420505332946777344e+01 8.006416303595401129e-14 -2.401924687790712998e-13 -4.803849782157240678e-14 6.805453688649501509e-14
1.837000000000000000e+03 7.214072704315185547e+00 -7.118648052215576172e+00 -1.281026608575264181e-13 -1.921539912862896271e-13 -9.607699564314481355e-14 -4.643721388322696875e-13
1.838000000000000000e+03 5.961593627929687500e+00 -1.067964839935302734e+01 -5.004010105043830980e-14 7.005614350349270714e-14 6.004812227696550847e-15 -3.162534253572935050e-13
1.839000000000000000e+03 7.283000183105468750e+01 -2.451517677307128906e+01 7.806255641895631925e-14 -5.804651735403371093e-14 6.004812227696550847e-15 8.006416303595401129e-14
1.840000000000000000e+03 7.011115550994873047e+00 -2.225088119506835938e+01 8.431756947377758160e-14 -1.468676932457266271e-13 -1.876503747039789255e-14 1.160930347080674219e-13
1.841000000000000000e+03 6.485290050506591797e+00 -2.446739959716796875e+01 7.005614350349270714e-14 3.002405859738391247e-14 3.002405859738391247e-14 3.362694779747432694e-13
1.842000000000000000e+03 7.349798583984375000e+01 -2.788484191894531250e+01 4.803849782157240678e-14 -2.081668171172168513e-13 -4.803849782157240678e-14 2.001604075898850282e-14
1.843000000000000000e+03 7.371931457519531250e+01 -2.582014656066894531e+01 -8.006416303595401129e-15 -2.321860694161348437e-13 -7.205774334422682115e-14 1.261010474642651480e-13
1.844000000000000000e+03 7.203205108642578125e+01 -2.464360237121582031e+01 1.431146867680865853e-13 -2.131708302715792924e-13 -2.101684237342145434e-14 -8.006416303595401129e-15
1.845000000000000000e+03 7.234342956542968750e+01 -2.654653167724609375e+01 1.381106736137241442e-13 -1.581267126786467525e-13 -6.004812227696550847e-15 -2.201764398785440585e-14
1.846000000000000000e+03 7.591328144073486328e+00 -1.319340419769287109e+01 2.231788430277770185e-13 1.871499781319271860e-13 1.230986477031639770e-13 -2.401924687790712998e-13
1.847000000000000000e+03 6.432060241699218750e+00 -1.630893707275390625e+01 1.761411519028352468e-13 -3.362694779747432694e-13 -4.803849782157240678e-14 -1.581267126786467525e-13
1.848000000000000000e+03 7.296118927001953125e+01 -2.520622253417968750e+01 5.204170427930421283e-14 6.805453688649501509e-14 3.602887167211341057e-14 1.441154866884536423e-13
1.849000000000000000e+03 7.332289123535156250e+01 -2.648969078063964844e+01 1.656327256339268361e-13 -1.205966479022463345e-13 1.351082687704252897e-14 9.107298248878237246e-14
1.850000000000000000e+03 9.530862808227539062e+00 -2.127968215942382812e+01 3.542839036464046076e-13 4.263416605431585849e-13 2.341876692568689577e-13 1.441154866884536423e-13
1.851000000000000000e+03 1.165682411193847656e+01 -2.267027091979980469e+01 3.222582519845501592e-13 9.387523310783185693e-13 3.783031559453226000e-13 4.003208151797700565e-14
1.852000000000000000e+03 7.195978164672851562e+00 -2.038872528076171875e+01 2.982389996856321668e-13 8.206576287668812530e-14 1.140914348673333079e-13 4.203368474684290867e-14
1.853000000000000000e+03 6.774397850036621094e+00 -1.570297718048095703e+01 2.361892690976030718e-13 4.403528797570881170e-14 8.406736949368581735e-14 -1.741395520621011328e-13
1.854000000000000000e+03 6.505625724792480469e+00 -2.680490684509277344e+01 -5.604491073703601889e-14 -2.401924891078620339e-14 -2.401924891078620339e-14 2.622101212372551782e-13
1.855000000000000000e+03 1.008937549591064453e+01 -2.260979461669921875e+01 2.782229470681824024e-13 7.826271640302973065e-13 3.182550251980276190e-13 1.681347389873716347e-13
1.856000000000000000e+03 6.016561985015869141e+00 -9.102707862854003906e+00 -4.003208151797700565e-15 4.403528797570881170e-14 1.200962445539310169e-14 -3.202566521438160452e-13
1.857000000000000000e+03 5.916917324066162109e+00 -1.145038223266601562e+01 1.020818019416107336e-13 -3.222582519845501592e-13 -6.605293026949732305e-14 -1.521218996039172544e-13
1.858000000000000000e+03 1.071280956268310547e+01 -8.596451759338378906e+00 -1.060850151756061177e-13 3.662935297958636038e-13 7.806255641895631925e-14 -3.522823038056704936e-13
1.859000000000000000e+03 8.502338409423828125e+00 -1.628057479858398438e+01 2.395669925457644123e-13 2.120449269730345643e-13 1.354835704346288305e-13 -2.259936080504024170e-13
1.860000000000000000e+03 6.470652103424072266e+00 -1.233473205566406250e+01 1.200962343895356499e-13 -4.003208151797700565e-14 2.401924891078620339e-14 -2.882309733769072846e-13
1.861000000000000000e+03 6.693440914154052734e+00 -7.761152744293212891e+00 -1.561251128379126385e-13 -2.041636038832214672e-13 -1.080866150163402317e-13 -4.563657394693332314e-13
1.862000000000000000e+03 6.019002914428710938e+00 -8.366561889648437500e+00 -8.606896933441993136e-14 -1.741395520621011328e-13 -7.806255641895631925e-14 -2.762213472274482884e-13
1.863000000000000000e+03 9.139472961425781250e+00 -1.227262020111083984e+01 2.782229470681824024e-13 -1.801443583605670529e-14 7.806255641895631925e-14 -3.893119821744145392e-13
1.864000000000000000e+03 6.834203243255615234e+00 -1.893262672424316406e+01 3.773023560249555430e-13 -6.705373696612795809e-14 9.307458910578006450e-14 1.200962445539310169e-14
1.865000000000000000e+03 6.470520973205566406e+00 -1.754650306701660156e+01 2.301844695754007297e-13 -1.301042606982605321e-13 3.002405859738391247e-14 -9.207378240914942946e-14
1.866000000000000000e+03 5.848474502563476562e+00 -1.218487071990966797e+01 3.002405859738391247e-14 -1.701363388281057487e-13 -4.203368474684290867e-14 -2.401924687790712998e-13
1.867000000000000000e+03 8.526784896850585938e+00 -1.732447052001953125e+01 3.773023560249555430e-13 2.131708302715792924e-13 1.771419518232023038e-13 -2.507009086005068665e-13
1.868000000000000000e+03 9.688495635986328125e+00 -1.812155342102050781e+01 3.853087824929463112e-13 6.855493820193125920e-13 3.212574520641831022e-13 -1.442405900666313134e-13
1.869000000000000000e+03 1.685851860046386719e+01 -7.636555194854736328e+00 -6.605293026949732305e-14 2.461972954063279539e-13 5.404330750817011586e-14 2.802245740139708285e-13
1.870000000000000000e+03 1.736557006835937500e+01 -6.990222454071044922e+00 4.203368474684290867e-14 1.781427517435693608e-13 6.605293026949732305e-14 1.521218996039172544e-13
1.871000000000000000e+03 1.171881103515625000e+01 -2.524458312988281250e+01 8.907137587178468041e-14 9.017225984994658994e-13 2.972381997652651098e-13 7.355895000104098469e-14
1.872000000000000000e+03 7.144789695739746094e+00 -2.859611129760742188e+01 -1.601283260719080226e-14 1.761411519028352468e-13 4.803849782157240678e-14 6.805453688649501509e-14
1.873000000000000000e+03 1.046554946899414062e+01 -2.505961608886718750e+01 1.581267126786467525e-13 8.226592692651968353e-13 2.942358000041639388e-13 1.921539912862896271e-13
1.874000000000000000e+03 9.403543472290039062e+00 -1.984067344665527344e+01 3.160032457059924749e-13 2.269318495054170604e-13 1.628805326291810074e-13 -1.601283260719080226e-14
1.875000000000000000e+03 9.647424697875976562e+00 -1.620841026306152344e+01 2.712173476256130034e-13 4.193360339955348737e-13 2.071660171968497943e-13 -2.982389996856321668e-13
1.876000000000000000e+03 1.092472648620605469e+01 -2.058068656921386719e+01 2.882309733769072846e-13 9.927955809882482718e-13 3.843079825725792542e-13 7.606094980195862720e-14
1.877000000000000000e+03 1.070920276641845703e+01 -1.936473846435546875e+01 3.722983564231202580e-13 1.028824486541679573e-12 4.203368339159019307e-13 9.207378240914942946e-14
1.878000000000000000e+03 1.249678993225097656e+01 -2.179806137084960938e+01 4.363496868518834670e-13 1.445158120776113275e-12 5.644523477094098851e-13 -2.401924891078620339e-14
1.879000000000000000e+03 1.083566951751708984e+01 -1.996552467346191406e+01 5.264218423152444704e-13 1.094877443916231208e-12 4.863897912904535659e-13 -1.401122870069854143e-13
1.880000000000000000e+03 7.685794830322265625e+00 -2.275240898132324219e+01 1.501202997631831404e-13 2.702165477052459464e-13 1.261010474642651480e-13 1.661331391466375207e-13
1.881000000000000000e+03 7.374880981445312500e+01 -2.313511657714843750e+01 7.105694342385976414e-14 -6.104892389139845998e-14 3.002406113848275424e-15 8.006416303595401129e-14
1.882000000000000000e+03 1.073360061645507812e+01 -1.245027923583984375e+01 1.140914348673333079e-13 5.064057896977947060e-13 1.861491782115601290e-13 -2.281828697346666157e-13
1.883000000000000000e+03 1.012264633178710938e+01 -1.465976619720458984e+01 3.272622515863854442e-13 7.636119384382689113e-13 3.272622515863854442e-13 -1.055846084391590112e-13
1.884000000000000000e+03 1.623791503906250000e+01 -7.567110538482666016e+00 -4.203368474684290867e-14 3.022421993671003948e-13 7.806255641895631925e-14 7.205774334422682115e-14
1.885000000000000000e+03 1.247765541076660156e+01 -2.099516868591308594e+01 5.404330954104918927e-13 1.421138814267086659e-12 5.884716000083278775e-13 -2.281828697346666157e-13
1.886000000000000000e+03 1.095938682556152344e+01 -2.122880744934082031e+01 4.363496868518834670e-13 9.647731832179706757e-13 4.203368339159019307e-13 1.601283260719080226e-14
1.887000000000000000e+03 7.313448333740234375e+01 -3.037470054626464844e+01 1.100882199392720293e-14 -4.103288143834406265e-14 -9.007217918028352643e-15 -4.403528797570881170e-14
1.888000000000000000e+03 7.425032615661621094e+00 -3.084833145141601562e+01 -1.150922347877003649e-13 6.505213034913026604e-14 -1.501202929869195624e-14 1.421138868477195283e-13
1.889000000000000000e+03 1.294279766082763672e+01 -9.645319938659667969e+00 6.405133042876320904e-14 5.764619467538145692e-13 1.921539912862896271e-13 0.000000000000000000e+00
1.890000000000000000e+03 7.195100402832031250e+01 -3.304124069213867188e+01 -1.200962445539310169e-14 -1.881507780522942430e-13 -6.004811719476782494e-14 -1.100882199392720293e-14
1.891000000000000000e+03 7.375061511993408203e+00 -2.348504066467285156e+01 2.451964954859608969e-13 1.050842084789754827e-13 1.050842084789754827e-13 1.681347389873716347e-13
1.892000000000000000e+03 1.212156295776367188e+01 -2.451255607604980469e+01 1.721379386688398627e-13 1.228984904295959968e-12 4.203368339159019307e-13 3.202566521438160452e-14
1.893000000000000000e+03 7.194024658203125000e+01 -2.598872375488281250e+01 2.001604075898850282e-14 -2.201764432666758475e-13 -6.004811719476782494e-14 -3.202566521438160452e-14
1.894000000000000000e+03 8.108689308166503906e+00 -7.504777431488037109e+00 -8.006416303595401129e-14 0.000000000000000000e+00 -2.401924891078620339e-14 -4.653729116475824323e-13
1.895000000000000000e+03 1.402913379669189453e+01 -8.616030693054199219e+00 -1.140914348673333079e-13 4.543641125235448053e-13 1.020818019416107336e-13 1.160930347080674219e-13
1.896000000000000000e+03 1.331943607330322266e+01 -7.605803966522216797e+00 -5.904731727440076794e-14 5.694563202061908580e-13 1.531227130768114675e-13 -3.202566521438160452e-14
1.897000000000000000e+03 7.180656433105468750e+01 -2.696002960205078125e+01 -1.376102770416724047e-14 -1.889013847688331138e-13 -6.079872391130669573e-14 -7.005613842129502361e-15
1.898000000000000000e+03 6.734928131103515625e+00 -9.204302787780761719e+00 4.003208151797700565e-15 1.160930347080674219e-13 3.602887167211341057e-14 -3.082470259943570490e-13
1.899000000000000000e+03 7.301830768585205078e+00 -2.512502861022949219e+01 2.201764398785440585e-14 2.381908689383371858e-13 7.806255641895631925e-14 2.241796429481440756e-13
1.900000000000000000e+03 1.276101684570312500e+01 -2.828452491760253906e+01 -7.606094980195862720e-14 6.765421556309547668e-13 1.801443651368306309e-13 -1.261010474642651480e-13
1.901000000000000000e+03 1.153360462188720703e+01 -2.631435394287109375e+01 2.662133209187234062e-13 9.147330245692919526e-13 3.542839036464046076e-13 3.803047490097931360e-14
1.902000000000000000e+03 6.640975952148437500e+00 -7.147999763488769531e+00 -2.241796429481440756e-13 -9.607699564314481355e-14 -9.607699564314481355e-14 -2.241796429481440756e-13
1.903000000000000000e+03 7.073744964599609375e+01 -2.796926498413085938e+01 1.526222995641007829e-13 -1.175942345886180074e-13 1.050842118671072717e-14 3.002406113848275424e-15
1.904000000000000000e+03 7.286522674560546875e+01 -2.783645248413085938e+01 3.202566521438160452e-14 -1.921539912862896271e-13 -4.803849782157240678e-14 -4.803849782157240678e-14
1.905000000000000000e+03 7.326924133300781250e+01 -2.737917327880859375e+01 2.361892690976030718e-13 -1.961571909677578551e-13 1.200962445539310169e-14 8.206576287668812530e-14
1.906000000000000000e+03 1.004470920562744141e+01 -3.374322509765625000e+01 -1.726383521815505473e-13 3.377706643027666988e-13 4.953969770212299228e-14 2.001604075898850282e-14
1.907000000000000000e+03 7.242411041259765625e+01 -2.417297172546386719e+01 3.302646513474866152e-14 -1.230986477031639770e-13 -2.702165375408505793e-14 -2.802245536851800944e-14
1.908000000000000000e+03 1.239316940307617188e+01 -9.933344841003417969e+00 9.107298248878237246e-14 6.795445824971102500e-13 2.311852694957677867e-13 -4.803849782157240678e-14
1.909000000000000000e+03 6.580328941345214844e+00 -2.147426033020019531e+01 1.671339390670045777e-13 -1.571259127582796955e-13 3.002406113848275424e-15 2.882309733769072846e-13
1.910000000000000000e+03 4.037270736694335938e+01 -2.960778236389160156e+01 2.001604075898850282e-15 1.381106736137241442e-13 4.203368474684290867e-14 4.203368474684290867e-14
1.911000000000000000e+03 7.376673126220703125e+01 -2.930764579772949219e+01 4.103288143834406265e-14 -2.111692168783180223e-13 -5.104090097080536681e-14 -4.803849782157240678e-14
1.912000000000000000e+03 7.246304321289062500e+01 -2.834976005554199219e+01 5.004010105043830980e-14 1.000802037949425141e-14 1.801443583605670529e-14 -4.953969770212299228e-14
1.913000000000000000e+03 3.747372055053710938e+01 -3.202900695800781250e+01 -1.080866150163402317e-13 6.805453688649501509e-14 -1.200962445539310169e-14 -3.602887167211341057e-14
1.914000000000000000e+03 1.302086067199707031e+01 -3.084882545471191406e+01 -7.005614350349270714e-14 6.905534087262021892e-13 1.861491782115601290e-13 -2.001604075898850282e-15
1.915000000000000000e+03 1.308488941192626953e+01 -3.253490829467773438e+01 -1.801443651368306309e-13 7.005614079298727592e-13 1.561251128379126385e-13 -6.605293026949732305e-14
1.916000000000000000e+03 4.086399459838867188e+01 -2.692761230468750000e+01 -6.204972381176551699e-14 4.203368474684290867e-14 -6.004812227696550847e-15 -8.807057595141762341e-14
1.917000000000000000e+03 7.226987457275390625e+01 -3.065614128112792969e+01 3.002405859738391247e-14 -1.000802037949425141e-14 6.004812227696550847e-15 4.603689120457471473e-14
1.918000000000000000e+03 6.851390838623046875e+01 -3.168044662475585938e+01 2.101684237342145434e-14 9.007217918028352643e-15 9.007217918028352643e-15 5.204170427930421283e-14
1.919000000000000000e+03 6.830101013183593750e+01 -3.398946762084960938e+01 3.402726844324750755e-14 -5.404330750817011586e-14 -6.004812227696550847e-15 1.601283260719080226e-14
1.920000000000000000e+03 4.049834823608398438e+01 -3.502824401855468750e+01 -6.567763029935967667e-15 -2.814755705262978608e-15 -2.814755705262978608e-15 4.878909776184769953e-15
1.921000000000000000e+03 8.333167076110839844e+00 -3.838957595825195312e+01 -1.439903833102759712e-13 2.127955201370462790e-13 2.064154070921791345e-14 9.707779556351187056e-14
1.922000000000000000e+03 8.604025840759277344e+00 -3.387054824829101562e+01 -8.206576287668812530e-14 2.622101212372551782e-13 5.404330750817011586e-14 2.061652172764827373e-13
1.923000000000000000e+03 7.206476593017578125e+01 -2.974907302856445312e+01 -2.001604075898850282e-15 -1.381106736137241442e-13 -4.203368474684290867e-14 2.201764398785440585e-14
1.924000000000000000e+03 6.999622344970703125e+01 -2.950527381896972656e+01 1.160930347080674219e-13 4.003208151797700565e-15 3.602887167211341057e-14 4.803849782157240678e-14
1.925000000000000000e+03 6.652256774902343750e+01 -3.609000396728515625e+01 -2.351884725653678038e-14 -2.151724233360498284e-14 -1.351082687704252897e-14 1.601283260719080226e-14
1.926000000000000000e+03 9.771060943603515625e+00 -3.219136810302734375e+01 -5.104090097080536681e-14 4.013216083238735354e-13 1.050842084789754827e-13 1.741395520621011328e-13
1.927000000000000000e+03 7.161733245849609375e+01 -3.196336364746093750e+01 1.000802037949425141e-14 5.004010105043830980e-14 1.801443583605670529e-14 6.405133042876320904e-14
1.928000000000000000e+03 3.824345397949218750e+01 -3.611276626586914062e+01 -2.001604075898850282e-15 2.201764398785440585e-14 6.004812227696550847e-15 2.502005052521915490e-14
1.929000000000000000e+03 7.007923126220703125e+01 -4.013023757934570312e+01 1.626303258728256651e-15 -6.292542713021848089e-14 -1.838973750026024617e-14 -1.576263093303314350e-14
1.930000000000000000e+03 7.131851196289062500e+01 -3.478821182250976562e+01 4.553649124439118623e-14 -1.406126869671689428e-13 -2.852285871683332696e-14 -3.202566521438160452e-14
1.931000000000000000e+03 1.135563087463378906e+01 -3.708198165893554688e+01 -1.956567910075743266e-13 4.308452737373374974e-13 7.055654346367623564e-14 2.502005052521915490e-14
1.932000000000000000e+03 7.182704925537109375e+01 -2.531227493286132812e+01 1.601283260719080226e-13 -1.601283260719080226e-13 0.000000000000000000e+00 6.004811719476782494e-14
1.933000000000000000e+03 9.673247337341308594e+00 -1.718463897705078125e+01 4.583673393100673454e-13 5.624507478686757711e-13 3.062454261536229350e-13 -2.742197473867141744e-13
1.934000000000000000e+03 1.350341320037841797e+01 -9.388404846191406250e+00 -9.707779556351187056e-14 5.074066167232160751e-13 1.230986477031639770e-13 1.521218996039172544e-13
1.935000000000000000e+03 1.125925636291503906e+01 -7.555777072906494141e+00 -2.481988952470620680e-13 3.282630515067525012e-13 2.401924891078620339e-14 -1.080866150163402317e-13
1.936000000000000000e+03 9.627316474914550781e+00 -7.480818748474121094e+00 -1.611291259922750796e-13 2.111692168783180223e-13 1.501202929869195624e-14 -4.215878405926243300e-13
1.937000000000000000e+03 1.328818225860595703e+01 -8.765727043151855469e+00 3.903127820947815962e-14 6.114900252818245008e-13 1.951563910473907981e-13 2.001604075898850282e-14
1.938000000000000000e+03 1.411902332305908203e+01 -9.284253120422363281e+00 -8.006416303595401129e-15 7.285838599102589797e-13 2.161732300326804634e-13 5.204170427930421283e-14
1.939000000000000000e+03 1.289187717437744141e+01 -8.181556701660156250e+00 -1.561251128379126385e-13 5.164138431115739003e-13 1.080866150163402317e-13 -1.100882216333379238e-13
1.940000000000000000e+03 8.587328910827636719e+00 -8.181219100952148438e+00 -5.329270756789482311e-14 2.759711404710929461e-13 6.680353698603619383e-14 -3.625405368707507181e-13
1.941000000000000000e+03 1.158915042877197266e+01 -1.054115962982177734e+01 8.006416303595401129e-14 5.604491480279416571e-13 1.921539912862896271e-13 -8.807057595141762341e-14
1.942000000000000000e+03 7.333625030517578125e+01 -2.479343795776367188e+01 -1.000802021008766196e-13 -1.801443651368306309e-13 -8.406736949368581735e-14 1.561251128379126385e-13
1.943000000000000000e+03 9.988872528076171875e+00 -1.001227474212646484e+01 2.101684169579509653e-13 5.704571472316122271e-13 2.341876692568689577e-13 -3.342678781340091554e-13
1.944000000000000000e+03 1.018190765380859375e+01 -2.192127609252929688e+01 3.462775042834681516e-13 8.346688683096015193e-13 3.542839036464046076e-13 1.321058605389946461e-13
1.945000000000000000e+03 1.493307018280029297e+01 -7.315141201019287109e+00 -5.204170427930421283e-14 2.522020949285302960e-13 6.004811719476782494e-14 3.602887167211341057e-14
1.946000000000000000e+03 1.406271553039550781e+01 -7.879049301147460938e+00 -2.602085213965210642e-14 4.463576860555540371e-13 1.261010474642651480e-13 1.080866150163402317e-13
1.947000000000000000e+03 6.405551433563232422e+00 -1.293691635131835938e+01 -3.202566521438160452e-14 3.202566521438160452e-14 0.000000000000000000e+00 -2.922341730583755126e-13
1.948000000000000000e+03 7.256118774414062500e+01 -2.490331077575683594e+01 8.907137587178468041e-14 -4.193360339955348737e-13 -9.907939540424598457e-14 -1.601283260719080226e-14
1.949000000000000000e+03 7.254336547851562500e+01 -2.578925895690917969e+01 7.005614350349270714e-14 3.002405859738391247e-14 3.002405859738391247e-14 1.601283260719080226e-14
1.950000000000000000e+03 7.921443939208984375e+00 -1.575073909759521484e+01 2.932350000837968818e-13 1.771419518232023038e-13 1.411130869273524713e-13 -2.757209608197919160e-13
1.951000000000000000e+03 1.038269233703613281e+01 -1.307310009002685547e+01 2.922341730583755126e-13 3.883111822540474822e-13 2.041636038832214672e-13 -1.901523778930283570e-13
1.952000000000000000e+03 7.459385395050048828e+00 -1.408696079254150391e+01 2.081668171172168513e-13 -4.803849782157240678e-14 4.803849782157240678e-14 -3.002405995263662808e-13
1.953000000000000000e+03 8.224653244018554688e+00 -2.376102638244628906e+01 1.010810020212436766e-13 4.093280076868099915e-13 1.531227130768114675e-13 1.321058605389946461e-13
1.954000000000000000e+03 1.154092121124267578e+01 -2.349555778503417969e+01 3.402726776562114974e-13 1.220978396512806263e-12 4.683753385137379155e-13 5.604491073703601889e-14
1.955000000000000000e+03 7.920936584472656250e+00 -1.684468650817871094e+01 3.097482123223804784e-13 1.356086738128065017e-13 1.336070739720723877e-13 -1.010810020212436766e-13
1.956000000000000000e+03 6.681900024414062500e+00 -1.000501728057861328e+01 -4.203368474684290867e-14 1.421138868477195283e-13 3.002405859738391247e-14 -3.322662782932750414e-13
1.957000000000000000e+03 8.997978210449218750e+00 -1.058813667297363281e+01 -5.354290754798658736e-14 3.888115686617038547e-13 1.005806020610601481e-13 -4.323464600653609269e-13
1.958000000000000000e+03 6.650340080261230469e+00 -1.164704799652099609e+01 -3.803047490097931360e-14 -6.204972381176551699e-14 -3.002405859738391247e-14 -3.682951296365977178e-13
1.959000000000000000e+03 6.679347515106201172e+00 -1.822700691223144531e+01 3.753007561842214290e-13 -2.051644173561156803e-13 5.104090097080536681e-14 -1.281026608575264181e-13
1.960000000000000000e+03 8.185579299926757812e+00 -1.794133377075195312e+01 4.123304345529654746e-13 2.682149478645118323e-13 2.041636038832214672e-13 -1.801443651368306309e-13
1.961000000000000000e+03 7.381031036376953125e+00 -1.261717891693115234e+01 -2.201764398785440585e-14 8.206576287668812530e-14 1.801443583605670529e-14 -4.283432603838926989e-13
1.962000000000000000e+03 8.528758049011230469e+00 -1.905355834960937500e+01 4.663737386730038015e-13 4.743801380359402575e-13 2.822261738547049426e-13 -1.581267126786467525e-13
1.963000000000000000e+03 7.787315368652343750e+00 -1.940492439270019531e+01 3.943159817762498243e-13 -1.401122768425900472e-14 1.140914348673333079e-13 -6.805453688649501509e-14
1.964000000000000000e+03 7.145855903625488281e+00 -2.715818595886230469e+01 -6.004811719476782494e-14 1.801443651368306309e-13 3.602887167211341057e-14 2.221780431074099615e-13
1.965000000000000000e+03 8.088233947753906250e+00 -2.454449653625488281e+01 2.241796429481440756e-13 4.163336342344337027e-13 1.921539912862896271e-13 1.361090737729900302e-13
1.966000000000000000e+03 9.160214424133300781e+00 -1.771012687683105469e+01 3.742999562638543720e-13 7.666143110943157701e-13 3.422742774969456114e-13 -2.902325867701685547e-14
1.967000000000000000e+03 9.084947586059570312e+00 -1.674884796142578125e+01 2.727185339536364328e-13 3.427746910096562960e-13 1.846479647784823874e-13 -9.507618725244828400e-15
1.968000000000000000e+03 9.983795166015625000e+00 -1.954244613647460938e+01 4.523625126828106913e-13 6.285036510331187820e-13 3.242598518252842732e-13 7.606094980195862720e-14
1.969000000000000000e+03 9.153203964233398438e+00 -1.860784339904785156e+01 2.882309733769072846e-13 6.725389559494865388e-13 2.882309733769072846e-13 -8.406736949368581735e-14
1.970000000000000000e+03 7.295994567871093750e+01 -2.956837654113769531e+01 8.006416303595401129e-15 -8.807057595141762341e-14 -2.401924891078620339e-14 -8.406736949368581735e-14
1.971000000000000000e+03 7.232783508300781250e+01 -2.744017028808593750e+01 -1.451162933850842773e-14 -2.807249604216272010e-13 -8.857097591160115191e-14 6.305052373213257400e-14
1.972000000000000000e+03 1.093653583526611328e+01 -2.191902923583984375e+01 2.942358000041639388e-13 7.666143110943157701e-13 3.182550251980276190e-13 7.606094980195862720e-14
1.973000000000000000e+03 9.457265853881835938e+00 -2.187854766845703125e+01 2.882309733769072846e-13 6.725389559494865388e-13 2.882309733769072846e-13 1.040834085586084257e-13
1.974000000000000000e+03 7.135840606689453125e+01 -3.094829177856445312e+01 9.407538902614712151e-14 -7.405934996122451319e-14 6.004812227696550847e-15 3.602887167211341057e-14
1.975000000000000000e+03 1.102243900299072266e+01 -1.175996494293212891e+01 1.751403519824681898e-13 7.155734338404329264e-13 2.672141479441447753e-13 -1.401122870069854143e-13
1.976000000000000000e+03 7.073639678955078125e+01 -2.913899803161621094e+01 1.321058605389946461e-13 1.481186999224490264e-13 8.406736949368581735e-14 -4.903929774193946378e-14
1.977000000000000000e+03 7.118742942810058594e+00 -1.344052982330322266e+01 2.061652172764827373e-13 1.341074739322559162e-13 1.020818019416107336e-13 -3.843079825725792542e-13
1.978000000000000000e+03 7.185319519042968750e+01 -2.795410537719726562e+01 -2.702165375408505793e-14 -3.032429992874674518e-13 -9.907939540424598457e-14 1.901523745048965680e-14
1.979000000000000000e+03 7.155569553375244141e+00 -2.568956184387207031e+01 8.056456299613753980e-14 3.547843171591152922e-13 1.306046606584440606e-13 2.121700303512122354e-13
1.980000000000000000e+03 1.230685997009277344e+01 -8.576504707336425781e+00 -9.207378240914942946e-14 5.324266418374468124e-13 1.321058605389946461e-13 -4.603689120457471473e-14
1.981000000000000000e+03 1.225095176696777344e+01 -1.093779563903808594e+01 2.662133209187234062e-13 7.546047120499110861e-13 3.062454261536229350e-13 -1.120898214740720378e-13
1.982000000000000000e+03 1.212915706634521484e+01 -9.426792144775390625e+00 -5.004010189747125706e-16 3.657931433882072314e-13 1.095878216731543953e-13 -3.202566521438160452e-14
1.983000000000000000e+03 1.172399044036865234e+01 -2.725588798522949219e+01 -1.030826086382413687e-13 5.734595740977677103e-13 1.411130869273524713e-13 2.001604075898850282e-14
1.984000000000000000e+03 1.123740577697753906e+01 -2.563296318054199219e+01 -4.803849782157240678e-14 8.486801214048489417e-13 2.401924687790712998e-13 1.361090737729900302e-13
1.985000000000000000e+03 8.112251281738281250e+00 -9.244981765747070312e+00 -6.204972381176551699e-14 2.021620040424873532e-13 4.203368474684290867e-14 -3.963175816169839383e-13
1.986000000000000000e+03 6.726070880889892578e+00 -8.446268081665039062e+00 -2.802245536851800944e-14 -1.200962445539310169e-14 -1.200962445539310169e-14 -4.003208084035064784e-13
1.987000000000000000e+03 7.030518054962158203e+00 -2.776967620849609375e+01 1.200962445539310169e-14 -1.321058605389946461e-13 -3.602887167211341057e-14 2.682149478645118323e-13
1.988000000000000000e+03 7.208329010009765625e+01 -2.894506454467773438e+01 9.607699564314481355e-14 2.241796429481440756e-13 9.607699564314481355e-14 -4.403528797570881170e-14
1.989000000000000000e+03 7.894115447998046875e+00 -1.018661689758300781e+01 -8.106496295632106830e-14 1.311050606186275891e-13 1.501202929869195624e-14 -4.293440603042597559e-13
1.990000000000000000e+03 9.468833923339843750e+00 -2.592700576782226562e+01 2.001604075898850282e-15 4.583673393100673454e-13 1.381106736137241442e-13 3.042437992078345088e-13
1.991000000000000000e+03 7.020046997070312500e+01 -3.029166793823242188e+01 5.804651735403371093e-14 2.001604075898850282e-15 1.801443583605670529e-14 1.000802037949425141e-14
1.992000000000000000e+03 1.192092037200927734e+01 -3.079832267761230469e+01 -1.621299259126421366e-13 6.625309025357073445e-13 1.501202997631831404e-13 0.000000000000000000e+00
1.993000000000000000e+03 8.535258293151855469e+00 -3.084109306335449219e+01 -9.807859548387892756e-14 2.782229470681824024e-13 5.404330750817011586e-14 2.602085213965210642e-13
1.994000000000000000e+03 1.184520530700683594e+01 -2.953650856018066406e+01 -1.030826086382413687e-13 5.734595740977677103e-13 1.411130869273524713e-13 1.200962445539310169e-14
1.995000000000000000e+03 7.088911437988281250e+01 -3.351192855834960938e+01 2.401924891078620339e-14 -1.040834085586084257e-13 -2.401924891078620339e-14 -4.003208151797700565e-15
1.996000000000000000e+03 1.232537651062011719e+01 -3.421435165405273438e+01 -2.054146105599438665e-13 4.280930536275373566e-13 6.680353698603619383e-14 -4.878909776184769953e-15
1.997000000000000000e+03 1.127815246582031250e+01 -3.310606765747070312e+01 -1.020818019416107336e-13 5.624507478686757711e-13 1.381106736137241442e-13 1.175942345886180074e-13
1.998000000000000000e+03 6.884239959716796875e+01 -3.787786102294921875e+01 2.502005094873562853e-15 1.251002526260957745e-14 4.503608959014176322e-15 4.603689120457471473e-14
1.999000000000000000e+03 7.292900085449218750e+01 -4.152378463745117188e+01 5.354290754798658736e-14 1.150922280114367868e-14 1.951563910473907981e-14 7.005613842129502361e-15
2.000000000000000000e+03 3.937740707397460938e+01 -3.333972549438476562e+01 -7.856295637913984775e-14 1.035830085984248972e-13 7.506014649345978118e-15 1.801443583605670529e-14
2.001000000000000000e+03 4.238063049316406250e+01 -4.132010650634765625e+01 2.502005094873562853e-15 1.251002526260957745e-14 4.503608959014176322e-15 -2.101684237342145434e-14
2.002000000000000000e+03 5.763079071044921875e+01 -4.137852478027343750e+01 -1.626303258728256651e-14 -4.128308141843582690e-14 -1.726383420171551802e-14 1.501202929869195624e-14
2.003000000000000000e+03 1.550295257568359375e+01 -3.787649917602539062e+01 -1.941555911270237411e-13 5.344282958882895507e-13 1.020818019416107336e-13 -5.004010189747125706e-16
2.004000000000000000e+03 7.593775177001953125e+01 -4.022374725341796875e+01 7.906335633932337625e-14 -1.491194998428160834e-13 -2.101684237342145434e-14 2.201764398785440585e-14
2.005000000000000000e+03 1.091708755493164062e+01 -1.053202819824218750e+01 1.541235129971785245e-13 3.863095824133133682e-13 1.621299259126421366e-13 -1.441154866884536423e-13
2.006000000000000000e+03 6.874203205108642578e+00 -1.277210903167724609e+01 3.402726844324750755e-14 1.060850151756061177e-13 4.203368474684290867e-14 -2.682149478645118323e-13
2.007000000000000000e+03 9.603272438049316406e+00 -1.520758438110351562e+01 2.196760433064923190e-13 4.058252215180524480e-13 1.876503780921107145e-13 -3.155028321932817903e-13
2.008000000000000000e+03 9.524750709533691406e+00 -1.419765567779541016e+01 2.902325732176413986e-13 6.505213034913026604e-13 2.822261738547049426e-13 -3.727987428307766304e-13
2.009000000000000000e+03 9.125567436218261719e+00 -8.766633033752441406e+00 -4.553649124439118623e-14 1.606287260320915511e-13 3.452766840343103605e-14 -3.704218464080366591e-13
2.010000000000000000e+03 1.028490543365478516e+01 -1.072959709167480469e+01 4.803849782157240678e-14 2.722181475459800604e-13 9.607699564314481355e-14 -3.142518255165593910e-13
2.011000000000000000e+03 8.264159202575683594e+00 -1.053299522399902344e+01 -1.504330514323637402e-13 1.185324895961598068e-13 -9.570169567300716718e-15 -5.089078030512395046e-13
2.012000000000000000e+03 7.966574192047119141e+00 -2.007243919372558594e+01 4.663737386730038015e-13 4.743801380359402575e-13 2.822261738547049426e-13 -1.561251128379126385e-13
2.013000000000000000e+03 1.178208541870117188e+01 -2.836222267150878906e+01 -8.807057595141762341e-14 8.086480161699494129e-13 2.161732300326804634e-13 4.003208151797700565e-14
2.014000000000000000e+03 9.979392051696777344e+00 -1.364898777008056641e+01 2.562053217150528361e-13 5.444362950919601207e-13 2.401924687790712998e-13 -1.751403519824681898e-13
2.015000000000000000e+03 9.642320632934570312e+00 -8.390292167663574219e+00 -3.152526186606628700e-14 3.067458125612793074e-13 8.256616283687165381e-14 -4.243400607024244708e-13
2.016000000000000000e+03 7.231499195098876953e+00 -1.730065536499023438e+01 3.002405995263662808e-13 6.004811719476782494e-14 1.080866150163402317e-13 -9.607699564314481355e-14
2.017000000000000000e+03 7.968658447265625000e+00 -2.532393646240234375e+01 2.101684169579509653e-13 4.103288347122313606e-13 1.861491782115601290e-13 3.082470259943570490e-13
2.018000000000000000e+03 1.058379745483398438e+01 -2.421681976318359375e+01 3.102486258350911630e-13 9.107298248878237246e-13 3.662935297958636038e-13 1.240994476235310340e-13
2.019000000000000000e+03 1.015827274322509766e+01 -2.010884666442871094e+01 3.522823038056704936e-13 9.287442776645393749e-13 3.843079825725792542e-13 1.281026608575264181e-13
2.020000000000000000e+03 7.447541236877441406e+00 -1.800462341308593750e+01 3.632911300347624328e-13 -7.305854326459387815e-14 8.706977603105056640e-14 -6.004811719476782494e-14
2.021000000000000000e+03 7.231008529663085938e+00 -1.078992652893066406e+01 1.060850151756061177e-13 -4.603689120457471473e-14 1.801443583605670529e-14 -2.962373998448980528e-13
2.022000000000000000e+03 7.590631961822509766e+00 -1.051526832580566406e+01 -1.114643249119744162e-13 2.203015466448535187e-13 3.265116516461101515e-14 -4.387265832746234384e-13
2.023000000000000000e+03 8.764198303222656250e+00 -2.178762245178222656e+01 2.742197473867141744e-13 3.462775042834681516e-13 1.861491782115601290e-13 6.805453688649501509e-14
2.024000000000000000e+03 9.961824417114257812e+00 -2.334293746948242188e+01 2.942358000041639388e-13 6.064859985749349036e-13 2.702165477052459464e-13 2.121700303512122354e-13
2.025000000000000000e+03 1.133399963378906250e+01 -1.114724445343017578e+01 1.263512542206204903e-13 5.116600502660939576e-13 1.914033845697507563e-13 -1.561251128379126385e-13
2.026000000000000000e+03 7.572736740112304688e+00 -1.872946357727050781e+01 4.133312344733325316e-13 1.771419518232023038e-13 1.771419518232023038e-13 -1.040834085586084257e-13
2.027000000000000000e+03 8.239665985107421875e+00 -1.852382659912109375e+01 4.223384337566360447e-13 3.182550251980276190e-13 2.221780431074099615e-13 -1.761411519028352468e-13
2.028000000000000000e+03 1.006655216217041016e+01 -1.211060810089111328e+01 1.671339390670045777e-13 4.833873644242980827e-13 1.951563910473907981e-13 -2.962373998448980528e-13
2.029000000000000000e+03 9.615336418151855469e+00 -1.903948974609375000e+01 5.304250419967126984e-13 8.106496160106835269e-13 4.023224082442405924e-13 9.007217918028352643e-15
2.030000000000000000e+03 6.566260337829589844e+00 -1.363143539428710938e+01 5.204170427930421283e-14 6.805453688649501509e-14 3.602887167211341057e-14 -2.962373998448980528e-13
2.031000000000000000e+03 1.086028099060058594e+01 -2.265323448181152344e+01 3.162534253572935050e-13 1.004805180032652956e-12 3.963175816169839383e-13 7.606094980195862720e-14
2.032000000000000000e+03 1.177239513397216797e+01 -9.886692047119140625e+00 8.306656957331876034e-14 4.473584859759210941e-13 1.591275125990138095e-13 -1.000802021008766196e-13
2.033000000000000000e+03 1.172590923309326172e+01 -8.918900489807128906e+00 -4.303448466720996568e-14 3.933151818558827673e-13 1.050842084789754827e-13 -1.561251128379126385e-13
2.034000000000000000e+03 8.444961547851562500e+00 -2.641259384155273438e+01 9.107298248878237246e-14 3.592879303532942048e-13 1.351082738526229732e-13 2.441956955655938399e-13
2.035000000000000000e+03 7.922642230987548828e+00 -1.469042491912841797e+01 1.065854151357896462e-13 1.686351389475551632e-13 8.256616283687165381e-14 -2.672141479441447753e-13
2.036000000000000000e+03 1.135456848144531250e+01 -2.430598831176757812e+01 1.521218996039172544e-13 1.048840484949020713e-12 3.602887302736612618e-13 6.805453688649501509e-14
2.037000000000000000e+03 7.136254882812500000e+01 -2.857203102111816406e+01 9.945469876251541996e-14 -3.127506315652394363e-15 2.889815868697097334e-14 3.102486190588275849e-14
2.038000000000000000e+03 9.044251441955566406e+00 -9.709074974060058594e+00 4.003208151797700565e-14 5.204170427930421283e-13 1.681347389873716347e-13 -3.057450126409122504e-13
2.039000000000000000e+03 6.944149017333984375e+01 -3.146568298339843750e+01 7.606094980195862720e-14 -3.602887167211341057e-14 1.200962445539310169e-14 4.003208151797700565e-15
2.040000000000000000e+03 1.061195850372314453e+01 -2.580476379394531250e+01 3.502807039649363796e-13 7.906335633932337625e-13 3.422742774969456114e-13 1.681347389873716347e-13
2.041000000000000000e+03 1.116816711425781250e+01 -2.502514076232910156e+01 1.701363388281057487e-13 1.010810033764963922e-12 3.542839036464046076e-13 4.003208151797700565e-14
2.042000000000000000e+03 7.634172439575195312e+00 -2.762065887451171875e+01 -6.004812227696550847e-15 2.261812563414053456e-13 6.605293026949732305e-14 8.006416303595401129e-14
2.043000000000000000e+03 9.191110610961914062e+00 -2.322505187988281250e+01 2.341876692568689577e-13 6.265020511923846680e-13 2.582069215557869502e-13 1.160930347080674219e-13
2.044000000000000000e+03 7.112136840820312500e+01 -2.998624801635742188e+01 2.401924891078620339e-14 5.604491073703601889e-14 2.401924891078620339e-14 5.204170427930421283e-14
2.045000000000000000e+03 8.179066658020019531e+00 -1.129692554473876953e+01 2.001604075898850282e-15 4.583673393100673454e-13 1.381106736137241442e-13 -3.042437992078345088e-13
2.046000000000000000e+03 8.125271797180175781e+00 -2.168677711486816406e+01 2.321860694161348437e-13 8.006416303595401129e-15 7.205774334422682115e-14 5.604491073703601889e-14
2.047000000000000000e+03 7.366096496582031250e+00 -2.115307044982910156e+01 8.206576287668812530e-14 -1.020818019416107336e-13 -6.004812227696550847e-15 -2.802245536851800944e-14
2.048000000000000000e+03 1.074393081665039062e+01 -2.952491378784179688e+01 -8.606896933441993136e-14 6.265020511923846680e-13 1.621299259126421366e-13 1.421138868477195283e-13
2.049000000000000000e+03 9.582801818847656250e+00 -2.945928001403808594e+01 -4.403528797570881170e-14 4.843881914497194519e-13 1.321058605389946461e-13 2.401924687790712998e-13
2.050000000000000000e+03 9.702239990234375000e+00 -2.822006416320800781e+01 -6.004811719476782494e-14 4.203368339159019307e-13 1.080866150163402317e-13 1.961571909677578551e-13
2.051000000000000000e+03 1.187316608428955078e+01 -3.209273910522460938e+01 -1.571259127582796955e-13 5.274226693406658395e-13 1.110890215537049808e-13 9.607699564314481355e-14
2.052000000000000000e+03 9.021532058715820312e+00 -1.472466850280761719e+01 3.282630515067525012e-13 3.122502256758252770e-13 1.921539912862896271e-13 -1.909029846095672278e-13
2.053000000000000000e+03 8.958470344543457031e+00 -1.372595882415771484e+01 2.101684169579509653e-13 4.903929909719217939e-13 2.101684169579509653e-13 -1.881507780522942430e-13
2.054000000000000000e+03 1.022831249237060547e+01 -2.068203735351562500e+01 4.563657394693332314e-13 7.445967128462405160e-13 3.602887302736612618e-13 -2.401924891078620339e-14
2.055000000000000000e+03 9.579792022705078125e+00 -2.024283218383789062e+01 5.204170427930421283e-13 6.805453553124229948e-13 3.602887302736612618e-13 6.405133042876320904e-14
2.056000000000000000e+03 1.013704967498779297e+01 -9.014713287353515625e+00 -7.005613842129502361e-15 3.172542252776605620e-13 9.307458910578006450e-14 -2.882309733769072846e-13
2.057000000000000000e+03 8.970324516296386719e+00 -1.949186706542968750e+01 3.813055557064237711e-13 6.495204764658812913e-13 3.092478259147241060e-13 -1.170938346284344789e-13
2.058000000000000000e+03 9.584121704101562500e+00 -9.369114875793457031e+00 -4.403528797570881170e-14 3.242598518252842732e-13 8.406736949368581735e-14 -2.977385861729214822e-13
2.059000000000000000e+03 8.791370391845703125e+00 -1.276113414764404297e+01 2.465725919883338113e-13 3.801796659604061990e-13 1.880256746741165719e-13 -1.681347389873716347e-13
2.060000000000000000e+03 8.426812171936035156e+00 -1.325434875488281250e+01 2.707169341129023188e-13 3.447762908503904100e-13 1.846479647784823874e-13 -3.582871304329271478e-13
2.061000000000000000e+03 8.478281974792480469e+00 -1.524126625061035156e+01 2.095429136195897657e-13 3.021171095414498797e-13 1.534980096588173248e-13 -2.743448372123646894e-13
2.062000000000000000e+03 9.059850692749023438e+00 -1.574370002746582031e+01 3.182550251980276190e-13 5.024025900163264780e-13 2.461972954063279539e-13 -1.801443651368306309e-13
2.063000000000000000e+03 8.337471008300781250e+00 -2.051930809020996094e+01 4.533633126031777483e-13 3.773023560249555430e-13 2.491996951674291250e-13 1.601283260719080226e-14
2.064000000000000000e+03 9.033910751342773438e+00 -2.397480583190917969e+01 2.512012950081632390e-13 5.194162157676207592e-13 2.311852694957677867e-13 1.801443651368306309e-13
2.065000000000000000e+03 8.886060714721679688e+00 -2.478347015380859375e+01 1.781427517435693608e-13 4.423544863740858091e-13 1.861491782115601290e-13 2.922341730583755126e-13
2.066000000000000000e+03 8.703626632690429688e+00 -2.561309051513671875e+01 1.851483647386659159e-13 4.453568861351869801e-13 1.891515779726613000e-13 1.561251128379126385e-13
2.067000000000000000e+03 7.640400886535644531e+00 -1.127871036529541016e+01 2.001604075898850282e-14 1.000802021008766196e-13 3.602887167211341057e-14 -3.763015561045884860e-13
2.068000000000000000e+03 7.440568447113037109e+00 -1.190867519378662109e+01 1.060850151756061177e-13 2.742197473867141744e-13 1.140914348673333079e-13 -3.242598518252842732e-13
2.069000000000000000e+03 8.551439285278320312e+00 -1.180567359924316406e+01 -8.006416303595401129e-15 8.807057595141762341e-14 2.401924891078620339e-14 -2.301844695754007297e-13
2.070000000000000000e+03 8.730530738830566406e+00 -1.819761657714843750e+01 3.940658021249487941e-13 1.688853321513833494e-13 1.688853321513833494e-13 -1.301042606982605321e-13
2.071000000000000000e+03 9.343451499938964844e+00 -2.252915382385253906e+01 3.062454261536229350e-13 6.345084505553211240e-13 2.822261738547049426e-13 5.604491073703601889e-14
2.072000000000000000e+03 8.651636123657226562e+00 -9.129823684692382812e+00 -7.205774334422682115e-14 1.521218996039172544e-13 2.401924891078620339e-14 -2.041636038832214672e-13
2.073000000000000000e+03 1.073773956298828125e+01 -2.342235565185546875e+01 1.841475648182988589e-13 8.566865207677853977e-13 3.122502256758252770e-13 9.207378240914942946e-14
2.074000000000000000e+03 1.080492210388183594e+01 -2.732397651672363281e+01 -2.001604075898850282e-15 6.625309025357073445e-13 1.981587908084919691e-13 1.080866150163402317e-13
2.075000000000000000e+03 7.568610191345214844e+00 -2.180712127685546875e+01 1.511210996835501974e-13 1.901523745048965680e-14 5.104090097080536681e-14 1.281026608575264181e-13
2.076000000000000000e+03 8.630190849304199219e+00 -2.239562988281250000e+01 2.782229470681824024e-13 4.623705389915355735e-13 2.221780431074099615e-13 1.481186999224490264e-13
2.077000000000000000e+03 7.460096359252929688e+00 -2.662832641601562500e+01 1.200962445539310169e-14 1.881507780522942430e-13 6.004811719476782494e-14 1.961571909677578551e-13
2.078000000000000000e+03 8.093111991882324219e+00 -2.711517906188964844e+01 1.025822086780578402e-13 2.727185339536364328e-13 1.125902282105191443e-13 2.712173476256130034e-13
2.079000000000000000e+03 9.745815277099609375e+00 -1.267842102050781250e+01 2.602085213965210642e-14 4.343480599060950409e-13 1.381106736137241442e-13 -3.282630515067525012e-13
2.080000000000000000e+03 8.110385894775390625e+00 -9.792937278747558594e+00 5.004010105043830980e-14 -7.005614350349270714e-14 -6.004812227696550847e-15 -4.083272077664429345e-13
2.081000000000000000e+03 8.421016693115234375e+00 -2.951574325561523438e+01 -3.903127820947815962e-14 1.891515779726613000e-13 4.503609128420765773e-14 1.381106736137241442e-13
2.082000000000000000e+03 9.654274940490722656e+00 -3.080355644226074219e+01 -1.170938346284344789e-13 2.471980953266950110e-13 3.903127820947815962e-14 1.240994476235310340e-13
2.083000000000000000e+03 8.845789909362792969e+00 -2.121305847167968750e+01 3.002405995263662808e-13 2.201764432666758475e-13 1.561251128379126385e-13 -3.202566521438160452e-14
2.084000000000000000e+03 1.078911209106445312e+01 -3.077012634277343750e+01 -1.471179000020819694e-13 4.173344341548007597e-13 8.106496295632106830e-14 1.401122870069854143e-13
2.085000000000000000e+03 1.075908374786376953e+01 -2.836107254028320312e+01 -7.405934996122451319e-14 4.943961906533900219e-13 1.261010474642651480e-13 1.801443651368306309e-13
2.086000000000000000e+03 1.080722332000732422e+01 -2.647490310668945312e+01 1.601283260719080226e-14 7.846287638710314205e-13 2.401924687790712998e-13 1.281026608575264181e-13
2.087000000000000000e+03 1.078061676025390625e+01 -3.526401901245117188e+01 -1.020818019416107336e-13 4.823865916089853378e-13 1.140914348673333079e-13 1.045838085187919542e-13
2.088000000000000000e+03 1.060554409027099609e+01 -9.736305236816406250e+00 7.405934996122451319e-14 4.663737386730038015e-13 1.621299259126421366e-13 -2.722181475459800604e-13
2.089000000000000000e+03 7.922906398773193359e+00 -1.282201290130615234e+01 1.306046606584440606e-13 -3.552847171192988207e-14 2.852285871683332696e-14 -2.361892690976030718e-13
2.090000000000000000e+03 8.475392341613769531e+00 -1.421996974945068359e+01 1.465236623438698205e-13 2.885124593659388337e-13 1.305108365129425962e-13 -3.443227961866940356e-13
2.091000000000000000e+03 9.377429962158203125e+00 -1.321059894561767578e+01 2.542037218743187221e-13 6.465181038098344324e-13 2.702165477052459464e-13 -3.793039558656896570e-13
2.092000000000000000e+03 9.446984291076660156e+00 -1.027302074432373047e+01 -5.404330750817011586e-14 3.542839036464046076e-13 9.007218256841531545e-14 -2.261812563414053456e-13
2.093000000000000000e+03 9.721472740173339844e+00 -1.131260776519775391e+01 1.220978477827969200e-13 4.183352340751678167e-13 1.621299259126421366e-13 -2.562053217150528361e-13
2.094000000000000000e+03 9.681410789489746094e+00 -2.500517654418945312e+01 2.522020949285302960e-13 7.485999125277087440e-13 3.002405995263662808e-13 2.522020949285302960e-13
2.095000000000000000e+03 9.816955566406250000e+00 -2.412777137756347656e+01 1.621299259126421366e-13 6.184956518294482120e-13 2.341876692568689577e-13 1.921539912862896271e-13
2.096000000000000000e+03 9.576874732971191406e+00 -2.073269271850585938e+01 2.882309733769072846e-13 3.522823038056704936e-13 1.921539912862896271e-13 7.205774334422682115e-14
2.097000000000000000e+03 9.320390701293945312e+00 -1.103122043609619141e+01 -1.736391521019176043e-13 1.085870149765237602e-13 -1.951563910473907981e-14 -3.682951296365977178e-13
2.098000000000000000e+03 8.978009223937988281e+00 -1.140280818939208984e+01 1.361090737729900302e-13 2.642117210779892922e-13 1.200962343895356499e-13 -3.012413994467333378e-13
2.099000000000000000e+03 9.716596603393554688e+00 -1.081367683410644531e+01 1.961571909677578551e-13 4.043240080849747065e-13 1.801443651368306309e-13 -3.883111822540474822e-13
2.100000000000000000e+03 8.593309402465820312e+00 -2.000166511535644531e+01 5.124106434301056723e-13 1.281026608575264181e-13 1.921539912862896271e-13 1.601283260719080226e-14
2.101000000000000000e+03 8.131547927856445312e+00 -2.109005355834960938e+01 1.941555911270237411e-13 -5.404330750817011586e-14 4.203368474684290867e-14 8.807057595141762341e-14
2.102000000000000000e+03 9.947432518005371094e+00 -2.717525100708007812e+01 4.003208151797700565e-14 5.204170427930421283e-13 1.681347389873716347e-13 2.181748434259417335e-13
2.103000000000000000e+03 9.472024917602539062e+00 -1.179197025299072266e+01 1.586271126388302810e-13 2.967377862525544252e-13 1.366094737331735587e-13 -3.482791041242022656e-13
2.104000000000000000e+03 8.173634529113769531e+00 -1.229125690460205078e+01 4.628709118466647898e-14 1.113392215337967450e-13 4.728789449316532501e-14 -3.082470259943570490e-13
2.105000000000000000e+03 8.788582801818847656e+00 -2.774864387512207031e+01 5.829671733412547519e-14 4.596183459867897447e-13 1.553745061213737677e-13 2.001604042017532392e-13
2.106000000000000000e+03 9.170637130737304688e+00 -2.683113479614257812e+01 2.802245536851800944e-14 4.923945908126559079e-13 1.561251128379126385e-13 1.361090737729900302e-13
2.107000000000000000e+03 3.778719329833984375e+01 -4.127772903442382812e+01 4.428548795580057595e-14 5.329270756789482311e-14 2.927345865710861972e-14 3.102486190588275849e-14
2.108000000000000000e+03 1.023918724060058594e+01 -3.976271438598632812e+01 -1.835611605207829178e-13 2.455639858123248587e-13 1.860084352170443545e-14 5.149243729432768923e-14
2.109000000000000000e+03 6.855284118652343750e+01 -1.845004272460937500e+01 1.060850151756061177e-13 3.402726844324750755e-14 4.203368474684290867e-14 -4.103288143834406265e-14
2.110000000000000000e+03 3.565871429443359375e+01 -1.282175827026367188e+01 2.802245536851800944e-14 1.200962445539310169e-14 1.200962445539310169e-14 -1.200962343895356499e-13
2.111000000000000000e+03 3.484213256835937500e+01 -1.454675960540771484e+01 -6.004811719476782494e-14 2.001604075898850282e-14 -1.200962445539310169e-14 -1.000802037949425141e-14
2.112000000000000000e+03 4.553770446777343750e+01 -1.918804550170898438e+01 4.683753385137379155e-13 2.922341730583755126e-13 2.281828697346666157e-13 -4.083272077664429345e-13
2.113000000000000000e+03 5.323603057861328125e+01 -4.123931503295898438e+01 -2.902325867701685547e-14 -1.000802037949425141e-15 -9.007217918028352643e-15 -7.005613842129502361e-15
2.114000000000000000e+03 2.239144325256347656e+01 -2.753838777542114258e+00 1.381106736137241442e-13 -7.806255641895631925e-14 1.801443583605670529e-14 2.842277736954390566e-13
2.115000000000000000e+03 7.793113708496093750e+01 -3.962542724609375000e+01 3.152526186606628700e-14 -3.067458125612793074e-13 -8.256616283687165381e-14 4.403528797570881170e-14
2.116000000000000000e+03 7.784739685058593750e+01 -3.844721984863281250e+01 2.401924891078620339e-14 -2.642117210779892922e-13 -7.205774334422682115e-14 2.401924891078620339e-14
2.117000000000000000e+03 2.017202758789062500e+01 -9.216366767883300781e+00 2.081668171172168513e-13 2.722181475459800604e-13 1.441154866884536423e-13 5.244202424745103563e-13
2.118000000000000000e+03 1.838742375373840332e+00 -6.844525337219238281e+00 6.004812227696550847e-15 -2.261812563414053456e-13 -6.605293026949732305e-14 -3.763015561045884860e-13
2.119000000000000000e+03 1.847262382507324219e+01 -1.028283691406250000e+01 5.244202424745103563e-13 3.162534253572935050e-13 2.522020949285302960e-13 4.483592858962881511e-13
2.120000000000000000e+03 1.840822601318359375e+01 -9.636084556579589844e+00 2.942358000041639388e-13 4.463576860555540371e-13 2.221780431074099615e-13 3.682951296365977178e-13
2.121000000000000000e+03 1.978089714050292969e+01 -8.526609420776367188e+00 4.203368339159019307e-13 5.004009901755923639e-13 2.762213472274482884e-13 4.203368339159019307e-13
2.122000000000000000e+03 4.294415664672851562e+01 -2.363624763488769531e+01 -1.401122768425900472e-14 4.743801380359402575e-13 1.381106736137241442e-13 1.140914348673333079e-13
2.123000000000000000e+03 4.252724075317382812e+01 -2.274675559997558594e+01 4.003208151797700565e-14 3.602887302736612618e-13 1.200962343895356499e-13 9.207378240914942946e-14
2.124000000000000000e+03 4.039282608032226562e+01 -3.219052886962890625e+01 5.004010189747125706e-16 1.145918348275168364e-13 3.452766840343103605e-14 -3.202566521438160452e-14
2.125000000000000000e+03 1.085753536224365234e+01 -3.200289535522460938e+01 -1.501202997631831404e-13 5.304250419967126984e-13 1.140914348673333079e-13 7.806255641895631925e-14
2.126000000000000000e+03 2.833395767211914062e+01 -3.357376098632812500e+01 1.251002526260957745e-14 3.027426128798110794e-13 9.457578898633065001e-14 -5.804651735403371093e-14
2.127000000000000000e+03 2.785297775268554688e+01 -3.266847610473632812e+01 1.347329637180899597e-13 1.492446032209937545e-13 8.519327279223054550e-14 -1.205966479022463345e-13
2.128000000000000000e+03 4.206123733520507812e+01 -2.470009231567382812e+01 1.140914348673333079e-13 1.861491782115601290e-13 9.007218256841531545e-14 1.180946345488015359e-13
2.129000000000000000e+03 4.287264633178710938e+01 -2.755259132385253906e+01 -6.355093046857968053e-14 1.851483749030612830e-14 -1.351082687704252897e-14 -1.321058605389946461e-13
2.130000000000000000e+03 1.166136646270751953e+01 -2.043978500366210938e+01 4.903929909719217939e-13 1.170938346284344789e-12 4.983993903348582499e-13 -4.003208151797700565e-14
2.131000000000000000e+03 7.265730285644531250e+01 -2.139661407470703125e+01 1.291034607778934751e-13 1.411130869273524713e-13 8.106496295632106830e-14 0.000000000000000000e+00
2.132000000000000000e+03 1.511358356475830078e+01 -2.878214454650878906e+01 -6.380113044867144478e-14 8.419246745085262607e-13 2.334370760928572430e-13 -2.161732300326804634e-13
2.133000000000000000e+03 1.941545295715332031e+01 -3.665724277496337891e+00 -1.461170865291877563e-13 1.661331391466375207e-13 6.004812227696550847e-15 2.321860694161348437e-13
2.134000000000000000e+03 1.822202491760253906e+01 -8.251598358154296875e+00 1.701363388281057487e-13 3.702967294773318319e-13 1.621299259126421366e-13 3.763015561045884860e-13
2.135000000000000000e+03 1.765904045104980469e+01 -8.965239524841308594e+00 2.722181475459800604e-13 5.284234421559785844e-13 2.401924687790712998e-13 3.602887302736612618e-13
2.136000000000000000e+03 3.770076370239257812e+01 -1.760813713073730469e+01 -7.806255641895631925e-14 5.804651735403371093e-14 -6.004812227696550847e-15 9.607699564314481355e-14
2.137000000000000000e+03 6.841703033447265625e+01 -2.783514595031738281e+01 5.179150429921244858e-14 2.009109973657649539e-13 7.581074982186686295e-14 6.880513852083620235e-15
2.138000000000000000e+03 4.182793807983398438e+01 -2.742801284790039062e+01 6.705373696612795809e-14 -3.372702778951103264e-13 -8.106496295632106830e-14 -1.661331391466375207e-13
2.139000000000000000e+03 6.962024688720703125e+01 -2.583348083496093750e+01 9.207378240914942946e-14 -5.204170427930421283e-14 1.200962445539310169e-14 -3.452766840343103605e-14
2.140000000000000000e+03 6.768423461914062500e+01 -3.221992874145507812e+01 1.157959226552249254e-13 -1.899960122228334242e-14 2.903889490522316985e-14 3.778027492088754935e-14
2.141000000000000000e+03 1.868617630004882812e+01 -4.332175254821777344e+00 -8.807057595141762341e-14 8.006416303595401129e-15 -2.401924891078620339e-14 2.562053217150528361e-13
2.142000000000000000e+03 1.690625953674316406e+01 -8.290169715881347656e+00 1.761411519028352468e-13 6.245004513516505540e-13 2.401924687790712998e-13 2.602085213965210642e-13
2.143000000000000000e+03 3.890105056762695312e+01 -2.033585548400878906e+01 -3.402726844324750755e-14 2.141716301919463494e-13 5.404330750817011586e-14 -1.200962445539310169e-14
2.144000000000000000e+03 3.780795669555664062e+01 -2.785061264038085938e+01 -7.706175649858926224e-14 1.271018609371593611e-13 1.501202929869195624e-14 -3.202566521438160452e-14
2.145000000000000000e+03 3.803418350219726562e+01 -2.517894935607910156e+01 -6.405133042876320904e-14 6.405133042876320904e-14 0.000000000000000000e+00 8.006416303595401129e-14
2.146000000000000000e+03 1.204312992095947266e+01 -1.151444244384765625e+01 1.531227130768114675e-13 7.976391899408574737e-13 2.852285736158061136e-13 -2.001604075898850282e-14
2.147000000000000000e+03 1.480508232116699219e+01 -2.616420173645019531e+01 -2.201764398785440585e-14 1.122899841686508804e-12 3.302646513474866152e-13 -3.592879303532942048e-13
2.148000000000000000e+03 7.666410064697265625e+01 -3.239024734497070312e+01 -1.301042606982605321e-13 -3.302646513474866152e-13 -1.381106736137241442e-13 2.802245536851800944e-14
2.149000000000000000e+03 1.682379722595214844e+01 -7.045441627502441406e+00 8.006416303595401129e-15 2.321860694161348437e-13 7.205774334422682115e-14 1.961571909677578551e-13
2.150000000000000000e+03 1.631487655639648438e+01 -6.914367198944091797e+00 -4.103288143834406265e-14 5.314258690221340675e-13 1.471179000020819694e-13 7.205774334422682115e-14
2.151000000000000000e+03 3.565995025634765625e+01 -2.802378082275390625e+01 -1.160930347080674219e-13 3.162534253572935050e-13 6.004811719476782494e-14 1.120898214740720378e-13
2.152000000000000000e+03 1.504164028167724609e+01 -6.591802597045898438e+00 -1.941555911270237411e-13 3.742999562638543720e-13 5.404330750817011586e-14 4.003208151797700565e-15
2.153000000000000000e+03 6.958640289306640625e+01 -2.788274955749511719e+01 -9.757819552369539906e-15 1.373600804497124295e-13 3.828067826920286687e-14 -2.927345865710861972e-14
2.154000000000000000e+03 7.017430877685546875e+01 -2.847053527832031250e+01 6.861748853576737917e-14 1.334194121285423029e-13 6.061106884404018902e-14 5.075942514616918477e-14
2.155000000000000000e+03 1.023072433471679688e+01 -2.128070259094238281e+01 1.180946345488015359e-13 4.623705389915355735e-13 1.741395520621011328e-13 8.406736949368581735e-14
2.156000000000000000e+03 6.884236812591552734e+00 -1.670590400695800781e+01 2.582069215557869502e-13 -3.803047490097931360e-14 6.605293026949732305e-14 -1.020818019416107336e-13
2.157000000000000000e+03 7.244856262207031250e+01 -2.532761573791503906e+01 1.180946345488015359e-13 -1.781427517435693608e-13 -1.801443583605670529e-14 -1.040834085586084257e-13
2.158000000000000000e+03 7.576367950439453125e+01 -2.254530906677246094e+01 -1.301042606982605321e-14 -4.173344341548007597e-13 -1.291034607778934751e-13 2.642117210779892922e-13
2.159000000000000000e+03 1.030536842346191406e+01 -1.146231651306152344e+01 1.220978477827969200e-13 4.183352340751678167e-13 1.621299259126421366e-13 -3.642919299551294898e-13
2.160000000000000000e+03 7.283220672607421875e+01 -2.616874885559082031e+01 -1.084306391419334603e-13 -3.597570375282743704e-13 -1.404563043563150648e-13 3.505934420815898234e-14
2.161000000000000000e+03 1.651772880554199219e+01 -5.931632995605468750e+00 -1.681347389873716347e-13 2.481988952470620680e-13 2.401924891078620339e-14 6.805453688649501509e-14
2.162000000000000000e+03 7.762145519256591797e+00 -2.602745628356933594e+01 -9.007217918028352643e-15 1.791435652164635739e-13 5.104090097080536681e-14 2.041636038832214672e-13
2.163000000000000000e+03 1.744157981872558594e+01 -5.161150932312011719e+00 -2.962373998448980528e-13 3.763015561045884860e-13 2.401924891078620339e-14 1.441154866884536423e-13
2.164000000000000000e+03 6.821109771728515625e+00 -2.618907546997070312e+01 1.601283260719080226e-13 0.000000000000000000e+00 4.803849782157240678e-14 3.122502256758252770e-13
2.165000000000000000e+03 7.415642738342285156e+00 -7.750545978546142578e+00 -1.441154866884536423e-13 -1.601283260719080226e-14 -4.803849782157240678e-14 -4.163336342344337027e-13
2.166000000000000000e+03 1.143092727661132812e+01 -6.901648521423339844e+00 -2.642117210779892922e-13 3.442758773376797254e-13 2.401924891078620339e-14 -1.841475648182988589e-13
2.167000000000000000e+03 9.095730781555175781e+00 -2.021000480651855469e+01 3.402726776562114974e-13 4.203368339159019307e-13 2.281828697346666157e-13 -1.601283260719080226e-14
2.168000000000000000e+03 8.957028388977050781e+00 -2.068433380126953125e+01 3.602887302736612618e-13 2.001604042017532392e-13 1.681347389873716347e-13 -3.202566521438160452e-14
2.169000000000000000e+03 1.082205677032470703e+01 -6.710960865020751953e+00 -1.581267126786467525e-13 2.982389996856321668e-13 4.203368474684290867e-14 -2.602085213965210642e-13
2.170000000000000000e+03 5.199506282806396484e+00 -1.208619689941406250e+01 8.006416303595401129e-15 -4.083272077664429345e-13 -1.200962343895356499e-13 -2.842277736954390566e-13
2.171000000000000000e+03 7.585306644439697266e+00 -9.809486389160156250e+00 2.602085213965210642e-14 1.941555911270237411e-13 6.605293026949732305e-14 -3.122502256758252770e-13
2.172000000000000000e+03 8.606518745422363281e+00 -1.011285972595214844e+01 -1.501203056924137712e-15 1.366094737331735587e-13 4.053248147816053415e-14 -2.509511153568622088e-13
2.173000000000000000e+03 8.179052352905273438e+00 -8.658747673034667969e+00 6.805453688649501509e-14 5.204170427930421283e-14 3.602887167211341057e-14 -4.083272077664429345e-13
2.174000000000000000e+03 8.605751037597656250e+00 -1.095567512512207031e+01 4.903929774193946378e-14 2.101684237342145434e-14 2.101684237342145434e-14 -3.722983564231202580e-13
2.175000000000000000e+03 7.918486118316650391e+00 -1.087715148925781250e+01 -1.253504543002534333e-13 3.778027492088754935e-14 -2.627105211974387067e-14 -3.632911300347624328e-13
2.176000000000000000e+03 4.596868133544921875e+01 -1.881017112731933594e+01 -9.607699564314481355e-14 -2.241796429481440756e-13 -9.607699564314481355e-14 5.404330750817011586e-14
2.177000000000000000e+03 4.577662277221679688e+01 -1.873028373718261719e+01 -2.401924687790712998e-13 8.006416303595401129e-14 -4.803849782157240678e-14 -2.081668171172168513e-13
2.178000000000000000e+03 4.565681076049804688e+01 -1.795705032348632812e+01 2.902325732176413986e-13 2.502004950877961820e-13 1.621299259126421366e-13 1.100882199392720293e-14
2.179000000000000000e+03 4.612861251831054688e+01 -1.799179267883300781e+01 0.000000000000000000e+00 0.000000000000000000e+00 0.000000000000000000e+00 2.001604075898850282e-14
2.180000000000000000e+03 4.519095230102539062e+01 -1.723728561401367188e+01 -2.602085213965210642e-14 1.261010474642651480e-13 3.002405859738391247e-14 -7.556054984177509870e-14
2.181000000000000000e+03 4.474343872070312500e+01 -1.782687568664550781e+01 2.263689046324082743e-13 9.701524387442303499e-14 9.701524387442303499e-14 -2.154226368686687487e-13
2.182000000000000000e+03 4.538544845581054688e+01 -1.842252540588378906e+01 -1.851483749030612830e-14 8.356696953350228885e-14 1.951563910473907981e-14 -5.804651735403371093e-14
2.183000000000000000e+03 3.076944351196289062e+01 2.197463363409042358e-01 -6.004812227696550847e-15 6.605293026949732305e-14 1.801443583605670529e-14 8.406736949368581735e-14
2.184000000000000000e+03 3.157707214355468750e+01 4.006700515747070312e-01 -1.200962445539310169e-14 5.204170427930421283e-14 1.200962445539310169e-14 5.004010189747125706e-15
2.185000000000000000e+03 2.943070983886718750e+01 -1.807815581560134888e-02 4.023224028232297300e-12 2.602085213965210642e-13 1.285029808256732409e-12 6.004811990527325616e-13
2.186000000000000000e+03 3.005992698669433594e+01 7.714240252971649170e-02 1.212971997149869807e-12 -2.121700303512122354e-13 3.002405995263662808e-13 9.207378783016029189e-13
2.187000000000000000e+03 2.868580818176269531e+01 -3.005816042423248291e-02 4.851887988599479229e-12 -2.081668171172168513e-13 1.393116416496809062e-12 8.326672684688674053e-13
2.188000000000000000e+03 2.709774398803710938e+01 -1.275485605001449585e-01 4.989998865501110714e-12 3.402726844324750755e-14 1.507207770048979434e-12 1.521218996039172544e-13
2.189000000000000000e+03 2.691395378112792969e+01 8.000384569168090820e-01 -4.499605982949406169e-12 -4.643721388322696875e-13 -1.489193425692481032e-12 1.417135614585618431e-12
2.190000000000000000e+03 2.591719055175781250e+01 3.252861797809600830e-01 3.202566521438160452e-14 1.729385840261443708e-12 5.284234421559785844e-13 -5.744603469130804552e-13
2.191000000000000000e+03 2.806239128112792969e+01 5.182382464408874512e-01 -6.909537178523272871e-12 -2.161732300326804634e-13 -2.137713183553158203e-12 1.897520552143761030e-12
2.192000000000000000e+03 2.699128913879394531e+01 3.391987979412078857e-01 1.641315257533762506e-13 4.363496868518834670e-13 1.801443651368306309e-13 -6.405133042876320904e-14
2.193000000000000000e+03 2.651807403564453125e+01 6.147456765174865723e-01 -1.438152440018380940e-12 1.167935973628297930e-12 -8.106496295632106830e-14 6.645325565865500828e-13
2.194000000000000000e+03 2.631586265563964844e+01 -1.971468925476074219e-01 4.467579951816791350e-12 1.617296032339898826e-12 1.825462957877332926e-12 6.905534087262021892e-13
2.195000000000000000e+03 2.960670661926269531e+01 2.772376835346221924e-01 -3.256609825558198779e-12 1.140914348673333079e-13 -9.427555307597867973e-13 5.764619467538145692e-13
2.196000000000000000e+03 2.788160896301269531e+01 -7.883378863334655762e-02 5.500407854880373648e-12 2.401924891078620339e-14 1.657328137574798355e-12 4.763817378766743715e-13
2.197000000000000000e+03 2.882047271728515625e+01 3.502320349216461182e-01 -4.994002173602796191e-12 -3.102486258350911630e-13 -1.591275180200246719e-12 1.373100309669250674e-12
2.198000000000000000e+03 2.742123031616210938e+01 7.278248667716979980e-01 -6.885517763594029006e-12 -1.441154921094645047e-12 -2.498001805406602216e-12 2.642117210779892922e-12
2.199000000000000000e+03 2.763559532165527344e+01 3.473257124423980713e-01 -1.234989649608053686e-12 -6.665341564272841968e-13 -5.704571472316122271e-13 4.603689391508014594e-13
2.200000000000000000e+03 2.577485847473144531e+01 1.198889970779418945e+00 -2.449963409228983480e-12 -2.722181475459800604e-13 -8.166544155328858690e-13 4.803849375581425996e-13
2.201000000000000000e+03 2.638021278381347656e+01 1.195920944213867188e+00 -4.431551479944229044e-12 3.883111822540474822e-13 -1.212971997149869807e-12 1.473180518546390871e-12
2.202000000000000000e+03 2.521161842346191406e+01 1.058750271797180176e+00 -1.841475756603205838e-12 1.040834085586084257e-12 -2.401924687790712998e-13 -5.044041898570605920e-13
2.203000000000000000e+03 2.408469200134277344e+01 1.242150068283081055e+00 -2.023621721580770583e-12 2.001604075898850282e-15 -6.064859985749349036e-13 -6.885517546753594509e-13
2.204000000000000000e+03 2.328886413574218750e+01 9.718602299690246582e-01 -1.791435597954527115e-12 -3.102486258350911630e-13 -6.305052508738528960e-13 -7.966384171255447288e-13
2.205000000000000000e+03 2.551696395874023438e+01 1.637254595756530762e+00 -2.169863897935608854e-12 -3.809302591244179137e-13 -7.652382416969971679e-13 3.032429992874674518e-13
2.206000000000000000e+03 2.424900627136230469e+01 5.111324787139892578e-01 -5.244202424745103563e-13 4.843881914497194519e-13 -1.200962445539310169e-14 -3.682951296365977178e-13
2.207000000000000000e+03 2.245460319519042969e+01 6.897000670433044434e-01 -1.573260727423531069e-12 -3.082470259943570490e-13 -5.644523477094098851e-13 -5.924747996897961055e-13
2.208000000000000000e+03 2.263264846801757812e+01 -3.199020400643348694e-02 -7.105694071335433293e-13 -1.901523778930283570e-13 -2.702165477052459464e-13 -4.123304345529654746e-13
2.209000000000000000e+03 2.477953338623046875e+01 8.196918368339538574e-01 -1.334069031459772514e-12 6.635317295611287136e-13 -2.011612041221202962e-13 -6.525229033320367744e-13
2.210000000000000000e+03 2.346004295349121094e+01 2.455062866210937500e-01 -6.084875984156690176e-13 -3.522823038056704936e-13 -2.882309733769072846e-13 -4.963977904941241359e-13
2.211000000000000000e+03 2.498163604736328125e+01 1.726674079895019531e+00 -1.809450050731242765e-12 4.803849782157240678e-14 -5.284234421559785844e-13 1.761411519028352468e-13
2.212000000000000000e+03 2.467278289794921875e+01 1.343772411346435547e+00 -1.497199825055417488e-12 4.563657394693332314e-13 -3.122502256758252770e-13 -5.724587470723463412e-13
2.213000000000000000e+03 2.511323547363281250e+01 1.389705419540405273e+00 -2.121700167986850794e-12 2.802245740139708285e-13 -5.524426944548965768e-13 -1.841475648182988589e-13
2.214000000000000000e+03 2.503984642028808594e+01 4.956439137458801270e-01 -1.585270326467935753e-12 1.265013701429174020e-12 -9.607699564314481355e-14 -9.447570763904122870e-13
2.215000000000000000e+03 2.682167434692382812e+01 1.106394290924072266e+00 -7.746207321412956759e-12 -2.221780485284208240e-12 -2.990396342009149500e-12 3.586874287170305209e-12
2.216000000000000000e+03 2.514591979980468750e+01 -6.128320097923278809e-01 1.023820459834789975e-12 6.675349292425969416e-13 5.074066167232160751e-13 7.526031122091769721e-13
2.217000000000000000e+03 2.564793777465820312e+01 -3.422959744930267334e-01 2.762213634904808757e-12 2.441956793025612527e-12 1.561251128379126385e-12 6.645325565865500828e-13
2.218000000000000000e+03 2.548131179809570312e+01 -1.485436558723449707e+00 1.821459649775647449e-13 2.159730727591124833e-12 7.025630077706068732e-13 8.807057730667033901e-13
2.219000000000000000e+03 2.533518600463867188e+01 1.412887573242187500e-01 1.021818805783947237e-12 5.694563202061908580e-13 4.773825649020957407e-13 -3.883111822540474822e-13
2.220000000000000000e+03 2.492160224914550781e+01 -3.457539156079292297e-02 8.947169719518421882e-13 8.867105725889057322e-13 5.344282958882895507e-13 -2.001604075898850282e-14
2.221000000000000000e+03 2.433382415771484375e+01 -2.777828216552734375e+00 4.643721388322696875e-13 9.767827822623753597e-13 4.323464600653609269e-13 6.605293026949732305e-13
2.222000000000000000e+03 2.526114082336425781e+01 -2.204511165618896484e+00 4.963977904941241359e-13 1.745398747407533868e-12 6.725389559494865388e-13 6.705373561087524248e-13
2.223000000000000000e+03 2.570450973510742188e+01 -8.459171652793884277e-01 9.927955809882482718e-13 3.010412448836707888e-12 1.200962398105465123e-12 1.401122815859745518e-12
2.224000000000000000e+03 2.505250167846679688e+01 -2.955549478530883789e+00 8.606896933441993136e-14 1.455166065769675221e-12 4.623705389915355735e-13 5.044041898570605920e-13
2.225000000000000000e+03 2.479750061035156250e+01 -1.182730793952941895e+00 7.866303637117655345e-13 1.114893442323572348e-12 5.704571472316122271e-13 6.925550085669363032e-13
2.226000000000000000e+03 2.455989837646484375e+01 -1.964297533035278320e+00 3.552847035667716646e-13 9.757819552369539906e-13 3.993200084831394214e-13 6.485197036505685464e-13
2.227000000000000000e+03 2.490382957458496094e+01 -3.707208156585693359e+00 2.642117210779892922e-13 1.257007302066237564e-12 4.563657394693332314e-13 4.323464600653609269e-13
2.228000000000000000e+03 2.408085060119628906e+01 -4.312237739562988281e+00 2.522020949285302960e-13 5.884716000083278775e-13 2.522020949285302960e-13 5.324266418374468124e-13
2.229000000000000000e+03 2.417619895935058594e+01 -3.562619447708129883e+00 1.401122870069854143e-13 8.606897204492536257e-13 3.002405995263662808e-13 4.803849375581425996e-13
2.230000000000000000e+03 2.471484756469726562e+01 -5.199134826660156250e+00 1.481186999224490264e-13 6.124908523072458699e-13 2.281828697346666157e-13 2.722181475459800604e-13
2.231000000000000000e+03 2.462164497375488281e+01 -5.945491790771484375e+00 -2.001604075898850282e-15 5.024025900163264780e-13 1.501202997631831404e-13 1.160930347080674219e-13
2.232000000000000000e+03 2.389258575439453125e+01 -5.812222003936767578e+00 1.080866150163402317e-13 5.724587470723463412e-13 2.041636038832214672e-13 4.083272077664429345e-13
2.233000000000000000e+03 2.398626518249511719e+01 -5.062091827392578125e+00 -3.402726844324750755e-14 3.742999562638543720e-13 1.020818019416107336e-13 3.122502256758252770e-13
2.234000000000000000e+03 2.480895614624023438e+01 -4.453053474426269531e+00 5.004010105043830980e-14 8.907137722703739602e-13 2.822261738547049426e-13 3.402726776562114974e-13
2.235000000000000000e+03 2.251691436767578125e+01 -1.110846710205078125e+01 5.804651735403371093e-14 -1.581267126786467525e-13 -3.002405859738391247e-14 1.040834085586084257e-13
2.236000000000000000e+03 2.295526313781738281e+01 -9.885823249816894531e+00 1.421138868477195283e-13 -1.220978477827969200e-13 6.004812227696550847e-15 1.541235129971785245e-13
2.237000000000000000e+03 2.448078727722167969e+01 -6.714498519897460938e+00 -1.401122768425900472e-14 4.743801380359402575e-13 1.381106736137241442e-13 2.061652172764827373e-13
2.238000000000000000e+03 2.259947204589843750e+01 -1.135069274902343750e+01 -3.122502256758252770e-13 -4.083272077664429345e-13 -2.161732300326804634e-13 4.003208151797700565e-14
2.239000000000000000e+03 2.292883682250976562e+01 -1.095171165466308594e+01 1.240994476235310340e-13 -4.043240080849747065e-13 -8.406736949368581735e-14 -1.281026608575264181e-13
2.240000000000000000e+03 2.371306419372558594e+01 -9.926771163940429688e+00 -4.803849782157240678e-14 4.803849782157240678e-14 0.000000000000000000e+00 -2.001604075898850282e-15
2.241000000000000000e+03 2.391585540771484375e+01 -9.097616195678710938e+00 1.421138868477195283e-13 1.981587908084919691e-13 1.020818019416107336e-13 5.604491073703601889e-14
2.242000000000000000e+03 2.410651779174804688e+01 -8.299334526062011719e+00 2.602085213965210642e-14 3.542839036464046076e-13 1.140914348673333079e-13 1.821459649775647449e-13
2.243000000000000000e+03 2.355446052551269531e+01 -7.405086517333984375e+00 1.581267126786467525e-13 5.024025900163264780e-13 1.981587908084919691e-13 2.542037218743187221e-13
2.244000000000000000e+03 2.374830436706542969e+01 -6.593159198760986328e+00 6.605293026949732305e-14 3.943159817762498243e-13 1.381106736137241442e-13 2.421940957248597259e-13
2.245000000000000000e+03 2.268242645263671875e+01 -1.064950752258300781e+01 8.807057595141762341e-14 -1.681347389873716347e-13 -2.401924891078620339e-14 8.807057595141762341e-14
2.246000000000000000e+03 2.316437721252441406e+01 -9.036569595336914062e+00 1.040834085586084257e-13 1.361090737729900302e-13 7.205774334422682115e-14 2.201764432666758475e-13
2.247000000000000000e+03 2.336136245727539062e+01 -8.218188285827636719e+00 1.701363388281057487e-13 5.004010105043830980e-14 6.605293026949732305e-14 2.161732300326804634e-13
2.248000000000000000e+03 2.353590965270996094e+01 -1.077804851531982422e+01 8.006416303595401129e-14 8.006416303595401129e-14 4.803849782157240678e-14 1.200962445539310169e-14
2.249000000000000000e+03 2.429329299926757812e+01 -7.506330966949462891e+00 1.321058605389946461e-13 4.683753385137379155e-13 1.801443651368306309e-13 1.881507780522942430e-13
2.250000000000000000e+03 7.138031005859375000e+01 -1.674990081787109375e+01 1.020818019416107336e-13 -2.001604075898850282e-15 3.002405859738391247e-14 -7.606094980195862720e-14
2.251000000000000000e+03 7.211955261230468750e+01 -1.671120262145996094e+01 -2.001604075898850282e-15 1.821459649775647449e-13 5.404330750817011586e-14 2.001604075898850282e-14
2.252000000000000000e+03 7.071197509765625000e+01 -1.752739334106445312e+01 1.200962445539310169e-14 -1.321058605389946461e-13 -3.602887167211341057e-14 -7.205774334422682115e-14
2.253000000000000000e+03 7.287363433837890625e+01 -1.741421890258789062e+01 0.000000000000000000e+00 3.202566521438160452e-13 9.607699564314481355e-14 2.802245536851800944e-14
2.254000000000000000e+03 7.215311431884765625e+01 -1.745045852661132812e+01 -3.402726844324750755e-14 -1.060850151756061177e-13 -4.203368474684290867e-14 -2.001604042017532392e-13
2.255000000000000000e+03 7.143251037597656250e+01 -1.748818206787109375e+01 -9.607699564314481355e-14 9.607699564314481355e-14 0.000000000000000000e+00 1.601283260719080226e-14
2.256000000000000000e+03 7.285870361328125000e+01 -1.667398834228515625e+01 -1.941555911270237411e-13 -2.662133209187234062e-13 -1.381106736137241442e-13 -9.207378240914942946e-14
2.257000000000000000e+03 7.064115142822265625e+01 -1.679008674621582031e+01 1.801443583605670529e-14 -3.803047490097931360e-14 -6.004812227696550847e-15 2.401924891078620339e-14
2.258000000000000000e+03 7.509190368652343750e+01 -1.672233772277832031e+01 -3.442758773376797254e-13 -5.604491073703601889e-14 -1.200962343895356499e-13 5.204170427930421283e-14
2.259000000000000000e+03 7.507875823974609375e+01 -1.746236038208007812e+01 -1.120898214740720378e-13 -4.803849782157240678e-14 -4.803849782157240678e-14 -2.401924891078620339e-14
2.260000000000000000e+03 7.583750152587890625e+01 -1.675157546997070312e+01 -2.141716301919463494e-13 -4.603689120457471473e-14 -7.806255641895631925e-14 1.601283260719080226e-14
2.261000000000000000e+03 7.360292816162109375e+01 -1.740974807739257812e+01 -2.281828697346666157e-13 -5.204170427930421283e-14 -8.406736949368581735e-14 -1.200962343895356499e-13
2.262000000000000000e+03 7.434651947021484375e+01 -1.669533538818359375e+01 -2.041636038832214672e-13 4.003208151797700565e-15 -6.004811719476782494e-14 -8.406736949368581735e-14
2.263000000000000000e+03 7.581685638427734375e+01 -1.749131965637207031e+01 -2.001604042017532392e-13 -4.003208151797700565e-14 -7.205774334422682115e-14 7.205774334422682115e-14
2.264000000000000000e+03 7.434088134765625000e+01 -1.743563652038574219e+01 -1.160930347080674219e-13 -4.003208151797700565e-15 -3.602887167211341057e-14 2.802245536851800944e-14
2.265000000000000000e+03 7.360105895996093750e+01 -1.666916847229003906e+01 -2.021620040424873532e-13 1.421138868477195283e-13 -1.801443583605670529e-14 -2.001604075898850282e-14
2.266000000000000000e+03 7.961856079101562500e+01 -1.760054779052734375e+01 -1.020818019416107336e-13 2.001604075898850282e-15 -3.002405859738391247e-14 4.003208151797700565e-14
2.267000000000000000e+03 7.810430908203125000e+01 -1.681215476989746094e+01 -9.607699564314481355e-14 -2.241796429481440756e-13 -9.607699564314481355e-14 -8.006416303595401129e-15
2.268000000000000000e+03 7.734732055664062500e+01 -1.679562950134277344e+01 -8.206576287668812530e-14 1.020818019416107336e-13 6.004812227696550847e-15 0.000000000000000000e+00
2.269000000000000000e+03 7.886226654052734375e+01 -1.683067893981933594e+01 -7.405934996122451319e-14 1.401122768425900472e-14 -1.801443583605670529e-14 6.405133042876320904e-14
2.270000000000000000e+03 7.885494232177734375e+01 -1.757777404785156250e+01 -1.200962445539310169e-14 1.321058605389946461e-13 3.602887167211341057e-14 -7.205774334422682115e-14
2.271000000000000000e+03 7.962100219726562500e+01 -1.685145187377929688e+01 5.604491073703601889e-14 2.401924891078620339e-14 2.401924891078620339e-14 -3.602887167211341057e-14
2.272000000000000000e+03 7.658949279785156250e+01 -1.677681159973144531e+01 -2.702165477052459464e-13 -7.005614350349270714e-14 -1.020818019416107336e-13 4.803849782157240678e-14
2.273000000000000000e+03 7.656753540039062500e+01 -1.751748657226562500e+01 1.000802037949425141e-14 5.004010105043830980e-14 1.801443583605670529e-14 -5.604491073703601889e-14
2.274000000000000000e+03 7.733024597167968750e+01 -1.753844451904296875e+01 -1.441154866884536423e-13 -1.601283260719080226e-14 -4.803849782157240678e-14 1.040834085586084257e-13
2.275000000000000000e+03 7.809210968017578125e+01 -1.755710792541503906e+01 -7.005614350349270714e-14 -3.002405859738391247e-14 -3.002405859738391247e-14 -6.405133042876320904e-14
2.276000000000000000e+03 6.840941619873046875e+01 -1.795475006103515625e+01 -3.202566521438160452e-14 3.522823038056704936e-13 9.607699564314481355e-14 -1.361090737729900302e-13
2.277000000000000000e+03 6.871118164062500000e+01 -1.764047813415527344e+01 1.120898214740720378e-13 4.803849782157240678e-14 4.803849782157240678e-14 0.000000000000000000e+00
2.278000000000000000e+03 6.975873565673828125e+01 -1.690816497802734375e+01 1.701363422162375377e-14 5.304250758780305885e-14 2.101684237342145434e-14 -1.601283260719080226e-14
2.279000000000000000e+03 6.854742431640625000e+01 -1.802977561950683594e+01 4.863897912904535659e-13 1.741395520621011328e-13 1.981587908084919691e-13 2.411932958044926689e-13
2.280000000000000000e+03 6.898069000244140625e+01 -1.788616180419921875e+01 1.791435652164635739e-13 3.102486190588275849e-14 6.305052373213257400e-14 -1.200962445539310169e-14
2.281000000000000000e+03 6.984674072265625000e+01 -1.764367675781250000e+01 5.804651735403371093e-14 -1.581267126786467525e-13 -3.002405859738391247e-14 4.403528797570881170e-14
2.282000000000000000e+03 6.877840423583984375e+01 -1.707168769836425781e+01 -1.100882199392720293e-14 4.103288143834406265e-14 9.007217918028352643e-15 5.604491073703601889e-14
2.283000000000000000e+03 1.639982223510742188e+01 -2.317397296428680420e-01 -8.626913202899877398e-13 4.203368474684290867e-14 -2.461972954063279539e-13 8.006416303595401129e-15
2.284000000000000000e+03 1.798723983764648438e+01 -8.314419388771057129e-01 -8.166544155328858690e-13 -3.042437992078345088e-13 -3.362694779747432694e-13 -2.401924687790712998e-13
2.285000000000000000e+03 1.645354080200195312e+01 -9.699125885963439941e-01 -8.166544155328858690e-13 1.601283260719080226e-14 -2.401924687790712998e-13 6.004811719476782494e-14
2.286000000000000000e+03 1.875374794006347656e+01 -7.599936723709106445e-01 -8.386720679910697474e-13 -2.221780431074099615e-13 -3.182550251980276190e-13 -5.604491073703601889e-14
2.287000000000000000e+03 1.790756225585937500e+01 -9.563824534416198730e-02 -9.407538767089440590e-13 -6.004811719476782494e-14 -3.002405995263662808e-13 -1.561251128379126385e-13
2.288000000000000000e+03 1.866109085083007812e+01 -2.537456899881362915e-02 -1.048840484949020713e-12 8.006416303595401129e-15 -3.122502256758252770e-13 -8.807057595141762341e-14
2.289000000000000000e+03 1.715376663208007812e+01 -1.644264459609985352e-01 -7.726191648266267364e-13 1.721379386688398627e-13 -1.801443651368306309e-13 -1.080866150163402317e-13
2.290000000000000000e+03 1.722046470642089844e+01 -9.014146924018859863e-01 -9.327474773460076030e-13 1.200962445539310169e-14 -2.762213472274482884e-13 -1.040834085586084257e-13
2.291000000000000000e+03 1.941230964660644531e+01 7.625918835401535034e-02 -1.064853283674893625e-12 -1.361090737729900302e-13 -3.602887302736612618e-13 -1.921539912862896271e-13
2.292000000000000000e+03 2.090952491760253906e+01 3.449267148971557617e-01 -1.240994503340364652e-12 -1.200962343895356499e-13 -4.083272077664429345e-13 -2.642117210779892922e-13
2.293000000000000000e+03 1.952174568176269531e+01 -6.559218764305114746e-01 -8.206576694244627213e-13 6.004811719476782494e-14 -2.281828697346666157e-13 -1.841475648182988589e-13
2.294000000000000000e+03 2.106011390686035156e+01 -3.798714280128479004e-01 -8.526833210863171697e-13 -2.281828697346666157e-13 -3.242598518252842732e-13 -1.361090737729900302e-13
2.295000000000000000e+03 2.183077621459960938e+01 -2.417316585779190063e-01 -7.906335633932337625e-13 -4.303448602246268129e-13 -3.662935297958636038e-13 -4.123304345529654746e-13
2.296000000000000000e+03 2.165959548950195312e+01 4.794237911701202393e-01 -1.367095564357156956e-12 -1.741395520621011328e-13 -4.623705389915355735e-13 -4.003208084035064784e-13
2.297000000000000000e+03 2.016033744812011719e+01 2.105962187051773071e-01 -1.154925547558471877e-12 5.404330750817011586e-14 -3.302646513474866152e-13 -2.361892690976030718e-13
2.298000000000000000e+03 2.029035186767578125e+01 -5.178933739662170410e-01 -8.306656686281332913e-13 1.000802037949425141e-14 -2.461972954063279539e-13 -2.722181475459800604e-13
2.299000000000000000e+03 2.578359222412109375e+01 8.644328117370605469e-01 -2.471980953266950110e-12 7.706175649858926224e-13 -5.104090435893715583e-13 -2.722181475459800604e-13
2.300000000000000000e+03 2.618614578247070312e+01 8.825654983520507812e-01 -2.768468614078312129e-12 6.392622976109096911e-13 -6.387618840981990065e-13 -1.783929584999247031e-13
2.301000000000000000e+03 2.572960281372070312e+01 6.785923242568969727e-01 -1.777424344859279692e-12 3.362694779747432694e-13 -4.323464600653609269e-13 -5.284234421559785844e-13
2.302000000000000000e+03 2.534585762023925781e+01 7.471872568130493164e-01 -1.342075539242926219e-12 1.071858964432625960e-12 -8.106496295632106830e-14 -4.403528865333516951e-13
2.303000000000000000e+03 1.338494110107421875e+01 -3.624081611633300781e-01 -8.386720679910697474e-13 9.807859548387892756e-14 -2.221780431074099615e-13 -4.403528797570881170e-14
2.304000000000000000e+03 1.492772197723388672e+01 -1.047161340713500977e+00 -7.105694071335433293e-13 -3.002405859738391247e-14 -2.221780431074099615e-13 -1.921539912862896271e-13
2.305000000000000000e+03 1.340428161621093750e+01 -1.102196455001831055e+00 -8.586881206085195117e-13 -2.001604075898850282e-15 -2.582069215557869502e-13 -1.521218996039172544e-13
2.306000000000000000e+03 1.489244556427001953e+01 -3.079577088356018066e-01 -9.107298248878237246e-13 -7.005614350349270714e-14 -2.942358000041639388e-13 -3.602887167211341057e-14
2.307000000000000000e+03 1.568929195404052734e+01 -1.018365263938903809e+00 -7.626111114128475421e-13 -9.807859548387892756e-14 -2.582069215557869502e-13 6.805453688649501509e-14
2.308000000000000000e+03 1.564604759216308594e+01 -2.794539332389831543e-01 -9.367506770274758310e-13 5.604491073703601889e-14 -2.642117210779892922e-13 -7.606094980195862720e-14
2.309000000000000000e+03 1.413872909545898438e+01 -3.356079757213592529e-01 -9.247410779830711469e-13 -7.606094980195862720e-14 -3.002405995263662808e-13 -4.003208151797700565e-15
2.310000000000000000e+03 1.416603755950927734e+01 -1.075103878974914551e+00 -7.646127112535816561e-13 8.406736949368581735e-14 -2.041636038832214672e-13 -1.200962445539310169e-14
2.311000000000000000e+03 1.037684440612792969e+01 -3.884835243225097656e-01 -7.506015123684428580e-13 9.007218256841531545e-14 -1.981587908084919691e-13 -4.003208151797700565e-15
2.312000000000000000e+03 1.189073276519775391e+01 -1.121461629867553711e+00 -7.626111114128475421e-13 -9.807859548387892756e-14 -2.582069215557869502e-13 -1.120898214740720378e-13
2.313000000000000000e+03 1.038032817840576172e+01 -1.128475308418273926e+00 -6.865501548346253369e-13 2.602085213965210642e-14 -1.981587908084919691e-13 -2.401924891078620339e-14
2.314000000000000000e+03 1.264584636688232422e+01 -1.117530822753906250e+00 -7.065662074520751013e-13 -7.405934996122451319e-14 -2.341876692568689577e-13 8.406736949368581735e-14
2.315000000000000000e+03 1.188046455383300781e+01 -3.815026283264160156e-01 -8.907137722703739602e-13 3.002405859738391247e-14 -2.582069215557869502e-13 -6.805453688649501509e-14
2.316000000000000000e+03 1.263218593597412109e+01 -3.775882422924041748e-01 -9.147330245692919526e-13 -2.602085213965210642e-14 -2.822261738547049426e-13 -4.003208151797700565e-15
2.317000000000000000e+03 1.112868118286132812e+01 -3.851337432861328125e-01 -8.566865207677853977e-13 -1.841475648182988589e-13 -3.122502256758252770e-13 -2.401924891078620339e-14
2.318000000000000000e+03 1.113555717468261719e+01 -1.125109195709228516e+00 -7.546047120499110861e-13 1.341074739322559162e-13 -1.861491782115601290e-13 -4.003208151797700565e-14
2.319000000000000000e+03 8.846968650817871094e+00 -3.897767066955566406e-01 -7.906335633932337625e-13 -1.100882216333379238e-13 -2.702165477052459464e-13 4.803849782157240678e-14
2.320000000000000000e+03 8.848549842834472656e+00 -1.129776716232299805e+00 -4.723785381952061435e-13 -2.481988952470620680e-13 -2.161732300326804634e-13 -3.202566521438160452e-14
2.321000000000000000e+03 9.616287231445312500e+00 -3.899540305137634277e-01 -8.006416168070129569e-13 -1.601283260719080226e-13 -2.882309733769072846e-13 -5.204170427930421283e-14
2.322000000000000000e+03 8.077320098876953125e+00 -3.895331025123596191e-01 -4.163336342344337027e-13 9.607699564314481355e-14 -9.607699564314481355e-14 -5.604491073703601889e-14
2.323000000000000000e+03 7.307513236999511719e+00 -3.895078003406524658e-01 -3.903127820947815962e-13 -3.002405859738391247e-14 -1.261010474642651480e-13 -5.604491073703601889e-14
2.324000000000000000e+03 6.538012981414794922e+00 -3.896191120147705078e-01 -3.542839036464046076e-13 -1.060850151756061177e-13 -1.381106736137241442e-13 2.401924891078620339e-14
2.325000000000000000e+03 5.768679141998291016e+00 -3.896506428718566895e-01 -3.302646513474866152e-13 -5.004010105043830980e-14 -1.140914348673333079e-13 -8.807057595141762341e-14
2.326000000000000000e+03 4.999370574951171875e+00 -3.896599709987640381e-01 -2.201764432666758475e-13 -1.401122870069854143e-13 -1.080866150163402317e-13 1.200962445539310169e-14
2.327000000000000000e+03 4.230067253112792969e+00 -3.896633982658386230e-01 -3.402726844324750755e-14 2.141716301919463494e-13 5.404330750817011586e-14 -1.200962445539310169e-14
2.328000000000000000e+03 3.460767269134521484e+00 -3.896674811840057373e-01 -4.803849782157240678e-14 -1.120898214740720378e-13 -4.803849782157240678e-14 2.802245536851800944e-14
2.329000000000000000e+03 2.691480636596679688e+00 -3.896792829036712646e-01 -1.801443583605670529e-14 3.803047490097931360e-14 6.004812227696550847e-15 -5.204170427930421283e-14
2.330000000000000000e+03 1.922263860702514648e+00 -3.897165060043334961e-01 8.606896933441993136e-14 1.741395520621011328e-13 7.806255641895631925e-14 -6.004811719476782494e-14
2.331000000000000000e+03 1.153409719467163086e+00 -3.898416459560394287e-01 3.402726844324750755e-14 -2.141716301919463494e-13 -5.404330750817011586e-14 5.204170427930421283e-14
2.332000000000000000e+03 3.845674097537994385e-01 -3.899692595005035400e-01 8.006416303595401129e-15 -8.807057595141762341e-14 -2.401924891078620339e-14 -4.003208151797700565e-15
2.333000000000000000e+03 3.846361637115478516e-01 -1.129969239234924316e+00 8.206576287668812530e-14 -1.020818019416107336e-13 -6.004812227696550847e-15 4.403528797570881170e-14
2.334000000000000000e+03 9.618005752563476562e+00 -1.129953980445861816e+00 -6.184956518294482120e-13 -8.206576287668812530e-14 -2.101684169579509653e-13 -8.006416303595401129e-15
2.335000000000000000e+03 8.078763961791992188e+00 -1.129533052444458008e+00 -5.184154429523080143e-13 -2.221780431074099615e-13 -2.221780431074099615e-13 -1.401122870069854143e-13
2.336000000000000000e+03 7.308819293975830078e+00 -1.129507780075073242e+00 -3.803047557860567141e-13 2.001604075898850282e-14 -1.080866150163402317e-13 -7.606094980195862720e-14
2.337000000000000000e+03 6.539181709289550781e+00 -1.129619121551513672e+00 -3.262614516660183872e-13 -9.407538902614712151e-14 -1.261010474642651480e-13 -8.807057595141762341e-14
2.338000000000000000e+03 5.769710540771484375e+00 -1.129650592803955078e+00 -2.902325732176413986e-13 -1.701363388281057487e-13 -1.381106736137241442e-13 -1.721379386688398627e-13
2.339000000000000000e+03 5.000264644622802734e+00 -1.129660010337829590e+00 -1.281026608575264181e-13 1.281026608575264181e-13 0.000000000000000000e+00 -2.802245536851800944e-14
2.340000000000000000e+03 4.230823516845703125e+00 -1.129663348197937012e+00 -2.782229470681824024e-13 1.801443583605670529e-14 -7.806255641895631925e-14 -1.080866150163402317e-13
2.341000000000000000e+03 3.461385965347290039e+00 -1.129667520523071289e+00 -1.020818019416107336e-13 2.001604075898850282e-15 -3.002405859738391247e-14 3.202566521438160452e-14
2.342000000000000000e+03 2.691961765289306641e+00 -1.129679322242736816e+00 -2.001604075898850282e-14 -1.000802021008766196e-13 -3.602887167211341057e-14 -6.805453688649501509e-14
2.343000000000000000e+03 1.922607541084289551e+00 -1.129716515541076660e+00 -9.807859548387892756e-14 -4.203368474684290867e-14 -4.203368474684290867e-14 -3.602887167211341057e-14
2.344000000000000000e+03 1.153616070747375488e+00 -1.129841685295104980e+00 -1.200962445539310169e-14 -1.881507780522942430e-13 -6.004811719476782494e-14 -5.604491073703601889e-14
2.345000000000000000e+03 4.678672409057617188e+01 -1.644136810302734375e+01 3.448364640709633555e-13 -1.267186361267672035e-13 6.543534160699526758e-14 9.745013769459770492e-14
2.346000000000000000e+03 4.626513671875000000e+01 -1.672077941894531250e+01 2.234854418496287631e-13 1.872813698827052731e-13 1.232300394539420640e-13 2.755948071207596495e-14
2.347000000000000000e+03 4.657453155517578125e+01 -1.729517173767089844e+01 -1.960087603022128006e-14 -1.697867886595646331e-14 -1.097386663825991246e-14 -2.958285946394988153e-14
2.348000000000000000e+03 4.598840332031250000e+01 -1.588322639465332031e+01 3.348936525229134764e-13 -2.224817416884503074e-13 3.372357663847073972e-14 1.248801765257401622e-14
2.349000000000000000e+03 4.714948272705078125e+01 -1.680696868896484375e+01 6.564036423781227647e-14 -1.319967355903339801e-13 -1.990691072813015328e-14 3.425248984524121611e-15
2.350000000000000000e+03 4.642658615112304688e+01 -1.615464401245117188e+01 5.385194243659463531e-14 -3.410928156133245792e-14 5.922798686095126844e-15 -8.928289693937302429e-14
2.351000000000000000e+03 4.563487625122070312e+01 -1.654758453369140625e+01 7.842027537324075537e-14 -1.214225965053775808e-14 1.988340386977795193e-14 -3.154532977065263588e-14
2.352000000000000000e+03 4.378240203857421875e+01 -1.521486091613769531e+01 3.017757213823885065e-13 1.522079310463039792e-13 1.361950916628495989e-13 -1.313544406708264112e-13
2.353000000000000000e+03 4.483348846435546875e+01 -1.505673217773437500e+01 3.844142343854828336e-13 -1.825484072714642081e-14 1.098478133541164192e-13 -4.832467976126353371e-14
2.354000000000000000e+03 4.545152282714843750e+01 -1.549620914459228516e+01 1.623032491824411006e-13 -2.049471567932767413e-13 -1.279317058918479771e-14 -6.974296492970669115e-14
2.355000000000000000e+03 4.359851455688476562e+01 -1.417135810852050781e+01 2.554592279900569363e-13 6.373157887930649967e-14 9.575724409368810419e-14 -1.893688520880273951e-13
2.356000000000000000e+03 4.317002487182617188e+01 -1.477468585968017578e+01 3.162261034625468703e-13 1.240877246875410345e-13 1.320941511555318026e-13 -2.211281965912650915e-13
2.357000000000000000e+03 4.500817108154296875e+01 -1.608890724182128906e+01 2.127678458765935865e-13 5.115413911145789971e-14 7.917659447997590916e-14 -8.004368177928940231e-15
2.358000000000000000e+03 4.421584320068359375e+01 -1.461507511138916016e+01 2.280348490330680322e-13 -3.952362458039919424e-14 5.655336767461383030e-14 -2.006468044013845486e-13
2.359000000000000000e+03 4.439509201049804688e+01 -1.565297508239746094e+01 3.384853974799234555e-13 7.812325479995656241e-15 1.038893160409427863e-13 -2.271593422262588313e-13
2.360000000000000000e+03 4.131310272216796875e+01 -1.347806453704833984e+01 3.618530713782319719e-13 1.550798877335279879e-13 1.550798877335279879e-13 -2.990566507540121099e-13
2.361000000000000000e+03 4.193373489379882812e+01 -1.390832901000976562e+01 3.877632806861819326e-13 1.547465362230701635e-13 1.627529491385337757e-13 -1.591269704979275668e-13
2.362000000000000000e+03 4.297583389282226562e+01 -1.373159217834472656e+01 3.680993498293011479e-13 6.625496456807641876e-14 1.303062882205760498e-13 -2.900415096897951406e-13
2.363000000000000000e+03 4.108984756469726562e+01 -1.242412281036376953e+01 4.763679685090838056e-13 1.927199583728542165e-13 2.007263712883178286e-13 -1.574158690767837876e-13
2.364000000000000000e+03 4.069198989868164062e+01 -1.304873943328857422e+01 5.143658394178574067e-13 2.661934529139126093e-13 2.341678012520581609e-13 -2.399043962618419013e-13
2.365000000000000000e+03 4.171900177001953125e+01 -1.285902404785156250e+01 3.386560237968183618e-13 1.451382959129221550e-13 1.451382959129221550e-13 -1.787763730456970457e-13
2.366000000000000000e+03 4.255384826660156250e+01 -1.433948040008544922e+01 2.734938198221265049e-13 1.172116331944750289e-13 1.172116331944750289e-13 -2.584848838877579214e-13
2.367000000000000000e+03 4.234767913818359375e+01 -1.329486465454101562e+01 3.237861367910710442e-13 1.387654775157967646e-13 1.387654775157967646e-13 -1.632432253609317208e-13
2.368000000000000000e+03 3.905907440185546875e+01 -1.123355197906494141e+01 5.217931664004693548e-13 1.321237363223135008e-13 1.961750667510767099e-13 -2.952015801943597140e-13
2.369000000000000000e+03 3.974638366699218750e+01 -1.162254619598388672e+01 7.123207189027591646e-13 7.652557786671371209e-14 2.366539039386217347e-13 -3.022620944769655038e-13
2.370000000000000000e+03 3.805582809448242188e+01 -1.151677036285400391e+01 6.876372301428679279e-13 2.031997617044090099e-13 2.672510921331722189e-13 -4.020347423028258760e-13
2.371000000000000000e+03 3.938637542724609375e+01 -1.226908969879150391e+01 5.542530952425128721e-13 1.117219381244205501e-13 1.997925208521017515e-13 -4.068582222429423245e-13
2.372000000000000000e+03 4.004990386962890625e+01 -1.264503097534179688e+01 6.226094943426185857e-13 1.067043182327934159e-13 2.187941397068654537e-13 -3.253294714785498476e-13
2.373000000000000000e+03 4.043246459960937500e+01 -1.201124572753906250e+01 3.616103727219210917e-13 2.922287249424587730e-13 1.961517292993139594e-13 -2.275004186771956149e-13
2.374000000000000000e+03 3.837077713012695312e+01 -1.084462738037109375e+01 5.192987966723405791e-13 2.683075929401507187e-13 2.362819141732419581e-13 -2.629685748670174128e-13
2.375000000000000000e+03 3.872161483764648438e+01 -1.189285373687744141e+01 6.312156201372653985e-13 4.192115675861335378e-13 3.151281590275251121e-13 -3.772146982793100900e-13
2.376000000000000000e+03 3.061554336547851562e+01 -8.006959915161132812e+00 8.979649706100656381e-14 8.423516333240510523e-14 5.220949811802350071e-14 -1.961537215208059015e-13
2.377000000000000000e+03 3.088931274414062500e+01 -6.680104732513427734e+00 9.286211936129079580e-14 8.554899952502303950e-14 5.352333431064143499e-14 -1.819712322449415498e-13
2.378000000000000000e+03 2.688521766662597656e+01 -5.599551200866699219e+00 -3.921990567056811428e-14 -8.543495500900472051e-14 -3.739645718743231373e-14 -3.776096256969015130e-14
2.379000000000000000e+03 2.820802307128906250e+01 -7.898850917816162109e+00 9.402666091475747612e-14 -7.408023440557201522e-14 5.983928206865522445e-15 -1.002501711202044565e-13
2.380000000000000000e+03 2.721083450317382812e+01 -8.803870201110839844e+00 -8.271391926419069396e-14 -3.544882012170187668e-14 -3.544882012170187668e-14 -9.705806647210442339e-15
2.381000000000000000e+03 2.967256546020507812e+01 -2.838700056076049805e+00 -3.834852560827793633e-14 -1.643508191952885999e-14 -1.643508191952885999e-14 -8.802483278413410217e-15
2.382000000000000000e+03 2.863142967224121094e+01 -2.252149581909179688e+00 3.156052892985816705e-14 -3.222500594818843156e-14 -1.993433675498974106e-16 -1.042674603477173126e-14
2.383000000000000000e+03 3.261552429199218750e+01 -2.473979711532592773e+00 -1.748760505978705360e-13 3.943049161378268941e-14 -4.063366803403953287e-14 -1.881215181461642905e-13
2.384000000000000000e+03 3.036592292785644531e+01 -1.964669704437255859e+00 -5.819026223331455472e-14 -2.493868454030590681e-14 -2.493868454030590681e-14 -4.711959243467768454e-14
2.385000000000000000e+03 3.156340408325195312e+01 -1.892253518104553223e+00 -8.424958322129916244e-14 -3.563635931486119901e-13 -1.321839637529950706e-13 -2.767152284220697478e-13
2.386000000000000000e+03 3.238571929931640625e+01 -7.993079662322998047e+00 1.705629588304516386e-13 -1.840348653906007798e-14 4.564784219563723655e-14 -2.041082960198975504e-13
2.387000000000000000e+03 3.195219230651855469e+01 -2.187605381011962891e+00 -9.996941696763933516e-14 2.906914160473667366e-15 -2.911874978335851627e-14 -1.816599544130891725e-14
2.388000000000000000e+03 3.318803787231445312e+01 -8.241431236267089844e+00 1.146038288140499573e-13 3.236216091113963689e-13 1.314676313776338978e-13 -1.740267137209997039e-13
2.389000000000000000e+03 3.867125701904296875e+01 -1.014418983459472656e+01 3.487190191556882590e-13 5.794911534136304443e-14 1.220004457701262535e-13 -1.968340990416220238e-13
2.390000000000000000e+03 4.446441268920898438e+01 -4.651008129119873047e+00 -4.589779619736111815e-13 -1.509539021560257765e-13 -1.829795673704073811e-13 1.547499650124406489e-13
2.391000000000000000e+03 4.995627975463867188e+01 -5.965041637420654297e+00 -5.780034111925458351e-13 1.640427973580854681e-13 -1.241881760188218164e-13 -2.018533045789264180e-13
2.392000000000000000e+03 5.013684463500976562e+01 -5.231156349182128906e+00 -8.344383669277311011e-13 -1.288616972459563637e-13 -2.889900233178643862e-13 -2.036700716661742766e-14
2.393000000000000000e+03 4.855187988281250000e+01 -5.017023563385009766e+00 -7.208988722813558514e-13 -1.259528641323406917e-13 -2.540555114373399537e-13 1.423724148557486968e-13
2.394000000000000000e+03 3.938244628906250000e+01 -1.056330680847167969e+01 4.659878711198162105e-13 2.454600379290378109e-13 2.134343727146562064e-13 -2.985077734041913233e-13
2.395000000000000000e+03 4.206763076782226562e+01 -1.225428295135498047e+01 3.337141218744121840e-13 9.726939441618079329e-14 1.292950528542988198e-13 -7.291994834563234051e-14
2.396000000000000000e+03 4.360926818847656250e+01 -1.251663303375244141e+01 3.772507480015452330e-13 2.442604664810044818e-14 1.205030405971793672e-13 -2.584667777114774134e-13
2.397000000000000000e+03 4.456046676635742188e+01 -1.400455284118652344e+01 4.431390421711506322e-13 3.271695794056922457e-13 2.310925973150745882e-13 -1.094284168487447140e-13
2.398000000000000000e+03 4.675090408325195312e+01 -1.555279827117919922e+01 3.272428714725522658e-13 -2.715116000952255693e-13 1.671937836387939885e-14 7.683232576636417344e-14
2.399000000000000000e+03 4.808545684814453125e+01 -1.548991966247558594e+01 3.943379910803512800e-13 -1.970055927202549184e-13 5.919971544227076166e-14 -2.497131267295061609e-15
2.400000000000000000e+03 4.767406845092773438e+01 -1.626127624511718750e+01 3.185034972309069845e-13 3.356186110818094870e-14 1.056196078405395589e-13 7.141590243437898056e-14
2.401000000000000000e+03 4.870244598388671875e+01 -1.559545612335205078e+01 6.145253576839149190e-13 -7.976411008471864794e-14 1.604283654706162299e-13 7.318502222427789028e-14
2.402000000000000000e+03 4.951959228515625000e+01 -1.470795536041259766e+01 5.631689233877301692e-13 -5.602306745139222499e-14 1.521437462776928373e-13 1.625740964376551356e-13
2.403000000000000000e+03 5.096826934814453125e+01 -1.534732913970947266e+01 8.466500612570870832e-13 2.255971830785602483e-13 3.216741651691779058e-13 2.643845462924152706e-14
2.404000000000000000e+03 5.724599075317382812e+01 -1.462639808654785156e+01 8.275020751090378379e-13 2.173908974925989335e-13 3.134678931357437470e-13 1.253501561446559998e-13
2.405000000000000000e+03 5.567626571655273438e+01 -1.479624557495117188e+01 7.858154231488168051e-13 2.910271036746930884e-13 3.230527553365475368e-13 4.627636435942245052e-14
2.406000000000000000e+03 6.002886581420898438e+01 -1.318735694885253906e+01 6.514762145547192684e-13 -1.325544627403876796e-13 1.556765241890467610e-13 2.434099742511935949e-13
2.407000000000000000e+03 6.239235687255859375e+01 -1.300269412994384766e+01 7.115085430553502732e-13 7.617749475923724090e-14 2.363058208311452635e-13 5.112459392463131191e-13
2.408000000000000000e+03 6.433264923095703125e+01 -1.184338378906250000e+01 1.065755123041967067e-12 2.737483904922261013e-13 4.018510513497525194e-13 1.255861191949703137e-13
2.409000000000000000e+03 6.560193634033203125e+01 -1.272704601287841797e+01 4.622230874960775449e-13 -7.783670355390043261e-15 1.363318231093271771e-13 -1.072733481904952768e-13
2.410000000000000000e+03 6.689009094238281250e+01 -1.362391376495361328e+01 1.206804567301794640e-13 -1.118735790448356984e-14 3.284793091825818911e-14 -2.653709669814697386e-14
2.411000000000000000e+03 6.971339416503906250e+01 -1.465352630615234375e+01 8.047430994154169959e-14 3.448898949092761568e-14 3.448898949092761568e-14 -7.363735137063884273e-14
2.412000000000000000e+03 6.899836730957031250e+01 -1.473575782775878906e+01 9.181486137783273493e-14 1.647375236170280782e-14 3.248658327482771557e-14 -1.154474058668794600e-13
2.413000000000000000e+03 6.815013122558593750e+01 -1.332471847534179688e+01 1.775659155302256043e-13 -3.127833820941450238e-13 -4.056524471256033049e-14 -1.072064393639257651e-13
2.414000000000000000e+03 7.046859741210937500e+01 -1.044858360290527344e+01 2.831391533991006737e-13 -1.590749050767257394e-14 8.016950005327455608e-14 2.009014157290656133e-13
2.415000000000000000e+03 7.332244873046875000e+01 -1.141288876533508301e+00 -6.374139768523107152e-14 2.014369980497462964e-13 4.130868214223364088e-14 2.755971720367483835e-13
2.416000000000000000e+03 6.601868438720703125e+01 7.452526092529296875e+00 -1.170619590845634050e-13 -1.010939379084141443e-12 -3.384003960296005920e-13 1.804617246652442941e-13
2.417000000000000000e+03 6.635198211669921875e+01 1.433099365234375000e+01 -2.362683074359772650e-13 -8.790239586567438757e-13 -3.345876906698380671e-13 1.221960629470969506e-13
2.418000000000000000e+03 7.391770172119140625e+01 1.808003234863281250e+01 -2.277544472462089686e-13 2.455230571803135309e-13 5.330585860143389337e-15 2.412222948244748671e-14
2.419000000000000000e+03 7.309423828125000000e+01 2.644235038757324219e+01 2.198072182168359090e-14 1.695486334879828250e-13 5.745880523764720915e-14 -1.932255896085199876e-13
2.420000000000000000e+03 7.244885253906250000e+01 3.341416168212890625e+01 5.056480407994445869e-14 1.589234793026791936e-13 6.284648365953438010e-14 -1.762031682671014177e-13
2.421000000000000000e+03 7.570898437500000000e+01 3.862987518310546875e+01 2.511050517365644164e-14 3.310182802775812894e-13 1.068386373294372138e-13 -1.479834863590129279e-13
2.422000000000000000e+03 6.807619476318359375e+01 3.732823562622070312e+01 2.023496929910717501e-13 -1.935032673374206813e-13 2.653927865501910094e-15 -7.354404222116930900e-14
2.423000000000000000e+03 5.738024139404296875e+01 4.106440734863281250e+01 1.824158635558778552e-13 -4.479576974115995203e-13 -7.966254744621106831e-14 2.328282830204794762e-14
2.424000000000000000e+03 6.215485000610351562e+01 4.110152053833007812e+01 2.189632616932460363e-13 -4.037001581549265472e-13 -5.542107435951501571e-14 3.157314675615694073e-15
2.425000000000000000e+03 6.655573272705078125e+01 3.101885414123535156e+01 1.667317000610124555e-13 -5.347436360901569596e-13 -1.104035753877324888e-13 -7.831577861260388684e-14
2.426000000000000000e+03 6.238206863403320312e+01 2.216978645324707031e+01 -5.207156862814532605e-13 -1.458439488968843456e-12 -5.937465688381216022e-13 3.039488962169184516e-13
2.427000000000000000e+03 6.044703292846679688e+01 2.187419128417968750e+01 -8.581218418138303328e-13 -1.271347718941051586e-12 -6.388408682264645755e-13 6.872811239393150640e-13
2.428000000000000000e+03 6.109960556030273438e+01 2.000257301330566406e+01 -1.125189568254580941e-12 -2.152133722968518903e-12 -9.831970307350168525e-13 1.392183568947602534e-12
2.429000000000000000e+03 5.978905105590820312e+01 2.220417404174804688e+01 -8.764323902038517744e-13 -1.199130963795702609e-12 -6.226690170418880399e-13 7.311568885060015788e-13
2.430000000000000000e+03 6.197434234619140625e+01 1.775649833679199219e+01 -2.726589299392040422e-13 -2.861910795154409826e-12 -9.403709365016221788e-13 6.084121921545726508e-13
2.431000000000000000e+03 6.786978912353515625e+01 1.775712394714355469e+01 -4.118430856764332404e-13 -4.052589156183089569e-13 -2.451306030989280904e-13 -2.526931707500304491e-14
2.432000000000000000e+03 7.203033447265625000e+01 -1.450424480438232422e+01 9.339476078357861200e-14 2.230301175947663195e-13 9.492746351350347944e-14 2.118849122849028599e-13
2.433000000000000000e+03 7.895301055908203125e+01 -9.121350288391113281e+00 7.837204870535588452e-14 3.995956126753852367e-13 1.433903045128595566e-13 1.761310417175768195e-13
2.434000000000000000e+03 7.740573120117187500e+01 -1.453822708129882812e+01 3.355871353374895172e-14 1.516351470385798872e-13 5.555815817169865167e-14 3.474621984448159062e-14
2.435000000000000000e+03 7.965148162841796875e+01 -6.654774188995361328e+00 1.986101577254248407e-13 4.053752776164709637e-13 1.811956346683268881e-13 6.054567112424857900e-14
2.436000000000000000e+03 7.895061492919921875e+01 -6.757099628448486328e+00 -1.229665105633923061e-13 1.303038623182151134e-13 2.201205272336958021e-15 1.450044240496745074e-13
2.437000000000000000e+03 7.893888854980468750e+01 -3.813130855560302734e-01 -3.566625347926205558e-13 -1.560252984754081917e-14 -1.116795254906856327e-13 -3.574633265172183494e-13
2.438000000000000000e+03 7.753597259521484375e+01 1.841159820556640625e+00 -4.934697398970011584e-13 4.747771728715044492e-13 -5.607767651253465699e-15 2.889254590784928745e-13
2.439000000000000000e+03 7.823348999023437500e+01 2.711953401565551758e+00 -4.573243910302449144e-13 3.072642780401618756e-13 -4.501803592990398506e-14 5.590518824781509633e-13
2.440000000000000000e+03 7.821617126464843750e+01 1.228943443298339844e+01 -4.252205006291184808e-14 1.377180162444313627e-12 4.003974343920468915e-13 2.126561323952461113e-13
2.441000000000000000e+03 7.821257019042968750e+01 1.706023979187011719e+01 -3.061543667236613087e-14 1.130652863001735398e-12 3.300112190896681286e-13 2.065345507465399244e-14
2.442000000000000000e+03 7.878442382812500000e+01 2.830147361755371094e+01 3.147279664531335563e-14 1.065760218792177749e-12 3.291698782038193771e-13 -5.378636853394999640e-14
2.443000000000000000e+03 7.877623748779296875e+01 3.554521942138671875e+01 -1.095670659778148759e-13 7.308088053985251076e-13 1.863725238590921429e-13 -3.364176003202955234e-14
2.444000000000000000e+03 7.827863311767578125e+01 4.076237487792968750e+01 -2.520402385790130239e-16 4.574014778047086338e-13 1.371448256608925886e-13 3.497291254270467990e-15
2.445000000000000000e+03 5.720569610595703125e+01 3.805745315551757812e+01 1.511468765902010403e-13 -5.242662315559087904e-13 -1.119358037792068938e-13 5.026695680250374554e-14
2.446000000000000000e+03 5.480250167846679688e+01 3.000815773010253906e+01 -9.541085505210614159e-14 -3.153960653843462802e-13 -1.232420740980566531e-13 1.764360006836426797e-13
2.447000000000000000e+03 5.743808746337890625e+01 2.228656768798828125e+01 -7.724203763583015192e-13 -3.767882544598172290e-13 -3.447625756929084684e-13 3.196525889034157464e-13
2.448000000000000000e+03 5.536492156982421875e+01 2.116683006286621094e+01 -3.026077110244995705e-13 -6.106259839129893341e-14 -1.091010962128713402e-13 -5.763100364769221939e-14
2.449000000000000000e+03 5.763070678710937500e+01 2.150930786132812500e+01 -1.061598183492440395e-12 -4.321210747624919246e-14 -3.314430977938154221e-13 5.203376588652254553e-14
2.450000000000000000e+03 5.877424621582031250e+01 2.157986640930175781e+01 -1.413285070570036162e-12 -4.341275331842114893e-13 -5.542237675737471392e-13 5.339242502983010397e-13
2.451000000000000000e+03 5.248871231079101562e+01 4.106486129760742188e+01 1.164165877413914085e-13 -3.733034660471229449e-13 -7.706605942596131409e-14 4.120693654460945432e-14
2.452000000000000000e+03 4.777079772949218750e+01 3.831560134887695312e+01 3.633700192953379093e-15 -2.729483848142033597e-13 -8.079440708044088870e-14 4.475599781734139471e-14
2.453000000000000000e+03 5.222659301757812500e+01 2.983117866516113281e+01 -8.729384673878543000e-14 -3.119173485038179150e-13 -1.197633572175282879e-13 1.471233345654715530e-13
2.454000000000000000e+03 5.232180023193359375e+01 2.439415550231933594e+01 -2.662143238057329553e-13 -6.834090178530274895e-14 -1.003665669996843535e-13 6.965807867586465418e-14
2.455000000000000000e+03 4.858831405639648438e+01 1.857772636413574219e+01 -4.019981945252177474e-15 5.546583496857972195e-14 1.543375683873450532e-14 4.825593795539616371e-14
2.456000000000000000e+03 5.147094345092773438e+01 2.008007240295410156e+01 -8.933945841145887745e-14 -1.526657083085816713e-13 -7.260155204889123803e-14 2.689230843490753725e-14
2.457000000000000000e+03 3.769731521606445312e+01 4.076603698730468750e+01 -2.666869851309598000e-14 -5.146152397988469629e-14 -2.343906691730079234e-14 1.121726240268638292e-14
2.458000000000000000e+03 4.272409439086914062e+01 4.105117034912109375e+01 9.855920367221691208e-15 -1.501854874188038313e-13 -4.209886901433181061e-14 4.339145971480847571e-16
2.459000000000000000e+03 4.520430755615234375e+01 2.988155364990234375e+01 -9.435740356373775728e-14 -1.319407907582337280e-13 -6.788946032947051901e-14 2.777233500952328710e-14
2.460000000000000000e+03 4.375328826904296875e+01 2.258114242553710938e+01 -5.196225597698354848e-14 -9.089595937906980172e-14 -4.285746494562918396e-14 -4.466252942567777717e-14
2.461000000000000000e+03 4.601377868652343750e+01 1.658562469482421875e+01 -2.900968243293826354e-14 -1.210912202757527534e-13 -4.503027386192591519e-14 -3.368566344375163724e-14
2.462000000000000000e+03 3.335074234008789062e+01 1.183448219299316406e+01 -1.164101909485737441e-13 -1.413919843836972112e-13 -7.734064717867042416e-14 -1.230999351932438035e-13
2.463000000000000000e+03 4.306278991699218750e+01 1.378703308105468750e+01 -4.543863522206079142e-14 -7.094351554782704627e-14 -3.491464726384542472e-14 1.071586192718555763e-13
2.464000000000000000e+03 3.561620330810546875e+01 3.177423286437988281e+01 -3.300687156861277505e-14 -3.702127580190728295e-14 -2.100844319471648070e-14 -2.022942868719259518e-14
2.465000000000000000e+03 3.393280792236328125e+01 1.815530967712402344e+01 4.342241898078885720e-14 1.558624513091008690e-13 5.978546244221963346e-14 -8.588823283226659777e-14
2.466000000000000000e+03 3.265984344482421875e+01 1.176582336425781250e+01 -3.216133278747743129e-14 -1.052853279819715437e-13 -4.123399755320833471e-14 2.558546365223623997e-14
2.467000000000000000e+03 3.347809219360351562e+01 7.072453975677490234e+00 -7.498319185613583349e-14 -1.007620771759434875e-13 -5.272358274250286969e-14 3.646325388438793891e-14
2.468000000000000000e+03 3.985586547851562500e+01 1.069659900665283203e+01 -5.105147533011888950e-14 3.326906621286401800e-13 8.449175332905095592e-14 9.416161698017760928e-14
2.469000000000000000e+03 3.927247619628906250e+01 9.117390632629394531e+00 1.249923965327900954e-13 2.823229117935449617e-13 1.221945992741640952e-13 1.285155521498632103e-13
2.470000000000000000e+03 3.250141525268554688e+01 1.252913856506347656e+01 -2.490319894201363515e-14 -5.642374791676139922e-14 -2.439808439644568921e-14 5.382945201777913913e-14
2.471000000000000000e+03 2.715548896789550781e+01 3.833053588867187500e+01 -3.502666101837270153e-15 9.936594326217032536e-15 1.930178657896341847e-15 -2.074346079562923439e-14
2.472000000000000000e+03 2.894645690917968750e+01 3.020410346984863281e+01 -4.379491357780519734e-14 7.273265242033546962e-14 8.681321144539313334e-15 -5.222405014405732959e-14
2.473000000000000000e+03 2.815653038024902344e+01 2.197096443176269531e+01 -8.097355793691696224e-14 -1.033293798289626475e-13 -5.529088200739024073e-14 -5.178714716173177246e-14
2.474000000000000000e+03 2.357215118408203125e+01 2.303975486755371094e+01 -1.598525728018634906e-13 2.299364955978943498e-14 -4.105767917490787955e-14 5.414406715944369841e-14
2.475000000000000000e+03 2.870449638366699219e+01 2.073735809326171875e+01 2.215810237929990295e-14 1.009982299616379864e-13 3.694689953287477735e-14 -8.721884705350374523e-15
2.476000000000000000e+03 2.933924484252929688e+01 2.030018424987792969e+01 5.662241102421042283e-14 -9.011062431169350462e-14 -1.004646296980538783e-14 -6.505524743037616187e-14
2.477000000000000000e+03 3.047359848022460938e+01 1.851351928710937500e+01 -4.965110625160945590e-14 9.309832635709391901e-14 1.303416586223874948e-14 -1.185324607970396002e-14
2.478000000000000000e+03 3.105902099609375000e+01 1.705341529846191406e+01 -1.952024831922485881e-13 -8.365820514631694405e-14 -8.365820514631694405e-14 -4.554141081174883920e-14
2.479000000000000000e+03 3.228104019165039062e+01 1.329600524902343750e+01 1.593706584887208400e-13 -6.895113820182263709e-14 2.712585405319038745e-14 -2.238312684613337489e-14
2.480000000000000000e+03 3.590698623657226562e+01 2.508653402328491211e+00 2.560760339941157288e-14 1.482275402680394150e-13 5.215054123676281239e-14 4.096247944790007423e-14
2.481000000000000000e+03 3.932984924316406250e+01 6.527196407318115234e+00 -1.101122502639856338e-13 2.143545791441579113e-14 -2.660303821309072114e-14 8.716375603061432553e-15
2.482000000000000000e+03 3.939498138427734375e+01 4.850582122802734375e+00 -8.522445038095308179e-14 -3.652476541701754620e-14 -3.652476541701754620e-14 -7.010340074216944543e-16
2.483000000000000000e+03 3.959542846679687500e+01 3.281013011932373047e+00 5.909958513647698905e-16 -9.124861646446144614e-14 -2.719728603569823711e-14 7.203288123315901292e-14
2.484000000000000000e+03 1.787082481384277344e+01 4.120680618286132812e+01 8.863816510607620477e-16 1.033195135891930294e-13 3.126176685683441925e-14 -3.553150408988105247e-14
2.485000000000000000e+03 2.259259223937988281e+01 4.121068954467773438e+01 1.217359648145437817e-14 1.424701014714896408e-13 4.639310921647661623e-14 2.726886413138948813e-15
2.486000000000000000e+03 2.411040878295898438e+01 2.915352249145507812e+01 1.172860978725714042e-16 5.026546957146704460e-17 5.026546957146704460e-17 -3.827896472155057142e-15
2.487000000000000000e+03 2.177663230895996094e+01 2.244391059875488281e+01 -3.788136254331830877e-13 6.640604136454869577e-14 -9.372227793109574878e-14 -4.494004113612080908e-14
2.488000000000000000e+03 1.931256484985351562e+01 2.206705093383789062e+01 -3.516713829865292240e-13 -1.278408260328711687e-13 -1.438536654163255490e-13 -6.655427213031819833e-14
2.489000000000000000e+03 2.336671066284179688e+01 2.219897079467773438e+01 -1.589390104988000485e-13 -1.367431423085138653e-13 -8.870464448694145854e-14 9.419904228391909329e-15
2.490000000000000000e+03 1.854166793823242188e+01 3.853616714477539062e+01 1.543317916226447789e-14 9.811611565531050405e-14 3.406478861467908403e-14 -5.342083315962829759e-14
2.491000000000000000e+03 1.488296127319335938e+01 3.828213500976562500e+01 -5.563449193387226197e-15 1.920571991373409837e-13 5.594812536435095351e-14 1.774387318391294766e-14
2.492000000000000000e+03 1.655803680419921875e+01 2.941303062438964844e+01 -9.676962464851002199e-14 1.644065742920086670e-13 2.029108421542323570e-14 1.027978031270895300e-15
2.493000000000000000e+03 1.844254875183105469e+01 2.272488212585449219e+01 -2.847418752605773706e-13 -3.507869721693784859e-13 -1.906586596499976194e-13 -9.446194098195609401e-14
2.494000000000000000e+03 1.557369136810302734e+01 2.068140220642089844e+01 -1.298519261951416870e-13 1.959793953639973885e-13 1.983824176709624715e-14 -7.960427157943997245e-14
2.495000000000000000e+03 1.772286224365234375e+01 2.164483833312988281e+01 -3.565553885129246758e-13 -6.130755354338129903e-14 -1.253588839721445081e-13 -4.418968852946611459e-14
2.496000000000000000e+03 1.210830783843994141e+01 3.759897994995117188e+01 2.587639405862967451e-14 1.998125514872384212e-13 6.770668417198019706e-14 2.841885154123997143e-14
2.497000000000000000e+03 9.034909248352050781e+00 3.212073135375976562e+01 -5.174909505360932027e-14 3.209539296659957852e-13 8.076145411066090740e-14 2.510227031934323533e-14
2.498000000000000000e+03 1.266941642761230469e+01 2.280892944335937500e+01 -2.013492725414650630e-13 5.209352151985249466e-15 -5.884197615919559143e-14 -3.502273205604686246e-14
2.499000000000000000e+03 1.382410335540771484e+01 1.788990592956542969e+01 -2.638261313516084006e-14 2.403233861913989244e-13 6.418223428856367763e-14 4.349793027397068357e-14
2.500000000000000000e+03 1.391868495941162109e+01 1.235785484313964844e+01 8.019129929320509276e-14 2.631224502603474180e-13 1.029941241884393954e-13 2.200453361189680379e-14
2.501000000000000000e+03 9.391706466674804688e+00 2.567446947097778320e+00 -9.545409438999757912e-14 1.878458461912826949e-13 2.771752520157235583e-14 8.035277087800607454e-14
2.502000000000000000e+03 1.121674060821533203e+00 5.021805286407470703e+00 -4.762287908314545570e-14 -1.576626470437686445e-13 -6.158565817688740895e-14 2.348254850661514459e-14
2.503000000000000000e+03 1.030257225036621094e+01 1.857050299644470215e+00 5.572208954017845994e-14 1.611337474040352991e-13 6.505675176089048550e-14 8.459625686595140248e-14
2.504000000000000000e+03 1.105420780181884766e+01 1.858504414558410645e+00 -3.066245377720232257e-14 -1.046429517473010384e-13 -4.059162131853782940e-14 4.933441757329001809e-14
2.505000000000000000e+03 1.315973186492919922e+01 2.571004152297973633e+00 7.952234147058385300e-15 4.915904787189048775e-14 1.713338435157477774e-14 1.895835783282881493e-13
2.506000000000000000e+03 1.760980796813964844e+01 2.110624790191650391e+00 -1.239334562709235033e-13 1.756403995769456605e-13 1.551208197536711048e-14 -2.887409549737901537e-13
2.507000000000000000e+03 1.971858978271484375e+01 2.381732702255249023e+00 -1.099567079098154321e-13 4.437759431848500857e-14 -1.967373272214641144e-14 -1.699393901153419678e-14
2.508000000000000000e+03 2.206708145141601562e+01 3.940296173095703125e+00 -1.173304210949979720e-13 -1.417863629239388135e-13 -7.773503927143918246e-14 -1.559734465065090725e-13
2.509000000000000000e+03 2.258721351623535156e+01 3.615351200103759766e+00 -2.786801415717923835e-14 -1.620637353700118966e-13 -5.697952689103641388e-14 1.861335385952220256e-13
2.510000000000000000e+03 1.768934249877929688e+01 7.810202598571777344e+00 1.360455395256823796e-13 2.699033759077235084e-13 1.217846759852744820e-13 -1.320753944579478034e-13
2.511000000000000000e+03 1.159083652496337891e+01 3.267981290817260742e+00 3.009818287411460992e-15 4.704087258069165889e-14 1.501520736631005437e-14 6.095549276918452164e-14
2.512000000000000000e+03 1.359439134597778320e+00 3.795362472534179688e+01 2.056037293001432287e-14 5.578229935257472683e-13 1.735149974006408580e-13 3.191109214980419884e-14
2.513000000000000000e+03 1.344441533088684082e+00 3.717846298217773438e+01 4.306224363095738361e-14 5.217157001552452655e-13 1.694333827970476158e-13 2.955229512708115736e-14
2.514000000000000000e+03 1.255318284034729004e+00 3.321080017089843750e+01 1.901258284923296182e-14 6.029105708606208314e-13 1.865769501787142848e-13 -4.007589683827257609e-14
2.515000000000000000e+03 1.103452920913696289e+00 2.672752761840820312e+01 -1.216754019588150992e-13 3.138609977384326788e-13 5.765567602337984265e-14 -1.215720910443043867e-13
2.516000000000000000e+03 1.066125631332397461e+00 1.869024467468261719e+01 9.894252843249684570e-15 1.414932353140802013e-13 4.541624644719896575e-14 -8.503041884965964470e-15
2.517000000000000000e+03 1.062447428703308105e+00 1.225747585296630859e+01 -3.783069709817170334e-14 6.662319011903859722e-15 -9.350513595286942536e-15 -1.938784216178913999e-14
2.518000000000000000e+03 1.086936950683593750e+00 7.416180610656738281e+00 5.244155126425328883e-14 2.247495029981342457e-14 2.247495029981342457e-14 6.023304142781238379e-14
2.519000000000000000e+03 3.642472028732299805e-01 6.688160419464111328e+00 -4.818792459786343241e-14 -1.807802903685748475e-13 -6.869046211823923165e-14 1.725878757941577690e-14
2.520000000000000000e+03 1.888477516174316406e+01 6.727092742919921875e+00 2.545367616766519570e-13 1.205249279285364183e-13 1.125185082368092282e-13 -1.180582748125076978e-14
2.521000000000000000e+03 1.609563064575195312e+01 1.070482921600341797e+01 1.731388876670056365e-13 3.058165699842962937e-13 1.436866305191270010e-13 -1.765037362143687116e-13
2.522000000000000000e+03 1.567755222320556641e+01 1.140892410278320312e+01 8.927389128507781657e-14 2.269829018752139715e-13 9.487703455995574742e-14 -1.223787374606336020e-13
2.523000000000000000e+03 1.486022853851318359e+01 1.372003746032714844e+01 -8.534077172153362034e-14 1.921801205586465278e-13 3.205180465113387223e-14 -9.803226616979590635e-14
2.524000000000000000e+03 1.466757965087890625e+01 1.452536201477050781e+01 2.567525253277698483e-14 3.083848551955342687e-13 1.002180313020538394e-13 2.575390758874254553e-15
2.525000000000000000e+03 1.454700183868408203e+01 1.702464485168457031e+01 -1.318124127506819718e-14 2.688565787101887539e-13 7.670260097642628283e-14 -5.214729117134419764e-15
2.526000000000000000e+03 1.234722518920898438e+01 1.804725837707519531e+01 1.070724268932088732e-14 1.875926172213715493e-13 5.948995636384513119e-14 -3.226055422691880004e-14
2.527000000000000000e+03 3.650825119018554688e+01 4.235765457153320312e+00 -2.452955068612313466e-14 -2.392674003804523553e-13 -7.913908786107148874e-14 -1.936594805416851084e-14
2.528000000000000000e+03 3.438626098632812500e+01 2.286546468734741211e+00 5.552629956848652293e-14 6.954793728766728300e-14 3.752227207328567848e-14 3.970575699284960292e-14
2.529000000000000000e+03 3.296947097778320312e+01 2.211250782012939453e+00 -1.771948202316381282e-14 6.103236270321374390e-14 1.299386318757544262e-14 8.813251777678443588e-14
2.530000000000000000e+03 3.325291824340820312e+01 1.884457111358642578e+00 6.910933007505185022e-14 -1.076345636967859787e-13 -1.155757059474000689e-14 -5.345190571626537435e-14
2.531000000000000000e+03 4.687308883666992188e+01 1.830849838256835938e+01 -6.389099047997975900e-14 -2.561365832973172552e-13 -9.600827755419996667e-14 -1.085437824148959007e-13
2.532000000000000000e+03 4.663512039184570312e+01 1.711051559448242188e+01 -4.375652265650384343e-14 -7.315057847651074141e-15 -1.532147415124647527e-14 -6.118478119987447172e-14
2.533000000000000000e+03 6.205821990966796875e+01 2.027287292480468750e+01 -8.693292938809216164e-13 -1.996728303532702142e-12 -8.598173171711631646e-13 5.774438544513260663e-13
2.534000000000000000e+03 6.206681442260742188e+01 1.692848587036132812e+01 -7.885714786238021135e-14 -2.801728250442780954e-12 -8.641756472742290196e-13 3.269871894952258717e-13
2.535000000000000000e+03 6.192655181884765625e+01 1.126132583618164062e+01 -6.489651345606070598e-15 -2.107324948222299987e-12 -6.341443754658004917e-13 -1.909992753150110967e-13
2.536000000000000000e+03 6.002559661865234375e+01 5.157379627227783203e+00 -4.573839137295143686e-13 -1.202542514351645497e-12 -4.979779609504131344e-13 -7.423660210864602149e-13
2.537000000000000000e+03 5.913571548461914062e+01 1.799851506948471069e-01 -1.936962282190687890e-13 -8.493410510491961052e-13 -3.129111824252267526e-13 -3.338506229279281090e-13
2.538000000000000000e+03 6.544884490966796875e+01 -1.172149848937988281e+01 6.148557140858712522e-13 8.050580601465240349e-14 2.086084668721788216e-13 2.470659852919776522e-13
2.539000000000000000e+03 6.054827117919921875e+01 4.865170478820800781e+00 -4.041154075869884954e-13 -1.608628378071963461e-12 -6.038231438292018805e-13 -4.334480365776605115e-13
2.540000000000000000e+03 5.774436187744140625e+01 1.899102091789245605e+00 -2.816926921757334501e-13 -6.239858890005889336e-13 -2.717035580898641278e-13 -5.369839772492723817e-13
2.541000000000000000e+03 5.838005447387695312e+01 1.546030163764953613e+00 -2.855328007454055461e-13 -8.543863858588574001e-13 -3.419757424287517278e-13 -6.204151775657251733e-13
2.542000000000000000e+03 5.387397766113281250e+01 -4.073843479156494141e+00 -4.493202684918706780e-13 -4.213205847571066531e-13 -2.611922451326714745e-13 -5.288943111594890389e-13
2.543000000000000000e+03 5.171438598632812500e+01 -5.493405342102050781e+00 -7.657452688429600141e-13 -3.281765321733881580e-13 -3.281765321733881580e-13 -3.024111451706279485e-13
2.544000000000000000e+03 5.337155914306640625e+01 -4.678730487823486328e+00 -8.297933737702600787e-13 5.613280904003849214e-14 -2.320981677250005815e-13 -4.933760648292984108e-13
2.545000000000000000e+03 5.323906707763671875e+01 -3.692640066146850586e+00 -4.288113646718633154e-13 -5.040329590332015552e-13 -2.798532889800031676e-13 -5.015502444784269986e-13
2.546000000000000000e+03 5.377743911743164062e+01 -3.104594469070434570e+00 -4.788196748817252768e-13 -5.254650881081346370e-13 -3.012854180549362493e-13 -5.237449471513777599e-13
2.547000000000000000e+03 4.934400939941406250e+01 -5.135112762451171875e+00 -6.984484605260243839e-13 1.810499043438176803e-13 -1.552195600783984331e-13 2.780243009013923239e-14
2.548000000000000000e+03 4.389985275268554688e+01 -3.723095655441284180e+00 -5.637460984142528275e-13 -1.958545223787813705e-13 -2.278801875931629750e-13 1.314972300969427521e-13
2.549000000000000000e+03 3.899263381958007812e+01 -9.388644218444824219e+00 2.630836629276267491e-13 1.356256144717515877e-13 1.196127886408243635e-13 -2.086881150742750379e-13
2.550000000000000000e+03 4.106120681762695312e+01 -2.079181194305419922e+00 -2.352679140914248901e-13 -7.223475967767581385e-14 -9.225079874259842216e-14 1.451612809989788477e-13
2.551000000000000000e+03 3.999277496337890625e+01 -1.654515504837036133e+00 -2.461713287642969261e-13 1.003772667198740698e-13 -4.373821996857957251e-14 3.563130828799013217e-14
2.552000000000000000e+03 3.866215515136718750e+01 -8.173977136611938477e-01 -1.908310342428956585e-13 1.698454880428093561e-13 -6.295666401124732497e-15 8.303943063768873256e-14
2.553000000000000000e+03 3.999673843383789062e+01 -4.999352395534515381e-01 -1.776820200303716457e-13 -7.614943425176060043e-14 -7.614943425176060043e-14 -8.262214832655337404e-14
2.554000000000000000e+03 3.720901870727539062e+01 -1.028373479843139648e+00 -2.236295052132977745e-13 8.716257696075174755e-14 -4.094008050864288151e-14 5.266705853986669572e-14
2.555000000000000000e+03 3.719088363647460938e+01 -1.653211712837219238e+00 -2.254872856358516864e-13 1.321173395294958364e-13 -2.801098315428039720e-14 -1.770725086740546073e-14
2.556000000000000000e+03 3.475820541381835938e+01 -8.755414009094238281e+00 2.492600039132736311e-13 2.440785746259110933e-13 1.480015789827662798e-13 -2.267227340113989187e-13
2.557000000000000000e+03 3.427543258666992188e+01 -1.792231440544128418e+00 -1.182012387274111731e-13 1.323461197404174339e-13 4.243462694539278449e-15 -7.814236047511483041e-14
2.558000000000000000e+03 3.494339370727539062e+01 -1.459819078445434570e+00 -1.767819018342470239e-13 -1.215146283291626550e-13 -8.948895633851747244e-14 -1.079854318485930220e-13
2.559000000000000000e+03 3.329119873046875000e+01 -2.779796361923217773e+00 -9.564684520747476770e-14 1.877632435382664555e-13 2.763491746635843294e-14 -2.709809915520111634e-13
2.560000000000000000e+03 6.857833862304687500e+01 -1.041292381286621094e+01 3.201461990474940844e-13 -4.375407913585760422e-13 -3.521837633807187173e-14 7.271633517763956278e-14
2.561000000000000000e+03 6.342418670654296875e+01 -1.019883728027343750e+01 6.057112819125853864e-13 2.138395932766226637e-13 2.458652584910042682e-13 1.568709761699468852e-13
2.562000000000000000e+03 5.960543823242187500e+01 8.303332924842834473e-01 -1.912655689211006926e-13 -1.208588025665424670e-12 -4.199560892179793337e-13 -3.302588779709181299e-13
2.563000000000000000e+03 7.333098602294921875e+01 -3.269072473049163818e-01 -1.952414196027679738e-13 -1.751767947279908588e-13 -1.111254575229640718e-13 4.843717115766976722e-13
2.564000000000000000e+03 6.126779937744140625e+01 8.107788085937500000e+00 -3.598561200543123895e-14 -1.936962309295742202e-12 -5.918843431866604998e-13 -5.737253662603525317e-13
2.565000000000000000e+03 7.407636260986328125e+01 5.508892059326171875e+00 -1.655079881739823788e-13 2.035736894811721043e-13 1.141971090037668599e-14 4.357118778188645569e-13
2.566000000000000000e+03 6.208915710449218750e+01 1.286696338653564453e+01 -5.707484181452504579e-14 -2.357758953352995235e-12 -7.244501764973321212e-13 -1.501090105080621351e-13
2.567000000000000000e+03 6.624768829345703125e+01 1.349050521850585938e+01 -2.159863135781439625e-13 -1.007584532301819547e-12 -3.670712551192417683e-13 2.077322553339575051e-13
2.568000000000000000e+03 7.893485260009765625e+01 6.801173210144042969e+00 -3.057328424715261006e-13 9.212434417746329096e-13 1.846531825014374739e-13 1.985928511482465408e-13
2.569000000000000000e+03 7.892704772949218750e+01 1.398463630676269531e+01 6.623719042871123452e-14 1.309413948796800398e-12 4.126953227941154712e-13 4.933285564453528116e-14
2.570000000000000000e+03 6.216878128051757812e+01 2.449103164672851562e+01 -1.614631957866721756e-13 -1.263012372638983027e-12 -4.273426501989058268e-13 2.368680880777962461e-13
2.571000000000000000e+03 7.332117462158203125e+01 2.561280822753906250e+01 -6.970602751694282562e-14 4.276354661006398494e-13 1.073788342856145384e-13 -1.570660376933041835e-13
2.572000000000000000e+03 3.428050613403320312e+01 1.681864356994628906e+01 -5.505716190032025614e-14 1.594078737282914049e-13 3.130521287076498682e-14 -2.955690637444600977e-14
2.573000000000000000e+03 1.477462577819824219e+01 1.950395965576171875e+01 -6.305172990704946412e-14 2.474835115486018200e-13 5.532953720297113798e-14 -1.418693365773859502e-15
2.574000000000000000e+03 1.308248519897460938e+01 1.795315551757812500e+01 -1.203480759194791930e-14 2.693479120297048723e-13 7.719393429594240130e-14 -6.323300851028904046e-14
2.575000000000000000e+03 1.360789680480957031e+01 1.312969112396240234e+01 -6.134232932806377159e-14 -7.204051808221145770e-14 -4.001485286782985318e-14 -4.381456135404970809e-14
2.576000000000000000e+03 3.566491603851318359e-01 2.036153793334960938e+01 7.811410345599442695e-14 1.249793725541931133e-13 6.092804212542990427e-14 1.985517564977775512e-14
2.577000000000000000e+03 3.138261795043945312e+01 1.865753936767578125e+01 1.480367206856819662e-13 1.769336122113638471e-14 4.971902474145209472e-14 6.547528768078778039e-14
2.578000000000000000e+03 7.890379333496093750e+01 2.113297653198242188e+01 -8.137456366293788212e-14 1.200400781380117632e-12 3.357078612493957781e-13 -1.372656735455432542e-13
2.579000000000000000e+03 6.446846008300781250e+01 3.321233367919921875e+01 1.951495199161226712e-13 -5.797532592888288150e-13 -1.153811204565591275e-13 -1.348867781250477627e-14
2.580000000000000000e+03 7.166001892089843750e+01 3.546767807006835938e+01 1.079503172507316477e-13 9.201537101710677291e-14 5.998970580272516839e-14 -1.135971674256879005e-13
2.581000000000000000e+03 5.660868453979492188e+01 2.330931282043457031e+01 -5.066018134505800852e-13 -2.171150629073914651e-13 -2.171150629073914651e-13 3.105355870450937639e-13
2.582000000000000000e+03 5.021337509155273438e+01 2.343097496032714844e+01 -1.688917018391467018e-13 -3.806894713744360392e-14 -6.208819266009801829e-14 8.134138707645982569e-14
2.583000000000000000e+03 3.369311141967773438e+01 2.543501091003417969e+01 -1.004365759668408159e-14 -2.717989814335700083e-14 -1.116706723023209308e-14 -1.588701263913975398e-14
2.584000000000000000e+03 2.808953285217285156e+01 2.401936721801757812e+01 -1.459430991855581450e-13 -1.679609244384632633e-14 -4.882175596416203633e-14 1.784962185924585804e-14
2.585000000000000000e+03 2.278593444824218750e+01 2.330620002746582031e+01 -2.341164642791909722e-13 -2.375884591062499274e-13 -1.415114770156322699e-13 -1.245510720384798709e-13
2.586000000000000000e+03 1.759569549560546875e+01 2.332718658447265625e+01 -1.790192614373881108e-13 -3.097159030976404104e-14 -6.299725552414564556e-14 -5.318415860163829001e-14
2.587000000000000000e+03 3.719091713428497314e-01 2.759803390502929688e+01 5.918495674019780273e-14 3.913725626133318647e-13 1.351672544508061846e-13 -5.202644752185826837e-14
2.588000000000000000e+03 4.777122497558593750e+01 3.275976562500000000e+01 -6.253226154115734681e-14 -2.441165488070023981e-13 -9.199464242682156567e-14 8.452963941871574627e-14
2.589000000000000000e+03 4.404456710815429688e+01 3.530222702026367188e+01 -5.096787656635667907e-14 -1.705339564223376514e-13 -6.645054786372922573e-14 2.950910999929834411e-14
2.590000000000000000e+03 3.206773376464843750e+01 3.158153152465820312e+01 -3.060161309466694068e-14 9.760497870548758004e-15 -6.252334313125570628e-15 -3.739684343445626169e-14
2.591000000000000000e+03 2.584883308410644531e+01 2.916168022155761719e+01 1.495487320947713056e-14 1.322243367313929996e-13 4.415376416810716520e-14 -4.518194358146127021e-14
2.592000000000000000e+03 1.909067344665527344e+01 2.992569160461425781e+01 -8.348737554151469675e-14 1.854894920115795348e-14 -1.948152739388725463e-14 8.809989684391977827e-15
2.593000000000000000e+03 6.242345333099365234e+00 3.189524078369140625e+01 4.879571732433049189e-15 4.767573597193319745e-13 1.444910678735297771e-13 -6.938842949581495111e-17
2.594000000000000000e+03 4.194780290126800537e-01 3.404774093627929688e+01 -1.530927010054243531e-14 6.110766732035644022e-13 1.787302266907306314e-13 2.526749087196876464e-14
2.595000000000000000e+03 7.881435394287109375e+01 3.476247406005859375e+01 1.208911985274563339e-13 7.380747488877625884e-13 2.576897842245656767e-13 -2.488329874995084262e-14
2.596000000000000000e+03 3.536487519741058350e-01 1.392912387847900391e+01 1.743338478676741132e-14 5.322240044514092716e-14 2.119673523075932264e-14 3.217189020613200889e-14
2.597000000000000000e+03 1.817488098144531250e+01 8.198600769042968750e+00 -2.329155528250350868e-15 1.991621928140729914e-13 5.904991258335115512e-14 -2.986708103058788311e-13
2.598000000000000000e+03 1.689448165893554688e+01 2.048897981643676758e+00 -1.174348839743169504e-13 1.326745516835176053e-13 4.571900566870080659e-15 -7.902248191742067274e-14
2.599000000000000000e+03 3.204273986816406250e+01 1.405297088623046875e+01 -3.204136242896012121e-14 3.201893638464861636e-14 -6.727481842180006735e-18 -1.354697197518753282e-13
2.600000000000000000e+03 3.342138671875000000e+01 7.875414848327636719e+00 6.521423890270758306e-14 -1.779303158803979823e-13 -3.381482241568076197e-14 5.507865620838978127e-14
2.601000000000000000e+03 3.570936584472656250e+01 -8.273983001708984375e+00 1.236579469463677805e-13 2.817510222526131702e-13 1.216226826281779916e-13 -1.527295949215953796e-13
2.602000000000000000e+03 3.632485961914062500e+01 -9.276452064514160156e+00 2.526156909522792038e-13 4.285205003340397667e-13 2.043408573858956911e-13 -2.367977233568019368e-13
2.603000000000000000e+03 3.711705780029296875e+01 -9.534405708312988281e+00 3.088542605261118679e-13 -4.886732125452663417e-15 9.119025928252741386e-14 -2.563798511597686902e-13
2.604000000000000000e+03 3.791279220581054688e+01 -9.800229072570800781e+00 3.103613286509210312e-13 3.160157953461389946e-13 1.879131344886125765e-13 -1.875348834556866962e-13
2.605000000000000000e+03 4.007789611816406250e+01 -1.098367023468017578e+01 3.160762938273636857e-13 3.184650622638923734e-13 1.903624149588931114e-13 -1.174829276830852143e-13
2.606000000000000000e+03 4.143129730224609375e+01 -1.182013797760009766e+01 3.329036807504792694e-13 3.256767956445055789e-13 1.975741483395063169e-13 -1.526113626746858354e-13
2.607000000000000000e+03 4.394663238525390625e+01 -1.356505203247070312e+01 3.382648978630942160e-13 -1.752859738867601491e-13 4.889367922577929348e-14 -2.193142314890067501e-13
2.608000000000000000e+03 4.332580184936523438e+01 -1.312587738037109375e+01 2.993176453219836830e-13 2.197808856565716673e-13 1.557295552278084583e-13 -1.713620293841006115e-13
2.609000000000000000e+03 4.269823074340820312e+01 -1.268920135498046875e+01 3.949456050828664688e-13 -1.374138839825220226e-14 1.143612656830106378e-13 -2.272768426367019479e-13
2.610000000000000000e+03 4.517127990722656250e+01 -1.443994426727294922e+01 3.226677009349893099e-13 -2.277214332900567850e-13 2.848388503686426210e-14 -7.714116753146024741e-14
2.611000000000000000e+03 4.577692413330078125e+01 -1.486460113525390625e+01 4.015894062604774550e-13 -1.023959495210884085e-13 8.975803498893764054e-14 -1.851186482817773933e-15
2.612000000000000000e+03 4.630348205566406250e+01 -1.523259735107421875e+01 2.733044639127019115e-13 -2.031261579294244002e-13 2.105349179498325340e-14 -5.866592205517467962e-14
2.613000000000000000e+03 4.719882202148437500e+01 -1.588259410858154297e+01 1.874083841672119499e-13 -1.970472531887326739e-13 -2.891662061708932807e-15 -1.095417837384052295e-13
2.614000000000000000e+03 5.019050598144531250e+01 -1.543207836151123047e+01 6.482729934462194699e-13 -8.817629921576211616e-14 1.680290157230271419e-13 3.118033649741717983e-14
2.615000000000000000e+03 5.099362182617187500e+01 -1.463245677947998047e+01 7.108721163801012821e-13 -1.986009691120130261e-13 1.536813346936574676e-13 -3.703426589918637490e-14
2.616000000000000000e+03 5.252901840209960938e+01 -1.512793540954589844e+01 1.073475726712236344e-12 1.398043871425266871e-13 3.639840436431979187e-13 8.262782683543176687e-14
2.617000000000000000e+03 5.331764602661132812e+01 -1.503999233245849609e+01 9.437807523340890903e-13 -2.360358002800877486e-13 2.123234856162004025e-13 1.837896967862157060e-13
2.618000000000000000e+03 5.410597991943359375e+01 -1.496399879455566406e+01 8.277948639057175484e-13 1.717654203549009995e-13 2.998680947649545736e-13 9.938921295129729550e-14
2.619000000000000000e+03 5.489178085327148438e+01 -1.488657379150390625e+01 7.569890894676412074e-13 -1.788365327137428351e-13 1.734457710919276585e-13 3.966740672912971721e-14
2.620000000000000000e+03 5.646183395385742188e+01 -1.470814895629882812e+01 8.387740372053920090e-13 -5.228395231408715371e-14 2.359470312272154979e-13 5.827805550423156844e-14
2.621000000000000000e+03 5.802495193481445312e+01 -1.453271484375000000e+01 7.253170503443429062e-13 -5.515743027248443120e-14 2.010478778900412489e-13 1.323750543858956408e-13
2.622000000000000000e+03 5.879453277587890625e+01 -1.440633010864257812e+01 7.063746831383055369e-13 2.112301219353573956e-13 2.752814523641206046e-13 1.110375964894112777e-13
2.623000000000000000e+03 6.028818893432617188e+01 -1.395385456085205078e+01 7.043219631651387314e-13 2.103503867400755012e-13 2.744017036163115542e-13 2.279002724384082690e-13
2.624000000000000000e+03 6.101411437988281250e+01 -1.365660762786865234e+01 7.203809489035595259e-13 7.997994763220619974e-14 2.401082804803778004e-13 3.552974700473526815e-13
2.625000000000000000e+03 6.306502151489257812e+01 -1.263192081451416016e+01 1.002593841281651521e-12 -1.650792404248729861e-13 2.512543938095607166e-13 4.034549387285646382e-13
2.626000000000000000e+03 6.624050140380859375e+01 -1.314536285400390625e+01 1.601812486904524713e-13 3.433589675604087343e-14 5.835514227869528781e-14 -1.006419069176506254e-13
2.627000000000000000e+03 7.046163177490234375e+01 -1.459070873260498047e+01 4.743180539090383063e-14 1.118298162405828577e-13 4.777848581181964871e-14 8.700224378823187554e-15
2.628000000000000000e+03 7.281816101074218750e+01 -1.446486759185791016e+01 6.434062267343665376e-14 -1.817639700590120005e-14 1.384926736144745721e-14 2.020955424493139918e-13
2.629000000000000000e+03 7.359901428222656250e+01 -1.445197296142578125e+01 5.957129863183585616e-14 2.553055728252932172e-14 2.553055728252932172e-14 -1.141329462580123466e-15
2.630000000000000000e+03 7.436938476562500000e+01 -1.446597194671630859e+01 5.265096830200065303e-14 2.256470191090449023e-14 2.256470191090449023e-14 -2.373807971207692741e-14
2.631000000000000000e+03 7.590154266357421875e+01 -1.450401496887207031e+01 1.170862282725681353e-14 1.422708251121868051e-13 4.619383624530556953e-14 5.340347237234137345e-14
2.632000000000000000e+03 7.665785217285156250e+01 -1.452208328247070312e+01 -2.634083789371873159e-15 -1.383817377093726764e-13 -4.230474545435965184e-14 5.101117689062031890e-14
2.633000000000000000e+03 7.893567657470703125e+01 -1.224180603027343750e+01 4.296863293775862735e-14 -2.733581996828757243e-14 4.689843552028137574e-15 1.599009282187563441e-13
2.634000000000000000e+03 7.964791107177734375e+01 -1.220880889892578125e+01 7.760728637420249987e-14 2.162640590696804366e-13 8.816140498841759654e-14 4.238936997502098722e-15
2.635000000000000000e+03 7.963217163085937500e+01 -1.458111381530761719e+01 -5.289288091173648121e-14 -1.141702699178001601e-13 -5.011894626530052910e-14 -8.548082014903264636e-15
2.636000000000000000e+03 7.954610443115234375e+01 4.202130126953125000e+01 2.291846691539114328e-14 5.588335783707210069e-13 1.745256093506689088e-13 -1.172623094816433592e-14
2.637000000000000000e+03 7.729805755615234375e+01 3.989778518676757812e+01 -3.496742758085473468e-14 3.738970125264501343e-13 1.016788785329972300e-13 3.480416028620557378e-14
2.638000000000000000e+03 7.953953552246093750e+01 4.039356231689453125e+01 -9.675076291884056323e-15 4.533630144475803148e-13 1.331063894088185817e-13 3.138969254879234172e-14
2.639000000000000000e+03 7.958795166015625000e+01 3.962265777587890625e+01 7.379758289920504422e-14 4.891369969652059613e-13 1.688803854789713843e-13 5.832854798525034454e-15
2.640000000000000000e+03 7.958960723876953125e+01 3.883585357666015625e+01 -9.761659660939212002e-14 4.156738158973133368e-13 9.541716375349729162e-14 -6.121199467440385789e-14
2.641000000000000000e+03 7.865933227539062500e+01 4.010023117065429688e+01 4.963840414553243041e-14 3.872811901901862530e-13 1.310758820276605729e-13 2.194581051172955766e-15
2.642000000000000000e+03 7.958264923095703125e+01 3.804159164428710938e+01 -5.367408584646196634e-14 4.802572727523324314e-13 1.279749553941347817e-13 -2.979565446909089588e-14
2.643000000000000000e+03 7.959661865234375000e+01 3.565945434570312500e+01 8.401880401262204479e-14 7.680232318174606831e-13 2.556126154924093230e-13 -2.932867504087423305e-14
2.644000000000000000e+03 7.960430145263671875e+01 3.486326980590820312e+01 -1.313657570310017286e-13 6.757155598946518182e-13 1.633049435696004581e-13 -5.511063593731336738e-15
2.645000000000000000e+03 7.960021972656250000e+01 3.406523513793945312e+01 1.292467652000417466e-13 7.416557060331563367e-13 2.612707413699594250e-13 8.858269207132757339e-14
2.646000000000000000e+03 7.958784484863281250e+01 3.326828765869140625e+01 -5.756019169330175989e-14 9.818521863602658328e-13 2.772876058539791577e-13 6.085427572011942177e-14
2.647000000000000000e+03 7.957868194580078125e+01 3.246706771850585938e+01 1.025472567105223387e-13 9.818432959024514517e-13 3.253171657838921371e-13 1.968129333823360333e-14
2.648000000000000000e+03 7.957579040527343750e+01 3.166340446472167969e+01 -4.996252299686518294e-14 8.478555314425650913e-13 2.393679059218417615e-13 -3.853309747561643739e-14
2.649000000000000000e+03 7.874395751953125000e+01 3.318373870849609375e+01 1.294410542293511490e-13 9.247428127065471237e-13 3.162551600807694818e-13 1.241904884187678207e-14
2.650000000000000000e+03 7.957729339599609375e+01 3.086029052734375000e+01 -3.461397428449267122e-14 9.230599140944151237e-13 2.665337839758558092e-13 7.778630509353880174e-15
2.651000000000000000e+03 7.959475708007812500e+01 2.845372962951660156e+01 -8.068045573804676768e-15 1.140316031704446953e-12 3.396743877923796839e-13 -2.436847720680736240e-15
2.652000000000000000e+03 7.960045623779296875e+01 2.765332221984863281e+01 1.455592577351803862e-14 1.150011943312767571e-12 3.493703807158632380e-13 -9.447119396987189999e-15
2.653000000000000000e+03 7.960620117187500000e+01 2.685408592224121094e+01 3.729139460878667933e-14 1.114004830223003228e-12 3.453888650778447200e-13 2.682361236881931899e-14
2.654000000000000000e+03 7.961177825927734375e+01 2.605567359924316406e+01 -2.600405039411037011e-14 1.086878200287633156e-12 3.182622351424746476e-13 -1.265926992681694341e-14
2.655000000000000000e+03 7.961672973632812500e+01 2.525781440734863281e+01 -1.042905928175068275e-13 1.144828697986766119e-12 3.121614295178987142e-13 -5.446703404596818510e-14
2.656000000000000000e+03 7.962120819091796875e+01 2.446033859252929688e+01 5.475607556888924254e-14 1.395995406945627071e-12 4.352254234091246232e-13 3.253346485439234659e-14
2.657000000000000000e+03 7.884889984130859375e+01 2.510164833068847656e+01 2.093628106980809783e-14 1.335750195348428537e-12 4.070059447889434745e-13 -3.590070796389730964e-15
2.658000000000000000e+03 7.962528991699218750e+01 2.366315078735351562e+01 -3.725874995899949860e-14 1.448062373135550196e-12 4.232410591702845393e-13 5.279001130139128820e-15
2.659000000000000000e+03 7.963474273681640625e+01 2.127250099182128906e+01 1.668003029534764758e-13 1.718519966088793982e-12 5.655960725811648437e-13 1.065174966459470074e-13
2.660000000000000000e+03 7.963744354248046875e+01 2.047575950622558594e+01 -6.956025653485214955e-14 1.434218846116386281e-12 4.093975592561749366e-13 -6.384005330666367439e-14
2.661000000000000000e+03 7.963952636718750000e+01 1.967906188964843750e+01 7.260807081445330713e-14 1.540899027298314738e-12 4.840521429863575698e-13 -3.642609709009073451e-15
2.662000000000000000e+03 7.964088439941406250e+01 1.888228797912597656e+01 4.882063449253987164e-14 1.530704491110868037e-12 4.738574983786936201e-13 1.051696436101673404e-14
2.663000000000000000e+03 7.964167785644531250e+01 1.808556747436523438e+01 -5.565816904584686142e-14 1.485927808748954693e-12 4.290808973319432118e-13 -2.664194434218224248e-16
2.664000000000000000e+03 7.964205932617187500e+01 1.728871154785156250e+01 6.897611550937127189e-14 1.539342546659494548e-12 4.824956081374287553e-13 4.900909932330395347e-14
2.665000000000000000e+03 7.892536926269531250e+01 1.796305656433105469e+01 3.935369960678461454e-14 1.297892457570448688e-12 4.011738315677637612e-13 1.058631179544139087e-14
2.666000000000000000e+03 7.964217376708984375e+01 1.649168205261230469e+01 -3.297846208356186581e-14 1.541398627659396059e-12 4.525260645805301296e-13 -2.295937521861173697e-14
2.667000000000000000e+03 7.964228057861328125e+01 1.409756565093994141e+01 1.568675033348631426e-14 1.608006154445174030e-12 4.871078583892907155e-13 3.271767419162942281e-14
2.668000000000000000e+03 7.964243316650390625e+01 1.329964542388916016e+01 -6.674070069387708082e-14 1.526929082305839014e-12 4.380565192269730845e-13 5.251406406080183498e-14
2.669000000000000000e+03 7.964254760742187500e+01 1.250135231018066406e+01 4.303794056163476323e-14 1.482475166930674604e-12 4.576539342805718835e-13 -1.241504343482745330e-15
2.670000000000000000e+03 7.964286804199218750e+01 1.170267772674560547e+01 1.041578525902767116e-13 1.554420437852033210e-12 4.975734993299674169e-13 -7.562698432989414798e-14
2.671000000000000000e+03 7.964346313476562500e+01 1.090414047241210938e+01 -1.371133973504176651e-13 1.359516557490614286e-12 3.667209493973117018e-13 -2.166719765845509516e-14
2.672000000000000000e+03 7.964413452148437500e+01 1.010589885711669922e+01 1.110474085190722715e-13 1.511622099194254165e-12 4.868008665441514449e-13 4.111341055470542349e-14
2.673000000000000000e+03 7.893058776855468750e+01 1.079137802124023438e+01 -7.999229334917066798e-16 1.417936623150650721e-12 4.251409879522938251e-13 1.154839570326193776e-13
2.674000000000000000e+03 7.964459228515625000e+01 9.307889938354492188e+00 -1.791647884739899776e-13 1.432996408166908875e-12 3.761494967498973940e-13 -2.574882581457549335e-14
2.675000000000000000e+03 7.964488983154296875e+01 6.912479877471923828e+00 2.750317063936885686e-13 1.215893488323849247e-12 4.472775502837450512e-13 2.037962118126793870e-14
2.676000000000000000e+03 7.964494323730468750e+01 6.114397525787353516e+00 -3.473399953074496338e-13 1.177917572509068478e-12 2.491732677394747908e-13 4.074915420013407868e-15
2.677000000000000000e+03 7.964498901367187500e+01 5.316044330596923828e+00 4.075318370527075684e-13 1.318430174063189853e-12 5.177886114662855199e-13 1.088832647498259518e-14
2.678000000000000000e+03 7.964519500732421875e+01 4.517375469207763672e+00 -5.285459570014694464e-13 1.054506850763081705e-12 1.577882654179782462e-13 -4.909256002069576144e-15
2.679000000000000000e+03 7.964555358886718750e+01 3.718848228454589844e+00 5.883864359276791411e-13 1.167184621522765475e-12 5.266713172351333849e-13 1.096893097727626165e-13
2.680000000000000000e+03 7.964598083496093750e+01 2.920499801635742188e+00 -8.272854515149752341e-13 9.264756930388307055e-13 2.975706025988220094e-14 9.518687243579779245e-14
2.681000000000000000e+03 7.893734741210937500e+01 3.607592344284057617e+00 -4.556742353237219767e-13 1.085737619602178405e-12 1.890190071520206350e-13 3.041680405810320842e-13
2.682000000000000000e+03 7.964630889892578125e+01 2.122466802597045898e+00 1.191531573928317211e-12 9.681658686561123162e-13 6.479092436173505831e-13 2.115468512712583016e-14
2.683000000000000000e+03 7.964636230468750000e+01 -2.723606228828430176e-01 7.016838824390470020e-13 8.497330443446582393e-13 4.654250617720789851e-13 2.153158294021517705e-13
2.684000000000000000e+03 7.964649200439453125e+01 -1.070250153541564941e+00 -5.425661005545312499e-13 5.452377915479700299e-13 8.015124966963477812e-16 -1.080382460469202222e-13
2.685000000000000000e+03 7.964668273925781250e+01 -1.868394374847412109e+00 3.673764580307964378e-13 5.692055984538035851e-13 2.809745979718419884e-13 1.599184109787876729e-13
2.686000000000000000e+03 7.964701080322265625e+01 -2.666688919067382812e+00 -3.025524980288657462e-13 4.193460357605760525e-13 3.503806335239216529e-14 -4.883334676301226418e-14
2.687000000000000000e+03 7.964745330810546875e+01 -3.464753627777099609e+00 2.313443761645800345e-13 4.651552038513473430e-13 2.089498685837673508e-13 1.582378705063808289e-13
2.688000000000000000e+03 7.964812469482421875e+01 -4.262757301330566406e+00 -2.466151740286581795e-13 4.433191823621090988e-13 5.901119978952984457e-14 -7.563886163763878460e-16
2.689000000000000000e+03 7.894161224365234375e+01 -3.571861982345581055e+00 -2.190052609749026935e-13 4.094010287031268902e-13 5.711873167371997462e-14 -1.978608994853379988e-14
2.690000000000000000e+03 7.964900970458984375e+01 -5.060390472412109375e+00 2.486902827766868107e-13 4.725891444672114527e-13 2.163838363046857727e-13 1.987966676041466596e-14
2.691000000000000000e+03 7.965273284912109375e+01 -7.450846195220947266e+00 -1.900644084392583144e-13 3.760533280171979298e-13 5.579667248525009560e-14 -3.080051675947298451e-14
2.692000000000000000e+03 7.965338897705078125e+01 -8.245720863342285156e+00 2.018392506082655746e-13 4.525101268085945927e-13 1.963048186460689126e-13 9.606027182463422465e-14
2.693000000000000000e+03 7.965345764160156250e+01 -9.039688110351562500e+00 -7.883866221533933349e-14 3.322196033897495404e-13 7.601428167469670427e-14 -3.604146196984139849e-14
2.694000000000000000e+03 7.965290069580078125e+01 -9.832585334777832031e+00 3.098139556316145682e-14 3.335343882592683995e-13 1.093547317585971679e-13 5.469282592465186943e-14
2.695000000000000000e+03 7.965183258056640625e+01 -1.062486743927001953e+01 -1.986966668943938169e-14 8.298632506002767695e-14 1.893499801939625693e-14 3.443726965916826810e-14
2.696000000000000000e+03 7.965021514892578125e+01 -1.141680335998535156e+01 5.896226839023285815e-14 1.167714335599187581e-13 5.272011329555091608e-14 5.600411085403267375e-14
2.697000000000000000e+03 7.963986968994140625e+01 -1.379190063476562500e+01 3.534017289962346209e-14 -1.678580099353718658e-13 -3.975534907784544769e-14 -1.384795446037921304e-14
2.698000000000000000e+03 4.570449292659759521e-01 4.203485107421875000e+01 1.376642160997535586e-14 5.091603137372113785e-13 1.568780234840680410e-13 -2.704877574905614063e-14
2.699000000000000000e+03 5.731069445610046387e-01 4.116505432128906250e+01 -4.194426517266716670e-14 6.454126512747682121e-13 1.810405124424985246e-13 -3.438299221142468616e-15
2.700000000000000000e+03 2.743991279602050781e+01 4.111088943481445312e+01 2.030031518048241307e-14 -1.056772399622707415e-13 -2.561307692631673016e-14 -9.517554421716121343e-15
2.701000000000000000e+03 4.759661483764648438e+01 4.111493682861328125e+01 2.570799035618836353e-14 -2.634879890228009058e-13 -7.133399773651127873e-14 1.502214626021396160e-14
2.702000000000000000e+03 6.663634490966796875e+01 4.095398712158203125e+01 1.875647396730115157e-13 -2.684661032977680994e-13 -2.427040603810836500e-14 -2.085858781975414439e-14
2.703000000000000000e+03 7.838536834716796875e+01 4.182031631469726562e+01 1.719440121696318852e-14 4.305653056313474281e-13 1.343279057864493753e-13 -9.586106492203306378e-15
2.704000000000000000e+03 4.085147380828857422e-01 1.894635796546936035e+00 -3.146140574623867980e-14 -1.736117759970623453e-13 -6.152195452299030753e-14 -8.615181593292497997e-14
2.705000000000000000e+03 3.950336277484893799e-01 2.687251329421997070e+00 -6.108243929105541814e-14 -3.302712963209578252e-15 -1.931554451160919644e-14 -3.270122142366195528e-14
2.706000000000000000e+03 2.879826545715332031e+00 1.870825529098510742e+00 -6.658459590982990228e-14 4.009016764936791655e-14 -7.948329325171542975e-15 7.405083219790692395e-14
2.707000000000000000e+03 3.854560852050781250e-01 3.484691858291625977e+00 1.293581940783189443e-13 -5.893814489189505568e-14 2.112601644999306111e-14 -2.576329483138049131e-14
2.708000000000000000e+03 3.781380951404571533e-01 4.284197807312011719e+00 -7.014454663813174395e-14 -1.215638511077934969e-13 -5.751252067903028786e-14 -4.287903040446627845e-14
2.709000000000000000e+03 1.913768410682678223e+00 4.182126045227050781e+00 8.533158141405591118e-15 -4.209388168433837729e-14 -1.006821731698972003e-14 5.964900204628517666e-14
2.710000000000000000e+03 3.676669299602508545e-01 5.886065959930419922e+00 -6.450726454734767579e-14 -1.648988156308442421e-13 -6.882182676396300658e-14 4.878272807408434719e-14
2.711000000000000000e+03 3.599350452423095703e-01 8.295936584472656250e+00 -1.213744426823261738e-14 1.320510812242298160e-13 3.597409235734858046e-14 2.081170624018951337e-14
2.712000000000000000e+03 3.588948249816894531e-01 9.101089477539062500e+00 9.216025430866872648e-14 -6.253698036170650051e-15 2.577196675469448084e-14 -4.557413000043537832e-14
2.713000000000000000e+03 3.578993082046508789e-01 9.906444549560546875e+00 -1.073024996764079808e-13 -2.061151000310595949e-13 -9.402527855698755710e-14 -4.319583766739833186e-14
2.714000000000000000e+03 3.567454218864440918e-01 1.071149349212646484e+01 8.194398664392726905e-14 -1.021339927236887546e-13 -6.057001739225150935e-15 3.655085233772708414e-15
2.715000000000000000e+03 3.553479313850402832e-01 1.151619815826416016e+01 -8.002428472479727883e-14 -2.172999193778002436e-13 -8.919725852027382551e-14 4.586702382920054832e-14
2.716000000000000000e+03 1.778130054473876953e+00 1.139492702484130859e+01 2.313736987511480839e-15 -9.051029511378955172e-14 -2.645896807315813171e-14 2.689553224230478712e-14
2.717000000000000000e+03 3.537873327732086182e-01 1.312488269805908203e+01 -1.211448289909844780e-14 -2.806739554856753360e-14 -1.205456378840967860e-14 3.143905085269474431e-14
2.718000000000000000e+03 3.537332713603973389e-01 1.553756713867187500e+01 -6.747573555671362855e-14 -6.042697893844867565e-15 -2.205553007751919620e-14 1.436502995819533696e-14
2.719000000000000000e+03 3.537821769714355469e-01 1.634156417846679688e+01 -4.706175363690737190e-14 -8.879574457448455305e-14 -4.075725014104393529e-14 -1.676285317693017307e-14
2.720000000000000000e+03 3.540890812873840332e-01 1.714527511596679688e+01 -5.823010158095571348e-15 2.037989900807463811e-14 4.367066400883835853e-15 4.202951395661062850e-14
2.721000000000000000e+03 3.546378910541534424e-01 1.794901847839355469e+01 3.845548215259363134e-14 3.935639655968867223e-14 2.334356395249786997e-14 -4.747220208622428272e-14
2.722000000000000000e+03 3.551856875419616699e-01 1.875310134887695312e+01 -4.839203836232803743e-15 2.266808024923780418e-13 6.655247642047001921e-14 3.775466720906792053e-16
2.723000000000000000e+03 3.584447503089904785e-01 2.196927070617675781e+01 -3.915171274205056506e-14 1.890999699492509900e-13 4.498447648453376968e-14 9.353130927093958324e-15
2.724000000000000000e+03 3.596525490283966064e-01 2.277315711975097656e+01 1.445987562543118998e-14 4.179556277895263294e-13 1.297246544126190448e-13 7.677480884111381743e-14
2.725000000000000000e+03 3.612492978572845459e-01 2.357713127136230469e+01 -1.701446939610974651e-14 2.214628220392755864e-13 6.133450951989471989e-14 -9.896668369457017021e-16
2.726000000000000000e+03 3.627905845642089844e-01 2.438082885742187500e+01 7.321917967490886719e-16 2.061930677197884587e-13 6.207757425507123838e-14 6.662667565961654867e-15
2.727000000000000000e+03 3.641756474971771240e-01 2.518420219421386719e+01 6.018104038111454779e-14 4.375504136528568511e-13 1.493194402759495665e-13 -1.487620248340204565e-14
2.728000000000000000e+03 1.830204129219055176e+00 2.505783462524414062e+01 -4.839516391390340580e-15 3.181825733878512752e-13 9.400291688718004357e-14 3.152920226333691400e-14
2.729000000000000000e+03 3.684768974781036377e-01 2.679232025146484375e+01 -7.646780344344739078e-14 1.731073509363134644e-13 2.899186424785982208e-14 -5.349192632895724553e-14
2.730000000000000000e+03 3.793953657150268555e-01 2.921078300476074219e+01 -2.745653402173257179e-14 5.372442941908861513e-13 1.529363251708340532e-13 -3.894071683488951885e-14
2.731000000000000000e+03 3.830102682113647461e-01 3.001637268066406250e+01 -1.836410967140812006e-14 4.496391594558529770e-13 1.293825073120369318e-13 -4.808800520327352612e-14
2.732000000000000000e+03 3.876959681510925293e-01 3.082174873352050781e+01 7.270895243847129430e-15 6.436293555414640544e-13 1.952700831977030593e-13 -2.090753785377597040e-14
2.733000000000000000e+03 3.949721455574035645e-01 3.162807655334472656e+01 1.105261190323435574e-14 5.994991829350038159e-13 1.831655351480429572e-13 5.666679216251475915e-14
2.734000000000000000e+03 1.966581702232360840e+00 3.151921653747558594e+01 -1.067207896354857230e-14 5.901885967787845466e-13 1.738549489918236879e-13 6.709226680083266170e-14
2.735000000000000000e+03 4.146029949188232422e-01 3.324198150634765625e+01 -1.167063272194610035e-13 5.904962933553359328e-13 1.421369939065206256e-13 4.952483057983278480e-14
2.736000000000000000e+03 4.120182991027832031e-01 3.564854431152343750e+01 3.896987509706580088e-14 7.487165726814681843e-13 2.363059292513625120e-13 5.660694081446177028e-14
2.737000000000000000e+03 4.200675189495086670e-01 3.644849395751953125e+01 -7.318805121409727166e-14 5.633960095327572581e-13 1.470623888508507116e-13 5.044755777938551844e-14
2.738000000000000000e+03 4.339197576045989990e-01 3.724314880371093750e+01 5.848374220887922470e-14 7.570796203490437470e-13 2.446690040239923869e-13 2.048927129035590239e-14
2.739000000000000000e+03 4.382693171501159668e-01 3.803021240234375000e+01 -2.977044338044881888e-14 6.277545215420399227e-13 1.793952220932246155e-13 2.300818125703252975e-14
2.740000000000000000e+03 4.404835104942321777e-01 3.881433868408203125e+01 -1.974154109770590720e-14 4.490488384779889319e-13 1.287921863341728868e-13 -5.066394166312404926e-15
2.741000000000000000e+03 5.528985857963562012e-01 4.037051391601562500e+01 8.155663508901608849e-14 7.669680320530891660e-13 2.545573886229834937e-13 4.356242590367346776e-15
2.742000000000000000e+03 8.690943717956542969e+00 1.854691505432128906e+00 -1.001814530312596097e-13 2.816041289518673822e-15 -2.920962286607174663e-14 -7.294014838735846107e-14
2.743000000000000000e+03 7.861822605133056641e+00 1.856836915016174316e+00 2.461991893719980146e-14 -1.232408035486357717e-14 3.688751405294277835e-15 1.215439288928740758e-13
2.744000000000000000e+03 7.030768394470214844e+00 1.859452843666076660e+00 -9.284425035423551908e-14 5.960556873784881790e-15 -2.606510791708024910e-14 -1.038811286204746262e-14
2.745000000000000000e+03 6.104100227355957031e+00 2.586900234222412109e+00 -3.408633713285723343e-14 -6.035937808596125720e-14 -2.833371456564554719e-14 1.236732748545812943e-13
2.746000000000000000e+03 5.367741584777832031e+00 1.863534688949584961e+00 -6.410014663157936887e-14 -5.034696753470138675e-14 -3.433413492751058449e-14 1.109358779968414033e-13
2.747000000000000000e+03 1.163600444793701172e+00 3.439462661743164062e+00 -1.029913594728995574e-13 -2.042674704513455786e-13 -9.217764897727354079e-14 -1.107687888895342310e-13
2.748000000000000000e+03 3.380409240722656250e+00 5.649997234344482422e+00 4.618163219460152957e-14 -1.403361883081308270e-13 -2.824636852812468374e-14 4.127817540360533000e-14
2.749000000000000000e+03 3.707702875137329102e+00 1.867670774459838867e+00 -2.265647454260770466e-14 -1.012118177896176308e-13 -3.716048736085442172e-14 7.207773332178202264e-14
2.750000000000000000e+03 1.228729844093322754e+00 1.882909893989562988e+00 -7.213149619701014759e-15 -3.091349867265897298e-15 -3.091349867265897298e-15 1.968442058387486621e-14
2.751000000000000000e+03 1.180006408691406250e+01 1.859843015670776367e+00 -8.881851959637032667e-14 9.918776818764948877e-14 3.110774026812332914e-15 1.063337108251835583e-13
2.752000000000000000e+03 1.327592086791992188e+01 1.875440120697021484e+00 -7.953237542287702744e-14 1.260430155429828614e-13 1.395319322187787633e-14 1.184723163755868613e-13
2.753000000000000000e+03 1.400574588775634766e+01 1.897375941276550293e+00 -1.299675021467286418e-13 -3.282488484582929411e-14 -4.883771406488830735e-14 7.123508461706271055e-14
2.754000000000000000e+03 1.545893859863281250e+01 1.949351549148559570e+00 -1.319898644590658532e-13 -1.081613555095400567e-14 -4.284179822423676842e-14 2.448452072058120155e-14
2.755000000000000000e+03 1.617849349975585938e+01 1.991641163825988770e+00 -3.867653064677269159e-14 6.299818133115699451e-15 -9.713014050558629181e-15 -5.816565762026271180e-14
2.756000000000000000e+03 1.742411804199218750e+01 2.760260105133056641e+00 -1.616925858613157962e-13 1.137069767769699480e-13 -1.439568238649057558e-14 2.285268421912500618e-16
2.757000000000000000e+03 1.902433776855468750e+01 2.268712520599365234e+00 -3.711043448993527061e-14 1.442238526955935685e-13 3.213402444525795265e-14 -1.680283516491964946e-13
2.758000000000000000e+03 2.041046524047851562e+01 2.499505519866943359e+00 6.573630003645124578e-15 9.431916510836690914e-14 3.026783806773548913e-14 -6.954567401563221951e-14
2.759000000000000000e+03 2.175356101989746094e+01 2.770281553268432617e+00 2.818306128564689733e-14 -1.251743934199689434e-13 -2.909739777682412987e-14 -1.562299009778833625e-13
2.760000000000000000e+03 2.295380020141601562e+01 3.143983840942382812e+00 -3.539651414314302913e-14 1.106451762893437274e-13 2.257459694979431497e-14 -8.874800579757730068e-14
2.761000000000000000e+03 2.350958442687988281e+01 3.374622821807861328e+00 2.774441510951589085e-14 -1.225029463720189726e-13 -2.842756073400364014e-14 2.295674230139849170e-13
2.762000000000000000e+03 2.236813735961914062e+01 2.942427158355712891e+00 -1.092629675972234260e-13 4.467490965923484603e-14 -1.937641907546246850e-14 4.079821265437315325e-14
2.763000000000000000e+03 2.212228393554687500e+01 3.438959598541259766e+00 7.001783050922250062e-14 -1.574330841744037840e-14 1.628235679694122612e-14 -1.244204256766953676e-13
2.764000000000000000e+03 2.152425575256347656e+01 3.346945285797119141e+00 -1.071038941671993705e-13 2.286040280685686099e-13 3.645003678227898281e-14 -3.524552204996547755e-14
2.765000000000000000e+03 2.173371505737304688e+01 4.936838626861572266e+00 -8.253095337132018705e-14 -6.646675668620788402e-14 -4.469931437251113693e-14 -1.820410142072681481e-13
2.766000000000000000e+03 2.053908348083496094e+01 6.011611461639404297e+00 7.541937994265390799e-14 1.466999671696431196e-13 6.663580413368910826e-14 -3.228231484214694191e-13
2.767000000000000000e+03 1.993857192993164062e+01 6.543510913848876953e+00 2.870887392831394935e-13 2.202588019742032777e-13 1.522042583114446845e-13 -1.480793433835878026e-13
2.768000000000000000e+03 1.935126304626464844e+01 7.095018863677978516e+00 6.463784314649639873e-14 5.629627623446320506e-14 3.628023716954059674e-14 -3.147754951658698896e-13
2.769000000000000000e+03 1.655565261840820312e+01 3.363073587417602539e+00 3.175363211304141342e-14 2.194879748871475522e-13 7.537248142243033189e-14 -6.862924535307526885e-14
2.770000000000000000e+03 1.705267715454101562e+01 9.382001876831054688e+00 7.209459944182775026e-14 2.810981970195053359e-13 1.059578382607735680e-13 -2.313728093665534669e-13
2.771000000000000000e+03 1.655843162536621094e+01 1.003252029418945312e+01 1.713697678771067268e-13 7.630362135321519523e-14 7.430201473621750319e-14 -1.980610228775880888e-13
2.772000000000000000e+03 1.455227851867675781e+01 1.534653854370117188e+01 3.517841120603804571e-15 2.302623966065481254e-13 7.013407053464010277e-14 -2.402075154723463252e-14
2.773000000000000000e+03 1.457763004302978516e+01 1.785888290405273438e+01 1.315157818125535158e-14 2.801420933336989938e-13 8.798809527114578866e-14 -4.421184352323449807e-14
2.774000000000000000e+03 1.622997856140136719e+01 2.105632781982421875e+01 -1.983711860140818795e-13 2.936115028407196292e-14 -5.070301275188204837e-14 -1.241957247764477468e-13
2.775000000000000000e+03 1.694768714904785156e+01 2.138972473144531250e+01 -3.108444491389805719e-13 -8.746809835669458466e-14 -1.194937567948126111e-13 -9.572691353791282221e-14
2.776000000000000000e+03 1.851498603820800781e+01 2.186736869812011719e+01 -3.148600629353237590e-13 2.312823462477867076e-15 -9.376416879253515746e-14 -9.442894735459464450e-14
2.777000000000000000e+03 2.012471008300781250e+01 2.223495292663574219e+01 -3.688321891827384125e-13 1.164347616803076968e-13 -7.571922960598193031e-14 -1.072029360356559213e-13
2.778000000000000000e+03 2.094787979125976562e+01 2.238090133666992188e+01 -3.473207236138337040e-13 -8.022531613636682546e-14 -1.282638139579392322e-13 -5.201904106576747677e-14
2.779000000000000000e+03 2.413876914978027344e+01 2.202462577819824219e+01 -4.670847991153012635e-14 9.435944999533832367e-14 1.429529204158199590e-14 6.939448202267911592e-14
2.780000000000000000e+03 2.431064796447753906e+01 2.277752685546875000e+01 -2.775968203135720236e-13 1.097846789063598727e-13 -5.034364038928457186e-14 -5.133312056134452239e-14
2.781000000000000000e+03 2.567795372009277344e+01 2.167094993591308594e+01 -1.744172568960561387e-13 6.250259505921271219e-14 -3.357439719580031234e-14 4.465629865131777454e-14
2.782000000000000000e+03 2.644166755676269531e+01 2.147739410400390625e+01 -1.480043708033604299e-13 5.195978772297524945e-15 -4.284251650817604007e-14 7.865875919360609814e-14
2.783000000000000000e+03 2.720850563049316406e+01 2.127851295471191406e+01 -1.424420612928037344e-13 -6.104659285672761615e-14 -6.104659285672761615e-14 3.949899963855661722e-14
2.784000000000000000e+03 3.077636909484863281e+01 1.779282951354980469e+01 1.374002365876758613e-13 -3.261608444806753104e-14 3.143524259256388897e-14 7.468977286694336581e-14
2.785000000000000000e+03 3.131540489196777344e+01 1.630329132080078125e+01 1.735405168092757355e-13 5.748085011713244957e-15 5.378658198625270448e-14 2.141961331610445218e-14
2.786000000000000000e+03 3.156201553344726562e+01 1.555295085906982422e+01 -1.724894099081053511e-13 -5.297606632342043154e-15 -5.333610275984855542e-14 -2.802515740361975066e-14
2.787000000000000000e+03 3.281198501586914062e+01 1.101249122619628906e+01 -2.832566605858073683e-14 -3.501504438501758243e-14 -1.900221347189267468e-14 -7.034800395206222690e-14
2.788000000000000000e+03 4.055695343017578125e+01 1.044683074951171875e+01 1.341986011248533228e-13 2.290797488768009371e-13 1.089835009347381312e-13 7.395361314435286437e-14
2.789000000000000000e+03 3.299295806884765625e+01 1.025106716156005859e+01 2.347109323303647743e-14 -2.186957077021309259e-13 -5.856738163022290333e-14 -8.197982439616736169e-16
2.790000000000000000e+03 3.316246414184570312e+01 9.472623825073242188e+00 -5.632512617664668653e-14 -1.156412341102655561e-13 -5.158991045776592510e-14 2.322499458647531850e-14
2.791000000000000000e+03 3.331272125244140625e+01 8.678881645202636719e+00 -7.935136109391699444e-14 -2.170115215999190994e-13 -8.890886751865625937e-14 -3.620830035539618352e-14
2.792000000000000000e+03 3.351635360717773438e+01 6.280087471008300781e+00 2.797406607030726577e-14 -1.088658921040777661e-14 5.126242973266552025e-15 8.093724859908348578e-16
2.793000000000000000e+03 3.356859207153320312e+01 5.494123935699462891e+00 -2.365743709330063449e-14 -1.702672291353790612e-13 -5.817740088504344542e-14 1.964205030178731159e-14
2.794000000000000000e+03 3.946830368041992188e+01 7.368597030639648438e+00 1.159973267612912640e-13 2.098414622403108054e-13 9.775163398997518960e-14 9.637890698466645284e-15
2.795000000000000000e+03 3.518397521972656250e+01 2.383951663970947266e+00 4.542794566626644215e-14 -3.007875253122765935e-13 -7.660787558786893992e-14 -6.747678587756822388e-14
2.796000000000000000e+03 3.583775329589843750e+01 3.323702096939086914e+00 4.437656432642114734e-14 -1.182343204461991371e-13 -2.215732649712021801e-14 -1.132934307281649282e-15
2.797000000000000000e+03 3.662893676757812500e+01 2.637855529785156250e+00 4.298368979542901980e-14 1.556744235473375704e-13 5.959743468045633485e-14 1.626021196756820969e-15
2.798000000000000000e+03 3.931791687011718750e+01 5.670553684234619141e+00 6.139864007839723747e-14 -1.943724451140479981e-14 1.258841900891091020e-14 3.320506372574312526e-14
2.799000000000000000e+03 3.903249740600585938e+01 3.144368171691894531e+00 4.800183823561524066e-14 -4.805420858867807954e-14 -1.571082004523196608e-17 2.761868831508904054e-14
2.800000000000000000e+03 3.656987380981445312e+01 3.443189859390258789e+00 -1.075111391379097656e-14 -5.035856849794698165e-14 -1.833290497763127164e-14 5.057788904491364312e-14
2.801000000000000000e+03 3.816452407836914062e+01 2.933659553527832031e+00 -6.655358772769681686e-14 1.722798268519003251e-14 -1.479768252919157201e-14 5.708768961026899902e-14
2.802000000000000000e+03 3.955044555664062500e+01 9.901101112365722656e+00 9.430082176286117002e-14 8.616558530051554587e-14 5.413992347426573037e-14 1.153190769872386445e-13
2.803000000000000000e+03 4.142037582397460938e+01 1.189552593231201172e+01 3.820484510350108387e-13 2.723935714574882150e-13 1.963326013267388537e-13 6.298488206685215474e-14
2.804000000000000000e+03 4.195622253417968750e+01 1.255481147766113281e+01 -2.328912175684604707e-14 1.146470529053483442e-14 -3.547325278706542698e-15 2.377608472516751226e-13
2.805000000000000000e+03 4.362644195556640625e+01 1.437765121459960938e+01 -3.261525774391101085e-14 -7.116665113118814112e-14 -3.113457300134292449e-14 5.899936419815786023e-15
2.806000000000000000e+03 4.540701293945312500e+01 1.604528236389160156e+01 5.190787646176982240e-14 -1.206697875031758488e-14 1.195226931343567126e-14 4.260690582356778389e-14
2.807000000000000000e+03 4.557728958129882812e+01 1.725362586975097656e+01 -1.219273095573285282e-14 4.052549176227979166e-14 8.499828241964081654e-15 -2.921095778999661940e-14
2.808000000000000000e+03 4.792436218261718750e+01 1.810518836975097656e+01 3.180147083983644180e-15 5.855160648861323924e-14 1.851952666470212810e-14 -3.710770704384511176e-14
2.809000000000000000e+03 4.998606109619140625e+01 1.941837310791015625e+01 -1.579555578131927596e-13 -9.057071227985130646e-14 -7.455787967266050420e-14 8.890436130337686649e-14
2.810000000000000000e+03 5.071391296386718750e+01 1.978296852111816406e+01 -4.587118784316925046e-15 6.666051716695819973e-14 1.862201934538579295e-14 -2.094636415001221302e-14
2.811000000000000000e+03 5.224485015869140625e+01 2.032079696655273438e+01 -1.422398304825808757e-13 7.629292163302547891e-14 -1.978407401011933464e-14 -5.992746582176092240e-14
2.812000000000000000e+03 5.301970672607421875e+01 2.054950714111328125e+01 -2.197428708178988943e-13 -2.314283747278933490e-13 -1.353513655322213793e-13 -1.720205161854278936e-14
2.813000000000000000e+03 5.457205200195312500e+01 2.101717758178710938e+01 -2.247212019333005850e-13 -1.191845558877469013e-13 -1.031717232805560991e-13 -3.908892727186828731e-14
2.814000000000000000e+03 5.615242767333984375e+01 2.127436256408691406e+01 -3.674474732730942383e-13 7.127725330530881864e-14 -8.885107276659920394e-14 3.041230123095560456e-14
2.815000000000000000e+03 5.691659164428710938e+01 2.141014289855957031e+01 -6.323544118891355481e-13 -1.337561788758434567e-13 -2.298331880715154263e-13 3.196277979431155075e-15
2.816000000000000000e+03 5.950914764404296875e+01 2.129884719848632812e+01 -1.682937101309123218e-12 -6.526323535413491861e-13 -7.006708581391851709e-13 9.463160506942291939e-13
2.817000000000000000e+03 6.146495819091796875e+01 1.931305503845214844e+01 -1.066662383419902937e-12 -2.813314902219699043e-12 -1.163993164007837144e-12 1.309003036173428391e-12
2.818000000000000000e+03 6.177729415893554688e+01 1.856182098388671875e+01 -6.844658303681305789e-13 -2.946897500327727570e-12 -1.089409053418866069e-12 1.062256294211139096e-12
2.819000000000000000e+03 6.211185836791992188e+01 1.610567855834960938e+01 -1.399532345482817908e-13 -2.759285855358228901e-12 -8.697717567875129507e-13 1.324089899138944371e-13
2.820000000000000000e+03 6.212633514404296875e+01 1.447972965240478516e+01 -3.054954555588274522e-15 -2.334607550683043264e-12 -7.012987738273801508e-13 -4.727033041797105983e-14
2.821000000000000000e+03 6.211680603027343750e+01 1.367342853546142578e+01 -1.142223590559245106e-14 -2.383944604222865138e-12 -7.186100672851303273e-13 -7.681044521127070035e-14
2.822000000000000000e+03 6.201709747314453125e+01 1.206184387207031250e+01 3.731332259772519866e-14 -2.088552204446147975e-12 -6.153716858997571038e-13 -1.986097240445558465e-13
2.823000000000000000e+03 6.182907104492187500e+01 1.046285533905029297e+01 -5.638662754488092677e-14 -1.991456478889208626e-12 -6.143529153283810995e-13 -2.298605912814249974e-13
2.824000000000000000e+03 6.149317932128906250e+01 8.881710052490234375e+00 -2.188731238351310227e-13 -1.923840644083019136e-12 -6.428141439279722036e-13 -4.763985972204565211e-13
2.825000000000000000e+03 6.073734283447265625e+01 6.596043109893798828e+00 -1.646173974044484734e-13 -1.717584516454373489e-12 -5.646605687366357262e-13 -7.116780580650183818e-13
2.826000000000000000e+03 6.042250823974609375e+01 5.857389450073242188e+00 -3.965796061770193726e-13 -1.588242124622718521e-12 -5.954464894243616246e-13 -6.220392039998912104e-13
2.827000000000000000e+03 5.958726119995117188e+01 4.488309383392333984e+00 -5.782029586023917922e-13 -1.162820274097642326e-12 -5.223069698100102354e-13 -6.144661060351885862e-13
2.828000000000000000e+03 5.913601303100585938e+01 3.831453323364257812e+00 -4.616101337978628649e-13 -1.204353782500999781e-12 -4.997891748896587938e-13 -7.356515028221488617e-13
2.829000000000000000e+03 5.867462158203125000e+01 3.182718753814697266e+00 -5.385661534795804783e-13 -9.170782622885953472e-13 -4.366933247304527477e-13 -5.988481195304262705e-13
2.830000000000000000e+03 5.820595550537109375e+01 2.542367458343505859e+00 -2.145615635032807611e-13 -8.697210703359492534e-13 -3.252848023490434448e-13 -5.994450812465967893e-13
2.831000000000000000e+03 5.687312316894531250e+01 5.644304752349853516e-01 -3.802472388608063580e-13 -8.034763718071935568e-13 -3.551170859109054057e-13 -6.036008281737337278e-13
2.832000000000000000e+03 5.641841888427734375e+01 -1.005561128258705139e-01 -3.881697209755924360e-13 -8.983736606189840490e-13 -3.859630171888783767e-13 -6.136726326752550698e-13
2.833000000000000000e+03 5.540529632568359375e+01 -1.350246429443359375e+00 -5.363633799257416790e-13 -7.331304617205769425e-13 -3.808481579149064489e-13 -5.855041386622350519e-13
2.834000000000000000e+03 5.487006759643554688e+01 -1.944852948188781738e+00 -3.998551706754782664e-13 -6.288759660591503042e-13 -3.086193410203885712e-13 -4.982396331447425109e-13
2.835000000000000000e+03 5.270137023925781250e+01 -4.282882213592529297e+00 -6.082088500371229944e-13 -4.894156911336433602e-13 -3.292873515092081815e-13 -4.133987531636240664e-13
2.836000000000000000e+03 4.776712799072265625e+01 -4.850475788116455078e+00 -6.986446469091356359e-13 -1.164153273563658941e-13 -2.445179746613651561e-13 1.018912805148507184e-13
2.837000000000000000e+03 4.623307800292968750e+01 -4.395292758941650391e+00 -5.800959755955514829e-13 -2.486125454809196000e-13 -2.486125454809196000e-13 5.595079860033248809e-14
2.838000000000000000e+03 4.172534942626953125e+01 -1.122969722747802734e+01 4.269047409414389316e-13 2.287101172511463165e-13 1.966844655892918681e-13 -8.173078506297157264e-14
2.839000000000000000e+03 4.468319702148437500e+01 -3.949419975280761719e+00 -5.210279365071290858e-13 2.833253210765118019e-14 -1.478086181011181721e-13 2.640906428003769735e-13
2.840000000000000000e+03 4.239380264282226562e+01 -3.069702148437500000e+00 -3.337679796173304014e-13 -1.887943740144087945e-13 -1.567687088000271900e-13 2.356907529386942368e-13
2.841000000000000000e+03 4.170568084716796875e+01 -2.613085508346557617e+00 -3.252961051566916062e-13 -9.366166425339023105e-14 -1.256873294677718356e-13 2.500187828036876114e-13
2.842000000000000000e+03 3.934744262695312500e+01 -7.069318294525146484e-01 -2.106746716098659156e-13 1.384656007474144301e-13 -2.166272024229590892e-14 -1.384462646792945090e-14
2.843000000000000000e+03 3.795230484008789062e+01 -9.200321435928344727e-01 -2.411842156112981028e-13 3.388817885704477340e-14 -6.218881339796825114e-14 -1.037231078479007584e-13
2.844000000000000000e+03 2.715476036071777344e+01 -4.134645462036132812e+00 -6.109241395104228478e-14 1.956848718438417012e-14 -1.245717718296448714e-14 -3.256303646864688872e-14
2.845000000000000000e+03 2.767328071594238281e+01 -2.360350370407104492e+00 2.264472619562928751e-14 -1.317059237685531611e-14 2.842240018577249332e-15 -1.063582951094446671e-13
2.846000000000000000e+03 2.863227844238281250e+01 -5.437690734863281250e+00 -1.858185643115878305e-14 -9.946554756050385304e-14 -3.541422051987243302e-14 -8.989194750976675641e-14
2.847000000000000000e+03 2.841622543334960938e+01 -4.591581821441650391e+00 -2.673155248706786695e-16 -9.161645915653146566e-14 -2.756513380996594015e-14 -6.202047068189914247e-14
2.848000000000000000e+03 2.682653999328613281e+01 -6.240203380584716797e+00 8.928797913705655009e-14 1.297681715773171818e-13 6.571684792481755077e-14 1.458210247971998552e-14
2.849000000000000000e+03 2.657982444763183594e+01 -9.183772087097167969e+00 -3.956564419084658557e-14 -6.270765157134761125e-14 -3.068198974509779575e-14 -5.211781865994448426e-14
2.850000000000000000e+03 2.599570465087890625e+01 -9.545189857482910156e+00 -7.307318677018601050e-14 1.059357679702999100e-13 9.858774868253938201e-15 -6.536368261965755377e-14
2.851000000000000000e+03 2.783700561523437500e+01 -6.563274860382080078e+00 9.332981707344673028e-14 -5.150340467692873792e-14 1.254792321073562936e-14 -5.847712857562706312e-14
2.852000000000000000e+03 2.758080863952636719e+01 -7.836250782012939453e+00 1.130032550281274972e-13 2.679017616674292911e-15 3.470468134874823973e-14 3.741925931437239949e-14
2.853000000000000000e+03 6.813687896728515625e+01 -1.405339145660400391e+01 1.431505603074686994e-13 1.559929248761641324e-14 4.762495600793212325e-14 -1.115436681822096210e-13
2.854000000000000000e+03 3.115339851379394531e+01 -2.493884563446044922e+00 8.704633185313646188e-15 3.730557139922487456e-15 3.730557139922487456e-15 -4.070992132808315400e-14
2.855000000000000000e+03 4.754587554931640625e+01 -1.516358470916748047e+01 5.453934829799389483e-13 -4.076563576722175286e-14 1.513883555190678742e-13 1.003985645162998319e-13
2.856000000000000000e+03 4.887268066406250000e+01 -1.469052219390869141e+01 6.021206211577478928e-13 9.792337839036047153e-14 2.100131998644325093e-13 -8.059873569336156729e-14
2.857000000000000000e+03 2.237416458129882812e+01 4.409070968627929688e+00 1.299080336575678118e-13 -9.301571692781410161e-14 1.106769501892611307e-14 9.700766801174279252e-14
2.858000000000000000e+03 2.299309921264648438e+01 3.912735223770141602e+00 -2.673926618318445136e-13 -1.946610055222550151e-13 -1.386161015614825742e-13 -5.798140423731237836e-14
2.859000000000000000e+03 2.137261390686035156e+01 3.957457304000854492e+00 -3.030272566076699925e-14 1.242659675246976514e-13 2.818897188155283784e-14 -4.105055054562378736e-14
2.860000000000000000e+03 3.929465103149414062e+01 -1.588788270950317383e+00 -2.087986901433414033e-13 1.621450640854754655e-13 -1.399608951142567587e-14 8.705607273202988633e-15
2.861000000000000000e+03 4.060683059692382812e+01 -1.423608779907226562e+00 -1.163364787533718858e-13 -1.413603934428964148e-13 -7.730906301413320580e-14 1.178428285942417775e-13
2.862000000000000000e+03 6.736109924316406250e+01 -1.305046272277832031e+01 2.650334650095703681e-13 -2.366707463417449392e-14 7.240991931490442512e-14 4.099283372059787933e-14
2.863000000000000000e+03 7.124501037597656250e+01 -1.454733085632324219e+01 3.608499946333026953e-14 -1.675387937107378211e-13 -3.943613962947498108e-14 3.984028276553253090e-14
2.864000000000000000e+03 7.124088287353515625e+01 -1.390223312377929688e+01 1.449465683112452496e-13 3.366256383884047576e-13 1.444716606546422866e-13 1.850142895875109272e-13
2.865000000000000000e+03 2.086542129516601562e+01 3.221117019653320312e+00 -8.677337548588376359e-15 -3.718859191404431941e-15 -3.718859191404431941e-15 -1.647076843403622037e-13
2.866000000000000000e+03 2.109824943542480469e+01 2.622684955596923828e+00 -7.850497189170260737e-14 1.722342835843923559e-13 2.811879350780692455e-14 -7.681354196372586207e-14
2.867000000000000000e+03 1.832182502746582031e+01 2.178128719329833984e+00 -1.689330370469727116e-13 6.485297596257183494e-14 -3.122401968057297861e-14 -1.012411522346469417e-13
2.868000000000000000e+03 1.812186813354492188e+01 2.827131986618041992e+00 -9.670081169187508263e-14 -1.329451007831342069e-13 -6.889377713063457587e-14 -2.773847232635795468e-13
2.869000000000000000e+03 1.946537017822265625e+01 6.187953948974609375e+00 3.945155224098322033e-14 3.085701182417577293e-13 1.044064940297455280e-13 -2.653398334384604595e-13
2.870000000000000000e+03 3.361954116821289062e+01 3.906637907028198242e+00 -6.841323162273468816e-14 -1.208218502459987298e-13 -5.677052659349909880e-14 -3.402319252070531985e-14
2.871000000000000000e+03 3.735499572753906250e+01 2.768990755081176758e+00 5.085489253558832246e-14 1.132968502001729938e-13 4.924552315954157378e-14 -2.021672319298378068e-14
2.872000000000000000e+03 3.433091354370117188e+01 3.946053266525268555e+00 -1.775178722449738140e-15 -1.380136375192866915e-13 -4.193664526427366701e-14 6.046083230425158828e-14
2.873000000000000000e+03 3.361173248291015625e+01 4.703903198242187500e+00 2.580087598918427011e-14 -2.405726984809619662e-13 -6.443154657812671937e-14 3.181946351370201764e-14
2.874000000000000000e+03 1.473371505737304688e+01 1.921881556510925293e+00 -5.746573057902396031e-14 -4.750364394922636235e-14 -3.149081134203556009e-14 5.621225395422736748e-14
2.875000000000000000e+03 1.388156890869140625e+01 2.584824562072753906e+00 -5.957364321903385607e-14 6.597033439274466171e-14 1.919007140355004880e-15 1.137070851971871965e-13
2.876000000000000000e+03 1.530932712554931641e+01 2.629738569259643555e+00 -2.404924742964616169e-14 -5.605776869717533917e-14 -2.403210517685962916e-14 5.324695084808414580e-14
2.877000000000000000e+03 1.459829902648925781e+01 2.604197502136230469e+00 -1.656845233927173311e-13 -1.167585993167019609e-13 -8.473294087858393442e-14 1.768068960824546038e-14
2.878000000000000000e+03 2.702830696105957031e+01 -4.891235828399658203e+00 -2.321777447763292285e-14 -1.014523751466378521e-13 -3.740104471787464302e-14 -3.314038852505552316e-15
2.879000000000000000e+03 2.889336013793945312e+01 -4.913070201873779297e+00 1.302349409413629255e-14 -4.016944993323091906e-14 -8.143787259948156304e-15 -2.542465614126590556e-14
2.880000000000000000e+03 3.050890159606933594e+01 -3.602588176727294922e+00 1.190794153820701196e-14 -8.639849225595616633e-14 -2.234716521532474631e-14 -1.943544744630390508e-13
2.881000000000000000e+03 2.662000846862792969e+01 -7.469964504241943359e+00 1.195045717114831541e-13 -4.028565607733063103e-14 2.376567435143257800e-14 -6.909354138091503006e-14
2.882000000000000000e+03 2.890302467346191406e+01 -8.113828659057617188e+00 -2.338421983990018188e-14 -3.289728244589701367e-14 -1.688445153277210592e-14 -2.878431745885999538e-14
2.883000000000000000e+03 6.495925140380859375e+01 -1.234922122955322266e+01 1.030382159802889497e-12 -1.188567473608959091e-13 2.734576345746198012e-13 -5.216659420517917589e-14
2.884000000000000000e+03 1.169342231750488281e+01 2.562087774276733398e+00 -4.567336838053569215e-14 -1.957430121853412364e-14 -1.957430121853412364e-14 5.347474172452335028e-14
2.885000000000000000e+03 9.514953613281250000e+00 1.854924678802490234e+00 1.422706353768066201e-14 2.897278567775586622e-14 1.295995476463095847e-14 1.510799677636315286e-13
2.886000000000000000e+03 1.254118347167968750e+01 1.863013982772827148e+00 -7.739487761608543348e-14 -7.892018066618308736e-14 -4.689451883993327186e-14 9.756261689372949797e-14
2.887000000000000000e+03 1.243120765686035156e+01 2.563867807388305664e+00 -7.051672613889170549e-14 -7.597240436578445166e-14 -4.394673915140284715e-14 1.680291241432443905e-13
2.888000000000000000e+03 6.667909240722656250e+01 -1.260710811614990234e+01 3.756442314324648368e-13 2.373754099912247367e-14 1.198145315600696037e-13 -1.849329608720473583e-13
2.889000000000000000e+03 6.740918731689453125e+01 -1.423226547241210938e+01 5.213481352899819454e-14 -1.149093569862563724e-13 -1.883236134311155885e-14 9.504174519874702964e-14
2.890000000000000000e+03 6.773812103271484375e+01 -1.493642997741699219e+01 -1.485400344392040495e-13 1.650947309634123727e-13 4.966407009086718297e-15 3.048329614446267100e-14
2.891000000000000000e+03 6.970467376708984375e+01 -1.399695491790771484e+01 4.682714245117687579e-14 1.573216248029404851e-13 6.124462915979567157e-14 -5.550406664768699205e-14
2.892000000000000000e+03 6.605162811279296875e+01 -1.216781902313232422e+01 6.545546439931659854e-13 -1.769860706558532004e-13 1.432705679354356887e-13 5.731476220276893185e-14
2.893000000000000000e+03 7.438247680664062500e+01 -1.378121566772460938e+01 1.262020273441050167e-13 9.983753054962005158e-14 6.781186533523844706e-14 2.053239881989830234e-14
2.894000000000000000e+03 7.889386749267578125e+01 -1.456895732879638672e+01 -2.466537072514946721e-14 -1.935746620504788518e-13 -6.547201474547958977e-14 9.113631344818268198e-14
2.895000000000000000e+03 7.822536468505859375e+01 -1.073779010772705078e+01 3.814928651842477980e-14 6.210064065629086749e-14 3.007497883004105199e-14 -8.613251713425473799e-14
2.896000000000000000e+03 7.815126037597656250e+01 -1.455409812927246094e+01 -3.277981930490357632e-14 -1.970522947288347315e-13 -6.894963387130831345e-14 -6.339762428139023021e-14
2.897000000000000000e+03 4.653366088867187500e+01 -1.454553031921386719e+01 4.874522009992721117e-13 -1.570995124353796735e-13 9.910580250340958464e-14 8.157749242830927838e-14
2.898000000000000000e+03 4.541210937500000000e+01 -1.380264854431152344e+01 3.738214978451365189e-13 1.602092211065025973e-13 1.602092211065025973e-13 -1.165133121277042716e-13
2.899000000000000000e+03 4.481968307495117188e+01 -1.338302516937255859e+01 3.852776929956502894e-13 -1.093866750651040221e-13 8.276730944492202702e-14 -1.955859790531838671e-13
2.900000000000000000e+03 7.513665008544921875e+01 -1.448429584503173828e+01 3.474763947170118883e-14 1.489184548787193807e-14 1.489184548787193807e-14 1.051596757264440518e-13
2.901000000000000000e+03 7.592137145996093750e+01 -1.378424453735351562e+01 5.009921378576129292e-14 -1.157817602643468335e-13 -1.970476123307023097e-14 3.935947975961667789e-14
2.902000000000000000e+03 7.743177032470703125e+01 -1.379324150085449219e+01 -9.475035908862797229e-14 -1.778601408947838580e-13 -8.178315202790262251e-14 1.811722667233780365e-14
2.903000000000000000e+03 7.668019866943359375e+01 -1.378879928588867188e+01 2.122934769329450772e-15 9.241172822631316119e-14 2.836039779754995216e-14 9.383096242262384257e-14
2.904000000000000000e+03 4.421910095214843750e+01 -1.295228672027587891e+01 3.287880493037242946e-13 1.409091620512351040e-13 1.409091620512351040e-13 -1.030619139292740516e-13
2.905000000000000000e+03 4.499365234375000000e+01 -6.269198417663574219e+00 -3.086548757465917836e-13 1.422250311229264486e-13 -4.992894999896781150e-14 -1.964654381157249566e-15
2.906000000000000000e+03 4.299053955078125000e+01 -1.208361244201660156e+01 2.035206990999918752e-13 8.722315675713937511e-14 8.722315675713937511e-14 -2.149778598680655156e-14
2.907000000000000000e+03 4.236383819580078125e+01 -1.165623950958251953e+01 4.572072971956164800e-13 -3.280875056224999420e-14 1.273195687333944504e-13 -1.621297497297891077e-13
2.908000000000000000e+03 3.373076248168945312e+01 -2.215761184692382812e+00 8.027285162536673679e-14 9.731020785171129450e-14 5.327491648787069378e-14 -2.895058325014243650e-13
2.909000000000000000e+03 3.789434814453125000e+01 -1.615223884582519531e+00 -2.952673912662295841e-13 2.394644270202472836e-13 -1.674088791854197455e-14 -3.696870893720068108e-14
2.910000000000000000e+03 3.646855163574218750e+01 -1.151718378067016602e+00 -2.858771704604412545e-13 -7.676784284215559806e-14 -1.087935080565372026e-13 -1.796759830220533150e-14
2.911000000000000000e+03 3.573236083984375000e+01 -1.295174837112426758e+00 -1.561754198187159659e-13 -2.118137344122791865e-14 -5.320703865560952317e-14 1.702548611837997276e-15
2.912000000000000000e+03 3.674876022338867188e+01 -5.525128841400146484e+00 -5.281591356891832470e-15 1.807402562033558202e-13 5.263759873396119116e-14 -1.997966001627757282e-13
2.913000000000000000e+03 3.465219497680664062e+01 -2.377659797668457031e+00 -6.676729075215728781e-14 1.543892373971275656e-13 2.628658500993062003e-14 -1.366739024472735098e-13
2.914000000000000000e+03 6.267145538330078125e+01 -1.215687084197998047e+01 1.217182821547369009e-12 -5.763729879655621335e-13 1.922429771795963749e-13 1.249103495333872549e-13
2.915000000000000000e+03 6.373772048950195312e+01 -1.230693531036376953e+01 1.383432214271951288e-12 2.383297010265239546e-13 4.865285691685317104e-13 2.407057571925802497e-13
2.916000000000000000e+03 3.357324218750000000e+01 3.114062786102294922e+00 1.255884231245868454e-13 -8.342923520001516158e-14 1.264775705499786296e-14 9.355054030697404488e-14
2.917000000000000000e+03 3.356811523437500000e+01 2.353091001510620117e+00 -2.140531539995479959e-13 -9.173706987195689999e-14 -9.173706987195689999e-14 5.907709895282622914e-14
2.918000000000000000e+03 2.734900474548339844e+01 2.212529182434082031e+01 -1.147638706072359738e-13 -3.433569812681474230e-15 -3.545923523882131556e-14 -5.458572030253745766e-14
2.919000000000000000e+03 7.123712921142578125e+01 -1.324524593353271484e+01 4.194708071018383999e-14 -1.650264804366544102e-13 -3.692381957912799217e-14 8.024737965057690547e-14
2.920000000000000000e+03 7.202456665039062500e+01 -1.385456848144531250e+01 6.774850727078382540e-14 7.478602291480576647e-14 4.276036108855595097e-14 1.122695483129522442e-13
2.921000000000000000e+03 7.360343933105468750e+01 -1.379026699066162109e+01 9.752384311353598512e-14 1.332978324074252097e-13 6.924650197866200063e-14 -3.224771320743842484e-15
2.922000000000000000e+03 3.018008041381835938e+01 1.921449279785156250e+01 8.003516062784002405e-14 1.486781482434515467e-13 6.861399198376111341e-14 -4.395784205927545651e-14
2.923000000000000000e+03 3.037416076660156250e+01 2.109349060058593750e+01 4.395283440049128909e-14 -4.038545942840676348e-15 1.197428624083365228e-14 -5.053029256954152948e-15
2.924000000000000000e+03 2.797706413269042969e+01 2.105496978759765625e+01 -7.760429804196458670e-14 -1.038350923797913550e-14 -2.639634184516993776e-14 -5.107569369614678445e-14
2.925000000000000000e+03 2.190861511230468750e+01 2.342982101440429688e+01 -1.957507100207658834e-13 -1.525195849607849374e-13 -1.044810871392125307e-13 -1.055556788758784878e-14
2.926000000000000000e+03 2.258642196655273438e+01 2.236479377746582031e+01 -1.301364615027833516e-13 1.501065032905382624e-13 5.991010672853989277e-15 3.997882008625365524e-14
2.927000000000000000e+03 3.719368362426757812e+01 5.166022777557373047e+00 -3.193142094053830204e-14 -3.339415332800910186e-13 -1.097618903319469430e-13 3.701672215278284384e-14
2.928000000000000000e+03 3.371548080444335938e+01 1.584020805358886719e+01 2.694612213211249746e-14 1.030502384271290983e-13 3.899890799836588928e-14 -1.259533384707911541e-13
2.929000000000000000e+03 3.323011016845703125e+01 1.260262203216552734e+01 7.266894876643836820e-14 -6.035806349082711852e-14 3.693267361452564138e-15 -1.884489065446734446e-13
2.930000000000000000e+03 3.964136123657226562e+01 8.174407005310058594e+00 -1.505728186449242778e-13 9.559711420907557322e-14 -1.649270895906235906e-14 1.327810609944371500e-13
2.931000000000000000e+03 3.988114166259765625e+01 8.956281661987304688e+00 1.842061659457217004e-13 4.792663119666806804e-13 1.990417379527098518e-13 3.151526687728868625e-14
2.932000000000000000e+03 3.180170822143554688e+01 1.715457725524902344e+01 1.374696661842964018e-13 3.604009994086221358e-14 5.205292915992122682e-14 1.662484948696581893e-14
2.933000000000000000e+03 3.416833877563476562e+01 7.097308158874511719e+00 5.820594250723412633e-14 -1.580583943892530097e-13 -2.995573353172659159e-14 -4.479339262789677756e-14
2.934000000000000000e+03 3.436000823974609375e+01 3.137338876724243164e+00 -6.223235766772070021e-14 -2.325502800309270368e-13 -8.843479334247339452e-14 2.111433173636480644e-16
2.935000000000000000e+03 3.118639945983886719e+01 2.020039939880371094e+01 3.859286073224291180e-14 -5.208662413056300289e-14 -4.048129273605911502e-15 2.870288709944275596e-14
2.936000000000000000e+03 3.016744041442871094e+01 2.010151290893554688e+01 -3.079474677103628821e-14 1.240551037546763768e-13 2.797810472339977428e-14 -1.362059260612779286e-15
2.937000000000000000e+03 3.157734870910644531e+01 1.791004562377929688e+01 -1.015133750713673177e-13 -2.036340524371252347e-13 -9.154422418678961892e-14 -1.381987921452929036e-13
2.938000000000000000e+03 3.429403305053710938e+01 4.746285915374755859e+00 -8.049387301449148491e-14 -8.024832155121425226e-14 -4.822265972496443676e-14 -5.476210983160548218e-14
2.939000000000000000e+03 3.485220336914062500e+01 7.080920696258544922e+00 1.833409929408690020e-14 9.935937028649963199e-14 3.530803985773642295e-14 9.769032913338471236e-14
2.940000000000000000e+03 2.656821441650390625e+01 2.226460647583007812e+01 -1.015922982132606844e-13 -1.350414598937435540e-13 -7.099012268871676690e-14 5.593278390361028363e-14
2.941000000000000000e+03 2.491014671325683594e+01 2.185076332092285156e+01 -1.063692184463324586e-13 -1.828396510800481267e-13 -8.676266221316689120e-14 7.376308494132927107e-14
2.942000000000000000e+03 2.452585792541503906e+01 2.347451400756835938e+01 -8.565353016697779820e-14 -8.245960609210706282e-14 -5.043394087772545831e-14 2.233410532253080061e-13
2.943000000000000000e+03 3.180625343322753906e+01 1.480440330505371094e+01 1.990471454110451233e-13 -2.907145485171562516e-14 5.099270479610659712e-14 2.822407970315063408e-14
2.944000000000000000e+03 3.203921890258789062e+01 1.640122604370117188e+01 -1.177757300322920808e-13 -7.335078318392376784e-14 -5.733795057673296558e-14 -2.745096223900553301e-14
2.945000000000000000e+03 3.387554550170898438e+01 9.641997337341308594e+00 1.978395711957261355e-14 -1.745249588293654175e-13 -4.642230135997078844e-14 -2.197084202938681674e-14
2.946000000000000000e+03 3.416542053222656250e+01 7.936707973480224609e+00 -5.543526724357920876e-14 2.199297838843036063e-14 -1.003268682595124389e-14 -2.587164559192736690e-14
2.947000000000000000e+03 2.580732536315917969e+01 2.240709114074707031e+01 -1.340885817094003563e-13 -1.947193762567162034e-13 -9.864238738983496790e-14 -1.965350388130008424e-14
2.948000000000000000e+03 4.019473648071289062e+01 9.709776878356933594e+00 -3.548672315202561212e-14 2.021084173501122572e-13 4.998650758179963571e-14 1.499903039227021284e-13
2.949000000000000000e+03 3.269171142578125000e+01 1.414222812652587891e+01 7.906375613887448028e-14 3.388446546460401054e-14 3.388446546460401054e-14 -3.133735268891560399e-14
2.950000000000000000e+03 3.249586486816406250e+01 1.488885307312011719e+01 -1.361688946278569179e-13 5.601927613192031474e-14 -2.404488351590190753e-14 -1.956877178745444756e-14
2.951000000000000000e+03 3.368052673339843750e+01 1.043897247314453125e+01 3.204956170788954284e-14 1.373552608322425525e-14 1.373552608322425525e-14 1.115374001383999392e-13
2.952000000000000000e+03 6.017771911621093750e+01 2.093710517883300781e+01 -1.630811154521016881e-12 -1.636813514588331131e-12 -9.802873573647175043e-13 1.184180357938213746e-12
2.953000000000000000e+03 5.809188461303710938e+01 2.198208999633789062e+01 -1.054824305159185460e-12 -2.461882965282963243e-13 -3.903037832167499666e-13 4.310324883474714319e-13
2.954000000000000000e+03 4.941907119750976562e+01 -1.549652767181396484e+01 7.405214137203020019e-13 1.801134653749147940e-13 2.761904474655324515e-13 1.300270655035795642e-13
2.955000000000000000e+03 5.145802307128906250e+01 -6.372684955596923828e+00 -4.834094821486167870e-13 -2.529264503999678615e-13 -2.209007716330591009e-13 -1.425066526372295583e-13
2.956000000000000000e+03 5.091164016723632812e+01 -5.272304534912109375e+00 -1.078824529709976332e-12 -1.192212561312855357e-13 -3.594137520154111476e-13 -2.832328826769120456e-13
2.957000000000000000e+03 5.407361984252929688e+01 -5.054479122161865234e+00 -2.069355158149793761e-13 -3.975055419373763055e-13 -1.813323254572229981e-13 -4.035922529337099274e-13
2.958000000000000000e+03 5.213975524902343750e+01 -4.809229373931884766e+00 -1.038895748942114672e-12 -4.223655388109481823e-13 -4.383783917469297187e-13 -3.881026630712242076e-13
2.959000000000000000e+03 6.187554168701171875e+01 2.104217529296875000e+01 -7.448696065330551175e-13 -1.714633751821736940e-12 -7.378510237694702045e-13 5.707912983411722596e-13
2.960000000000000000e+03 6.157080078125000000e+01 7.070466041564941406e+00 -1.492715185399257072e-13 -1.619505744787641532e-12 -5.306332088138299152e-13 -4.109696524062789180e-13
2.961000000000000000e+03 3.986110305786132812e+01 -2.534726858139038086e+00 -2.561082314105067592e-13 -6.400971739413049977e-14 -9.603538260851210429e-14 7.683639152451099408e-14
2.962000000000000000e+03 6.255038452148437500e+01 1.867093467712402344e+01 -6.577456678272253221e-13 -1.974676065025215976e-12 -7.897265198557323895e-13 4.997934032781314873e-13
2.963000000000000000e+03 2.974559402465820312e+01 -8.178081512451171875e+00 6.152990985643091992e-14 1.178718581074100769e-13 5.382053106677865684e-14 -2.193834137520066924e-14
2.964000000000000000e+03 2.828758621215820312e+01 -5.987858772277832031e+00 -9.116656268879502756e-14 -2.220751794262953993e-13 -9.397251856876898124e-14 2.311417387785424937e-14
2.965000000000000000e+03 5.031591415405273438e+01 -1.394693660736083984e+01 5.598339717152733819e-13 -2.175806464253110528e-13 1.026759921659778363e-13 -1.558161423238085819e-13
2.966000000000000000e+03 4.132634353637695312e+01 -3.244777917861938477e+00 -3.050810201254278153e-13 1.794157745006567939e-14 -8.614182772041095726e-14 1.228046256265130642e-13
2.967000000000000000e+03 5.954806518554687500e+01 -1.421324729919433594e+01 6.478937395262840404e-13 3.163041677130317211e-15 1.953170291517716817e-13 2.628823536892505031e-13
2.968000000000000000e+03 5.712157058715820312e+01 -1.394698143005371094e+01 6.688460007196750379e-13 -7.935929609856687272e-14 1.768460188402223854e-13 1.662249033080112626e-13
2.969000000000000000e+03 4.699787139892578125e+01 -4.627085685729980469e+00 -5.575954194897425609e-13 -1.021471674741503480e-14 -1.703430419722901101e-13 1.804549619541934158e-13
2.970000000000000000e+03 6.171390533447265625e+01 -1.334371662139892578e+01 8.386183457734230906e-13 8.490217806144534363e-14 2.770561557952078147e-13 3.570288053915404713e-13
2.971000000000000000e+03 5.931175613403320312e+01 -1.345144653320312500e+01 6.996943172424274771e-13 2.536330385083038208e-14 2.175172883608564312e-13 1.505503214498452036e-13
2.972000000000000000e+03 4.390188980102539062e+01 -1.190476226806640625e+01 2.573608372854335746e-13 1.446107231357907086e-13 1.205914708368727162e-13 -4.404788843783216667e-14
2.973000000000000000e+03 4.312855148315429688e+01 -3.442703008651733398e+00 -5.272682789513039037e-13 2.782623298650649911e-15 -1.573456940911696633e-13 2.061102888839191905e-13
2.974000000000000000e+03 6.168215179443359375e+01 9.668298721313476562e+00 -1.790245062653975094e-13 -1.861011778708787645e-12 -6.120108760054865371e-13 -4.080668637197748527e-13
2.975000000000000000e+03 5.174557876586914062e+01 -1.523532104492187500e+01 1.011260302927197152e-12 -2.528669819108070316e-13 2.275179827523898801e-13 1.580419280687583861e-13
2.976000000000000000e+03 5.024549865722656250e+01 -1.468780708312988281e+01 6.473294122955053354e-13 7.154763299833596935e-14 2.156631264630531897e-13 -8.293159317910789308e-14
2.977000000000000000e+03 7.895307922363281250e+01 -7.548065185546875000e+00 1.924133595510024719e-13 4.027195243949677206e-13 1.785398678942964890e-13 8.419815815700545936e-14
2.978000000000000000e+03 7.964626312255859375e+01 5.260906219482421875e-01 -1.549937912390109140e-12 -3.897534150889420124e-13 -5.819074063752316395e-13 -8.547900343276737534e-13
2.979000000000000000e+03 7.964475250244140625e+01 7.711115360260009766e+00 -1.795627719864550942e-13 1.295573023862850448e-12 3.348030674314023125e-13 6.025271969724299570e-14
2.980000000000000000e+03 7.964208984375000000e+01 1.489585971832275391e+01 3.937889714289953547e-14 1.572408978196826457e-12 4.835363338027975910e-13 2.923261134026022834e-14
2.981000000000000000e+03 7.963179779052734375e+01 2.206943321228027344e+01 -2.685412927184299692e-13 1.394692195934299495e-12 3.378452574122337015e-13 5.747842929696919678e-14
2.982000000000000000e+03 7.958781433105468750e+01 2.925547027587890625e+01 -3.712596568605612546e-14 1.173613506724735522e-12 3.409462653609224292e-13 -2.772955645755515591e-14
2.983000000000000000e+03 7.958573913574218750e+01 3.645126342773437500e+01 -6.629632010469316272e-14 7.036024866034773506e-13 1.911918431733716783e-13 -8.862389853014560059e-14
2.984000000000000000e+03 7.947031402587890625e+01 4.115803527832031250e+01 -1.690577812831807469e-14 4.960151213373453771e-13 1.437328039791477274e-13 -7.646855899683634161e-15
2.985000000000000000e+03 7.788639831542968750e+01 3.870055389404296875e+01 -4.782569519313486714e-15 4.783353075611673777e-13 1.420658160338969522e-13 -9.160113802458152987e-14
2.986000000000000000e+03 7.872738647460937500e+01 3.792283630371093750e+01 5.533869532319685147e-14 4.812260616035568539e-13 1.609694365647951209e-13 -3.987765047103360161e-14
2.987000000000000000e+03 7.875437164306640625e+01 3.871727371215820312e+01 3.966097097279647904e-15 4.363337761850022423e-13 1.320899634246405774e-13 3.488149778242168042e-14
2.988000000000000000e+03 7.958007812500000000e+01 3.724528503417968750e+01 7.245471549935291605e-15 4.148637542441407922e-13 1.266327673147063515e-13 -4.308460868889668616e-14
2.989000000000000000e+03 7.871839141845703125e+01 3.712020492553710938e+01 -1.330887033608799119e-13 2.174676725589380633e-13 2.531369143704380320e-14 2.083856565494694724e-14
2.990000000000000000e+03 7.689137268066406250e+01 3.305940628051757812e+01 8.686552589428145343e-14 7.692432845221586213e-13 2.568326410920529490e-13 -1.012858111997579774e-14
2.991000000000000000e+03 7.879484558105468750e+01 3.397751235961914062e+01 -1.260138098469615331e-13 7.008847170177079366e-13 1.724612748617293523e-13 -3.231605860188647983e-14
2.992000000000000000e+03 7.871684265136718750e+01 3.154805946350097656e+01 4.614140151773873932e-14 8.890429083023565493e-13 2.805552827816332195e-13 4.985972707838640106e-14
2.993000000000000000e+03 7.871988677978515625e+01 3.236824035644531250e+01 -2.531021902547653420e-15 6.623040332311147527e-13 1.979319079513722213e-13 -6.875906501070325194e-14
2.994000000000000000e+03 7.958118438720703125e+01 3.005788612365722656e+01 8.447531411361064446e-14 1.179977448216573688e-12 3.793358314095607309e-13 -2.560734928952739659e-14
2.995000000000000000e+03 7.872518157958984375e+01 3.073336029052734375e+01 -7.143841318198521084e-14 8.615270497870641808e-13 2.370265984354136268e-13 -1.137862455083057944e-13
2.996000000000000000e+03 7.785334014892578125e+01 3.060119628906250000e+01 4.520298049173927801e-14 9.115161967235274609e-13 2.870157453718769069e-13 -2.124284092814426872e-14
2.997000000000000000e+03 7.797382354736328125e+01 2.814179039001464844e+01 -3.466148944470184845e-14 7.400357453571371202e-13 2.116122760961042237e-13 -1.069287751875522274e-13
2.998000000000000000e+03 7.880183410644531250e+01 2.749743652343750000e+01 -2.731505241448679150e-14 1.040565420287742349e-12 3.039751068044382887e-13 -1.675166048356515475e-14
2.999000000000000000e+03 7.807825469970703125e+01 2.494105148315429688e+01 -3.894775398461530758e-14 9.212025673527302061e-13 2.646764372341708915e-13 -2.407086201639419692e-14
3.000000000000000000e+03 7.886174774169921875e+01 2.430646514892578125e+01 -6.418601544364022082e-14 1.116265391752635505e-12 3.156238291557311726e-13 -2.361965942385309269e-14
3.001000000000000000e+03 7.962874603271484375e+01 2.286631965637207031e+01 9.705729058992473846e-14 1.459875406326083258e-12 4.670798253378349862e-13 -9.975180912129202188e-15
3.002000000000000000e+03 7.887367248535156250e+01 2.351252174377441406e+01 1.270100154606226828e-13 1.243957519457550287e-12 4.112902780937371938e-13 -6.257745244295925824e-14
3.003000000000000000e+03 7.888430786132812500e+01 2.271947288513183594e+01 -1.006002464491728698e-13 1.283663171418314430e-12 3.549188666487207433e-13 -3.833714826173041657e-14
3.004000000000000000e+03 7.891236877441406250e+01 2.034064483642578125e+01 7.030968418152844235e-14 1.448412136756394020e-12 4.556165557681457479e-13 1.604756265209412308e-14
3.005000000000000000e+03 7.819911956787109375e+01 1.942358589172363281e+01 -3.548327742199618162e-14 1.220068534049656428e-12 3.553755597088259499e-13 -6.898246486834389013e-14
3.006000000000000000e+03 7.892637634277343750e+01 1.716965293884277344e+01 1.350146801000831620e-14 1.332563833583710888e-12 4.038196101292801377e-13 4.105629258197322426e-15
3.007000000000000000e+03 7.964208984375000000e+01 1.569427776336669922e+01 2.331403130175890154e-14 1.428271129838565301e-12 4.354755488503170291e-13 5.549274012311630755e-14
3.008000000000000000e+03 7.892674255371093750e+01 1.637570190429687500e+01 -3.423652962693257695e-14 1.357855668182583742e-12 3.970857388561899182e-13 7.712769631946711502e-14
3.009000000000000000e+03 7.892675781250000000e+01 1.558046627044677734e+01 -3.407857831106038404e-14 1.403674268832255656e-12 4.108787149490616963e-13 4.111137767563201317e-14
3.010000000000000000e+03 7.892756652832031250e+01 1.318769836425781250e+01 -1.136274234425638241e-13 1.278080072331100325e-12 3.493357946665609504e-13 3.082200090314714258e-14
3.011000000000000000e+03 7.893241119384765625e+01 9.993431091308593750e+00 -1.471450050563941070e-13 1.263715369327622629e-12 3.349711187681375657e-13 9.632952665790742164e-14
3.012000000000000000e+03 7.964468383789062500e+01 8.509937286376953125e+00 2.238481752389609447e-13 1.559965264602558577e-12 5.351440319524558564e-13 -6.394288988272392449e-14
3.013000000000000000e+03 7.893376159667968750e+01 9.196343421936035156e+00 1.282887912654878670e-13 1.336007476523959348e-12 4.392888776263287332e-13 4.940634761117085327e-14
3.014000000000000000e+03 7.893433380126953125e+01 8.399353981018066406e+00 -9.338505717413486673e-14 1.469759101750678365e-12 4.129122174387211963e-13 1.340974044045789570e-13
3.015000000000000000e+03 7.893520355224609375e+01 6.003655910491943359e+00 2.557893675515787724e-13 1.253397776193598823e-12 4.527561322815315537e-13 3.974500849962536719e-14
3.016000000000000000e+03 7.823131561279296875e+01 4.308317184448242188e+00 -3.181561459598969410e-13 6.642889905685012142e-13 1.038398425405595571e-13 4.282766632654477768e-13
3.017000000000000000e+03 7.893830871582031250e+01 2.809314727783203125e+00 4.630368354366365402e-13 6.559538611068671532e-13 3.356971818579967959e-13 2.123068600535116951e-14
3.018000000000000000e+03 7.964630889892578125e+01 1.324717640876770020e+00 -2.326855071468902914e-12 -1.737065623719918905e-13 -7.501685362308607719e-13 7.712379454689888281e-13
3.019000000000000000e+03 7.893906402587890625e+01 2.012129306793212891e+00 -8.830490592220963109e-13 1.248108468790073977e-13 -2.274714704791902520e-13 7.909707502688767544e-13
3.020000000000000000e+03 7.893916320800781250e+01 1.215891718864440918e+00 -9.650357769841466649e-13 8.216888541107136845e-13 -4.300409651319427040e-14 2.971095862825540168e-13
3.021000000000000000e+03 7.893930816650390625e+01 -1.178358674049377441e+00 1.803829709299403783e-13 5.348164944761479855e-13 2.145598287798047843e-13 1.550086963083771585e-13
3.022000000000000000e+03 7.823517608642578125e+01 -3.664176940917968750e+00 5.102782278209976041e-14 3.421257146942607852e-13 1.179460581935895536e-13 5.841661654187521591e-14
3.023000000000000000e+03 7.965006256103515625e+01 -5.857555866241455078e+00 -2.461003948371620620e-13 3.520378975309379488e-13 3.178125216338548165e-14 -1.267525343853163206e-14
3.024000000000000000e+03 7.894735717773437500e+01 -5.961865901947021484e+00 2.122235492809515511e-13 4.112095863470499602e-13 1.870299433989058846e-13 1.545321216909339990e-13
3.025000000000000000e+03 7.894495391845703125e+01 -5.166349887847900391e+00 -1.508368083213973421e-13 3.471141830999752154e-13 5.888321649933150881e-14 7.426624961705263761e-14
3.026000000000000000e+03 7.669849395751953125e+01 -1.305473518371582031e+01 3.727292251427295755e-14 -2.977684017326648336e-14 2.248824617598647532e-15 4.444287345366400299e-14
3.027000000000000000e+03 7.819503784179687500e+01 -1.303463268280029297e+01 1.783512065518886441e-14 9.914551818424044427e-14 3.509419114360902425e-14 1.290770638431252421e-14
3.028000000000000000e+03 7.891360473632812500e+01 -1.379669094085693359e+01 -5.571515064627455271e-14 -2.068817122821697829e-13 -7.877905820090694289e-14 5.029919148834445519e-14
3.029000000000000000e+03 7.895040130615234375e+01 -9.903501510620117188e+00 -2.526699112252988461e-14 1.264241397116658283e-13 3.034714406852101476e-14 1.910510764619333807e-14
3.030000000000000000e+03 7.817676544189453125e+01 -1.379639530181884766e+01 -7.901777919049751686e-14 -3.386476009011908650e-14 -3.386476009011908650e-14 7.806746921005039419e-14
3.031000000000000000e+03 7.892668151855468750e+01 -1.302015495300292969e+01 -1.229187700924191592e-14 8.623395102375433496e-14 2.218262228905702044e-14 2.668667255223671625e-14
3.032000000000000000e+03 7.964463043212890625e+01 -1.300060844421386719e+01 -7.033395675766496158e-14 -7.589407075882237397e-14 -4.386840893257255847e-14 -4.519565535081142282e-14
3.033000000000000000e+03 4.206418991088867188e+01 -3.678679466247558594e+00 -4.340374359836779439e-13 -1.860160381847789091e-13 -1.860160381847789091e-13 1.864873408691583578e-13
3.034000000000000000e+03 6.166715621948242188e+01 -1.207145500183105469e+01 9.010223665263661363e-13 -1.900235611224099230e-13 2.132996470421977264e-13 3.327613250052319227e-13
3.035000000000000000e+03 6.148730087280273438e+01 -1.269250965118408203e+01 7.680489816190572139e-13 -1.283456441169075757e-13 1.919110080269084695e-13 2.687497847961989317e-13
3.036000000000000000e+03 6.077058792114257812e+01 -1.287362098693847656e+01 7.265852958356078251e-13 1.741408531047081154e-13 2.702178487478529290e-13 2.257881652912435699e-13
3.037000000000000000e+03 5.174922943115234375e+01 -1.455392837524414062e+01 8.374351017324810353e-13 3.131497882183365000e-13 3.451754669852452606e-13 -3.480385874247635125e-14
3.038000000000000000e+03 5.938640975952148438e+01 -1.175956344604492188e+01 6.674979037384065617e-13 -1.828766901367656628e-13 1.453863749225139945e-13 1.727846517122003100e-13
3.039000000000000000e+03 5.837904357910156250e+01 -1.295182704925537109e+01 6.258667629294167867e-13 -9.777896943724898038e-14 1.584263455015402777e-13 1.124995550275814660e-13
3.040000000000000000e+03 5.406628799438476562e+01 -1.430935287475585938e+01 7.522877720073095631e-13 -2.266023333601444034e-13 1.577056356599076947e-13 2.882743143587523926e-13
3.041000000000000000e+03 5.559909057617187500e+01 -1.414596557617187500e+01 7.304826231749328436e-13 -2.816983571320846869e-13 1.346352771023490158e-13 1.188559613143208571e-13
3.042000000000000000e+03 5.786716842651367188e+01 -1.382179546356201172e+01 7.546810940929626899e-13 9.468001469642439716e-14 2.548083272158052637e-13 9.297016688404255436e-14
3.043000000000000000e+03 5.329303359985351562e+01 -1.438716602325439453e+01 7.983524865501356871e-13 6.764537253912614179e-14 2.597993706016793469e-13 1.661240047433343303e-13
3.044000000000000000e+03 6.100582122802734375e+01 7.349368095397949219e+00 -3.828991160595429655e-13 -1.628130030968677477e-12 -6.033087441084661329e-13 -4.615757645889950744e-13
3.045000000000000000e+03 6.277368927001953125e+01 1.351590442657470703e+01 -7.500886034256942780e-14 -2.159565712020472539e-12 -6.703723947482087553e-13 -1.092766759784417896e-13
3.046000000000000000e+03 4.684276580810546875e+01 -5.280096530914306641e+00 -5.880369975674870631e-13 -2.326111545947803089e-14 -1.833894364491883699e-13 1.011125997383080510e-13
3.047000000000000000e+03 6.184337997436523438e+01 7.837317943572998047e+00 -2.888388855350199069e-13 -1.942388307488163157e-12 -6.693681524859440568e-13 -4.094439088990486919e-13
3.048000000000000000e+03 4.527254867553710938e+01 -4.875861644744873047e+00 -5.004069532875410342e-13 -3.145633371295052105e-14 -1.595589979586087281e-13 1.043558550120268769e-13
3.049000000000000000e+03 4.546129608154296875e+01 -4.172502994537353516e+00 -4.942505823016252187e-13 -7.456883011460260779e-14 -1.706458189814838433e-13 1.721340761986003831e-13
3.050000000000000000e+03 6.243677520751953125e+01 1.024467945098876953e+01 -1.566219078258726527e-13 -1.645531367416852575e-12 -5.406459785070594215e-13 -3.287534632544220070e-13
3.051000000000000000e+03 6.265388488769531250e+01 1.187085819244384766e+01 -8.634752797758576959e-14 -2.027172266855226113e-12 -6.340559587786342988e-13 -2.093458056646319010e-13
3.052000000000000000e+03 5.882682418823242188e+01 2.191840171813964844e+00 -3.150459222927420866e-13 -8.441593778163447581e-13 -3.477615873222206222e-13 -5.711819905940274111e-13
3.053000000000000000e+03 5.730480575561523438e+01 1.237903475761413574e+00 -3.896562163641786869e-13 -8.990106836054279071e-13 -3.866000672803765470e-13 -4.731973818859758207e-13
3.054000000000000000e+03 5.592625427246093750e+01 -7.391596436500549316e-01 -3.767378119537423409e-13 -5.732175801728689457e-13 -2.849866067959616611e-13 -5.179242451580634565e-13
3.055000000000000000e+03 5.793040466308593750e+01 8.949342966079711914e-01 -3.272677539124108081e-13 -7.293010596473581408e-13 -3.169706521994469783e-13 -4.961501045078198224e-13
3.056000000000000000e+03 4.762397384643554688e+01 -5.466510772705078125e+00 -5.475437269385208250e-13 -2.346616011315166839e-13 -2.346616011315166839e-13 8.858186536717105319e-14
3.057000000000000000e+03 4.918323135375976562e+01 -5.794390678405761719e+00 -6.202871332891546352e-13 -1.420711337067398147e-14 -1.903482661205421755e-13 2.319842146885405659e-14
3.058000000000000000e+03 6.093027877807617188e+01 5.584682941436767578e+00 -2.265901225331767854e-13 -1.286634752732662701e-12 -4.539674571587409835e-13 -6.083068619135156840e-13
3.059000000000000000e+03 6.126989746093750000e+01 6.323374748229980469e+00 -2.468230155851236507e-13 -1.592687136689474592e-12 -5.518530511033903352e-13 -3.430755842175753356e-13
3.060000000000000000e+03 6.096386718750000000e+01 2.081585693359375000e+01 -1.291892049067044912e-12 -1.811819140898340841e-12 -9.311133678316374507e-13 1.055406846986461922e-12
3.061000000000000000e+03 5.432532501220703125e+01 -2.527643442153930664e+00 -5.093139451850525745e-13 -4.927831146611660884e-13 -3.006290962698221492e-13 -5.333614409505638143e-13
3.062000000000000000e+03 5.648637390136718750e+01 -1.064545631408691406e+00 -3.749601269666807957e-13 -7.526000764430940126e-13 -3.382680691544487361e-13 -4.768904997461131945e-13
3.063000000000000000e+03 6.013963317871093750e+01 4.174402713775634766e+00 -3.895421040855245876e-13 -1.236375043144055663e-12 -4.877751306163469192e-13 -5.367484343272999059e-13
3.064000000000000000e+03 6.212981414794921875e+01 1.528999710083007812e+01 2.746395064221873045e-15 -2.675253464937132897e-12 -8.017521108821812348e-13 5.932197278974565835e-14
3.065000000000000000e+03 6.276358413696289062e+01 1.688678169250488281e+01 -2.282287314865627526e-13 -2.225231500799229600e-12 -7.360380751067485683e-13 3.261695113217916164e-13
3.066000000000000000e+03 5.746940994262695312e+01 2.362723946571350098e-01 -4.456973527224017406e-13 -9.973736246615683143e-13 -4.329213040572127413e-13 -4.276839570428042636e-13
3.067000000000000000e+03 5.439306259155273438e+01 -3.478324174880981445e+00 -4.144193939837476082e-13 -4.578328818491406160e-13 -2.616756908813827609e-13 -4.516726348404581648e-13
3.068000000000000000e+03 6.227791976928710938e+01 9.430903434753417969e+00 -1.719434192465688072e-13 -1.857977096828000718e-12 -6.089761399145909859e-13 -1.969800597590928848e-13
3.069000000000000000e+03 6.280630111694335938e+01 1.517172527313232422e+01 -1.096247116520732146e-13 -2.288778541692515489e-12 -7.195209597403440238e-13 8.762600562685352035e-14
3.070000000000000000e+03 6.208003997802734375e+01 8.625776290893554688e+00 -8.611974387741014314e-14 -1.798319956489158322e-12 -5.653319067218387506e-13 -2.624034073795550315e-13
3.071000000000000000e+03 5.491943359375000000e+01 -2.889132261276245117e+00 -4.478337188931758028e-13 -4.178240327508409013e-13 -2.596973200721941488e-13 -4.186417922394380930e-13
3.072000000000000000e+03 5.971352005004882812e+01 3.502343654632568359e+00 -4.703929303365161907e-13 -1.230993280400272116e-12 -5.104158740630582169e-13 -4.204340868507738804e-13
3.073000000000000000e+03 5.544747924804687500e+01 -2.294391632080078125e+00 -4.586661454288043505e-13 -5.597193715456416641e-13 -3.055156496713229419e-13 -5.388687543059211826e-13
3.074000000000000000e+03 5.597143554687500000e+01 -1.687868833541870117e+00 -3.057472352553658457e-13 -6.342949711475587282e-13 -2.820126673418882346e-13 -3.762996587507866364e-13
3.075000000000000000e+03 6.279814529418945312e+01 1.433919525146484375e+01 -2.325272983330021331e-14 -2.206010981525841075e-12 -6.687791054456326822e-13 4.019939424198225308e-14
3.076000000000000000e+03 6.272718429565429688e+01 1.269365310668945312e+01 -1.034504987641564344e-13 -2.011626759265694453e-12 -6.345231414947583026e-13 -8.421660314646486900e-14
3.077000000000000000e+03 5.593962478637695312e+01 2.220769119262695312e+01 -5.863830471533604261e-13 -1.369296521872356842e-13 -2.169938219994532735e-13 8.451961054862025535e-14
3.078000000000000000e+03 1.391297340393066406e+01 2.061603355407714844e+01 -8.487081751360620041e-14 2.381324846513488414e-13 4.597850014132279228e-14 -1.221840960656181418e-13
3.079000000000000000e+03 2.784189033508300781e+01 -8.494359970092773438e+00 -1.241720485115060946e-13 3.828530645722666437e-14 -2.576602227747065016e-14 2.143238149075136351e-14
3.080000000000000000e+03 4.106888198852539062e+01 -1.080110645294189453e+01 3.251790384271174839e-13 1.393624392319672833e-13 1.393624392319672833e-13 -4.588521809690757070e-14
3.081000000000000000e+03 4.076716995239257812e+01 -1.139742469787597656e+01 5.823307331134786047e-13 1.123174632727125255e-13 2.083944589158573391e-13 -1.232831924654481659e-13
3.082000000000000000e+03 4.039943695068359375e+01 -1.036462211608886719e+01 4.381733691161127098e-13 1.305999037214122804e-13 1.706319818512574971e-13 -1.655280459141733607e-13
3.083000000000000000e+03 4.001521682739257812e+01 -8.311201095581054688e+00 1.006919157428565192e-13 4.315367914354759082e-14 4.315367914354759082e-14 -7.152692473684149621e-14
3.084000000000000000e+03 3.731198883056640625e+01 -8.772609710693359375e+00 1.290833759326481811e-13 2.154497690280351985e-13 1.033599407776995827e-13 -1.415796733322816081e-13
3.085000000000000000e+03 5.379201126098632812e+01 2.079085350036621094e+01 -1.608803964613797488e-13 1.140550463319192631e-13 -1.404760436121178790e-14 -4.663525221917409758e-14
3.086000000000000000e+03 5.197729110717773438e+01 2.110004806518554688e+01 -6.072995838851680261e-14 -1.632799662620518233e-13 -6.720297739517058777e-14 8.407155722457704261e-14
3.087000000000000000e+03 4.927787017822265625e+01 1.901461982727050781e+01 2.604607508675544497e-14 -8.033929288974936411e-14 -1.628796584911794409e-14 3.880991800717450979e-14
3.088000000000000000e+03 3.420018768310546875e+01 6.309200763702392578e+00 2.152328506665069502e-14 -3.652668309961012993e-14 -4.501020002810893553e-15 5.834599432286494136e-14
3.089000000000000000e+03 5.514193344116210938e+01 2.207614135742187500e+01 -4.063223553191913640e-13 5.461658957126719338e-14 -1.055117297243772512e-13 5.041741357085863240e-14
3.090000000000000000e+03 5.120525741577148438e+01 2.081211662292480469e+01 -1.820803300885479037e-13 -7.803442137258032041e-14 -7.803442137258032041e-14 -3.584022388223272182e-14
3.091000000000000000e+03 4.727452087402343750e+01 1.761459922790527344e+01 -3.498310785477430629e-14 -6.074370742731663442e-14 -2.871804560106681892e-14 -1.984904143717373948e-14
3.092000000000000000e+03 3.424714279174804688e+01 5.532638549804687500e+00 2.631297686250116952e-14 -3.547305949414686355e-13 -9.852528677894295539e-14 3.178557203141647858e-14
3.093000000000000000e+03 4.095471191406250000e+01 1.118319416046142578e+01 -8.189747437072764091e-14 1.250294084844533193e-13 1.293957769301886176e-14 1.750413101140116390e-13
3.094000000000000000e+03 3.344421005249023438e+01 1.115884304046630859e+01 -7.868450221893905083e-14 -2.167257259072519204e-13 -8.862306504972550236e-14 2.994011424417922229e-14
3.095000000000000000e+03 5.830854034423828125e+01 2.292992401123046875e+01 -7.699848245980300820e-13 -6.502501445279640357e-13 -4.260705015798199602e-13 5.846668635345331211e-13
3.096000000000000000e+03 5.671470260620117188e+01 2.228640365600585938e+01 -7.689124944393332939e-13 -1.236546536822688558e-13 -2.677701268181953420e-13 2.783830295189498871e-13
3.097000000000000000e+03 3.814693069458007812e+01 7.712222576141357422e+00 1.121658714802083179e-13 -6.630628798841645133e-14 1.375787504753755996e-14 1.989245492503913249e-13
3.098000000000000000e+03 3.705228424072265625e+01 5.868749618530273438e+00 2.703261876499385430e-13 1.844805097529420013e-13 1.364420051551060165e-13 -7.246919129242149205e-14
3.099000000000000000e+03 4.421061706542968750e+01 1.494542026519775391e+01 -6.132912239035018254e-14 -1.520990229380778103e-13 -6.402844021039660882e-14 2.342886355841816703e-14
3.100000000000000000e+03 5.275331497192382812e+01 2.137203407287597656e+01 -1.498417004624358340e-13 1.645368682880871125e-13 4.408552804090930602e-15 -7.935290608201278628e-14
3.101000000000000000e+03 4.495412826538085938e+01 1.669844245910644531e+01 -4.027639292501945800e-14 -1.726131173759859472e-14 -1.726131173759859472e-14 -6.214484222361038590e-14
3.102000000000000000e+03 4.251054763793945312e+01 1.317812442779541016e+01 6.413814791772498580e-14 1.851140903974882179e-13 7.477567556032210794e-14 -3.833805966918166219e-14
3.103000000000000000e+03 4.895945358276367188e+01 1.972245407104492188e+01 -8.716472503630598445e-14 9.989653825285757516e-14 3.819543880262182486e-15 1.159414225867724801e-13
3.104000000000000000e+03 4.374887466430664062e+01 1.555344390869140625e+01 -5.877752711630490623e-14 6.631152604016227192e-14 2.260199846563799159e-15 8.047151812094754941e-14
3.105000000000000000e+03 4.257853317260742188e+01 1.435932636260986328e+01 -5.396202961468338222e-14 2.056281577303420427e-13 4.549983843469759814e-14 -1.519392793004892273e-14
3.106000000000000000e+03 3.390876770019531250e+01 1.286174869537353516e+01 -6.058992012541314365e-14 2.485385757877017765e-13 5.638459805393930546e-14 -3.363793144310796290e-14
3.107000000000000000e+03 4.480664825439453125e+01 1.549861717224121094e+01 -1.843128277225717510e-14 2.641409057354670437e-14 2.394842298035211418e-15 -7.531347371919280831e-14
3.108000000000000000e+03 5.044182205200195312e+01 2.049134063720703125e+01 -1.092016288593150586e-13 -1.383025909507812345e-13 -7.425126729828160355e-14 4.692178313643949328e-14
3.109000000000000000e+03 3.483951187133789062e+01 1.386017990112304688e+01 -1.262251750604875822e-13 3.119110872362718112e-13 5.570577229748255310e-14 -1.604099882437926006e-13
3.110000000000000000e+03 5.353512573242187500e+01 2.163761138916015625e+01 -2.684092097887669226e-13 2.222032880773699287e-14 -7.385666514134192617e-14 4.382819519636871330e-15
3.111000000000000000e+03 5.433277893066406250e+01 2.188351440429687500e+01 -3.669486860636422820e-13 -2.001087555207614610e-14 -1.160878711952209597e-13 -2.990326831097366023e-14
3.112000000000000000e+03 4.199390411376953125e+01 1.373953723907470703e+01 2.773972424105399653e-14 5.763939943826540402e-14 2.561373761201558852e-14 1.144667178968120091e-13
3.113000000000000000e+03 3.882600021362304688e+01 3.907367467880249023e+00 -3.382887384524276356e-15 -4.720075851981538062e-14 -1.517509330543377610e-14 -6.477113902733991346e-14
3.114000000000000000e+03 3.945550155639648438e+01 4.061388015747070312e+00 4.340244594389260080e-14 -1.186517924927146805e-13 -2.257480531989933953e-14 4.713054287661978814e-14
3.115000000000000000e+03 4.824140930175781250e+01 1.928057479858398438e+01 -6.472835369910820424e-14 -2.107445213348282942e-13 -8.264186047730187612e-14 -1.323108018546487186e-13
3.116000000000000000e+03 4.754692840576171875e+01 1.880653572082519531e+01 -8.975340680091384304e-14 5.303615145256686259e-14 -1.101517728213045194e-14 7.420514127210592337e-14
3.117000000000000000e+03 4.621660232543945312e+01 1.779093933105468750e+01 8.494929003397162781e-15 4.939163295481115157e-14 1.736596774042954705e-14 -3.283020082460626210e-14
3.118000000000000000e+03 4.434596633911132812e+01 1.613134765625000000e+01 2.250177075105528474e-14 5.539456561639774512e-14 2.336890040201614060e-14 -2.627567522556998464e-14
3.119000000000000000e+03 1.134363174438476562e+00 2.916085433959960938e+01 1.506590059413732974e-14 5.097172683932171822e-13 1.574349510350195325e-13 -9.480452684560488480e-15
3.120000000000000000e+03 3.757779598236083984e-01 2.840440559387207031e+01 1.135921326618494209e-14 4.852532221530370116e-13 1.489837170732394300e-13 9.481497923217400287e-15
3.121000000000000000e+03 1.245800256729125977e+00 3.561639404296875000e+01 2.012385788877860821e-14 8.778925394796466275e-13 2.694049139589232977e-13 5.488986950510574281e-14
3.122000000000000000e+03 4.161583781242370605e-01 3.484906387329101562e+01 1.309326335096868202e-14 6.461247010515480671e-13 1.977653880502056039e-13 7.343174259302233386e-15
3.123000000000000000e+03 3.575773239135742188e-01 2.116549682617187500e+01 -1.816969358715662952e-14 8.371488859114720182e-14 1.966355816238399279e-14 -3.002058576230016984e-14
3.124000000000000000e+03 1.082163095474243164e+00 2.271111869812011719e+01 4.488383202974101371e-14 2.479906742198362268e-13 8.786235492419178228e-14 1.678311251096260143e-14
3.125000000000000000e+03 1.813528537750244141e+00 2.264851379394531250e+01 -1.070100090353257039e-14 1.828933190875861592e-14 2.276499301567813660e-15 4.800782506448643405e-14
3.126000000000000000e+03 1.086948394775390625e+00 2.351505088806152344e+01 -5.347872616750723451e-14 1.143333881346506042e-13 1.825640096183526323e-14 -3.133064418797334993e-14
3.127000000000000000e+03 2.575489521026611328e+00 2.500475692749023438e+01 2.287792961260144697e-14 1.013067261372915806e-13 3.725539570852837157e-14 3.795050143823135158e-14
3.128000000000000000e+03 1.094399452209472656e+00 2.512038040161132812e+01 1.572776366879236748e-14 1.439933106561416820e-13 4.791632517739223551e-14 4.798661451245423912e-15
3.129000000000000000e+03 3.659353554248809814e-01 2.598776245117187500e+01 -6.961296908922567916e-14 4.047998915235329065e-13 1.005560719869076636e-13 -7.101067255505010348e-15
3.130000000000000000e+03 1.112470149993896484e+00 2.753718757629394531e+01 -3.333979956259697230e-14 5.347228736185538622e-13 1.504149317035560762e-13 -6.204943920869523954e-14
3.131000000000000000e+03 1.900570154190063477e+00 2.991852951049804688e+01 2.090092591458970334e-14 5.122179807040549981e-13 1.599356768983845045e-13 -9.005753398062549958e-15
3.132000000000000000e+03 1.145381331443786621e+00 2.996886253356933594e+01 3.446082733949730470e-14 6.095312514269035642e-13 1.931976307449970176e-13 -5.978437146378356992e-14
3.133000000000000000e+03 1.218813776969909668e+00 3.239464569091796875e+01 -6.340909649562784245e-14 5.218360465963911565e-13 1.375280911288662145e-13 -1.184565751152950874e-14
3.134000000000000000e+03 1.183553099632263184e+00 3.158281326293945312e+01 -1.361793249915694073e-14 7.261789368613602580e-13 2.137682934312545857e-13 -1.193326850095627334e-13
3.135000000000000000e+03 4.049713611602783203e-01 3.243500518798828125e+01 2.513432543419912707e-14 5.140322846194922413e-13 1.617499808138217476e-13 2.567666877186479402e-14
3.136000000000000000e+03 1.278185248374938965e+00 3.402914810180664062e+01 -6.553261487065795143e-14 6.353033333780788716e-13 1.709312216508634963e-13 -9.936900105110991338e-15
3.137000000000000000e+03 2.140410184860229492e+00 3.630129623413085938e+01 6.191261289452756889e-14 5.984208354542497332e-13 1.981000406032704109e-13 3.759068523036951381e-14
3.138000000000000000e+03 1.303106427192687988e+00 3.868873977661132812e+01 -4.138068333088204542e-14 4.397748983551996727e-13 1.195182733164379396e-13 -6.196238455050823157e-14
3.139000000000000000e+03 1.414623379707336426e+00 3.934874343872070312e+01 -2.096932721321227711e-14 4.485226209535730924e-13 1.282659959148113593e-13 -5.177241556471312567e-14
3.140000000000000000e+03 4.831026196479797363e-01 3.959357070922851562e+01 -6.814783925970097078e-14 4.283032804287822959e-13 1.080466282849662507e-13 1.927567975297962005e-14
3.141000000000000000e+03 1.721174240112304688e+00 4.004175186157226562e+01 5.435854267795206529e-14 7.095607738524800645e-13 2.291757820842288407e-13 -3.076773319628245407e-14
3.142000000000000000e+03 1.580481767654418945e+00 4.192981719970703125e+01 -3.972038694591457919e-14 5.663015629348011615e-13 1.579743551683582270e-13 -1.401465139143180660e-14
3.143000000000000000e+03 1.081161975860595703e+00 8.221470832824707031e+00 6.464087891257935814e-14 -2.010515099673190753e-13 -4.092318728354284174e-14 1.579522645490938348e-14
3.144000000000000000e+03 3.616917431354522705e-01 7.491451263427734375e+00 4.847002468578174086e-15 2.077286681494258831e-15 2.077286681494258831e-15 1.581374937139994052e-14
3.145000000000000000e+03 3.557978868484497070e-01 1.955734443664550781e+01 1.682034807932390047e-14 1.215860908048566058e-13 4.152193115703438353e-14 2.916502827546470222e-14
3.146000000000000000e+03 1.074664473533630371e+00 2.110424613952636719e+01 -1.278044561321819636e-14 1.317755176895654690e-13 3.569851865828886639e-14 1.083969882170049415e-13
3.147000000000000000e+03 1.061715483665466309e+00 1.547497558593750000e+01 8.550457095287365694e-15 4.941543119249720839e-14 1.738976597811560387e-14 -3.902277399868772645e-14
3.148000000000000000e+03 3.536804914474487305e-01 1.473339462280273438e+01 1.877797843976604375e-14 8.047704924609311999e-15 8.047704924609311999e-15 -5.523027171781651201e-14
3.149000000000000000e+03 4.537051677703857422e+00 1.865449309349060059e+00 -6.179771456929841755e-14 -2.648473650947950203e-14 -2.648473650947950203e-14 3.667769552157841562e-14
3.150000000000000000e+03 3.723126053810119629e-01 5.084730148315429688e+00 4.621916591856026213e-14 -1.860710614450325484e-13 -4.195556798031532808e-14 1.965756625131511587e-14
3.151000000000000000e+03 1.805511713027954102e+00 8.148252487182617188e+00 3.746746904159832525e-14 -2.969346163807055905e-14 2.332201882245150959e-15 1.159606129652254736e-13
3.152000000000000000e+03 1.095420479774475098e+00 6.614835262298583984e+00 -6.225975410136669330e-14 -4.955822400674533834e-14 -3.354539478768632510e-14 6.655647441598105951e-14
3.153000000000000000e+03 1.799336671829223633e+00 8.960312843322753906e+00 -1.008187233513240660e-14 -1.873246024443331326e-13 -5.922194158680671450e-14 1.140600878720213207e-13
3.154000000000000000e+03 1.074800372123718262e+00 9.838365554809570312e+00 -3.125172782234356128e-14 -5.914454988048198358e-14 -2.711888297203448456e-14 5.205226169795879043e-14
3.155000000000000000e+03 1.060552477836608887e+00 1.306193256378173828e+01 4.683196037458085825e-14 -2.804634508576236973e-15 1.320819725158161803e-14 4.537807575446389796e-14
3.156000000000000000e+03 1.066395282745361328e+00 1.145234775543212891e+01 3.311478695422476193e-14 -2.374381615800891243e-13 -6.129701645351745554e-14 8.084169184768841276e-14
3.157000000000000000e+03 3.542391657829284668e-01 1.232064437866210938e+01 4.792184444407654453e-14 -1.624658659557867701e-13 -3.436320509826035208e-14 9.234658122827393845e-14
3.158000000000000000e+03 1.060183405876159668e+00 1.386651039123535156e+01 9.479857220398568707e-14 -7.374941044142879765e-14 6.314748782876951003e-15 3.395334957200651926e-14
3.159000000000000000e+03 1.062293529510498047e+00 1.627853775024414062e+01 -5.909853227452355195e-14 -2.452467008228105538e-15 -1.846529961541890780e-14 8.989117670978475499e-15
3.160000000000000000e+03 1.772479891777038574e+00 1.621564483642578125e+01 -6.996061173956957813e-14 1.072697296657446064e-13 1.119273486963274014e-14 6.869707575149139323e-14
3.161000000000000000e+03 1.063116073608398438e+00 1.708186912536621094e+01 -1.053698144362624767e-13 6.921888192831793241e-14 -1.084528026060313163e-14 -9.653533533529948252e-14
3.162000000000000000e+03 1.777725577354431152e+00 1.862706947326660156e+01 2.074563597623778344e-14 1.461438392177938361e-13 5.006684018651723356e-14 -5.043567898933322413e-15
3.163000000000000000e+03 1.068252921104431152e+00 1.949541282653808594e+01 -4.702264231408437821e-16 1.599267999930972795e-13 4.783697174276166364e-14 -4.272103165474903930e-14
3.164000000000000000e+03 1.764870834350585938e+01 2.248638153076171875e+01 -2.286536845280684460e-13 -6.492533798725576982e-15 -7.054386507452173327e-14 9.810914965635228469e-15
3.165000000000000000e+03 1.611050224304199219e+01 2.210174179077148438e+01 -2.395271210108712578e-13 5.747383499026328946e-14 -5.461598987194053734e-14 -6.098692107965944520e-14
3.166000000000000000e+03 1.461997795104980469e+01 1.869526863098144531e+01 7.787741534547726330e-14 3.536326776115011894e-13 1.294530211108299578e-13 -9.053650570130938879e-15
3.167000000000000000e+03 1.535074615478515625e+01 1.215916061401367188e+01 6.350202617433700625e-14 3.245963339695151495e-13 1.164295032997711421e-13 -1.082176272963579489e-13
3.168000000000000000e+03 1.603522491455078125e+01 9.697951316833496094e+00 7.376522624061992994e-14 1.574287846351635212e-13 6.935820190748231973e-14 -1.237702431863829666e-13
3.169000000000000000e+03 2.099765586853027344e+01 2.336493492126464844e+01 -2.531891525863610992e-13 1.431205821173994752e-13 -3.302056978543577159e-14 -9.351310145070540480e-14
3.170000000000000000e+03 1.451410675048828125e+01 1.266989898681640625e+01 7.480101878610395660e-14 -1.369337010047235598e-14 1.833229341984335403e-14 -1.596228032564595001e-13
3.171000000000000000e+03 1.509325599670410156e+01 1.293408489227294922e+01 3.230004967918337355e-14 2.197221490038772651e-13 7.560666231542362281e-14 5.174478958513842666e-15
3.172000000000000000e+03 1.538616847991943359e+01 2.192803192138671875e+01 -1.719176694449722764e-13 6.357384779200059288e-14 -3.250314446301243165e-14 -7.441585596432848115e-14
3.173000000000000000e+03 1.462905120849609375e+01 2.180270385742187500e+01 -1.199264889869058881e-13 1.773576809504726071e-13 1.722935996076226800e-14 -2.159474584827875132e-14
3.174000000000000000e+03 1.480043125152587891e+01 2.054941177368164062e+01 -1.743355419335686218e-14 2.327209605579305673e-13 6.458622157055893265e-14 -1.369325744509037115e-14
3.175000000000000000e+03 1.481415748596191406e+01 1.189388847351074219e+01 1.676589368639763711e-13 1.633557248888542479e-13 9.930439446009103888e-14 -9.731718062693309190e-14
3.176000000000000000e+03 1.759437561035156250e+01 8.769324302673339844e+00 3.201746051444132046e-13 3.259403651926368051e-13 1.938344911011150029e-13 -1.438216543471829145e-13
3.177000000000000000e+03 1.586345291137695312e+01 3.330398559570312500e+00 1.076871271733607915e-13 1.605289929847500408e-13 8.046483672505960749e-14 9.194419822668078307e-15
3.178000000000000000e+03 1.452390480041503906e+01 1.618247032165527344e+01 2.776748489886730897e-14 3.321569907142885025e-13 1.079773409898808489e-13 1.333023775862201762e-14
3.179000000000000000e+03 1.371003150939941406e+01 1.514393901824951172e+01 8.746662113123457316e-14 3.119913995121986749e-13 1.198374082259090478e-13 2.740509709897760715e-14
3.180000000000000000e+03 1.998594665527343750e+01 3.702614784240722656e+00 6.401315295976456321e-14 4.163172627816291715e-13 1.440991287881762672e-13 -2.304055383983705241e-13
3.181000000000000000e+03 1.397376060485839844e+01 1.427810478210449219e+01 -1.804766493857749149e-14 2.667709803061413254e-13 7.461699579611527633e-14 2.290228519796679713e-14
3.182000000000000000e+03 1.876699447631835938e+01 7.648359775543212891e+00 3.106446306785914935e-13 1.216956765394405782e-13 1.297020894549041903e-13 -6.251337609456536493e-14
3.183000000000000000e+03 1.925017738342285156e+01 2.297777938842773438e+01 -2.623179180382545495e-13 -4.379553699405437650e-14 -9.183403142749499426e-14 -6.242906582312746089e-14
3.184000000000000000e+03 1.686413574218750000e+01 2.228962135314941406e+01 -2.620528306070818436e-13 9.357091653155319433e-14 -5.054457354503223698e-14 -8.922727736792451791e-14
3.185000000000000000e+03 1.363161659240722656e+01 1.608498954772949219e+01 6.755430802696683196e-15 1.401480250210959677e-13 4.407103954234652121e-14 -3.597063646292378292e-14
3.186000000000000000e+03 1.557639980316162109e+01 1.039588165283203125e+01 1.925139464075548146e-13 2.941041236503155742e-13 1.459854237278665479e-13 -6.843924569861076224e-14
3.187000000000000000e+03 1.611333084106445312e+01 5.275703430175781250e+00 4.236421394352048175e-14 -5.047032941313950305e-14 -2.431834556182411664e-15 -1.000340896272280955e-13
3.188000000000000000e+03 1.774122428894042969e+01 4.113536834716796875e+00 8.695587381656738613e-14 1.287686998046114195e-13 6.471736937584821048e-14 -1.227668547333291005e-13
3.189000000000000000e+03 2.113961219787597656e+01 5.491837024688720703e+00 2.287642731496619675e-13 1.723871289856584998e-13 1.203454247063542870e-13 -2.259664013521366088e-14
3.190000000000000000e+03 2.108780670166015625e+01 4.579135894775390625e+00 8.117315955687154361e-14 2.335075865035184800e-14 3.135717664801314364e-14 -3.048680963712788183e-14
3.191000000000000000e+03 1.373675346374511719e+01 1.702004814147949219e+01 2.600477884244500881e-14 3.771524921796637342e-13 1.209471840171380541e-13 -5.179386243893760455e-14
3.192000000000000000e+03 1.792984962463378906e+01 3.472071170806884766e+00 -1.438609566759355141e-13 2.128510041832232247e-13 2.069701459099949209e-14 -1.361862689676709981e-13
3.193000000000000000e+03 3.553969573974609375e+01 -9.016667366027832031e+00 3.181603201382610102e-13 9.060347551425110280e-14 1.226291475048962853e-13 -1.394572256068968286e-13
3.194000000000000000e+03 3.397542572021484375e+01 -8.496261596679687500e+00 2.162401795168314433e-13 1.841762555182882566e-13 1.201249250895250476e-13 -1.241873222096109841e-13
3.195000000000000000e+03 3.332682418823242188e+01 -7.517769336700439453e+00 8.996761804514266658e-14 3.130632417799178446e-13 1.209092640461553736e-13 -1.465514179194854494e-13
3.196000000000000000e+03 3.714446258544921875e+01 -2.265168428421020508e+00 -2.502504225978391394e-13 3.960102645111929220e-13 4.372794715299527235e-14 2.253450899798313707e-15
3.197000000000000000e+03 3.588706970214843750e+01 -7.538333892822265625e+00 1.900335493349239457e-13 1.271938961490762243e-13 9.516823093469461980e-14 -2.455209429860771841e-13
3.198000000000000000e+03 3.492337799072265625e+01 -8.011967658996582031e+00 1.779083336813508387e-13 1.677483293330978009e-13 1.036969921280710139e-13 -2.800334562760159463e-13
3.199000000000000000e+03 3.650025558471679688e+01 -8.530924797058105469e+00 1.714368393340021113e-13 -4.090444075035420957e-14 3.915971889746801271e-14 -3.219729983929692230e-13
3.200000000000000000e+03 3.816935348510742188e+01 -9.001990318298339844e+00 2.270772410167473665e-13 2.869239066716038067e-14 7.673088510060099843e-14 -2.181311500783905677e-13
3.201000000000000000e+03 3.163741111755371094e+01 -2.976070642471313477e+00 -1.333058690560287585e-13 3.437081145412669569e-14 -2.968051558650472432e-14 -2.038566662481908209e-13
3.202000000000000000e+03 3.556488752365112305e+00 3.356420755386352539e+00 -7.150620376985281426e-16 4.544449330192400216e-14 1.341882978160829215e-14 5.795950335342817117e-14
3.203000000000000000e+03 1.999078035354614258e+00 2.633839368820190430e+00 3.052965595173179336e-14 3.595961148208232094e-14 1.994678056895741319e-14 5.699389256982184682e-14
3.204000000000000000e+03 2.811570644378662109e+00 2.618488311767578125e+00 -3.048440067542589060e-14 -1.306474290460168247e-14 -1.306474290460168247e-14 2.906839875684193164e-14
3.205000000000000000e+03 2.053338289260864258e+00 1.875615000724792480e+00 5.878046123843419513e-14 2.519162721308088049e-14 2.519162721308088049e-14 -2.195168892038350250e-14
3.206000000000000000e+03 8.580590248107910156e+00 2.568765401840209961e+00 9.656118000458610573e-14 1.786362128098489821e-13 8.255921716670416854e-14 -2.965941430172272519e-14
3.207000000000000000e+03 7.758947849273681641e+00 2.573737144470214844e+00 -8.124317868842337309e-14 2.396871763565844304e-13 4.753320201095374842e-14 1.627109498568771184e-13
3.208000000000000000e+03 6.932401180267333984e+00 2.580397605895996094e+00 7.548661402987516533e-14 -1.049014390977487388e-13 -8.824446842735714225e-15 -6.628742287061520355e-14
3.209000000000000000e+03 6.014046192169189453e+00 3.318992137908935547e+00 3.787713144434018409e-14 -1.896462181088034993e-13 -4.553072464408627895e-14 7.142246863378609589e-14
3.210000000000000000e+03 6.199142456054687500e+00 1.861667156219482422e+00 6.224099062751911604e-14 2.667470905888969651e-14 2.667470905888969651e-14 9.540265916130850898e-15
3.211000000000000000e+03 1.094366359710693359e+01 2.564017057418823242e+00 -6.720594539861776684e-14 1.694840252028980560e-14 -1.507726269409179892e-14 3.422639233661983749e-14
3.212000000000000000e+03 1.017955589294433594e+01 2.566994905471801758e+00 -1.088048718505575663e-14 -2.791687508333501322e-13 -8.701477309958766115e-14 1.541120611117316463e-13
3.213000000000000000e+03 2.741884040832519531e+01 -3.310554027557373047e+00 1.096626028239356884e-14 -4.105112313989613126e-14 -9.025458772547474001e-15 -1.355738065485657257e-14
3.214000000000000000e+03 2.953202438354492188e+01 -2.079397916793823242e+00 -1.619570532643711119e-14 8.456087799381048487e-14 2.050955264724495936e-14 -3.211906245527765269e-14
3.215000000000000000e+03 2.766377067565917969e+01 -4.969094276428222656e+00 -2.343684260878130254e-14 8.145753901045091339e-14 1.740620858168770435e-14 -1.916828275153135280e-14
3.216000000000000000e+03 2.820944404602050781e+01 -3.609714508056640625e+00 -2.623158377253360929e-14 3.450884055507946746e-14 2.483177246521994265e-15 -8.406578384800855730e-14
3.217000000000000000e+03 6.828670501708984375e+01 -1.482325458526611328e+01 6.430192173807660477e-15 -1.802480013119930891e-13 -5.214534045446667099e-14 2.653576346828799559e-14
3.218000000000000000e+03 6.894443511962890625e+01 -1.403333091735839844e+01 9.755584740641504160e-14 -3.241979438812353509e-13 -6.799262894244609279e-14 -1.361867111188694648e-14
3.219000000000000000e+03 2.718946266174316406e+01 -7.001112937927246094e+00 -2.283498673624154846e-14 -2.213845561949492891e-13 -7.326586304876384070e-14 -4.606093169368368628e-15
3.220000000000000000e+03 2.630244445800781250e+01 -8.125192642211914062e+00 -2.230261805856274815e-14 3.619268445598060324e-14 4.167019665115472352e-15 -2.582774895646886004e-14
3.221000000000000000e+03 2.701385879516601562e+01 -8.192709922790527344e+00 8.015179706467694121e-15 -1.338177751117677894e-13 -3.774077608049118682e-14 2.455738927096759450e-14
3.222000000000000000e+03 3.149496841430664062e+01 -7.824197292327880859e+00 1.178501334063788986e-13 -4.099469719308183879e-14 2.305662984754958122e-14 -1.409041882737688267e-13
3.223000000000000000e+03 3.250639724731445312e+01 -7.284832000732421875e+00 1.185344140550159686e-13 2.566797414806781807e-13 1.125642480159609604e-13 -1.743949765414115616e-13
3.224000000000000000e+03 2.785200500488281250e+01 -4.308807849884033203e+00 -1.147829661179988747e-13 -1.406945984413002226e-13 -7.664327478880059163e-14 -3.149376579295558309e-14
3.225000000000000000e+03 3.510712814331054688e+01 3.215943098068237305e+00 3.429458526513738670e-14 1.748260011150831739e-13 6.273617286474755805e-14 4.728433356665506793e-14
3.226000000000000000e+03 3.870862579345703125e+01 4.679245471954345703e+00 3.371998183064259247e-14 1.445142054255169756e-14 1.445142054255169756e-14 1.495484508798328172e-13
3.227000000000000000e+03 2.010307693481445312e+01 2.319293594360351562e+01 -2.922521708144387720e-13 3.487738797856160256e-14 -7.721244027177401326e-14 -1.374437588345716818e-14
3.228000000000000000e+03 4.703836441040039062e+01 -1.485614585876464844e+01 2.800228310947255883e-13 -2.459978022065906211e-13 1.020751019109979521e-14 -6.475269403788050382e-14
3.229000000000000000e+03 4.779022216796875000e+01 -1.444190597534179688e+01 4.347818491953064912e-13 -3.169253596536913964e-13 3.535694415197909724e-14 -3.060183332323322680e-14
3.230000000000000000e+03 1.881491661071777344e+01 2.909725189208984375e+00 -2.286687007281573702e-13 3.925197772608295110e-14 -5.682501452893007343e-14 7.072400272438135807e-15
3.231000000000000000e+03 1.950396919250488281e+01 3.003551959991455078e+00 -1.850168984489884705e-14 8.357260060853563544e-14 1.952127356790421542e-14 -1.970492725152789282e-13
3.232000000000000000e+03 4.023073196411132812e+01 -9.682641029357910156e-01 -4.342325584934074445e-14 7.289192849573716826e-14 8.840602302138695495e-15 -9.880127044194914054e-14
3.233000000000000000e+03 3.859177780151367188e+01 -1.600268721580505371e+00 -2.229304658625877456e-13 1.560885887772270331e-13 -2.005255973747642473e-14 2.289808222048252129e-14
3.234000000000000000e+03 4.026796722412109375e+01 -3.591077327728271484e+00 -2.946912191267164749e-13 -3.479434486841279095e-14 -9.884567529717599998e-14 2.796096416467913626e-14
3.235000000000000000e+03 4.599254608154296875e+01 -1.419865894317626953e+01 4.082816170650899190e-13 -2.367807013826939144e-13 5.145027877047694820e-14 -1.045285345367859275e-13
3.236000000000000000e+03 1.601583671569824219e+01 2.663261890411376953e+00 -8.744368347902292671e-14 1.455279310686591332e-13 1.742527359926450414e-14 -6.980126197230146837e-15
3.237000000000000000e+03 1.672102546691894531e+01 2.706279516220092773e+00 -1.494781403689471322e-14 -6.406205894807313200e-15 -6.406205894807313200e-15 -1.281659511593452594e-13
3.238000000000000000e+03 7.046546173095703125e+01 -1.395040416717529297e+01 1.340596199588678372e-13 -1.713006228835564637e-13 -1.117230104681317740e-14 -8.900366066984938263e-14
3.239000000000000000e+03 6.755246734619140625e+01 -1.148689746856689453e+01 2.730973541927028680e-13 -4.805800397390813661e-13 -6.224480566391354941e-14 -2.449932346836741770e-14
3.240000000000000000e+03 5.859634017944335938e+01 -1.366138553619384766e+01 6.039046758325727904e-13 -1.568939985254532571e-14 1.764645829634148289e-13 2.508526697996005250e-13
3.241000000000000000e+03 5.814004898071289062e+01 -1.226577281951904297e+01 6.319520644629261774e-13 -2.654457261093944032e-14 1.816222411181456220e-13 1.694138807104700328e-13
3.242000000000000000e+03 1.232645893096923828e+01 3.267096757888793945e+00 -5.867164122163454065e-14 -7.089593940124566673e-14 -3.887027418686406222e-14 1.167343945032012220e-13
3.243000000000000000e+03 1.899261665344238281e+01 5.842761039733886719e+00 5.314607600032973667e-14 1.142787850027388030e-13 5.022745796210738300e-14 -1.185005733947072648e-13
3.244000000000000000e+03 2.058261108398437500e+01 5.132235527038574219e+00 -1.864899056849226439e-14 1.278307022950855854e-13 3.275451334857140684e-14 -1.969744219077959602e-13
3.245000000000000000e+03 3.730836105346679688e+01 3.569434165954589844e+00 -4.571582844811565571e-14 -6.534344869661354305e-14 -3.331778348223193853e-14 -5.779137070152998157e-14
3.246000000000000000e+03 3.504993820190429688e+01 4.020967960357666016e+00 -1.389022733367783341e-14 -7.457938075699360736e-14 -2.654088124135530607e-14 -7.459570477595309224e-14
3.247000000000000000e+03 5.404182434082031250e+01 2.283034706115722656e+01 -3.662061973108698965e-13 -1.969266899071522858e-14 -1.157696578575964641e-13 8.722928927567749624e-14
3.248000000000000000e+03 3.798704910278320312e+01 4.500848770141601562e+00 -5.184248213011000139e-14 -2.738484352476922012e-13 -9.770726979232979836e-14 -6.234968189531078786e-14
3.249000000000000000e+03 1.516842269897460938e+01 3.305852651596069336e+00 -4.346922602145412984e-14 2.330005491931602668e-13 5.685939729032501999e-14 4.386524441748161640e-14
3.250000000000000000e+03 2.885448074340820312e+01 -3.072404861450195312e+00 -6.241398863666633434e-14 -7.249979967500347344e-14 -4.047413784875365794e-14 -5.782894508307018233e-14
3.251000000000000000e+03 2.737548255920410156e+01 -5.942540168762207031e+00 3.146848355354593674e-14 -1.237663536110891749e-13 -2.768936135607615034e-14 -4.390425197876857144e-14
3.252000000000000000e+03 5.905556488037109375e+01 -1.273063087463378906e+01 5.522790883470685142e-13 -1.293165471623683449e-13 1.268887610001573352e-13 1.966104416859654203e-13
3.253000000000000000e+03 5.973350524902343750e+01 -1.245764827728271484e+01 6.294904918505150881e-13 7.534011798758163958e-14 2.114491849843080917e-13 1.710127536542344062e-13
3.254000000000000000e+03 3.123708534240722656e+01 -5.935057163238525391e+00 1.537653061519164699e-13 2.031522600967269887e-13 1.070752712298457532e-13 -2.843685302424819872e-13
3.255000000000000000e+03 2.882654380798339844e+01 -6.343421459197998047e+00 8.894799366455583001e-14 1.410602049663894908e-13 6.900246162216266965e-14 -6.468821788993550648e-14
3.256000000000000000e+03 1.074340057373046875e+01 3.988743543624877930e+00 9.480119800612217540e-15 1.870666978525531432e-13 5.896405054755388120e-14 7.471142980533876377e-14
3.257000000000000000e+03 1.305000495910644531e+01 3.268490314483642578e+00 1.297349949908391253e-13 1.013516595410775267e-13 6.932599432669592221e-14 2.217493631209363492e-13
3.258000000000000000e+03 1.083942413330078125e+01 3.272310018539428711e+00 -1.647622230977700136e-14 -7.568765899397186803e-14 -2.764916456053125027e-14 1.669462501184201808e-13
3.259000000000000000e+03 7.894683837890625000e+01 -1.068391036987304688e+01 4.387429411749008135e-14 2.933089697770147053e-13 1.011549784907250782e-13 2.462195689847089530e-14
3.260000000000000000e+03 3.889392852783203125e+01 -3.209886074066162109e+00 -2.613957769855013158e-13 2.350611508079012736e-15 -7.771355173963323537e-14 3.899304737740383678e-15
3.261000000000000000e+03 7.515491485595703125e+01 -1.378080654144287109e+01 4.366781120187200604e-14 6.446572605161432490e-14 3.244006083723272038e-14 6.425516721345406190e-14
3.262000000000000000e+03 5.899995422363281250e+01 1.191804647445678711e+00 -2.730392138512033329e-13 -8.490319992199291121e-13 -3.366213557898234399e-13 -4.512794218175519845e-13
3.263000000000000000e+03 5.853955459594726562e+01 5.421959161758422852e-01 -3.074707101338031157e-13 -9.838846317528071594e-13 -3.874065781714342016e-13 -5.130862098037813901e-13
3.264000000000000000e+03 4.699349975585937500e+01 -1.324872875213623047e+01 4.769630870815610990e-13 -3.903495907585374791e-13 2.598405533435748510e-14 -3.656978352409821775e-14
3.265000000000000000e+03 4.606361770629882812e+01 -5.082806110382080078e+00 -4.091309268369064389e-13 -3.808897777258027362e-14 -1.341659666394615091e-13 1.166600995493316528e-13
3.266000000000000000e+03 5.768846893310546875e+01 -1.313014698028564453e+01 6.427188967671193520e-13 -4.480568477002733196e-14 1.793739717306438997e-13 2.302928897926492802e-13
3.267000000000000000e+03 6.255805969238281250e+01 1.105562305450439453e+01 -7.448066414918880218e-14 -2.022086491304531108e-12 -6.289701832279392946e-13 -2.885665339492915482e-13
3.268000000000000000e+03 6.337472152709960938e+01 1.251433467864990234e+01 -1.016918754065399000e-13 -1.782118289744838435e-12 -5.651430387033917757e-13 -1.906476516098151025e-14
3.269000000000000000e+03 3.858565902709960938e+01 5.436691761016845703e+00 -9.479090824987893016e-14 -2.922548813198699857e-13 -1.161137429695618950e-13 -1.188268369334624652e-13
3.270000000000000000e+03 4.566366577148437500e+01 -1.316503143310546875e+01 3.541698997879677568e-13 -3.972242727887792535e-13 -1.291631647422136417e-14 -7.162641383869419731e-14
3.271000000000000000e+03 4.675931167602539062e+01 -1.388478565216064453e+01 4.893365443750519184e-13 -2.935447837495303025e-13 5.873753360866734718e-14 -4.360701117691809237e-14
3.272000000000000000e+03 5.453452301025390625e+01 -4.444184780120849609e+00 -2.468905884855238098e-13 -4.832555796502324696e-13 -2.190438585722431775e-13 -3.030695269398697711e-13
3.273000000000000000e+03 5.502481460571289062e+01 -3.842275619506835938e+00 -4.644116580014567841e-13 -4.506637847189604029e-13 -2.745226463686523122e-13 -3.281693222289411294e-13
3.274000000000000000e+03 5.927338409423828125e+01 2.842034816741943359e+00 -2.153774256380761032e-13 -1.007323564838902286e-12 -3.668103147613788195e-13 -4.947673130570318101e-13
3.275000000000000000e+03 7.439225006103515625e+01 -1.309084701538085938e+01 -1.039204394195566983e-15 -4.619632313403870816e-14 -1.417065791965710364e-14 2.555973587349633785e-14
3.276000000000000000e+03 7.823677062988281250e+01 -9.194764137268066406e+00 -5.777506701136123080e-14 6.674115470353680912e-14 2.689825545323020969e-15 -1.081876762113430368e-13
3.277000000000000000e+03 7.593747711181640625e+01 -1.306340599060058594e+01 4.282812711246808401e-14 1.556077586662568679e-13 5.953076302311205437e-14 1.623298324644577295e-14
3.278000000000000000e+03 2.741110229492187500e+01 2.301474952697753906e+01 -1.038469711698436493e-13 -1.817586879615529227e-13 -8.568169909467168721e-14 8.929006283810679567e-15
3.279000000000000000e+03 6.269174957275390625e+01 8.361980438232421875e+00 -1.920188725905436211e-13 -1.820829945153867868e-12 -6.038546399023125844e-13 -2.586593862274194633e-13
3.280000000000000000e+03 4.592778015136718750e+01 -5.771667480468750000e+00 -4.739483545207479054e-13 1.400114019948356381e-13 -1.001810871130263958e-13 3.171487527350684565e-14
3.281000000000000000e+03 4.329020690917968750e+01 -1.147407054901123047e+01 3.191866259147357887e-13 -9.196047650586111621e-14 6.816784278978332834e-14 -1.718191425725476562e-13
3.282000000000000000e+03 4.410207366943359375e+01 -6.066377162933349609e+00 -1.367333438313800276e-13 -5.860000933935113898e-14 -5.860000933935113898e-14 2.193549026230021126e-14
3.283000000000000000e+03 3.387926101684570312e+01 -3.120455503463745117e+00 1.776865397981781947e-14 5.336608772618135765e-14 2.134042251179975314e-14 -1.950789519072210210e-13
3.284000000000000000e+03 3.235423660278320312e+01 -3.297245740890502930e+00 -3.632760325195105722e-14 2.360612519260868458e-13 5.992009324698802097e-14 -3.967396276414146550e-14
3.285000000000000000e+03 3.451741409301757812e+01 1.214174747467041016e+01 -2.324758156704680168e-14 -2.215613895692816748e-13 -7.344268964683264844e-14 -4.550519507105603434e-14
3.286000000000000000e+03 5.244662475585937500e+01 2.220965766906738281e+01 -2.020891592090234834e-13 -8.660964062904771832e-14 -8.660964062904771832e-14 1.542329903115452483e-13
3.287000000000000000e+03 3.778927993774414062e+01 -2.294513940811157227e+00 -2.039872041897580757e-13 3.929618674729240535e-13 5.669239966257615115e-14 -6.922803666041185688e-14
3.288000000000000000e+03 3.650344467163085938e+01 -1.732342123985290527e+00 -1.828796445876856858e-13 1.046268039111945825e-13 -2.347585186413415209e-14 -6.104394926689923548e-15
3.289000000000000000e+03 3.844956207275390625e+01 -2.356183528900146484e+00 -1.820754376262445628e-13 2.879752642945265784e-13 3.176994596760553125e-14 3.012761345738343421e-14
3.290000000000000000e+03 4.511392211914062500e+01 -5.574076175689697266e+00 -3.121691002482690491e-13 -1.940938390370371136e-14 -9.947354355152593364e-14 1.597635191459209625e-13
3.291000000000000000e+03 4.364719772338867188e+01 -4.389847278594970703e+00 -3.995241908572727541e-13 -7.972275454810190398e-14 -1.437740849768651130e-13 1.573079774080943238e-14
3.292000000000000000e+03 3.583696365356445312e+01 -1.867477536201477051e+00 -1.699973576621202631e-13 1.864588534570763012e-14 -4.540544169492378990e-14 1.363382199021448415e-14
3.293000000000000000e+03 4.508847427368164062e+01 -1.275685119628906250e+01 3.936121177258722348e-13 -1.431288999809415124e-14 1.137897691653663723e-13 -1.580793601487634481e-13
3.294000000000000000e+03 5.166879272460937500e+01 2.190386581420898438e+01 -1.229281840165949435e-13 -5.268350791970237423e-14 -5.268350791970237423e-14 -6.182915643230049718e-14
3.295000000000000000e+03 3.322421646118164062e+01 1.494089984893798828e+01 -3.571401343199298931e-15 -7.015702173937890529e-14 -2.211852730593828753e-14 -1.900748167801141753e-13
3.296000000000000000e+03 2.374595451354980469e+01 2.536677742004394531e+01 -1.894923698205278062e-13 1.132305173560076150e-13 -2.287855811104830966e-14 -7.263791347925097064e-14
3.297000000000000000e+03 3.227538299560546875e+01 1.564657497406005859e+01 5.604009620176382545e-14 1.155190851830079080e-13 5.146775475424469892e-14 -7.405885190585152766e-15
3.298000000000000000e+03 3.255909347534179688e+01 1.724488067626953125e+01 -3.811390764628386219e-14 -1.307119018058300330e-13 -5.064774554613959978e-14 -1.385402616195172132e-13
3.299000000000000000e+03 5.483376693725585938e+01 -1.423147678375244141e+01 8.248204636657208155e-13 2.162416431897642988e-13 3.123186388329091123e-13 2.779196076291116924e-14
3.300000000000000000e+03 5.251730728149414062e+01 -1.446891784667968750e+01 8.012419395499181807e-13 -2.513729242120676943e-13 1.649607100223660083e-13 1.654252771007488909e-13
3.301000000000000000e+03 5.636372375488281250e+01 -1.405162620544433594e+01 7.021920479972909579e-13 2.094375427209513307e-13 2.734888595971873837e-13 -6.986331137085258214e-14
3.302000000000000000e+03 5.477513122558593750e+01 -1.357286167144775391e+01 6.839269276782966589e-13 -3.474017406211726833e-13 1.009575520513790459e-13 1.675697476827622823e-13
3.303000000000000000e+03 5.103282546997070312e+01 -1.391320991516113281e+01 6.131456019992098661e-13 1.255238453326881776e-13 2.216008409758329911e-13 -6.206558704480169553e-14
3.304000000000000000e+03 1.829190826416015625e+01 7.259282112121582031e+00 3.487160782572953921e-14 -4.796257995257589835e-14 -3.927291553350613015e-15 -2.720526711894044603e-13
3.305000000000000000e+03 7.658427715301513672e+00 3.299192667007446289e+00 2.275005643668625427e-14 -5.887639957817200620e-14 -1.083790345066549393e-14 1.096552929296008838e-13
3.306000000000000000e+03 4.283879089355468750e+01 -4.068003654479980469e+00 -3.979294649868181377e-13 -1.247902605902573292e-13 -1.568159258046389337e-13 5.487271878198973774e-14
3.307000000000000000e+03 4.172529220581054688e+01 -4.348514080047607422e+00 -2.985234401255837389e-13 -3.643671464808456717e-14 -1.004880450768477762e-13 1.193442995253354844e-13
3.308000000000000000e+03 7.281532287597656250e+01 -1.381476783752441406e+01 1.789373093056753627e-13 1.681893150142291238e-13 1.041379845854659147e-13 2.139612136553212252e-13
3.309000000000000000e+03 7.123373413085937500e+01 -1.257258892059326172e+01 7.672031412941926476e-14 2.616348706695886817e-13 1.015065581502078151e-13 9.262985615089008862e-14
3.310000000000000000e+03 7.281707763671875000e+01 -1.314875221252441406e+01 -1.120367197080592448e-15 -1.377330053394659748e-13 -4.165600969632116124e-14 5.609066745684669619e-14
3.311000000000000000e+03 3.880289840698242188e+01 7.512694358825683594e+00 4.613323612012720787e-14 2.485261345677725053e-13 8.839780849586448275e-14 -1.407880820795568907e-14
3.312000000000000000e+03 3.277740478515625000e+01 1.649873924255371094e+01 5.630178533675214703e-14 1.253861813029356724e-15 1.726669378494544854e-14 -1.074818334920006613e-13
3.313000000000000000e+03 2.505699348449707031e+01 2.257268714904785156e+01 -8.763540430443625406e-14 9.969481566240306902e-14 3.617824677939465369e-15 1.574133754117870709e-13
3.314000000000000000e+03 6.346611785888671875e+01 1.419246387481689453e+01 -1.196525517555002693e-13 -1.972819477225051799e-12 -6.277416195361873452e-13 9.804583902574270926e-14
3.315000000000000000e+03 2.045193099975585938e+01 4.341374874114990234e+00 -1.668893769382097381e-14 4.503570910294185659e-13 1.301004388856025207e-13 -2.193111008552336982e-13
3.316000000000000000e+03 1.709919929504394531e+01 8.398832321166992188e+00 1.082425300650072253e-13 5.496795916657901127e-14 4.896314609184951316e-14 -1.796792830624158177e-13
3.317000000000000000e+03 1.357342052459716797e+01 4.648889541625976562e+00 6.353343415602119570e-14 1.644814655570731032e-13 6.840446991392828968e-14 1.231896258179626669e-13
3.318000000000000000e+03 3.816485595703125000e+01 5.940711498260498047e+00 3.190863643188351917e-13 1.481890375383890235e-13 1.401826110703982553e-13 9.078944329188667894e-14
3.319000000000000000e+03 3.856486129760742188e+01 6.682191848754882812e+00 -9.824155784666707691e-14 -2.251073269845041414e-13 -9.700466612697772328e-14 1.570151750588874573e-13
3.320000000000000000e+03 2.520118331909179688e+01 2.328783798217773438e+01 -2.369593779007195256e-13 8.144977341239048596e-14 -4.665288066887235408e-14 -6.128644851312548626e-18
3.321000000000000000e+03 3.488322830200195312e+01 6.333840847015380859e+00 2.045802932712937477e-14 -2.657379795812514489e-13 -7.358398151869824377e-14 3.666485789022982944e-14
3.322000000000000000e+03 5.625272369384765625e+01 -1.339333724975585938e+01 6.659685823640071334e-13 -1.263434208599242825e-13 1.618875525169830021e-13 1.131425953360826187e-13
3.323000000000000000e+03 3.292637252807617188e+01 1.339937591552734375e+01 2.624874635411087592e-14 -3.450148492096551112e-14 -2.475821612408037921e-15 5.368605272794077510e-14
3.324000000000000000e+03 7.895397186279296875e+01 -8.336104393005371094e+00 -1.218401600314514277e-13 2.680394155327864292e-13 4.385977936090593166e-14 2.129861804772096440e-14
3.325000000000000000e+03 7.596459960937500000e+01 -1.160940265655517578e+01 -6.199989794567623003e-14 -1.638242357526395465e-13 -6.774724010949473296e-14 2.213259482912628695e-14
3.326000000000000000e+03 7.751652526855468750e+01 -7.712642192840576172e+00 1.201662060872424331e-13 4.632583379404753288e-13 1.750273645635680442e-13 5.239087497708495855e-14
3.327000000000000000e+03 7.823823547363281250e+01 -6.055669784545898438e+00 -1.153975596719994390e-13 1.917032748906602468e-14 -2.886817033250638209e-14 9.320597238622867903e-15
3.328000000000000000e+03 7.893881225585937500e+01 4.169322252273559570e-01 -9.425494239267973029e-13 6.025711613705242442e-13 -1.019934665696074771e-13 -1.643902163917312920e-13
3.329000000000000000e+03 7.893996429443359375e+01 -1.975955963134765625e+00 -2.702362259746765583e-13 5.704486904546668402e-13 9.006373934399708459e-14 -7.590422160166226950e-14
3.330000000000000000e+03 7.876306152343750000e+01 2.910976982116699219e+01 4.921780146524383504e-14 9.361122987883163660e-13 2.955990487107928999e-13 -6.666667001428705497e-14
3.331000000000000000e+03 7.809845733642578125e+01 2.414864540100097656e+01 1.576135597904093633e-13 1.257073329978541931e-12 4.244060615096745259e-13 -8.208561732897176610e-14
3.332000000000000000e+03 7.873507690429687500e+01 3.632579421997070312e+01 4.032047590772636081e-14 6.120425347089231138e-13 1.957089004744894112e-13 1.873937406616198176e-14
3.333000000000000000e+03 7.693598937988281250e+01 3.781625366210937500e+01 5.462410783570702255e-14 3.894179087266663730e-13 1.332126141166678490e-13 -9.498875651163269512e-15
3.334000000000000000e+03 7.893454742431640625e+01 7.599867343902587891e+00 2.689266994856942539e-13 1.053148779121826362e-12 3.966226218982127349e-13 -1.721646811930505755e-14
3.335000000000000000e+03 7.752677154541015625e+01 5.820516586303710938e+00 1.236682604195335489e-13 1.013770556217152841e-12 3.412316544777749261e-13 1.105384975718347318e-13
3.336000000000000000e+03 7.892662048339843750e+01 1.478220462799072266e+01 -3.471519810982134913e-14 1.311899590697440665e-12 3.831553130329012902e-13 9.293611615956293148e-14
3.337000000000000000e+03 7.750945281982421875e+01 1.220231246948242188e+01 1.416509596251225300e-13 1.067228445374157619e-12 3.626638106577623200e-13 3.738043471220205138e-14
3.338000000000000000e+03 7.889425659179687500e+01 2.192602539062500000e+01 1.220187145767326342e-13 1.516324067175889301e-12 4.915028345257865805e-13 -1.346469051706489228e-13
3.339000000000000000e+03 7.749135589599609375e+01 1.852877616882324219e+01 -5.244864601221949085e-14 1.029793871704098862e-12 2.932035582207948021e-13 -5.117331763144963158e-15
3.340000000000000000e+03 7.727709960937500000e+01 2.557369041442871094e+01 -3.792259000855342788e-14 9.445173592900757420e-13 2.719784304456435153e-13 -1.136142029523230790e-13
3.341000000000000000e+03 7.783299255371093750e+01 3.143062782287597656e+01 -4.742203401882430502e-14 5.973140818765765303e-13 1.649676082586884474e-13 -7.540789417588913968e-14
3.342000000000000000e+03 7.894203948974609375e+01 -1.146286296844482422e+01 3.776639035681615686e-14 6.193654665748518640e-14 2.991088144310358188e-14 -2.907810109573625602e-15
3.343000000000000000e+03 7.694573974609375000e+01 3.045707702636718750e+01 -3.151115029716503035e-16 5.031253733946139395e-13 1.508430831414706019e-13 -1.340683884439378137e-13
3.344000000000000000e+03 7.883456420898437500e+01 2.589807701110839844e+01 -9.010192358925930844e-14 9.679057685549330436e-13 2.633411609435920564e-13 2.617568637427840350e-14
3.345000000000000000e+03 7.892311859130859375e+01 1.875583457946777344e+01 -3.579768927575339987e-14 1.402937553456051756e-12 4.101419453627491718e-13 3.632809114292867569e-14
3.346000000000000000e+03 7.821095275878906250e+01 1.784966659545898438e+01 1.237310492778476156e-14 1.286329332980673534e-12 3.896107340830429200e-13 -8.095229402180909029e-14
3.347000000000000000e+03 7.892906188964843750e+01 1.159036540985107422e+01 -4.845489244217904279e-14 1.306011180278454642e-12 3.772668755088609549e-13 1.870620628882657677e-13
3.348000000000000000e+03 7.893644714355468750e+01 4.406324386596679688e+00 3.919423921701359337e-13 9.457414235428118765e-13 4.013051555559060679e-13 6.175240847101567954e-14
3.349000000000000000e+03 7.823272705078125000e+01 3.510059833526611328e+00 3.209085015949686426e-13 9.152983275820258946e-13 3.708620595951200860e-13 5.923155032856036728e-14
3.350000000000000000e+03 7.894075012207031250e+01 -2.774251937866210938e+00 8.848286415629597057e-14 2.666759770907772831e-13 1.065476510188692605e-13 7.785108956147659964e-14
3.351000000000000000e+03 7.824227905273437500e+01 -7.637208461761474609e+00 -1.451524108699552007e-14 8.528107961567471529e-14 2.122975257504329527e-14 5.604026560835327631e-14
3.352000000000000000e+03 7.824081420898437500e+01 -8.418101310729980469e+00 2.010069492580299211e-13 4.064024778597380427e-13 1.822228213590668111e-13 1.660695100316397776e-13
3.353000000000000000e+03 7.750949096679687500e+01 -8.487152099609375000e+00 8.204676117482413277e-16 9.185352673780899924e-14 2.780219800311168471e-14 8.416259971387972383e-15
3.354000000000000000e+03 7.745158386230468750e+01 -1.304560375213623047e+01 2.361916814474368520e-14 1.931262902420474714e-13 6.502363616078463138e-14 -7.047245003267282870e-14
3.355000000000000000e+03 7.780620574951171875e+01 3.701696014404296875e+01 -1.319604232878851882e-14 3.374766828836972543e-13 9.728418699957164240e-14 -5.557142186061970676e-15
3.356000000000000000e+03 7.879688262939453125e+01 3.946323394775390625e+01 -3.399717166856566775e-14 4.429392779208701780e-13 1.226826257770541329e-13 7.004791711950897337e-14
3.357000000000000000e+03 7.605412292480468750e+01 3.749895477294921875e+01 -1.539173722828711399e-14 3.594111228251428702e-13 1.032058214388807682e-13 -9.665311357254929847e-14
3.358000000000000000e+03 7.792014312744140625e+01 3.539809799194335938e+01 5.172189851973887920e-14 5.711779248358805905e-13 1.868699422633013363e-13 -2.607260924086113318e-14
3.359000000000000000e+03 7.805342102050781250e+01 3.466602706909179688e+01 -7.303903440175271711e-14 7.464637089872605547e-13 2.020274003427732779e-13 -8.908619556022984165e-14
3.360000000000000000e+03 7.788925170898437500e+01 2.977753829956054688e+01 2.341510266115707367e-14 7.878011936378326308e-13 2.433648714408181979e-13 -7.825212916881540970e-14
3.361000000000000000e+03 7.783297729492187500e+01 3.315980148315429688e+01 -5.589809959848611454e-14 6.851833553658814857e-13 1.887855784242845059e-13 -1.209545701444381116e-13
3.362000000000000000e+03 7.874031066894531250e+01 2.992145156860351562e+01 2.098044706174383156e-14 1.107014436715902939e-12 3.383984444656901180e-13 -8.084412452631292711e-14
3.363000000000000000e+03 7.793508911132812500e+01 2.895530700683593750e+01 9.902499556024152438e-14 9.574582880006454744e-13 3.169449837130133840e-13 -9.204963180575731485e-14
3.364000000000000000e+03 7.881850433349609375e+01 2.669653320312500000e+01 4.780345973123649450e-14 8.897552291296795257e-13 2.812676036089561959e-13 -9.005859615994135647e-14
3.365000000000000000e+03 7.811769104003906250e+01 2.335904693603515625e+01 -8.034617757354464707e-14 1.109339616695015351e-12 3.086980269930567067e-13 -3.547322822310995660e-14
3.366000000000000000e+03 7.805614471435546875e+01 2.573552894592285156e+01 1.074134000061260918e-13 1.258434437385880234e-12 4.097543701911399161e-13 -4.387691991962656968e-14
3.367000000000000000e+03 7.815371704101562500e+01 2.178191947937011719e+01 1.254910228059820734e-15 1.052809640682272896e-12 3.162193543040231480e-13 -2.830576925464973331e-14
3.368000000000000000e+03 7.891902160644531250e+01 1.954859924316406250e+01 -7.502563159492506295e-14 1.248872750006513321e-12 3.521541240038283949e-13 -7.100902846409948288e-14
3.369000000000000000e+03 7.821359252929687500e+01 1.626993751525878906e+01 9.714705575354296019e-16 1.327193888643607433e-12 3.984496109790680585e-13 1.091115401291109857e-14
3.370000000000000000e+03 7.820683288574218750e+01 1.863706970214843750e+01 -2.871446773389761675e-14 1.131467532514141006e-12 3.308259157071280487e-13 -1.440288589348720505e-13
3.371000000000000000e+03 7.821368408203125000e+01 1.467989158630371094e+01 1.404391892085828444e-14 1.195543447227165323e-12 3.628762329684065424e-13 1.400913043068160307e-14
3.372000000000000000e+03 7.821969604492187500e+01 1.068980407714843750e+01 -5.107922751760272939e-14 1.167633589642391723e-12 3.349662940684700052e-13 1.480238322323565447e-13
3.373000000000000000e+03 7.892814636230468750e+01 1.238978195190429688e+01 9.675191827178061810e-14 1.322491703821537801e-12 4.257730778188528742e-13 -8.315298726272943308e-14
3.374000000000000000e+03 7.822217559814453125e+01 9.891969680786132812e+00 6.930654645022696347e-14 1.242102991641513832e-12 3.934228431316105778e-13 1.151070510880137371e-14
3.375000000000000000e+03 7.822575378417968750e+01 8.299833297729492188e+00 2.747591921776343371e-13 1.215776719749872559e-12 4.471607817097683624e-13 -4.691488151198526524e-14
3.376000000000000000e+03 7.822440338134765625e+01 9.096046447753906250e+00 -1.820653409935132916e-13 1.111496636917175262e-12 2.788293955533621693e-13 1.337135968355190885e-13
3.377000000000000000e+03 7.822635650634765625e+01 7.500886917114257812e+00 -1.778421973488292229e-13 9.760537647215961066e-13 2.394634512382920466e-13 2.224631205161378689e-13
3.378000000000000000e+03 7.893576049804687500e+01 5.205596446990966797e+00 -3.490084469256332644e-13 9.941986470196617631e-13 1.935570573177031184e-13 1.971628562453739408e-13
3.379000000000000000e+03 7.823392486572265625e+01 1.121522307395935059e+00 -8.788629004240211540e-13 4.468615690152166753e-13 -1.296004048436522060e-13 1.095295119250654092e-13
3.380000000000000000e+03 7.823394775390625000e+01 1.915814280509948730e+00 -4.182086805765844462e-13 9.187904343593844558e-13 1.501745369768617278e-13 3.154449629023253765e-13
3.381000000000000000e+03 7.823289489746093750e+01 3.236522376537322998e-01 -5.666591328112868808e-13 3.976593902256519986e-13 -5.069992277569046468e-14 3.073767707918208247e-14
3.382000000000000000e+03 7.823412322998046875e+01 -2.069163322448730469e+00 1.119115921894425769e-13 6.884753726323078471e-13 2.401160867360196960e-13 1.858691965530429036e-13
3.383000000000000000e+03 7.823465728759765625e+01 -2.867008447647094727e+00 -1.363312267981323100e-13 1.703270770953002611e-13 1.019875695262286927e-14 -9.725954172893833127e-15
3.384000000000000000e+03 7.894309234619140625e+01 -4.369650840759277344e+00 1.707811816227186585e-13 4.849504586963704345e-13 1.967194988719903059e-13 2.539395458505972619e-14
3.385000000000000000e+03 7.674620819091796875e+01 -1.007664680480957031e+01 9.228819694128559403e-14 2.225558740119940038e-13 9.445321993073116373e-14 1.708589460235401813e-13
3.386000000000000000e+03 4.580013656616210938e+01 1.849625968933105469e+01 -3.341106213851537110e-14 -1.058209238551793829e-13 -4.176959681454796292e-14 -5.163401461629650926e-15
3.387000000000000000e+03 5.906853485107421875e+01 2.256537818908691406e+01 -8.365225287638999863e-13 -7.359549710102275544e-13 -4.717432499322382622e-13 6.532272552733919824e-13
3.388000000000000000e+03 6.652044677734375000e+01 -1.161820793151855469e+01 4.001930080724247496e-13 -3.031547994407357560e-13 2.911145852374855125e-14 3.897896545465573404e-14
3.389000000000000000e+03 4.343061447143554688e+01 1.742632484436035156e+01 3.653547530160262957e-14 7.856561267446243724e-14 3.453032808688541455e-14 -7.731679473087574306e-14
3.390000000000000000e+03 4.388806152343750000e+01 1.677206611633300781e+01 -7.839989237239802788e-14 1.215099510132279167e-14 -1.987466926602586559e-14 2.141249993341341057e-14
3.391000000000000000e+03 1.819028663635253906e+01 2.516159820556640625e+01 -8.948588669111662286e-14 7.399855163033649402e-15 -2.462580920431500786e-14 1.787736218826843637e-14
3.392000000000000000e+03 1.295991992950439453e+01 1.710359954833984375e+01 3.488158587384819487e-14 1.979530498937356886e-13 6.985038903620927053e-14 -8.737111499005809859e-16
3.393000000000000000e+03 3.971777343750000000e+01 -9.902367591857910156e+00 2.473693992699477207e-13 1.060154636062411726e-13 1.060154636062411726e-13 -4.109533825974280574e-14
3.394000000000000000e+03 6.279567337036132812e+01 1.601843833923339844e+01 -1.471257875728868014e-13 -2.373476849087952090e-12 -7.561807625379446396e-13 2.451735375049585164e-13
3.395000000000000000e+03 5.698797607421875000e+01 -4.211880266666412354e-01 -2.922915815634086201e-13 -9.230499394344282571e-13 -3.646024725623836504e-13 -5.014390595456386102e-13
3.396000000000000000e+03 5.806124496459960938e+01 -1.089751422405242920e-01 -3.100595951863183153e-13 -7.333638904483130716e-13 -3.130270294273568288e-13 -4.341218411228059404e-13
3.397000000000000000e+03 2.003251647949218750e+01 5.646404743194580078e+00 1.373870228736986943e-13 5.173156485973294527e-14 5.673557462596359735e-14 -1.611131611152852305e-13
3.398000000000000000e+03 4.138580322265625000e+01 1.309832477569580078e+01 -3.766093475488299647e-14 3.498671892563504082e-13 9.366187431756115012e-14 -1.458568373502097670e-14
3.399000000000000000e+03 2.112706899642944336e+00 3.881483459472656250e+01 1.886094870508139149e-14 6.028455729403803254e-13 1.865119658110009349e-13 1.397863131534981748e-14
3.400000000000000000e+03 3.013510227203369141e+00 3.935214996337890625e+01 -5.596408007694543552e-14 3.877739329725266026e-13 9.954295959561931806e-14 2.180244171507729478e-14
3.401000000000000000e+03 1.275586128234863281e+00 3.639669799804687500e+01 6.142209272664081454e-14 7.125879747382768414e-13 2.322030100750799297e-13 3.150185665166775617e-14
3.402000000000000000e+03 2.736865043640136719e+00 3.142963218688964844e+01 -1.984668837964626703e-14 6.091321023971030257e-13 1.767856152266877867e-13 -4.786268766304030420e-14
3.403000000000000000e+03 1.097537755966186523e+00 2.592248916625976562e+01 -5.305574501870274906e-14 3.890203588950702507e-13 1.007893855181629661e-13 -4.245458897086072658e-14
3.404000000000000000e+03 1.091448187828063965e+00 2.431835746765136719e+01 1.794654783940016762e-14 1.449442237240472497e-13 4.886723146903422521e-14 -3.796255302300488577e-14
3.405000000000000000e+03 1.829371094703674316e+00 2.585750961303710938e+01 -4.396887042824870750e-14 7.265809319218635709e-14 8.606766998587884326e-15 9.904849564233014769e-14
3.406000000000000000e+03 1.159810781478881836e+00 3.077464675903320312e+01 -8.037998032912896124e-16 5.029159597449983643e-13 1.506336423868007146e-13 1.462860628259014112e-15
3.407000000000000000e+03 2.038537740707397461e+00 3.232976913452148438e+01 1.607647019251801784e-14 7.160296119045062024e-13 2.196318214103820665e-13 -6.752929514403441247e-14
3.408000000000000000e+03 1.123290538787841797e+00 2.834947395324707031e+01 -1.700120316608984966e-14 3.587213534030075923e-13 1.025160452404819122e-13 -6.152686053782080444e-14
3.409000000000000000e+03 1.923300743103027344e+00 3.071805191040039062e+01 -5.429208447291049289e-15 5.695600783540977208e-13 1.692392563980640863e-13 -9.207766520817964317e-14
3.410000000000000000e+03 1.270195841789245605e+00 3.483216094970703125e+01 -4.508994563899408614e-14 5.525626072151734736e-13 1.522417988116669951e-13 6.885345836234527117e-14
3.411000000000000000e+03 2.359422683715820312e+00 3.707865142822265625e+01 -5.799619682070322746e-14 2.954011276042056711e-13 7.122147787979801747e-14 -1.278403449181571283e-14
3.412000000000000000e+03 1.078287959098815918e+00 2.190759086608886719e+01 -5.876860277717263492e-15 2.262360898662788000e-13 6.610777057063435547e-14 1.123409091446925245e-13
3.413000000000000000e+03 1.828471899032592773e+00 2.425698089599609375e+01 2.077380998612935598e-14 1.004049613091174964e-13 3.635363088035428736e-14 -1.174852231423722734e-14
3.414000000000000000e+03 1.822157502174377441e+00 2.345314216613769531e+01 7.728030455150802780e-14 1.246220330706690471e-13 6.057070264190583808e-14 1.988501831457541863e-14
3.415000000000000000e+03 1.859983682632446289e+00 2.829351043701171875e+01 -2.715299129475452072e-14 4.687479788004211834e-13 1.324784872731507579e-13 -6.298759934854694653e-14
3.416000000000000000e+03 1.832367539405822754e+00 2.666151809692382812e+01 -4.511420466260344930e-14 6.211786185254808412e-13 1.728193326291926901e-13 6.859953821354916603e-14
3.417000000000000000e+03 1.880484938621520996e+00 2.910988616943359375e+01 -4.811591663295144983e-14 4.368883727012828899e-13 1.166317341099940008e-13 -8.411988553641558397e-14
3.418000000000000000e+03 2.189355373382568359e+00 3.486292648315429688e+01 -3.132300056265732713e-14 7.185910395370032067e-13 2.061804096594246904e-13 -3.190440440116915251e-15
3.419000000000000000e+03 2.120693683624267578e+00 3.315924453735351562e+01 -3.981037572623087606e-14 6.234517025902053255e-13 1.750923895888628623e-13 8.899996252400167035e-15
3.420000000000000000e+03 2.084870338439941406e+00 3.561644744873046875e+01 2.890797071663196716e-14 5.614005354342976872e-13 1.770925393091912770e-13 6.192231650397131415e-14
3.421000000000000000e+03 1.873080492019653320e+00 4.089289474487304688e+01 1.301636970001693663e-14 5.545898484372868698e-13 1.702818658647076155e-13 -3.859964377208452424e-14
3.422000000000000000e+03 1.071095108985900879e+00 2.030023956298828125e+01 2.456609507559947420e-14 1.052832646097120323e-14 1.052832646097120323e-14 5.028145461842895014e-14
3.423000000000000000e+03 1.804834127426147461e+00 2.184529304504394531e+01 5.346088765363805895e-14 2.516665532654310811e-13 9.153823396978663651e-14 3.818272737918237958e-14
3.424000000000000000e+03 2.577881097793579102e+00 6.480887889862060547e+00 -2.188225254749938398e-14 -2.838838105562180303e-13 -9.172981249366482515e-14 6.496752192209492849e-14
3.425000000000000000e+03 1.106773853302001953e+00 5.817068099975585938e+00 1.041325195288902300e-14 1.188401997252383491e-13 3.877603330115254876e-14 6.750400612836118808e-14
3.426000000000000000e+03 1.064435243606567383e+00 1.788555526733398438e+01 1.354070935238871343e-14 1.201805311084463979e-13 4.011637146062417558e-14 5.371804685642446453e-14
3.427000000000000000e+03 2.486487150192260742e+00 1.856566047668457031e+01 3.197383696240500839e-14 1.280804482655176213e-13 4.801628522956361000e-14 6.307731707832012202e-14
3.428000000000000000e+03 2.462661743164062500e+00 1.295627975463867188e+01 4.112461849466349240e-14 -2.812611187247120170e-14 3.899552071360981934e-15 2.529730981984390503e-14
3.429000000000000000e+03 1.816580295562744141e+00 7.342815399169921875e+00 4.817156330945426834e-14 -2.510599218211347072e-14 6.919671338202239286e-15 -2.304201344701176102e-14
3.430000000000000000e+03 1.071021080017089844e+00 1.064615726470947266e+01 -5.861638756841924813e-14 -2.512130992593161749e-14 -2.512130992593161749e-14 -1.820001228447064995e-14
3.431000000000000000e+03 1.769677996635437012e+00 1.220027065277099609e+01 6.363080906363755007e-14 2.727034770959660404e-14 2.727034770959660404e-14 5.546055625925243315e-14
3.432000000000000000e+03 1.140446901321411133e+00 4.229032516479492188e+00 5.173374681660507235e-14 -9.220576369485880552e-14 -1.214160574110247776e-14 2.142486661444332335e-14
3.433000000000000000e+03 3.628595829010009766e+00 2.607622623443603516e+00 -5.554613369197942963e-15 -4.813149865104913994e-14 -1.610583343666753542e-14 8.059025181136186822e-14
3.434000000000000000e+03 1.787060856819152832e+00 1.058672904968261719e+01 -1.921751569455756176e-14 -2.598662929807760147e-13 -8.372514107794076788e-14 1.406065747774215557e-13
3.435000000000000000e+03 1.077878475189208984e+00 9.029484748840332031e+00 -1.852082431917732169e-14 -7.937495773776160474e-15 -7.937495773776160474e-15 1.077425502331655349e-13
3.436000000000000000e+03 1.060845017433166504e+00 1.467111015319824219e+01 -2.852818486000566200e-14 -1.222636494000242657e-14 -1.222636494000242657e-14 6.306200272263376427e-14
3.437000000000000000e+03 1.775167703628540039e+00 1.782126045227050781e+01 -6.253947826186795345e-14 2.248275892714757251e-13 4.868643059237690029e-14 -2.223662572164216561e-14
3.438000000000000000e+03 4.450451850891113281e+00 2.599561452865600586e+00 -7.145010223665732019e-14 -7.637242075732297852e-14 -4.434675554294137401e-14 1.208549590698410059e-13
3.439000000000000000e+03 2.611924648284912109e+00 5.695585250854492188e+00 -6.027288585765122608e-14 -2.955762762300059680e-15 -1.896859473421615150e-14 5.990508382316267477e-14
3.440000000000000000e+03 1.794137001037597656e+00 9.774744987487792969e+00 -6.236792529092875098e-15 1.345799285814436308e-13 3.850294310269418430e-14 1.237270783873908875e-13
3.441000000000000000e+03 1.766383290290832520e+00 1.461090183258056641e+01 3.403218123434158249e-14 3.746069616615207987e-14 2.144786355896127761e-14 -2.926370422568803920e-14
3.442000000000000000e+03 2.489776372909545898e+00 1.135018444061279297e+01 9.417172038917245858e-14 1.318612103187732920e-13 6.780987989001008298e-14 -1.954025727031807880e-14
3.443000000000000000e+03 1.770085692405700684e+00 1.541342067718505859e+01 -1.970196433027839727e-14 8.305820088779988786e-14 1.900687045903667882e-14 9.864119476744523385e-14
3.444000000000000000e+03 1.773722767829895020e+00 1.701774024963378906e+01 -1.057469135043800912e-14 6.409441391259235177e-14 1.605591609101994499e-14 1.354445527089465084e-13
3.445000000000000000e+03 1.788141250610351562e+00 2.023920059204101562e+01 7.868726693447888887e-14 3.539797578319681115e-13 1.298001013312968799e-13 7.657156667355193708e-15
3.446000000000000000e+03 1.796269178390502930e+00 2.104280090332031250e+01 -4.557808395023316139e-14 3.342009362731547008e-15 -1.267082260918454481e-14 3.952198133648152090e-15
3.447000000000000000e+03 1.654336738586425781e+01 9.031377792358398438e+00 3.006373904164416633e-13 2.160573423729689191e-13 1.550084252578340371e-13 -1.929582118002579061e-13
3.448000000000000000e+03 6.073093795776367188e+01 3.861256122589111328e+00 -2.941216064103469030e-13 -1.178323931483316045e-12 -4.417336722101206092e-13 -2.756976504730834776e-13
3.449000000000000000e+03 6.031782913208007812e+01 3.174108743667602539e+00 -3.178146764856726314e-13 -9.940365587948751802e-13 -3.935553868471969308e-13 -3.822765671721017888e-13
3.450000000000000000e+03 3.212516784667968750e+01 2.029102325439453125e+01 -1.143533865825352783e-14 -5.065180791615463141e-14 -1.862614439583892140e-14 -1.934295619184824011e-14
3.451000000000000000e+03 3.123758888244628906e+01 1.939019775390625000e+01 -5.933763104080860135e-15 4.320790619283081113e-14 1.118224351954804838e-14 -1.850755978322331935e-14
3.452000000000000000e+03 3.299797439575195312e+01 1.573753738403320312e+01 -5.881125258013278345e-14 6.629707226995032454e-14 2.245746711626562218e-15 -1.479142329452454163e-13
3.453000000000000000e+03 6.216432571411132812e+01 6.770947456359863281e+00 -1.873908607495991530e-13 -1.635842611542870362e-12 -5.469700213589501203e-13 -3.250783160452935805e-13
3.454000000000000000e+03 6.244925689697265625e+01 7.552381038665771484e+00 -2.264075699923845386e-13 -1.698314991242788619e-12 -5.774167493970139287e-13 -1.761325053905096749e-13
3.455000000000000000e+03 4.514371490478515625e+01 1.794025039672851562e+01 2.841620879844453801e-14 1.217837544134278693e-14 1.217837544134278693e-14 -1.654515893322223985e-14
3.456000000000000000e+03 4.316041946411132812e+01 1.496368598937988281e+01 -4.179452668825155148e-14 -1.791193976724125142e-14 -1.791193976724125142e-14 1.077659147899825975e-13
3.457000000000000000e+03 4.151734542846679688e+01 1.432638359069824219e+01 -3.014742725208560681e-14 3.530872697086323564e-13 9.688194799357952025e-14 -3.294014146599513401e-15
3.458000000000000000e+03 5.402777862548828125e+01 -1.364593124389648438e+01 7.511401440077336567e-13 4.741151386961940661e-14 2.395655017677772447e-13 1.930156880679267939e-13
3.459000000000000000e+03 5.327193069458007812e+01 -1.371667671203613281e+01 6.881601408506576867e-13 -2.083346651660447635e-13 1.439476386396257301e-13 2.877641701315436507e-13
3.460000000000000000e+03 2.393729019165039062e+01 2.384995460510253906e+01 -2.637982063694033208e-13 2.072002644329731802e-13 -1.697938529143447339e-14 -9.041399763208210483e-14
3.461000000000000000e+03 5.604193115234375000e+01 -2.640895366668701172e+00 -3.021450819575000057e-13 -5.298115461974117757e-13 -2.495869992884952593e-13 -3.205827259471910606e-13
3.462000000000000000e+03 6.347915267944335938e+01 1.681088256835937500e+01 -3.517887478717007799e-13 -1.957929044588135881e-12 -6.929153431589618606e-13 3.878673911997948531e-13
3.463000000000000000e+03 6.209816360473632812e+01 -1.250725746154785156e+01 8.114693812732998168e-13 -6.398595303776233312e-14 2.242450203391449515e-13 5.290864859945620946e-13
3.464000000000000000e+03 6.043228530883789062e+01 -1.211235046386718750e+01 7.856358250589445813e-13 -2.930653359963300564e-14 2.268987813391562525e-13 3.201471206193406971e-13
3.465000000000000000e+03 6.770283508300781250e+01 -1.242194652557373047e+01 3.652983135166848472e-13 -2.094511765632703360e-13 4.675414176365071117e-14 -3.549326563451020433e-14
3.466000000000000000e+03 4.072443771362304688e+01 1.239772987365722656e+01 8.381771161468029585e-14 2.189256669829151014e-13 9.082301290165226137e-14 1.043166746560186819e-13
3.467000000000000000e+03 4.969369506835937500e+01 2.012705421447753906e+01 -2.997266402627631054e-14 3.290552238240790350e-14 8.798569033285029688e-16 3.672507854464782118e-14
3.468000000000000000e+03 4.019556427001953125e+01 1.156373500823974609e+01 2.055184093654321975e-13 1.338302705418056848e-13 1.018045985511605023e-13 3.980718071795383284e-14
3.469000000000000000e+03 5.251279449462890625e+01 -1.378546047210693359e+01 6.632999813467599370e-13 5.551668405046929211e-14 2.156450067342455257e-13 2.847615670825351386e-14
3.470000000000000000e+03 5.553046798706054688e+01 -3.244606971740722656e+00 -4.304589453982266001e-13 -8.021201975197400635e-13 -3.697737374543791367e-13 -3.756087509163702487e-13
3.471000000000000000e+03 3.379579162597656250e+01 -3.756955862045288086e+00 -1.125962319800492828e-13 -2.504578592725558231e-15 -3.453024338359068912e-14 -2.530844728666076238e-13
3.472000000000000000e+03 3.413005828857421875e+01 -7.758384227752685547e+00 9.478963431232625969e-14 3.151298124358381525e-13 1.229758347020756815e-13 -2.016099418487848904e-13
3.473000000000000000e+03 3.510006332397460938e+01 -7.261785984039306641e+00 4.324955988504498861e-14 3.845431189187370480e-13 1.283377972036842118e-13 -1.336608639523548248e-13
3.474000000000000000e+03 3.429167556762695312e+01 -7.004880428314208984e+00 1.809478538143324822e-13 3.978057304138832295e-13 1.736260739132119979e-13 -2.633411609435920564e-13
3.475000000000000000e+03 3.997323608398437500e+01 -4.284725666046142578e+00 -2.410351649176356581e-13 2.169558478183619687e-13 -7.223797670880948568e-15 -2.921472539254600653e-14
3.476000000000000000e+03 3.666173171997070312e+01 -7.802439212799072266e+00 8.292901142268466197e-14 3.557976396145745568e-13 1.316179966664304812e-13 -2.102365048543830550e-13
3.477000000000000000e+03 3.061634445190429688e+01 -5.540974617004394531e+00 5.450331077303319227e-14 2.521132987706037332e-13 9.198498625122286665e-14 -9.331127044003365012e-14
3.478000000000000000e+03 4.962591934204101562e+01 -1.392966079711914062e+01 5.077355094522395529e-13 -1.115381031757461602e-14 1.489745149073004593e-13 -5.189106116370093003e-14
3.479000000000000000e+03 6.419387817382812500e+01 -1.062972450256347656e+01 5.233685121570907928e-13 -1.417068095895326896e-13 1.144985121255201466e-13 2.333188167408933866e-13
3.480000000000000000e+03 1.423953723907470703e+01 1.346016597747802734e+01 4.703725066780919950e-14 3.061022572567462241e-13 1.059418530549929849e-13 -3.626208017128325356e-14
3.481000000000000000e+03 1.516575527191162109e+01 1.113033008575439453e+01 2.045761936318290369e-14 1.746147443217743733e-13 5.852170961370695146e-14 -8.238446410529023933e-14
3.482000000000000000e+03 3.237705230712890625e+01 1.799384689331054688e+01 1.334142757207501528e-13 5.717754286531373520e-14 5.717754286531373520e-14 3.515169112820043518e-14
3.483000000000000000e+03 1.327836132049560547e+01 1.390917396545410156e+01 1.177929688468346003e-13 2.792374350409770889e-13 1.191091225215962224e-13 -3.215327581008314839e-14
3.484000000000000000e+03 3.577432250976562500e+01 4.118854045867919922e+00 -3.613757225726750219e-15 -1.548753051363270777e-15 -1.548753051363270777e-15 1.066064232469474474e-14
3.485000000000000000e+03 6.305954742431640625e+01 1.002223873138427734e+01 -1.295616852735673175e-13 -1.885564404266459881e-12 -6.045377956911957007e-13 -1.904981841759426087e-13
3.486000000000000000e+03 6.902777099609375000e+01 -1.275999450683593750e+01 2.148577946418581130e-13 -3.196766310865906124e-13 -3.144565093341974982e-14 -2.989114218730076766e-14
3.487000000000000000e+03 4.717305374145507812e+01 1.953978157043457031e+01 -8.243660745352321406e-14 5.617192502154269573e-14 -7.879403713154618794e-15 -4.077601255610032848e-16
3.488000000000000000e+03 6.107273101806640625e+01 -1.160447406768798828e+01 6.275143165507257592e-13 1.774328026084986965e-13 2.414841330372619055e-13 9.715719982011927769e-14
3.489000000000000000e+03 3.350025939941406250e+01 1.356518840789794922e+01 -5.275528210352091463e-14 -1.598622493062529237e-13 -6.378526043937168821e-14 -1.886616676684965688e-13
3.490000000000000000e+03 4.899816894531250000e+01 -6.452072143554687500e+00 -5.611311654045436637e-13 -1.489828903690829098e-13 -2.130342207978461189e-13 -1.084825588734683599e-13
3.491000000000000000e+03 4.972913742065429688e+01 -6.671601772308349609e+00 -3.925265874057254356e-13 -2.139766364312248315e-13 -1.819509712168432269e-13 -1.590436495609720557e-13
3.492000000000000000e+03 4.840644454956054688e+01 -5.634727478027343750e+00 -5.504046112110583255e-13 3.861800405824920845e-14 -1.535359838399086296e-13 5.550983324799189933e-14
3.493000000000000000e+03 4.825713348388671875e+01 -6.276456832885742188e+00 -4.734946701216713461e-13 -2.486772181405083604e-13 -2.166515664786539119e-13 -6.809633288024433129e-14
3.494000000000000000e+03 5.276262760162353516e+00 2.592990159988403320e+00 -5.798511847678608847e-15 -1.397379255493533257e-13 -4.366092990620851211e-14 -1.822541734365764818e-15
3.495000000000000000e+03 2.550029039382934570e+00 7.273928165435791016e+00 -5.258253820425787262e-14 2.321557558010185068e-14 -8.810088787246806580e-15 8.289845725021130485e-14
3.496000000000000000e+03 1.953194141387939453e+00 3.403977155685424805e+00 -4.618151022185712495e-14 -1.112939764218862093e-13 -4.724264599312300028e-14 8.407375951023990379e-14
3.497000000000000000e+03 8.474230766296386719e+00 3.291982173919677734e+00 -9.049487233788594542e-14 1.442202748284243663e-13 1.611762074716152626e-14 1.494276063833139406e-14
3.498000000000000000e+03 1.006963920593261719e+01 3.279969215393066406e+00 -5.016546870289552429e-14 2.072552605881725074e-13 4.712693790439627384e-14 6.379237551612862434e-14
3.499000000000000000e+03 9.280261993408203125e+00 3.286578416824340820e+00 5.261573173139487414e-14 6.830054913569555408e-14 3.627488392131394956e-14 4.791369598712395816e-14
3.500000000000000000e+03 6.348209381103515625e+01 1.504393386840820312e+01 -1.594214940180832540e-13 -1.966987770579686767e-12 -6.379228200369124746e-13 2.223091095975363030e-13
3.501000000000000000e+03 6.348438644409179688e+01 1.591253185272216797e+01 -2.742271470665413879e-13 -1.901812908544631142e-12 -6.528120058413300342e-13 2.428879851152504488e-13
3.502000000000000000e+03 4.647636413574218750e+01 1.902906036376953125e+01 -6.649178142760156507e-14 -7.424742515683285804e-14 -4.222176333058304254e-14 -8.599599575194807888e-14
3.503000000000000000e+03 3.807268905639648438e+01 3.717236757278442383e+00 1.560973979198784778e-14 7.531631297363200472e-14 2.727781515205959795e-14 8.447084855591271979e-14
3.504000000000000000e+03 4.269881439208984375e+01 1.556683254241943359e+01 5.618984823870659673e-14 2.528361092539455068e-13 9.270778318203748425e-14 8.675279258526548409e-15
3.505000000000000000e+03 7.360850524902343750e+01 -1.311504650115966797e+01 1.837358932534061129e-13 -1.500107953437621044e-13 1.011752903408002363e-14 8.336098467325719907e-14
3.506000000000000000e+03 6.896140289306640625e+01 -1.337686347961425781e+01 1.547952982157776991e-13 2.035936930112544618e-13 1.075166973681096483e-13 4.997840655869209558e-14
3.507000000000000000e+03 6.971722412109375000e+01 -1.335401725769042969e+01 2.166785631127488010e-13 -2.731453572438896638e-13 -1.694003552883682762e-14 -7.409358364482074299e-14
3.508000000000000000e+03 3.216051864624023438e+01 1.948557281494140625e+01 7.881685619914521879e-14 -1.492251417919976397e-13 -2.112248601666890518e-14 -7.444329474962183696e-15
3.509000000000000000e+03 3.557807159423828125e+01 6.372446537017822266e+00 -8.662248164852809351e-14 -1.286258155108049861e-13 -6.457449185830535510e-14 2.200602777801576038e-14
3.510000000000000000e+03 1.913876342773437500e+01 4.298390388488769531e+00 7.752543588644342232e-15 3.693301090304523804e-13 1.131247940916631223e-13 -6.156966619484324776e-14
3.511000000000000000e+03 3.606504821777343750e+01 1.018590354919433594e+01 7.813937214287691724e-14 2.622430538782444254e-13 1.021147278063364028e-13 -1.817693741292154830e-14
3.512000000000000000e+03 3.722004699707031250e+01 7.191287994384765625e+00 1.136049872338569522e-13 -3.859461578450962271e-13 -8.170235186099814029e-14 5.173989966393392759e-14
3.513000000000000000e+03 3.407038116455078125e+01 8.805400848388671875e+00 1.031041097225744718e-13 -7.018989339399595018e-14 9.874263712727430337e-15 9.154175085058363637e-14
3.514000000000000000e+03 3.499345779418945312e+01 4.809477329254150391e+00 9.512527619987345973e-14 -9.648487250043386032e-14 -4.078787101736188869e-16 1.155739458129356745e-13
3.515000000000000000e+03 1.819857978820800781e+01 4.828951358795166016e+00 1.073741247824278044e-13 1.603948500709592717e-13 8.033069381126883846e-14 -1.478554691874967020e-13
3.516000000000000000e+03 1.844246101379394531e+01 6.355870723724365234e+00 5.908200496765672605e-14 -2.043009079239713893e-14 1.159557357495151833e-14 -2.525451907060133339e-13
3.517000000000000000e+03 5.323081588745117188e+01 2.252389907836914062e+01 -2.735711776471333456e-13 2.000805154423000026e-14 -7.606893901671712976e-14 -6.096584012366818017e-14
3.518000000000000000e+03 1.365780162811279297e+01 3.964000463485717773e+00 7.773012648034510752e-14 3.331291134871933179e-14 3.331291134871933179e-14 1.552599059517420499e-13
3.519000000000000000e+03 4.359839630126953125e+01 -1.086971378326416016e+01 2.456826246350490850e-13 1.379065014039861786e-14 7.784197548696414337e-14 -6.795102268407696156e-14
3.520000000000000000e+03 4.203409194946289062e+01 -1.063094139099121094e+01 2.667566417324102046e-13 -2.292857371251778159e-14 7.314841684842934844e-14 -1.399517708753489353e-13
3.521000000000000000e+03 5.479000091552734375e+01 -5.421186923980712891e+00 -3.314174022023275157e-13 -4.051039831278607783e-13 -2.209564047570347634e-13 -3.003840394737861130e-13
3.522000000000000000e+03 2.909451866149902344e+01 2.295997810363769531e+01 -6.704025897787124766e-14 6.277035911449874162e-14 -1.280969726077691318e-15 -9.148013428586856954e-15
3.523000000000000000e+03 4.863212585449218750e+01 2.047778511047363281e+01 -1.271705722498406299e-13 1.285021215954515461e-13 3.994635966613250232e-16 3.109505044402403884e-14
3.524000000000000000e+03 4.789146041870117188e+01 2.002328681945800781e+01 -8.805270016809876865e-14 8.014076022537421767e-15 -2.401158834481123550e-14 -7.480845912351263838e-15
3.525000000000000000e+03 4.671798324584960938e+01 -5.950099468231201172e+00 -4.090907300413615388e-13 -1.982000718062093547e-13 -1.821872324227549744e-13 8.741793367742639598e-14
3.526000000000000000e+03 4.749615859985351562e+01 -6.115735530853271484e+00 -5.496272924634948431e-13 -5.255075413994510225e-14 -1.806534116093397313e-13 4.828018003834658178e-14
3.527000000000000000e+03 5.655442428588867188e+01 -2.026369810104370117e+00 -3.649825667390027562e-13 -6.854164588329658692e-13 -3.151197022505797252e-13 -3.662942345272757194e-13
3.528000000000000000e+03 5.706309509277343750e+01 -1.398487925529479980e+00 -3.328391165111077576e-13 -7.231104820829004076e-13 -3.167848741571915872e-13 -4.012704881914408439e-13
3.529000000000000000e+03 2.976108360290527344e+01 -7.435237884521484375e+00 4.690913524047109207e-14 -2.564703447717215506e-14 6.378630313692975826e-15 -1.944877500150918315e-13
3.530000000000000000e+03 3.902677154541015625e+01 8.321747779846191406e+00 1.634226066103694475e-14 5.275477388375256205e-14 2.072911036343685204e-14 7.053609947646130585e-14
3.531000000000000000e+03 1.388549137115478516e+01 1.875460243225097656e+01 9.146626835652201665e-15 2.555501925523284701e-13 7.940904742575680131e-14 -7.939724995086744341e-14
3.532000000000000000e+03 1.316053676605224609e+01 1.965827178955078125e+01 -1.929638970853998770e-14 1.747339116930576863e-13 4.663125761179484630e-14 -2.438771501910540207e-14
3.533000000000000000e+03 1.909733963012695312e+01 2.394330787658691406e+01 -1.690917100349159652e-13 1.105359225916750787e-13 -1.756673657178544484e-14 -2.142851478534714763e-15
3.534000000000000000e+03 6.343132019042968750e+01 1.877569007873535156e+01 -6.668391424984043692e-13 -1.932822391720323552e-12 -7.798984440025857889e-13 4.348828426276735160e-13
3.535000000000000000e+03 6.269577407836914062e+01 1.778249359130859375e+01 -5.675637368939001615e-13 -2.553664528101573516e-12 -9.363684957616746907e-13 5.370278332271494204e-13
3.536000000000000000e+03 6.329528808593750000e+01 1.167875480651855469e+01 -9.199326684531522469e-14 -1.732210837442071938e-12 -5.472612380624797268e-13 -6.569083384894147670e-14
3.537000000000000000e+03 3.619016647338867188e+01 7.100804805755615234e+00 -1.062993348400521898e-13 -1.370587535609243957e-13 -7.300742313216118662e-14 -2.811015377174493068e-14
3.538000000000000000e+03 6.289412307739257812e+01 9.188397407531738281e+00 -5.842237636591654515e-14 -1.489068525602210702e-12 -4.642472929521079816e-13 -3.032363314441066660e-13
3.539000000000000000e+03 3.047758865356445312e+01 -2.745944023132324219e+00 -1.847047879837489422e-15 2.050876829473580187e-13 6.097218948264079841e-14 -1.344851286539869295e-13
3.540000000000000000e+03 2.964588546752929688e+01 -4.130747318267822266e+00 -5.518921094866541255e-14 -2.365251922000887602e-14 -2.365251922000887602e-14 -1.517227776791710281e-13
3.541000000000000000e+03 2.876403236389160156e+01 -4.084565162658691406e+00 -8.760762162376631301e-14 -2.205499238100427917e-13 -9.244726295251637360e-14 -3.261161211410602834e-14
3.542000000000000000e+03 6.230498886108398438e+01 1.950102615356445312e+01 -8.686454875707350087e-13 -2.476820181243621910e-12 -1.003639771117448287e-12 6.231837420232755331e-13
3.543000000000000000e+03 3.564553070068359375e+01 1.242854309082031250e+01 -3.779743242026713246e-14 -1.619890033471415441e-14 -1.619890033471415441e-14 -3.040963477123764802e-14
3.544000000000000000e+03 3.479780578613281250e+01 9.058740615844726562e+00 -8.673771201067256853e-14 -4.489318530635777460e-13 -1.607008661341433053e-13 -1.095736389534855693e-13
3.545000000000000000e+03 2.969656753540039062e+01 2.136476135253906250e+01 -1.147683395530656875e-14 2.009606267202104779e-13 5.684514003175683561e-14 6.495861113548981325e-14
3.546000000000000000e+03 6.112108230590820312e+01 4.565943241119384766e+00 -3.309876786712628860e-13 -1.331376523784622012e-12 -4.987092553157546071e-13 -5.092008086883537121e-13
3.547000000000000000e+03 1.261680507659912109e+01 1.344535160064697266e+01 -9.819252310935052547e-15 8.729364345087808896e-14 2.324231810431256345e-14 -6.451475909486498184e-14
3.548000000000000000e+03 3.489154052734375000e+01 7.849171161651611328e+00 -3.311391959248677352e-14 -2.429464236123474175e-13 -8.281810431670297290e-14 1.069917808863007913e-13
3.549000000000000000e+03 6.170051956176757812e+01 2.177410888671875000e+01 -7.307892897594203685e-13 -1.434093620765464205e-12 -6.494648568944327849e-13 4.902268369889883903e-13
3.550000000000000000e+03 1.501730537414550781e+01 1.007127475738525391e+01 -8.002256524791435260e-15 4.232141167462982745e-14 1.029574646024822293e-14 -8.857163320916822125e-14
3.551000000000000000e+03 2.911591148376464844e+01 -7.301230430603027344e+00 2.418615336491087425e-14 3.324096775831134054e-14 1.722813684518643279e-14 8.579047845388987348e-14
3.552000000000000000e+03 3.744829940795898438e+01 -8.019384384155273438e+00 7.509080569801859784e-14 -1.356917558864708870e-14 1.845648877870156856e-14 -2.558131386842105170e-13
3.553000000000000000e+03 3.947303390502929688e+01 -8.751855850219726562e+00 1.697880930903034047e-13 2.250312024394685029e-13 1.184457805274152786e-13 -6.630407215022643408e-14
3.554000000000000000e+03 4.252678680419921875e+01 -4.745270729064941406e+00 -3.039275103290661750e-13 6.998199762742185470e-15 -8.907879588040262808e-14 1.413053651004450920e-14
3.555000000000000000e+03 5.089910507202148438e+01 2.159866523742675781e+01 -1.301732972715935466e-13 3.571334173486581665e-14 -2.833798530576560337e-14 9.300583035925374942e-14
3.556000000000000000e+03 6.837565898895263672e+00 3.309035301208496094e+00 -6.053413792363876444e-14 -2.594320124124551569e-14 -2.594320124124551569e-14 1.116093386466102469e-14
3.557000000000000000e+03 3.885162353515625000e+01 1.005749702453613281e+01 -1.191352179126352329e-14 2.007734798727123238e-13 5.665798640799510344e-14 4.488404887017551081e-14
3.558000000000000000e+03 2.002114105224609375e+01 2.417637634277343750e+01 -1.526756829685685379e-13 -8.830791458323827836e-14 -7.229508197604747610e-14 -7.729333530636858796e-14
3.559000000000000000e+03 4.060527420043945312e+01 -2.806659936904907227e+00 -1.903522641160532158e-13 1.014242536527890093e-13 -2.667840381660561977e-14 -1.855723455981063983e-16
3.560000000000000000e+03 4.098145294189453125e+01 -3.933305501937866211e+00 -2.630190444781466130e-13 -5.553376023468593881e-14 -9.556584175266294445e-14 -8.733685568371521435e-14
3.561000000000000000e+03 1.686495590209960938e+01 2.327283477783203125e+01 -1.013984293122931202e-13 1.624227960244847835e-13 1.830731103009703570e-14 1.976976762364020951e-14
3.562000000000000000e+03 6.294300079345703125e+01 2.050753784179687500e+01 -7.698689775959000059e-13 -1.771098675704130265e-12 -7.622902959900090814e-13 3.225159126308413393e-13
3.563000000000000000e+03 3.912973403930664062e+01 -2.434810161590576172e+00 -2.494050430588978795e-13 3.277461310159657248e-13 2.350232841999942701e-14 -6.145759357152613678e-14
3.564000000000000000e+03 5.488779830932617188e+01 2.308538055419921875e+01 -4.527316835225420055e-13 -1.102406689291188582e-14 -1.391267201271417786e-13 9.843258071693186673e-14
3.565000000000000000e+03 2.314794731140136719e+01 2.439323043823242188e+01 -1.012698835922178076e-13 2.522504435691595714e-14 -2.281345177059055512e-14 4.460876316231786320e-14
3.566000000000000000e+03 2.205223846435546875e+01 2.461204147338867188e+01 -1.358697903535224794e-13 7.902293592708040104e-14 -1.705405463386672898e-14 -2.055551773716066122e-13
3.567000000000000000e+03 1.424406051635742188e+01 1.158867740631103516e+01 1.120215506185233412e-13 1.852620839940324893e-13 8.918508835088767572e-14 -4.300684428807516335e-14
3.568000000000000000e+03 4.074869537353515625e+01 -9.773555755615234375e+00 2.114310788080275838e-13 -4.663952804149183728e-14 4.943746421352118725e-14 7.241171502475260424e-14
3.569000000000000000e+03 6.346854782104492188e+01 1.775932312011718750e+01 -5.599388140653527302e-13 -2.001385385544396378e-12 -7.683972273568595579e-13 3.816686008038805422e-13
3.570000000000000000e+03 6.427377319335937500e+01 1.763396072387695312e+01 -4.789883767397640213e-13 -1.692186538462814305e-12 -6.513525070868386724e-13 3.539659342542689213e-13
3.571000000000000000e+03 5.759358215332031250e+01 2.432939529418945312e+01 -4.768013241174262618e-13 -4.330981645365994392e-13 -2.729698249121642606e-13 5.122740881664811230e-13
3.572000000000000000e+03 5.252215194702148438e+01 -5.892605304718017578e+00 -5.528011859032289088e-13 -3.970431297108112378e-13 -2.849532946842120440e-13 -2.059889531082909064e-13
3.573000000000000000e+03 5.070725250244140625e+01 -6.149005889892578125e+00 -4.917878170668243953e-13 -1.878907186086964387e-13 -2.039035579921508190e-13 -1.947615652737530456e-13
3.574000000000000000e+03 2.822514724731445312e+01 2.298355674743652344e+01 -1.183054170036598740e-13 -4.951371327240007211e-15 -3.697703696513808536e-14 -1.704190716496356561e-13
3.575000000000000000e+03 1.192020654678344727e+00 2.655743837356567383e+00 3.752779472810177652e-15 1.608333984147848703e-15 1.608333984147848703e-15 -8.173862519993135844e-14
3.576000000000000000e+03 4.727468490600585938e+01 -1.418377208709716797e+01 5.357463062592715541e-13 -9.065109231841395054e-14 1.335285641822572811e-13 4.003457518297372231e-14
3.577000000000000000e+03 4.831445312500000000e+01 -1.461527347564697266e+01 6.179415703091994949e-13 -3.254907397754434883e-14 1.756177397515407135e-13 4.566090344368389786e-14
3.578000000000000000e+03 3.120932579040527344e+01 2.113558959960937500e+01 -5.809247397361994025e-14 6.660512121220776849e-14 2.553795442125769352e-15 3.483730976762931808e-14
3.579000000000000000e+03 3.028629875183105469e+01 2.197385406494140625e+01 -9.332045227718188674e-14 1.430093158694481503e-13 1.490665840005352127e-14 -3.091349443749423671e-15
3.580000000000000000e+03 1.531896400451660156e+01 2.311607551574707031e+01 -1.593045221561992242e-13 6.897948331236955499e-14 -2.709751063670936405e-14 -3.512446748927568196e-14
3.581000000000000000e+03 6.323085021972656250e+01 -1.176095294952392578e+01 7.114627355135627607e-13 3.049125893179321922e-13 3.049125893179321922e-13 -1.170107576369677771e-14
3.582000000000000000e+03 6.224559402465820312e+01 -1.168554592132568359e+01 6.581966959309792919e-13 -4.961007258751266857e-14 1.825759866642268081e-13 2.514716679249268116e-13
3.583000000000000000e+03 1.393592548370361328e+01 1.963177108764648438e+01 -2.403005366306137924e-14 2.870825864358106383e-13 7.891575576606663089e-14 -9.751726336160171371e-14
3.584000000000000000e+03 5.045679473876953125e+01 -6.941159248352050781e+00 -3.935650633515863639e-13 -5.429337196299031942e-14 -1.343575316108125417e-13 -2.275854472325727906e-13
3.585000000000000000e+03 5.205241012573242188e+01 -7.425238132476806641e+00 -2.930969811472394770e-13 -3.086167931452832303e-13 -1.805141322877568122e-13 -1.384088969737934383e-13
3.586000000000000000e+03 6.016152954101562500e+01 2.311256408691406250e+01 -5.461963346886644644e-13 -1.011850325749463764e-12 -4.674139764473950187e-13 5.001259822945414157e-13
3.587000000000000000e+03 6.106526947021484375e+01 2.166693305969238281e+01 -8.764522853137168834e-13 -1.565147100465735797e-12 -7.324798319968683913e-13 6.219680261272675370e-13
3.588000000000000000e+03 3.214915084838867188e+01 -4.152821540832519531e+00 1.089177051094613116e-14 2.754337522761687168e-14 1.153054346745901668e-14 -2.548727559299052148e-13
3.589000000000000000e+03 3.307430267333984375e+01 -3.551599979400634766e+00 -3.723223443961864998e-14 -1.595667262872194764e-14 -1.595667262872194764e-14 -2.576020722688115994e-13
3.590000000000000000e+03 5.944693374633789062e+01 1.842682123184204102e+00 -1.681658284846676565e-13 -1.055716495126923782e-12 -3.671646862414557067e-13 -4.137531788538095778e-13
3.591000000000000000e+03 3.442347335815429688e+01 -3.177253723144531250e+00 -9.593525653788306795e-14 4.635837578344150639e-15 -2.738982678900450662e-14 -1.958615019302667459e-13
3.592000000000000000e+03 3.465857696533203125e+01 -4.589428901672363281e+00 -9.019993546565199805e-14 2.129730989003722486e-13 3.683195038566879076e-14 -2.052543112687418847e-13
3.593000000000000000e+03 3.164075469970703125e+01 -7.051761627197265625e+00 1.557003901893685982e-13 1.582306334568794881e-13 9.417930980437985711e-14 -2.852949538938165386e-13
3.594000000000000000e+03 3.347538757324218750e+01 -6.774744510650634766e+00 5.428854811035570618e-15 2.768323493617524944e-13 8.467835807546286730e-14 -1.811172739563104983e-13
3.595000000000000000e+03 1.308458232879638672e+01 2.059574127197265625e+01 -7.477990394879480140e-14 1.738307441783229490e-13 2.971525071360572867e-14 -1.613677724429662952e-14
3.596000000000000000e+03 6.484404754638671875e+01 -1.121498394012451172e+01 7.404589094650582126e-13 -9.441902012845282410e-14 1.938119532484544605e-13 2.682515667928875303e-13
3.597000000000000000e+03 1.276119804382324219e+01 1.619274139404296875e+01 2.538156757523907930e-14 2.625080328891998827e-13 8.636688098636463584e-14 -3.092533214644858919e-14
3.598000000000000000e+03 1.446908283233642578e+01 3.287169694900512695e+00 3.791797876118857547e-14 1.992543635512614153e-13 7.115170269373499723e-14 9.973663029087722481e-15
3.599000000000000000e+03 2.979392814636230469e+01 -3.529538869857788086e+00 -1.094074578654978536e-13 1.361148878071399837e-13 8.012229490712407393e-15 -1.410616821918495023e-14
3.600000000000000000e+03 2.816195487976074219e+01 -5.124607086181640625e+00 -3.413242588958323442e-14 1.683756080525164456e-13 4.027295397125360554e-14 5.010088074660148938e-14
3.601000000000000000e+03 2.592254829406738281e+01 2.387787818908691406e+01 -2.085091539531791494e-13 2.140834269570828646e-15 -6.191049192402764412e-14 -4.324776078706502047e-14
3.602000000000000000e+03 5.366824340820312500e+01 2.383619117736816406e+01 -3.365824871419398345e-13 -1.442496296022444113e-13 -1.442496296022444113e-13 -6.671960364425981796e-15
3.603000000000000000e+03 5.574563598632812500e+01 2.325608825683593750e+01 -5.519064480603852463e-13 6.084983726747580923e-14 -1.473169730734774641e-13 2.581896556361901185e-13
3.604000000000000000e+03 5.876924133300781250e+01 -1.203474330902099609e+01 6.067436050111174595e-13 7.702918299956965087e-14 2.051318370808324909e-13 1.284668714723186111e-13
3.605000000000000000e+03 5.902070617675781250e+01 -1.107702732086181641e+01 5.700846153651462078e-13 -5.305918736060039054e-14 1.551076297566164608e-13 1.218381678099594856e-13
3.606000000000000000e+03 5.697880554199218750e+01 -1.327456569671630859e+01 6.437185311701509871e-13 1.386265234548655911e-13 2.347035055454832486e-13 -2.754660072908001606e-14
3.607000000000000000e+03 1.861694335937500000e+01 3.551600933074951172e+00 1.117489618635697513e-13 3.223981140648007893e-13 1.302441227785111622e-13 -1.947528509987916934e-13
3.608000000000000000e+03 1.231524467468261719e+01 1.533491039276123047e+01 1.163713358532172948e-13 1.842668406097994205e-13 9.019145158365229897e-14 4.662092380983834383e-14
3.609000000000000000e+03 3.724808120727539062e+01 4.365564823150634766e+00 4.026905423156444674e-14 6.300911398540720576e-14 3.098345215915739026e-14 6.494153749237200832e-15
3.610000000000000000e+03 2.018652534484863281e+01 3.103755950927734375e+00 -1.034441832865017064e-13 1.386705691681228148e-13 1.056791762795881648e-14 1.694637641747997331e-14
3.611000000000000000e+03 2.066380119323730469e+01 3.801340818405151367e+00 8.525092693681835671e-15 -4.209733757876317484e-14 -1.007167321141451757e-14 -6.861320593718606142e-14
3.612000000000000000e+03 1.720824623107910156e+01 7.406232357025146484e+00 8.734903940562852021e-14 3.743530211839339594e-14 3.743530211839339594e-14 -1.401395140340419565e-13
3.613000000000000000e+03 2.845809173583984375e+01 -7.050240516662597656e+00 -5.072044130180475285e-14 -6.748827842059657023e-14 -3.546261659434675473e-14 -1.084328956377049458e-13
3.614000000000000000e+03 2.915000152587890625e+01 -5.704945087432861328e+00 -1.210900683109444875e-14 -1.653179004280913578e-13 -5.322807217775574196e-14 -1.152878790697253741e-13
3.615000000000000000e+03 6.149081420898437500e+01 5.291637897491455078e+00 -2.117944491661361006e-13 -1.463297473643099256e-12 -5.025275985268140566e-13 -2.435766703352132412e-13
3.616000000000000000e+03 6.066283035278320312e+01 1.118578553199768066e+00 -2.623442912561002593e-13 -1.073203158286073489e-12 -4.006642565466955741e-13 -2.493204752894440102e-13
3.617000000000000000e+03 1.724444007873535156e+01 3.409398794174194336e+00 6.404876053080123949e-15 -1.116324236825547156e-13 -3.156826403473249332e-14 -1.451655500450330094e-13
3.618000000000000000e+03 1.805332946777343750e+01 5.969072341918945312e+00 1.828441776241182537e-13 2.842410551720520040e-13 1.401255684835983617e-13 -1.046136444073260396e-13
3.619000000000000000e+03 9.178783416748046875e+00 4.015887737274169922e+00 -1.247764912226667633e-13 1.752791027554920222e-13 1.515078684797936670e-14 -1.970887442506209786e-14
3.620000000000000000e+03 1.703845596313476562e+01 6.052933692932128906e+00 1.207643062156940617e-13 1.380753015178468046e-13 7.765188774107312231e-14 -1.532438726695867226e-13
3.621000000000000000e+03 3.610263061523437500e+01 -4.098362922668457031e+00 -1.097611991530619835e-13 1.359632756858450420e-13 7.860624992713990955e-15 -2.270549335570484772e-13
3.622000000000000000e+03 3.653303527832031250e+01 -2.309162855148315430e+00 -1.709260716905441901e-13 -2.750308017625009011e-14 -5.952874369656580011e-14 -1.224041620015783871e-13
3.623000000000000000e+03 5.106940841674804688e+01 -1.319372177124023438e+01 5.052968677157765320e-13 -5.794990138793809642e-14 1.342040763458243746e-13 -1.373726165373317931e-13
3.624000000000000000e+03 5.038582992553710938e+01 -1.323674774169921875e+01 5.533888234807160522e-13 9.991378384366367271e-14 1.959907794868084863e-13 -7.978948719181838678e-14
3.625000000000000000e+03 7.821768951416015625e+01 -1.150485229492187500e+01 2.996825267868701015e-14 1.500963795527526790e-13 5.401939068587144344e-14 3.822138236300504002e-16
3.626000000000000000e+03 5.284524917602539062e+01 2.344838905334472656e+01 -2.927278645176167871e-13 1.179804324846550276e-14 -8.427895154764636354e-14 1.866142873910292543e-13
3.627000000000000000e+03 1.223104381561279297e+01 3.975043058395385742e+00 6.572825237641938267e-14 2.816925126047486322e-14 2.816925126047486322e-14 8.256760618101377514e-14
3.628000000000000000e+03 5.551630020141601562e+01 -1.349139881134033203e+01 6.592523835863284276e-13 1.452838771596326461e-13 2.413608592502503036e-13 3.413870409778828330e-14
3.629000000000000000e+03 1.729764938354492188e+01 2.544411277770996094e+01 -5.879158108696574958e-14 6.630550194184139934e-14 2.254176807034110643e-15 -4.616532850443277880e-14
3.630000000000000000e+03 1.829120445251464844e+01 2.359970283508300781e+01 -1.760732943993648103e-13 6.179286276457654492e-14 -3.428412610230469060e-14 -1.116743552015755925e-13
3.631000000000000000e+03 5.998093795776367188e+01 -1.142880535125732422e+01 6.026445076474928886e-13 5.239694650925087738e-14 1.965124433620998867e-13 1.596602353364645621e-13
3.632000000000000000e+03 5.864830398559570312e+01 -4.660496413707733154e-01 -3.467128114557210816e-13 -1.012140349830603636e-12 -4.076559510964028465e-13 -3.319011190015819235e-13
3.633000000000000000e+03 7.516880798339843750e+01 -1.307443046569824219e+01 1.100533577572289368e-13 4.716572523711694276e-14 4.716572523711694276e-14 1.523489721964171872e-13
3.634000000000000000e+03 3.493614959716796875e+01 5.580438137054443359e+00 -7.530990940455076221e-14 -2.610304279584280129e-13 -1.009021018865199903e-13 -4.449935022245513072e-14
3.635000000000000000e+03 4.426406097412109375e+01 -5.353349685668945312e+00 -3.531212594467397770e-13 -1.055867294096589359e-13 -1.376123878477769624e-13 -2.146960011845371746e-14
3.636000000000000000e+03 4.582307434082031250e+01 -6.468346118927001953e+00 -2.944850309785640441e-13 -1.262078684833092823e-13 -1.262078684833092823e-13 1.235150626525613471e-13
3.637000000000000000e+03 4.622393798828125000e+01 -1.354665374755859375e+01 4.186585160579486820e-13 -3.578712084567050797e-15 1.245239398791134211e-13 -8.718823867092176383e-14
3.638000000000000000e+03 4.450141143798828125e+01 -1.233537769317626953e+01 3.563795580256018392e-13 -1.675225442306776946e-13 5.665710549372995897e-14 -1.836624114511659078e-13
3.639000000000000000e+03 4.338931655883789062e+01 -5.082208156585693359e+00 -3.049753646237191029e-13 -2.450811092697541271e-13 -1.650169394575365378e-13 3.230740870142911891e-14
3.640000000000000000e+03 4.266739654541015625e+01 -1.105093383789062500e+01 2.222079264297890933e-13 2.782357677588720435e-13 1.501331069013456254e-13 -6.229095201887996369e-14
3.641000000000000000e+03 5.590764236450195312e+01 -5.150124073028564453e+00 -2.878105468794717181e-13 -3.635398731181849197e-13 -1.954051205782861289e-13 -2.569252319575832111e-13
3.642000000000000000e+03 5.521633148193359375e+01 -4.804519176483154297e+00 -2.597949253727721564e-13 -3.172199373839557079e-13 -1.731044642480292217e-13 -3.177391618043590160e-13
3.643000000000000000e+03 5.399477767944335938e+01 -1.297434520721435547e+01 6.038274264277831982e-13 -3.359791557380059634e-13 8.035449204895489528e-14 2.106930623892167009e-13
3.644000000000000000e+03 7.595201873779296875e+01 -1.233898162841796875e+01 9.638215112085443681e-14 1.785594784010913205e-13 8.248248953421008500e-14 3.354679408611518920e-14
3.645000000000000000e+03 7.440339660644531250e+01 -1.239473342895507812e+01 2.352502144909590642e-13 5.507057551407297524e-14 8.709623734032279074e-14 1.228715344530825759e-13
3.646000000000000000e+03 4.420417022705078125e+01 -1.129705047607421875e+01 2.543461047246203810e-13 -2.112511690100307704e-13 1.292848156140983043e-14 -1.785046177711635540e-13
3.647000000000000000e+03 4.536871719360351562e+01 -1.213766956329345703e+01 4.070526467975232876e-13 -5.430361428538851842e-14 1.058247050102559261e-13 -1.242442428236664731e-13
3.648000000000000000e+03 1.784251022338867188e+01 6.857611179351806641e+00 1.918313598248122531e-13 1.279643844229530480e-13 9.593872598483502157e-14 -1.224433288050594260e-13
3.649000000000000000e+03 4.749316787719726562e+01 -1.354806804656982422e+01 3.488240512411477923e-13 -3.537644081754581782e-13 -1.482111993084209850e-15 -1.029826790792560953e-13
3.650000000000000000e+03 4.898294067382812500e+01 -1.386110973358154297e+01 4.883511130204798434e-13 -1.567142547459141055e-13 9.949105341661157453e-14 1.028709181640635739e-13
3.651000000000000000e+03 7.046948242187500000e+01 -1.330106163024902344e+01 1.256881697244555118e-13 2.826210944960327875e-13 1.224927819766519210e-13 -9.553716799333249188e-15
3.652000000000000000e+03 6.805251312255859375e+01 -1.094780254364013672e+01 4.721041808354586866e-13 -1.690386654436271119e-13 9.091964919653860999e-14 7.010802257744613852e-14
3.653000000000000000e+03 4.479433822631835938e+01 -1.172322463989257812e+01 2.841611494719398223e-13 7.603240140350436826e-14 1.080580666178859728e-13 -5.671487652886449127e-14
3.654000000000000000e+03 6.184140014648437500e+01 6.025332450866699219e+00 -1.481113544527304371e-13 -1.161499065330251490e-12 -3.928831272901472937e-13 -3.915033987104965529e-13
3.655000000000000000e+03 6.309093475341796875e+01 7.258648395538330078e+00 -2.658807961124221020e-13 -1.760983069434840509e-12 -6.080591759272113705e-13 -2.807603596225588527e-13
3.656000000000000000e+03 2.419235610961914062e+01 2.621790885925292969e+01 -5.872796552449516261e-14 6.633276962647940977e-14 2.281442585847989757e-15 -2.566397683018313558e-14
3.657000000000000000e+03 6.343162536621093750e+01 1.335165214538574219e+01 -1.773442503960609429e-13 -1.860291651625822773e-12 -6.112908031326302893e-13 7.872003694514226324e-14
3.658000000000000000e+03 6.319168090820312500e+01 1.084998130798339844e+01 -7.922369628810682629e-14 -1.589485270833690400e-12 -5.006126806497701587e-13 -1.645768346906703594e-13
3.659000000000000000e+03 3.267402648925781250e+01 -6.551234722137451172e+00 4.729487065651891142e-14 2.032730266662147178e-13 7.517037258495187779e-14 -1.526586609944605155e-13
3.660000000000000000e+03 3.131354331970214844e+01 -3.867881298065185547e+00 3.601567998099287210e-15 2.302982836984573956e-13 7.016995085028579493e-14 -1.116634928510600033e-13
3.661000000000000000e+03 3.549254989624023438e+01 -2.657423257827758789e+00 -1.723065592117156708e-13 1.765623237892643971e-14 -4.639509804983676933e-14 -1.668066319836583600e-13
3.662000000000000000e+03 4.796059036254882812e+01 -1.380058097839355469e+01 4.107403165417439217e-13 -6.972230579612315876e-15 1.211304277368152604e-13 -6.819416179752041396e-14
3.663000000000000000e+03 1.984093666076660156e+01 4.298563003540039062e+00 8.926571233493912905e-14 2.670114834530529224e-13 1.068831573811448998e-13 -9.541408732983286400e-14
3.664000000000000000e+03 2.922070503234863281e+01 -3.681979179382324219e+00 6.897184646331711022e-14 -1.076934833085969878e-13 -1.161649020655101602e-14 -7.741282793830364661e-14
3.665000000000000000e+03 3.823869323730468750e+01 -3.073370218276977539e+00 -2.634426964770453239e-13 2.988545283640064998e-13 1.062354566973679540e-14 -6.793795127163493319e-14
3.666000000000000000e+03 7.202520751953125000e+01 -1.251964282989501953e+01 1.007494258918432972e-13 -1.398254748747815301e-13 -1.172281317022216482e-14 2.220337086931978288e-13
3.667000000000000000e+03 7.202219390869140625e+01 -1.319285964965820312e+01 6.459700260591158538e-14 7.343537805843194932e-14 4.140971284405034480e-14 2.327213129236366251e-13
3.668000000000000000e+03 3.957365417480468750e+01 -3.364230632781982422e+00 -3.242213355431067257e-13 2.041801244138247151e-13 -3.601236130590552975e-14 -3.624937128894265004e-14
3.669000000000000000e+03 6.416644287109375000e+01 1.490112781524658203e+01 -2.747280213651753789e-13 -1.650397375187184767e-12 -5.775376379392460624e-13 2.074854638144454921e-13
3.670000000000000000e+03 7.824085235595703125e+01 -6.850365638732910156e+00 1.752641272129845662e-13 4.411207998270688657e-13 1.849154781120160296e-13 3.589004636019021977e-14
3.671000000000000000e+03 7.781884765625000000e+01 3.619392395019531250e+01 -8.126016000494992730e-14 4.226836979384640536e-13 1.024270661234387425e-13 -4.629822119759340049e-14
3.672000000000000000e+03 7.691108703613281250e+01 3.217388153076171875e+01 1.527700830964741352e-14 8.529398433203272401e-13 2.604650436305311345e-13 -1.668619805045637450e-13
3.673000000000000000e+03 7.753676605224609375e+01 2.635479688644409180e+00 -1.988269710548676295e-13 6.925545748860673090e-13 1.481182797941071883e-13 2.948070390237922389e-13
3.674000000000000000e+03 7.822970581054687500e+01 5.107289791107177734e+00 2.727333333132908599e-13 1.146282070998982938e-12 4.257046104516604146e-13 5.711946351018640233e-14
3.675000000000000000e+03 7.753600311279296875e+01 3.431023836135864258e+00 -2.590680491312835620e-13 3.007293849707770583e-13 1.249839380617788140e-14 5.311330802254543570e-13
3.676000000000000000e+03 7.683799743652343750e+01 2.097272723913192749e-01 -4.262151070445752143e-13 5.722270530680861889e-13 4.380357703078971432e-14 1.557938484166368487e-13
3.677000000000000000e+03 7.753016662597656250e+01 -1.343602180480957031e+00 -1.388732607642689798e-13 5.809961886593661973e-13 1.326368756580237340e-13 6.291174585405442943e-14
3.678000000000000000e+03 7.822824859619140625e+01 5.905366897583007812e+00 -2.493281460198143451e-13 9.454169218325869650e-13 2.088266219018100611e-13 2.507325130938348190e-13
3.679000000000000000e+03 7.753330993652343750e+01 4.226682662963867188e+00 7.711148072072487869e-14 9.023158197181413431e-13 2.938281941974180134e-13 8.566076044021556091e-14
3.680000000000000000e+03 7.823331451416015625e+01 -1.271181583404541016e+00 -1.957033574908825790e-13 1.448818820991293332e-13 -1.524644397277868935e-14 -1.913779464762788152e-15
3.681000000000000000e+03 7.753091430664062500e+01 -2.139734983444213867e+00 -6.395169224911179118e-14 1.555959273100496199e-13 2.749326984065499080e-14 1.320523009516738622e-13
3.682000000000000000e+03 7.823258209228515625e+01 -4.741625785827636719e-01 -2.551818890743351442e-13 5.769005607426935800e-13 9.651559607949666830e-14 -6.576069458533216963e-15
3.683000000000000000e+03 7.753456115722656250e+01 1.049159049987792969e+00 -5.937834859220947337e-13 5.232875222548061256e-13 -2.114879147187883474e-14 3.149865622237985052e-13
3.684000000000000000e+03 7.822710418701171875e+01 6.702724933624267578e+00 1.963312325214960907e-13 1.090662824811128306e-12 3.860982171997873191e-13 3.598969470423700467e-14
3.685000000000000000e+03 7.752997589111328125e+01 5.023577690124511719e+00 -2.508272723637100521e-13 6.245177985864103221e-13 1.121071551563046498e-13 3.666265967032511508e-13
3.686000000000000000e+03 7.752964019775390625e+01 -5.462637543678283691e-01 -3.488816494815610847e-13 3.079887690368710018e-13 -1.226786277815430926e-14 1.659926570382695005e-14
3.687000000000000000e+03 7.821770477294921875e+01 1.148960304260253906e+01 2.577505334275427551e-14 1.177695636324360695e-12 3.610412207914748262e-13 3.041514726165837901e-14
3.688000000000000000e+03 7.751434326171875000e+01 1.060266971588134766e+01 4.666751062193733035e-14 1.072272153880560186e-12 3.356819217124190624e-13 8.453758797589278062e-14
3.689000000000000000e+03 7.751705169677734375e+01 9.804625511169433594e+00 -1.346832666010086554e-13 9.945504706246333093e-13 2.579601571413292493e-13 1.766151650926459094e-13
3.690000000000000000e+03 7.751979064941406250e+01 9.009013175964355469e+00 1.111777499489957632e-13 1.054168471265048979e-12 3.496038636537079913e-13 8.554103741531884908e-14
3.691000000000000000e+03 7.752216339111328125e+01 8.213602066040039062e+00 -1.354473174244863465e-13 9.027210944902164247e-13 2.301821114356755738e-13 3.530691364272975363e-13
3.692000000000000000e+03 7.752446746826171875e+01 6.617566585540771484e+00 -2.584051679230259246e-13 6.670210716229474368e-13 1.225847765309873161e-13 2.881774408946408128e-13
3.693000000000000000e+03 7.823691558837890625e+01 -5.260109424591064453e+00 1.618877829099446553e-13 5.268899466032150869e-13 2.066333215644533539e-13 4.826062374166037450e-14
3.694000000000000000e+03 7.752291870117187500e+01 -6.132082462310791016e+00 5.248135503651066291e-14 2.054958037501358747e-13 7.739314966887303471e-14 7.221592844119245624e-14
3.695000000000000000e+03 7.821511077880859375e+01 1.308750724792480469e+01 9.868639922177430135e-14 9.573131133297496653e-13 3.167998632522261993e-13 2.041733278214559466e-14
3.696000000000000000e+03 7.751181793212890625e+01 1.140268039703369141e+01 -8.591810937838215145e-14 1.061200714976007209e-12 2.925847769359030126e-13 1.710001498039792622e-13
3.697000000000000000e+03 7.823621368408203125e+01 -4.463204383850097656e+00 -1.528185266047935031e-13 4.148913200843762361e-13 7.862183533336938868e-14 2.199176374318399796e-14
3.698000000000000000e+03 7.821401214599609375e+01 1.547699737548828125e+01 -1.170922625352843749e-13 1.139342309733337721e-12 3.066750141594160040e-13 4.918692880838231030e-14
3.699000000000000000e+03 7.750758361816406250e+01 1.300014591217041016e+01 -7.624071052215672384e-14 1.065348221966633258e-12 2.967322297164204370e-13 1.631667620027171806e-13
3.700000000000000000e+03 7.749925231933593750e+01 1.774859619140625000e+01 -7.566338641783534880e-14 1.019844690468285631e-12 2.832543769849815707e-13 -5.229462492922255790e-14
3.701000000000000000e+03 7.750309753417968750e+01 1.696417617797851562e+01 -2.168989136517793237e-14 1.225979929554699144e-12 3.612870094239772900e-13 -6.941172761348521347e-14
3.702000000000000000e+03 7.750563812255859375e+01 1.617719459533691406e+01 -1.707831026934430313e-14 1.273707268129031789e-12 3.769886963364554866e-13 2.965763553253349116e-14
3.703000000000000000e+03 7.678913879394531250e+01 -6.984366416931152344e+00 6.029349247519202870e-14 1.859683874992981711e-13 7.387856602522613336e-14 1.862195700376087504e-13
3.704000000000000000e+03 7.752613830566406250e+01 -5.333382606506347656e+00 -5.217239468680197334e-14 1.148932430314678066e-13 1.881625585865246558e-14 6.510594235226933174e-15
3.705000000000000000e+03 7.752082061767578125e+01 -6.928582668304443359e+00 -1.277752419658311628e-14 8.602581808795500828e-14 2.197448765919179925e-14 2.264197164448481653e-14
3.706000000000000000e+03 7.753057861328125000e+01 -2.936052322387695312e+00 -1.361276178653042686e-15 5.026770557962911834e-13 1.503947248855663776e-13 1.662907414849354448e-13
3.707000000000000000e+03 7.753011322021484375e+01 -3.735046625137329102e+00 -1.136444047590903783e-13 4.279715281165288876e-14 -2.125417761711032028e-14 1.288773097572401549e-13
3.708000000000000000e+03 7.821428680419921875e+01 1.388386917114257812e+01 -2.496701101612798512e-14 1.133073561192243783e-12 3.324319714902851386e-13 1.013469229328364807e-13
3.709000000000000000e+03 7.750714874267578125e+01 1.538698101043701172e+01 -6.081350971843396680e-14 1.026208848800558293e-12 2.896186166324171696e-13 2.436425898273003599e-14
3.710000000000000000e+03 7.818705749511718750e+01 2.020898818969726562e+01 8.821028217760595869e-15 1.261931531493232228e-12 3.812257584265288379e-13 -1.537661193035458340e-13
3.711000000000000000e+03 7.747811889648437500e+01 1.930670928955078125e+01 -3.651528965943661234e-15 1.050706830568737260e-12 3.141165984005961365e-13 -2.212455072663280231e-13
3.712000000000000000e+03 7.750666809082031250e+01 1.379631042480468750e+01 -2.090249123147622928e-14 9.518117630863409673e-13 2.792727800318001163e-13 -1.495660962701900187e-14
3.713000000000000000e+03 7.748925781250000000e+01 -1.078584194183349609e+01 4.798085214731406811e-14 2.493179545193929814e-13 8.918964877627569288e-14 1.062553026793221223e-13
3.714000000000000000e+03 7.813588714599609375e+01 2.257076263427734375e+01 1.132115438179891187e-13 1.260919428765217010e-12 4.122392802553137559e-13 -7.170229443824102655e-14
3.715000000000000000e+03 7.745933532714843750e+01 2.008256530761718750e+01 -1.121397760891693074e-14 1.184718664316852799e-12 3.520514229530397055e-13 -8.254519030109763733e-14
3.716000000000000000e+03 7.803130340576171875e+01 2.653363800048828125e+01 -1.276118831916236984e-13 9.060791396689471533e-13 2.335401566144063024e-13 -6.453053423647464593e-14
3.717000000000000000e+03 7.730541229248046875e+01 2.478166007995605469e+01 7.734422504583962632e-14 9.481664585420102043e-13 3.076532084644867382e-13 -1.283679786816607771e-13
3.718000000000000000e+03 7.733201599121093750e+01 2.399241065979003906e+01 -4.982767450462935108e-15 9.586344305173577496e-13 2.860955016729255229e-13 -1.120143610028670467e-13
3.719000000000000000e+03 7.735791015625000000e+01 2.320715522766113281e+01 7.203498187486820359e-14 9.001401512186146814e-13 2.916525528029456638e-13 -1.558857074457006830e-13
3.720000000000000000e+03 7.817134094238281250e+01 2.099477958679199219e+01 1.150927108202167218e-14 1.240208131504660916e-12 3.755152384789933739e-13 6.162683753065112402e-14
3.721000000000000000e+03 7.823155212402343750e+01 -9.967916488647460938e+00 8.477729829996574762e-14 3.565897577217924663e-13 1.324101147736483908e-13 8.085793455148496123e-14
3.722000000000000000e+03 7.800416564941406250e+01 2.733563995361328125e+01 1.233833591936586704e-13 1.105150367920748611e-12 3.685601357526074873e-13 -1.438722730361108315e-13
3.723000000000000000e+03 7.724599456787109375e+01 2.637000846862792969e+01 6.138871962851899511e-14 9.413283954401441278e-13 3.008151453626206617e-13 -1.123351289918604612e-13
3.724000000000000000e+03 7.738354492187500000e+01 2.242466163635253906e+01 -4.629902841999213384e-15 8.672837838522018394e-13 2.587961583314785097e-13 -1.153272898186952222e-13
3.725000000000000000e+03 7.746688842773437500e+01 -1.229533195495605469e+01 -2.530960535010624846e-14 -1.084697432649764023e-14 -1.084697432649764023e-14 6.565485188934211402e-14
3.726000000000000000e+03 7.747907257080078125e+01 -1.154216289520263672e+01 5.579393318069867519e-15 -4.335977920027350718e-14 -1.133411652699074443e-14 6.272812943988043122e-14
3.727000000000000000e+03 7.710577392578125000e+01 2.878985786437988281e+01 -2.877179492376778780e-14 6.739334567837373946e-13 1.935485056730676390e-13 -9.758233582074157808e-14
3.728000000000000000e+03 7.743543243408203125e+01 2.085981178283691406e+01 7.070195530379727589e-14 9.453197773179322638e-13 3.048065272404087978e-13 -1.843307678803945970e-13
3.729000000000000000e+03 7.720952606201171875e+01 2.717123222351074219e+01 -1.296109080521981594e-13 8.137205102440314697e-13 2.052328711707809838e-13 3.158945679907279591e-14
3.730000000000000000e+03 7.820806884765625000e+01 -1.227037906646728516e+01 -9.364498109246111035e-15 4.173759252166890643e-14 9.711928154320249168e-15 -6.748186129898817165e-14
3.731000000000000000e+03 7.702627563476562500e+01 2.961924171447753906e+01 6.176911873699911237e-14 7.584876737104506716e-13 2.460770302803449994e-13 -3.233090878351774222e-14
3.732000000000000000e+03 7.782839965820312500e+01 3.227837753295898438e+01 7.437990788604700865e-14 9.240206256394545292e-13 2.995201471827496631e-13 5.945814180634625967e-14
3.733000000000000000e+03 7.716485595703125000e+01 2.797644615173339844e+01 4.299430820045579971e-14 7.961922679315669438e-13 2.517559728396068230e-13 -4.548549308470289931e-14
3.734000000000000000e+03 7.797683715820312500e+01 3.396694183349609375e+01 6.107318969127140118e-14 6.438120436075278619e-13 2.114655699896397789e-13 -6.116706804688148980e-14
3.735000000000000000e+03 7.616746520996093750e+01 3.477788162231445312e+01 2.525694700584134311e-14 4.683338677806403449e-13 1.480772562944057680e-13 -5.424501993422925494e-14
3.736000000000000000e+03 7.663133239746093750e+01 3.392827224731445312e+01 -7.855735071509491879e-15 5.456446384131952154e-13 1.613366693931431173e-13 -8.863322944509255397e-14
3.737000000000000000e+03 7.783583068847656250e+01 3.785079956054687500e+01 -5.103269152748057813e-14 4.127628685894613181e-13 1.085190490528360752e-13 4.110766089505946130e-15
3.738000000000000000e+03 7.677343750000000000e+01 3.607906341552734375e+01 7.385519469214549271e-14 3.976598239065209928e-13 1.414545021914681566e-13 -3.894804536394916306e-14
3.739000000000000000e+03 7.737551879882812500e+01 3.436494827270507812e+01 8.536311983881397780e-14 7.685993768519194802e-13 2.561887605268681201e-13 -3.374999051389791782e-14
3.740000000000000000e+03 7.682173919677734375e+01 3.698963928222656250e+01 -1.314840028304384290e-13 2.410308823190543404e-13 3.286406181370570001e-14 -4.774154839905578318e-14
3.741000000000000000e+03 3.330021858215332031e+00 2.334345054626464844e+01 2.047318444062164872e-14 2.146534902949803758e-13 7.053800360652673351e-14 7.337969072434766260e-14
3.742000000000000000e+03 2.557750940322875977e+00 2.258615493774414062e+01 4.321568534341839463e-14 2.015248048731904662e-13 7.342214401566404813e-14 -4.033395050785128222e-14
3.743000000000000000e+03 2.615825414657592773e+00 2.905830574035644531e+01 -3.146003016473233882e-14 3.296492581943838429e-13 8.945676231025823100e-14 1.211171648949271526e-14
3.744000000000000000e+03 3.502139806747436523e+00 3.678919219970703125e+01 2.815819070424961656e-14 4.924527582592097552e-13 1.561832802844664858e-13 3.719412134512399548e-14
3.745000000000000000e+03 2.578477859497070312e+00 2.420230865478515625e+01 1.021368421425233181e-14 1.416301429434108083e-13 4.555314730026599479e-14 7.675437163016246567e-14
3.746000000000000000e+03 2.677753448486328125e+00 3.065397262573242188e+01 -1.891296161024048905e-14 6.324077546360218349e-13 1.840484280821522156e-13 3.008751152952862662e-14
3.747000000000000000e+03 5.441026687622070312e+00 3.786593627929687500e+01 -3.110471636050163129e-15 5.248028574211804909e-13 1.565077142320556169e-13 2.658003999802334601e-15
3.748000000000000000e+03 2.531264305114746094e+00 8.078536033630371094e+00 -6.330481996355726004e-15 -9.421495972706389610e-14 -3.016363268643247608e-14 -4.599276417615455470e-14
3.749000000000000000e+03 2.476900815963745117e+00 1.535537528991699219e+01 -4.758303804143840243e-14 1.626110677317368913e-13 3.450840687421047326e-14 5.604500221659432235e-15
3.750000000000000000e+03 2.514417886734008789e+00 9.719368934631347656e+00 1.824136104482381587e-14 -8.368417178834797188e-14 -1.963284305365065735e-14 -1.626135037984931947e-14
3.751000000000000000e+03 2.504475593566894531e+00 1.053806209564208984e+01 6.044416523694846541e-16 -1.827447427323741769e-13 -5.464209203924312586e-14 -5.443419288453724136e-14
3.752000000000000000e+03 2.485016345977783203e+00 1.695539665222167969e+01 -8.689727268914454461e-14 2.372640116061336402e-13 4.511002031984401306e-14 2.518576743915177524e-14
3.753000000000000000e+03 3.199610948562622070e+00 1.132537364959716797e+01 2.066012291801477829e-14 1.003562331977278510e-13 3.630490615709643099e-14 -3.242878513463887113e-14
3.754000000000000000e+03 1.764594793319702148e+00 1.300368785858154297e+01 3.352950783772762344e-14 -7.713210766705641541e-14 -1.308077977939204814e-14 -4.415276805736119414e-14
3.755000000000000000e+03 2.483615636825561523e+00 1.615559577941894531e+01 -9.258803644021824930e-15 1.332847813237739154e-13 3.720779584502446891e-14 2.165321992075950469e-14
3.756000000000000000e+03 2.473844766616821289e+00 1.215624713897705078e+01 5.778661376449820142e-14 2.476569161335637204e-14 2.476569161335637204e-14 -4.565722732069281420e-15
3.757000000000000000e+03 1.763756036758422852e+00 1.380727863311767578e+01 4.627531149746901343e-15 -2.089224721501213577e-14 -4.879414607821333516e-15 -1.307991495875290150e-14
3.758000000000000000e+03 2.461127281188964844e+00 1.375512504577636719e+01 6.116266347555576743e-14 7.196351939917425278e-14 3.993785418479264826e-14 2.283421254812775802e-14
3.759000000000000000e+03 3.186524391174316406e+00 1.770144653320312500e+01 -5.833740202064799374e-14 2.037530029679740506e-13 4.362468028419781707e-14 -1.825381835837908487e-15
3.760000000000000000e+03 1.781896114349365234e+00 1.943368721008300781e+01 4.200880908324794438e-14 -4.871698561188320467e-15 1.114113362248600816e-14 3.591314240756300277e-15
3.761000000000000000e+03 2.540758848190307617e+00 2.178131294250488281e+01 6.150638944555156251e-14 -1.939106766325228437e-14 1.263459755112932015e-14 -1.708198639233538679e-14
3.762000000000000000e+03 2.484341144561767578e+00 1.775834655761718750e+01 1.208433445540682549e-14 1.424318426873280585e-13 4.635485382044682301e-14 1.618726989472199507e-13
3.763000000000000000e+03 2.493797779083251953e+00 1.937365150451660156e+01 4.374111004499560418e-14 1.559990336777797304e-13 5.992204481089849488e-14 6.467396063136732209e-14
3.764000000000000000e+03 2.506213665008544922e+00 2.017845153808593750e+01 -4.438893778371463816e-14 3.851643464347805079e-15 -1.216118829581004993e-14 7.439821735023485760e-14
3.765000000000000000e+03 1.833130359649658203e+00 6.544783592224121094e+00 -1.200522564389142066e-13 -9.720191638347072671e-14 -6.517625116908912219e-14 1.642855807176910737e-14
3.766000000000000000e+03 3.348603248596191406e+00 2.416055870056152344e+01 3.350040378565996568e-14 1.058592097443952773e-13 4.180788609189564631e-14 -4.374126589905789897e-14
3.767000000000000000e+03 3.434588432312011719e+00 3.061332130432128906e+01 4.804579585744594983e-14 5.467269432318788702e-13 1.784318271478083084e-13 1.079036033836905731e-14
3.768000000000000000e+03 1.880830883979797363e+00 4.965327262878417969e+00 -5.749227997972269910e-14 -2.463954977278536712e-14 -2.463954977278536712e-14 1.644263880867108396e-13
3.769000000000000000e+03 1.854496717453002930e+00 5.752729415893554688e+00 -6.521162326496646178e-14 -7.369878497623730262e-14 -4.167312314998748712e-14 1.222130036060420366e-13
3.770000000000000000e+03 2.651630640029907227e+00 4.916837215423583984e+00 -9.727748188676117735e-15 -9.567093482449468000e-14 -3.161960439573147097e-14 -7.689944465710460419e-15
3.771000000000000000e+03 2.560633659362792969e+00 2.580294036865234375e+01 -9.693941070872125199e-14 3.702130832797245752e-13 8.198210312655371257e-14 3.495397330952054737e-14
3.772000000000000000e+03 1.842834711074829102e+00 2.747483444213867188e+01 -8.750460886485303402e-14 3.513810878548462302e-13 7.916294708512974787e-14 -2.794688139489808626e-14
3.773000000000000000e+03 2.555284023284912109e+00 2.741600227355957031e+01 -2.879547457684122902e-14 4.680440605399349696e-13 1.317745690126645441e-13 1.707763941925007772e-14
3.774000000000000000e+03 3.002202510833740234e+00 3.306044387817382812e+01 -1.385549390064272357e-14 6.116997641920918216e-13 1.793532770216765826e-13 -5.129157190121580445e-14
3.775000000000000000e+03 4.106555461883544922e+00 3.382918548583984375e+01 5.059808569850797466e-14 5.020698483695906766e-13 1.658003839473745633e-13 2.388336873242061578e-15
3.776000000000000000e+03 2.862303972244262695e+00 3.222197341918945312e+01 -8.809656969850296337e-14 5.341311702829198982e-13 1.338103889844677319e-13 3.374562321202187465e-14
3.777000000000000000e+03 2.188904047012329102e+00 3.401686859130859375e+01 -1.960031360034430320e-14 5.634867030444856706e-13 1.631659217460335043e-13 4.659483180693112236e-14
3.778000000000000000e+03 3.145564317703247070e+00 3.398579406738281250e+01 -3.519624336716011687e-15 5.932539073709441890e-13 1.769202866890376424e-13 -6.148924549869913547e-14
3.779000000000000000e+03 3.642977952957153320e+00 4.179938888549804688e+01 6.478319209442110534e-16 5.264135481686249562e-13 1.581184185320272384e-13 2.414596503969544672e-14
3.780000000000000000e+03 3.400657653808593750e+01 1.151296520233154297e+01 1.993637731029923588e-14 1.457970029428157233e-13 4.972001407593448774e-14 -3.035919565329454894e-14
3.781000000000000000e+03 4.017591857910156250e+01 1.306732273101806641e+01 1.426958188112739667e-13 1.984081979657451034e-13 1.023312090988638678e-13 -9.806300330138587040e-14
3.782000000000000000e+03 4.089060974121093750e+01 1.370084571838378906e+01 1.108782458751102207e-13 3.677758781111400976e-13 1.435962351629960221e-13 4.187592655448268975e-14
3.783000000000000000e+03 4.296709823608398438e+01 1.808743858337402344e+01 -1.340432756111176182e-13 7.980572989561493524e-14 -1.627126574752987831e-14 -8.667602090705814333e-14
3.784000000000000000e+03 4.450568008422851562e+01 1.736208152770996094e+01 4.563731188203697109e-14 -2.549468340433402869e-13 -6.279286308584139387e-14 -1.030908079171707903e-13
3.785000000000000000e+03 4.328813552856445312e+01 1.617354774475097656e+01 4.538953780430614315e-14 6.520360694515364708e-14 3.317794511890383158e-14 5.967472474282739525e-14
3.786000000000000000e+03 4.592876052856445312e+01 -1.253820991516113281e+01 3.743002002093431813e-13 1.604143657100640108e-13 1.604143657100640108e-13 -6.148099200966108957e-14
3.787000000000000000e+03 4.647215270996093750e+01 -1.291283893585205078e+01 3.237429855446061211e-13 -2.730115395907506404e-13 1.521943039802485520e-14 -2.219450345080156706e-13
3.788000000000000000e+03 3.439756011962890625e+01 1.071262073516845703e+01 -3.401077840583036083e-14 -2.433308003875478409e-13 -8.320247431563981833e-14 -1.681863199057276326e-13
3.789000000000000000e+03 3.910665130615234375e+01 1.085890197753906250e+01 1.458221293281630748e-13 3.961972216233108912e-14 5.563255476952189138e-14 1.041461432068138682e-13
3.790000000000000000e+03 3.499108886718750000e+01 1.281511020660400391e+01 -2.428836652472194518e-14 1.382812863780918944e-13 3.419787443135167970e-14 -2.928621700617334289e-13
3.791000000000000000e+03 5.013898086547851562e+01 2.127002525329589844e+01 -1.160820571610710061e-13 -4.974945355304925820e-14 -4.974945355304925820e-14 -2.273797774685840795e-14
3.792000000000000000e+03 3.353840637207031250e+01 1.660928916931152344e+01 -4.047902353479342075e-14 2.840279687875771342e-14 -3.622867912107417473e-15 -1.916014276490823898e-13
3.793000000000000000e+03 3.224528121948242188e+01 1.873995780944824219e+01 -5.922144014330193995e-14 -1.397579832895443075e-13 -5.969382702985387423e-14 -1.432870749135117805e-13
3.794000000000000000e+03 5.543104934692382812e+01 -1.283724498748779297e+01 6.243189016978678563e-13 -1.899442381809654523e-13 1.303124004103234368e-13 1.329733306972002982e-13
3.795000000000000000e+03 1.504000186920166016e+01 3.973743438720703125e+00 2.891322570903673284e-14 1.267687533721903459e-13 4.670459372436812362e-14 2.307731608618742575e-14
3.796000000000000000e+03 3.333512115478515625e+01 1.420630931854248047e+01 -1.872172528767299116e-14 -3.282802361111863965e-13 -1.041005863867787429e-13 -2.853992473665460661e-14
3.797000000000000000e+03 5.439487457275390625e+01 -6.051911354064941406e+00 -1.832046206363610596e-13 -4.330861298924848501e-13 -1.848872210928956261e-13 -2.135771892458268595e-13
3.798000000000000000e+03 5.567517089843750000e+01 -4.198676109313964844e+00 -2.745959113304580201e-13 -5.637556936034793242e-13 -2.515054950327083594e-13 -3.238499962990304404e-13
3.799000000000000000e+03 3.563970184326171875e+01 5.648135185241699219e+00 2.556400661361639404e-14 -2.177987472448336681e-13 -5.767042117292564551e-14 1.060909850638183660e-13
3.800000000000000000e+03 2.661210823059082031e+01 2.392077445983886719e+01 -5.790503574678793064e-14 -7.056739226166466872e-14 -3.854172704728306420e-14 8.956897045884690267e-14
3.801000000000000000e+03 2.532129669189453125e+01 2.396802139282226562e+01 -8.285442508948123730e-14 -1.263356417093366990e-14 -2.864639677812447216e-14 5.493715427235326687e-14
3.802000000000000000e+03 3.520794677734375000e+01 -2.084204912185668945e+00 -3.945396459081700058e-14 7.459305525689408078e-14 1.054172736922971351e-14 -1.378972077584889044e-13
3.803000000000000000e+03 4.211201858520507812e+01 1.495018672943115234e+01 -2.578826536266554809e-14 1.262007263014980341e-13 3.012374082274858755e-14 8.793193359861103953e-14
3.804000000000000000e+03 4.106856155395507812e+01 1.495055866241455078e+01 -4.579981007077002508e-14 3.349413574185028386e-13 8.674246894770434868e-14 7.600546575578168151e-14
3.805000000000000000e+03 5.176402282714843750e+01 -1.385259437561035156e+01 5.484858444163021041e-13 -2.224441334255922165e-13 9.781250516569667264e-14 2.075290860112290886e-15
3.806000000000000000e+03 5.177909469604492188e+01 -1.313117313385009766e+01 6.415514278677869608e-13 2.291996616370778339e-13 2.612253132989322824e-13 2.423262370997961331e-15
3.807000000000000000e+03 3.597415161132812500e+01 -2.944015264511108398e+00 -1.971061389192257929e-13 1.442806784419589650e-13 -1.584763746555369057e-14 3.872747459635235423e-14
3.808000000000000000e+03 3.556645965576171875e+01 -5.733557224273681641e+00 -1.044110747839242792e-14 1.785290394250987900e-13 5.042637856757237191e-14 -8.250457337721089912e-14
3.809000000000000000e+03 3.682920074462890625e+01 -7.106514930725097656e+00 7.995524815146426434e-14 2.630212670926002083e-13 1.028929613494829198e-13 -3.588955846921260129e-13
3.810000000000000000e+03 3.827747726440429688e+01 -8.151340484619140625e+00 1.030737859430627679e-13 1.356763822384782214e-13 7.162505180971501240e-14 -1.552527366648764895e-13
3.811000000000000000e+03 3.762000274658203125e+01 -2.939240694046020508e+00 -2.107815332864915181e-13 2.070462264093173022e-13 -1.120594096031338194e-15 -4.842673367888052083e-14
3.812000000000000000e+03 4.637871170043945312e+01 2.115172767639160156e+01 -9.792557389975975468e-14 -8.771905050204351073e-14 -5.569338528766190621e-14 -8.403519579421731001e-14
3.813000000000000000e+03 1.950134849548339844e+01 5.262829780578613281e+00 -4.013135039126342063e-14 1.114753905503973463e-13 2.140321306417971442e-14 -1.687009364668978773e-13
3.814000000000000000e+03 6.383224487304687500e+01 1.064912509918212891e+01 -1.838753487578420609e-13 -1.634336004203984505e-12 -5.454634140200642634e-13 3.139749202817065932e-14
3.815000000000000000e+03 6.402914428710937500e+01 1.233335018157958984e+01 -1.850848575964125775e-13 -1.543352468394432186e-12 -5.185311815342208419e-13 9.899793116351085498e-14
3.816000000000000000e+03 3.763094711303710938e+01 -6.709551811218261719e+00 1.655642997713487920e-15 1.379624089666367515e-13 4.188541671162372693e-14 -2.188343907125189780e-13
3.817000000000000000e+03 6.413817596435546875e+01 1.403828716278076172e+01 -2.422247786463410657e-13 -1.659342910471928167e-12 -5.704703202880079260e-13 9.743891620211247995e-14
3.818000000000000000e+03 7.361884307861328125e+01 -1.243146705627441406e+01 1.807892214839706968e-13 3.173014219534815716e-14 6.375580402159797266e-14 7.767828128770956631e-14
3.819000000000000000e+03 7.561347961425781250e+00 4.039941787719726562e+00 -9.200119507370152494e-14 -3.942908553909024727e-14 -3.942908553909024727e-14 1.383965099639727914e-13
3.820000000000000000e+03 5.325844192504882812e+01 -1.303221702575683594e+01 6.143883145293127512e-13 -1.119641268668971831e-14 1.809575709763033835e-13 1.896106698300731308e-13
3.821000000000000000e+03 5.615506362915039062e+01 -3.594310522079467773e+00 -2.408398187912080823e-13 -3.376906772874915807e-13 -1.735591515341153301e-13 -2.751613227634092107e-13
3.822000000000000000e+03 5.749304962158203125e+01 -1.245880794525146484e+01 5.933580991997200460e-13 1.170434869900496833e-13 2.131204826331944968e-13 -1.470858482753578667e-14
3.823000000000000000e+03 5.613436889648437500e+01 -1.274203395843505859e+01 6.359523367985286946e-13 1.810491047447154722e-13 2.451004351734786813e-13 -6.163321399467805439e-14
3.824000000000000000e+03 1.547973346710205078e+01 9.349909782409667969e+00 1.707278930859409960e-13 2.161408123877231469e-13 1.160606170631101053e-13 -6.065644270495870738e-14
3.825000000000000000e+03 1.600266265869140625e+01 8.663807868957519531e+00 8.814058830670587485e-14 8.352548524787756223e-14 5.149982342162774673e-14 -9.825005528119393206e-14
3.826000000000000000e+03 4.842874526977539062e+01 -1.386401653289794922e+01 5.230442814974090027e-13 -3.248495493868991391e-13 5.945842640941653712e-14 -1.693599687574431911e-13
3.827000000000000000e+03 4.679008102416992188e+01 2.031537818908691406e+01 -5.460480903703678057e-14 5.666209959998697032e-14 6.171864806707872807e-16 4.113168274944359326e-15
3.828000000000000000e+03 2.697904348373413086e+00 4.143824577331542969e+00 -2.665283358599390695e-14 8.007925377494229391e-14 1.602792673431087389e-14 1.028793071783731805e-13
3.829000000000000000e+03 4.370157241821289062e+00 3.340703248977661133e+00 1.047885126652207954e-13 -8.415864724638959845e-16 3.118407699491225482e-14 1.023206855615271804e-13
3.830000000000000000e+03 2.750912666320800781e+00 3.376981258392333984e+00 -1.391426697575385771e-14 -9.746515389468662915e-14 -3.341382685405520914e-14 2.191535459507808203e-14
3.831000000000000000e+03 2.590142822265625000e+01 2.315377235412597656e+01 -1.179216636447086297e-13 -1.420397545241758319e-13 -7.798842409541262288e-14 1.281589987129141961e-13
3.832000000000000000e+03 3.788474273681640625e+01 6.961202621459960938e+00 4.639224863100220586e-14 2.486371297651807089e-13 8.850881724579984233e-14 -6.423523144600748469e-14
3.833000000000000000e+03 1.639996337890625000e+01 4.013528347015380859e+00 2.266556490019763781e-13 1.428890914010466640e-13 1.108634194104014814e-13 -8.099831840403109995e-14
3.834000000000000000e+03 1.930619049072265625e+01 3.635397672653198242e+00 -9.162194115376609549e-14 4.182429413652349881e-13 9.798630277394609900e-14 1.173040152663837928e-15
3.835000000000000000e+03 6.418808746337890625e+01 1.577806854248046875e+01 -2.376027705749267360e-13 -1.611611126668688332e-12 -5.547641339365139146e-13 2.973004871800744020e-13
3.836000000000000000e+03 2.938895606994628906e+01 -6.605975627899169922e+00 -2.644193932278653125e-14 -2.744002128383243866e-13 -9.025264802002552766e-14 -1.431029638320965858e-13
3.837000000000000000e+03 3.441996383666992188e+01 1.334928512573242188e+01 4.001358909467254976e-14 -2.573570154727755632e-13 -6.520302418648593612e-14 -7.402685777736783823e-14
3.838000000000000000e+03 3.390824508666992188e+01 1.393683624267578125e+01 -6.509205609413204474e-14 3.838619417988187177e-13 9.563096842191143310e-14 -1.030016187359567015e-13
3.839000000000000000e+03 4.470486068725585938e+01 1.864846992492675781e+01 -6.259460994233884135e-14 -1.640791045783365765e-13 -6.800211571145534095e-14 -8.358719668028272154e-14
3.840000000000000000e+03 1.235204887390136719e+01 1.231775379180908203e+01 5.089233816812054056e-14 6.756194995821696025e-14 3.553628813196714475e-14 -1.159270026978784229e-13
3.841000000000000000e+03 1.297523784637451172e+01 1.273629951477050781e+01 1.862154636218804615e-13 1.713085240068884518e-13 1.072571935781252428e-13 -4.343884464370201259e-14
3.842000000000000000e+03 1.376346397399902344e+01 3.274877548217773438e+00 -1.965573496608315207e-14 1.517044275574017109e-13 3.961460947146146216e-14 7.951657317621305121e-14
3.843000000000000000e+03 1.572242259979248047e+01 3.989071369171142578e+00 -1.093659718858072324e-14 1.096902584496635413e-13 2.962609880184131905e-14 -2.001291351334723995e-14
3.844000000000000000e+03 3.838080215454101562e+01 8.492488861083984375e+00 5.615686138760872526e-14 1.613200675473769330e-13 6.524307868049569747e-14 -1.310631697571881804e-14
3.845000000000000000e+03 4.010836029052734375e+01 -9.307598114013671875e+00 2.824432582346908527e-13 1.324848434083869542e-13 1.244784304929233421e-13 -1.364606940900542353e-13
3.846000000000000000e+03 4.114725112915039062e+01 -6.338899135589599609e+00 -4.994620575416927610e-14 -1.129074115560797786e-13 -4.885608451544835862e-14 -6.295826490351763560e-14
3.847000000000000000e+03 6.421740722656250000e+01 1.668045043945312500e+01 -4.610105157863697567e-13 -1.730232710578372135e-12 -6.573729733304334300e-13 2.681089128920427500e-13
3.848000000000000000e+03 6.051362609863281250e+01 -1.103242492675781250e+01 6.896643087346554513e-13 -3.906937978432473146e-13 8.969115326742244099e-14 3.641796879252229280e-13
3.849000000000000000e+03 5.756699752807617188e+01 -7.578889131546020508e-01 -3.457814546845017212e-13 -8.773477820980812858e-13 -3.669387656137640397e-13 -3.636286692761114825e-13
3.850000000000000000e+03 3.285155057907104492e+00 7.216136455535888672e+00 -4.751554984433296880e-14 -2.491185426348185850e-13 -8.899023011543771844e-14 -3.331895916396272750e-14
3.851000000000000000e+03 5.847424030303955078e+00 4.830680847167968750e+00 9.152271632619293773e-14 3.922402225069177018e-14 3.922402225069177018e-14 -1.301682370967666494e-14
3.852000000000000000e+03 6.907357788085937500e+01 -1.220034980773925781e+01 2.678452078186399632e-13 -6.821299303400377156e-14 5.988966104725906847e-14 -1.010341373823379907e-13
3.853000000000000000e+03 9.970489501953125000e+00 4.002065181732177734e+00 5.258544860946463839e-15 4.800460972741865673e-14 1.597894620710294672e-14 9.226810531977672203e-14
3.854000000000000000e+03 4.165763473510742188e+01 1.556107044219970703e+01 1.804814774735742644e-14 2.250519242534901321e-13 7.293002464957287767e-14 -2.164522223567152959e-14
3.855000000000000000e+03 3.934525680541992188e+01 1.174102306365966797e+01 -1.363172270375800910e-13 1.474576076477759901e-13 3.342113124267585660e-15 3.170053669977572486e-14
3.856000000000000000e+03 3.303420257568359375e+01 2.034263801574707031e+01 2.804997885710609068e-14 -2.167333288749864750e-13 -5.660500280307845244e-14 -4.423234849682163017e-14
3.857000000000000000e+03 1.314912986755371094e+01 1.879368591308593750e+01 3.291497865823105051e-14 3.572385443018077922e-13 1.170460484176821803e-13 -1.803991289304422013e-14
3.858000000000000000e+03 1.220486450195312500e+01 1.726751899719238281e+01 5.481737364921614175e-14 3.895007417726442656e-13 1.332954336101185855e-13 3.240094824386030581e-14
3.859000000000000000e+03 4.537794494628906250e+01 1.923198318481445312e+01 -3.578163291920524736e-14 -6.108593584306168389e-14 -2.906027062868007937e-14 3.528127361660318706e-14
3.860000000000000000e+03 4.405552673339843750e+01 1.804235267639160156e+01 -1.601257680324073146e-14 9.607710406336206210e-14 2.401935733100345194e-14 -4.706872641212916930e-14
3.861000000000000000e+03 4.139243698120117188e+01 -1.020775604248046875e+01 4.015040524444485337e-13 1.720731711415610099e-13 1.720731711415610099e-13 -1.511469646816275547e-14
3.862000000000000000e+03 4.173164367675781250e+01 -9.617911338806152344e+00 1.657627756845164724e-13 1.167921418214132312e-13 8.476647660703162668e-14 -1.388387018200210044e-13
3.863000000000000000e+03 6.352555465698242188e+01 8.954154014587402344e+00 -7.453322762576361504e-14 -1.541724105151576207e-12 -4.848772208396190386e-13 -7.649063945170536671e-14
3.864000000000000000e+03 5.940379714965820312e+01 2.354663467407226562e+01 -5.171476311419120897e-13 -9.765253926666273010e-13 -4.481018963005400924e-13 5.998196188870819068e-13
3.865000000000000000e+03 6.595100402832031250e+01 -1.115799331665039062e+01 6.523390226435832329e-13 -3.552205459032148349e-13 8.913553353534151014e-14 2.274992260548058809e-13
3.866000000000000000e+03 6.538165283203125000e+01 -1.064281177520751953e+01 3.416329719119204356e-13 5.491223456304504535e-14 1.189635683799400434e-13 3.019439353494496325e-13
3.867000000000000000e+03 4.972651290893554688e+01 -8.303409576416015625e+00 -2.392544340000957864e-14 8.696700721762609665e-14 1.891246863706518705e-14 -1.892074414895986156e-13
3.868000000000000000e+03 4.947566223144531250e+01 -7.324733257293701172e+00 -2.353945218001168849e-13 3.636948394899509884e-14 -5.970750830601792569e-14 -1.101814291388537870e-13
3.869000000000000000e+03 4.938396072387695312e+01 2.089696693420410156e+01 -1.174025883021040384e-13 8.693745593216228862e-14 -9.139538863949577679e-15 9.059026180027393571e-14
3.870000000000000000e+03 4.827757644653320312e+01 2.128220748901367188e+01 -9.729049570096279242e-14 7.268144419647626364e-14 -7.382714604313011381e-15 1.871242655997803345e-14
3.871000000000000000e+03 6.280175018310546875e+01 6.443983078002929688e+00 -1.805037781570095756e-13 -1.175381515207407634e-12 -4.067656042723577503e-13 -1.536985870607271432e-13
3.872000000000000000e+03 6.332652282714843750e+01 8.102539062500000000e+00 -1.871946879190150570e-13 -1.590007639440393916e-12 -5.331607009183281232e-13 -1.143182635143444315e-13
3.873000000000000000e+03 6.710202789306640625e+01 -1.204611206054687500e+01 5.147364197204129521e-13 -9.965531682200670649e-14 1.245243329024009471e-13 9.968890845462891753e-15
3.874000000000000000e+03 6.647637939453125000e+01 -1.062173461914062500e+01 3.404803836874054079e-13 1.241169845936709870e-13 1.393792172605864965e-13 1.809614198940157070e-13
3.875000000000000000e+03 6.369350433349609375e+01 9.806225776672363281e+00 -6.673856617084999998e-14 -1.446881676969713482e-12 -4.540860688764108977e-13 -1.037774941393780626e-13
3.876000000000000000e+03 4.903917312622070312e+01 2.173375892639160156e+01 -1.960972210350922507e-13 6.464892233744648498e-14 -3.943448960929372971e-14 4.789691795850474498e-14
3.877000000000000000e+03 4.282861709594726562e+01 1.680555725097656250e+01 -4.763865083662333078e-14 2.026193069663145829e-13 4.649419751653373345e-14 -5.475889788266949387e-14
3.878000000000000000e+03 4.224153137207031250e+01 1.618316841125488281e+01 -8.130329769888769431e-14 1.481595201342431056e-13 2.005686774704616010e-14 9.140768247569222571e-14
3.879000000000000000e+03 3.570746994018554688e+01 4.894986629486083984e+00 -5.783436609393260985e-14 -7.053710236347085494e-14 -3.851144053722103944e-14 -5.970352386303404146e-14
3.880000000000000000e+03 6.701230621337890625e+01 -1.107270717620849609e+01 4.889411900528550792e-13 -1.907745744147634759e-13 8.944997927041661856e-14 6.096432901689027850e-14
3.881000000000000000e+03 3.446479034423828125e+01 -6.228903770446777344e+00 2.828369896417607526e-14 3.323782221675841697e-13 1.081985792194400942e-13 -1.984706344583531124e-13
3.882000000000000000e+03 5.747961807250976562e+01 2.320722770690917969e+01 -6.297742817691631689e-13 -2.927787407045606694e-13 -2.767659148736334451e-13 5.093170351612441582e-13
3.883000000000000000e+03 3.860905075073242188e+01 9.275768280029296875e+00 3.063837093644598830e-14 -9.744743904762775272e-15 6.268088702428026987e-15 2.725916856875874178e-14
3.884000000000000000e+03 3.331698608398437500e+01 1.734698677062988281e+01 -9.964834404678490909e-15 8.723125439211512622e-14 2.317992565741781169e-14 -1.407061180893828811e-13
3.885000000000000000e+03 3.316092300415039062e+01 1.807082748413085938e+01 -7.643395770094100344e-15 -4.902669050355253078e-14 -1.700102528917092626e-14 -1.737953720824456094e-13
3.886000000000000000e+03 5.664691925048828125e+01 -2.983714818954467773e+00 -3.686734619846865346e-13 -9.186124083626623360e-13 -3.861857665252155236e-13 -2.862763737003504172e-13
3.887000000000000000e+03 5.714494705200195312e+01 -2.365052700042724609e+00 -3.008610613246254228e-13 -5.521367326018211674e-13 -2.558993327569231147e-13 -3.722639601091981554e-13
3.888000000000000000e+03 1.658266067504882812e+01 8.009034156799316406e+00 2.188654395522335316e-13 2.768032656384755708e-13 1.487006183334763088e-13 -1.293675588745837879e-13
3.889000000000000000e+03 1.377642726898193359e+01 2.173173713684082031e+01 -1.276566200837658815e-13 3.679191960858155253e-14 -2.725940912611576200e-14 -5.023624338783630461e-14
3.890000000000000000e+03 1.285163593292236328e+01 2.165093803405761719e+01 -1.280496433712918769e-13 8.237442845893117038e-14 -1.370256294904890690e-14 -5.695935395436460547e-14
3.891000000000000000e+03 6.094009399414062500e+01 2.839150905609130859e+00 -2.191565749406002017e-13 -1.123320620549650428e-12 -4.027431600023279046e-13 -2.485985321678402249e-13
3.892000000000000000e+03 6.270519256591796875e+01 4.697809696197509766e+00 -1.524161520735298203e-13 -1.346347729483388100e-12 -4.496291847958661103e-13 -7.948025917969836485e-14
3.893000000000000000e+03 6.409362792968750000e+01 1.318411064147949219e+01 -1.134272458402051098e-13 -1.695645793914346555e-12 -5.427219004067174168e-13 1.118142511631441127e-13
3.894000000000000000e+03 5.814869689941406250e+01 -1.106058716773986816e+00 -1.882388017161729099e-13 -4.752756890304132842e-13 -1.990543553554921519e-13 -3.197556152148561814e-13
3.895000000000000000e+03 6.394322967529296875e+01 1.148796176910400391e+01 -1.292292011248474815e-13 -1.519414260207907486e-12 -4.945930275578047652e-13 -1.724854864514936692e-14
3.896000000000000000e+03 3.302664184570312500e+01 1.954224967956542969e+01 2.313653893579355192e-14 -8.158624058458852080e-14 -1.753491015582531176e-14 -9.591628299986457162e-14
3.897000000000000000e+03 1.289407825469970703e+01 1.470331764221191406e+01 1.029664600923820700e-14 2.331675976428859709e-13 7.303927157097794831e-14 -3.250098283493103868e-14
3.898000000000000000e+03 1.200163650512695312e+01 1.296853923797607422e+01 2.333053726339545664e-13 2.372408638897510746e-13 1.411638682466062611e-13 4.678767749209840343e-14
3.899000000000000000e+03 3.212882614135742188e+01 2.120444297790527344e+01 1.305761766344937930e-14 -6.303030336161571934e-14 -1.499180554004331256e-14 -8.579083081959593127e-14
3.900000000000000000e+03 5.922812271118164062e+01 -8.349862098693847656e-01 -1.689654546919300282e-13 -6.214251660995040449e-13 -2.371171835269247907e-13 -2.806837607390727518e-13
3.901000000000000000e+03 5.988716888427734375e+01 2.501872301101684570e+00 -3.336275483309392165e-13 -1.206692840267920008e-12 -4.620960732115708680e-13 -3.862962196215374844e-13
3.902000000000000000e+03 1.609708595275878906e+01 2.320743370056152344e+01 -2.494501458692732765e-13 5.322111295506110062e-14 -5.886870851901093715e-14 -3.962013551440934922e-15
3.903000000000000000e+03 6.834564208984375000e+01 -1.267780113220214844e+01 3.575412264433114329e-13 1.532319464456893821e-13 1.532319464456893821e-13 -2.875104600469184646e-14
3.904000000000000000e+03 6.973130035400390625e+01 -1.271496391296386719e+01 1.523521299352445513e-13 -2.620812943022413771e-14 3.784319930447317681e-14 -6.974585839425451184e-14
3.905000000000000000e+03 3.552884674072265625e+01 7.055082321166992188e+00 1.080139057081479226e-13 5.407249753408191993e-16 3.256639071911801575e-14 6.994235648549035345e-14
3.906000000000000000e+03 4.812432479858398438e+01 -6.932704925537109375e+00 -3.821136657956858418e-13 1.924079893621168796e-14 -1.088618602272488356e-13 -2.400279190765399959e-15
3.907000000000000000e+03 2.314599609375000000e+01 2.629574012756347656e+01 -8.589219694645974790e-14 -1.393546736339068559e-14 -2.994829997058148785e-14 -1.304106697847320917e-13
3.908000000000000000e+03 5.132672882080078125e+01 2.273962211608886719e+01 -2.164137331795920605e-13 -1.268458096534679641e-14 -6.872949339644870981e-14 4.487708625934908047e-14
3.909000000000000000e+03 5.055952072143554688e+01 2.245539093017578125e+01 -1.427999157723597312e-13 1.886419622940116447e-14 -3.718071450763485442e-14 1.789834150030603088e-14
3.910000000000000000e+03 4.662239074707031250e+01 -6.636208534240722656e+00 -3.481846972200330903e-13 7.953272778858308523e-14 -8.059559150706135933e-14 1.015183979767445357e-14
3.911000000000000000e+03 4.739161300659179688e+01 -6.790251255035400391e+00 -2.951982462726793210e-13 -3.501163931256962014e-14 -9.906296974133282918e-14 -1.989943820346947584e-14
3.912000000000000000e+03 3.822830963134765625e+01 -7.367006301879882812e+00 4.020401565374247255e-14 1.087321896474195693e-13 4.468086260678814925e-14 -2.668683958713391480e-13
3.913000000000000000e+03 1.400835323333740234e+01 1.049145984649658203e+01 3.906287592654253404e-14 1.082431331524656704e-13 4.419180272370246132e-14 -1.245557341078215585e-13
3.914000000000000000e+03 1.149587440490722656e+01 3.980661392211914062e+00 2.901139005135992821e-14 -1.044202142694251531e-14 5.570810333215339694e-15 9.025563635226344084e-14
3.915000000000000000e+03 3.687654018402099609e+00 4.040227890014648438e+01 -2.555179917478056506e-15 5.021653665809866496e-13 1.498830492227889999e-13 4.594981960572876167e-14
3.916000000000000000e+03 4.979864501953125000e+01 2.213036727905273438e+01 -1.429084850674069984e-13 7.379927018883597478e-15 -4.065857080268880930e-14 5.178778413050810769e-14
3.917000000000000000e+03 3.700823974609375000e+01 8.798063278198242188e+00 -1.897938085176648776e-14 -7.676044316232838449e-14 -2.872194872888776673e-14 -2.776222313019896526e-14
3.918000000000000000e+03 6.376737594604492188e+01 2.028399467468261719e+01 -7.906668483999290675e-13 -1.391129073914643133e-12 -6.545387604313390728e-13 3.444717113550849197e-13
3.919000000000000000e+03 6.312422180175781250e+01 2.264104461669921875e+01 -4.433971636033651187e-13 -1.242299123814516459e-12 -5.057089187514296480e-13 2.124067658955744453e-13
3.920000000000000000e+03 5.122262573242187500e+01 -7.254089832305908203e+00 -2.923209363372286651e-13 -2.625332405897101706e-13 -1.664562449465653571e-13 -1.133512026103324077e-13
3.921000000000000000e+03 3.657246780395507812e+01 1.059945678710937500e+01 6.808278035308826248e-14 -2.453273586881798973e-13 -5.317337417815384826e-14 1.562355117241259750e-13
3.922000000000000000e+03 3.458635330200195312e+01 9.852345466613769531e+00 2.019727972108614766e-13 8.655977410537696315e-14 8.655977410537696315e-14 6.938012312015726102e-14
3.923000000000000000e+03 4.064745330810546875e+01 -4.590106964111328125e+00 -2.300265826340325281e-13 1.301719284663507836e-13 -2.995639421742544994e-14 -2.584008048563146177e-15
3.924000000000000000e+03 4.483427810668945312e+01 -1.012051486968994141e+01 2.164320019861984412e-13 -3.647529056138160142e-13 -4.449627379879070310e-14 -1.451275081013059243e-13
3.925000000000000000e+03 6.006024169921875000e+01 1.486889362335205078e+00 -2.252585731875658692e-13 -9.257752984354050696e-13 -3.453101791051765845e-13 -4.196805934459507670e-13
3.926000000000000000e+03 4.134999847412109375e+01 -5.057730197906494141e+00 -2.326473703354731137e-13 -1.454569700364699569e-13 -1.134313048220883524e-13 -8.037131073515557667e-14
3.927000000000000000e+03 6.317000579833984375e+01 1.968983840942382812e+01 -7.435042165271354975e-13 -1.645422188258083285e-12 -7.166779105935439098e-13 2.849205517786029818e-13
3.928000000000000000e+03 2.898514366149902344e+01 2.176398086547851562e+01 -5.965028276010142516e-14 -4.843988301835369659e-14 -3.242705041116289433e-14 -5.901521811383161897e-14
3.929000000000000000e+03 3.005701637268066406e+01 2.304892921447753906e+01 -5.414006323470202733e-15 -9.382218716129028802e-14 -2.977085673252707898e-14 -8.329635944751348497e-14
3.930000000000000000e+03 3.515496063232421875e+01 8.477523803710937500e+00 2.057238521245910445e-13 1.253400188543432603e-13 9.931915993842757584e-14 9.076371381908088232e-14
3.931000000000000000e+03 6.150048446655273438e+01 -1.097012615203857422e+01 6.482571098843925572e-13 -4.243216970281279976e-14 1.817474800215948538e-13 1.765595997313060272e-13
3.932000000000000000e+03 6.240167999267578125e+01 -1.057203292846679688e+01 5.743579982279978235e-13 1.089005797973337242e-13 2.049775686642149597e-13 1.054589087497864730e-13
3.933000000000000000e+03 1.441831302642822266e+01 9.727936744689941406e+00 9.616675403049945725e-14 1.327162257045225169e-13 6.866488849949572981e-14 -2.047552860430317499e-15
3.934000000000000000e+03 5.291031265258789062e+01 -5.269487857818603516e+00 -4.400270024653568646e-13 -1.885829952483555894e-13 -1.885829952483555894e-13 -2.466423603981332535e-13
3.935000000000000000e+03 5.514688491821289062e+01 -6.407248020172119141e+00 -2.218704413985486679e-13 -3.467175548402257057e-13 -1.705764029373904589e-13 -2.243106687806889488e-13
3.936000000000000000e+03 1.451323890686035156e+01 2.299188995361328125e+01 -1.826997076846345602e-13 1.047039177907126140e-13 -2.339873629055022608e-14 3.258554043998954097e-14
3.937000000000000000e+03 1.363925170898437500e+01 2.286680984497070312e+01 -8.080529653601078999e-14 1.712484321014784427e-13 2.713294033082711693e-14 6.151210437684668728e-15
3.938000000000000000e+03 3.117314720153808594e+01 2.213738632202148438e+01 4.179625124733216124e-14 -2.783826974820345634e-14 4.187393772112253665e-15 -2.517461879150001414e-14
3.939000000000000000e+03 6.438660430908203125e+01 1.867899894714355469e+01 -7.540104608391717811e-13 -1.535547513795143537e-12 -6.868673923902945955e-13 3.346742100032024103e-13
3.940000000000000000e+03 6.471092987060546875e+01 1.974411010742187500e+01 -6.199466395968855625e-13 -1.329400999006136175e-12 -5.848042861598956588e-13 1.433220675386287501e-13
3.941000000000000000e+03 1.701172065734863281e+01 2.431141662597656250e+01 -1.480825011224151666e-13 -6.346393002050129684e-14 -6.346393002050129684e-14 -3.600285420810554748e-14
3.942000000000000000e+03 1.617294120788574219e+01 2.436580467224121094e+01 -1.256862452655993501e-13 1.291382636676302598e-13 1.035604821807091427e-15 -6.240723185484608679e-15
3.943000000000000000e+03 3.831714248657226562e+01 1.096081542968750000e+01 -1.554557264166200881e-13 -4.374840808086914723e-14 -5.976124407619173851e-14 -1.584589257768234671e-14
3.944000000000000000e+03 3.499371719360351562e+01 -2.981602430343627930e+00 -5.181203298972210380e-14 2.354579137458893967e-14 -8.479872145726770338e-15 -1.626320029980612286e-14
3.945000000000000000e+03 6.128520584106445312e+01 2.504001045227050781e+01 -1.823740404570742268e-13 -9.588660161014006533e-13 -3.423720454278494918e-13 2.990109245273875338e-13
3.946000000000000000e+03 6.081834411621093750e+01 2.270972633361816406e+01 -5.636149641614907058e-13 -1.339572008006439940e-12 -5.709560970713900563e-13 5.478874190271987299e-13
3.947000000000000000e+03 3.792090225219726562e+01 5.254606723785400391e+00 -1.349255044713962293e-13 1.251785811508601687e-13 -2.924076530292697186e-15 5.163259075391217479e-14
3.948000000000000000e+03 3.098834228515625000e+01 -4.768254756927490234e+00 -3.962112484889174224e-14 -6.273142948024293397e-14 -3.070576765399311847e-14 -3.071688411439288391e-13
3.949000000000000000e+03 3.026718330383300781e+01 -4.441328048706054688e+00 7.969366404856140229e-14 1.828450043282747739e-13 7.876160254592992627e-14 -6.136292916934099617e-14
3.950000000000000000e+03 1.170505714416503906e+01 1.888702774047851562e+01 7.077021260681881643e-15 4.878395796592376044e-14 1.675829444560805043e-14 -4.592236557384235529e-14
3.951000000000000000e+03 5.327415084838867188e+01 -6.257782459259033203e+00 -2.798369717373072607e-13 -3.029339203531461466e-13 -1.748312594956197286e-13 -1.934765688589232258e-13
3.952000000000000000e+03 5.365393829345703125e+01 -5.660509109497070312e+00 -5.568055782070868709e-13 -3.415706031819482069e-13 -2.695128462851942297e-13 -2.836768363614905475e-13
3.953000000000000000e+03 2.098672103881835938e+01 2.444090080261230469e+01 -1.873164438229851791e-13 -3.452752610189589733e-14 -6.655318792814571283e-14 -2.018879990484459541e-14
3.954000000000000000e+03 1.986197090148925781e+01 2.512391853332519531e+01 -1.190247309349953819e-13 1.761582382514472606e-14 -3.042267230236178621e-14 -3.555170074347538400e-14
3.955000000000000000e+03 7.350246429443359375e+01 3.956141662597656250e+01 5.141164051555499603e-14 9.065998277622833168e-14 4.262148495465592490e-14 -8.047294113629893664e-14
3.956000000000000000e+03 5.589913177490234375e+01 -6.705338001251220703e+00 3.980217983543324345e-14 -3.031985741034498583e-13 -7.901891760277862664e-14 -1.251310117805423672e-13
3.957000000000000000e+03 6.595941162109375000e+01 -1.012196922302246094e+01 6.111829792265766059e-13 -2.870758372772869160e-13 9.723214529529233818e-14 2.393813500287805818e-13
3.958000000000000000e+03 6.479821777343750000e+01 -1.003688144683837891e+01 4.585892754947751282e-13 1.450684461879597764e-13 1.810973246363367650e-13 2.406926654513474872e-13
3.959000000000000000e+03 6.262789154052734375e+01 -9.986331939697265625e+00 3.707954895817294760e-13 -6.984238626892361190e-14 9.028593302672083265e-14 1.138483702927892138e-13
3.960000000000000000e+03 5.956355667114257812e+01 -1.076317310333251953e+01 5.440802430985158811e-13 -2.586454542295030246e-13 8.563043666070385695e-14 1.763881060526731326e-13
3.961000000000000000e+03 3.555365371704101562e+01 7.695656299591064453e+00 -8.366870835486289737e-14 1.013948311163331839e-13 5.317835896704843981e-15 2.047164114659175138e-14
3.962000000000000000e+03 3.788661193847656250e+01 9.424933433532714844e+00 -6.644295167225824916e-14 -5.135102344971768928e-14 -3.533819084252688703e-14 1.615353663819100311e-15
3.963000000000000000e+03 1.625390815734863281e+01 4.651509284973144531e+00 2.815676599483233483e-14 1.493200365871444335e-13 5.324303755586783093e-14 -6.915453452938091772e-14
3.964000000000000000e+03 1.232657814025878906e+01 2.049230575561523438e+01 3.709431714701491578e-14 2.904032537446449291e-13 9.824927601088245810e-14 -3.212006534228720178e-14
3.965000000000000000e+03 1.842104721069335938e+01 4.193561553955078125e+00 1.039650780558769999e-14 3.704632358259712932e-13 1.142579276634456131e-13 -1.995872678283230894e-13
3.966000000000000000e+03 3.796457672119140625e+01 -3.745353937149047852e+00 -1.507949039074307773e-13 1.641283544620217305e-13 4.000034319344338701e-15 -7.188934641804908821e-14
3.967000000000000000e+03 1.675257492065429688e+01 6.977257251739501953e+00 1.312510619936799183e-13 3.765070937314374255e-13 1.523274507832933500e-13 -1.307243159207049921e-13
3.968000000000000000e+03 1.707231712341308594e+01 4.053719997406005859e+00 6.863585221006385240e-14 4.411738986284663433e-13 1.529429252515590587e-13 -1.307355645182445292e-13
3.969000000000000000e+03 6.183385086059570312e+01 3.306303322315216064e-01 -2.600739719069156131e-13 -8.434754630859409019e-13 -3.310648196558352296e-13 -6.962301151184832615e-14
3.970000000000000000e+03 1.135792922973632812e+01 5.414088249206542969e+00 -5.962930344806383065e-14 1.574483815894311967e-13 2.934572412003656761e-14 9.542925260772050500e-14
3.971000000000000000e+03 1.797564506530761719e+01 5.456388950347900391e+00 9.502819944785453887e-14 2.923565794836491261e-13 1.162154411333410353e-13 -7.699261150503899920e-14
3.972000000000000000e+03 1.295154857635498047e+01 3.968269109725952148e+00 -3.852039452250646465e-15 8.985102565401900665e-14 2.579969522525579761e-14 2.033456411067169345e-13
3.973000000000000000e+03 1.215330410003662109e+01 4.684005260467529297e+00 -4.284064287129671356e-14 2.739067382195176092e-14 -4.634990545396896339e-15 9.290014097622714684e-14
3.974000000000000000e+03 1.888118934631347656e+01 4.964191436767578125e+00 5.174658444795365853e-14 3.653092097485183265e-13 1.251167409694470267e-13 -6.923340346116566013e-14
3.975000000000000000e+03 5.099394607543945312e+01 2.360295295715332031e+01 -1.683678966645646424e-13 -2.640671799877380294e-14 -5.843238490722130196e-14 5.787223185480666610e-14
3.976000000000000000e+03 7.671414184570312500e+01 -1.231745338439941406e+01 2.124599866697163275e-14 9.105428000130699751e-15 9.105428000130699751e-15 4.295442988929906725e-14
3.977000000000000000e+03 4.902679443359375000e+01 -1.058190536499023438e+01 2.781129818628380601e-13 -6.381252134774612061e-14 6.429013950978029746e-14 -7.272922363096498422e-14
3.978000000000000000e+03 3.706589508056640625e+01 -2.817812681198120117e+00 -2.845579132569608927e-13 1.068013475509672905e-13 -5.332697174467715406e-14 -1.536215816014263602e-13
3.979000000000000000e+03 3.753447341918945312e+01 -7.312184810638427734e+00 9.638965244463532089e-14 2.243136503366632839e-13 9.621098947913686583e-14 -1.450333586951527143e-13
3.980000000000000000e+03 3.602347564697265625e+01 -5.075639724731445312e+00 -7.395440596719149440e-14 2.714052940722133656e-13 5.923526372100113013e-14 -2.042857257054248032e-13
3.981000000000000000e+03 3.596644973754882812e+01 -2.409557580947875977e+00 -1.501938628805862819e-13 7.288404770119591425e-14 -2.319294624788300480e-14 2.394193851962440889e-14
3.982000000000000000e+03 7.597351837158203125e+01 -1.087347507476806641e+01 9.195464891918400663e-14 8.516008265322533299e-14 5.313441743884372848e-14 1.136589262919381060e-13
3.983000000000000000e+03 5.471862030029296875e+01 -1.291037178039550781e+01 6.707814642278875361e-13 5.872303240461035356e-14 2.188513584765183762e-13 5.046221483750480685e-14
3.984000000000000000e+03 5.682390594482421875e+01 -1.261671352386474609e+01 6.369435144246149427e-13 -1.845336898695024153e-13 1.357229622743136299e-13 9.087599650656891237e-14
3.985000000000000000e+03 2.994388198852539062e+01 -6.849843978881835938e+00 1.188688497676462785e-13 1.881966398041903799e-13 9.211964416104556630e-14 -1.417248751082317293e-13
3.986000000000000000e+03 4.391419982910156250e+01 -1.027883625030517578e+01 2.593214000739391123e-13 -1.290547394427674077e-13 3.907999954460422698e-14 -1.177474188030630531e-13
3.987000000000000000e+03 4.490182876586914062e+01 -6.972773075103759766e+00 -7.581875258915252158e-14 -1.239956488180427030e-13 -5.994431838927949396e-14 3.596691290608765301e-14
3.988000000000000000e+03 4.349127197265625000e+01 -6.912014007568359375e+00 -1.935929173045580765e-13 -1.287193415007090169e-13 -9.669368306259099044e-14 -3.950003979501584550e-14
3.989000000000000000e+03 4.298046875000000000e+01 -1.044947719573974609e+01 3.247815699106842979e-13 -8.956264142866501854e-14 7.056567786697942601e-14 -1.502042576689149866e-13
3.990000000000000000e+03 1.435267353057861328e+01 3.965454816818237305e+00 -5.191402592096688862e-14 1.378794539479144543e-13 2.578962739164473300e-14 -4.183079663905298062e-14
3.991000000000000000e+03 4.515838623046875000e+01 -9.554406166076660156e+00 2.047052306310137570e-14 1.460259322315360375e-13 4.994893658839122397e-14 -4.393569384177065107e-14
3.992000000000000000e+03 7.519250488281250000e+01 -1.164771270751953125e+01 1.985118273646439835e-14 -1.287451997225227962e-13 -3.266820407937798265e-14 1.597926841843608226e-13
3.993000000000000000e+03 7.518154907226562500e+01 -1.236384487152099609e+01 -6.995899644773916418e-15 1.800055466011710181e-13 5.190289590803996711e-14 7.770206597286846706e-14
3.994000000000000000e+03 5.396997070312500000e+01 -1.229329299926757812e+01 6.583195902472305239e-13 1.448841182661100846e-13 2.409611139092548981e-13 1.915759760030832926e-13
3.995000000000000000e+03 5.251422882080078125e+01 -1.308203220367431641e+01 4.944097973906547150e-13 -6.261578576602019885e-14 1.295381987440058502e-13 2.358448383961951611e-14
3.996000000000000000e+03 4.866806411743164062e+01 -7.696562767028808594e+00 -3.747189461934113952e-13 2.240995915583649661e-14 -1.056926966194922379e-13 -1.050326207843559068e-13
3.997000000000000000e+03 8.373539924621582031e+00 4.027436256408691406e+00 4.268347421386778362e-14 -9.608445630934422943e-14 -1.602029496745611264e-14 7.355549410661618714e-14
3.998000000000000000e+03 3.956718921661376953e+00 7.973782539367675781e+00 -5.251551756933932336e-15 -7.087708783597157502e-14 -2.283859170846506276e-14 1.112584975998575157e-14
3.999000000000000000e+03 4.574486160278320312e+01 -7.187839984893798828e+00 -2.470456293961892369e-13 1.228780396661174890e-13 -3.725027624139516658e-14 -6.058929670916396448e-14
4.000000000000000000e+03 4.509771347045898438e+01 -1.112338924407958984e+01 3.023305347391036513e-13 -2.364373616597220673e-13 1.976795666719897981e-14 -1.566879628432313321e-13
4.001000000000000000e+03 3.929188537597656250e+01 -4.108027935028076172e+00 -2.083622852163888317e-13 4.795472287495716746e-14 -4.812226938005585708e-14 1.309002599104427608e-14
4.002000000000000000e+03 4.566039657592773438e+01 -1.153157520294189453e+01 2.875954140633962819e-13 -5.974861312088228238e-14 6.835404096038055766e-14 2.645869871668090484e-14
4.003000000000000000e+03 5.466810226440429688e+01 -1.224268341064453125e+01 5.237762263840539667e-13 -1.872830097384911574e-13 1.009479771909432833e-13 1.702632446923951770e-13
4.004000000000000000e+03 7.703972625732421875e+01 3.515840530395507812e+01 1.255411248048121653e-14 5.086407640561563248e-13 1.563584602504858312e-13 -5.340016894384708168e-14
4.005000000000000000e+03 3.390567016601562500e+01 1.506851959228515625e+01 -8.228674360823140521e-15 -4.927752406428884124e-14 -1.725185884990723673e-14 -8.920563906425395956e-15
4.006000000000000000e+03 3.444318008422851562e+01 1.527424716949462891e+01 9.300216440065803281e-14 -1.888966684893828019e-13 -2.876835258187014632e-14 -9.535054630626163541e-14
4.007000000000000000e+03 1.066122531890869141e+01 4.711926460266113281e+00 4.037705770860294807e-14 6.305540264190875877e-14 3.102973742752715425e-14 1.437665633242934948e-13
4.008000000000000000e+03 9.090256690979003906e+00 4.757641315460205078e+00 -2.538677174566700973e-15 4.466294277775603727e-14 1.263728010447327452e-14 4.732834878672619039e-14
4.009000000000000000e+03 4.753415298461914062e+01 -1.204363632202148438e+01 3.807003269486880503e-13 -3.858541090806522078e-13 -1.546127037468545632e-15 1.196024345100771269e-13
4.010000000000000000e+03 7.582579040527343750e+01 3.356055831909179688e+01 6.468651027151384181e-14 6.110473997449072936e-13 2.027201648734100470e-13 -1.339580979779417258e-13
4.011000000000000000e+03 7.601857757568359375e+01 3.288356018066406250e+01 3.844639518313548721e-14 5.654884113054370331e-13 1.811804422853849350e-13 -1.609165681563592964e-13
4.012000000000000000e+03 1.744062232971191406e+01 6.421405792236328125e+00 1.388149035823349475e-13 1.509940040838805841e-13 8.694266687885379707e-14 -6.882885374929342825e-14
4.013000000000000000e+03 1.690385055541992188e+01 4.692447662353515625e+00 1.498535724762245502e-13 -2.727893662368176264e-14 3.677239041694965738e-14 -1.314121066738754839e-13
4.014000000000000000e+03 3.530503082275390625e+01 -6.502934455871582031e+00 1.080876856659855612e-13 4.123308953388887810e-13 1.561255736238359448e-13 -2.744320070670325240e-13
4.015000000000000000e+03 7.597476196289062500e+01 3.028454971313476562e+01 4.873466742465713819e-14 7.071505382129361639e-13 2.267655599972120961e-13 -1.502488183782041409e-13
4.016000000000000000e+03 7.562661743164062500e+01 2.686231422424316406e+01 -6.723111921781016465e-14 5.201980339542000564e-13 1.358900784866751144e-13 -1.405010005908757797e-13
4.017000000000000000e+03 7.646275329589843750e+01 2.621338653564453125e+01 -9.110336047840270068e-14 6.472199078760842994e-13 1.668349703179416998e-13 -1.317196812776824655e-13
4.018000000000000000e+03 7.649948883056640625e+01 2.541910171508789062e+01 7.068473004178191244e-14 8.080595654408329054e-13 2.636232974539270968e-13 -1.350321086500058665e-13
4.019000000000000000e+03 7.598680877685546875e+01 1.985745811462402344e+01 -5.841944902005083429e-14 9.814839913024897555e-13 2.769193565860944561e-13 -4.798139424840031086e-14
4.020000000000000000e+03 7.605865478515625000e+01 1.834273719787597656e+01 -1.601119410665763354e-13 8.463995563451343074e-13 2.058862927150836852e-13 2.638471885906771425e-14
4.021000000000000000e+03 7.675403594970703125e+01 1.919990158081054688e+01 -7.624132716214232497e-14 1.019596950271872693e-12 2.830066909986772572e-13 2.131064930370376448e-14
4.022000000000000000e+03 7.677545166015625000e+01 1.843111801147460938e+01 -3.720628812637835625e-14 9.448244053453236369e-13 2.722854222907827859e-13 -1.338528626045748515e-13
4.023000000000000000e+03 7.610939788818359375e+01 1.285890579223632812e+01 -1.875164249137001304e-13 6.059000415108151127e-13 1.255150904001453571e-13 1.415394494316823959e-13
4.024000000000000000e+03 7.611871337890625000e+01 1.126146316528320312e+01 -1.816475978964546267e-13 7.685435946501451010e-13 1.760687949603489955e-13 2.119610368299384984e-13
4.025000000000000000e+03 7.680662536621093750e+01 1.292515945434570312e+01 -2.198166541638683219e-14 9.513492424395586511e-13 2.788102593850178001e-13 1.322550044062812888e-14
4.026000000000000000e+03 7.681261444091796875e+01 1.132808017730712891e+01 8.384769658101309808e-14 9.967046719211447581e-13 3.241657159716582193e-13 4.558971540666485744e-14
4.027000000000000000e+03 2.654381513595581055e+00 2.986829757690429688e+01 4.693635887939584528e-14 5.920024670133527955e-13 1.916816450573191610e-13 -1.172854080701149840e-14
4.028000000000000000e+03 7.749726867675781250e+01 -1.002505493164062500e+01 5.129426885411986214e-14 1.134851557887429918e-13 4.943382874811157179e-14 2.891723683355845557e-15
4.029000000000000000e+03 7.752919006347656250e+01 -4.535947322845458984e+00 8.475476722356878323e-14 4.023310547565661643e-13 1.461257465940404843e-13 1.683768955425962721e-13
4.030000000000000000e+03 7.680391693115234375e+01 -6.184782981872558594e+00 -5.246443470635631101e-14 -6.823570706951734288e-14 -3.621004185513573836e-14 1.143872865351502899e-13
4.031000000000000000e+03 7.682813262939453125e+01 7.342150688171386719e+00 -1.509794486697149662e-13 6.673096862412630781e-13 1.548990834687388740e-13 3.402113389183031300e-13
4.032000000000000000e+03 7.616693115234375000e+01 4.113866329193115234e+00 -3.089074948527809061e-14 8.102781683463899931e-13 2.338162215925754239e-13 3.315527648435623309e-13
4.033000000000000000e+03 7.683399200439453125e+01 5.749414920806884766e+00 -1.461787234226935572e-13 6.236162302698800008e-13 1.432312520541559331e-13 3.830240161498132956e-13
4.034000000000000000e+03 7.683020782470703125e+01 -1.389179825782775879e+00 -1.822669619400141272e-13 2.421422166509062945e-13 1.796258047902579702e-14 1.055069524585547369e-13
4.035000000000000000e+03 7.684484863281250000e+01 4.162159442901611328e+00 -1.264062639283469736e-13 5.405882447413745684e-13 1.242545834018865536e-13 4.067511301733550688e-13
4.036000000000000000e+03 7.684987640380859375e+01 3.372066259384155273e+00 -1.538433551558082701e-13 7.118332616060096818e-13 1.673969800665767171e-13 2.933646435585718359e-13
4.037000000000000000e+03 7.685184478759765625e+01 2.583057165145874023e+00 -2.269754886428596019e-13 2.687323833513305393e-13 1.252706756550833397e-14 3.770229842301603407e-13
4.038000000000000000e+03 7.753178405761718750e+01 2.533506751060485840e-01 -4.730632660772393638e-13 6.207756747880766035e-13 4.431373481052561236e-14 4.206959216754291297e-14
4.039000000000000000e+03 7.681605529785156250e+01 1.052819919586181641e+01 -2.747697631488160708e-13 7.972605323321169113e-13 1.567472280444848209e-13 2.141382909751424202e-13
4.040000000000000000e+03 7.681906127929687500e+01 9.729510307312011719e+00 3.014830816635075128e-14 9.736906376664467011e-13 3.011516817169601623e-13 8.885877060202385103e-14
4.041000000000000000e+03 7.752351379394531250e+01 7.415996074676513672e+00 1.501060289520877999e-13 1.025101119440929853e-12 3.525621363863890023e-13 6.591366450044156000e-14
4.042000000000000000e+03 7.679018402099609375e+01 1.765973091125488281e+01 -1.460712247772916195e-13 9.439188796908637435e-13 2.393542991845770684e-13 -2.164569488005609749e-14
4.043000000000000000e+03 7.680407714843750000e+01 1.609653282165527344e+01 -4.654847877592557803e-14 1.032322448010769556e-12 2.957321887375741198e-13 4.900739509301407781e-14
4.044000000000000000e+03 7.750692749023437500e+01 1.459214687347412109e+01 -1.292086961512603493e-13 9.511457376917831219e-13 2.465811029753878225e-13 4.529079409144702584e-14
4.045000000000000000e+03 7.682367706298828125e+01 -4.580563545227050781e+00 5.420736000236138150e-15 -1.806806250838691175e-13 -5.257796761447448841e-14 1.107056205604597943e-13
4.046000000000000000e+03 7.681538391113281250e+01 -5.379916667938232422e+00 9.303731287983729725e-14 2.686278662619029367e-13 1.084995605187856482e-13 1.529882042447874846e-13
4.047000000000000000e+03 7.653398132324218750e+01 2.463037681579589844e+01 -1.083058542481439568e-13 8.228512272598353938e-13 2.143636152916392201e-13 -4.982460570426144875e-14
4.048000000000000000e+03 7.659613037109375000e+01 2.306312561035156250e+01 -3.642765817181252419e-14 6.706523899592531368e-13 1.902674117435290690e-13 -1.658225152242204237e-13
4.049000000000000000e+03 7.740930938720703125e+01 2.164148139953613281e+01 4.342895468700987138e-14 1.070884266679561492e-12 3.342939531962574318e-13 -9.067945098148802452e-14
4.050000000000000000e+03 7.615864562988281250e+01 4.900837421417236328e+00 -1.325856877629552621e-13 3.091851590291544438e-13 5.297984070223339670e-14 4.595400665899362913e-13
4.051000000000000000e+03 7.613968658447265625e+01 -6.038727164268493652e-01 -2.904366200665031705e-13 2.872857117128257975e-13 -9.452745813339326689e-16 1.736496282054092455e-13
4.052000000000000000e+03 7.589923858642578125e+01 3.119721412658691406e+01 -2.075831605945818031e-14 4.943639898488672024e-13 1.420817131482510209e-13 -2.173321066297959070e-13
4.053000000000000000e+03 7.682205963134765625e+01 8.933105468750000000e+00 -1.744797340462456159e-13 7.944909920926113145e-13 1.860033801244151408e-13 3.525479604429837543e-13
4.054000000000000000e+03 7.682973480224609375e+01 6.544366836547851562e+00 4.157875944449862179e-15 8.252990305046559172e-13 2.488370837508413480e-13 9.885552798441846201e-14
4.055000000000000000e+03 7.684393310546875000e+01 1.002721905708312988e+00 -4.933992667557896006e-13 3.375545557047360257e-13 -4.675342009157965051e-14 7.237931093232244373e-14
4.056000000000000000e+03 7.683217620849609375e+01 -5.917116999626159668e-01 -3.206061989242253718e-13 5.259861014621225461e-13 6.161396940611643669e-14 6.340436327551858542e-15
4.057000000000000000e+03 3.698773860931396484e+00 3.203499603271484375e+01 -4.982625911257448914e-14 6.191591835590093407e-13 1.707998705576668774e-13 -5.736275847769214953e-14
4.058000000000000000e+03 7.690689086914062500e+01 3.130780601501464844e+01 -3.410984060307764576e-14 7.173966824237931750e-13 2.049860525462146588e-13 -3.288525457804600260e-14
4.059000000000000000e+03 7.596343994140625000e+01 3.209518814086914062e+01 8.402315437383914287e-14 6.993986553099906800e-13 2.350265435827753047e-13 -5.684570246163381246e-14
4.060000000000000000e+03 7.750310516357421875e+01 -9.257982254028320312e+00 1.700864790806985716e-13 3.016489510433706389e-13 1.415206249714626163e-13 2.190442922531121717e-13
4.061000000000000000e+03 7.682962799072265625e+01 -2.181757450103759766e+00 -8.888967714020326594e-14 7.396705318553353781e-13 1.952342638684295695e-13 1.521888761931225464e-13
4.062000000000000000e+03 7.682852935791015625e+01 -2.977468490600585938e+00 -1.501363730603902380e-13 -1.859321175484967420e-14 -5.061887527516538421e-14 1.162714808331313798e-13
4.063000000000000000e+03 7.680693817138671875e+01 1.451668453216552734e+01 5.147035683945866413e-14 9.370776724026974591e-13 2.965644223251739930e-13 5.185480476542665695e-14
4.064000000000000000e+03 7.680696868896484375e+01 1.530909538269042969e+01 -8.549936339431393750e-14 8.783764189092269081e-13 2.378631146215948178e-13 8.420977944904178836e-14
4.065000000000000000e+03 7.673867797851562500e+01 -1.082961368560791016e+01 4.863428385601213655e-14 6.659421142784713310e-14 3.456854960159731760e-14 6.123154419482648714e-14
4.066000000000000000e+03 7.666048431396484375e+01 2.150830841064453125e+01 -9.075147588705895219e-14 5.101178810959505761e-13 1.258099256284256340e-13 -1.829076712138444361e-13
4.067000000000000000e+03 7.693100738525390625e+01 3.875815963745117188e+01 -2.102217868098915643e-14 3.798735685820592289e-13 1.076554142598155905e-13 8.970264581045078733e-14
4.068000000000000000e+03 7.498781585693359375e+01 3.681364822387695312e+01 -3.544205232845331482e-15 2.501112652490006250e-13 7.397012012242895618e-14 -1.656476198612713557e-13
4.069000000000000000e+03 7.616265106201171875e+01 2.942987442016601562e+01 -4.558271891452053692e-14 4.837249849808100688e-13 1.314426811751395752e-13 -1.422832798846432323e-13
4.070000000000000000e+03 7.628540039062500000e+01 2.861032867431640625e+01 4.599651483804499674e-14 6.602260513473290349e-13 2.118667790035680398e-13 -1.112126612589497965e-13
4.071000000000000000e+03 7.675702667236328125e+01 -8.542716026306152344e+00 3.548418882944742725e-14 2.439622397328033987e-13 8.383393398968611021e-14 1.863656933854054842e-13
4.072000000000000000e+03 7.597760772705078125e+01 -1.012673950195312500e+01 6.552741070023002101e-14 2.808317746644077573e-14 2.808317746644077573e-14 6.321730113131515671e-14
4.073000000000000000e+03 6.215184402465820312e+01 -1.115544128417968750e+01 5.335140966164497733e-13 -6.873227844077928195e-14 1.394345386764375694e-13 2.160639805701765510e-15
4.074000000000000000e+03 6.007952880859375000e+01 -1.042560768127441406e+01 5.793371967051375027e-13 1.953261533906795050e-14 1.796609329406465005e-13 2.518067677113877689e-14
4.075000000000000000e+03 7.662766265869140625e+01 2.228625488281250000e+01 6.467771468138955315e-14 8.512360738163748941e-13 2.747741541676146371e-13 -1.386484785488584226e-13
4.076000000000000000e+03 3.434261322021484375e+01 1.581623840332031250e+01 1.578855522341680861e-14 -8.473537355720844877e-14 -2.068404482251113424e-14 1.915469295492560481e-14
4.077000000000000000e+03 2.460163497924804688e+01 2.416767883300781250e+01 -2.260364204836884383e-13 -7.399727938684971806e-14 -9.001011199404052032e-14 -1.557117607596525399e-14
4.078000000000000000e+03 5.872692108154296875e+01 -1.464529514312744141e+00 -2.887187288292542009e-13 -8.100008294306682011e-13 -3.296158647674712894e-13 -2.066158930145306494e-13
4.079000000000000000e+03 2.570543766021728516e+00 2.339484596252441406e+01 2.198787925008788974e-14 1.009252767079568680e-13 3.687394627919365897e-14 3.453558985555375827e-14
4.080000000000000000e+03 3.290959596633911133e+00 2.577609634399414062e+01 3.364260367684501762e-14 1.516711018931249377e-13 5.559411302624370221e-14 -4.445994624974886067e-15
4.081000000000000000e+03 2.549065351486206055e+00 2.660294342041015625e+01 -2.578671359830617821e-14 2.177032967960734755e-13 5.757497750042903095e-14 9.962117970016646368e-15
4.082000000000000000e+03 3.230803251266479492e+00 9.674457550048828125e+00 -3.893724738793756524e-14 -3.598195146784638476e-13 -1.196270323468653918e-13 8.607574559799796576e-14
4.083000000000000000e+03 3.862879276275634766e+00 1.846114158630371094e+01 -8.641358299494444895e-14 3.289732039297305066e-13 7.276788221467767048e-14 -1.447035172892283117e-13
4.084000000000000000e+03 3.859512805938720703e+00 1.214465999603271484e+01 -2.799776435810554659e-14 3.375190819649050156e-14 1.726242876229778633e-15 -1.933938510094261598e-14
4.085000000000000000e+03 3.222112417221069336e+00 1.050432968139648438e+01 6.473013924456101631e-15 2.774148734013370636e-15 2.774148734013370636e-15 1.035818769624073654e-13
4.086000000000000000e+03 2.467620372772216797e+00 1.455505275726318359e+01 -3.454197648397605569e-14 7.669819640510056047e-14 1.264686512930440418e-14 3.902169318464702996e-14
4.087000000000000000e+03 3.195996046066284180e+00 1.689874839782714844e+01 -9.093731322162065117e-15 3.163593248044910267e-13 9.217968185634695111e-14 8.523348314030260164e-14
4.088000000000000000e+03 3.149701595306396484e+00 1.292704105377197266e+01 -3.244379794659600635e-14 8.970990318874286218e-15 -7.041841864800042414e-15 -2.557276493429100350e-14
4.089000000000000000e+03 3.148247718811035156e+00 1.371318721771240234e+01 2.009326475278967739e-14 1.001132973721917396e-13 3.606196694342853060e-14 7.476260923007776310e-15
4.090000000000000000e+03 2.521239757537841797e+00 8.896249771118164062e+00 3.169683008359854004e-14 -3.216659455614577501e-14 -1.409294608781786981e-16 2.645554267191943532e-14
4.091000000000000000e+03 3.234931945800781250e+00 8.839872360229492188e+00 1.955182943444346705e-14 8.379355592909049771e-15 8.379355592909049771e-15 -1.710783444975379902e-14
4.092000000000000000e+03 3.251505851745605469e+00 8.017130851745605469e+00 6.551126879335419581e-15 -6.581879681034907836e-14 -1.778030068284256610e-14 1.155529122907894557e-13
4.093000000000000000e+03 3.185128211975097656e+00 1.850925636291503906e+01 6.332407471651424480e-14 2.787691139125719753e-13 1.026279552334731504e-13 1.372042534924719503e-13
4.094000000000000000e+03 3.250839233398437500e+00 2.091183662414550781e+01 1.081380468568975128e-13 4.634487577232816735e-14 4.634487577232816735e-14 3.536870435741877594e-14
4.095000000000000000e+03 4.161946773529052734e+00 5.621463775634765625e+00 -6.917436187661024638e-14 -5.252162975908671039e-14 -3.650879715189590813e-14 -1.858779243805314119e-14
4.096000000000000000e+03 4.230170249938964844e+00 4.852561473846435547e+00 2.807464106839834689e-14 -3.082246643245495354e-13 -8.404500104761472579e-14 -7.778535980476966594e-14
4.097000000000000000e+03 3.493041276931762695e+00 4.113962650299072266e+00 4.587830630805797560e-14 -9.471523771450301998e-14 -1.465107976074669222e-14 6.493170936908501667e-14
4.098000000000000000e+03 5.110472202301025391e+00 4.074882984161376953e+00 9.832679646621517167e-14 -7.223731432904473282e-14 7.826843624711594949e-15 4.333860676472393869e-14
4.099000000000000000e+03 3.333066225051879883e+00 2.899909210205078125e+01 -1.238129658341765790e-14 3.607013234104006205e-13 1.044960084716113624e-13 1.070952036091605414e-14
4.100000000000000000e+03 3.338514328002929688e+00 2.497352027893066406e+01 -1.273935113215579618e-13 5.978014985157445449e-14 -2.028400979624776779e-14 9.036348058710785836e-14
4.101000000000000000e+03 4.154614448547363281e+00 2.412880706787109375e+01 3.866674233403422090e-14 2.682016934929531971e-13 9.206052803759079417e-14 5.588232784500823946e-14
4.102000000000000000e+03 3.163028001785278320e+00 1.450351905822753906e+01 -1.454981697190244061e-14 1.767681595717107701e-13 4.866550210231614104e-14 -6.819683757460079029e-15
4.103000000000000000e+03 3.436564445495605469e+00 2.983295631408691406e+01 3.113600575757320514e-15 5.960967396773098059e-13 1.797631054428761033e-13 4.342844307910972979e-14
4.104000000000000000e+03 2.522482395172119141e+00 2.097995948791503906e+01 5.488911395171679197e-14 1.607767467336901346e-13 6.469975786680889906e-14 6.466352518545714911e-14
4.105000000000000000e+03 3.199098587036132812e+00 1.931618690490722656e+01 -1.005440237902659184e-13 2.660652460070161984e-15 -2.936501275431144253e-14 6.343155303312544846e-14
4.106000000000000000e+03 3.314904451370239258e+00 2.252449417114257812e+01 5.384324171416043914e-14 4.595115114152184543e-14 2.993831853433104317e-14 3.153580234406191951e-14
4.107000000000000000e+03 2.900625705718994141e+00 3.590169906616210938e+01 2.142786511107660358e-14 6.039457128848013667e-13 1.876120650978405080e-13 -4.768974725213349919e-14
4.108000000000000000e+03 1.543156337738037109e+01 8.278416633605957031e+00 2.268722725960389819e-13 1.429819262120657353e-13 1.109562542214205527e-13 1.827663954356048386e-15
4.109000000000000000e+03 3.469038486480712891e+00 3.130223464965820312e+01 -3.030044205994120166e-14 5.360254883186865715e-13 1.517175057461073173e-13 4.815846479195792784e-14
4.110000000000000000e+03 4.663338184356689453e+00 3.038159179687500000e+01 -4.022648913189902364e-14 3.487676727281785460e-13 9.256235101312570990e-14 1.550244782262504006e-14
4.111000000000000000e+03 7.567448425292968750e+01 3.572980880737304688e+01 -8.981421529619722927e-15 2.706565169468405641e-13 7.850252566055093695e-14 -1.180558336635537109e-13
4.112000000000000000e+03 2.580212593078613281e+00 2.823821640014648438e+01 -9.908154347980022147e-15 4.990140787565489067e-13 1.467317749508784130e-13 1.272161832799843795e-14
4.113000000000000000e+03 4.620806121826171875e+01 -1.192600059509277344e+01 4.021134011704396993e-13 -3.766770695270288405e-13 7.630893563792626871e-15 -2.373976395238924786e-13
4.114000000000000000e+03 6.469226074218750000e+01 1.215356636047363281e+01 -1.637401287691089835e-13 -1.579955675838629059e-12 -5.231087373165632659e-13 4.913324386018533274e-14
4.115000000000000000e+03 4.190233993530273438e+01 1.807073783874511719e+01 5.988442892474387866e-15 9.406837559334385590e-14 3.001704516458064687e-14 3.414537194114906915e-14
4.116000000000000000e+03 7.286748504638671875e+01 -1.111060523986816406e+01 9.695775405422699111e-14 -4.197624659565664731e-15 2.782803928426651890e-14 3.147535671769313703e-13
4.117000000000000000e+03 7.282553863525390625e+01 -1.247291183471679688e+01 1.191470289400517468e-13 5.106301191886049307e-14 5.106301191886049307e-14 1.593823678721836834e-13
4.118000000000000000e+03 3.614825439453125000e+01 7.638857841491699219e+00 3.347191772883062466e-13 -4.055603238222599272e-13 -2.125234463781246197e-14 -2.448379566037835187e-14
4.119000000000000000e+03 4.408570098876953125e+01 -6.742293357849121094e+00 -2.193400626057662173e-13 4.324996307272788165e-14 -5.282702918228514288e-14 -9.552921604802366851e-14
4.120000000000000000e+03 4.395237445831298828e+00 3.495273208618164062e+01 -4.614281013353002323e-15 4.326564605715288447e-13 1.284126613636943359e-13 -6.245140885821013482e-15
4.121000000000000000e+03 3.934466934204101562e+01 1.264725685119628906e+01 1.511092141172343251e-13 2.935158355515249395e-13 1.333875230321440730e-13 1.011475313770528184e-13
4.122000000000000000e+03 4.235588836669921875e+01 -1.003354358673095703e+01 3.378182607781388125e-13 9.902830237686760517e-14 1.310539675912492097e-13 5.430694143080533332e-14
4.123000000000000000e+03 5.648719024658203125e+01 -1.136860466003417969e+01 5.285044320582632515e-13 -2.538830690818061342e-13 8.238640211667355717e-14 1.767042526299063276e-14
4.124000000000000000e+03 5.601393890380859375e+01 -1.210311031341552734e+01 5.670466808778418244e-13 -3.517423440187184003e-13 6.459130376824245845e-14 6.652886791816414735e-14
4.125000000000000000e+03 3.292020034790039062e+01 -5.072405338287353516e+00 -3.025894760992110799e-14 -5.871906829041720344e-14 -2.669340477010149343e-14 -2.041246539201749255e-13
4.126000000000000000e+03 6.487065124511718750e+01 1.473796176910400391e+01 -2.950427987861992118e-13 -1.361722475230753293e-12 -4.970296093101400636e-13 2.293276245984854356e-13
4.127000000000000000e+03 1.422119998931884766e+01 8.574744224548339844e+00 1.504114758091312787e-13 1.273696182161818125e-13 8.333432685234121173e-14 5.156973074483053865e-14
4.128000000000000000e+03 1.492943191528320312e+01 4.628280639648437500e+00 -5.276036091307265141e-14 1.603922073281638383e-13 3.228955663503278728e-14 3.076260017662209301e-14
4.129000000000000000e+03 3.431312942504882812e+01 1.439883804321289062e+01 8.071624965633183990e-14 -9.408186713412772240e-14 -4.009685836261827827e-15 -8.905797919869090640e-14
4.130000000000000000e+03 3.591451644897460938e+01 -3.536373138427734375e+00 -9.547955281226025437e-14 -4.091980931614919159e-14 -4.091980931614919159e-14 4.776778778569582690e-15
4.131000000000000000e+03 3.609432983398437500e+01 -6.819112777709960938e+00 7.036494461100731290e-14 3.961640043792513666e-13 1.399586826641985304e-13 -6.777309833130851224e-14
4.132000000000000000e+03 6.491815185546875000e+01 1.560865211486816406e+01 -3.495412238731926413e-13 -1.476580901819957159e-12 -5.478366241554177840e-13 2.261720812805206871e-13
4.133000000000000000e+03 5.190349102020263672e+00 3.328882217407226562e+00 -9.300713140186073202e-14 -1.542375710657239996e-13 -7.417340802976998826e-14 7.078106140480724950e-14
4.134000000000000000e+03 6.747107982635498047e+00 4.053666114807128906e+00 4.678441472118557987e-14 -1.858288100221178185e-13 -4.171331655740059818e-14 5.410685954316965876e-15
4.135000000000000000e+03 3.518050003051757812e+01 1.085292434692382812e+01 8.695779827542354790e-14 1.439215364723231416e-14 3.040498625442311642e-14 -4.225683388273115959e-14
4.136000000000000000e+03 3.523964309692382812e+01 -3.671092033386230469e+00 -1.352850936744282029e-13 2.165263682327861483e-13 2.437238372276009923e-14 -2.027695909399482299e-13
4.137000000000000000e+03 3.548168945312500000e+01 -4.429770946502685547e+00 4.566046722171606190e-15 1.277719927474454953e-13 3.970141001976429385e-14 -2.151000528410364210e-14
4.138000000000000000e+03 5.666051483154296875e+01 -1.197784900665283203e+01 5.145291744751423479e-13 6.038419276318401918e-14 1.724740142372560570e-13 -5.515262336050876305e-16
4.139000000000000000e+03 5.633504867553710938e+01 -4.544688224792480469e+00 -2.329213211194058886e-13 -3.514536480852398226e-13 -1.753124961824045758e-13 -2.622651987076174418e-13
4.140000000000000000e+03 3.296771621704101562e+01 -4.320833206176757812e+00 -1.049412699750604250e-13 2.752818047298266624e-13 5.110216178168258683e-14 -1.303009620774037147e-13
4.141000000000000000e+03 4.607472610473632812e+01 1.978877830505371094e+01 -5.845234777972219131e-14 -2.505100449724361605e-14 -2.505100449724361605e-14 -8.546545497136945335e-14
4.142000000000000000e+03 4.424939346313476562e+01 1.937758636474609375e+01 -5.633961721630831310e-15 -4.816550532981550559e-14 -1.613984011543390107e-14 -1.081039419223092657e-13
4.143000000000000000e+03 4.236841201782226562e+01 1.744149017333984375e+01 -3.239167831528555475e-14 2.148725940015125402e-13 5.474427470586809563e-14 1.207040787850124919e-13
4.144000000000000000e+03 7.284253692626953125e+01 -1.179261684417724609e+01 4.987158553964796126e-14 -4.361359634986322620e-13 -1.158793113548162168e-13 2.635797396316474916e-13
4.145000000000000000e+03 6.376643371582031250e+01 6.982846260070800781e+00 -2.391927801659310404e-13 -1.292035814275116490e-12 -4.593686000163577088e-13 -1.202104279833526856e-13
4.146000000000000000e+03 6.397793960571289062e+01 7.867506980895996094e+00 -2.353064303736024376e-13 -1.564875941502397172e-12 -5.400547088522944517e-13 -1.066458526306421351e-13
4.147000000000000000e+03 4.565108108520507812e+01 2.059509086608886719e+01 -1.107263220456906894e-13 -9.320508638976585103e-14 -6.117942117538424651e-14 2.994779513894492429e-14
4.148000000000000000e+03 4.315232467651367188e+01 -5.799431800842285156e+00 -3.006085777437078610e-13 -1.745831940385550451e-13 -1.425575288241734406e-13 -5.687368165394751651e-14
4.149000000000000000e+03 3.907009124755859375e+01 -8.023282051086425781e+00 1.388189828930089242e-13 1.509957523598837170e-13 8.694442193112050798e-14 -1.670147988007755768e-13
4.150000000000000000e+03 4.111725234985351562e+01 -9.196694374084472656e+00 2.598973282679634123e-13 1.113845682896609512e-13 1.113845682896609512e-13 5.469283608904723648e-14
4.151000000000000000e+03 3.561153411865234375e+01 1.481232452392578125e+01 4.573196950795853366e-14 5.686108051419780374e-13 1.843028361219259392e-13 -4.786432413069439951e-14
4.152000000000000000e+03 3.407007598876953125e+01 1.748439979553222656e+01 -1.656242485281907151e-15 -4.646076682017150072e-14 -1.443510329985579071e-14 -1.106943922917109913e-13
4.153000000000000000e+03 6.112782669067382812e+01 -1.011926841735839844e+01 5.182774782258592339e-13 1.763679669973192143e-13 2.083936322117008189e-13 1.101956592923676592e-13
4.154000000000000000e+03 6.272724914550781250e+01 -1.134788322448730469e+01 8.829584199204765227e-13 -9.053647859625507666e-14 2.377265864630245806e-13 1.842844453425751539e-13
4.155000000000000000e+03 5.725445556640625000e+01 -3.320773601531982422e+00 -2.507258723555283453e-13 -4.848992843538291186e-13 -2.206875361707855143e-13 -3.183253357089133040e-13
4.156000000000000000e+03 4.063698196411132812e+01 1.560366725921630859e+01 -1.222722010446597452e-13 3.136052073408890362e-13 5.739990595462693412e-14 7.401719482550556117e-14
4.157000000000000000e+03 3.771435546875000000e+01 1.178685760498046875e+01 5.573922332263551993e-14 3.898958250442979834e-13 1.336905168817723033e-13 -2.069978303348429804e-13
4.158000000000000000e+03 5.106097412109375000e+01 -1.246432209014892578e+01 4.773396847061739390e-13 1.588232041542514406e-13 1.908488693686330451e-13 -1.699161644719282549e-13
4.159000000000000000e+03 6.245045089721679688e+01 5.702165126800537109e+00 -1.997460221314292794e-13 -1.412382905942310973e-12 -4.836386824878802226e-13 -1.927947276651742481e-13
4.160000000000000000e+03 6.350265502929687500e+01 6.057029724121093750e+00 -1.394067966533490965e-13 -1.272145908580435414e-12 -4.234658142806407843e-13 -2.247821205428671143e-13
4.161000000000000000e+03 4.912091445922851562e+01 -1.308772659301757812e+01 4.241406217127957623e-13 9.027265155010788522e-14 1.543239819788710943e-13 1.987601266028021091e-14
4.162000000000000000e+03 4.822510910034179688e+01 -1.331913566589355469e+01 4.130067327631076202e-13 -1.375348809449714049e-13 8.264155554544086457e-14 -1.755238478434034688e-13
4.163000000000000000e+03 7.046584320068359375e+01 -1.263745403289794922e+01 1.032348102944675994e-13 -2.760131533052767594e-13 -5.183350358086910581e-14 1.049768792401629958e-13
4.164000000000000000e+03 9.885809898376464844e+00 4.732021808624267578e+00 -5.369927321818152022e-14 1.142388728102641804e-13 1.816188055525115586e-14 3.220059107051677361e-14
4.165000000000000000e+03 5.325579833984375000e+01 -1.233731555938720703e+01 5.092770823111880674e-13 1.267597138365772480e-13 1.908110442653404570e-13 1.318261499310205420e-13
4.166000000000000000e+03 5.252560806274414062e+01 -1.236645507812500000e+01 5.218089957521876432e-13 1.321305261384186913e-13 1.961818565671819004e-13 1.198792990873484565e-13
4.167000000000000000e+03 5.400404739379882812e+01 -6.707265377044677734e+00 -2.139036018623807767e-13 -1.831748728392534886e-13 -1.191235424104902796e-13 -1.015946766817765745e-13
4.168000000000000000e+03 6.498251342773437500e+01 1.648892211914062500e+01 -3.130376546086471867e-13 -1.209306309604696317e-12 -4.567031973955193447e-13 1.924763516972238797e-13
4.169000000000000000e+03 4.493805694580078125e+01 1.999690246582031250e+01 -5.520930595830607357e-14 6.784076609939876379e-14 3.789438211734396517e-15 -7.131707063009334879e-14
4.170000000000000000e+03 7.203793334960937500e+01 -1.183988761901855469e+01 8.278254248544544835e-14 -1.027271648144532576e-14 2.175294788590333150e-14 1.065285555081063595e-13
4.171000000000000000e+03 6.855103302001953125e+01 -1.134362697601318359e+01 3.051975447539156949e-13 -3.953369478570251117e-13 -2.704181991449328831e-14 7.645919758870328709e-14
4.172000000000000000e+03 6.448414611816406250e+01 1.045380306243896484e+01 8.337698009637270848e-17 -1.326741776337680978e-12 -3.979975257781959153e-13 3.372895360361991002e-14
4.173000000000000000e+03 7.441560363769531250e+01 -1.169283103942871094e+01 -6.590141301589247380e-14 -3.942510651711722547e-13 -1.380457434561194185e-13 1.315900649079618234e-13
4.174000000000000000e+03 7.363463592529296875e+01 -1.174247455596923828e+01 -7.575944673031756449e-14 -2.612230906844786871e-13 -1.010947578363070865e-13 2.946837110266720128e-14
4.175000000000000000e+03 1.852534294128417969e+01 5.548757553100585938e+00 2.258496531069506541e-13 1.768568744144743965e-13 1.208119569011747996e-13 -1.542436019403084502e-13
4.176000000000000000e+03 3.643675994873046875e+01 5.007117748260498047e+00 -1.515704303332778696e-14 -2.937134856075690470e-14 -1.335851764763199695e-14 2.121523951252504009e-14
4.177000000000000000e+03 3.980116271972656250e+01 1.385542297363281250e+01 1.008225349995867104e-13 3.977795198263633925e-13 1.495806110267741684e-13 -1.747626646499687072e-15
4.178000000000000000e+03 3.385525512695312500e+01 1.956210708618164062e+01 1.949528490301655897e-14 -2.203996262838819886e-13 -6.027130021197396603e-14 -5.647827989790563108e-14
4.179000000000000000e+03 5.457301712036132812e+01 2.419707679748535156e+01 -3.791939635552910026e-13 -1.739494372111557996e-13 -1.659430107431650314e-13 2.050863547996967240e-13
4.180000000000000000e+03 4.178832626342773438e+01 1.680656814575195312e+01 -1.377713572972517550e-14 -5.904486680808436125e-15 -5.904486680808436125e-15 -6.179780943698851003e-14
4.181000000000000000e+03 3.749769210815429688e+01 7.916102409362792969e+00 1.049397453157553672e-13 1.822270226424851924e-13 8.615003377560395692e-14 -4.975869976470148615e-14
4.182000000000000000e+03 4.752333831787109375e+01 2.080815124511718750e+01 -1.259222083159136640e-13 3.222027357511212178e-15 -3.681005288991637259e-14 2.772303938605898133e-14
4.183000000000000000e+03 1.287349224090576172e+01 4.666934013366699219e+00 1.308217043808485025e-13 2.390702382153858663e-13 1.109675841341230262e-13 1.978253444303440522e-13
4.184000000000000000e+03 1.220006656646728516e+01 1.409496212005615234e+01 1.327101406198294420e-13 1.941286215979831642e-13 9.805162595483835064e-14 1.056109562460163034e-14
4.185000000000000000e+03 6.509476470947265625e+01 1.739482307434082031e+01 -6.121415223672710404e-13 -1.474746540164328934e-12 -6.260664187594799923e-13 2.747490277822672855e-13
4.186000000000000000e+03 6.482333374023437500e+01 1.387295818328857422e+01 -2.714036406639003252e-13 -1.420217892941777471e-12 -5.074864682132196325e-13 2.236843251856440729e-13
4.187000000000000000e+03 5.764583206176757812e+01 -1.739006161689758301e+00 -3.751574517620731575e-13 -8.756403263067424891e-13 -3.752393361311501252e-13 -3.164729491921675075e-13
4.188000000000000000e+03 6.476496124267578125e+01 1.301248264312744141e+01 -1.725213396620850492e-13 -1.309213371394890579e-12 -4.445203970540601013e-13 9.625136245753479480e-14
4.189000000000000000e+03 6.050487518310546875e+01 2.154526710510253906e+00 -2.428943819080681132e-13 -1.024835381488453656e-12 -3.803189317294619620e-13 -2.972314777117956996e-13
4.190000000000000000e+03 3.699568939208984375e+01 6.500751018524169922e+00 -8.003049855849833638e-14 1.029540629181660560e-13 6.877068969087136996e-15 3.720330318227223210e-14
4.191000000000000000e+03 6.416653442382812500e+01 8.737791061401367188e+00 -9.591322012872730007e-14 -1.230630289512923969e-12 -3.979630752541651884e-13 -5.338273361766079916e-14
4.192000000000000000e+03 5.084498214721679688e+01 -8.067682266235351562e+00 -3.488562791507249239e-14 -1.979547846172116654e-13 -6.985212375968524734e-14 -8.854519222868673101e-14
4.193000000000000000e+03 1.300968456268310547e+01 1.089189338684082031e+01 -4.323503835219726088e-14 7.297259313737008979e-14 8.921267790804564279e-15 -4.767069917521564448e-14
4.194000000000000000e+03 6.433744049072265625e+01 9.600338935852050781e+00 -1.475895279471131638e-13 -1.344279180158503006e-12 -4.475606354709810164e-13 -3.756012597569847317e-15
4.195000000000000000e+03 5.165428543090820312e+01 2.389976692199707031e+01 -3.168216015057845336e-13 4.722310663709573808e-14 -8.087955083229889097e-14 5.316519183988337172e-14
4.196000000000000000e+03 5.283219146728515625e+01 -7.424356937408447266e+00 -8.887752729960785025e-14 -1.295922733273585647e-13 -6.554093612233177768e-14 -5.135860608866150978e-14
4.197000000000000000e+03 2.663441658020019531e+01 2.307978248596191406e+01 -6.223558316918384459e-14 -1.639252427375337273e-13 -6.784824709438891377e-14 -3.555063009383005457e-14
4.198000000000000000e+03 5.972119522094726562e+01 -1.940030902624130249e-01 -1.815751189812239708e-13 -7.640821569204758745e-13 -2.836971651522246507e-13 -2.433605075270739437e-13
4.199000000000000000e+03 4.712268066406250000e+01 2.163562774658203125e+01 -3.691630809095174104e-14 7.568062523237786832e-14 1.162929395658171203e-14 1.495084133264820009e-14
4.200000000000000000e+03 1.242119407653808594e+01 1.883415031433105469e+01 3.314728252621322591e-14 2.429607350810242261e-13 8.283240223285262549e-14 -6.927687658015053984e-15
4.201000000000000000e+03 3.976491928100585938e+01 -7.735532760620117188e+00 1.550325080985903714e-13 1.121934508729709179e-13 8.016778565858931338e-14 2.179693600092014183e-14
4.202000000000000000e+03 3.831335067749023438e+01 -4.678484439849853516e+00 -1.862636699609745983e-13 5.742556088853337237e-14 -3.865143475461144118e-14 -6.733303422202380206e-14
4.203000000000000000e+03 3.306836700439453125e+01 1.879960441589355469e+01 8.879839409354356450e-14 -9.919639437118432657e-14 -3.119399151555986641e-15 -1.257194252402091955e-14
4.204000000000000000e+03 4.330254364013671875e+01 -9.863366127014160156e+00 1.817488623793647728e-13 -4.792273891086884507e-14 4.014783704054877833e-14 -2.293372536690298225e-14
4.205000000000000000e+03 5.038298797607421875e+01 -1.202058315277099609e+01 5.777084539915211536e-13 1.883459073382873217e-14 1.789629100294731767e-13 -1.997885093040635551e-13
4.206000000000000000e+03 3.848598861694335938e+01 1.173649406433105469e+01 1.010220010942697311e-13 3.178008258029191291e-13 1.256468480691566580e-13 9.406542791868741094e-14
4.207000000000000000e+03 6.460108947753906250e+01 1.130117511749267578e+01 -1.991615287402423440e-13 -1.412132455240466822e-12 -4.833881775759274468e-13 1.186480655477467616e-13
4.208000000000000000e+03 3.308404159545898438e+01 2.123753547668457031e+01 -5.898642576988855080e-14 4.334652482871487189e-14 -4.691971298791640377e-15 1.061900811423835411e-14
4.209000000000000000e+03 5.773667907714843750e+01 -2.703075408935546875e+00 -2.756705996288799643e-13 -7.586578392414222716e-13 -3.102985262400798083e-13 -2.315668002402654357e-13
4.210000000000000000e+03 5.822773742675781250e+01 -2.085336208343505859e+00 -1.828538270234533747e-13 -7.188792204744498537e-13 -2.705199074731073905e-13 -2.717613189606032931e-13
4.211000000000000000e+03 3.191084289550781250e+01 -6.291296958923339844e+00 1.014558649223805398e-13 2.722358200413915741e-13 1.121075075220107076e-13 -1.954321849750167983e-13
4.212000000000000000e+03 3.373157119750976562e+01 -5.249691486358642578e+00 -1.072160616582065740e-13 2.285559437022188778e-13 3.640196596845640675e-14 -1.611663141267913324e-13
4.213000000000000000e+03 6.807428741455078125e+01 -1.185269546508789062e+01 3.962686027838419056e-13 -2.419291438189585808e-13 4.630184311047585988e-14 7.114468587279994261e-15
4.214000000000000000e+03 4.921475982666015625e+01 -8.875348091125488281e+00 3.259887612671111268e-14 -2.405187052127721881e-13 -6.237594669293924921e-14 -8.026931441577900284e-14
4.215000000000000000e+03 4.881567764282226562e+01 -7.088899135589599609e+00 -3.066133501608558909e-13 -1.314057234335849755e-13 -1.314057234335849755e-13 -1.215031493386614647e-13
4.216000000000000000e+03 3.481291198730468750e+01 1.763021850585937500e+01 -2.636370566571222956e-14 1.259541109648390500e-13 2.987712209795781448e-14 -4.621675018059469287e-14
4.217000000000000000e+03 1.267820358276367188e+01 1.161872386932373047e+01 1.039010931870414101e-13 1.360309434539352935e-13 7.197960624890850645e-14 3.988971222020250285e-14
4.218000000000000000e+03 1.330606365203857422e+01 1.200088596343994141e+01 5.064720005692156801e-14 2.170594263952840136e-14 2.170594263952840136e-14 -1.627260609246561351e-13
4.219000000000000000e+03 3.770445632934570312e+01 8.663211822509765625e+00 7.502283977433091278e-14 -5.934925402691082486e-14 4.702075131302963298e-15 1.555593625917825462e-13
4.220000000000000000e+03 3.665190887451171875e+01 7.456207275390625000e+00 5.623528308599731740e-14 1.613536778147239836e-13 6.527668894784274811e-14 5.137071527167545726e-14
4.221000000000000000e+03 4.207901763916015625e+01 -9.032073974609375000e+00 3.337036322183933867e-13 1.430158346350102194e-13 1.430158346350102194e-13 -3.928797662634125887e-14
4.222000000000000000e+03 7.468623161315917969e+00 4.808922290802001953e+00 5.322768254260000498e-14 -1.601919280818514535e-13 -3.208927400058861346e-14 1.977018732846557401e-15
4.223000000000000000e+03 1.169382095336914062e+01 1.463771724700927734e+01 6.222774303222405878e-14 2.096728281449078413e-13 8.157016728738142319e-14 -2.080682902447922311e-14
4.224000000000000000e+03 3.530420684814453125e+01 1.169194316864013672e+01 7.371983882717425551e-14 1.917225330317490206e-13 7.963271155767698284e-14 -1.703517562472514624e-13
4.225000000000000000e+03 3.531624984741210938e+01 1.003783130645751953e+01 3.109602622597927579e-14 -7.817502884182453426e-14 -1.412370095416016699e-14 -8.317166264515049590e-14
4.226000000000000000e+03 3.377600860595703125e+01 -4.491645812988281250e+00 2.123903775021109691e-14 -3.664850337808424341e-14 -4.622839857768533400e-15 -2.522645449736654610e-13
4.227000000000000000e+03 3.362168502807617188e+01 -6.012465953826904297e+00 5.676921115133201287e-15 1.854367625165470601e-13 5.733410165902064204e-14 -2.753603551772232372e-13
4.228000000000000000e+03 7.123233795166015625e+01 -1.188452053070068359e+01 4.124100082161623326e-14 -3.483328805519575466e-13 -9.212756561316828852e-14 2.504847457923675691e-13
4.229000000000000000e+03 4.045811462402343750e+01 1.437157344818115234e+01 -6.216357859240365102e-15 3.290302329640032442e-13 9.684416354786840042e-14 8.899383000546354922e-15
4.230000000000000000e+03 3.924670791625976562e+01 1.651775932312011719e+01 1.301298072119497218e-13 2.845246553553198998e-13 1.243963428359390333e-13 -4.459912731550989828e-14
4.231000000000000000e+03 4.787529373168945312e+01 2.211971855163574219e+01 -1.214192320905110867e-13 -5.203681181700087199e-14 -5.203681181700087199e-14 3.326203516177544950e-14
4.232000000000000000e+03 5.085168838500976562e+01 -1.184231853485107422e+01 4.139299038079247151e-13 6.302115540578537289e-14 1.430853184417393842e-13 -4.304656335703781200e-14
4.233000000000000000e+03 5.013730239868164062e+01 -7.658686161041259766e+00 -2.160712201607767335e-13 -2.069793175827477905e-13 -1.269151613230573572e-13 -1.583793317848358750e-13
4.234000000000000000e+03 6.019883346557617188e+01 4.570575654506683350e-01 -2.686887984239966221e-13 -9.386693896121234282e-13 -3.622074699633631711e-13 -4.114823445085930009e-13
4.235000000000000000e+03 6.173809432983398438e+01 4.261436939239501953e+00 -1.911598863143376681e-13 -1.271450284466568714e-12 -4.387830702078099332e-13 -2.231454224958101529e-13
4.236000000000000000e+03 4.655744171142578125e+01 -7.335396766662597656e+00 -3.157542044669725545e-13 -3.183270162222806565e-13 -1.902243689172813945e-13 8.676824585435519155e-14
4.237000000000000000e+03 4.731907653808593750e+01 -7.495445728302001953e+00 -2.795568410009913185e-13 -7.405912634452643806e-14 -1.060847847826444645e-13 -7.586605768519077975e-14
4.238000000000000000e+03 1.488330841064453125e+01 8.980792045593261719e+00 6.232623602333078883e-14 1.124942763182541772e-13 5.244615234722277419e-14 -6.021053068020615351e-14
4.239000000000000000e+03 6.092893600463867188e+01 -1.060921669006347656e+01 3.769062427612379640e-13 -1.129744491316572730e-13 7.917953537836877609e-14 7.455310918310156798e-14
4.240000000000000000e+03 4.219362258911132812e+01 -5.474380970001220703e+00 -2.027550761833640802e-13 -1.555214561733270218e-13 -1.074829651280181930e-13 6.246746690882418185e-14
4.241000000000000000e+03 3.631473922729492188e+01 8.840762138366699219e+00 1.198277317215196147e-13 -8.589810584829979390e-14 1.017888979484501966e-14 1.205888958567130631e-13
4.242000000000000000e+03 6.208924865722656250e+01 4.989609718322753906e+00 -2.306304832441069541e-13 -1.151113492720012843e-12 -4.145231792367087831e-13 -3.502583965052374904e-13
4.243000000000000000e+03 6.666092681884765625e+01 1.683396911621093750e+01 -4.853248879166383034e-13 -8.485096848233342204e-13 -4.001503718219917571e-13 1.446264711723460605e-13
4.244000000000000000e+03 6.530884552001953125e+01 1.831805229187011719e+01 -6.131211532402203179e-13 -1.132034244989699179e-12 -5.235466465740301611e-13 9.197203003526166487e-14
4.245000000000000000e+03 3.809327697753906250e+01 1.019109725952148438e+01 1.688728502738726100e-13 2.662313322273138216e-14 5.864879843711298668e-14 8.437729546095437683e-14
4.246000000000000000e+03 3.701260375976562500e+01 1.194176864624023438e+01 7.497039827050050453e-14 9.254695534227641573e-15 2.526752814141844383e-14 2.371526233854379107e-14
4.247000000000000000e+03 1.107060337066650391e+01 1.305949020385742188e+01 4.850675457547352909e-14 2.952943065851615367e-13 1.031403152988719096e-13 3.378089705207733273e-14
4.248000000000000000e+03 3.567240524291992188e+01 8.771418571472167969e+00 -5.698202055603313054e-14 -2.074246671776233675e-13 -7.932200632009694941e-14 -3.803532331756939722e-14
4.249000000000000000e+03 1.337126922607421875e+01 1.014566040039062500e+01 1.944924662945421434e-13 2.206067631089353442e-13 1.245297674657905307e-13 -1.828704491980102931e-14
4.250000000000000000e+03 1.364226722717285156e+01 1.125124645233154297e+01 1.572294676182792172e-13 6.738405948676640111e-14 6.738405948676640111e-14 -1.405890293369521302e-14
4.251000000000000000e+03 2.078270530700683594e+01 2.557869338989257812e+01 -1.020322810073824582e-13 -2.085264673066210273e-14 -3.686547933785290498e-14 -4.984475492401073404e-14
4.252000000000000000e+03 4.286678695678710938e+01 -6.480077743530273438e+00 -8.492654550527195534e-14 9.353857681362702514e-15 -2.267180583895300749e-14 -6.097276546504493133e-14
4.253000000000000000e+03 6.067395401000976562e+01 2.403173446655273438e+01 -3.420193544611399572e-13 -1.187413774077217266e-12 -4.588299683770669102e-13 4.542876762703845772e-13
4.254000000000000000e+03 5.985320281982421875e+01 2.453825950622558594e+01 -3.598718545383405853e-13 -8.576516233316233695e-13 -3.652570325189674616e-13 4.554957214360222384e-13
4.255000000000000000e+03 4.028316497802734375e+01 -5.137393474578857422e+00 -1.529445515548177870e-13 1.803636856837972924e-13 8.225738544627957116e-15 -4.011465367780714386e-14
4.256000000000000000e+03 1.780301475524902344e+01 2.415270423889160156e+01 -9.729260989519913916e-14 9.555601617047479457e-14 -5.209779903623612887e-16 -7.699580312518425340e-14
4.257000000000000000e+03 1.440912055969238281e+01 2.419060134887695312e+01 -9.960458971286154095e-14 2.593874245981116905e-14 -2.209975366769534322e-14 -1.204673296881231259e-14
4.258000000000000000e+03 6.275260162353515625e+01 2.135518836975097656e+01 -6.781050330625926215e-13 -1.354326048010057182e-12 -6.097293351638166659e-13 2.547079300946331060e-13
4.259000000000000000e+03 6.078196716308593750e+01 6.840359419584274292e-02 -2.386501640836563576e-13 -9.429523134540929163e-13 -3.544807405508193510e-13 -1.785354362179164545e-13
4.260000000000000000e+03 6.315087890625000000e+01 3.688652276992797852e+00 -1.793853151958735292e-13 -1.117713452174207145e-12 -3.891296464740567895e-13 -8.692060336464371706e-14
4.261000000000000000e+03 1.242352199554443359e+01 1.964437675476074219e+01 -4.407991305950195726e-14 9.548598348639580902e-14 1.542182045044179772e-14 2.209301297950109350e-14
4.262000000000000000e+03 3.028704261779785156e+01 -6.247941017150878906e+00 -2.431338279578615369e-14 -2.391747553048134689e-13 -7.904644278543260238e-14 -2.181624835211753988e-13
4.263000000000000000e+03 2.970316505432128906e+01 -5.942264080047607422e+00 1.424895493479585995e-13 6.106694875251603150e-14 6.106694875251603150e-14 -1.261499043246627760e-13
4.264000000000000000e+03 6.570093536376953125e+01 1.921413230895996094e+01 -5.582361829736814940e-13 -1.200014046465192052e-12 -5.274750363055968894e-13 1.127714526036500964e-13
4.265000000000000000e+03 3.003947830200195312e+01 2.553998374938964844e+01 -6.524635839206746613e-14 1.778822552309707733e-14 -1.423743969128452719e-14 -9.392832377771304087e-14
4.266000000000000000e+03 2.892814445495605469e+01 2.425606155395507812e+01 -1.025721527029080371e-13 -8.971044528982910493e-14 -5.768478007544750041e-14 -1.045730613647571916e-13
4.267000000000000000e+03 1.197209167480468750e+01 1.649177169799804688e+01 3.796524658777715444e-14 8.489724494156053458e-14 3.685874711998812781e-14 3.471743766493388950e-14
4.268000000000000000e+03 1.160061740875244141e+01 1.354592704772949219e+01 -5.281780329942364904e-14 2.311474816619248779e-14 -8.910916201156169475e-15 -2.363060139546572375e-14
4.269000000000000000e+03 1.666685867309570312e+01 2.691044616699218750e+01 -6.541275039125904814e-15 5.438528181403098904e-14 1.435320199011987791e-14 4.742113531686726821e-15
4.270000000000000000e+03 1.904389953613281250e+01 2.494801902770996094e+01 -1.579350663921327835e-13 4.669091583633586118e-14 -3.337324381148636110e-14 -6.170195918867721341e-14
4.271000000000000000e+03 3.087510681152343750e+01 2.454211997985839844e+01 -2.469577920795589659e-14 -2.393386595682389650e-13 -7.921032672006736441e-14 -6.689388490832212653e-14
4.272000000000000000e+03 3.105871772766113281e+01 2.325397682189941406e+01 -5.617580104430933141e-14 9.030202665271866436e-14 1.023786869896233659e-14 -1.563550992237511261e-14
4.273000000000000000e+03 6.358002090454101562e+01 2.189596557617187500e+01 -4.716098388549139209e-13 -1.303000676106114142e-12 -5.323831653303301437e-13 1.635370170446209803e-13
4.274000000000000000e+03 7.625132751464843750e+01 4.168009567260742188e+01 3.182165224683772276e-14 4.025209256620226883e-13 1.303027645635154719e-13 1.308673357397829862e-14
4.275000000000000000e+03 5.524785995483398438e+01 2.590217018127441406e+01 -2.808656356535071952e-13 -3.948766769297507029e-13 -2.027226856434610758e-13 3.258055988625968569e-13
4.276000000000000000e+03 2.195184707641601562e+01 2.603207588195800781e+01 -8.827149216650634345e-14 1.794863628383491783e-13 2.736446154036602935e-14 -9.493470733926839822e-14
4.277000000000000000e+03 1.634998130798339844e+01 2.560147666931152344e+01 -1.244631161372369843e-13 -3.046586081827638848e-14 -4.647869003733540172e-14 -2.138889481923932773e-14
4.278000000000000000e+03 7.577878570556640625e+01 4.006378173828125000e+01 1.763691494553135813e-14 2.935021203940429979e-13 9.334170941602618066e-14 -5.088858411809830951e-14
4.279000000000000000e+03 7.275300598144531250e+01 3.694511032104492188e+01 1.367076753449464332e-13 1.379382990208261051e-13 8.239379502023719271e-14 -1.033645960707776923e-13
4.280000000000000000e+03 5.865211105346679688e+01 -1.041303253173828125e+01 4.608779720707834038e-13 -3.057413263535257997e-13 4.654099100467185002e-14 2.046544357592328112e-13
4.281000000000000000e+03 5.033470153808593750e+01 -8.754532814025878906e+00 6.806897371604801739e-15 -2.143997598815644556e-13 -6.227786027764720123e-14 -7.254180573292370870e-14
4.282000000000000000e+03 5.222552871704101562e+01 -6.611705780029296875e+00 -3.018245646902589785e-13 -2.894817090030865625e-13 -1.773918739764873687e-13 -2.114546195476976753e-13
4.283000000000000000e+03 1.559620666503906250e+01 4.632182598114013672e+00 8.437254530018617471e-14 8.191061354580544962e-14 4.988494833142384510e-14 -5.684415069727444259e-14
4.284000000000000000e+03 1.673085212707519531e+01 5.320200443267822266e+00 -1.268881867118190968e-14 6.318835970957337178e-14 1.514986188800096500e-14 3.441262354150200972e-15
4.285000000000000000e+03 6.029852294921875000e+01 -5.833439230918884277e-01 -2.250340891277527455e-13 -7.255187119484252101e-13 -2.851658525201278271e-13 -2.871987315935381480e-13
4.286000000000000000e+03 3.479392623901367188e+01 1.478617191314697266e+01 -3.307540331030922598e-14 2.603305212459799955e-13 6.817653673595394648e-14 -1.415736560102243136e-13
4.287000000000000000e+03 3.215742874145507812e+01 -4.949760437011718750e+00 -4.838819706791223918e-14 2.766433729230882710e-13 6.847654902960784162e-14 -1.312541926274529702e-13
4.288000000000000000e+03 6.111889266967773438e+01 1.794632911682128906e+00 -1.897509926962470672e-13 -1.059248392124012561e-12 -3.746998100250670261e-13 -2.078809401093867359e-13
4.289000000000000000e+03 5.349480056762695312e+01 -7.231966018676757812e+00 -1.801692475766891732e-13 -4.089097766987737081e-13 -1.767237072826388644e-13 -6.523523176727233364e-14
4.290000000000000000e+03 5.480369567871093750e+01 -7.100730895996093750e+00 -9.844073764421392564e-15 -9.572078779563827911e-14 -3.166945736687507007e-14 -1.521455894213860627e-13
4.291000000000000000e+03 1.141547679901123047e+01 4.697963237762451172e+00 5.674322841567498721e-14 7.006947241395070081e-14 3.804381058770088531e-14 7.974622074887263712e-14
4.292000000000000000e+03 4.399949645996093750e+01 -7.303811073303222656e+00 -1.007519466618943260e-13 -3.176850872210063015e-13 -1.255311094872438304e-13 -8.647965834109386241e-14
4.293000000000000000e+03 1.654017639160156250e+01 5.915203094482421875e+00 8.658410766788568469e-14 2.429867559331638782e-13 9.887125569218307986e-14 -1.938366967749096531e-14
4.294000000000000000e+03 1.754712867736816406e+01 4.754737377166748047e+00 2.497872378772261759e-14 2.852108469102859756e-13 9.305687595278708257e-14 -1.497229532194943591e-13
4.295000000000000000e+03 1.735062408447265625e+01 5.420022964477539062e+00 5.203230560172147912e-14 -1.835797139304595760e-13 -3.946422046574235565e-14 -1.537672577158269438e-13
4.296000000000000000e+03 1.047500896453857422e+01 7.560390949249267578e+00 1.232083689630195100e-13 7.567905991549134237e-14 5.966623408456411815e-14 1.624417153523946555e-13
4.297000000000000000e+03 3.861440277099609375e+01 -3.944055318832397461e+00 -2.111665199254139647e-13 4.356359836667905716e-13 6.734083370140211966e-14 -7.679924404757620948e-14
4.298000000000000000e+03 6.653423309326171875e+01 -9.635499954223632812e+00 3.156973922731343141e-13 -2.078332352137973738e-13 3.235925050593287111e-14 3.723519702205496662e-13
4.299000000000000000e+03 5.980172348022460938e+01 -1.219480276107788086e+00 -2.741089419246861558e-13 -7.351130880232925602e-13 -3.027666008528773212e-13 -1.484028286542760089e-13
4.300000000000000000e+03 3.626401519775390625e+01 8.210945129394531250e+00 -7.732006766618393367e-14 1.041156771257670255e-13 8.038682329655159192e-15 1.691992866073490503e-14
4.301000000000000000e+03 5.177670288085937500e+01 -1.237154769897460938e+01 3.897278279176713545e-13 -2.447323214308655404e-13 4.349865533417353325e-14 -4.606819415417344465e-14
4.302000000000000000e+03 1.539169216156005859e+01 5.860649585723876953e+00 3.419039343636152972e-14 -7.684887340202173345e-14 -1.279754382029147167e-14 -1.370221752901301659e-13
4.303000000000000000e+03 1.210143280029296875e+01 5.387761592864990234e+00 3.086922807215425335e-14 1.962334645905922104e-13 6.813081050932937033e-14 1.047353325486603814e-13
4.304000000000000000e+03 7.672766876220703125e+01 -1.157564926147460938e+01 1.055059919231925505e-14 5.027263531138213837e-14 1.824697009700053385e-14 9.449731307783343359e-14
4.305000000000000000e+03 4.523197555541992188e+01 -8.077522277832031250e+00 4.836445981659838467e-14 -4.825327962719450081e-13 -1.302505060188016706e-13 -1.396802053361956286e-13
4.306000000000000000e+03 7.519953155517578125e+01 -1.092312049865722656e+01 9.416146790237889252e-14 -5.114698337711949538e-14 1.290434620461076640e-14 6.829472832528202253e-14
4.307000000000000000e+03 4.451530075073242188e+01 -1.070155715942382812e+01 2.457413070776348629e-13 1.381581040706385960e-14 7.786713575362938511e-14 -3.614677527023942016e-14
4.308000000000000000e+03 4.574336242675781250e+01 -9.964422225952148438e+00 1.078496084214349005e-13 -3.197863252413918334e-13 -6.358101707886615328e-14 -1.375285790198438329e-13
4.309000000000000000e+03 5.395361328125000000e+01 -1.159807109832763672e+01 4.436682412515408069e-13 -8.436216406438462601e-14 1.077918204456414231e-13 9.221253318217326189e-14
4.310000000000000000e+03 5.534920120239257812e+01 -1.218467521667480469e+01 5.057217665471736012e-13 -1.201684541126844460e-14 1.481114764254748417e-13 5.372270892576615220e-14
4.311000000000000000e+03 3.468849182128906250e+01 1.824679183959960938e+01 1.963494369535984801e-15 -1.364113493386789888e-13 -4.033435708366596428e-14 -1.178974317261535787e-13
4.312000000000000000e+03 3.530377578735351562e+01 1.891991424560546875e+01 -4.251240405170851611e-14 -1.821960246247474741e-14 -1.821960246247474741e-14 -8.525339180269486672e-14
4.313000000000000000e+03 4.942007064819335938e+01 2.610647964477539062e+01 -2.085262436899229521e-13 -4.361743984656468731e-14 -7.564310506094629183e-14 1.295076106902146029e-13
4.314000000000000000e+03 5.787513732910156250e+01 -1.159772682189941406e+01 5.720333603499716535e-13 6.215335998692797514e-14 1.902560140681908152e-13 6.965916965430071772e-14
4.315000000000000000e+03 5.551163101196289062e+01 -5.765192031860351562e+00 -1.255062405999124442e-13 -2.253544437646679000e-13 -1.052582025988686720e-13 -2.679088233811105502e-13
4.316000000000000000e+03 5.730633926391601562e+01 -5.809803009033203125e+00 -1.160430800929701523e-13 -2.098610727471056370e-13 -9.777124449677002116e-14 -1.416775090258212688e-13
4.317000000000000000e+03 6.423970794677734375e+01 2.121967697143554688e+01 -5.257827593446728898e-13 -1.414860091066005854e-12 -5.821928768072470728e-13 8.038371807376695766e-14
4.318000000000000000e+03 6.395979309082031250e+01 2.283843803405761719e+01 -3.640296614496052463e-13 -1.185409084260291568e-12 -4.648316237129690442e-13 2.609312437884363234e-14
4.319000000000000000e+03 3.655485534667968750e+01 -2.858973026275634766e+00 -2.422642436054195381e-13 2.621800617320230176e-13 5.974747216750233084e-15 -1.015828385493057484e-13
4.320000000000000000e+03 4.798051357269287109e+00 3.262281036376953125e+01 3.654791652153190074e-14 6.333011914362585149e-13 2.009547313708975880e-13 -8.901747069502141674e-14
4.321000000000000000e+03 7.521274566650390625e+01 3.301012420654296875e+01 2.930783464223998824e-14 5.043832105450229975e-13 1.601073061022889599e-13 -7.301138724635433674e-14
4.322000000000000000e+03 4.541260528564453125e+01 -1.053696727752685547e+01 2.201290365266839189e-13 -3.174175332298911911e-13 -2.918654630045675047e-14 2.200003417288098895e-14
4.323000000000000000e+03 4.090947723388671875e+01 -8.218777656555175781e+00 1.460003179552110675e-13 1.197602536888095481e-13 7.972816878270075347e-14 7.335693603125262308e-14
4.324000000000000000e+03 6.659312248229980469e+00 4.826713085174560547e+00 -6.808767959165518135e-14 1.657051571153124458e-14 -1.545514780878446542e-14 3.781288230122505090e-14
4.325000000000000000e+03 8.281414985656738281e+00 4.783839225769042969e+00 -4.574832063197233067e-14 2.614452572621481230e-14 -5.881138217617371336e-15 1.136066880760150388e-13
4.326000000000000000e+03 3.739453887939453125e+01 -5.890268802642822266e+00 -9.416201000346513528e-14 1.426486424642436912e-13 1.454599177111264019e-14 -2.007433661573715389e-13
4.327000000000000000e+03 4.596136093139648438e+01 -1.094365024566650391e+01 2.319120644220934446e-13 -4.496205111784862263e-13 -6.531253538217055010e-14 -2.072158498392026593e-13
4.328000000000000000e+03 3.890702724456787109e+00 3.287800979614257812e+01 -3.702363732976422794e-14 4.873931661909802759e-13 1.351108623853097823e-13 4.723750280906727217e-14
4.329000000000000000e+03 7.494786071777343750e+01 3.217854690551757812e+01 1.214902202277545751e-13 5.095767015815544365e-13 1.893200900953198595e-13 -2.214606807399849275e-13
4.330000000000000000e+03 3.736230087280273438e+01 -3.521481275558471680e+00 -1.894286458378399707e-13 3.076993683719803085e-13 3.548121404973667015e-14 -1.047202689147264110e-13
4.331000000000000000e+03 3.705020904541015625e+01 -6.465083122253417969e+00 8.647233320016600722e-14 2.429388341971400189e-13 9.882335428494995466e-14 -1.922980953075401067e-13
4.332000000000000000e+03 6.355186462402343750e+01 -9.448600769042968750e+00 3.519032125160609370e-13 1.736911260435611282e-13 1.576783002126339039e-13 2.485453520512798109e-13
4.333000000000000000e+03 1.605426979064941406e+01 7.590228080749511719e+00 9.623770151016147745e-14 -4.506219514557614075e-15 2.751944485279104319e-14 -1.158556486424017207e-13
4.334000000000000000e+03 4.363077163696289062e+01 -9.295571327209472656e+00 1.792762309047943314e-13 -1.976730275776369949e-13 -5.519037561896788721e-15 -1.717203988596885389e-13
4.335000000000000000e+03 5.326222991943359375e+01 -1.163371181488037109e+01 4.780089084971406166e-13 1.591100027339281686e-13 1.911356679483097731e-13 8.455270581993537538e-14
4.336000000000000000e+03 7.641960906982421875e+01 2.701077270507812500e+01 6.870989644218103432e-14 6.699603979226642636e-13 2.216010849213218004e-13 -2.275742528451418778e-13
4.337000000000000000e+03 7.572616577148437500e+01 2.527718544006347656e+01 -1.256460891276359182e-13 5.866649397182066572e-13 1.383056538219185061e-13 -1.443414344211996214e-13
4.338000000000000000e+03 3.453006744384765625e+01 -3.811934709548950195e+00 1.967961282486625080e-14 1.456869699748356006e-13 4.960997433169078707e-14 -1.225192094046062552e-13
4.339000000000000000e+03 3.636624526977539062e+01 -6.139994621276855469e+00 -1.225151588930524851e-14 2.692550501136314889e-13 7.710105882734186178e-14 -2.693254690447344224e-13
4.340000000000000000e+03 7.576821899414062500e+01 2.449163818359375000e+01 8.565894440157664769e-14 6.772242814277740219e-13 2.288649684264315587e-13 -2.362516378275753004e-13
4.341000000000000000e+03 7.447888183593750000e+01 3.057784461975097656e+01 1.163914342509897448e-13 4.959538097044913219e-13 1.837035704761388888e-13 -1.425725856818438331e-13
4.342000000000000000e+03 7.636326599121093750e+01 2.780864524841308594e+01 2.929390942058712755e-14 7.903206626462544460e-13 2.458843675542943252e-13 -1.222976391381316863e-13
4.343000000000000000e+03 7.481220245361328125e+01 2.672985839843750000e+01 -4.635056105747013822e-14 3.003921167799711300e-13 7.621246705556347645e-14 -2.213618557119628738e-13
4.344000000000000000e+03 7.442537689208984375e+01 -1.098200321197509766e+01 9.966262163414382758e-14 3.172182568705883554e-13 1.250642655842987283e-13 2.813209192507881706e-13
4.345000000000000000e+03 7.672669219970703125e+01 1.996458435058593750e+01 2.466808970091015352e-14 9.255909840660825338e-13 2.850777339885590678e-13 -2.005436967747811772e-13
4.346000000000000000e+03 7.534293365478515625e+01 2.918577957153320312e+01 5.906176426834913729e-14 5.743235748090214088e-13 1.900156057889693106e-13 -1.879173086669766457e-13
4.347000000000000000e+03 7.610062408447265625e+01 1.680682945251464844e+01 -2.385579357482275203e-14 1.042047958338399027e-12 3.054576448550949674e-13 -7.112713873826462252e-14
4.348000000000000000e+03 7.669445800781250000e+01 2.073167228698730469e+01 -1.280721100731848500e-14 1.092533940920403790e-12 3.239180299853539058e-13 -9.155182715452417352e-14
4.349000000000000000e+03 7.529150390625000000e+01 1.901001167297363281e+01 -7.895820905738301643e-14 9.955571523417861002e-13 2.749796646894092644e-13 6.081331490085609831e-15
4.350000000000000000e+03 7.680937957763671875e+01 1.212787723541259766e+01 -1.713781162338348651e-13 7.500693317320783482e-13 1.736073578732094669e-13 2.476801587176363784e-13
4.351000000000000000e+03 7.567858123779296875e+01 2.607082939147949219e+01 8.430682231974281904e-14 7.223957218006893388e-13 2.420107571374924271e-13 -1.685607897835769697e-13
4.352000000000000000e+03 7.612368011474609375e+01 1.046068286895751953e+01 -3.784572346265599463e-14 7.615465332996840253e-13 2.171102382077239046e-13 1.519558133836196312e-13
4.353000000000000000e+03 7.608463287353515625e+01 -6.205106258392333984e+00 1.150585838627718460e-13 1.865636687021013373e-13 9.048667305895652380e-14 1.812337443746897536e-13
4.354000000000000000e+03 7.604809570312500000e+01 -7.009957313537597656e+00 -3.811820718552412501e-14 -1.764646913836320774e-13 -6.437486990956003963e-14 7.552151856356562054e-14
4.355000000000000000e+03 7.680564880371093750e+01 1.372080326080322266e+01 -1.358118397474031291e-13 8.568139145230524445e-13 2.163006237879475102e-13 1.685531326057337909e-13
4.356000000000000000e+03 7.540821075439453125e+01 1.279460334777832031e+01 -1.984340019774502584e-14 7.463863511622537139e-13 2.179628819012208174e-13 2.086349214051874679e-13
4.357000000000000000e+03 7.610824584960937500e+01 -5.396908760070800781e+00 4.734381899647484293e-14 -1.627135925996725518e-13 -3.461093174214613377e-14 1.831037356242112835e-13
4.358000000000000000e+03 3.281035661697387695e+00 2.818346405029296875e+01 1.293107602332727035e-14 5.545532566139654840e-13 1.702453011464405419e-13 -3.271555999739307607e-14
4.359000000000000000e+03 4.074622631072998047e+00 3.094675636291503906e+01 -1.123234128321340397e-14 7.272013395100140887e-13 2.147906960799084164e-13 -2.639638419681730047e-14
4.360000000000000000e+03 7.683953857421875000e+01 4.955502510070800781e+00 -1.321997100954845281e-14 6.805985354289834088e-13 2.002135707657864971e-13 1.317837576260763588e-13
4.361000000000000000e+03 7.614985656738281250e+01 5.689491748809814453e+00 1.668214448958399432e-14 6.705382234704904132e-13 2.061661117432750379e-13 2.881865752979440032e-13
4.362000000000000000e+03 3.905968856811523438e+01 -4.846566200256347656e+00 -2.362519088781184218e-13 2.647567766151520674e-13 8.551465064494598312e-15 -8.116972399123748017e-14
4.363000000000000000e+03 3.891005706787109375e+01 -7.242959499359130859e+00 8.063139050754411508e-14 2.633110472282512715e-13 1.031827347088704050e-13 1.848202343392949670e-14
4.364000000000000000e+03 7.613179016113281250e+01 -1.401987433433532715e+00 -1.929849644888639859e-13 6.035563758846618221e-13 1.231714247739920665e-13 4.496209448593552205e-14
4.365000000000000000e+03 7.616283416748046875e+01 9.840475916862487793e-01 -3.798734059517333561e-13 4.777103734289467329e-13 2.935109092079037085e-14 4.235098870989523201e-13
4.366000000000000000e+03 7.549690246582031250e+01 4.077516555786132812e+00 -5.292168003194312742e-14 3.433268751761031634e-13 8.712156023731390531e-14 4.881834411545049601e-13
4.367000000000000000e+03 7.682734680175781250e+01 -3.779455423355102539e+00 3.633829958400898452e-14 4.959585259839416338e-13 1.596890480091983644e-13 1.165495515853195996e-13
4.368000000000000000e+03 7.612755584716796875e+01 9.660756111145019531e+00 -1.836349540311477124e-13 7.905673186404948982e-13 1.820797066722987245e-13 2.963710277626568912e-13
4.369000000000000000e+03 7.613108062744140625e+01 8.863338470458984375e+00 -1.504072677494493193e-14 7.713201279936632293e-13 2.268838193491759525e-13 1.077401446595953327e-13
4.370000000000000000e+03 7.682555389404296875e+01 8.138280868530273438e+00 3.130778785092463989e-14 8.826856346538791698e-13 2.741980362382101521e-13 1.111374040756521464e-13
4.371000000000000000e+03 7.614283752441406250e+01 6.480379104614257812e+00 -1.853039070928361176e-13 4.238444718893813468e-13 7.156217485997443117e-14 5.073237294671295583e-13
4.372000000000000000e+03 7.684892272949218750e+01 1.792193055152893066e+00 -4.277452957807126310e-13 5.486957459568952977e-13 3.628513979623930463e-14 2.704775151681632073e-13
4.373000000000000000e+03 7.617466735839843750e+01 3.331568241119384766e+00 -1.751188576743986647e-13 2.452057112044270237e-13 2.102605639782168662e-14 5.005411233063861154e-13
4.374000000000000000e+03 7.617868041992187500e+01 2.551825523376464844e+00 -3.764821299764159468e-13 5.249147470853809949e-13 4.452978242218408322e-14 3.554837088755313790e-13
4.375000000000000000e+03 7.544727325439453125e+01 -5.805189609527587891e-01 -2.428499025139418954e-13 4.906838282046910305e-13 7.435017364146659369e-14 1.536475753485117002e-13
4.376000000000000000e+03 7.679897308349609375e+01 1.688095092773437500e+01 -8.526186890843098776e-14 1.152983849887767587e-12 3.203166085239544936e-13 7.660506343848405564e-14
4.377000000000000000e+03 7.608386230468750000e+01 1.757949829101562500e+01 -1.204097450002369896e-13 8.176638619655784979e-13 2.091762364448551681e-13 -1.112949200165894506e-14
4.378000000000000000e+03 7.611341094970703125e+01 1.206151771545410156e+01 1.653750302592848186e-15 9.157277800625474029e-13 2.752144486698610004e-13 -1.596165995871538096e-14
4.379000000000000000e+03 7.656568908691406250e+01 2.384466934204101562e+01 8.540385873544512063e-14 7.228658860727876778e-13 2.424809214095907661e-13 -1.776865194693874606e-13
4.380000000000000000e+03 7.610963439941406250e+01 1.602562904357910156e+01 -1.877498807464905717e-13 6.973019167286209630e-13 1.528656080841336862e-13 -3.178782513905617502e-15
4.381000000000000000e+03 7.611245727539062500e+01 1.524012660980224609e+01 -1.449426346902382007e-14 8.630562085311377363e-13 2.545685830104144065e-13 -4.895636982827147876e-14
4.382000000000000000e+03 7.612033843994140625e+01 -4.595777511596679688e+00 6.998634121237537475e-14 3.960017264190845987e-13 1.397964182565589186e-13 9.059985698950043242e-14
4.383000000000000000e+03 7.675069427490234375e+01 -9.313599586486816406e+00 2.704890788619591230e-14 1.159238873106984216e-14 1.159238873106984216e-14 -1.242343562551061209e-14
4.384000000000000000e+03 7.612679290771484375e+01 -2.195952177047729492e+00 -1.696318731097753996e-13 1.560553715331675084e-13 -4.072951997641672400e-15 1.112158054452500044e-13
4.385000000000000000e+03 7.677105712890625000e+01 -7.768073558807373047e+00 6.246210688433395664e-14 2.676947341096261312e-14 2.676947341096261312e-14 3.977341120841269839e-14
4.386000000000000000e+03 7.505246734619140625e+01 2.994545745849609375e+01 -4.892767574015029208e-14 4.365404793291866037e-13 1.162838407378977146e-13 -1.644424071738093129e-13
4.387000000000000000e+03 7.523889160156250000e+01 1.975723266601562500e+01 -8.491644887254068408e-14 5.126186476168970163e-13 1.283106514917906060e-13 -1.169138570678018851e-13
4.388000000000000000e+03 7.580304718017578125e+01 2.371213340759277344e+01 -1.702216519865532018e-13 4.760592419404685582e-13 9.175127969668003813e-14 -1.784594743032066888e-13
4.389000000000000000e+03 7.583525085449218750e+01 2.293575859069824219e+01 9.775805449971537719e-15 6.447029325326592009e-13 1.963436195313167376e-13 -1.620267776284572969e-13
4.390000000000000000e+03 4.932602882385253906e+00 2.516950035095214844e+01 -1.507337989506158521e-14 2.680456768003325330e-13 7.589168551404290586e-14 -8.840770861695199101e-14
4.391000000000000000e+03 7.519969940185546875e+01 -1.018246746063232422e+01 3.325983287611258832e-14 1.515070621044278809e-13 5.543006646128306736e-14 2.368738614543647314e-13
4.392000000000000000e+03 7.600832366943359375e+01 -7.803899288177490234e+00 9.062990294220543697e-14 2.218451794879297556e-13 9.374252540666691558e-14 2.318099596824996222e-13
4.393000000000000000e+03 7.598398590087890625e+01 -8.588565826416015625e+00 6.114305296876093587e-14 -2.940524614167966400e-13 -6.987282524491614244e-14 9.048041179141042001e-14
4.394000000000000000e+03 7.594653320312500000e+01 2.061484146118164062e+01 -8.564198341384082758e-14 6.495605377361546307e-13 1.691755595204305629e-13 -1.064794614784835003e-13
4.395000000000000000e+03 4.268842315673828125e+01 -9.449005126953125000e+00 2.316828369777756969e-13 -1.637753111296061381e-13 2.037225707682450981e-14 -1.229684079171941558e-13
4.396000000000000000e+03 3.330256462097167969e+00 6.429157257080078125e+00 -4.478007726996593996e-14 4.943496377226089256e-14 1.396465950688485780e-15 6.271179186839379027e-14
4.397000000000000000e+03 4.673950958251953125e+01 -1.229662704467773438e+01 3.901560606707488166e-13 -1.530469002399004186e-13 7.113274948450723500e-14 -7.590715572379155840e-14
4.398000000000000000e+03 4.702338027954101562e+01 -1.169706726074218750e+01 1.849260355306706072e-13 -2.867535852865699120e-13 -3.054826357151707583e-14 -2.016670928558020326e-13
4.399000000000000000e+03 3.241462469100952148e+00 2.736610412597656250e+01 1.668826514966085389e-14 3.274087544049425480e-13 1.032291046805348944e-13 -1.531721188145589163e-14
4.400000000000000000e+03 5.483793735504150391e+00 7.259022235870361328e+00 -1.249861081601896795e-13 -2.594447551761136506e-13 -1.153292549351328522e-13 1.005093360970099603e-13
4.401000000000000000e+03 3.246304988861083984e+00 2.656539726257324219e+01 -5.154582747505902229e-14 3.896674649617182240e-13 1.014364915848109394e-13 2.167772797205536062e-14
4.402000000000000000e+03 4.151362895965576172e+00 2.966354179382324219e+01 -2.633015130253969771e-14 4.919760887740765032e-13 1.396937849684060096e-13 -2.377934376913536790e-14
4.403000000000000000e+03 4.141469001770019531e+00 2.498530197143554688e+01 -1.351310539567064303e-14 -1.887951329559295344e-13 -6.069247209840311630e-14 -7.003992790475047081e-14
4.404000000000000000e+03 3.903429508209228516e+00 1.132731533050537109e+01 5.246551890852879652e-14 4.536069802651802874e-14 2.934786541932722648e-14 2.781130868949235196e-14
4.405000000000000000e+03 3.287511348724365234e+00 2.171247482299804688e+01 -2.574444834830408313e-14 -1.025352356189349057e-13 -3.848390519017169664e-14 1.550924102686201955e-14
4.406000000000000000e+03 4.524834632873535156e+00 1.765880584716796875e+01 -8.689987477435850982e-14 3.287647931671244805e-13 7.255947145207164439e-14 -9.642232081134502475e-14
4.407000000000000000e+03 3.196227550506591797e+00 1.610013198852539062e+01 -4.546965018045745488e-14 3.922715559497025328e-13 1.040405690202680922e-13 4.301606000654129014e-14
4.408000000000000000e+03 3.911178112030029297e+00 1.685572242736816406e+01 -1.942804403953172360e-14 1.746774925225069719e-13 4.657483505311234284e-14 -9.656495438339907089e-14
4.409000000000000000e+03 3.222735404968261719e+00 2.011647033691406250e+01 1.029730703375024425e-13 4.413131440687313722e-14 4.413131440687313722e-14 2.676861113142230825e-14
4.410000000000000000e+03 4.082299232482910156e+00 2.329844093322753906e+01 1.482902071536090771e-13 1.780199489068764324e-14 4.982765841100335324e-14 -3.164818667550362008e-14
4.411000000000000000e+03 3.940002679824829102e+00 1.048639869689941406e+01 3.567121370420117676e-14 -7.621423566035734343e-14 -1.216290692566002890e-14 8.999804346860804105e-14
4.412000000000000000e+03 4.585696697235107422e+00 1.136188030242919922e+01 1.990937220587487427e-14 5.428353621640680249e-14 2.225787269609109248e-14 6.871640165521594734e-14
4.413000000000000000e+03 3.171412229537963867e+00 1.213457775115966797e+01 2.172327801582690787e-14 7.793640271992405277e-14 2.989790151021985698e-14 1.117930092708928694e-14
4.414000000000000000e+03 3.435003757476806641e+00 4.878717899322509766e+00 -7.010994026003872226e-14 -5.292259143939437305e-14 -3.690975883220357079e-14 1.140293642929585127e-13
4.415000000000000000e+03 3.181727170944213867e+00 1.530028438568115234e+01 -5.199032664885555599e-14 2.346938053241712924e-14 -8.556283834931528026e-15 7.125205915732568673e-14
4.416000000000000000e+03 3.873163461685180664e+00 1.766078758239746094e+01 7.522314951382939874e-15 2.548540805474841520e-13 7.871291509212174908e-14 -4.647060934301859569e-14
4.417000000000000000e+03 3.818858623504638672e+00 1.292316055297851562e+01 -3.398170145881701520e-14 5.406283669980201101e-14 6.024340148779025114e-15 2.333384848459286315e-14
4.418000000000000000e+03 3.937736511230468750e+00 9.636111259460449219e+00 4.887027401138076266e-14 6.669535393801287460e-14 3.466968872363127008e-14 3.550513087203534257e-14
4.419000000000000000e+03 3.925929784774780273e+00 8.791965484619140625e+00 -7.743967549459981892e-14 -2.161922306757532719e-13 -8.808956981822685384e-14 2.990988872048939984e-14
4.420000000000000000e+03 3.894463777542114258e+00 1.925811195373535156e+01 1.171802184365272614e-13 9.597104198583866763e-14 6.394537677145706311e-14 -1.683800939390051044e-13
4.421000000000000000e+03 3.855892896652221680e+00 1.445070362091064453e+01 -4.911649293662043170e-14 1.162029185982488277e-13 2.012592803730169772e-14 -7.087607478456665888e-16
4.422000000000000000e+03 3.975304603576660156e+00 2.083300590515136719e+01 7.937149337300733465e-14 -1.173459285741963037e-14 2.029107066289607963e-14 -7.569362210592053830e-14
4.423000000000000000e+03 5.929341793060302734e+00 4.064032554626464844e+00 -9.745553160040582030e-14 -1.889118100503479197e-14 -3.490401191815969972e-14 8.394114125575419250e-14
4.424000000000000000e+03 3.887082099914550781e+00 2.732350921630859375e+01 -7.570751344625550883e-14 4.708143597209613063e-13 1.185320559152908126e-13 6.198676554686199935e-14
4.425000000000000000e+03 4.020076274871826172e+00 2.580909156799316406e+01 -4.786599109153459597e-14 3.454935990077068197e-13 8.928827729265398361e-14 4.429764626672546418e-15
4.426000000000000000e+03 3.980495929718017578e+00 2.813314056396484375e+01 7.559390938736976207e-14 3.984049689546159678e-13 1.421996607920902878e-13 3.779893336264966708e-14
4.427000000000000000e+03 4.955132007598876953e+00 5.612977504730224609e+00 9.497419940340118272e-14 4.070322637966805601e-14 4.070322637966805601e-14 1.025034820478082365e-13
4.428000000000000000e+03 6.970372009277343750e+01 -1.207024574279785156e+01 1.981047026726120985e-13 -2.353546231601694183e-13 -1.117497682389355373e-14 -2.721094190087387094e-14
4.429000000000000000e+03 5.660317230224609375e+01 -5.481472492218017578e+00 -1.186221802208786702e-13 -3.939702025983898848e-13 -1.537777202667914289e-13 -2.386667252718410737e-13
4.430000000000000000e+03 5.554524421691894531e+00 3.441144180297851562e+01 -2.216414511234561513e-14 4.937614987016170076e-13 1.414792084484736701e-13 1.268855185580352457e-14
4.431000000000000000e+03 5.590084075927734375e+01 -1.148528289794921875e+01 5.315658395226019461e-13 1.363120228671521605e-13 2.003633532959153696e-13 7.838862175200186216e-15
4.432000000000000000e+03 4.570865154266357422e+00 3.172412300109863281e+01 4.805639732181378465e-14 3.866031843616224428e-13 1.303978761990967628e-13 1.373995775960428975e-14
4.433000000000000000e+03 5.368284702301025391e+00 3.114933204650878906e+01 1.175724590656099938e-14 6.455520796741498479e-13 1.971928073303888529e-13 -5.988511417439820739e-14
4.434000000000000000e+03 3.464527511596679688e+01 -5.423123359680175781e+00 -3.806346852834076311e-14 -1.631291435754637226e-14 -1.631291435754637226e-14 -2.334777336743254494e-13
4.435000000000000000e+03 3.523009109497070312e+01 1.434305381774902344e+01 -3.156771176925088351e-14 3.222192952452400394e-14 1.962653292289140883e-16 -1.312416971974150748e-13
4.436000000000000000e+03 2.529272651672363281e+01 2.596012115478515625e+01 -1.457115271540423973e-13 2.905410084069227905e-14 -3.499722619993914097e-14 -7.706453476665625635e-14
4.437000000000000000e+03 2.485708618164062500e+01 2.497850608825683594e+01 -6.457970958126044159e-14 -1.306166546449771815e-13 -5.855891130075036033e-14 8.024624123829579569e-15
4.438000000000000000e+03 3.815568542480468750e+01 -6.733430385589599609e+00 1.572093658323749782e-14 2.354922897310207652e-13 7.536397043537632068e-14 -9.804769572196309069e-14
4.439000000000000000e+03 3.788304519653320312e+01 -5.336916446685791016e+00 -1.117249603379763534e-13 2.780933849085703846e-13 4.991052872643092497e-14 -9.767824705542507702e-14
4.440000000000000000e+03 4.359313583374023438e+01 1.873655319213867188e+01 -9.180964365487764844e-14 -3.934699110584236048e-14 -3.934699110584236048e-14 -8.177084633324491203e-14
4.441000000000000000e+03 4.297677040100097656e+00 4.091413497924804688e+00 -2.902393630337465891e-14 -1.954426204209269713e-13 -6.733996633966413126e-14 5.999210460003179257e-14
4.442000000000000000e+03 6.568328857421875000e+01 1.540369606018066406e+01 -3.591016915251155073e-13 -1.229048004862398624e-12 -4.764448926532216522e-13 1.992968778289500031e-13
4.443000000000000000e+03 4.310258102416992188e+01 1.943704414367675781e+01 -1.638992151091304972e-14 -5.277520093030854675e-14 -2.074953740999283675e-14 -7.660965774518996296e-14
4.444000000000000000e+03 5.582184600830078125e+01 -1.090529632568359375e+01 3.090136382454672370e-13 -3.250750634387761240e-13 -4.818429082651971146e-15 1.259153236321183811e-13
4.445000000000000000e+03 5.528182220458984375e+01 -1.153249073028564453e+01 4.955393734240587378e-13 -1.078826359301142401e-13 1.162970137942934135e-13 5.748394517552171679e-14
4.446000000000000000e+03 3.537988662719726562e+01 1.342105197906494141e+01 3.611830141068451960e-14 2.691700960971536716e-14 1.891059330611996603e-14 -4.238367537251659656e-14
4.447000000000000000e+03 1.060073089599609375e+01 5.436636447906494141e+00 5.166546918479279771e-14 6.789328891839210844e-14 3.586762709214229294e-14 1.655928676515608378e-13
4.448000000000000000e+03 9.823953628540039062e+00 5.464680671691894531e+00 6.042333923787432393e-14 2.589571657422243961e-14 2.589571657422243961e-14 6.312182273046770473e-15
4.449000000000000000e+03 4.932109451293945312e+01 -1.242718029022216797e+01 5.092983868838774075e-13 -2.849896967721532448e-13 6.729260025725367078e-14 -4.139581472745179624e-14
4.450000000000000000e+03 4.725192642211914062e+01 -1.263803577423095703e+01 3.047509076689602914e-13 -2.811509976653053799e-13 7.079968088305379353e-15 -5.672886273688955427e-14
4.451000000000000000e+03 7.211251068115234375e+01 -1.048417568206787109e+01 1.731119723480736838e-13 -1.545639023671149803e-13 5.564424128309515896e-15 2.350221254589224262e-13
4.452000000000000000e+03 6.087187576293945312e+01 -9.914140701293945312e-01 -1.718412196392848923e-13 -7.599104722214033991e-13 -2.795255075582064874e-13 -1.336030353189798792e-13
4.453000000000000000e+03 4.052926254272460938e+01 -8.764010429382324219e+00 7.825155996267485481e-14 3.194798212872301812e-13 1.193194170854769420e-13 -3.493588068576719552e-14
4.454000000000000000e+03 4.243171691894531250e+01 -8.469445228576660156e+00 2.114474367083049589e-13 -1.381344176413015767e-13 2.199391012467234036e-14 -1.501127374530300540e-13
4.455000000000000000e+03 3.550179672241210938e+01 9.347969055175781250e+00 9.685967441519852117e-14 -4.239659940122580267e-15 2.778600442722607700e-14 -4.012476725119736021e-14
4.456000000000000000e+03 6.174771881103515625e+01 -1.036519145965576172e+01 4.125821049822536724e-13 8.531899958665739581e-14 1.493703300154206048e-13 5.921420139973470470e-15
4.457000000000000000e+03 5.463728713989257812e+01 -9.412679672241210938e+00 1.509383845124320778e-13 -2.098178130804234653e-13 -1.766382857039741627e-14 -1.689946739404785125e-13
4.458000000000000000e+03 6.527272033691406250e+01 1.112092208862304688e+01 -1.297452288429078518e-14 -1.286587047837073339e-12 -3.898684760444970365e-13 9.112430590912240502e-14
4.459000000000000000e+03 5.256251907348632812e+01 -1.165371513366699219e+01 3.779936162250779885e-13 7.049536735609374105e-14 1.345466977848569501e-13 6.428630414459512998e-14
4.460000000000000000e+03 4.984140777587890625e+01 -1.256917476654052734e+01 5.725565963184131579e-13 1.996304597323694807e-13 2.316561113942239292e-13 -1.958812073047516700e-13
4.461000000000000000e+03 5.699754333496093750e+01 -4.878734111785888672e+00 -2.250069434158591397e-13 -3.366240391902003415e-13 -1.684892866503015507e-13 -2.376875009747064782e-13
4.462000000000000000e+03 5.678533935546875000e+01 -3.935732126235961914e+00 -2.354481355975462931e-13 -4.554762057969174993e-13 -2.072772969973282753e-13 -2.895441048381131033e-13
4.463000000000000000e+03 6.577109527587890625e+01 1.625409317016601562e+01 -4.643078998535499213e-13 -1.091132609612466275e-12 -4.666321582608157215e-13 1.315739238481189455e-13
4.464000000000000000e+03 9.026397705078125000e+00 5.507408142089843750e+00 4.984961689312797373e-14 1.586169753485175415e-13 6.253997292910914996e-14 7.912779860595048342e-14
4.465000000000000000e+03 7.365171051025390625e+01 -1.104707241058349609e+01 2.569496468352548690e-14 -2.177426126773532311e-13 -5.761429338170878656e-14 -1.745458602143718646e-14
4.466000000000000000e+03 6.968975830078125000e+01 -1.022002124786376953e+01 2.429272603389487362e-13 -3.533978123158865170e-13 -3.314116356020226084e-14 5.073786985172745734e-14
4.467000000000000000e+03 7.044084930419921875e+01 -1.194899749755859375e+01 2.105051837052521191e-13 -4.703634264848974289e-14 4.904065299465507066e-14 2.889630537888238093e-14
4.468000000000000000e+03 6.464045715332031250e+01 7.675925731658935547e+00 -2.000155818965634880e-13 -1.366747535459789109e-12 -4.700289094571041826e-13 3.373735617045667268e-14
4.469000000000000000e+03 6.447001647949218750e+01 6.784888744354248047e+00 -2.154522491405047591e-13 -1.419114175130187228e-12 -4.903699516757564769e-13 -5.947875520015064033e-14
4.470000000000000000e+03 4.578144836425781250e+01 -7.880997180938720703e+00 -1.667370397567119467e-13 -2.544625209328910120e-13 -1.263598736278917500e-13 1.180290267648390068e-13
4.471000000000000000e+03 6.560124969482421875e+01 1.454919528961181641e+01 -2.730101030228720971e-13 -1.260778048801924900e-12 -4.601364319949119430e-13 2.067984591078500523e-13
4.472000000000000000e+03 3.283393859863281250e+01 -5.812407493591308594e+00 -6.559849370516360190e-14 2.921429916556694817e-13 6.796335548378898417e-14 -1.013148305485309097e-13
4.473000000000000000e+03 3.627037048339843750e+01 9.529415130615234375e+00 -6.472588713916579972e-14 -3.251208438755093244e-13 -1.169540132057653170e-13 7.431665485367784652e-15
4.474000000000000000e+03 4.774906921386718750e+01 -1.296717357635498047e+01 5.582540723095275048e-13 -3.097596235502458883e-13 7.454833869354263176e-14 1.504813492510161804e-14
4.475000000000000000e+03 4.517484664916992188e+01 2.143717575073242188e+01 -7.112574960423112547e-14 6.101943359230685426e-14 -3.031894507115749822e-15 -5.269672163367954132e-14
4.476000000000000000e+03 6.552693939208984375e+01 1.369120407104492188e+01 -2.191196714091542264e-13 -9.631764786785512733e-13 -3.546888260527736314e-13 1.245878129395999734e-13
4.477000000000000000e+03 4.376337432861328125e+01 2.012865257263183594e+01 -6.333881986606004766e-14 1.860574106620545981e-14 -1.341992245411025020e-14 -9.459523686279960875e-14
4.478000000000000000e+03 5.122082901000976562e+01 -1.134865283966064453e+01 3.417515023144274133e-13 -2.652936193208582649e-13 2.293736591451028123e-14 -2.674797503713494118e-13
4.479000000000000000e+03 7.206538391113281250e+01 -1.116156387329101562e+01 1.289926553158654565e-13 -3.107250242696812936e-13 -5.451971271902382454e-14 2.041547269779342422e-14
4.480000000000000000e+03 4.121244812011718750e+01 1.618795013427734375e+01 2.751464387004600581e-14 1.947957854048221193e-13 6.669313132355927931e-14 2.785746520885413330e-14
4.481000000000000000e+03 4.078417205810546875e+01 -5.652384281158447266e+00 -9.065324717023176548e-14 9.268258225779077430e-14 6.088011191907657244e-16 4.951571311718853952e-14
4.482000000000000000e+03 4.423498535156250000e+01 -9.705126762390136719e+00 2.146983762649212757e-13 -1.824920965211307422e-13 9.661884600763517850e-15 -6.092417965519042466e-14
4.483000000000000000e+03 6.135660934448242188e+01 3.542807340621948242e+00 -1.057129576475905608e-13 -9.374490116467737444e-13 -3.129486145052318147e-13 -3.620315310558230859e-13
4.484000000000000000e+03 3.622956466674804688e+01 1.371086311340332031e+01 -3.984390467841499028e-14 1.201768854786414154e-13 2.409989491769428532e-14 -1.079178318431385508e-13
4.485000000000000000e+03 4.591971206665039062e+01 2.210097312927246094e+01 -9.051130477706267885e-14 2.983586481716295202e-14 -1.820263131034356024e-14 -4.809177280582291325e-14
4.486000000000000000e+03 3.598263549804687500e+01 1.445687389373779297e+01 -1.758304608530570799e-16 2.515548533366107620e-13 7.541370821003909319e-14 -1.248847217045351288e-13
4.487000000000000000e+03 4.021335601806640625e+01 1.627752113342285156e+01 2.137832045992580504e-14 2.379168910493500988e-13 7.778855820117849817e-14 9.340748152438047708e-15
4.488000000000000000e+03 4.446599960327148438e+01 2.078136825561523438e+01 -2.422082919970557080e-14 -1.476332077421371736e-13 -5.155620871086057100e-14 -1.122443948225505805e-13
4.489000000000000000e+03 4.248556518554687500e+01 1.874337959289550781e+01 -1.341041806681569915e-13 -1.032241715606500854e-13 -7.119850634626848085e-14 8.423010823977589157e-14
4.490000000000000000e+03 3.962635040283203125e+01 -7.026800155639648438e+00 2.580397951790300987e-14 1.483117014616786022e-13 5.223470243040199967e-14 -1.474555612161754237e-13
4.491000000000000000e+03 4.006966018676757812e+01 -6.042314052581787109e+00 -6.735185190598000360e-14 8.551229250522082714e-14 5.448132010365657613e-15 -5.143552684466756730e-14
4.492000000000000000e+03 5.785620498657226562e+01 -3.650035142898559570e+00 -1.252057810728623988e-13 -3.052898374638485235e-13 -1.291486855610132767e-13 -2.675767322556782402e-13
4.493000000000000000e+03 6.915976715087890625e+01 -1.084517955780029297e+01 3.705985442570974842e-13 -3.387136220372316542e-13 9.565481239937664165e-15 5.494917197580891088e-14
4.494000000000000000e+03 2.567091751098632812e+01 2.454416275024414062e+01 -7.667475730938413947e-14 1.289033797372907478e-14 -1.913532639361958249e-14 2.986806900981756052e-14
4.495000000000000000e+03 2.262620735168457031e+01 2.842818260192871094e+01 -7.289832528855483273e-14 1.060107066692093924e-13 9.933715261229315169e-15 -1.370345758524779689e-13
4.496000000000000000e+03 1.089688587188720703e+01 1.831565856933593750e+01 4.293190897729746991e-14 1.556522380603830857e-13 5.957524241723827219e-14 -1.648696946381176393e-14
4.497000000000000000e+03 8.210840225219726562e+00 5.564614772796630859e+00 1.329225900355279766e-13 7.984230139014558691e-14 6.382946878295478466e-14 8.062421444441497664e-14
4.498000000000000000e+03 5.651836872100830078e+00 6.447154045104980469e+00 1.050882403558044131e-13 -1.608414464983332071e-13 -1.672596319801135378e-14 4.992498927290645039e-14
4.499000000000000000e+03 4.133886337280273438e+01 1.742762565612792969e+01 -5.771397221894167262e-14 1.582692310542199721e-13 3.016657697295713203e-14 -5.773676079335460232e-14
4.500000000000000000e+03 4.077590179443359375e+01 1.682693099975585938e+01 -5.659310029610363502e-15 4.332552857601833229e-14 1.129986590273556954e-14 5.662788624518147462e-14
4.501000000000000000e+03 6.893260192871093750e+01 -1.174021530151367188e+01 3.643693962003535791e-13 -3.970002766199437483e-15 1.081198187078726003e-13 -1.131037944508347937e-13
4.502000000000000000e+03 1.161743068695068359e+01 1.816858291625976562e+01 4.232525042794678394e-14 2.926450856817475188e-13 1.004911011717214697e-13 -4.540525873580718297e-14
4.503000000000000000e+03 1.112787628173828125e+01 1.403946113586425781e+01 4.428907937549693419e-14 -6.753875226689050673e-15 1.126056103288412824e-14 -7.076158642328397863e-14
4.504000000000000000e+03 5.694202041625976562e+01 -6.398078441619873047e+00 2.384279500721418754e-14 -2.871628173965745656e-13 -7.899600705562129233e-14 -1.763008955404238298e-13
4.505000000000000000e+03 6.536746978759765625e+01 1.197696018218994141e+01 -2.044386117642724154e-13 -1.368643154538162765e-12 -4.719245285354778385e-13 6.524464399738222342e-14
4.506000000000000000e+03 6.606075286865234375e+01 1.180245018005371094e+01 -2.052986957951780100e-13 -1.094505996251937674e-12 -3.899414157456509988e-13 2.157430863732739956e-13
4.507000000000000000e+03 3.594115066528320312e+01 1.080920314788818359e+01 -2.271217542921914745e-14 1.732700083672406022e-13 4.516735089784597312e-14 -1.421247966320801637e-13
4.508000000000000000e+03 3.391947555541992188e+01 2.033536720275878906e+01 -3.002000639176424790e-14 1.472626003345273160e-13 3.517277886045527824e-14 -8.372782447831766950e-14
4.509000000000000000e+03 3.463728332519531250e+01 1.954127883911132812e+01 -9.871416834991708633e-14 9.494677586470087749e-14 -1.130217449103331114e-15 -3.607613272243841152e-14
4.510000000000000000e+03 6.481195831298828125e+01 8.541870117187500000e+00 -2.513205030370280202e-13 -1.205731586621794360e-12 -4.371156214766358516e-13 6.295398230493631786e-14
4.511000000000000000e+03 4.863101196289062500e+01 2.263760948181152344e+01 -1.475021412520108322e-13 2.828669237861167196e-14 -3.576463805015153707e-14 3.587735780664035035e-14
4.512000000000000000e+03 4.671045303344726562e+01 2.252017593383789062e+01 -2.043380655653015410e-13 -1.333244089131782606e-13 -1.012987436987966561e-13 -6.021909587736878899e-14
4.513000000000000000e+03 6.057702255249023438e+01 -1.011919975280761719e+01 5.457543054629421242e-13 -2.693657471554422589e-13 8.291656342649181277e-14 2.570016682107434391e-13
4.514000000000000000e+03 5.880265045166015625e+01 -2.439939260482788086e+00 -3.413187430172798242e-13 -5.466002542080239390e-13 -2.663757072991074226e-13 -2.531658964497612851e-13
4.515000000000000000e+03 6.499179077148437500e+01 9.400893211364746094e+00 1.721588874876913561e-14 -9.305161892750324348e-13 -2.739900862615274324e-13 1.446618026106419319e-13
4.516000000000000000e+03 4.005478286743164062e+01 1.506972217559814453e+01 1.269363168179479806e-13 3.746579327161547734e-13 1.504782762154835418e-13 -3.690808848323158531e-14
4.517000000000000000e+03 6.548787689208984375e+01 -9.560882568359375000e+00 2.502273019865108861e-13 -4.875220778292888024e-13 -7.118843004232794369e-14 3.215547945099872518e-13
4.518000000000000000e+03 6.437876892089843750e+01 -9.305055618286132812e+00 3.274872506422304985e-13 -1.341540133105098564e-13 5.799997119951619262e-14 1.294842190283432282e-13
4.519000000000000000e+03 5.929953384399414062e+01 -1.836802482604980469e+00 -1.303005826066433448e-13 -5.934167545372515118e-13 -2.171151984326630258e-13 -2.064811673420721694e-13
4.520000000000000000e+03 1.142283916473388672e+01 1.252697181701660156e+01 4.038882130217441579e-14 -1.199433483306880377e-13 -2.386635946380680218e-14 -1.493422085215717621e-13
4.521000000000000000e+03 1.425675106048583984e+01 4.634253978729248047e+00 9.861217203054051250e-14 -3.488587990737430054e-15 2.853707531782004314e-14 9.381806041677126506e-14
4.522000000000000000e+03 1.418970870971679688e+01 5.291734695434570312e+00 -9.253545263485270234e-15 -3.965805294429318797e-15 -3.965805294429318797e-15 1.691203329722695825e-13
4.523000000000000000e+03 4.184317779541015625e+01 -8.018040657043457031e+00 7.372525983803668304e-14 3.159654138264363088e-14 3.159654138264363088e-14 -2.463007655630327503e-14
4.524000000000000000e+03 6.308445739746093750e+01 5.316397666931152344e+00 -1.622664134136309055e-13 -1.127533396511060104e-12 -3.869399646614507526e-13 -1.356767346041842792e-13
4.525000000000000000e+03 3.686161422729492188e+01 1.425198173522949219e+01 -3.607793182041837965e-14 -1.546196981214165156e-14 -1.546196981214165156e-14 -2.080164382758931119e-13
4.526000000000000000e+03 3.852091598510742188e+01 1.249767875671386719e+01 -6.582796509497015891e-14 2.005427616504074084e-13 4.041443896663117485e-14 8.230243912874402740e-15
4.527000000000000000e+03 3.158680534362792969e+01 -5.244062900543212891e+00 1.122422806283142338e-13 4.810383455499181449e-14 4.810383455499181449e-14 -1.444679472622015237e-13
4.528000000000000000e+03 3.405585479736328125e+01 2.120149993896484375e+01 3.651401826298278364e-14 -1.444794533577570261e-13 -3.238963188368498836e-14 -6.455625693301686452e-14
4.529000000000000000e+03 3.461741256713867188e+01 1.888247871398925781e+01 1.356649727046787060e-14 -3.993673610130227258e-14 -7.911071733953615320e-15 -2.022665550132328460e-14
4.530000000000000000e+03 1.499420070648193359e+01 6.886458873748779297e+00 1.203934684151225509e-13 -5.134243792376431970e-14 2.071530711452839596e-14 -2.012333781054899406e-14
4.531000000000000000e+03 6.613494873046875000e+01 1.791021347045898438e+01 -6.053665056217349960e-13 -1.082959893636270543e-12 -5.064979468824559738e-13 8.802696391902939399e-14
4.532000000000000000e+03 4.741545486450195312e+01 2.293086624145507812e+01 -1.833847743798466823e-13 -3.284253023618649570e-14 -6.486819545056810021e-14 2.942037482774398360e-14
4.533000000000000000e+03 4.940934371948242188e+01 2.310044670104980469e+01 -1.636228994092089883e-13 -1.387505290783436207e-13 -9.071202448050763589e-14 -1.091172724245815292e-15
4.534000000000000000e+03 4.874544143676757812e+01 -8.303804397583007812e+00 -3.637050038853180400e-14 2.131673879296816509e-13 5.303906524590541738e-14 2.827150846599919137e-14
4.535000000000000000e+03 4.918970489501953125e+01 -7.903172492980957031e+00 -1.381312056923655884e-13 -2.879538241965656775e-13 -1.278255116771848110e-13 -5.580437032067474268e-14
4.536000000000000000e+03 4.913276672363281250e+01 -1.156530666351318359e+01 4.579546377531107382e-13 -1.011148968916610047e-13 1.070519202255558466e-13 -6.476389520157499469e-14
4.537000000000000000e+03 4.651211166381835938e+01 -8.038096427917480469e+00 -1.831527415624076283e-13 1.502607039445200132e-13 -9.867610268926747807e-15 -9.452030494015370432e-14
4.538000000000000000e+03 4.805491638183593750e+01 -8.374018669128417969e+00 -1.426256709307141546e-13 -6.112528560565932967e-14 -6.112528560565932967e-14 -1.625181922631363518e-13
4.539000000000000000e+03 6.752251434326171875e+01 -1.053833007812500000e+01 3.517880973503972886e-13 -2.141689738966237599e-13 4.128573093749483836e-14 6.972687807997243747e-14
4.540000000000000000e+03 6.041677856445312500e+01 2.550360870361328125e+01 -1.154373092341481888e-13 -9.644921580148624329e-13 -3.239788266221760304e-13 3.689463827765554482e-13
4.541000000000000000e+03 5.095138549804687500e+01 2.454216194152832031e+01 -2.745769377924395238e-13 -2.617393471014348161e-14 -9.022526513890669064e-14 1.349983357523329430e-13
4.542000000000000000e+03 6.387311172485351562e+01 2.408278846740722656e+01 -1.896434669457908173e-13 -1.087796627947945627e-12 -3.832320203366046396e-13 1.712016894353171614e-14
4.543000000000000000e+03 6.196088790893554688e+01 2.291773796081542969e+01 -3.957307571911261590e-13 -1.313372587768979471e-12 -5.127310251720751388e-13 3.320619061837615238e-13
4.544000000000000000e+03 3.753748321533203125e+01 1.108247375488281250e+01 9.366179977866179174e-14 -5.610176189438983302e-15 2.641548817790967396e-14 1.122774087787027641e-13
4.545000000000000000e+03 1.648622703552246094e+01 6.478091716766357422e+00 1.565903304375990124e-13 6.711014258415151645e-14 6.711014258415151645e-14 -7.787351899391989352e-14
4.546000000000000000e+03 3.687334823608398438e+01 8.098275184631347656e+00 1.374746670668169912e-13 -1.698370312658639691e-13 -9.708711123186577335e-15 1.888132391322100423e-13
4.547000000000000000e+03 3.509171676635742188e+01 1.598467063903808594e+01 -8.148974659123731090e-14 7.945319478296769544e-14 -6.109665059808621398e-16 -1.336089848784013934e-13
4.548000000000000000e+03 3.514815139770507812e+01 1.647536659240722656e+01 -2.439749994371208375e-14 1.267967799983490962e-13 3.071978435520428263e-14 -1.879280964785928765e-13
4.549000000000000000e+03 3.649606704711914062e+01 -3.701544046401977539e+00 -2.831856385672459897e-13 3.361442255187668815e-13 1.588757506901673083e-14 -2.539306113470696236e-13
4.550000000000000000e+03 1.213837337493896484e+01 7.331507205963134766e+00 4.853139984610684021e-14 2.495539040171801393e-13 8.942559149779927274e-14 2.230078778977032106e-13
4.551000000000000000e+03 6.240917205810546875e+01 3.961465597152709961e+00 -1.756273349407672102e-13 -8.415972454524356383e-13 -3.051673768284662858e-13 -2.369608415736523810e-13
4.552000000000000000e+03 6.429326629638671875e+01 5.820575714111328125e+00 -2.148884098007036725e-13 -1.075740408210124066e-12 -3.871886535347646152e-13 1.209846296496702722e-14
4.553000000000000000e+03 5.970820617675781250e+01 -9.775108337402343750e+00 4.822224976101796567e-13 -2.851559320702495848e-13 5.911997237248445280e-14 1.145592409997064909e-13
4.554000000000000000e+03 5.917651748657226562e+01 -1.010445117950439453e+01 5.016339990962515039e-13 -1.376873400992136010e-14 1.463595818975912954e-13 6.408273841044739849e-14
4.555000000000000000e+03 3.212626266479492188e+01 2.221277236938476562e+01 -9.741342389853191452e-14 1.870061316086926717e-13 2.687781400711412166e-14 2.230792387294434909e-14
4.556000000000000000e+03 3.709230041503906250e+01 9.551818847656250000e+00 2.726146741617758995e-14 1.168348627751409491e-14 1.168348627751409491e-14 1.085315783641918608e-13
4.557000000000000000e+03 4.199868774414062500e+01 -6.241422176361083984e+00 -1.044820696974313456e-13 -9.052897727247419257e-14 -5.850331205809258805e-14 2.422253173592955194e-14
4.558000000000000000e+03 1.146690464019775391e+01 1.746475410461425781e+01 2.207830552292144345e-15 1.610745364128904344e-13 4.898470816255481863e-14 -7.241438487260234980e-14
4.559000000000000000e+03 1.171903800964355469e+01 1.961806678771972656e+01 2.381781092340197470e-14 2.389623872042778707e-13 7.883405435610627010e-14 -1.086124869513135915e-13
4.560000000000000000e+03 1.124486351013183594e+01 1.677659797668457031e+01 3.935912400577883108e-14 3.828757786077802150e-13 1.266704704452545349e-13 -4.809336522776375134e-14
4.561000000000000000e+03 1.159887313842773438e+01 1.575434494018554688e+01 6.764271709083649955e-15 2.545291993664988706e-13 7.838804068740004571e-14 -1.999767200249434607e-14
4.562000000000000000e+03 6.156977081298828125e+01 2.490715026855468750e+00 -1.457974095186304053e-13 -9.260337722333256139e-13 -3.215493463940705121e-13 -2.231304334007755408e-13
4.563000000000000000e+03 6.340115356445312500e+01 4.614314079284667969e+00 -1.963258928257965996e-13 -9.076567622501308108e-13 -3.311947883912619295e-13 -2.051516102179531953e-13
4.564000000000000000e+03 1.063691139221191406e+01 1.349968051910400391e+01 4.577056371716722860e-14 9.682068379457051122e-14 4.277737289826860634e-14 9.162465165919730925e-14
4.565000000000000000e+03 6.504253387451171875e+01 2.074520111083984375e+01 -6.351012923032361979e-13 -1.255831701650611532e-12 -5.672798927651434564e-13 4.141825093615866815e-14
4.566000000000000000e+03 5.316860961914062500e+01 2.487212181091308594e+01 -3.107530508958400439e-13 -6.455345155989555828e-14 -1.125919493814679651e-13 2.216711650392458322e-13
4.567000000000000000e+03 6.499728393554687500e+01 2.169918251037597656e+01 -4.441854327928707047e-13 -1.128259595126190895e-12 -4.717334921126858926e-13 5.999713936387027213e-14
4.568000000000000000e+03 5.656214904785156250e+01 2.451621818542480469e+01 -4.138689987508853418e-13 -2.231233725341272289e-13 -1.910977073197456244e-13 3.763626508970080442e-13
4.569000000000000000e+03 6.650005340576171875e+01 1.862007141113281250e+01 -5.078613853244651200e-13 -7.209152979442690068e-13 -3.686330212436528253e-13 9.034187785882108468e-14
4.570000000000000000e+03 6.638165283203125000e+01 1.988733482360839844e+01 -5.115664294084998343e-13 -8.540371643390998191e-13 -4.096810781242798960e-13 8.292688028778937015e-15
4.571000000000000000e+03 1.354581451416015625e+01 2.395812416076660156e+01 -2.135900641466251249e-13 9.146519940094258172e-14 -3.663746145658383635e-14 -1.146815059704779129e-15
4.572000000000000000e+03 3.210054397583007812e+01 2.333087348937988281e+01 -5.035091470823559179e-14 -2.045827564431043633e-13 -7.648010236184152322e-14 -6.518268861948825488e-14
4.573000000000000000e+03 3.204890060424804688e+01 2.464615821838378906e+01 -7.312826424054827412e-14 3.728573981683080962e-14 -1.075275715770864990e-14 1.462246529372254744e-14
4.574000000000000000e+03 2.991372108459472656e+01 2.430332946777343750e+01 -6.507263532271739814e-14 1.786267633102894131e-14 -1.416298888335266321e-14 6.042960897574990026e-15
4.575000000000000000e+03 1.529887485504150391e+01 2.568033409118652344e+01 -1.072123008319207649e-13 4.555376732838338494e-14 -1.849755971224803508e-14 2.845501476589004652e-14
4.576000000000000000e+03 5.657184600830078125e+01 2.598058509826660156e+01 -2.798523403031022427e-13 -3.944423997495616341e-13 -2.022884220157991630e-13 4.070798331669983616e-13
4.577000000000000000e+03 5.553957748413085938e+01 2.446421623229980469e+01 -3.715401196337925205e-13 -2.049824340214639884e-13 -1.729567688070823839e-13 2.749135554619419608e-13
4.578000000000000000e+03 5.412660217285156250e+01 2.538507080078125000e+01 -3.267696714343709674e-13 -1.857950913345535193e-13 -1.537694261201719148e-13 1.225323824610019541e-13
4.579000000000000000e+03 1.942212104797363281e+01 2.584230041503906250e+01 -1.463606254421823127e-13 -1.911960885025033169e-14 -4.964406910188366717e-14 -5.973649716160475687e-14
4.580000000000000000e+03 1.597266292572021484e+01 2.834541702270507812e+01 -5.089083383760621693e-14 1.383179595165762166e-13 2.622813804250417880e-14 -4.218545949846372323e-14
4.581000000000000000e+03 2.649135017395019531e+01 2.479621696472167969e+01 -1.623264511089322903e-13 2.193341841971122724e-14 -4.211791031498608728e-14 -4.673332847007077850e-14
4.582000000000000000e+03 2.748844909667968750e+01 2.466377258300781250e+01 -1.681773074751688468e-14 1.566787505128969943e-14 -3.449568941566127879e-16 2.614927080478533089e-14
4.583000000000000000e+03 4.870948791503906250e+00 3.629038619995117188e+01 -3.547229987499976589e-14 5.566844728244202400e-13 1.563636508683866055e-13 8.290077473235499261e-15
4.584000000000000000e+03 7.419763946533203125e+01 3.804895019531250000e+01 2.699561087908877721e-14 1.716978745595551525e-13 5.960804630921953673e-14 -1.044426386196707635e-13
4.585000000000000000e+03 7.283635711669921875e+01 4.145142364501953125e+01 1.174662445221560936e-13 1.304068344195469242e-13 7.436192368251090534e-14 -3.505779244379961246e-14
4.586000000000000000e+03 7.533591461181640625e+01 3.425334548950195312e+01 2.576361162170276442e-14 3.312981941734627345e-13 1.071185376727915028e-13 -8.734638988656950875e-14
4.587000000000000000e+03 2.343750762939453125e+01 2.743002700805664062e+01 6.927126922203971637e-14 6.686033562734727820e-14 4.083948009956338276e-14 -3.287980985026105196e-14
4.588000000000000000e+03 1.548656940460205078e+01 5.256787776947021484e+00 2.851546242513790241e-14 1.494737629026757220e-13 5.339676725953090841e-14 -5.812617233239350534e-14
4.589000000000000000e+03 1.482017040252685547e+01 7.853912830352783203e+00 6.017735409372809707e-14 5.774254941651613821e-15 1.978548347294356580e-14 -4.667202700161209028e-14
4.590000000000000000e+03 1.484350109100341797e+01 5.263161182403564453e+00 5.650172238175384110e-14 1.157169249744322004e-13 5.166559454566899134e-14 8.439557612602201914e-15
4.591000000000000000e+03 6.094041061401367188e+01 -2.059519052505493164e+00 -1.855073305254487104e-13 -8.115183330013875374e-13 -2.991076895712818651e-13 -2.071711298877194213e-14
4.592000000000000000e+03 6.172004699707031250e+01 1.416506290435791016e+00 -2.044222674165221965e-13 -9.397209572992171189e-13 -3.432429579279527854e-13 -1.485389366845044079e-13
4.593000000000000000e+03 5.845569992065429688e+01 -1.135459899902343750e+01 4.545546881604134448e-13 -3.084512896836533180e-13 4.383101751014896463e-14 1.864999311668863458e-13
4.594000000000000000e+03 3.521120834350585938e+01 1.520094776153564453e+01 -1.377668324472475225e-13 -1.047938794659745987e-13 -7.276821425159299417e-14 -1.315089259278784395e-13
4.595000000000000000e+03 1.282468128204345703e+01 5.359529972076416016e+00 8.336034092821728581e-15 1.408254345384649109e-13 4.474843889532009733e-14 2.129882235206784213e-13
4.596000000000000000e+03 6.135873794555664062e+01 -3.378153145313262939e-01 -1.323458486898743125e-13 -6.514819608262334416e-13 -2.351483536968540511e-13 -1.050254040636453001e-13
4.597000000000000000e+03 1.133127689361572266e+01 6.124483108520507812e+00 -3.892486715438049638e-14 2.906886293089702700e-14 -2.956801648209867080e-15 4.670156134641695322e-14
4.598000000000000000e+03 4.466567230224609375e+01 -7.623667716979980469e+00 -1.434445823841196122e-13 -1.572530219104764648e-14 -4.775096740542925100e-14 2.108112539785447770e-14
4.599000000000000000e+03 4.455790328979492188e+01 -9.146983146667480469e+00 2.376063755471502503e-13 -2.641762947720033283e-13 -7.970970515851650423e-15 -1.822668941773783469e-13
4.600000000000000000e+03 6.507672309875488281e+00 3.358893966674804688e+01 -2.956433315932753547e-14 3.304616779872815435e-13 9.026920920821024374e-14 6.667753914106622215e-14
4.601000000000000000e+03 4.369883728027343750e+01 -7.812344074249267578e+00 -1.058197447853168049e-13 -1.368532159340754562e-13 -7.280188550531224712e-14 -1.146318147826272393e-13
4.602000000000000000e+03 1.416231918334960938e+01 5.943377971649169922e+00 1.019336186096862773e-13 4.368583606298957756e-14 4.368583606298957756e-14 1.144049319255074915e-13
4.603000000000000000e+03 1.280876159667968750e+01 7.399839878082275391e+00 -3.967275997735636439e-14 2.575030846104636728e-13 6.534909332417404570e-14 -5.595197428206327706e-14
4.604000000000000000e+03 5.803537368774414062e+01 -6.156922340393066406e+00 1.014759497676258337e-13 -1.852650519974796683e-13 -2.513673100776932928e-14 -1.209778398335650818e-13
4.605000000000000000e+03 5.660559082031250000e+01 -6.979030132293701172e+00 1.113249685103932969e-15 -1.825266825704330298e-13 -5.442403187730197878e-14 -7.464326059374373767e-14
4.606000000000000000e+03 4.073257827758789062e+01 -7.301779747009277344e+00 4.127594262475636766e-14 -1.195631592863788395e-13 -2.348616364323402594e-14 -7.599042583877023416e-15
4.607000000000000000e+03 3.937331008911132812e+01 -6.310532093048095703e+00 -1.229431189015209314e-13 1.760648376224194234e-13 1.593651493864318980e-14 -9.482478787370320766e-15
4.608000000000000000e+03 5.326225662231445312e+01 -1.091442775726318359e+01 2.421765858597740850e-13 -1.707157229165548462e-13 2.143826159347120286e-14 1.151152063212299015e-13
4.609000000000000000e+03 4.547435760498046875e+01 -9.003511428833007812e+00 1.206281439753570384e-13 5.169777163326928771e-14 5.169777163326928771e-14 -2.138340638455429876e-13
4.610000000000000000e+03 7.490689849853515625e+01 3.127491378784179688e+01 -7.036620330196693279e-15 4.544937831033740716e-13 1.342371580646123386e-13 -9.353372839703694153e-14
4.611000000000000000e+03 3.762744140625000000e+01 -4.371020317077636719e+00 -2.079878424435938067e-13 4.255605199829370910e-13 6.527181003806656334e-14 -1.511699429914206694e-13
4.612000000000000000e+03 5.185744094848632812e+01 -1.161712169647216797e+01 5.632769641342183498e-13 3.557817831578019563e-13 2.757176268981115230e-13 2.820843669868074166e-14
4.613000000000000000e+03 7.496372222900390625e+01 2.514875411987304688e+01 7.888482889909648188e-14 3.998153804557480484e-13 1.436100587406952123e-13 -1.973013766254361201e-13
4.614000000000000000e+03 4.017366886138916016e+00 2.892858314514160156e+01 -5.317046038481529346e-14 5.719749760629833091e-13 1.556413553810767625e-13 6.251525311957648046e-14
4.615000000000000000e+03 5.244159698486328125e+00 2.976141738891601562e+01 -8.884363242919052217e-14 5.395299007907028432e-13 1.352058791532009807e-13 -8.390465107638647724e-14
4.616000000000000000e+03 4.678900527954101562e+01 -1.076158332824707031e+01 1.373321080336623035e-13 -2.614000324790283214e-13 -3.722037259022530076e-14 -1.528418640565562536e-13
4.617000000000000000e+03 4.627402496337890625e+01 -1.037741947174072266e+01 7.080054993885767645e-14 -6.115880778157986586e-14 2.892522858941579990e-15 7.383326670320697338e-14
4.618000000000000000e+03 3.702307128906250000e+01 -4.051946640014648438e+00 -1.461127226154435021e-13 1.775727460039122629e-13 9.438007016540628236e-15 -1.769134426628238277e-13
4.619000000000000000e+03 3.974784851074218750e+01 -4.893743038177490234e+00 -1.261582255763366023e-13 8.318503221318995777e-14 -1.289195834775717225e-14 6.836154906042501977e-14
4.620000000000000000e+03 5.394414901733398438e+01 -1.088230991363525391e+01 3.721864667589197539e-13 -2.349531159906437239e-14 1.046073424821984676e-13 1.334630343253258994e-14
4.621000000000000000e+03 7.501425170898437500e+01 2.436990737915039062e+01 -7.647672778257966208e-14 6.077375473527435457e-13 1.593782479039282385e-13 -6.700432445211693122e-14
4.622000000000000000e+03 4.855930328369140625e+01 -1.279443931579589844e+01 6.155510671491948305e-13 -1.069808711019401559e-14 1.814558973998320335e-13 -1.840536356407119351e-14
4.623000000000000000e+03 7.369267272949218750e+01 3.000008010864257812e+01 -2.623498037465209903e-14 1.424510330657810520e-13 3.486481462149255972e-14 -2.630136505723384976e-13
4.624000000000000000e+03 7.556599426269531250e+01 2.764639091491699219e+01 3.458284751774697019e-14 5.180816713135083518e-13 1.657993539553107021e-13 -1.530402866066482570e-13
4.625000000000000000e+03 4.091892719268798828e+00 6.398830890655517578e+00 2.666831565420382105e-14 -5.719714659584498873e-14 -9.158648774272581949e-15 -3.032283422293481634e-14
4.626000000000000000e+03 7.538210296630859375e+01 1.750416183471679688e+01 -1.313223076289393720e-13 7.901115742572906164e-13 1.976367745674945109e-13 -8.135026398174705076e-14
4.627000000000000000e+03 7.602522277832031250e+01 1.910306167602539062e+01 -2.038010399004787365e-14 7.690318108884153236e-13 2.245955022439280468e-13 -1.135083238339162914e-13
4.628000000000000000e+03 5.623286056518554688e+01 -6.084083080291748047e+00 -1.329282414393520573e-13 -5.696924729918853569e-14 -5.696924729918853569e-14 -2.033241061410659412e-13
4.629000000000000000e+03 7.541030120849609375e+01 1.673836708068847656e+01 -1.799601049776167194e-13 6.091384991899206902e-13 1.287535074216694664e-13 -3.970018690418845864e-14
4.630000000000000000e+03 4.036172866821289062e+01 -7.820870399475097656e+00 -1.516316199933875203e-14 3.137581340573181166e-13 8.957849788543761904e-14 3.842165165668029458e-14
4.631000000000000000e+03 4.148401260375976562e+01 -8.616838455200195312e+00 1.956029468171832653e-13 3.807888452798079137e-14 7.010454635423060687e-14 -5.875515189397023663e-14
4.632000000000000000e+03 7.548513031005859375e+01 2.842099380493164062e+01 -2.794047951988273826e-14 6.285387791835073124e-13 1.801794932872191612e-13 -1.860521963272313006e-13
4.633000000000000000e+03 7.422657012939453125e+01 2.502741813659667969e+01 -9.401913248592227990e-14 5.544684177939684933e-13 1.381347835595347906e-13 -1.287096107862109595e-13
4.634000000000000000e+03 7.590653228759765625e+01 2.138554763793945312e+01 -6.010882574016343516e-14 6.605032818428335784e-13 1.801183442846909788e-13 -4.516256007949630280e-14
4.635000000000000000e+03 7.448029327392578125e+01 1.966514396667480469e+01 -1.027220775345720483e-13 6.422404925585101232e-13 1.618555278953132115e-13 2.786760631081513541e-15
4.636000000000000000e+03 7.543402099609375000e+01 1.039400005340576172e+01 -1.580230765034842944e-13 7.100419427766291314e-13 1.656056612371961667e-13 2.450933607543032133e-13
4.637000000000000000e+03 5.847803115844726562e+00 2.481186294555664062e+01 -7.699382445621946736e-14 -3.299735430641742573e-14 -3.299735430641742573e-14 -6.505057858477089616e-14
4.638000000000000000e+03 7.610856628417968750e+01 1.365441989898681641e+01 8.603079017135539103e-15 7.814531899179300023e-13 2.370168677209155694e-13 -3.803102039019734537e-14
4.639000000000000000e+03 7.542484283447265625e+01 1.119589328765869141e+01 -9.227781570548404533e-14 6.924675676617253473e-13 1.800569242316196750e-13 4.706227879733466957e-14
4.640000000000000000e+03 7.544036865234375000e+01 9.592534065246582031e+00 -7.108444150145942775e-14 5.642975778492875794e-13 1.479639436148538767e-13 9.711093826867203682e-14
4.641000000000000000e+03 7.038144683837890625e+01 -1.121801376342773438e+01 1.872520286614123841e-13 -2.171302959479148864e-13 -8.963481371796876845e-15 5.251231239666691308e-14
4.642000000000000000e+03 7.365031433105468750e+01 -9.609732627868652344e+00 1.167825195271324223e-13 -4.532107924625633499e-13 -1.009284818806292783e-13 1.291085700806313130e-13
4.643000000000000000e+03 7.530577850341796875e+01 -6.997979640960693359e+00 1.511171558981477814e-13 2.020173443676234748e-13 1.059403487244786612e-13 2.383017286104738286e-13
4.644000000000000000e+03 7.504605865478515625e+01 2.360228729248046875e+01 3.464555167276631154e-14 5.638595059614948113e-13 1.795515098363884010e-13 -1.698326402470654028e-13
4.645000000000000000e+03 7.611089324951171875e+01 1.444932079315185547e+01 -1.390897623855871790e-13 6.724052738216190761e-13 1.599946574965677160e-13 1.192475344814411531e-13
4.646000000000000000e+03 7.542374420166015625e+01 1.596254634857177734e+01 -6.703548848831231144e-14 7.490366291627859052e-13 2.046003476233529406e-13 -2.220025073875527694e-14
4.647000000000000000e+03 7.540671539306640625e+01 -5.385629177093505859e+00 8.269283830819942893e-14 3.099454829076642159e-13 1.177914916213745888e-13 1.260576929298928839e-13
4.648000000000000000e+03 7.550973510742187500e+01 3.306452274322509766e+00 -2.716688365152902795e-13 5.698347067643882990e-13 8.944976242998212146e-14 4.325369001769580057e-13
4.649000000000000000e+03 7.548218536376953125e+01 4.853235244750976562e+00 -1.571939464446031609e-13 4.358916114340083414e-13 8.360929407581069173e-14 3.497487943791149911e-13
4.650000000000000000e+03 7.613908386230468750e+01 7.274502754211425781e+00 -1.089788320891328655e-13 7.768118830478454306e-13 2.003499091889765493e-13 2.002496475930759523e-13
4.651000000000000000e+03 7.546793365478515625e+01 5.633278846740722656e+00 -2.014632357423204456e-13 5.091145739580596463e-14 -4.516553485920705990e-14 5.169866271192979923e-13
4.652000000000000000e+03 7.470431518554687500e+01 1.192463588714599609e+01 -1.079266884196350418e-13 5.485080163507294326e-13 1.321744092213500421e-13 1.172643254200578244e-13
4.653000000000000000e+03 4.938311100006103516e+00 2.396488380432128906e+01 -7.964091761286998250e-15 -1.864169761481640486e-13 -5.831432206690120856e-14 -1.408240521806949919e-13
4.654000000000000000e+03 7.586943054199218750e+01 2.216101264953613281e+01 -5.949482172109415989e-14 4.777626319736605343e-13 1.254803552730443528e-13 -1.213263024118019229e-13
4.655000000000000000e+03 7.455308532714843750e+01 1.891800117492675781e+01 -1.002409689542654858e-13 4.603000381027400056e-13 1.080177139682787779e-13 -7.461778861895390635e-14
4.656000000000000000e+03 7.613521575927734375e+01 8.068549156188964844e+00 -1.358319381451755792e-13 7.653034022475635467e-13 1.888414419412218215e-13 4.369949768798925271e-13
4.657000000000000000e+03 7.615087127685546875e+01 1.953374296426773071e-01 -3.181136452347355092e-13 4.584278920014006609e-13 4.209427470762590329e-14 1.160267357452199333e-13
4.658000000000000000e+03 7.543023681640625000e+01 -1.380741834640502930e+00 -1.883881776704871003e-13 1.022660078907160208e-13 -2.583665127274450274e-14 2.365707727370464086e-13
4.659000000000000000e+03 7.617383575439453125e+01 1.768615245819091797e+00 -3.260730173284404065e-13 1.347601094299835656e-13 -5.739387508004248351e-14 2.761182667058992291e-13
4.660000000000000000e+03 7.546655273437500000e+01 2.137747555971145630e-01 -2.561392666976941568e-13 2.562336193917547078e-13 2.830560440086237394e-17 3.395708193798530061e-13
4.661000000000000000e+03 7.548874664306640625e+01 9.953776001930236816e-01 -2.185561844350591976e-13 2.723406623914709224e-13 1.613533898235219172e-14 2.350464115875861015e-13
4.662000000000000000e+03 7.461870574951171875e+01 2.894083404541015625e+01 -4.665364723368961922e-15 4.097590864705902280e-13 1.215281130936829435e-13 -2.045075805749696496e-13
4.663000000000000000e+03 7.480062866210937500e+01 4.804123878479003906e+00 -1.582502439636743197e-13 2.368036796924870291e-14 -4.037096245951450613e-14 4.533489469243923153e-13
4.664000000000000000e+03 7.544496154785156250e+01 8.794512748718261719e+00 -1.848738854061740544e-13 6.756590187513566992e-13 1.472355359377966466e-13 3.913892322217338293e-13
4.665000000000000000e+03 7.544878387451171875e+01 8.000216484069824219e+00 -1.881439882361890525e-13 7.886348908983653594e-13 1.801472789301691857e-13 2.228221134079749755e-13
4.666000000000000000e+03 7.551619720458984375e+01 2.537881135940551758e+00 -2.574684443510527609e-13 1.184111267154772107e-13 -4.171718919203544484e-14 4.606502896145614478e-13
4.667000000000000000e+03 7.612442016601562500e+01 -2.993251323699951172e+00 -9.237548199243425517e-14 6.466747168136499635e-13 1.662897792555073639e-13 9.332068605827532892e-15
4.668000000000000000e+03 7.612390899658203125e+01 -3.795180797576904297e+00 -4.641638229373537539e-14 -6.564368460696551333e-14 -3.361801939258390881e-14 1.235943449364243496e-13
4.669000000000000000e+03 7.537126159667968750e+01 -6.187959194183349609e+00 1.536229266897466000e-14 -2.221709009255987133e-13 -6.204258162995426873e-14 1.404633245653819085e-13
4.670000000000000000e+03 7.518897247314453125e+01 -8.625556945800781250e+00 3.365119936719375426e-14 1.974257346146202075e-13 6.932308053335736742e-14 2.695885235968337179e-13
4.671000000000000000e+03 5.039596557617187500e+00 2.859065818786621094e+01 -7.970311693625276028e-14 6.521057565461729766e-13 1.717207918829760649e-13 -1.200901493048425750e-13
4.672000000000000000e+03 7.541725158691406250e+01 -2.183046579360961914e+00 -1.450896694454861802e-13 5.783319786609175672e-13 1.299727063171565722e-13 1.072921658744514783e-13
4.673000000000000000e+03 7.541244506835937500e+01 -2.987666845321655273e+00 -9.913924336416718441e-14 3.262701667880126867e-15 -2.876296206419381996e-14 2.584505959940530673e-13
4.674000000000000000e+03 7.541448211669921875e+01 1.199593734741210938e+01 -2.311905549813586536e-13 5.185561181841880085e-13 8.620967167135423770e-14 3.919934038823513767e-13
4.675000000000000000e+03 7.541487884521484375e+01 -3.790613889694213867e+00 -2.047373162390557499e-14 4.487350432642173148e-13 1.284783911204012696e-13 8.970040964347003598e-14
4.676000000000000000e+03 7.542371368408203125e+01 1.517983531951904297e+01 -2.077811392994094453e-13 5.972151484283372280e-13 1.168302108701946285e-13 1.191402933340551806e-13
4.677000000000000000e+03 4.649747467041015625e+01 -1.133310031890869141e+01 2.533212626210784579e-13 -1.201884864418870102e-13 3.993983285375743431e-14 1.943927400234642111e-14
4.678000000000000000e+03 4.571316242218017578e+00 8.751608848571777344e+00 3.469049185281583569e-14 -5.375907035612588480e-14 -5.720573381586425282e-15 -6.536569347587433548e-15
4.679000000000000000e+03 4.020078182220458984e+00 7.182120800018310547e+00 -7.260545517671218585e-14 -2.141204151918235654e-13 -8.601776111056072538e-14 9.388349879414434329e-14
4.680000000000000000e+03 7.597806549072265625e+01 -9.364223480224609375e+00 4.229605828445261173e-14 2.926325631466553112e-13 1.004785921891564182e-13 2.282504426350667748e-13
4.681000000000000000e+03 5.760737895965576172e+00 5.627676010131835938e+00 -3.819393193100865946e-14 -2.679990561069156563e-13 -9.185789065155325339e-14 4.929085297474683491e-14
4.682000000000000000e+03 7.522862243652343750e+01 -7.814622879028320312e+00 4.714278080864171827e-14 -3.000525988696572943e-13 -7.587294236898606270e-14 7.605285894324645413e-14
4.683000000000000000e+03 7.442705535888671875e+01 -1.025289440155029297e+01 7.091998836068411083e-14 -1.983604659651014290e-13 -3.823214328132519546e-14 1.128995443140656807e-13
4.684000000000000000e+03 5.013396739959716797e+00 3.348773956298828125e+01 -9.473458394701830820e-14 3.711579925781000044e-13 8.292702597745629789e-14 -7.682890375325726606e-15
4.685000000000000000e+03 4.085001945495605469e+00 2.246795654296875000e+01 3.081918875376225830e-14 5.895917163777769643e-14 2.693350811746198642e-14 1.386309280261913135e-13
4.686000000000000000e+03 5.272843837738037109e+00 2.455225181579589844e+01 -2.880572918121716321e-15 4.451641624227641036e-14 1.249075356899364761e-14 2.365766070999870962e-14
4.687000000000000000e+03 7.507669067382812500e+01 2.283137702941894531e+01 -8.400664061949947303e-14 4.672575802840139847e-13 1.149752900308706471e-13 -1.123196249007939185e-13
4.688000000000000000e+03 4.670254230499267578e+00 1.048079967498779297e+01 8.656314190837524625e-14 1.972268106210234295e-13 8.513698914695139175e-14 4.290775837390535530e-14
4.689000000000000000e+03 7.519188690185546875e+01 -9.416481971740722656e+00 2.246833327842947398e-14 -3.106273647589946618e-13 -8.644770825832343020e-14 9.067988466235701872e-14
4.690000000000000000e+03 4.047092914581298828e+00 2.163140296936035156e+01 9.412501160432906744e-15 1.870377225494934681e-13 5.893506846823062806e-14 -2.082822507672686674e-14
4.691000000000000000e+03 4.627332687377929688e+00 2.917554283142089844e+01 1.936622079877752672e-14 4.200583565878990289e-13 1.318273696584645882e-13 6.244884573651174331e-14
4.692000000000000000e+03 3.915898561477661133e+00 2.656768798828125000e+01 2.422875912215776556e-14 2.848894351762526478e-13 9.273546421875375478e-14 -8.380455041674585853e-15
4.693000000000000000e+03 5.110837459564208984e+00 1.835492134094238281e+01 -1.027478612174864692e-13 3.219727815525347259e-13 6.576748016627262383e-14 -1.209590831359810825e-13
4.694000000000000000e+03 3.917271137237548828e+00 1.605044174194335938e+01 -5.140372753376174636e-15 1.808007817896348235e-13 5.269812093210840542e-14 -3.305962816869956189e-14
4.695000000000000000e+03 4.649336814880371094e+00 1.684679031372070312e+01 1.194759115046798575e-14 1.194977683428508075e-13 3.943360869502858523e-14 -6.944314237143298096e-14
4.696000000000000000e+03 4.505918025970458984e+00 1.841923904418945312e+01 1.087725219682360300e-13 1.381186967098005369e-13 7.406736628103732789e-14 -3.241511741100197574e-14
4.697000000000000000e+03 5.158010005950927734e+00 1.220650005340576172e+01 4.894381002372959200e-14 2.097591882360781007e-14 2.097591882360781007e-14 8.478671053007563740e-14
4.698000000000000000e+03 5.388904094696044922e+00 2.251099205017089844e+01 -8.449606303268658580e-14 2.382930820981482567e-13 4.613910775251757468e-14 -7.568955634777371766e-14
4.699000000000000000e+03 3.941767215728759766e+00 2.005130386352539062e+01 3.422289239648178272e-14 6.041790467448474033e-14 2.839223776603724131e-14 -7.738205014913221436e-14
4.700000000000000000e+03 4.542371749877929688e+00 1.220339012145996094e+01 -5.958492569789128335e-14 6.596550291681352318e-14 1.914173335083261401e-15 1.519228400850489158e-13
4.701000000000000000e+03 7.432979583740234375e+01 2.948472404479980469e+01 7.489590680498717234e-14 4.896077575484991673e-13 1.693510918521559661e-13 -1.807992232490118756e-13
4.702000000000000000e+03 4.459327697753906250e+00 1.295900249481201172e+01 -6.224141753212453221e-14 1.105779557546496261e-13 1.450096180557070707e-14 1.356662449481654820e-13
4.703000000000000000e+03 3.821788311004638672e+00 1.368068504333496094e+01 -8.347100578277606014e-15 2.709283535365369922e-13 7.877437580277452112e-14 -2.209537450735803849e-14
4.704000000000000000e+03 3.885303258895874023e+00 1.524442100524902344e+01 -4.376183185901723338e-14 2.557506344289667277e-13 6.359663636641352258e-14 8.304077911414076141e-14
4.705000000000000000e+03 4.483906745910644531e+00 1.363664150238037109e+01 -6.762644643495269170e-14 8.539460913566110367e-14 5.330449911355355022e-15 6.897154830771967671e-14
4.706000000000000000e+03 4.563849449157714844e+00 1.438177871704101562e+01 7.323869700807950078e-14 2.830182377518142278e-13 1.068770790727154030e-13 -2.991824046534932724e-14
4.707000000000000000e+03 4.573666572570800781e+00 1.518136501312255859e+01 3.839047237389186379e-15 1.388981567566546782e-13 4.282116111350986465e-14 -8.464112250710156826e-14
4.708000000000000000e+03 4.575330734252929688e+00 1.918279266357421875e+01 -9.652361917557306104e-14 1.873874726178101358e-13 2.725915671029748022e-14 -8.367841874057022067e-14
4.709000000000000000e+03 4.693245410919189453e+00 1.999121284484863281e+01 4.373597024907166508e-14 6.449493852389923121e-14 3.246927330951762669e-14 -3.668081937908788948e-14
4.710000000000000000e+03 5.812034225463867188e+01 -1.069491672515869141e+01 4.906028925125149875e-13 -1.557492063921847580e-13 1.004561085466045001e-13 -2.361152451942766239e-14
4.711000000000000000e+03 5.748789978027343750e+01 -8.616075515747070312e+00 3.027666550629859454e-13 -5.324665269248671229e-14 7.485600138877612775e-14 -3.106304276301319334e-13
4.712000000000000000e+03 4.768625736236572266e+00 2.596618270874023438e+01 1.031676914037271686e-13 3.187204189805670218e-13 1.265664276942773947e-13 -2.455859713995037913e-14
4.713000000000000000e+03 4.962958812713623047e+00 2.705747795104980469e+01 3.138279092433811368e-14 4.709592633413139939e-13 1.507026111974979488e-13 -2.539209788883934477e-14
4.714000000000000000e+03 4.573950576782226562e+01 -8.468222618103027344e+00 -5.587832307323362113e-14 1.590559417031026102e-13 3.095328762183977012e-14 -1.047097453773897235e-13
4.715000000000000000e+03 4.488104248046875000e+01 -8.600607872009277344e+00 1.484027134577951823e-14 1.436129589815066110e-13 4.753597011462537547e-14 7.663119271084095629e-14
4.716000000000000000e+03 9.005415916442871094e+00 6.253640174865722656e+00 4.206588893949751717e-14 -2.564774564603466978e-13 -6.432347195032064868e-14 1.034390129973916661e-13
4.717000000000000000e+03 4.089261627197265625e+01 1.803320693969726562e+01 2.467658713543700866e-14 1.020775803294016182e-13 3.802624990063840915e-14 6.601126302475598950e-14
4.718000000000000000e+03 3.994827270507812500e+01 1.889961814880371094e+01 -2.339746235299755561e-14 1.284799056153109603e-14 -3.164841410384995786e-15 1.066626509880520823e-13
4.719000000000000000e+03 3.790010452270507812e+01 -6.258276462554931641e+00 6.322528356981008124e-14 8.785952922227974193e-14 4.532544451525330476e-14 -1.673534764544057363e-13
4.720000000000000000e+03 3.720811462402343750e+01 -4.955215454101562500e+00 -1.088444181247989750e-13 1.020429739513085965e-13 -2.040433548508645105e-15 -1.747314722381695939e-13
4.721000000000000000e+03 5.461788177490234375e+01 -1.086066627502441406e+01 2.877906517696066091e-13 -3.341706251991372056e-13 -1.391399084301305281e-14 1.414354202332324117e-13
4.722000000000000000e+03 3.872244262695312500e+01 -6.539809703826904297e+00 -7.527049187931733609e-14 1.049940638445968910e-13 8.917072436616813730e-15 -1.123646328434792230e-13
4.723000000000000000e+03 3.680892181396484375e+01 1.127119064331054688e+01 -4.960450249885152429e-15 4.553835607212786130e-13 1.351269356825168799e-13 -1.630676659241520055e-13
4.724000000000000000e+03 3.608875274658203125e+01 1.147876834869384766e+01 1.626916781632611886e-13 -1.132787914577375321e-13 1.482386601165709694e-14 7.381404921969966781e-14
4.725000000000000000e+03 4.952978515625000000e+01 -1.188721275329589844e+01 3.411642984178092641e-13 -3.112962090792009695e-13 8.960428665054972347e-15 -4.285315524199355408e-14
4.726000000000000000e+03 3.678788757324218750e+01 1.486811447143554688e+01 1.026576081628906290e-13 4.399611778409598384e-14 4.399611778409598384e-14 -1.606073265917121184e-13
4.727000000000000000e+03 4.430130386352539062e+01 -8.193990707397460938e+00 -1.119849215257522762e-14 -1.878031557307410782e-13 -5.970049487321466009e-14 -2.047479210915553738e-13
4.728000000000000000e+03 4.196754074096679688e+01 1.938351058959960938e+01 -8.800468356438481687e-14 1.452875092369104726e-13 1.718484668531816001e-14 -1.321186998644091268e-14
4.729000000000000000e+03 6.414780426025390625e+01 -8.539293289184570312e+00 4.041493160099329796e-13 -9.796942310137321530e-15 1.183057151592573075e-13 2.074266051890066853e-13
4.730000000000000000e+03 7.366252136230468750e+01 -1.034016227722167969e+01 1.389715707962591029e-13 2.425630497241565431e-13 1.144603888666301250e-13 1.557113812888921700e-13
4.731000000000000000e+03 6.649661254882812500e+01 1.517468166351318359e+01 -4.373022397755749191e-13 -1.148185171072346744e-12 -4.756462151228602053e-13 1.246697379662584093e-13
4.732000000000000000e+03 1.056854438781738281e+01 6.159093856811523438e+00 -1.281327661025377304e-14 1.775123966004862885e-13 4.940973574295987047e-14 2.405557578220168802e-13
4.733000000000000000e+03 9.792596817016601562e+00 6.190743923187255859e+00 1.445521016795771330e-14 -1.768087087329617280e-13 -4.870604787543530989e-14 -2.329560325295843698e-14
4.734000000000000000e+03 8.407664299011230469e+00 7.847081184387207031e+00 2.589109177433043113e-14 -1.719076134698224734e-13 -4.380495600042784432e-14 2.458748096345175077e-14
4.735000000000000000e+03 7.386106491088867188e+00 5.624073982238769531e+00 -5.263922164908813039e-14 1.375686538426443284e-13 2.547883067450639610e-14 1.258195343701792868e-13
4.736000000000000000e+03 7.124439239501953125e+01 -1.119212532043457031e+01 2.213696890726590816e-13 -4.238012122226991751e-14 5.369687103274310702e-14 2.871601339961976640e-13
4.737000000000000000e+03 6.905628967285156250e+01 -9.843264579772949219e+00 3.491025285691506941e-13 -2.621431717531041983e-13 2.608781348226434788e-14 1.702732735624906679e-13
4.738000000000000000e+03 4.731368637084960938e+01 -1.110399436950683594e+01 2.104148967693383887e-13 -9.282598154762913834e-14 3.527667253363370170e-14 3.601666423327758160e-14
4.739000000000000000e+03 5.245232009887695312e+01 -8.913776397705078125e+00 -1.476950208184960034e-13 -3.606790430557560434e-13 -1.525122123860120360e-13 1.119886484707201951e-14
4.740000000000000000e+03 3.997343444824218750e+01 1.815243148803710938e+01 1.460345380862801412e-13 -4.035340177245202997e-14 3.170434157177479118e-14 7.726347908904376838e-14
4.741000000000000000e+03 6.545042419433593750e+01 1.283458423614501953e+01 -2.381799456014493943e-13 -1.200099915277252904e-12 -4.314839501320943960e-13 1.837771471460691863e-13
4.742000000000000000e+03 6.595972442626953125e+01 1.095308208465576172e+01 -1.948745120350717230e-13 -1.181540434068428791e-12 -4.129244689232702825e-13 7.987245576306784001e-14
4.743000000000000000e+03 5.931006622314453125e+01 -9.123085021972656250e+00 4.086326004133777889e-13 -3.646988784643083459e-14 1.116488086878864028e-13 -7.483553876683635836e-15
4.744000000000000000e+03 3.839482879638671875e+01 1.321540832519531250e+01 1.666591533831460192e-13 1.171763017561791576e-13 8.515063654179755304e-14 -6.700626246350024906e-14
4.745000000000000000e+03 3.597556304931640625e+01 1.309327507019042969e+01 -3.493634485982229088e-14 7.652917606267364836e-14 1.247784986907517560e-14 -1.086277132155734348e-13
4.746000000000000000e+03 2.997654724121093750e+01 -5.219976902008056641e+00 6.100073788109505735e-15 -1.346385297088664723e-13 -3.856153745385344778e-14 -1.610352340841378349e-13
4.747000000000000000e+03 3.841709136962890625e+01 -5.867999553680419922e+00 -1.139357434353643894e-13 3.629289251939893379e-13 7.469795859334563137e-14 -1.035908758404389951e-13
4.748000000000000000e+03 4.141749191284179688e+01 1.868311500549316406e+01 -5.000901494127407698e-14 7.006946563768712277e-14 6.018134361890966483e-15 -6.772639632272869914e-14
4.749000000000000000e+03 3.570249938964843750e+01 1.397179222106933594e+01 -5.629276782399567775e-15 4.333840008868480864e-14 1.131273741540204589e-14 -3.762332988015669455e-14
4.750000000000000000e+03 3.910229492187500000e+01 1.346698474884033203e+01 -1.304697994607140199e-13 1.957145925358949601e-13 1.957343724492792425e-14 3.447378694359029550e-14
4.751000000000000000e+03 7.289404296875000000e+01 -1.042751598358154297e+01 1.068267924207028097e-13 -2.287227753115100848e-13 -3.656879757774761375e-14 9.961919933713578312e-14
4.752000000000000000e+03 5.259460449218750000e+01 -1.094496250152587891e+01 3.412647226440357340e-13 -8.249844085867277799e-14 7.762987843697166657e-14 1.408533036164954719e-14
4.753000000000000000e+03 5.199606323242187500e+01 -1.095514678955078125e+01 8.405357302104093931e-14 -2.842336825972791026e-13 -6.005403287287144898e-14 -8.611785329987187154e-14
4.754000000000000000e+03 1.203425884246826172e+01 1.123904418945312500e+01 6.360715312748663197e-14 -1.849073940295674345e-14 1.353492496439191381e-14 -1.048360007203756605e-13
4.755000000000000000e+03 6.611436462402343750e+01 -9.115668296813964844e+00 4.639850786566923624e-13 -2.990398320678114286e-14 1.302243360888633017e-13 3.957016734678492353e-13
4.756000000000000000e+03 6.510954284667968750e+01 -8.935068130493164062e+00 3.785332778564326484e-13 -6.652619807031440180e-14 9.360212122533004275e-14 3.581702534387332104e-13
4.757000000000000000e+03 6.218838500976562500e+01 2.121519804000854492e+00 -1.914877897088787528e-13 -9.799285948658420509e-13 -3.514249167276689567e-13 -1.598499707166495254e-13
4.758000000000000000e+03 6.200955581665039062e+01 3.213086843490600586e+00 -1.580799700124854712e-13 -1.211522310425039439e-12 -4.108806665129721702e-13 -1.441843470789336279e-13
4.759000000000000000e+03 6.657638549804687500e+01 1.602651786804199219e+01 -3.293463321073913930e-13 -7.816616819956989648e-13 -3.333024232044651258e-13 8.356207029493536997e-14
4.760000000000000000e+03 5.803740310668945312e+01 -4.581465721130371094e+00 -1.175354030682335127e-13 -5.650705055780524955e-13 -2.047817753043912337e-13 -1.184491822117314519e-13
4.761000000000000000e+03 6.531906890869140625e+01 7.535397052764892578e+00 -2.406939393889001577e-13 -1.292679179844269388e-12 -4.600119655855106071e-13 3.030487373632123616e-14
4.762000000000000000e+03 6.520867919921875000e+01 6.685482978820800781e+00 -9.570510752171870750e-14 -1.024661909140855975e-12 -3.361101002553879002e-13 7.864406147790534152e-14
4.763000000000000000e+03 6.266377258300781250e+01 2.864282369613647461e+00 -2.123016796000062878e-13 -9.373789721864311808e-13 -3.449041996016893874e-13 -1.070780156165948571e-13
4.764000000000000000e+03 3.819115829467773438e+01 1.390691375732421875e+01 2.218219030225392074e-14 3.526387623749294153e-13 1.124462868195945375e-13 -4.262342296603924274e-14
4.765000000000000000e+03 4.322460556030273438e+01 2.091995239257812500e+01 -7.980512680815649018e-14 -1.943305135950271212e-13 -8.224069212095508341e-14 -9.663290675455959988e-14
4.766000000000000000e+03 4.394958877563476562e+01 2.157230186462402344e+01 -1.431905944726877267e-13 -1.528692943715201369e-13 -8.881797071902050589e-14 -9.114083999225280897e-14
4.767000000000000000e+03 1.074598693847656250e+01 1.766966438293457031e+01 8.813654965361336635e-14 1.750256569451463795e-13 7.894866130200156595e-14 2.183728018019786415e-14
4.768000000000000000e+03 1.162879657745361328e+01 2.036166572570800781e+01 -1.142749225324993234e-13 -7.185044388884759270e-14 -5.583761128165679044e-14 -4.932989441735168012e-14
4.769000000000000000e+03 6.277824401855468750e+01 2.356338691711425781e+01 -2.811258170698494041e-13 -1.264256169371258398e-12 -4.636146067743540655e-13 1.993705493665703932e-13
4.770000000000000000e+03 6.515271759033203125e+01 1.026205730438232422e+01 -2.294963806666328043e-13 -1.287880284188414048e-12 -4.552130157195466431e-13 1.755677309263348196e-13
4.771000000000000000e+03 7.071636962890625000e+01 -9.693877220153808594e+00 7.759874828209417652e-14 -4.013774176307022268e-13 -9.713359809407698386e-14 1.766594140938104740e-13
4.772000000000000000e+03 3.945164871215820312e+01 1.459865760803222656e+01 5.290359669908241576e-17 2.287774191010033542e-13 6.864909302909533162e-14 5.170663837416114572e-14
4.773000000000000000e+03 4.258566665649414062e+01 -7.070688247680664062e+00 -7.631220687916856482e-14 3.592119006759486588e-14 -1.211730436584575188e-14 4.900640237039989577e-14
4.774000000000000000e+03 5.216410446166992188e+01 -8.234526634216308594e+00 -2.804755295474515436e-14 -1.492732261583473719e-13 -5.319623390333434731e-14 -2.282605799253795142e-13
4.775000000000000000e+03 3.769847869873046875e+01 1.527128124237060547e+01 1.223582053819921578e-13 1.896920798606996361e-13 9.361508421755482257e-14 4.081920890706969285e-14
4.776000000000000000e+03 3.602481079101562500e+01 1.525322341918945312e+01 4.845317804749380008e-14 -1.865433399113672341e-13 -4.142704991441474582e-14 -1.923958361333896749e-13
4.777000000000000000e+03 3.633375930786132812e+01 1.216440582275390625e+01 4.284812386628686354e-14 2.928691631657459604e-13 1.007151922082470674e-13 -8.046003235418278110e-14
4.778000000000000000e+03 3.663654327392578125e+01 1.286218929290771484e+01 1.912329852576857142e-14 -3.755524875998818291e-14 -5.529585663188946523e-15 -6.186437945037912001e-14
4.779000000000000000e+03 6.766706848144531250e+01 1.543890857696533203e+01 -3.929335426911678697e-13 -8.546643210857740591e-13 -3.742793564225771474e-13 1.731720507009565369e-13
4.780000000000000000e+03 1.206528568267822266e+01 2.137525367736816406e+01 -1.173028959123439963e-13 4.122923045178118751e-14 -2.282209828291612702e-14 2.672104006703861223e-14
4.781000000000000000e+03 1.138882923126220703e+01 2.189223480224609375e+01 -1.244687268834795968e-13 2.440374291534652684e-13 3.587061203624841710e-14 -1.672008987155509246e-14
4.782000000000000000e+03 6.615460205078125000e+01 1.264790630340576172e+01 -2.291833443943819271e-13 -1.104742274223025067e-12 -4.001776937167383918e-13 1.853478714909304048e-13
4.783000000000000000e+03 4.893286132812500000e+01 2.420178794860839844e+01 -1.911618649833024541e-13 -8.192651743642309636e-14 -8.192651743642309636e-14 8.467493606235595993e-14
4.784000000000000000e+03 3.571360397338867188e+01 1.657026672363281250e+01 3.648869197785988006e-14 -3.011293945860520072e-14 1.912725544018166988e-15 -9.183872060189099407e-14
4.785000000000000000e+03 3.965839004516601562e+01 1.577832508087158203e+01 -4.938533102968357957e-14 1.160877085648950868e-13 2.001071122768437877e-14 8.202847309821820199e-14
4.786000000000000000e+03 1.057800006866455078e+01 1.447085666656494141e+01 6.471730838947600817e-14 3.365548941966500784e-13 1.203816641639696150e-13 -1.859453820844507443e-14
4.787000000000000000e+03 1.110475921630859375e+01 1.508454513549804688e+01 3.168646240032414740e-14 7.934690231248264780e-14 3.331000771977614405e-14 -3.014135910805147700e-14
4.788000000000000000e+03 6.037162780761718750e+01 -1.625470519065856934e+00 -1.161500637423401594e-13 -6.445409527280898665e-13 -2.282072913886018517e-13 -2.179223598450241717e-13
4.789000000000000000e+03 5.888254547119140625e+01 -3.380077123641967773e+00 -7.819425310159541787e-14 -4.052382886719774202e-13 -1.450297672754563560e-13 -1.900608847821977365e-13
4.790000000000000000e+03 5.832021331787109375e+01 -3.040548324584960938e+00 -3.912078587508041605e-14 -4.399623298057681042e-13 -1.437249299608700515e-13 -2.674831385031384290e-13
4.791000000000000000e+03 5.391526794433593750e+01 -9.429390907287597656e+00 2.521426535444237782e-13 1.655924000893739534e-14 8.061056704956881536e-14 3.331916245187006853e-14
4.792000000000000000e+03 4.640917205810546875e+01 -8.744755744934082031e+00 5.476366837222843009e-14 -1.595336547328268795e-13 -3.143099726343225042e-14 1.647411150367244365e-14
4.793000000000000000e+03 6.590192413330078125e+01 1.710323524475097656e+01 -4.311862282155298765e-13 -9.625602181637105126e-13 -4.181239230717503919e-13 8.872149027819645206e-14
4.794000000000000000e+03 6.761773681640625000e+01 1.719734573364257812e+01 -4.651206720121536797e-13 -7.940997577386699202e-13 -3.777661235042362176e-13 5.989420792011992956e-14
4.795000000000000000e+03 6.584662628173828125e+01 1.006920623779296875e+01 -7.484600639999852700e-14 -1.038597701764898407e-12 -3.340331212586117315e-13 5.295242986902730029e-15
4.796000000000000000e+03 6.565889739990234375e+01 9.192192077636718750e+00 -1.937512108217409601e-13 -7.921759494038116411e-13 -2.957781318046331931e-13 1.019901868580357085e-13
4.797000000000000000e+03 3.979209518432617188e+01 1.699028587341308594e+01 4.248062083442869299e-15 1.820598005510053012e-15 1.820598005510053012e-15 8.386220456133366974e-14
4.798000000000000000e+03 6.803021240234375000e+01 -1.000861167907714844e+01 3.937528200628065411e-13 -2.472964866738480705e-13 4.393690001668754119e-14 2.046563737706161290e-13
4.799000000000000000e+03 6.701000976562500000e+01 -1.010539054870605469e+01 4.558693917147693675e-13 -2.106670821946585170e-13 7.356068472451696150e-14 7.757928685309806172e-14
4.800000000000000000e+03 5.936217498779296875e+01 -2.810296058654785156e+00 -1.038270082973427599e-13 -3.218624097713757015e-13 -1.277068321968791165e-13 -2.007921281500790744e-13
4.801000000000000000e+03 3.782112121582031250e+01 1.243865108489990234e+01 1.141617724832733050e-13 1.861793190319552260e-13 9.010232338881041247e-14 2.436392863988060681e-14
4.802000000000000000e+03 3.883062362670898438e+01 1.421253204345703125e+01 6.087465194469857122e-14 2.319684158300083787e-13 8.785291558902758036e-14 1.041193837419442103e-13
4.803000000000000000e+03 6.139049148559570312e+01 2.353588676452636719e+01 -3.657686133140547469e-13 -1.163993706108923387e-12 -4.589286849848717154e-13 3.835556817901458748e-13
4.804000000000000000e+03 3.827912902832031250e+01 1.676159477233886719e+01 3.473898279498024988e-14 2.436428879828977934e-13 8.351456191098977078e-14 1.537309233905215233e-14
4.805000000000000000e+03 3.820480728149414062e+01 1.563359737396240234e+01 6.397879052716035075e-14 1.189213793629032012e-13 5.487005232227178120e-14 -6.198457003746271621e-14
4.806000000000000000e+03 1.584053993225097656e+01 6.550710678100585938e+00 6.220270473830322167e-14 1.181602016751825968e-13 5.410887124641938772e-14 -9.607452230693883100e-14
4.807000000000000000e+03 1.085303401947021484e+01 1.214834308624267578e+01 1.871012161392196504e-13 1.716881302925299391e-13 1.076368066400303081e-13 7.501425424837754319e-14
4.808000000000000000e+03 4.225154876708984375e+01 -7.527963161468505859e+00 -1.680199795755458331e-14 8.430104216691075569e-14 2.024971343221344117e-14 -1.279236590788490613e-13
4.809000000000000000e+03 6.707912445068359375e+01 -9.166871070861816406e+00 3.449702275139937546e-13 -4.011670010940771025e-13 -1.685903715622268789e-14 8.580659240867843929e-14
4.810000000000000000e+03 6.668852996826171875e+01 -8.692754745483398438e+00 2.742125916523757700e-13 -6.144954879140629433e-13 -1.020848715890115832e-13 2.587774829490574469e-13
4.811000000000000000e+03 3.682044982910156250e+01 -3.263700962066650391e+00 -1.213567142827401413e-13 1.996202004693123366e-13 2.347904687241119531e-14 -1.463060087577433555e-13
4.812000000000000000e+03 3.498121643066406250e+01 2.106429100036621094e+01 -5.282941442706461099e-14 2.342966453394891438e-16 -1.577853482365079024e-14 2.018006191296072005e-14
4.813000000000000000e+03 1.352836322784423828e+01 6.705592155456542969e+00 3.189403629437828624e-14 1.509217149040301131e-13 5.484472603714887762e-14 6.516828905938493177e-14
4.814000000000000000e+03 1.260715961456298828e+01 2.587372589111328125e+01 -1.447739362203312452e-13 2.353351888362276156e-13 2.716837680120844783e-14 -2.405099231751750555e-14
4.815000000000000000e+03 5.155945205688476562e+01 2.535879516601562500e+01 -2.869850082402869429e-13 -1.372907457207819815e-13 -1.272827194120570993e-13 1.065714221515010052e-13
4.816000000000000000e+03 4.663025665283203125e+01 -9.846879005432128906e+00 -1.435366447010907875e-14 -2.320468849622420171e-13 -7.392016550733168656e-14 -1.468873850676843951e-13
4.817000000000000000e+03 1.351900100708007812e+01 5.328170776367187500e+00 1.237710698905394868e-13 -2.214609517905280489e-13 -2.930696389237021082e-14 6.602142064385946307e-14
4.818000000000000000e+03 3.630033493041992188e+01 6.465715885162353516e+00 2.456685029017524613e-13 -1.692191851053459484e-13 2.293479601654831168e-14 2.279135437506258494e-14
4.819000000000000000e+03 1.169550704956054688e+01 8.369872093200683594e+00 1.082494960639654447e-13 2.293964443313839530e-13 1.012937766975939569e-13 1.528258043118763121e-13
4.820000000000000000e+03 4.844418334960937500e+01 -1.017000865936279297e+01 6.629079067361348665e-14 -2.460953532970600044e-13 -5.394136878703395532e-14 2.628675611058596540e-14
4.821000000000000000e+03 6.513629913330078125e+01 5.809735774993896484e+00 -1.517781533051307252e-13 -1.094444088307888752e-12 -3.738666819706748523e-13 1.162983118722850807e-15
4.822000000000000000e+03 5.146497726440429688e+01 -8.639499664306640625e+00 -9.199016331659648493e-14 -1.309262485753304173e-13 -6.687492492283078627e-14 -7.468490073343075908e-14
4.823000000000000000e+03 5.395197868347167969e+00 1.279532337188720703e+01 5.116291098465966525e-14 2.964326646561626921e-13 1.042786733698730650e-13 1.065212235909149263e-13
4.824000000000000000e+03 4.313320159912109375e+01 -7.424923419952392578e+00 6.535483281942464084e-14 -1.092436349172352938e-13 -1.316664012112342755e-14 -5.341094997919973442e-14
4.825000000000000000e+03 4.133086395263671875e+01 -7.053302288055419922e+00 -4.998776457869336109e-14 2.432762141962949848e-14 -7.698042947719158785e-15 -2.019018734481219796e-14
4.826000000000000000e+03 3.422410202026367188e+01 2.214152336120605469e+01 -4.832932150181448727e-14 2.162907736418038900e-15 -1.384992465901452655e-14 3.393652749767404886e-14
4.827000000000000000e+03 4.993475341796875000e+01 2.463107681274414062e+01 -1.980811754854691631e-13 -8.489193235091535561e-14 -8.489193235091535561e-14 6.624511865709753478e-14
4.828000000000000000e+03 3.910070419311523438e+01 -5.593122959136962891e+00 -1.390929743345231673e-13 1.233925207020161730e-13 -4.710135073312561593e-15 -3.466204509831524727e-14
4.829000000000000000e+03 4.037307357788085938e+01 -6.708090305328369141e+00 -5.754802152391561010e-14 1.125894082826262022e-13 1.651241433354728311e-14 8.562179692464186309e-14
4.830000000000000000e+03 2.023268127441406250e+01 2.665362739562988281e+01 -6.091429308663007247e-14 8.827124822101753421e-14 8.207085185063522914e-15 -4.699901560057014038e-14
4.831000000000000000e+03 6.720233917236328125e+01 1.813600540161132812e+01 -4.701178682453566182e-13 -8.419923829341979804e-13 -3.936330699328555172e-13 3.994274664709598910e-14
4.832000000000000000e+03 5.341455459594726562e+01 2.652246856689453125e+01 -2.301399088661115755e-13 -3.045106484675375036e-13 -1.603951753316110174e-13 2.210899513596306654e-13
4.833000000000000000e+03 2.651721191406250000e+01 2.580043029785156250e+01 -7.589212597117547809e-14 -1.011516174639903731e-13 -5.311312303054975537e-14 -1.526303904228129560e-14
4.834000000000000000e+03 6.383980941772460938e+01 3.249393463134765625e+00 -2.116886445866286715e-13 -1.005742689651201172e-12 -3.652293853635690812e-13 3.233078342264154859e-14
4.835000000000000000e+03 5.892872619628906250e+01 2.509708595275878906e+01 -2.834453320926105802e-13 -9.221181760873942146e-13 -3.616690551645068696e-13 5.069899578283298958e-13
4.836000000000000000e+03 5.785078430175781250e+01 2.559976959228515625e+01 -3.553725781528516148e-13 -5.297478493197782523e-13 -2.655361282417889601e-13 4.172239539534244868e-13
4.837000000000000000e+03 1.268640327453613281e+01 2.400469207763671875e+01 -1.695103204937126185e-13 1.561074674475554369e-13 -4.020857353803164794e-15 -4.788846118155935805e-14
4.838000000000000000e+03 1.161304664611816406e+01 2.290565872192382812e+01 -1.331608570154588223e-13 2.174367592444950703e-13 2.528277134633723222e-14 2.776732735073911967e-14
4.839000000000000000e+03 6.294022083282470703e+00 3.554965209960937500e+01 3.326119829322356225e-14 4.088567321074848548e-13 1.326353848800365665e-13 4.459355722684875400e-14
4.840000000000000000e+03 1.864065170288085938e+01 2.634097480773925781e+01 1.077681797560835555e-14 7.896392822384287746e-14 2.692222394453866463e-14 -1.190795085556943175e-14
4.841000000000000000e+03 6.493751525878906250e+01 2.279755973815917969e+01 -3.398524408941561159e-13 -1.129296417663738783e-12 -4.407446629883793321e-13 -8.007173889863425376e-14
4.842000000000000000e+03 6.511331176757812500e+01 2.410464286804199219e+01 -1.992243718086650350e-13 -8.173970398109298152e-13 -3.049864234858784551e-13 -7.044434886761472003e-14
4.843000000000000000e+03 2.878931236267089844e+01 2.562033081054687500e+01 -3.445714782837443202e-14 -3.764282519047069953e-14 -2.162999258327989727e-14 2.964127424412432710e-14
4.844000000000000000e+03 6.597898864746093750e+01 2.077041435241699219e+01 -4.560759322286278561e-13 -1.041853669309089625e-12 -4.493788696192935195e-13 1.903834789742254313e-14
4.845000000000000000e+03 4.586796569824218750e+01 2.391714096069335938e+01 -1.534665271382337770e-13 -1.115223229519388126e-13 -7.949665773755720810e-14 -7.811498437025957142e-14
4.846000000000000000e+03 4.527199554443359375e+01 2.301355171203613281e+01 -1.797778641449490622e-13 -2.085816328684098053e-13 -1.165078504592603759e-13 -3.256446964839364300e-14
4.847000000000000000e+03 6.587348937988281250e+01 2.174656105041503906e+01 -4.817360160953854109e-13 -1.121477260015990574e-12 -4.809640099384671075e-13 -8.238020183549965569e-14
4.848000000000000000e+03 1.770276832580566406e+01 2.671304702758789062e+01 -9.995834455295282694e-14 2.578713203258212183e-14 -2.225136409492439044e-14 -2.822388149744097657e-14
4.849000000000000000e+03 1.419511222839355469e+01 2.544112396240234375e+01 -1.536382647623554809e-13 2.429739352424742371e-13 2.680069843353019565e-14 1.841789965169055715e-14
4.850000000000000000e+03 8.518867492675781250e+00 3.832550811767578125e+01 1.130729099355120074e-14 3.451186547914070202e-13 1.069277858530698344e-13 2.166358929809979184e-14
4.851000000000000000e+03 7.062708377838134766e+00 4.148825454711914062e+01 2.145040296373714600e-14 4.209515765477012117e-13 1.327205896182667710e-13 -1.134892605104053862e-14
4.852000000000000000e+03 7.469506072998046875e+01 3.504117202758789062e+01 5.307239091018219057e-14 3.887529133241723889e-13 1.325475916091195527e-13 -2.044013558671203823e-13
4.853000000000000000e+03 2.858973121643066406e+01 2.808011245727539062e+01 -9.542287614369357462e-14 -4.089551641122193826e-14 -4.089551641122193826e-14 -6.532507824605349178e-14
4.854000000000000000e+03 1.554687118530273438e+01 2.707674789428710938e+01 -5.980241665369187554e-14 1.230609716776701057e-13 1.897756820125936356e-14 2.045015361478580429e-14
4.855000000000000000e+03 7.383276367187500000e+01 3.591128921508789062e+01 3.186865579914675839e-14 2.216818444306448144e-13 7.606515108537700853e-14 -1.093025477527827249e-13
4.856000000000000000e+03 2.037397766113281250e+01 2.879769325256347656e+01 -9.740119274277356243e-14 4.260994497778253232e-14 -1.643737399068413013e-14 -1.001894541044793738e-14
4.857000000000000000e+03 2.135110282897949219e+01 2.749145317077636719e+01 -1.453427899951800772e-13 5.208760330065002886e-14 -2.797655634717219342e-14 -4.123081948559023657e-14
4.858000000000000000e+03 5.666778564453125000e+00 3.281967544555664062e+01 -1.122396073923326992e-14 4.984501852066391958e-13 1.461678678484415461e-13 3.249027972660953334e-14
4.859000000000000000e+03 6.155826091766357422e+00 3.959955978393554688e+01 -1.475548504182525728e-14 4.168725098192133105e-13 1.206351099743152577e-13 -2.938260732269180886e-15
4.860000000000000000e+03 6.127130889892578125e+01 2.618189048767089844e+01 -1.193453295173993456e-13 -8.746650864525917779e-13 -2.982031125937228966e-13 3.051611697710288063e-13
4.861000000000000000e+03 2.440221405029296875e+01 2.712324523925781250e+01 -9.687448055111652634e-14 1.414861608949047334e-13 1.338350511957599881e-14 -1.253689263947671551e-13
4.862000000000000000e+03 2.437822341918945312e+01 2.801679229736328125e+01 -1.474721948256771300e-15 1.366208171984031883e-13 4.054383171965374177e-14 -2.887816108611924656e-15
4.863000000000000000e+03 2.808912849426269531e+01 2.662154769897460938e+01 -4.227535679922171663e-14 -1.782463337086231947e-13 -6.615650545828757889e-14 -5.348454358978897705e-14
4.864000000000000000e+03 2.769862365722656250e+01 2.557583808898925781e+01 -9.205085830946493908e-14 -6.232584300004326283e-14 -4.631301039285246057e-14 -8.862181144096356600e-14
4.865000000000000000e+03 8.645832061767578125e+00 3.554765701293945312e+01 2.510486562829362250e-14 3.767668143618563281e-13 1.205615061993306480e-13 8.959195385083770086e-15
4.866000000000000000e+03 6.278555679321289062e+01 1.721106410026550293e+00 -1.239407610830606243e-13 -7.851326468306940587e-13 -2.727220305056426986e-13 -7.818461725478745294e-14
4.867000000000000000e+03 6.752945709228515625e+01 -9.597825050354003906e+00 3.297524471361501508e-13 -1.789341651193751548e-13 4.524548121690070979e-14 1.564774785439704274e-13
4.868000000000000000e+03 6.719802856445312500e+01 -8.302646636962890625e+00 3.455135483276805530e-13 -2.179303558360462523e-13 3.827495571461121682e-14 1.271776602215432539e-13
4.869000000000000000e+03 7.335026550292968750e+01 -6.008815765380859375e+00 5.593897063225702904e-14 2.527285835034892569e-13 9.260026420784481238e-14 3.186160916265196041e-13
4.870000000000000000e+03 4.035200881958007812e+01 1.747874450683593750e+01 -2.112702103106850471e-14 1.739493558959928632e-13 4.584670181473002315e-14 1.205401067589512154e-14
4.871000000000000000e+03 3.564261245727539062e+01 1.715154457092285156e+01 1.138134115489901343e-14 2.336324493243391309e-13 7.350414358122184244e-14 -1.175790828632575225e-13
4.872000000000000000e+03 4.125094604492187500e+01 -7.663999557495117188e+00 1.034607783560043126e-13 1.358422380658141915e-13 7.179090086078740440e-14 9.075266850944868624e-15
4.873000000000000000e+03 1.100575065612792969e+01 2.023891639709472656e+01 3.913178713899935490e-14 6.252171089876634724e-14 3.049604907251653174e-14 -3.145975572605742843e-14
4.874000000000000000e+03 5.986452484130859375e+01 -2.230939865112304688e+00 -2.346808999301869259e-13 -7.410908367012913889e-13 -2.927315236999489256e-13 -7.204872413740445736e-14
4.875000000000000000e+03 6.041693496704101562e+01 -2.659398078918457031e+00 -4.367915466710163563e-14 -4.190404262732067009e-13 -1.388158793642901845e-13 -1.746791594833471684e-13
4.876000000000000000e+03 7.004393005371093750e+01 -9.509898185729980469e+00 3.418720655960078014e-13 -2.766796665908122232e-13 1.955771800749277894e-14 2.304010118543003971e-13
4.877000000000000000e+03 1.003524112701416016e+01 1.786443710327148438e+01 -8.963227261912700555e-15 1.903409070982964302e-14 3.021259373188261640e-15 -8.829916642695903595e-14
4.878000000000000000e+03 1.101002216339111328e+01 1.896573257446289062e+01 6.411685012129922367e-14 3.477352954195378487e-13 1.235556389188666171e-13 -5.356789840806237823e-14
4.879000000000000000e+03 4.396343612670898438e+01 -8.743571281433105469e+00 1.032252083289775246e-13 8.999032530439265987e-14 5.796466009001105535e-14 -1.354396195890616994e-13
4.880000000000000000e+03 1.234348011016845703e+01 1.052245712280273438e+01 1.244029158116097267e-13 5.331553679988922101e-14 5.331553679988922101e-14 -3.505145663735415029e-14
4.881000000000000000e+03 6.801495361328125000e+01 -9.084848403930664062e+00 2.889186557098605279e-13 -4.251890994236978694e-13 -4.088114056804113827e-14 1.817309188334101377e-13
4.882000000000000000e+03 1.056594753265380859e+01 6.888184547424316406e+00 1.275580542478256876e-14 -4.028417546373883051e-14 -8.258511096390173251e-15 1.186724329915733733e-13
4.883000000000000000e+03 5.655567169189453125e+01 -9.168183326721191406e+00 3.867843816496990828e-13 -3.374957106318243749e-13 1.478659995010969674e-14 -1.793014250527774633e-13
4.884000000000000000e+03 3.633272933959960938e+01 1.478692436218261719e+01 2.488987341968743050e-14 4.224256307163581914e-13 1.341946437869237507e-13 -1.708117290189284376e-13
4.885000000000000000e+03 4.863496780395507812e+00 6.401018619537353516e+00 -1.052046159064935760e-13 -1.823405386099444248e-13 -8.626354974306318923e-14 1.686258690189804121e-13
4.886000000000000000e+03 3.978267669677734375e+01 -5.450262546539306641e+00 -1.617671247606741747e-13 2.738033595423711164e-13 3.361087043450908252e-14 1.623427751278917752e-14
4.887000000000000000e+03 7.394976806640625000e+01 3.124149322509765625e+01 3.705637345910971214e-14 3.818888835802752846e-13 1.256835754177496045e-13 -2.416051571047655999e-13
4.888000000000000000e+03 6.125305557250976562e+01 7.337680459022521973e-01 -2.141869581001598632e-13 -7.094322416849319080e-13 -2.770857545145166689e-13 -2.154375717535947365e-13
4.889000000000000000e+03 7.488970184326171875e+01 2.594135093688964844e+01 2.605894998755371034e-14 6.974323462499709692e-13 2.170473951393012135e-13 -1.725740860977764690e-13
4.890000000000000000e+03 5.324129486083984375e+01 -1.019168663024902344e+01 3.043956417220911037e-13 -9.829946779520495892e-14 6.182885150043948563e-14 1.489986350175064728e-14
4.891000000000000000e+03 5.593622589111328125e+01 -1.038469505310058594e+01 4.040964611540243112e-13 -1.470724448260005146e-13 7.710719812214356095e-14 3.531025569592644020e-14
4.892000000000000000e+03 7.474561309814453125e+01 2.750885009765625000e+01 1.974975901136016843e-14 6.489774538077919264e-13 2.006181679115037753e-13 -1.816360104857361879e-13
4.893000000000000000e+03 7.410228729248046875e+01 2.580304145812988281e+01 6.502818303364549246e-14 3.938768256862845707e-13 1.376715039712317346e-13 -2.657532126217748703e-13
4.894000000000000000e+03 5.687813282012939453e+00 2.909497833251953125e+01 -1.799276365106825676e-14 3.582964003615018989e-13 1.020910921989762188e-13 7.656911536020258313e-14
4.895000000000000000e+03 7.312900543212890625e+01 2.924461174011230469e+01 -6.700490043452106415e-14 2.229138369117672491e-13 4.677267823266842428e-14 -2.238608061942704008e-13
4.896000000000000000e+03 7.427960205078125000e+01 2.427510643005371094e+01 5.111438616117736089e-14 5.251666072500493776e-13 1.728843034443788840e-13 -1.844539874572975746e-13
4.897000000000000000e+03 7.468901062011718750e+01 1.742928695678710938e+01 -2.073709585125038668e-13 2.313833803377352005e-13 7.203722142998074396e-15 -9.476672376516892538e-14
4.898000000000000000e+03 7.534129333496093750e+01 1.826026153564453125e+01 -1.552115098772677282e-13 5.282431393346942450e-13 1.119094779952062302e-13 -7.507654843945041345e-14
4.899000000000000000e+03 3.554334640502929688e+01 1.775146293640136719e+01 -3.712255044921279612e-14 -2.446643961647593235e-13 -8.453609042164203502e-14 -1.296973731754538783e-13
4.900000000000000000e+03 3.558294296264648438e+01 1.567260265350341797e+01 -2.783579132979979026e-14 2.740138031840505528e-13 7.385340575856089163e-14 -1.085777789292668993e-13
4.901000000000000000e+03 4.302737426757812500e+01 -8.887215614318847656e+00 1.628496870773737948e-13 9.266820302647818530e-14 7.665537041928738304e-14 -3.300688512113993112e-14
4.902000000000000000e+03 6.420954227447509766e+00 2.359492492675781250e+01 -1.206364313457129744e-14 6.345629317144885206e-14 1.541779365581055078e-14 -1.011613820598063207e-13
4.903000000000000000e+03 7.518967437744140625e+01 2.051211738586425781e+01 -6.974438794505807837e-14 6.106228261741619701e-13 1.622635267253466629e-13 -2.639199826021641770e-14
4.904000000000000000e+03 4.804134750366210938e+01 -1.239933204650878906e+01 2.854096082735568807e-13 -2.436891834156629244e-13 1.251613152312633370e-14 -2.090803523152259813e-13
4.905000000000000000e+03 4.883318328857421875e+01 -1.215311050415039062e+01 3.935465777045454860e-13 -2.774089280770802857e-13 3.484129421061320231e-14 5.178743515293383892e-14
4.906000000000000000e+03 7.468830871582031250e+01 2.826214408874511719e+01 1.105654332195574185e-13 4.591437364857842152e-13 1.709127495563497745e-13 -2.528130970628345020e-13
4.907000000000000000e+03 7.386997222900390625e+01 2.742110061645507812e+01 -3.814043333006007785e-14 1.437824197810660953e-13 3.169259491886226854e-14 -2.893116247872778990e-13
4.908000000000000000e+03 7.473200988769531250e+01 1.667280197143554688e+01 -1.262612112301955691e-13 7.236542094724018881e-13 1.792178872753874552e-13 -4.899037311890605539e-14
4.909000000000000000e+03 4.782915115356445312e+01 -1.144274330139160156e+01 2.785402388339602853e-13 -3.381350917579933890e-13 -1.787845486077039442e-14 4.108464700988256196e-15
4.910000000000000000e+03 4.807434558868408203e+00 2.323666000366210938e+01 -2.714351299607474510e-14 3.543746513682416444e-13 9.816934320571596428e-14 -3.798584642905437903e-14
4.911000000000000000e+03 5.676593780517578125e+00 2.373520469665527344e+01 -8.064245614596704526e-14 1.026917944126418125e-13 6.614800040046419846e-15 5.021868947703740649e-14
4.912000000000000000e+03 7.514720153808593750e+01 2.127986526489257812e+01 -1.536772147254020227e-13 3.916478144398716221e-13 7.139118262484631106e-14 -4.314567298813014318e-14
4.913000000000000000e+03 7.381365966796875000e+01 1.881849861145019531e+01 -1.019369050975216240e-13 4.138222425321969045e-13 9.356560394090801536e-14 8.507452554928907063e-14
4.914000000000000000e+03 7.474154663085937500e+01 1.032049751281738281e+01 -8.457140153114717229e-14 4.670155321490065958e-13 1.147332418958632583e-13 2.610942332562787849e-13
4.915000000000000000e+03 7.540924835205078125e+01 1.359267139434814453e+01 -2.028736201383982141e-13 5.993183922227418581e-13 1.189334275595449464e-13 2.762631974313062289e-13
4.916000000000000000e+03 7.472286987304687500e+01 1.112287521362304688e+01 -1.306678154349913412e-13 4.930109055376052929e-13 1.087029229650260387e-13 4.630841608614655325e-13
4.917000000000000000e+03 7.475408935546875000e+01 9.518738746643066406e+00 -1.736943786500785847e-13 5.660728504865153443e-13 1.177135374851728811e-13 4.306861941735795618e-13
4.918000000000000000e+03 7.287197113037109375e+01 -9.112646102905273438e+00 1.368647355821581146e-13 -4.903550438958848012e-13 -1.060471019808870152e-13 2.588504226502114092e-13
4.919000000000000000e+03 7.327380371093750000e+01 1.092759418487548828e+01 -2.491509331747215894e-13 2.592286194730286653e-13 3.023301993140565386e-15 3.129267678314562318e-13
4.920000000000000000e+03 6.761731719970703125e+01 1.865410423278808594e+01 -4.035329470748749703e-13 -6.104361265600599662e-13 -3.041907275114913434e-13 -4.987592997163442857e-15
4.921000000000000000e+03 7.482730865478515625e+01 4.044527530670166016e+00 -1.602325856633196599e-13 5.718421612968538348e-13 1.234828754005656837e-13 4.450259876321444041e-13
4.922000000000000000e+03 7.545790100097656250e+01 6.418926239013671875e+00 -1.499175302400058279e-14 6.798392144374831858e-13 1.994542362217591180e-13 3.245880398228956354e-13
4.923000000000000000e+03 7.545253753662109375e+01 7.208580017089843750e+00 -2.760856864306160396e-13 4.764399053232282188e-13 6.010626431253093815e-14 4.896455419942102871e-13
4.924000000000000000e+03 7.476777648925781250e+01 6.355518817901611328e+00 -7.325032507637940782e-14 3.803655524228788387e-13 9.213456549344439805e-14 3.894578615767224639e-13
4.925000000000000000e+03 7.550864410400390625e+01 1.768224716186523438e+00 -4.064326457851874519e-13 3.290750105137268955e-13 -2.320728312754823108e-14 4.764518857572341837e-13
4.926000000000000000e+03 6.596958160400390625e+01 6.658113479614257812e+00 -1.716670832178565642e-13 -1.011466084499534901e-12 -3.549399543809755864e-13 1.773210213645154409e-13
4.927000000000000000e+03 7.541716003417968750e+01 -4.589222908020019531e+00 -3.634916871078815170e-14 -1.557821491975693723e-14 -1.557821491975693723e-14 2.207219460372347730e-13
4.928000000000000000e+03 7.471205139160156250e+01 -5.356430053710937500e+00 -1.495623286676406316e-13 -2.928528730281043657e-13 -1.327245605087234992e-13 2.561106437603405395e-13
4.929000000000000000e+03 7.474900054931640625e+01 -5.209540128707885742e-01 -1.867151181930704062e-13 8.010755822790774361e-14 -3.198227002242787220e-14 3.406839155402352493e-13
4.930000000000000000e+03 7.477670288085937500e+01 2.672674655914306641e-01 -2.313216079189578389e-13 3.583716439922723929e-13 3.811501217724708179e-14 2.589535302768147806e-13
4.931000000000000000e+03 7.477965545654296875e+01 5.574336528778076172e+00 -1.183376042556555374e-13 4.525443333871365104e-13 1.002620160289388607e-13 3.159956020806764521e-13
4.932000000000000000e+03 7.485289001464843750e+01 3.290787935256958008e+00 -1.138690650017565309e-13 2.257046681714350300e-13 3.355067688514540292e-14 4.077809596068904252e-13
4.933000000000000000e+03 7.486531066894531250e+01 2.538431882858276367e+00 -1.996939126645141949e-13 6.921830188015565266e-13 1.477467372621235620e-13 5.161503819836599227e-13
4.934000000000000000e+03 7.458276367187500000e+01 -6.937675952911376953e+00 -3.077764517583122389e-15 -5.732059249995147265e-13 -1.728851030434810920e-13 1.106047762058914863e-13
4.935000000000000000e+03 7.476066589355468750e+01 8.722487449645996094e+00 -1.863995882558228123e-13 4.691258232575323817e-13 8.481788134253459566e-14 2.257146970415305209e-13
4.936000000000000000e+03 7.476268005371093750e+01 7.930822849273681641e+00 -1.216011747675813104e-13 7.256513640842288115e-13 1.812150554397415347e-13 2.671516707939552981e-13
4.937000000000000000e+03 7.472198486328125000e+01 -1.325905323028564453e+00 -1.704640524872666485e-13 5.217063218064532659e-13 1.053726740194924072e-13 2.202733844934232077e-13
4.938000000000000000e+03 7.484954071044921875e+01 1.789901614189147949e+00 -2.158713339377518747e-13 -4.676533615108162401e-14 -7.879099797733143951e-14 2.895439964178958547e-13
4.939000000000000000e+03 5.135980129241943359e+00 8.721837043762207031e+00 -3.795863634265678188e-14 -1.077698856804393257e-13 -4.371855525167611667e-14 1.211578851568334558e-13
4.940000000000000000e+03 4.636562347412109375e+00 7.966194629669189453e+00 1.200169792107269595e-14 -8.635831578920200036e-14 -2.230698366637289681e-14 -5.630926273185227118e-16
4.941000000000000000e+03 7.541629791259765625e+01 1.438924503326416016e+01 -8.673431710261997329e-14 8.320961649745106659e-13 2.236085530063144922e-13 2.958411307271181789e-14
4.942000000000000000e+03 7.469712066650390625e+01 -2.145315408706665039e+00 -1.883189107041924326e-13 -1.950854706727830901e-13 -1.150213144130926568e-13 1.993973562652850973e-13
4.943000000000000000e+03 7.511058044433593750e+01 2.205560874938964844e+01 -4.146128698614276464e-14 6.684950986865501044e-13 1.881101475758803487e-13 -2.908147355741574902e-14
4.944000000000000000e+03 5.704202270507812500e+01 -1.117811965942382812e+01 4.608115646877186666e-13 -1.227659602665367999e-13 1.014136826816072756e-13 -1.821731377945126629e-14
4.945000000000000000e+03 5.758189392089843750e+01 -1.095042896270751953e+01 5.623602169872732315e-13 -1.593092655407038483e-13 1.209152949207398242e-13 1.797405946952698730e-13
4.946000000000000000e+03 7.468766021728515625e+01 -2.968321800231933594e+00 -1.852772340253270797e-15 5.710928149653404784e-13 1.707720065618340000e-13 7.756679142306016628e-14
4.947000000000000000e+03 5.458257675170898438e+00 2.809888267517089844e+01 -4.366925454601412737e-14 3.472921819916430231e-13 9.108688060538092102e-14 7.394516314367105547e-14
4.948000000000000000e+03 7.469653320312500000e+01 -3.780928850173950195e+00 -8.710321689180816618e-14 -3.732994816041390607e-14 -3.732994816041390607e-14 2.273440360663417370e-13
4.949000000000000000e+03 7.469682312011718750e+01 1.272943782806396484e+01 -1.824337528917238660e-13 5.623273656614469207e-13 1.139680933176859257e-13 1.972613289076899368e-13
4.950000000000000000e+03 7.474880218505859375e+01 1.590668106079101562e+01 -1.701651921584210192e-13 6.133363131613500663e-13 1.329513213930988424e-13 1.146375610541414125e-13
4.951000000000000000e+03 7.474182891845703125e+01 1.513101959228515625e+01 -1.078667726970780616e-13 6.857865512445437961e-13 1.733759349194924360e-13 5.758592794237113455e-14
4.952000000000000000e+03 4.780846118927001953e+00 2.252318763732910156e+01 -1.253705747208825119e-14 -9.687492100824909858e-14 -3.282359396761767856e-14 -1.188459188916982101e-13
4.953000000000000000e+03 7.442655944824218750e+01 -7.786826133728027344e+00 1.875760560331868332e-13 2.633935279085231063e-13 1.352908806035238443e-13 3.625606759261046363e-13
4.954000000000000000e+03 4.752593994140625000e+00 7.189119815826416016e+00 3.090492542868333858e-14 -1.240078731975374771e-13 -2.793088602472213605e-14 -5.778043381211503404e-14
4.955000000000000000e+03 6.472699165344238281e+00 6.540388584136962891e+00 -7.193483547544843315e-14 -7.658016066983477921e-14 -4.455449884358496371e-14 8.758854644179414617e-14
4.956000000000000000e+03 4.985486602783203125e+01 -9.378196716308593750e+00 6.773428389353353118e-14 -1.997257611033309566e-13 -3.959744519581830102e-14 -1.597157735927501321e-13
4.957000000000000000e+03 5.347516059875488281e+00 1.704347419738769531e+01 -5.276803926673951164e-15 8.924040976673874859e-14 2.518908103204143406e-14 -1.370724822709334934e-13
4.958000000000000000e+03 4.759306430816650391e+00 2.144191932678222656e+01 1.640550691714252884e-14 9.853282876030530768e-14 3.448150171967388766e-14 -9.890936539854594534e-14
4.959000000000000000e+03 5.523491859436035156e+00 2.311926269531250000e+01 -2.363707442124864111e-14 3.562077458625807769e-14 3.595110218909420424e-15 -1.037456118192434107e-13
4.960000000000000000e+03 5.395665168762207031e+00 1.061605548858642578e+01 9.052180120934505414e-14 1.760479105160014934e-13 7.997091487285667988e-14 1.122355992324262919e-13
4.961000000000000000e+03 4.638567924499511719e+00 9.586306571960449219e+00 -7.297785151790664449e-14 -7.702717044928697465e-14 -4.500150523490537013e-14 -7.245392246475604921e-16
4.962000000000000000e+03 1.019000244140625000e+01 1.849760437011718750e+01 7.972475354585742413e-14 3.086734427087955979e-13 1.165194649750331268e-13 -4.645056515535476993e-14
4.963000000000000000e+03 7.429111480712890625e+01 2.352552795410156250e+01 -1.492444812482493499e-13 3.020456606182830850e-13 4.584035584388919393e-14 -7.965005201617317288e-14
4.964000000000000000e+03 7.432180023193359375e+01 2.275629425048828125e+01 1.664661542791361667e-16 6.863355912246904555e-13 2.059506130089663878e-13 -1.473295498186782959e-13
4.965000000000000000e+03 6.105957031250000000e+00 1.088454055786132812e+01 -3.520666356647723927e-14 4.424209208622048584e-13 1.221642822709159693e-13 7.222303674168581433e-14
4.966000000000000000e+03 4.668230533599853516e+00 1.600013160705566406e+01 -4.985612210616288675e-15 1.808671078575366242e-13 5.276444700001020616e-14 -7.894440580847456035e-14
4.967000000000000000e+03 5.923484325408935547e+00 1.743923377990722656e+01 -1.603988683952610461e-14 2.676314573603344460e-13 7.547747285030839692e-14 -2.185478157495403251e-14
4.968000000000000000e+03 7.435490417480468750e+01 2.197644615173339844e+01 -2.712962775437699481e-13 1.582358647323617307e-13 -3.391812316579610742e-14 -7.341429032617710626e-14
4.969000000000000000e+03 5.237457275390625000e+00 9.359712600708007812e+00 8.632871029362956805e-14 -1.460057796236549632e-13 -1.790312046019443964e-14 1.468721384746338177e-13
4.970000000000000000e+03 7.261922454833984375e+01 -8.628000259399414062e+00 1.003437309914263775e-13 -8.281065720303071309e-14 5.259922560035172959e-15 2.178391202232315971e-13
4.971000000000000000e+03 5.727829456329345703e+00 2.165574836730957031e+01 7.224422611789432791e-14 7.671275859552975640e-14 4.468709676927994090e-14 -6.990530387624566133e-14
4.972000000000000000e+03 4.698922157287597656e+00 2.076057052612304688e+01 -1.854012608246287906e-15 1.593337414047477085e-13 4.724391993067567075e-14 4.537196695284829995e-14
4.973000000000000000e+03 5.800043106079101562e+00 1.640987586975097656e+01 -1.044767028966775424e-14 1.127592350004189004e-13 3.069346873559898603e-14 -3.004071465325872103e-14
4.974000000000000000e+03 5.559541702270507812e+00 1.381179332733154297e+01 -2.705948224550943498e-14 1.714068746964600432e-13 4.330421722706541410e-14 1.681050996104813122e-13
4.975000000000000000e+03 5.686847686767578125e+00 1.229918193817138672e+01 -1.235563707553330448e-13 2.215529598973906000e-13 2.939897538736455096e-14 -2.168890033662964484e-14
4.976000000000000000e+03 5.959017276763916016e+00 1.953644561767578125e+01 1.610890376169474281e-13 2.062909982810182119e-13 1.102140094141369764e-13 -1.150190917986390615e-13
4.977000000000000000e+03 5.403585910797119141e+00 1.981245422363281250e+01 -3.188624697939533570e-14 2.150892040430479879e-13 5.496088813553533237e-14 -7.735810283364744078e-14
4.978000000000000000e+03 7.394227600097656250e+01 2.894019889831542969e+01 3.802566375383890918e-14 2.908024027744454676e-13 9.864841826441941852e-14 -2.847490038898614628e-13
4.979000000000000000e+03 7.396778869628906250e+01 2.660109329223632812e+01 -1.919951793849430238e-14 4.492811287934439513e-13 1.290244766496279061e-13 -2.428746494285288771e-13
4.980000000000000000e+03 4.557054042816162109e+00 2.665881347656250000e+01 -1.144973195031304125e-13 4.541901522849695061e-13 1.019078484792990125e-13 -2.361399107937006692e-14
4.981000000000000000e+03 5.631576061248779297e+00 2.755820655822753906e+01 -1.006391828596922555e-13 6.431331704172260633e-13 1.627481922015019955e-13 -4.269547836479627156e-14
4.982000000000000000e+03 5.699271678924560547e+00 2.541120910644531250e+01 3.295990867388520762e-14 1.971294763709885434e-13 6.902681551346212530e-14 -4.385053992551728175e-14
4.983000000000000000e+03 5.577567577362060547e+00 2.613160896301269531e+01 3.950619264234470074e-14 4.744406907272735729e-13 1.541840656885118399e-13 -7.008622333751560185e-14
4.984000000000000000e+03 5.579364299774169922e+00 2.688452720642089844e+01 7.121952970401933258e-15 1.631805855804163707e-13 5.109076071821254394e-14 -2.395328198485403848e-14
4.985000000000000000e+03 5.675164794921875000e+01 -1.057724475860595703e+01 3.956928643251977906e-13 -1.163607648820355611e-13 8.379963254345410006e-14 1.283387052230036685e-13
4.986000000000000000e+03 5.563130569458007812e+01 -7.351740360260009766e+00 -3.781345828362918382e-14 -3.364624117513370649e-13 -1.122827620269294113e-13 -1.387254162455234252e-13
4.987000000000000000e+03 5.034715175628662109e+00 4.836011409759521484e+00 -2.786940837341041893e-14 -1.034459315625048392e-13 -3.939460113374163019e-14 2.294755368798667705e-13
4.988000000000000000e+03 5.827652740478515625e+01 -9.774335861206054688e+00 3.362259472575179764e-13 -1.761598137327291536e-13 4.801983599167850003e-14 -1.908950529930491385e-14
4.989000000000000000e+03 6.193102645874023438e+01 -9.817060470581054688e+00 4.666850131167243898e-13 -2.117506745034219984e-13 7.648029887348528622e-14 1.181408520545355195e-14
4.990000000000000000e+03 1.111692142486572266e+01 1.155844306945800781e+01 8.564816527204812627e-16 4.611801324399915358e-14 1.409234802961754907e-14 -1.472231692567667338e-14
4.991000000000000000e+03 5.606686019897460938e+01 -8.824476242065429688e+00 3.296763361436416684e-13 -1.560912992826582468e-13 5.207551105829502647e-14 -2.699104706556897104e-14
4.992000000000000000e+03 5.878630447387695312e+01 -9.461196899414062500e+00 4.255238197393984567e-13 -3.208930788190650363e-13 3.138921821034187931e-14 1.480434020815699081e-13
4.993000000000000000e+03 9.040080070495605469e+00 6.986092090606689453e+00 6.570713076284664944e-14 5.284723261214305245e-15 2.129755586840510750e-14 -1.897858125266427970e-14
4.994000000000000000e+03 5.280998229980468750e+00 8.024204254150390625e+00 1.466381405407571337e-14 -3.946645663272310700e-14 -7.440793112407396992e-15 1.339069507404547221e-13
4.995000000000000000e+03 8.194511413574218750e+00 6.356750965118408203e+00 -2.891153164314222423e-14 -1.239065714451776518e-14 -1.239065714451776518e-14 1.073574755028165739e-13
4.996000000000000000e+03 5.985317993164062500e+01 -4.102154731750488281e+00 -1.490377238939563642e-13 -4.413186396184931581e-13 -1.771069049879767099e-13 1.484982418335865223e-14
4.997000000000000000e+03 4.876456069946289062e+01 -9.491394042968750000e+00 5.947216189568921285e-14 -1.575157240968697026e-13 -2.941307001560686252e-14 -1.385030599324738043e-13
4.998000000000000000e+03 1.269080257415771484e+01 9.793113708496093750e+00 6.833198422243405568e-14 1.093492971952075843e-13 5.330438645817156540e-14 -6.278800450485594320e-14
4.999000000000000000e+03 5.864989471435546875e+01 -4.867430210113525391e+00 -2.805713120331270599e-14 -4.009075515142013213e-13 -1.286894039682212609e-13 -2.515022424261909029e-13
5.000000000000000000e+03 6.570242881774902344e+00 5.646625995635986328e+00 2.008603786768370369e-14 -1.743954915374434922e-13 -4.629283745618065216e-14 5.283296180104771200e-14
5.001000000000000000e+03 5.252527999877929688e+01 -9.532109260559082031e+00 2.598132483894871614e-13 -1.174062068268547088e-13 4.272210908065794677e-14 -3.191107182101346473e-14
5.002000000000000000e+03 6.729294586181640625e+01 1.484468936920166016e+01 -3.264776415792119968e-13 -7.346813045081002080e-13 -3.183476973787208175e-13 1.848475392933826567e-13
5.003000000000000000e+03 6.710343170166015625e+01 1.407748222351074219e+01 -3.450069277575323889e-13 -9.713771670707971317e-13 -3.949152203169825626e-13 2.269007735606481946e-13
5.004000000000000000e+03 3.650568389892578125e+01 1.949741935729980469e+01 -4.233118982297293109e-14 -6.389288783378160863e-14 -3.186722261940000411e-14 -8.937470853459181241e-14
5.005000000000000000e+03 7.131271362304687500e+01 -1.049296760559082031e+01 9.794601111071110644e-14 -3.697816792352925930e-13 -8.155069908212173035e-14 1.161636975846591646e-13
5.006000000000000000e+03 4.612017440795898438e+01 -9.391434669494628906e+00 1.074557719822795410e-13 9.180342304491301286e-14 5.977775783053140835e-14 4.918175851927227005e-14
5.007000000000000000e+03 6.452873992919921875e+01 3.881123065948486328e+00 -1.695003187286714397e-13 -9.304732548690020089e-13 -3.299920829213237594e-13 1.039853052026574326e-14
5.008000000000000000e+03 6.425347900390625000e+01 4.779010772705078125e+00 -1.212125560513810374e-13 -1.012718121168321161e-12 -3.401792194289432469e-13 3.047224744669868590e-14
5.009000000000000000e+03 6.129026031494140625e+01 -9.628896713256835938e+00 2.590064664478863854e-13 -7.200101924181509516e-14 5.610163483944774487e-14 1.170495009239751888e-14
5.010000000000000000e+03 5.092534255981445312e+01 -9.255970954895019531e+00 1.100642201077445259e-13 4.717038053019505239e-14 4.717038053019505239e-14 -1.333606890283750568e-13
5.011000000000000000e+03 5.150196838378906250e+01 -1.075929927825927734e+01 1.957780996781482985e-13 -1.791630537505140008e-13 4.984511067784858085e-15 2.314540610020188356e-15
5.012000000000000000e+03 5.860410690307617188e+00 1.163955497741699219e+01 1.379111939665139674e-13 -3.239710271427977128e-14 3.165422771448343775e-14 1.156152132581259040e-13
5.013000000000000000e+03 3.751337051391601562e+01 1.365349006652832031e+01 3.375321262722927318e-14 2.889713479354433234e-13 9.681737020168085239e-14 -2.697682707645046585e-14
5.014000000000000000e+03 4.256536483764648438e+01 2.012173843383789062e+01 -4.663234859023090983e-14 -6.573624159117788524e-14 -3.371057637679628072e-14 -1.164827088273199737e-14
5.015000000000000000e+03 3.587811279296875000e+01 1.913718223571777344e+01 6.651530861474450051e-14 1.706882350033505497e-14 2.507523980393045610e-14 -6.315733119864955225e-14
5.016000000000000000e+03 6.144693374633789062e+01 -1.419270992279052734e+00 -3.639739537867302255e-14 -5.646102617558323988e-13 -1.803022927357803007e-13 -4.894878718932765826e-14
5.017000000000000000e+03 7.217840576171875000e+01 -9.805611610412597656e+00 1.264475449260643591e-13 -3.118157858653103354e-13 -5.561047431465286628e-14 2.106772059324441004e-13
5.018000000000000000e+03 6.678637695312500000e+01 1.162601470947265625e+01 -2.423089669450345651e-13 -9.273637630383135821e-13 -3.509018162844990130e-13 7.622007679956160908e-14
5.019000000000000000e+03 7.177386474609375000e+01 1.044711017608642578e+01 -2.873130878176810565e-13 2.428734025960305187e-13 -1.333189963726453056e-14 3.444324090263323201e-13
5.020000000000000000e+03 6.667658233642578125e+01 1.080650329589843750e+01 -1.576717272369632106e-13 -6.852113819920402360e-13 -2.528649490317336213e-13 1.663747536007759154e-13
5.021000000000000000e+03 6.688366699218750000e+01 1.245367145538330078e+01 -2.169330931252669292e-13 -8.707374556625457895e-13 -3.263011605705856688e-13 1.775800914736308522e-13
5.022000000000000000e+03 3.740360641479492188e+01 1.435167026519775391e+01 1.008879259431147424e-13 -2.513265550874361522e-15 2.951239987526547981e-14 1.246878034849574490e-13
5.023000000000000000e+03 3.910116577148437500e+01 1.532417583465576172e+01 -2.311616271121440247e-14 1.730968748328218232e-13 4.499421058716361610e-14 1.182375188426079693e-13
5.024000000000000000e+03 6.757758331298828125e+01 -8.691853523254394531e+00 1.232922591061155759e-13 -3.903727926850286689e-13 -8.012416007367392790e-14 2.717381441391664154e-13
5.025000000000000000e+03 3.938631057739257812e+01 1.777929306030273438e+01 8.037984374506621649e-15 1.864486484041277814e-13 5.834598754660136333e-14 -8.842486950446336313e-15
5.026000000000000000e+03 4.281539916992187500e+01 2.249027252197265625e+01 -8.617471970381873625e-14 -1.284339252788022079e-13 -6.438258807377542081e-14 -5.477374806430075627e-14
5.027000000000000000e+03 4.457960128784179688e+01 2.226595497131347656e+01 -6.956912666387579658e-14 -1.155983674668709105e-13 -5.555025027210308552e-14 -5.344537678630793820e-14
5.028000000000000000e+03 3.724296569824218750e+01 1.259791374206542969e+01 3.734756644571679551e-14 1.418212064712570664e-13 5.375063051983944296e-14 -1.789576109913551538e-13
5.029000000000000000e+03 3.770746612548828125e+01 1.301778221130371094e+01 -6.244690772512842547e-14 6.473893822281709398e-14 6.876075822956481329e-16 -2.879778528272133875e-14
5.030000000000000000e+03 4.258214569091796875e+01 2.154234123229980469e+01 -1.426472431658148271e-14 -2.320087752558791516e-13 -7.388204902470524305e-14 -4.706904489651733692e-14
5.031000000000000000e+03 3.877725982666015625e+01 1.730339622497558594e+01 4.134886877338317390e-14 1.092228385643143063e-13 4.517151491181467526e-14 1.033671744390691344e-14
5.032000000000000000e+03 4.027229690551757812e+01 1.974060249328613281e+01 4.978528982298169314e-14 -8.160307959957993629e-14 -9.545337949419009649e-15 1.233473230239506835e-13
5.033000000000000000e+03 7.410225677490234375e+01 4.744913101196289062e+00 -2.167858178126619295e-13 3.646012799399939164e-13 4.434463796057323826e-14 4.396399964998881638e-13
5.034000000000000000e+03 7.397702026367187500e+01 1.184455299377441406e+01 -2.441964816121688919e-13 3.299783677638418178e-13 2.573457025007320348e-14 3.051465872518088762e-13
5.035000000000000000e+03 1.350247669219970703e+01 6.006432056427001953e+00 -4.781229259081046234e-14 -2.049098229690935608e-14 -2.049098229690935608e-14 8.385259581958001696e-14
5.036000000000000000e+03 1.104469871520996094e+01 1.961046409606933594e+01 -2.904281158557127374e-14 -5.819786520104910932e-14 -2.617220506886518833e-14 1.155666257542055028e-14
5.037000000000000000e+03 5.899067687988281250e+01 -4.269203186035156250e+00 -1.263407510120745370e-13 -6.260329169123501902e-13 -2.257120949563165557e-13 -1.987136990328972064e-13
5.038000000000000000e+03 5.844029235839843750e+01 -3.968485355377197266e+00 -1.154246647263115766e-13 -5.184149550613303958e-13 -1.901518764495235825e-13 -3.038320734328331385e-13
5.039000000000000000e+03 6.250033187866210938e+01 2.679099464416503906e+01 2.487373066577865804e-14 -8.814833086547013696e-13 -2.569828844081051278e-13 8.780752817558190593e-14
5.040000000000000000e+03 5.951906585693359375e+01 2.626457595825195312e+01 -1.989924338589160735e-13 -7.029203065965494712e-13 -2.705738194261342322e-13 4.230507816890133332e-13
5.041000000000000000e+03 6.596220397949218750e+01 5.843193531036376953e+00 -1.296921283474444797e-13 -8.562239459108944573e-13 -2.957748249880071123e-13 1.851081814956481719e-13
5.042000000000000000e+03 3.635229110717773438e+01 5.741930961608886719e+00 -1.447247676518090276e-13 -1.077758487923879960e-13 -7.575018357800639146e-14 -6.133481614582162594e-15
5.043000000000000000e+03 1.030300521850585938e+01 1.643228530883789062e+01 -7.663575313622897345e-14 8.153348059636994494e-14 1.469317454536815237e-15 -7.096429834822087779e-14
5.044000000000000000e+03 1.009314537048339844e+01 1.387129402160644531e+01 -1.018266163255914306e-14 1.843586725338089427e-13 5.225280183041892956e-14 -1.071507588061050564e-13
5.045000000000000000e+03 6.209956741333007812e+01 -2.903806209564208984e+00 -1.153719047380930007e-13 -4.955168762289796636e-13 -1.832666234481000744e-13 5.084633411468926500e-14
5.046000000000000000e+03 5.834318923950195312e+01 -5.496301174163818359e+00 -1.176309619372109538e-13 -4.164208582992101615e-13 -1.602155501366844814e-13 -1.224567458069439341e-13
5.047000000000000000e+03 6.193625259399414062e+01 -7.620205283164978027e-01 -1.310942728070113583e-13 -9.254513388262664009e-13 -3.169636590954344468e-13 7.208300144319747076e-16
5.048000000000000000e+03 6.299081802368164062e+01 -5.244421362876892090e-01 -1.060523332563692578e-13 -8.975624063434217703e-13 -3.010844340772117489e-13 1.007404202375480895e-13
5.049000000000000000e+03 6.545502471923828125e+01 8.363385200500488281e+00 -1.323627486912379303e-13 -9.717459042296594518e-13 -3.312325999420273615e-13 7.415559323282333581e-14
5.050000000000000000e+03 4.371745300292968750e+01 2.396119117736816406e+01 -1.380633346363679959e-13 -1.735473743880167063e-13 -9.348321135206269505e-14 -1.111295707149559386e-13
5.051000000000000000e+03 4.674938964843750000e+01 2.347923469543457031e+01 -1.847998886079019187e-13 -2.393282783324374163e-13 -1.272384433058382225e-13 1.803555490853059676e-15
5.052000000000000000e+03 3.314486312866210938e+01 2.221117782592773438e+01 7.841870836228833491e-15 -8.814109652647422743e-14 -2.408976779177691291e-14 -1.032156944549139643e-13
5.053000000000000000e+03 3.624459075927734375e+01 1.657270812988281250e+01 2.094002876708322448e-15 2.754031269529277903e-13 8.324913566663816322e-14 -1.980831812594882613e-13
5.054000000000000000e+03 3.625746917724609375e+01 1.784978294372558594e+01 1.546622604682248601e-16 1.830700846992827646e-13 5.496742384175634655e-14 -4.844513801075846227e-14
5.055000000000000000e+03 5.989365005493164062e+01 -3.210066318511962891e+00 -2.245354645486266620e-13 -4.757523585155465362e-13 -2.100863564060209687e-13 7.031948519976112186e-15
5.056000000000000000e+03 3.797048568725585938e+01 1.459814167022705078e+01 3.977191365416195279e-14 2.915508004290578992e-13 9.939681591903185010e-14 1.305127931590507537e-14
5.057000000000000000e+03 1.307491397857666016e+01 9.051656723022460938e+00 2.156338665569232371e-13 1.381654664810161304e-13 1.061397944903709478e-13 1.143301016468152576e-14
5.058000000000000000e+03 1.208102703094482422e+01 6.078914165496826172e+00 -1.767846529972597058e-14 1.296763667583619717e-13 3.359936772708536912e-14 1.472199234265128553e-13
5.059000000000000000e+03 3.853770446777343750e+01 1.492944431304931641e+01 4.163973649933851162e-14 3.266645038236398735e-13 1.104912737909594100e-13 -1.182756285489708348e-13
5.060000000000000000e+03 5.190883255004882812e+01 -1.036080360412597656e+01 3.652174320346174285e-13 6.501986178197166621e-14 1.290711922107348752e-13 1.162890432142597505e-14
5.061000000000000000e+03 5.377336883544921875e+01 -7.911273956298828125e+00 9.301006552399002092e-14 -1.888932803575937847e-13 -2.876496445008112912e-14 -6.329694933341137308e-14
5.062000000000000000e+03 5.463361740112304688e+01 -1.014225292205810547e+01 3.581863538409946202e-13 6.200653868398270374e-14 1.260578691127459128e-13 -7.746480187994717048e-14
5.063000000000000000e+03 1.479023170471191406e+01 5.874743461608886719e+00 2.744804336346929469e-14 1.176344703476784812e-14 1.176344703476784812e-14 -2.034420805723221649e-16
5.064000000000000000e+03 1.420505142211914062e+01 6.602966785430908203e+00 -4.567926711798037109e-14 -4.245230198190313997e-14 -2.643947106877823222e-14 1.866116310957066649e-13
5.065000000000000000e+03 7.294848632812500000e+01 3.475011062622070312e+01 1.169646790446371432e-13 1.873805608289605407e-13 9.130357196207930515e-14 -1.258185043781154255e-13
5.066000000000000000e+03 7.459378814697265625e+01 3.359134674072265625e+01 6.063177710553466215e-14 5.120888522253119746e-13 1.718162016741547893e-13 -2.618587584182069383e-13
5.067000000000000000e+03 1.548104763031005859e+01 7.220435142517089844e+00 2.100997056452696965e-13 1.743960471910568910e-13 1.153487299166561231e-13 -9.607424617419802609e-16
5.068000000000000000e+03 4.715839004516601562e+01 -9.654459953308105469e+00 1.047108228032986310e-14 -1.327652451952460178e-13 -3.668824616396941518e-14 -2.366093025717511122e-14
5.069000000000000000e+03 4.718585205078125000e+01 -8.966275215148925781e+00 -1.293908963263465384e-13 2.190524508744601251e-13 2.689846636443407601e-14 -1.394746677093466891e-13
5.070000000000000000e+03 4.279070281982421875e+01 -7.943563938140869141e+00 9.567644392678362197e-14 -4.746759507402416658e-15 2.727890443642976698e-14 3.331830864265923620e-14
5.071000000000000000e+03 1.437610244750976562e+01 7.281924247741699219e+00 4.907249126907646530e-14 -7.047083050567767848e-14 -6.419501347463890326e-15 9.234389105163345879e-14
5.072000000000000000e+03 1.344599246978759766e+01 8.265342712402343750e+00 -8.453444378959257266e-14 1.238992767974358977e-13 1.180944770006733466e-14 3.452233887212691199e-14
5.073000000000000000e+03 3.551038360595703125e+01 2.010357475280761719e+01 -5.959754987693716144e-14 6.596008868221467369e-14 1.908762065099727304e-15 -8.710905125474885380e-14
5.074000000000000000e+03 3.475052642822265625e+01 2.025699615478515625e+01 6.754864137654970069e-14 -1.540543815561554175e-13 -2.595172069862899944e-14 -7.484281477985327280e-15
5.075000000000000000e+03 4.821150970458984375e+01 2.541707801818847656e+01 -1.167779252204265150e-13 -2.073165722210265627e-13 -9.722835058768863892e-14 1.237957083849092199e-13
5.076000000000000000e+03 6.719453430175781250e+01 2.033315467834472656e+01 -4.956529436016265944e-13 -1.047377462537468773e-12 -4.629091164207177478e-13 -5.830492338931847485e-14
5.077000000000000000e+03 1.025243759155273438e+01 1.186342334747314453e+01 -2.747916504801731219e-14 1.483515323389902885e-13 3.626171086491825069e-14 5.820348272355529984e-14
5.078000000000000000e+03 1.060169029235839844e+01 1.265516948699951172e+01 -2.593010314726564881e-15 1.818925056146919461e-13 5.378984814529731706e-14 4.690944356046389263e-14
5.079000000000000000e+03 9.827439308166503906e+00 8.589801788330078125e+00 1.341241164356035687e-13 1.261081896460763963e-13 7.806969182450398947e-14 4.560931913719611097e-14
5.080000000000000000e+03 6.731107330322265625e+01 1.662946701049804688e+01 -4.933820279412470811e-13 -5.317060810736129461e-13 -3.075264381254688706e-13 1.066878519122987923e-13
5.081000000000000000e+03 7.321945953369140625e+01 1.795901107788085938e+01 -1.800251164503843815e-13 4.261068223525982246e-13 7.382451177066415293e-14 6.579489015244577299e-14
5.082000000000000000e+03 4.800222778320312500e+01 -9.140317916870117188e+00 -3.248428612147476191e-14 -1.054237331655528964e-13 -4.137240612492147640e-14 -3.641227266535859708e-14
5.083000000000000000e+03 7.441168975830078125e+01 -9.489122390747070312e+00 2.843474696152814563e-14 5.793727043262864029e-14 2.591160521824703578e-14 2.718493019669004918e-13
5.084000000000000000e+03 3.536123275756835938e+01 2.200106430053710938e+01 -1.480164833745061664e-14 -1.092832015202674367e-13 -3.722545478790882656e-14 -5.917486010746653147e-14
5.085000000000000000e+03 1.318457126617431641e+01 2.489008712768554688e+01 -7.388800536039033529e-14 1.913695845670235207e-13 3.524447511724267124e-14 -1.112639863733557236e-14
5.086000000000000000e+03 1.167369174957275391e+01 2.415031433105468750e+01 -1.648701926934906248e-13 1.809715707368556026e-13 4.830412904789724987e-15 -2.208438849003215021e-14
5.087000000000000000e+03 4.734870147705078125e+01 2.448025512695312500e+01 -1.335536092524416962e-13 -1.487391617207081684e-13 -8.468783129194495940e-14 7.190823186464107009e-14
5.088000000000000000e+03 4.810269165039062500e+01 2.358332824707031250e+01 -1.687550517078320600e-13 -9.519906971023825437e-14 -7.918623710304745211e-14 7.621846404883003689e-14
5.089000000000000000e+03 4.496245956420898438e+01 2.564269256591796875e+01 -1.105401103225663040e-13 -1.160007555506617494e-13 -6.796225772908934259e-14 -3.195784159222905818e-14
5.090000000000000000e+03 7.262491703033447266e+00 3.259398269653320312e+01 3.776854182050218278e-14 5.651978993333195422e-13 1.808899303132674441e-13 -3.659796939245105185e-14
5.091000000000000000e+03 1.366685009002685547e+01 2.657883834838867188e+01 -9.687665573172507538e-14 2.329871321912757587e-13 4.083314090498613158e-14 1.749037655159046967e-14
5.092000000000000000e+03 6.240007400512695312e+00 2.769382095336914062e+01 -2.861558510763514973e-14 2.622418612558546913e-13 7.008788352209222028e-14 -8.213665614624152123e-14
5.093000000000000000e+03 6.333508682250976562e+01 2.539128684997558594e+01 -1.201883780216697617e-13 -9.779659720932087907e-13 -3.294463226527488686e-13 8.374857339739361084e-14
5.094000000000000000e+03 6.703216552734375000e+01 1.920641899108886719e+01 -5.434855582069075819e-13 -1.029274864124130051e-12 -4.718280887522352529e-13 3.299143862831380170e-14
5.095000000000000000e+03 1.934830856323242188e+01 2.754937553405761719e+01 -7.760229226794548851e-14 -7.900907169179974265e-14 -4.698340986554992715e-14 -3.123421118099434235e-14
5.096000000000000000e+03 7.376634979248046875e+01 3.219545364379882812e+01 1.143762005679366256e-13 5.980297637306342118e-13 2.137217947105821136e-13 -1.965529112081879082e-13
5.097000000000000000e+03 5.834647750854492188e+01 2.698811531066894531e+01 -1.999193318487010873e-13 -6.861609262547030408e-13 -2.658240652337467980e-13 3.779268293712528815e-13
5.098000000000000000e+03 1.700575065612792969e+01 2.831478309631347656e+01 -3.648096026111734280e-14 9.874267609078987706e-14 1.867851474890176028e-14 -1.596009464182885501e-14
5.099000000000000000e+03 5.255627822875976562e+01 2.587137985229492188e+01 -2.503197302217152753e-13 -1.129987488128481044e-13 -1.089955423551162983e-13 1.677372975759927609e-13
5.100000000000000000e+03 5.208921051025390625e+01 2.834185981750488281e+01 -1.711409470086036611e-13 -2.449121634662265734e-13 -1.248159290766909235e-13 1.675241298763549547e-13
5.101000000000000000e+03 2.675444030761718750e+01 2.693999862670898438e+01 -1.169564255555990973e-13 -5.012418092891456067e-14 -5.012418092891456067e-14 -7.969124492246404401e-14
5.102000000000000000e+03 5.349106597900390625e+01 2.881846618652343750e+01 -1.212111059309753380e-13 -3.264533012404396972e-13 -1.342993235066772262e-13 2.057321191661562465e-13
5.103000000000000000e+03 5.449535369873046875e+01 2.740545845031738281e+01 -2.330764704502885643e-13 -3.172069269578858819e-13 -1.650850138014414714e-13 2.052747213746389243e-13
5.104000000000000000e+03 3.063714599609375000e+01 2.699734497070312500e+01 -6.347737412744011709e-14 -7.295553728194417720e-14 -4.092987206756257268e-14 -3.609396446004400905e-14
5.105000000000000000e+03 5.696593475341796875e+01 2.749258041381835938e+01 -1.267381517658719425e-13 -5.575767712123758102e-13 -2.052944809592324726e-13 3.634540314111783799e-13
5.106000000000000000e+03 1.820764732360839844e+01 2.820312690734863281e+01 -7.010076011695638015e-15 4.274662899041506425e-14 1.072096631713230150e-14 -3.925625354840069081e-14
5.107000000000000000e+03 8.356267929077148438e+00 3.334881591796875000e+01 5.577391355699031980e-15 3.798356486110765484e-13 1.156239139805601002e-13 3.533223789497358380e-14
5.108000000000000000e+03 7.465222358703613281e+00 3.452077865600585938e+01 1.243273350617262255e-14 4.853558418886627646e-13 1.493365706702748374e-13 2.931365545265351980e-14
5.109000000000000000e+03 1.313978958129882812e+01 3.545376586914062500e+01 1.722428686868292518e-15 1.723042417295719830e-13 5.220800056377275511e-14 9.475269689956239416e-15
5.110000000000000000e+03 6.501571655273437500e+01 3.229316234588623047e+00 -1.326447767813557221e-13 -7.888629528253476852e-13 -2.764523093952420130e-13 7.024062050314111572e-14
5.111000000000000000e+03 6.328540039062500000e+01 2.457208156585693359e+00 -1.789713397013642515e-13 -9.917210282150978884e-13 -3.512076968224114859e-13 -3.185299585401792088e-14
5.112000000000000000e+03 1.055923652648925781e+01 1.703755378723144531e+01 4.589793036737996323e-14 6.542149092424176526e-14 3.339582570986016075e-14 4.913421625400878068e-14
5.113000000000000000e+03 7.290731811523437500e+01 -9.746450424194335938e+00 -1.525747742394962386e-14 -1.437917710248037828e-13 -4.771477199352718024e-14 2.153612303681246010e-13
5.114000000000000000e+03 7.467436981201171875e+01 -6.137797832489013672e+00 1.766075485723841987e-13 3.730701186345497522e-13 1.649033015173329009e-13 2.442296581986469484e-13
5.115000000000000000e+03 5.622538757324218750e+01 -8.214292526245117188e+00 2.916647229723318135e-13 -1.952574657949207593e-13 2.892217715322331628e-14 -1.157047412525188945e-13
5.116000000000000000e+03 1.135088539123535156e+01 6.834235668182373047e+00 -1.092671760804218590e-15 -4.682878823619339090e-16 -4.682878823619339090e-16 1.959294678539544310e-13
5.117000000000000000e+03 3.690886306762695312e+01 1.539967441558837891e+01 1.022909767279351831e-14 1.873876894582446329e-13 5.928503537698179282e-14 -1.077820761786162096e-13
5.118000000000000000e+03 4.706271362304687500e+01 -1.022535800933837891e+01 1.343749330556809340e-13 -1.025390642078564951e-13 9.550759807314384425e-15 -3.159818462656130422e-14
5.119000000000000000e+03 4.759042358398437500e+01 -1.049279212951660156e+01 8.578858787635160188e-14 -3.292410560764430505e-13 -7.303574113765379239e-14 -2.803803569254980504e-14
5.120000000000000000e+03 4.833735656738281250e+01 -1.180081939697265625e+01 3.239177318297564723e-13 -1.356838090233597471e-13 5.647017887479809095e-14 -6.144297039472473854e-14
5.121000000000000000e+03 6.216862201690673828e+00 7.429399490356445312e+00 2.673142469097194995e-14 -8.004557574495946293e-14 -1.599424531619625389e-14 1.312645061006187386e-13
5.122000000000000000e+03 6.576309204101562500e+01 -8.543226242065429688e+00 2.581652068772005704e-13 -4.383691489234092797e-13 -5.406117990335718160e-14 2.508616415725778426e-13
5.123000000000000000e+03 6.037232971191406250e+01 -3.670893669128417969e+00 -2.708319662693371363e-15 -3.786060278222064257e-13 -1.143943067442171335e-13 -1.154264265548418655e-13
5.124000000000000000e+03 7.292675781250000000e+01 2.736585426330566406e+01 -9.141211754020404923e-15 2.934634956916482018e-13 8.529668535069492852e-14 -1.541054610310066408e-13
5.125000000000000000e+03 7.354527282714843750e+01 2.489947891235351562e+01 6.053282332850462577e-14 4.605766722870496821e-13 1.563328459741608611e-13 -3.100765087402090892e-13
5.126000000000000000e+03 7.356353759765625000e+01 2.424367523193359375e+01 -1.152318800275164978e-13 3.394979609938619802e-13 6.727982700040907593e-14 -1.274338571949015786e-13
5.127000000000000000e+03 7.384753417968750000e+01 2.822445869445800781e+01 3.136226901009203649e-14 4.709504813037168613e-13 1.506938156073736601e-13 -1.714430599439667469e-13
5.128000000000000000e+03 7.256799316406250000e+01 2.530561256408691406e+01 -6.306943628377886801e-14 1.330985560481223740e-13 2.100873626811623068e-14 -2.148434154105455240e-13
5.129000000000000000e+03 6.494110584259033203e+00 2.552985954284667969e+01 2.612546409676980153e-14 4.687061285965632429e-13 1.484494764527471977e-13 -1.980015069545822126e-14
5.130000000000000000e+03 6.815053558349609375e+01 1.587027359008789062e+01 -3.527548804276026129e-13 -3.141684232644409436e-13 -2.000769883971076357e-13 1.246326582519594051e-13
5.131000000000000000e+03 6.727880096435546875e+01 1.601372528076171875e+01 -3.518114890122686633e-13 -5.625348819572606462e-13 -2.743039085803533617e-13 1.385097277758345902e-13
5.132000000000000000e+03 7.400891876220703125e+01 1.734680366516113281e+01 -7.497400324272401884e-14 5.626306170090911163e-13 1.462969827746574136e-13 6.372297302456239598e-14
5.133000000000000000e+03 6.444925308227539062e+00 2.954691696166992188e+01 -5.668897764946924378e-14 5.247161212473816505e-13 1.404081386748023963e-13 -9.858625959861810895e-14
5.134000000000000000e+03 6.029861927032470703e+00 2.841336631774902344e+01 -7.511085666194600163e-14 6.540738545397772885e-13 1.736889034291075329e-13 -1.055469459661922960e-13
5.135000000000000000e+03 1.039754009246826172e+01 8.880296707153320312e+00 -3.060035270964142629e-14 1.012629311457867443e-13 2.119877319203041649e-14 6.310668540466732312e-14
5.136000000000000000e+03 9.791271209716796875e+00 6.897884368896484375e+00 5.455257082111371336e-14 6.913062109521403431e-14 3.710495926896421881e-14 8.232895973032255954e-14
5.137000000000000000e+03 7.407073974609375000e+01 1.660700607299804688e+01 -1.826455246810645972e-13 3.106064125520113794e-13 3.838826839416310810e-14 1.648072818624321534e-13
5.138000000000000000e+03 6.946196079254150391e+00 2.788875961303710938e+01 -3.616948591762120246e-14 5.335101934886288255e-13 1.492022109160495713e-13 4.809537777804642755e-14
5.139000000000000000e+03 7.441944122314453125e+01 2.042593574523925781e+01 -7.594809790833004226e-14 3.334584127920314778e-13 7.725309107697864164e-14 -8.443864775138990031e-14
5.140000000000000000e+03 6.815957641601562500e+01 1.822459411621093750e+01 -5.066998253269727748e-13 -8.519514846198894542e-13 -4.075953984050695311e-13 -3.774322908790643527e-14
5.141000000000000000e+03 7.350817108154296875e+01 2.350011062622070312e+01 -3.326713768824970940e-14 5.576295176480672300e-13 1.573087092445607516e-13 -2.008265244640011771e-13
5.142000000000000000e+03 6.534255504608154297e+00 2.423368644714355469e+01 -5.498414766026693545e-14 2.051901129476035868e-13 4.506178687569556418e-14 -6.375950386151157945e-14
5.143000000000000000e+03 7.404304504394531250e+01 1.023307228088378906e+01 -2.118468025785399944e-13 3.438425217293372693e-13 3.959871574523918247e-14 3.016761916229543372e-13
5.144000000000000000e+03 4.942343139648437500e+01 -9.980548858642578125e+00 1.645728502476864752e-13 -2.954763712349761651e-13 -3.927105629618690696e-14 -7.135656947048971133e-14
5.145000000000000000e+03 7.408708190917968750e+01 1.586010360717773438e+01 -1.256685863227149924e-13 6.781572373971977985e-13 1.657465939670921262e-13 -6.347988367430459477e-16
5.146000000000000000e+03 7.400707244873046875e+01 1.103570842742919922e+01 -1.164149885431869924e-13 4.533682999331711816e-13 1.010859961275006880e-13 4.012019666141397600e-14
5.147000000000000000e+03 7.406661224365234375e+01 9.434601783752441406e+00 -7.560461588382305642e-14 4.708584325392728420e-13 1.185761558386566605e-13 1.958213051347218459e-13
5.148000000000000000e+03 5.868711948394775391e+00 8.204190254211425781e+00 -6.545936261434645229e-15 -4.855635004860116288e-14 -1.653068652828545287e-14 1.219149293237714593e-13
5.149000000000000000e+03 7.470449066162109375e+01 1.353606033325195312e+01 -1.191550791411824517e-13 6.809487327306962268e-13 1.685380893005905545e-13 -6.749517242175427298e-15
5.150000000000000000e+03 7.293440246582031250e+01 1.946601676940917969e+01 -8.666744893363192981e-14 3.746153506758304053e-13 8.638437052265954263e-14 -1.175381627015756672e-14
5.151000000000000000e+03 6.803240966796875000e+01 5.414238452911376953e+00 -1.944230231453944469e-13 -3.578298410616270742e-13 -1.656758633278646031e-13 2.490238104699976640e-13
5.152000000000000000e+03 7.337378025054931641e+00 6.509071350097656250e+00 3.439344756260911962e-14 -9.963732584220702515e-14 -1.957316280625301386e-14 4.072961992630450001e-14
5.153000000000000000e+03 7.480966567993164062e+00 7.346309185028076172e+00 -1.200603134163084895e-14 -1.195228134130352227e-13 -3.945865376521300039e-14 1.164361575906047719e-13
5.154000000000000000e+03 7.414756011962890625e+01 4.001681804656982422e+00 -1.380043675907119405e-13 1.009835932323094321e-13 -1.110623247692734197e-14 4.740609489163605250e-13
5.155000000000000000e+03 7.420118713378906250e+01 3.271113157272338867e+00 -1.740260089895875883e-13 5.659307115817024947e-13 1.175714121328871875e-13 4.952668592080045062e-13
5.156000000000000000e+03 6.671179199218750000e+01 2.180657005310058594e+01 -4.578203051039397842e-13 -9.282238606217463328e-13 -4.158132714017492848e-13 -5.905907409170865763e-14
5.157000000000000000e+03 6.684542846679687500e+01 2.100763130187988281e+01 -4.197682240865419079e-13 -8.204139407760879799e-13 -3.720546548797998287e-13 -1.518343962928284108e-13
5.158000000000000000e+03 7.162213134765625000e+01 -9.055846214294433594e+00 1.087753696930046990e-14 -4.070967467208891355e-13 -1.188657597914546948e-13 1.541433538969350092e-13
5.159000000000000000e+03 5.393722534179687500e+01 -1.015673351287841797e+01 1.780845842970155135e-13 -1.524327810243503167e-13 7.695543353491811345e-15 1.113442495213716465e-13
5.160000000000000000e+03 5.533435440063476562e+01 -1.017824745178222656e+01 3.299982899787612389e-13 -3.389571338451718985e-13 -2.687656082186865893e-15 7.598302277081123157e-14
5.161000000000000000e+03 7.481232452392578125e+01 1.037693619728088379e+00 -3.654071674148023918e-13 9.502714912699994354e-14 -8.111400277583530327e-14 4.066747752353577772e-13
5.162000000000000000e+03 7.476359558105468750e+01 7.142013072967529297e+00 -1.596177075062488182e-13 4.806037837666587986e-13 9.629582829913385655e-14 3.147454356606377290e-13
5.163000000000000000e+03 7.407521820068359375e+01 8.645647048950195312e+00 -2.277254990482036057e-13 3.141618909463517184e-13 2.593092265164211735e-14 3.577919481956987058e-13
5.164000000000000000e+03 7.411856842041015625e+01 1.120562434196472168e+00 -1.093758059383248549e-13 9.037750067645081153e-14 -5.699491578562213001e-15 3.358302676746693916e-13
5.165000000000000000e+03 7.404192352294921875e+01 -4.301373064517974854e-01 -1.986300121777084815e-13 4.181332743154880793e-13 6.585098406234474178e-14 2.305522309523078128e-13
5.166000000000000000e+03 7.390660095214843750e+01 -6.818087100982666016e+00 1.057857143896279162e-13 3.655933791379267772e-13 1.414137226372555456e-13 3.023740383512746321e-13
5.167000000000000000e+03 7.338211822509765625e+01 1.276520371437072754e+00 -2.647392667500664265e-13 1.610460083432269096e-13 -3.110798294306271750e-14 4.253508352827783945e-13
5.168000000000000000e+03 7.401213073730468750e+01 -1.242800354957580566e+00 -1.232867838851445241e-13 -5.283719357765219449e-14 -5.283719357765219449e-14 2.992647091509120783e-13
5.169000000000000000e+03 6.675091552734375000e+01 7.438464641571044922e+00 -1.718260679139244074e-13 -8.056549134424773051e-13 -2.932442971174259450e-13 2.368338001840913920e-13
5.170000000000000000e+03 7.419468688964843750e+01 1.841355919837951660e+00 -3.262724834231234272e-13 1.346746200886830835e-13 -5.747935764507938750e-14 5.433599533852251362e-13
5.171000000000000000e+03 7.423204803466796875e+01 2.547735691070556641e+00 -1.672474685869909661e-13 1.570772591857894085e-13 -3.051064133261535520e-15 3.459833331290185221e-13
5.172000000000000000e+03 7.472280883789062500e+01 1.433967018127441406e+01 -1.730824278388734538e-13 6.349615386432028163e-13 1.385637345965515244e-13 1.190540179461796466e-13
5.173000000000000000e+03 7.323177337646484375e+01 1.261043262481689453e+01 -2.365838102681705468e-13 2.874900025071763787e-13 1.527185665526221287e-14 2.399234240099690219e-13
5.174000000000000000e+03 7.396836090087890625e+01 -2.088089466094970703e+00 -3.377462562013586189e-14 3.515327406337226401e-13 9.532743924746053810e-14 2.028882433151996123e-13
5.175000000000000000e+03 7.471157836914062500e+01 -4.575757503509521484e+00 7.358863003551277537e-14 4.432965225367041517e-13 1.550655491597968672e-13 1.439142994228218009e-13
5.176000000000000000e+03 7.400042724609375000e+01 -6.068873882293701172e+00 -3.807721079087701688e-14 -4.738282791301451358e-13 -1.535716540913834027e-13 1.536328708565473655e-13
5.177000000000000000e+03 6.309370517730712891e+00 1.012324905395507812e+01 2.551290342184264759e-15 1.093410161775987526e-15 1.093410161775987526e-15 1.527356088555208852e-14
5.178000000000000000e+03 7.394784545898437500e+01 -2.945428371429443359e+00 -1.059633405867989320e-13 -1.140392847428367551e-13 -6.600078692126434832e-14 3.414827014908139446e-13
5.179000000000000000e+03 6.783790588378906250e+01 1.382015895843505859e+01 -3.509662449985989641e-13 -7.451764357478685152e-13 -3.288428015134348126e-13 1.746388407150578637e-13
5.180000000000000000e+03 5.105754375457763672e+00 2.199450492858886719e+01 2.234745320652681277e-14 -1.860257570408157049e-15 6.146158733187244080e-15 -1.620295423439971350e-13
5.181000000000000000e+03 6.245799541473388672e+00 2.295639228820800781e+01 -1.342105951113864437e-13 -3.464335277523523937e-14 -5.065618538242604163e-14 4.426328891631893525e-14
5.182000000000000000e+03 7.396755981445312500e+01 -3.782970666885375977e+00 -1.849752752499603942e-14 4.495819677912543666e-13 1.293253291999654775e-13 1.497070290000859782e-13
5.183000000000000000e+03 7.406764984130859375e+01 1.509969997406005859e+01 -2.075232618126837680e-13 5.515747364057133062e-13 1.032154437331615771e-13 2.112021901768887377e-13
5.184000000000000000e+03 7.397203063964843750e+01 1.266559982299804688e+01 -8.055005501581696814e-14 7.203691853099880582e-13 1.919457431540094738e-13 1.101908142639093646e-13
5.185000000000000000e+03 7.402335357666015625e+01 -5.328414916992187500e+00 9.924853771941730129e-14 3.170407729749524783e-13 1.248867952411900073e-13 1.545711800741977893e-13
5.186000000000000000e+03 7.438077545166015625e+01 2.119685554504394531e+01 -2.675992565558116265e-14 4.460409363908623970e-13 1.257843113521006639e-13 -7.169204195144746050e-14
5.187000000000000000e+03 5.106042861938476562e+00 1.773357009887695312e+01 1.328019860963661203e-13 2.856698710050620260e-13 1.255415584856811595e-13 -4.592146433078647672e-14
5.188000000000000000e+03 6.413558483123779297e+00 1.783539581298828125e+01 -9.169164857719333539e-14 -1.642094832777097474e-14 -3.243377924089588249e-14 7.411743270448363508e-15
5.189000000000000000e+03 7.370896911621093750e+01 1.957617187500000000e+01 -1.685066880951699431e-13 2.022885439885435677e-13 1.013455693741867683e-14 -1.316985545819120487e-14
5.190000000000000000e+03 5.400712013244628906e+00 1.578529167175292969e+01 6.382479993734951895e-14 1.188553785556531461e-13 5.480405490315351513e-14 2.279466457982045474e-15
5.191000000000000000e+03 6.355782032012939453e+00 1.688677978515625000e+01 -1.154418222256911597e-13 -9.808545306261989838e-14 -6.405818123124060182e-14 -3.134794737701986078e-14
5.192000000000000000e+03 5.236202716827392578e+00 1.144962310791015625e+01 -4.964069791075359506e-14 3.904839505127627453e-13 1.022529771358554607e-13 7.337664818200112515e-14
5.193000000000000000e+03 5.692553997039794922e+00 9.835424423217773438e+00 -4.412598148743722415e-14 1.640926571054926453e-13 3.599000302422980524e-14 1.839427183703348789e-13
5.194000000000000000e+03 6.047411918640136719e+00 1.838797950744628906e+01 -9.519000984583442238e-14 2.222722331711446397e-13 3.812466835284578082e-14 -8.776964208591711558e-14
5.195000000000000000e+03 5.837877750396728516e+00 1.898240661621093750e+01 -4.152886666280650174e-14 1.194547661741846012e-13 2.337776883697389313e-14 -6.421780289608478021e-14
5.196000000000000000e+03 5.605064392089843750e+00 8.861885070800781250e+00 3.399869971600251450e-15 -4.429386002945123746e-14 -1.226819735616847470e-14 1.093833546959507852e-13
5.197000000000000000e+03 5.725382995605468750e+01 -1.032714080810546875e+01 4.871824514987577182e-13 -1.343396287224393748e-13 1.058528468328955030e-13 -7.009547971356319684e-14
5.198000000000000000e+03 6.352522373199462891e+00 2.147045516967773438e+01 -4.025661639976696460e-14 2.572528507490540184e-13 6.509887301529154735e-14 -1.401962313601901045e-13
5.199000000000000000e+03 5.318315505981445312e+00 2.102530860900878906e+01 8.246642978953014347e-14 -5.615914160030273383e-14 7.892187134394580694e-15 -2.214431573223721306e-13
5.200000000000000000e+03 9.424922943115234375e+00 1.534518432617187500e+01 7.549204859326474892e-14 2.124980963760791930e-13 8.639704213555046697e-14 -6.698211863637171248e-14
5.201000000000000000e+03 5.211826801300048828e+00 1.509205532073974609e+01 5.604699443808626447e-14 6.977109319981911195e-14 3.774542459730571842e-14 9.973319641930905588e-14
5.202000000000000000e+03 6.342992305755615234e+00 1.593227958679199219e+01 9.183089401745836433e-14 1.265688400441111749e-13 6.551992292897629300e-14 -2.536817598434298882e-14
5.203000000000000000e+03 7.916461944580078125e+00 1.622807312011718750e+01 4.607444186919239237e-14 1.112480875649357603e-13 4.719676052430434032e-14 -2.840280026688950243e-14
5.204000000000000000e+03 7.536879539489746094e+00 1.126864433288574219e+01 -1.427768493711401021e-13 1.675646654850787565e-13 7.436342801302522898e-15 1.581954917539638017e-13
5.205000000000000000e+03 4.996985435485839844e+00 1.329789257049560547e+01 -5.668750720027281031e-14 6.720725321748832748e-14 3.155923847516302512e-15 3.979214080094238548e-14
5.206000000000000000e+03 6.048418521881103516e+00 1.541100597381591797e+01 1.374285122415211044e-14 -3.986115704548466587e-14 -7.835490984070114101e-15 -8.731186482363942347e-14
5.207000000000000000e+03 5.771363735198974609e+00 1.481807994842529297e+01 2.696366587851602853e-14 -7.422717090499811321e-14 -1.417905201616439376e-14 4.641220472723951718e-14
5.208000000000000000e+03 5.240644931793212891e+00 1.444445991516113281e+01 5.721680453648486653e-14 2.075252811392300223e-13 7.942262705796718225e-14 6.079777523440577092e-14
5.209000000000000000e+03 7.356394195556640625e+01 -8.844592094421386719e+00 -3.270227513264833963e-14 7.748663500119559733e-14 1.343530880759712456e-14 1.949160505308050739e-13
5.210000000000000000e+03 7.436467742919921875e+01 -8.662857055664062500e+00 1.180162704486533570e-14 -4.067006876672801807e-13 -1.184697278429000522e-13 1.442602276784804571e-13
5.211000000000000000e+03 6.416238784790039062e+00 2.090563011169433594e+01 -7.365437334474686515e-14 2.429395389285521345e-13 5.078554764226250740e-14 -1.507247560268709652e-13
5.212000000000000000e+03 1.038283538818359375e+01 1.964286231994628906e+01 1.925321643921843601e-14 9.975327448829077182e-14 3.570194744765935180e-14 -1.476706533746693917e-13
5.213000000000000000e+03 7.361627960205078125e+01 2.193253326416015625e+01 -1.591115612745511165e-13 2.063150269116659219e-13 1.416103816647513655e-14 -7.792085797127604185e-14
5.214000000000000000e+03 5.828331470489501953e+00 2.048872375488281250e+01 9.663393674662346111e-14 4.141454431998148333e-14 4.141454431998148333e-14 -1.419187440091992936e-13
5.215000000000000000e+03 3.727931976318359375e+01 1.033279418945312500e+01 -9.225644337015892482e-14 5.196342149431897040e-14 -1.208790554631244962e-14 -8.005725802336799424e-14
5.216000000000000000e+03 7.357927703857421875e+01 2.270344924926757812e+01 -2.476564146900589458e-13 1.912426922552612485e-13 -1.692411808569202480e-14 -1.181019258084115009e-13
5.217000000000000000e+03 6.151720809936523438e+01 -2.527276992797851562e+00 -5.155737084006420390e-16 -4.577304247438407359e-13 -1.374738132576061589e-13 -4.585496885629522512e-14
5.218000000000000000e+03 6.408489227294921875e+00 2.622793006896972656e+01 -1.555931761470369379e-14 8.483361582656279154e-14 2.078229047999726603e-14 6.022153533225688138e-14
5.219000000000000000e+03 6.344527435302734375e+01 -8.690688133239746094e+00 3.257376193863820157e-13 -2.492812271708000349e-13 2.293691529298234194e-14 1.628532513920158409e-13
5.220000000000000000e+03 6.393426895141601562e+01 -7.834869861602783203e+00 3.249173662327881074e-13 -3.640101458105005072e-13 -1.172783522856643557e-14 1.430222314278278839e-13
5.221000000000000000e+03 1.377379512786865234e+01 9.377872467041015625e+00 -4.081365914719928267e-14 7.401033047050101232e-14 9.959000888770750543e-15 -7.418074672322499952e-14
5.222000000000000000e+03 5.636147308349609375e+01 -1.000859355926513672e+01 3.600308527869355846e-13 -7.445580881438457199e-14 8.567251725752345060e-14 -4.470186563574826688e-14
5.223000000000000000e+03 5.537414550781250000e+01 -8.720165252685546875e+00 1.283939453236918049e-13 -1.737287749640006873e-13 -1.360044889209266472e-14 4.474973654979529092e-14
5.224000000000000000e+03 5.062128067016601562e+01 -1.093020439147949219e+01 2.773850485242312924e-13 -2.585660093153141492e-13 5.645707951026880320e-15 -1.003642291887499316e-13
5.225000000000000000e+03 8.271113395690917969e+00 7.121366977691650391e+00 6.647241486629554275e-14 -6.301372184464026915e-14 1.037608690002058288e-15 8.141507216660737178e-14
5.226000000000000000e+03 5.148936843872070312e+01 -9.795367240905761719e+00 -1.764753165649224353e-14 -1.333783344187322584e-13 -4.530776185544642398e-14 -8.235405223435202093e-14
5.227000000000000000e+03 9.828730583190917969e+00 7.575687885284423828e+00 4.910979798820533371e-14 2.104705603865001523e-14 2.104705603865001523e-14 2.822491487763662682e-14
5.228000000000000000e+03 5.763174819946289062e+01 -6.763095378875732422e+00 -9.135106001723417024e-14 -1.764032984356150857e-13 -8.032630956873385020e-14 -1.047187035978398850e-13
5.229000000000000000e+03 5.721381378173828125e+01 -7.256350040435791016e+00 1.451603865321865472e-13 -2.122940901847988893e-13 -2.014011075697052372e-14 -1.369971166674185947e-13
5.230000000000000000e+03 3.631011962890625000e+01 1.717876052856445312e+01 7.896439578602976184e-14 1.253437864568926474e-13 6.129245602812943838e-14 -7.314065125036892101e-14
5.231000000000000000e+03 3.723947143554687500e+01 1.496711444854736328e+01 1.487902005379779236e-13 3.840238673932794278e-13 1.598442244451353522e-13 1.222745727369120572e-13
5.232000000000000000e+03 3.872350692749023438e+01 1.605295372009277344e+01 1.902197068479397069e-13 3.102774656128792774e-13 1.501491530934984109e-13 -9.470200367173511879e-14
5.233000000000000000e+03 7.749009132385253906e+00 8.058976173400878906e+00 7.347211895955205185e-14 -6.001384962985370497e-14 4.037482069458924946e-15 5.901933130582348586e-14
5.234000000000000000e+03 1.137573337554931641e+01 2.110717391967773438e+01 -6.302524149272292764e-14 6.449108282992332963e-14 4.397526923276962171e-16 -7.067257342492291872e-14
5.235000000000000000e+03 6.028365707397460938e+01 -9.447559356689453125e+00 2.538058738871251663e-13 -7.422984752911143680e-14 5.387280994028319225e-14 2.768450616322248869e-14
5.236000000000000000e+03 6.034419631958007812e+01 -8.312952041625976562e+00 2.261800908240699237e-13 -3.605751764876319321e-13 -4.031852434381588690e-14 -2.068169430608250356e-15
5.237000000000000000e+03 6.791700363159179688e+00 1.954025459289550781e+01 5.814634526906531375e-14 -7.230090278646100765e-14 -4.246368441064834326e-15 7.120672595398863658e-14
5.238000000000000000e+03 1.036278247833251953e+01 1.908275794982910156e+01 3.638947392655030033e-14 1.757238153815912640e-13 6.363398713125564821e-14 -5.002103095066382649e-15
5.239000000000000000e+03 9.985078811645507812e+00 1.488483428955078125e+01 -5.998529360810292074e-15 9.179053459158759143e-14 2.573760093395847937e-14 -4.633281402315926611e-14
5.240000000000000000e+03 1.137703132629394531e+01 1.089790821075439453e+01 1.364965303599866703e-14 9.735174634744464539e-14 3.330041930681322537e-14 9.757140570759020859e-14
5.241000000000000000e+03 1.080084228515625000e+01 9.318325996398925781e+00 3.034341373542130682e-14 1.731326399519866888e-13 6.104281847791465099e-14 7.523669865285367853e-14
5.242000000000000000e+03 5.985753250122070312e+01 -8.751056671142578125e+00 3.985086457873598942e-13 -1.221437857676583097e-14 1.158882831277935344e-13 -2.568827142917628342e-14
5.243000000000000000e+03 5.462781524658203125e+01 -7.870252132415771484e+00 -8.055232506411560967e-14 -2.632771659103610995e-13 -1.031488466147166549e-13 -8.967282347444385793e-14
5.244000000000000000e+03 5.296728134155273438e+01 -8.081878662109375000e+00 -2.028494695350060995e-13 -3.843166561899591382e-13 -1.761498390727422869e-13 3.394055259823940129e-14
5.245000000000000000e+03 5.100850296020507812e+01 -1.033761310577392578e+01 3.098108249978415163e-13 -4.476782155025211749e-15 9.160020967647133916e-14 -2.092071226542438489e-13
5.246000000000000000e+03 6.274277496337890625e+01 -9.368617057800292969e+00 4.553274532588524881e-13 -7.936536085446921351e-14 1.127886236555568356e-13 3.234347197619141800e-14
5.247000000000000000e+03 6.481922912597656250e+01 -8.266296386718750000e+00 2.496081412308587266e-13 -2.819081502524606320e-13 -9.690001859447624349e-15 1.645966891429540002e-13
5.248000000000000000e+03 1.266705894470214844e+01 8.070266723632812500e+00 1.245433742030552238e-13 7.624785609209976112e-15 3.965044912952568612e-14 -3.693212050201108432e-14
5.249000000000000000e+03 1.358584117889404297e+01 7.460609436035156250e+00 1.153684488436682032e-13 7.231909705416803003e-14 5.630626444697722777e-14 4.594798323829911435e-14
5.250000000000000000e+03 6.698171234130859375e+01 1.327602577209472656e+01 -2.733876764294401740e-13 -8.491813480691889904e-13 -3.367707046390833181e-13 1.352906908681436593e-13
5.251000000000000000e+03 6.801443481445312500e+01 1.448265266418457031e+01 -3.662190180015595375e-13 -6.144605223940002858e-13 -2.942038431451299285e-13 2.397383506991257462e-13
5.252000000000000000e+03 6.603027343750000000e+01 5.012168884277343750e+00 -1.878737915022785088e-13 -8.811589153646937067e-13 -3.207098215468606739e-13 1.560153373679484812e-13
5.253000000000000000e+03 6.515221405029296875e+01 4.953133583068847656e+00 -1.903993049378119307e-13 -8.593658553865402006e-13 -3.149295331895257677e-13 5.243602522130540178e-14
5.254000000000000000e+03 7.112032318115234375e+01 -8.320089340209960938e+00 1.798972449685350833e-14 -2.439203353188368339e-13 -6.777918341600158714e-14 1.267546994015295025e-13
5.255000000000000000e+03 7.144730377197265625e+01 -9.779776573181152344e+00 2.218083437191195606e-13 -6.506760733514249662e-14 4.702222091519311920e-14 1.475319026016455592e-13
5.256000000000000000e+03 4.781475067138671875e+01 -9.845691680908203125e+00 1.122564565717194818e-13 4.810990947528952233e-14 4.810990947528952233e-14 -5.817990810256731815e-14
5.257000000000000000e+03 1.025664806365966797e+01 1.299763298034667969e+01 -2.175680188581333857e-14 2.194304037517885719e-13 5.930207767988054934e-14 8.772741918756238322e-14
5.258000000000000000e+03 5.195197677612304688e+01 -9.267908096313476562e+00 2.110159513487100402e-13 -1.383193418743461356e-13 2.180898419756188700e-14 -9.691582931146969226e-14
5.259000000000000000e+03 6.498446655273437500e+01 2.115294218063354492e+00 -2.130179713177859924e-13 -6.040257270051307970e-13 -2.451131203388967617e-13 7.437050243220069690e-14
5.260000000000000000e+03 6.230635452270507812e+01 1.015868186950683594e+00 -1.801066484537552914e-13 -8.549546704275656772e-13 -3.105184024406598686e-13 -1.783440338768912947e-13
5.261000000000000000e+03 6.945443725585937500e+01 -9.236731529235839844e+00 2.219849738055446053e-13 -2.251202289903567189e-13 -9.405738661140265224e-16 1.180257063956857699e-13
5.262000000000000000e+03 4.069978713989257812e+01 2.063412857055664062e+01 -8.879248519170351850e-14 7.697026508182453625e-15 -2.432863785916620364e-14 -3.393891613058530599e-15
5.263000000000000000e+03 3.731590652465820312e+01 1.590725040435791016e+01 6.526214793323723354e-15 3.230535955932312131e-13 9.887393909255998148e-14 8.351233252027259746e-15
5.264000000000000000e+03 6.442414093017578125e+01 2.653779983520507812e+00 -1.193478502874503744e-13 -9.204170628787644581e-13 -3.119294915681497526e-13 2.125692369792531872e-14
5.265000000000000000e+03 3.537401580810546875e+01 1.947401237487792969e+01 -5.648795301416327519e-14 -1.843374492762825390e-13 -7.224762102594692315e-14 -6.601562016223666562e-14
5.266000000000000000e+03 3.880307769775390625e+01 1.926259994506835938e+01 -1.172879474748908524e-13 -5.026626223548699701e-14 -5.026626223548699701e-14 -6.359891319097574214e-14
5.267000000000000000e+03 4.196308898925781250e+01 2.077273750305175781e+01 -4.828405267298142844e-14 5.041743813481410277e-15 -1.297269244609176864e-14 -2.360484481760561498e-14
5.268000000000000000e+03 4.138483428955078125e+01 2.001119232177734375e+01 -4.488990356190693254e-14 -1.364753308193827896e-13 -5.440957133082645336e-14 -5.183787765900872702e-14
5.269000000000000000e+03 3.957785034179687500e+01 2.008520317077636719e+01 -1.154320101960301659e-13 1.915556031666359321e-14 -2.888293581084291906e-14 -4.377440521608627622e-14
5.270000000000000000e+03 7.322645568847656250e+01 1.175427722930908203e+01 -9.873316221672631676e-14 4.609462225975413663e-13 1.086639187918708727e-13 8.555898434940527320e-15
5.271000000000000000e+03 7.276900482177734375e+01 -7.748809337615966797e+00 -1.234885132518626083e-13 4.265037047222319105e-15 -3.576704362372173929e-14 2.203760990967390532e-13
5.272000000000000000e+03 4.128652572631835938e+01 2.148480033874511719e+01 -2.928401607576319732e-14 -1.498031435226768182e-13 -5.372614787953200466e-14 -2.843508916283883636e-14
5.273000000000000000e+03 1.209836864471435547e+01 6.737976074218750000e+00 -4.924050808921911788e-16 2.285437193227241037e-13 6.841539325081608114e-14 4.388385203726689887e-14
5.274000000000000000e+03 1.280973148345947266e+01 6.044691085815429688e+00 -3.761418870058992614e-14 -1.533732179887642433e-13 -5.729622234561942973e-14 1.361070951040252441e-13
5.275000000000000000e+03 6.241116714477539062e+01 -9.059833735227584839e-02 -2.360362068559024307e-13 -7.416716438050918736e-13 -2.933123579088037225e-13 -1.697218754426188525e-13
5.276000000000000000e+03 6.288428115844726562e+01 5.932022929191589355e-01 -1.619804686431650098e-13 -7.556844147833807757e-13 -2.752994772252381761e-13 2.233116815108290160e-14
5.277000000000000000e+03 4.145542907714843750e+01 2.316657447814941406e+01 -6.874049804849943768e-14 -1.781508019447000657e-13 -7.406738660982806199e-14 -5.039597008476594253e-15
5.278000000000000000e+03 6.336812210083007812e+01 1.286050796508789062e+00 -1.781696670625013135e-13 -8.998754974683109698e-13 -3.234135507144964006e-13 3.494806101954871236e-14
5.279000000000000000e+03 4.199454498291015625e+01 2.218296623229980469e+01 -7.564056396210452893e-14 -4.957399237209142440e-14 -3.756436622263242819e-14 1.017224143324202065e-14
5.280000000000000000e+03 4.253503799438476562e+01 2.371099281311035156e+01 -1.073606196891167819e-13 -1.146381167077548113e-13 -6.659961888618240455e-14 -5.980927592649874086e-15
5.281000000000000000e+03 7.258609771728515625e+01 4.562472820281982422e+00 -2.143182278781935457e-13 2.055304982196554109e-13 -2.636321226902045393e-15 4.386584140630284123e-13
5.282000000000000000e+03 7.344579315185546875e+01 3.928285360336303711e+00 -2.588872042089129799e-13 3.008068783210554598e-13 1.257590833227996419e-14 4.668413550699967995e-13
5.283000000000000000e+03 3.320539474487304688e+01 2.324902725219726562e+01 -1.179532274804551140e-13 6.382599255973925301e-14 -1.623817047621475829e-14 -3.966253120748532146e-14
5.284000000000000000e+03 3.695796585083007812e+01 1.792679023742675781e+01 9.376401463253875718e-15 9.552035269526359951e-14 3.146902565463217949e-14 -3.567634164166385430e-15
5.285000000000000000e+03 7.369989013671875000e+01 -7.591089725494384766e+00 -2.419359031418776701e-14 -4.678781776075446874e-13 -1.476215254637286423e-13 6.246531205700636691e-14
5.286000000000000000e+03 7.335453033447265625e+01 6.227683067321777344e+00 -1.767943159491219829e-13 6.148385159289102009e-14 -3.459314066212200445e-14 3.735948995910870485e-13
5.287000000000000000e+03 6.609130096435546875e+01 8.209872245788574219e+00 -1.851170584009353970e-13 -1.085856773420934562e-12 -3.812921387045392629e-13 2.112704407036467003e-13
5.288000000000000000e+03 5.926524734497070312e+01 -5.095754623413085938e+00 -1.279606303729308170e-13 -5.809761851292838397e-13 -2.126810419401589658e-13 -1.646861764797655225e-13
5.289000000000000000e+03 5.988914871215820312e+01 -5.223856449127197266e+00 9.623638013876376074e-14 -4.620162759316759349e-13 -1.097339653497418632e-13 -2.793645272525149131e-14
5.290000000000000000e+03 3.748918533325195312e+01 1.892984580993652344e+01 -3.936079096661902754e-14 1.203839409885318346e-13 2.430694365132112650e-14 5.048111383662394480e-15
5.291000000000000000e+03 5.636877441406250000e+01 -7.577826499938964844e+00 1.113657302769140156e-13 -3.182794197469085429e-13 -6.207410480811928477e-14 -8.105517125545080859e-14
5.292000000000000000e+03 5.462369918823242188e+01 -8.659193038940429688e+00 2.273323537879332057e-13 -2.685794295298471468e-13 -1.237412560248620300e-14 -1.806930934088527008e-13
5.293000000000000000e+03 6.949160766601562500e+01 1.592154788970947266e+01 -3.959916433388804835e-13 -2.612126010284598898e-13 -1.971612841522238369e-13 8.345330279417844527e-15
5.294000000000000000e+03 7.203276062011718750e+01 9.810997962951660156e+00 -1.569008594923260169e-13 -6.724322162456053409e-14 -6.724322162456053409e-14 1.463471677827163364e-13
5.295000000000000000e+03 6.623668670654296875e+01 8.911500930786132812e+00 -9.916691084835629888e-14 -8.431416914471412394e-13 -2.826925976293082066e-13 8.363180482341692201e-14
5.296000000000000000e+03 6.673383331298828125e+01 5.921571254730224609e+00 -1.444262732411966121e-13 -7.024102436845036657e-13 -2.540509577882155146e-13 1.552880816556995169e-13
5.297000000000000000e+03 1.049521923065185547e+01 1.548582077026367188e+01 1.715264614549313654e-16 1.030131451603029380e-13 3.095540181607611685e-14 -3.805830840362608991e-15
5.298000000000000000e+03 6.665815830230712891e+00 1.538127994537353516e+01 -8.406791159477206010e-14 1.469746904476237903e-13 1.887203297822916126e-14 6.129665731154781971e-14
5.299000000000000000e+03 9.893248558044433594e+00 1.724892425537109375e+01 9.425212753278941480e-14 1.776466208294399940e-13 8.156962518629518044e-14 -1.585246148759489326e-13
5.300000000000000000e+03 9.748539924621582031e+00 1.669542694091796875e+01 9.290943462172442102e-15 -1.103955387391289400e-13 -3.033137909130671772e-14 -7.903967329811814602e-14
5.301000000000000000e+03 5.760184097290039062e+01 -7.674420356750488281e+00 1.151198412855172770e-13 2.780918128154202806e-13 1.179635002960394141e-13 -1.267055850431159092e-13
5.302000000000000000e+03 2.551704788208007812e+01 2.702592468261718750e+01 -2.749249395847530586e-14 5.684392708057636745e-14 8.805430106036907928e-15 -1.900427515008629165e-14
5.303000000000000000e+03 1.055654811859130859e+01 2.305069351196289062e+01 -1.473857521487945132e-13 3.028422781645168094e-13 4.663695644946397323e-14 -1.093790788736330455e-13
5.304000000000000000e+03 6.978589630126953125e+01 -8.627543449401855469e+00 2.447205578372940726e-13 -2.954405654582298313e-13 -1.521600669085205332e-14 2.312093929941055892e-13
5.305000000000000000e+03 9.553997039794921875e+00 1.255322647094726562e+01 -2.287710121437903227e-14 2.875766844708665948e-13 7.940988090617689954e-14 -4.405652139763058250e-14
5.306000000000000000e+03 9.341628074645996094e+00 1.197743415832519531e+01 4.752784198646352321e-14 3.978144040312631136e-13 1.336026694007466653e-13 -1.600330789110551710e-13
5.307000000000000000e+03 5.044970321655273438e+01 -9.864553451538085938e+00 2.546468522428724929e-14 -4.923469943372837943e-13 -1.400646905316133006e-13 -1.236218972241326375e-13
5.308000000000000000e+03 6.589527893066406250e+01 2.272859001159667969e+01 -2.884769246397356213e-13 -8.785235993541418154e-13 -3.501001571981632310e-13 -4.111368838151212290e-14
5.309000000000000000e+03 6.657327270507812500e+01 9.981113433837890625e+00 -2.247271243876677871e-13 -9.427041395768109844e-13 -3.502293940971235031e-13 1.080711719116458913e-13
5.310000000000000000e+03 4.629272079467773438e+01 2.524219322204589844e+01 -1.473719963337311034e-13 -6.315942506409516488e-14 -6.315942506409516488e-14 -4.487253176319169409e-15
5.311000000000000000e+03 4.487082290649414062e+01 2.410829734802246094e+01 -1.120337478929638031e-13 2.061195893056800427e-14 -2.742653719693850800e-14 3.257080206670731615e-14
5.312000000000000000e+03 5.988186359405517578e+00 3.036229324340820312e+01 -1.555245156563325043e-14 4.050931953162445476e-13 1.168622219393372630e-13 2.368720352513304511e-14
5.313000000000000000e+03 3.632025527954101562e+01 2.151320648193359375e+01 -2.409516847384860633e-14 -1.032650137953007932e-14 -1.032650137953007932e-14 4.246624753234673477e-14
5.314000000000000000e+03 3.574697494506835938e+01 2.076857757568359375e+01 -9.913897908988764107e-14 -4.248813147557199688e-14 -4.248813147557199688e-14 -1.637854077623374094e-13
5.315000000000000000e+03 7.394569396972656250e+01 3.421281814575195312e+01 7.572112695978377994e-14 2.955198748471471459e-13 1.113722964763211309e-13 -1.414695183915570809e-13
5.316000000000000000e+03 5.664166259765625000e+01 3.119511604309082031e+01 -1.737013683659593272e-14 -5.021264979331030442e-13 -1.558489800971077366e-13 2.332885403952267289e-13
5.317000000000000000e+03 5.082931900024414062e+01 2.662671089172363281e+01 -1.945354413581540376e-13 -1.062478013555412382e-13 -9.023497552461401394e-14 1.500842364884208413e-13
5.318000000000000000e+03 4.524006652832031250e+01 2.753078269958496094e+01 -1.157774370081840476e-13 -1.182453250982498649e-13 -7.020682727667745815e-14 1.880601861845195011e-14
5.319000000000000000e+03 7.235010528564453125e+01 3.197507095336914062e+01 9.847283172258539108e-14 1.337045437473788345e-13 6.965321331861562548e-14 -1.700335158045726547e-13
5.320000000000000000e+03 7.284648132324218750e+01 3.075785255432128906e+01 9.072018310185558931e-14 2.447593451700147416e-13 1.006438584815610993e-13 -1.878331610258646145e-13
5.321000000000000000e+03 3.433539199829101562e+01 2.312276268005371094e+01 5.772055197087594403e-15 -8.902815686268397699e-14 -2.497683151611845148e-14 -1.459476223414964829e-14
5.322000000000000000e+03 3.231388854980468750e+01 2.597576904296875000e+01 -1.086089836230437478e-13 -7.957588136438861325e-16 -3.282142217514091853e-14 -9.951068425219714020e-14
5.323000000000000000e+03 1.549678230285644531e+01 3.145134162902832031e+01 -6.511996710029349482e-16 1.598492388801830977e-13 4.775941062984748187e-14 -1.610757832453887928e-14
5.324000000000000000e+03 1.504286289215087891e+01 2.871061325073242188e+01 -7.014665405610451265e-14 1.300654733655398632e-13 1.797564342113835284e-14 2.996741242200333388e-14
5.325000000000000000e+03 4.703599929809570312e+01 2.675336837768554688e+01 -1.289550199479530534e-13 -1.238928664520910772e-13 -7.585436863051867040e-14 2.847253479537105447e-14
5.326000000000000000e+03 8.219343185424804688e+00 2.569417381286621094e+01 -9.023000174714773669e-14 2.587111568811556461e-13 5.054434992833416185e-14 7.463122594962914857e-14
5.327000000000000000e+03 6.336611270904541016e+00 2.695635032653808594e+01 -2.239272711755755513e-14 4.021616481671153043e-13 1.139306747902080197e-13 -1.046295161106916907e-14
5.328000000000000000e+03 7.144701385498046875e+01 3.823984146118164062e+01 1.394718216786439147e-13 5.977363786227596343e-14 5.977363786227596343e-14 -9.461696834009436508e-14
5.329000000000000000e+03 7.097406005859375000e+01 3.380531311035156250e+01 1.350661254931675992e-13 -3.361641680624770367e-14 3.043491023438371634e-14 -1.406375423019731730e-13
5.330000000000000000e+03 5.733501052856445312e+01 2.911964416503906250e+01 -3.615138736463721983e-15 -4.247456336300969859e-13 -1.285082337851989331e-13 2.860683424085047610e-13
5.331000000000000000e+03 6.039287948608398438e+01 2.738441658020019531e+01 2.128499436979732623e-14 -7.915194649883716682e-13 -2.310703440654843233e-13 2.681264227571283909e-13
5.332000000000000000e+03 2.379006195068359375e+01 3.080159378051757812e+01 -4.985777212634413813e-14 4.725880738175661233e-14 -7.796895398432879872e-16 -2.915135377556422880e-14
5.333000000000000000e+03 1.300459384918212891e+01 2.752412605285644531e+01 -6.690177247912695857e-14 2.915844649065135741e-13 6.740480162957876442e-14 1.346417314934070936e-14
5.334000000000000000e+03 1.449927520751953125e+01 2.755909347534179688e+01 -1.114950620435643802e-13 8.946925096403254840e-14 -6.607743408562844270e-15 2.087331772270689667e-14
5.335000000000000000e+03 5.036380386352539062e+01 2.829514122009277344e+01 -1.580338643151005251e-13 -2.736080676260521649e-13 -1.294925809375985226e-13 1.241328817080250557e-13
5.336000000000000000e+03 6.622451782226562500e+01 2.373607254028320312e+01 -2.238123830147417670e-13 -8.050593069790223932e-13 -3.086615164848982573e-13 -1.286628681200496782e-13
5.337000000000000000e+03 6.567503356933593750e+01 2.533618354797363281e+01 -1.284219041872147749e-13 -7.841937277493216119e-13 -2.737846841599500536e-13 -1.278942771999747041e-13
5.338000000000000000e+03 2.681366348266601562e+01 2.824431037902832031e+01 1.260133372025769652e-14 5.115152008558498942e-14 1.912585656526927941e-14 -3.985700997217490882e-14
5.339000000000000000e+03 8.419171333312988281e+00 3.043221092224121094e+01 -4.065765261897398564e-14 4.400847904411503420e-13 1.198281382973342968e-13 1.769675443512308544e-14
5.340000000000000000e+03 1.358875846862792969e+01 3.162358665466308594e+01 -1.725152511892601853e-14 1.756102858616048756e-13 4.750762839221024658e-14 -3.924775950200562469e-14
5.341000000000000000e+03 5.904390335083007812e+01 2.860104370117187500e+01 -7.714591769222844952e-14 -5.591984666118710035e-13 -1.909033098702189735e-13 2.609458601889741436e-13
5.342000000000000000e+03 1.014847183227539062e+01 3.660959243774414062e+01 -1.823704117679281894e-14 2.409549068518174186e-13 6.681536156597986387e-14 3.279586549705636178e-14
5.343000000000000000e+03 3.130250358581542969e+01 2.974131202697753906e+01 -5.434603030725522477e-14 -1.147930491982029899e-13 -5.074172554570335891e-14 -2.920618391230589417e-14
5.344000000000000000e+03 3.175543403625488281e+01 2.816977500915527344e+01 -5.051517133736714571e-14 -2.736822744884952197e-14 -2.336501929705182140e-14 -3.725541942545089469e-14
5.345000000000000000e+03 6.526705169677734375e+01 4.225373744964599609e+00 -1.493697337042257378e-13 -7.274043563668119994e-13 -2.630322175345423119e-13 1.004702573849554359e-13
5.346000000000000000e+03 6.387620544433593750e+01 1.982454299926757812e+00 -1.924242286777816391e-13 -7.687317579371799603e-13 -2.883467932739830486e-13 6.000319734350903489e-14
5.347000000000000000e+03 6.729804229736328125e+01 9.916640281677246094e+00 -1.187377561724656250e-13 -6.914008753543254837e-13 -2.430415894580373326e-13 3.154983056492116633e-13
5.348000000000000000e+03 7.227092742919921875e+01 -9.144837379455566406e+00 1.698766046451596901e-13 -2.017014349596155109e-13 -9.547451296622409128e-15 2.138661426773214025e-13
5.349000000000000000e+03 7.271115303039550781e+00 2.180754470825195312e+01 4.701807384188336214e-14 1.917166647874904428e-13 7.162041684542763686e-14 -5.635155699273280971e-14
5.350000000000000000e+03 6.252324295043945312e+01 -1.203475832939147949e+00 -3.060972089403805885e-14 -5.220977730008291573e-13 -1.658122424086361235e-13 -5.795589160494107883e-14
5.351000000000000000e+03 6.202923965454101562e+01 -1.860962629318237305e+00 -1.911990937754001751e-13 -7.882227314424949949e-13 -2.938265407891049730e-13 6.562818729216254865e-14
5.352000000000000000e+03 7.580422878265380859e+00 2.896313858032226562e+01 -4.194075845626553389e-14 3.937839366651568751e-13 1.055529497357224344e-13 4.481487338343914661e-14
5.353000000000000000e+03 7.902790546417236328e+00 3.152507209777832031e+01 -3.550551034279571250e-14 4.194173762635255986e-13 1.151735635031639338e-13 6.707031848310340827e-14
5.354000000000000000e+03 5.889000320434570312e+01 -8.507054328918457031e+00 2.786243187124365361e-13 -2.008462162859589450e-13 2.333343513251460305e-14 2.998671122067357586e-14
5.355000000000000000e+03 4.955381011962890625e+01 -1.103867816925048828e+01 1.720625324077434959e-13 -2.068409056229028598e-13 -1.043351043988850410e-14 -3.755004797769204150e-14
5.356000000000000000e+03 4.865780258178710938e+01 -1.118839836120605469e+01 2.063282812832245572e-13 -1.403283413949074632e-13 1.979998467700055942e-14 2.761125136581214778e-14
5.357000000000000000e+03 7.087606811523437500e+01 2.307782363891601562e+01 -1.898158821962703247e-13 -5.847418767723419619e-14 -7.448702028442499845e-14 -2.093621093548006518e-13
5.358000000000000000e+03 7.298797607421875000e+01 2.457947349548339844e+01 -1.433658693063971645e-13 3.960669682848139139e-13 7.581032969352502482e-14 -1.677259812158174435e-13
5.359000000000000000e+03 7.290267181396484375e+01 2.832726669311523438e+01 -5.123156385206757354e-15 2.723100607851525190e-13 8.015606949886289190e-14 -2.751895662300024581e-13
5.360000000000000000e+03 7.220425415039062500e+01 2.620205307006835938e+01 -7.604395493290491692e-14 1.046625825828866041e-13 8.585586939741790546e-15 -2.023978315675301065e-13
5.361000000000000000e+03 1.073124790191650391e+01 8.443600654602050781e+00 6.079303862616472487e-14 2.548088964219458186e-13 9.468058390256495205e-14 1.100428477724194054e-13
5.362000000000000000e+03 4.813420486450195312e+01 -1.081752967834472656e+01 3.339973425869197099e-13 -1.313639816499442836e-13 6.079000286008176546e-14 4.281422560773774644e-14
5.363000000000000000e+03 5.320914840698242188e+01 -9.483886718750000000e+00 9.487921651682787449e-14 -5.083937828012641269e-14 1.321195130160384909e-14 -4.521158295835159269e-14
5.364000000000000000e+03 6.206489181518554688e+01 -8.710071563720703125e+00 2.755153147727257279e-13 -2.936805529665797998e-13 -5.449565613628885516e-15 -2.248061440913171408e-15
5.365000000000000000e+03 5.881950759887695312e+01 -6.396589279174804688e+00 -2.765547326192240030e-14 -2.406070947948840688e-13 -8.047876872297604622e-14 -9.548168055902375717e-14
5.366000000000000000e+03 6.557648181915283203e+00 2.487188529968261719e+01 -4.700875647946356484e-14 2.560433893443285480e-14 -6.421325009399328834e-15 -3.935606452277334855e-14
5.367000000000000000e+03 7.243733215332031250e+01 2.412178993225097656e+01 -1.425243556258271732e-14 3.598993932735217172e-13 1.036940918872596151e-13 -1.911607672286028126e-13
5.368000000000000000e+03 7.362561035156250000e+01 2.035794067382812500e+01 -1.109001061014129597e-13 4.328563332420265475e-13 9.658687559607401218e-14 -1.148034575390588508e-13
5.369000000000000000e+03 6.863666534423828125e+01 1.624990463256835938e+01 -4.258496224922303508e-13 -5.713900489909273794e-13 -2.991719014449473191e-13 1.873813300407557660e-16
5.370000000000000000e+03 3.768383407592773438e+01 1.707337760925292969e+01 1.623443506091736682e-14 2.357123556669810105e-13 7.558403637133656594e-14 -1.140144378783619974e-14
5.371000000000000000e+03 7.334352111816406250e+01 1.012675380706787109e+01 -1.786295449664881962e-13 2.894520831787233961e-13 3.324675807553877094e-14 1.492578169349709216e-13
5.372000000000000000e+03 7.360247039794921875e+01 2.114906120300292969e+01 -2.425940308012353164e-13 1.247858695714587629e-13 -3.534244633605389263e-14 -6.292180437030307424e-15
5.373000000000000000e+03 6.826496887207031250e+01 1.503207111358642578e+01 -4.024344063286583451e-13 -6.757323108182167193e-13 -3.234500070125462257e-13 2.036997415362507002e-13
5.374000000000000000e+03 7.338185119628906250e+01 9.339983940124511719e+00 -2.497905311413251006e-13 3.047054524928788366e-13 1.647447911597155201e-14 3.282126090006776131e-13
5.375000000000000000e+03 5.001593780517578125e+01 -1.048194980621337891e+01 2.740183839382293041e-13 2.021567795432686887e-14 8.827021822895367298e-14 -5.186159458153184743e-14
5.376000000000000000e+03 6.383268833160400391e+00 8.519604682922363281e+00 1.529917855000884758e-14 9.805868682148666249e-14 3.400735978085524247e-14 1.738756030432095367e-13
5.377000000000000000e+03 7.399486541748046875e+01 1.349034595489501953e+01 -3.106080117502157956e-13 2.328898792564038089e-13 -2.331544754084671073e-14 2.679588322063164441e-13
5.378000000000000000e+03 7.243914031982421875e+01 1.165219116210937500e+01 -1.937698319940533986e-13 2.829633771218864613e-13 2.675806557122899221e-14 3.451401762045308574e-13
5.379000000000000000e+03 7.337187194824218750e+01 4.666414260864257812e+00 -1.747619383192164366e-13 1.660392607910274321e-14 -4.744740434966046583e-14 3.679269345788216405e-13
5.380000000000000000e+03 7.406690979003906250e+01 6.289905548095703125e+00 -2.771964515563274389e-13 3.387110199520176890e-13 1.845436950226753831e-14 3.516431937300446009e-13
5.381000000000000000e+03 7.406795501708984375e+01 7.075854301452636719e+00 -1.539190731250292266e-13 3.000422718439643699e-13 4.383696029330690080e-14 3.540652200682142814e-13
5.382000000000000000e+03 7.335221099853515625e+01 5.438143253326416016e+00 -1.167122361213010495e-13 5.447427990461217728e-13 1.284091783642152262e-13 3.719984118921021432e-13
5.383000000000000000e+03 7.355368041992187500e+01 3.217691898345947266e+00 -1.413102626449461163e-13 3.094035512280109146e-14 -3.311097191783032856e-14 4.064960445072235418e-13
5.384000000000000000e+03 7.407324218750000000e+01 7.861001491546630859e+00 -1.297950326861405101e-13 3.561320888797320228e-13 6.790111550282473818e-14 2.887900964372580592e-13
5.385000000000000000e+03 6.796710205078125000e+01 9.674695014953613281e+00 -1.338345666929141586e-13 -8.351237995411764370e-13 -2.906875044492163163e-13 1.962883387730471330e-13
5.386000000000000000e+03 7.403276824951171875e+01 1.430760478973388672e+01 -1.296545200845863888e-13 6.306980220201208187e-13 1.503130438043967509e-13 1.294559891142771368e-13
5.387000000000000000e+03 6.854832458496093750e+01 1.361865234375000000e+01 -2.689961697398962626e-13 -3.897897629667745889e-13 -1.976357852330121179e-13 1.929966061096910490e-13
5.388000000000000000e+03 7.267020416259765625e+01 -6.592269420623779297e+00 -9.044796534733289678e-15 -9.537824089550506201e-14 -3.132691046674185298e-14 2.605857424373830833e-13
5.389000000000000000e+03 6.675119018554687500e+01 8.143792152404785156e+00 -2.238216292263939949e-14 -8.788604067590244373e-13 -2.703727541332467954e-13 1.118627353290449489e-13
5.390000000000000000e+03 6.766616058349609375e+01 -1.041967988014221191e+00 -8.361867920086626937e-14 -2.188403673769948043e-13 -9.073771329573196431e-14 3.202125522204501973e-13
5.391000000000000000e+03 7.406847381591796875e+01 3.560450971126556396e-01 -2.287355146870367895e-13 -6.527612397686692949e-15 -7.057893901480163934e-14 3.745197511492714959e-13
5.392000000000000000e+03 7.338611602783203125e+01 8.567116737365722656e+00 -1.658290610948368049e-13 2.034360906729565377e-13 1.128210785699638313e-14 2.541609500986141690e-13
5.393000000000000000e+03 7.354866027832031250e+01 1.964106440544128418e+00 -3.267135368668905304e-13 8.873465655832857291e-14 -7.139366951357944968e-14 3.182856539094003345e-13
5.394000000000000000e+03 7.364302062988281250e+01 2.554404973983764648e+00 -2.160446707600779948e-13 3.649189240714778570e-13 4.466227192766181187e-14 5.116553881967522699e-13
5.395000000000000000e+03 7.323553466796875000e+01 -2.010996818542480469e+00 -7.461822907608647859e-14 -3.197924103260849082e-14 -3.197924103260849082e-14 3.260804441133219322e-13
5.396000000000000000e+03 7.400119018554687500e+01 -4.575960159301757812e+00 -5.818112783001136434e-14 -2.493476785995780293e-14 -2.493476785995780293e-14 3.004202247212928167e-13
5.397000000000000000e+03 7.201444244384765625e+01 -7.192845821380615234e+00 1.011062774843897449e-13 -4.817063834947586665e-14 1.588069207928734239e-14 2.223588202671447633e-13
5.398000000000000000e+03 7.284274291992187500e+01 1.646178627014160156e+01 -2.897094727744714548e-13 3.596711619399499404e-14 -7.612270866820883275e-14 2.070779664279168153e-13
5.399000000000000000e+03 7.319104003906250000e+01 -2.930330514907836914e+00 -6.242653827681285406e-14 2.477514721155316124e-13 5.559747744111019629e-14 2.096603056098156337e-13
5.400000000000000000e+03 6.916014194488525391e+00 1.002109432220458984e+01 -1.331333166920909143e-16 1.371957831629994073e-13 4.111879768424996084e-14 2.084070085560038588e-13
5.401000000000000000e+03 6.057826042175292969e+00 9.173852920532226562e+00 3.525533746775826038e-14 -2.593962642339492364e-13 -6.724227972392318731e-14 7.262667843423858960e-14
5.402000000000000000e+03 7.323568725585937500e+01 -8.209962844848632812e+00 1.749831426674577917e-13 -2.910148250850896900e-13 -3.480949998190506489e-14 2.051235022766315086e-13
5.403000000000000000e+03 7.335142517089843750e+01 1.430172348022460938e+01 -2.965776224866240041e-13 3.761557580174434978e-13 2.387343896517995362e-14 1.641099501301437891e-13
5.404000000000000000e+03 8.588804244995117188e+00 1.659196472167968750e+01 -3.393288525600085537e-14 -3.741814123088202382e-14 -2.140530692962532705e-14 -5.058967974353942298e-14
5.405000000000000000e+03 7.327675628662109375e+01 -4.615064144134521484e+00 3.553780601500862446e-14 2.668606980359145009e-13 9.071955290934283211e-14 8.083163587253860971e-14
5.406000000000000000e+03 7.238633155822753906e+00 1.783364677429199219e+01 8.181424830146222238e-14 -5.643864892036949688e-14 7.612680661360764905e-15 2.730087985921333255e-14
5.407000000000000000e+03 6.455495834350585938e+00 1.193713951110839844e+01 -8.240673090740766038e-14 2.849394711065128538e-13 6.075982138210520023e-14 1.169508385262790079e-14
5.408000000000000000e+03 7.279122924804687500e+01 2.117325973510742188e+01 -2.113086452776996582e-13 2.296957925512072007e-13 5.516144520865441658e-15 -8.892721086416199849e-14
5.409000000000000000e+03 7.200315856933593750e+01 2.976406288146972656e+01 3.535120804486029111e-14 9.521467544525846760e-14 3.916976470822244871e-14 -2.059779891138216468e-13
5.410000000000000000e+03 6.738654327392578125e+01 2.201893997192382812e+01 -3.889691032373659985e-13 -6.242105356907279301e-13 -3.039538835469118849e-13 -1.046899722402690192e-13
5.411000000000000000e+03 5.740263748168945312e+01 -9.464258193969726562e+00 2.666587653812890757e-13 -3.203516824642343996e-13 -1.610787648013631279e-14 -1.862843375648876032e-13
5.412000000000000000e+03 6.349942207336425781e+00 2.000586700439453125e+01 -1.188636049396368799e-13 -4.808210646582884717e-14 -5.008371308282653922e-14 -1.500012814696985441e-13
5.413000000000000000e+03 6.325689315795898438e+00 1.918003082275390625e+01 1.142213358401242274e-13 1.518916421675356454e-13 7.983389204704524622e-14 -1.427631477661853165e-13
5.414000000000000000e+03 9.738455772399902344e+00 1.323472976684570312e+01 4.320281044262012926e-14 3.387721418494915593e-13 1.145924853488203277e-13 -7.160674234552716344e-14
5.415000000000000000e+03 8.439569473266601562e+00 1.204225063323974609e+01 1.172051686390215841e-13 2.332345742320912629e-13 1.051319269270920009e-13 3.157569759587759706e-14
5.416000000000000000e+03 6.887921333312988281e+00 2.127391052246093750e+01 -1.281259305466533882e-13 2.882209987169204179e-13 4.802851977345375112e-14 1.291758194144456209e-14
5.417000000000000000e+03 5.941406250000000000e+00 1.321423339843750000e+01 -3.078903438084000521e-14 1.926839628607276977e-13 4.856847956040584446e-14 -4.715215238117013985e-14
5.418000000000000000e+03 6.730443477630615234e+00 1.125424385070800781e+01 5.127934074545745236e-14 1.592297122062977244e-13 6.315271656315291082e-14 1.804625107118193461e-13
5.419000000000000000e+03 8.910402297973632812e+00 1.212374114990234375e+01 3.380398378208769594e-14 1.974912204258383319e-13 6.938855956831191385e-14 1.095714112568342904e-14
5.420000000000000000e+03 6.596085071563720703e+00 1.869321632385253906e+01 -2.543910482928016942e-14 -1.090247361926763650e-14 -1.090247361926763650e-14 1.256575003555013281e-13
5.421000000000000000e+03 7.405677795410156250e+00 1.686417579650878906e+01 8.630849669937629143e-14 8.274030603456355992e-14 5.071464082018195541e-14 -1.179278910309368433e-14
5.422000000000000000e+03 6.221995353698730469e+00 1.426517963409423828e+01 -4.275566513789637313e-14 9.605351588984692435e-14 1.598935624202470207e-14 -5.456243367275154244e-14
5.423000000000000000e+03 3.698816299438476562e+01 1.710161590576171875e+01 -2.467708349674409968e-14 1.953033817569255204e-13 5.118788829220830006e-14 -5.412881717826133199e-14
5.424000000000000000e+03 7.676832199096679688e+00 2.806030082702636719e+01 2.187619795599241024e-14 1.923793020502592710e-13 6.427665474526000899e-14 4.481553745726979399e-14
5.425000000000000000e+03 7.296938896179199219e+00 1.995824050903320312e+01 5.601312667272324852e-14 -1.030758628678494354e-14 1.371166177696831259e-14 -5.831281096012330689e-14
5.426000000000000000e+03 7.272637176513671875e+01 2.339103698730468750e+01 -1.929018197347615038e-13 2.375844475582117310e-13 1.340478512830986860e-14 -2.176738336020361819e-13
5.427000000000000000e+03 7.216777038574218750e+01 1.929010772705078125e+01 -2.108029869369795750e-13 4.690871172399746492e-14 -4.916828053101555962e-14 -6.481385659293584234e-14
5.428000000000000000e+03 7.364610195159912109e+00 2.489694595336914062e+01 -8.000825208517164944e-14 4.232202424885728176e-13 1.029635971210203504e-13 7.011369431006095332e-15
5.429000000000000000e+03 7.235050201416015625e+01 1.852946472167968750e+01 -2.315404812325283501e-13 1.295231147812811456e-13 -3.060521129062687695e-14 1.265379131771410259e-14
5.430000000000000000e+03 7.225708961486816406e+00 2.633830451965332031e+01 -6.024949059588982549e-16 4.572512615937107672e-13 1.369946365549490341e-13 5.068639396545691900e-14
5.431000000000000000e+03 5.386176300048828125e+01 -8.683812141418457031e+00 -1.501624887802199826e-13 -3.846119928617441897e-13 -1.604323499136001141e-13 3.412161436104448053e-14
5.432000000000000000e+03 5.537566375732421875e+01 -9.450122833251953125e+00 2.972074626336751457e-13 -3.072593720253313787e-13 -3.015575146837474844e-15 -1.848707005622923782e-14
5.433000000000000000e+03 5.253485107421875000e+01 -1.021984481811523438e+01 1.366733874512415792e-13 -1.015540123240447901e-13 1.053581253815903673e-14 5.633776221415382618e-15
5.434000000000000000e+03 1.020874786376953125e+01 9.880273818969726562e+00 -3.391287833778670879e-14 -6.028504247451021980e-14 -2.825937556606272077e-14 8.910760177687285233e-14
5.435000000000000000e+03 1.162498760223388672e+01 1.015992546081542969e+01 8.733564273253474619e-14 3.742955923501101179e-14 3.742955923501101179e-14 2.717337768372903722e-14
5.436000000000000000e+03 1.072270965576171875e+01 1.064125728607177734e+01 5.255583972576041707e-14 1.369013003004251883e-13 5.683714404073475501e-14 8.612330141578861120e-14
5.437000000000000000e+03 9.136419296264648438e+00 7.724351882934570312e+00 5.219607772800720358e-14 -5.057262621745411534e-16 1.550710650383493872e-14 7.109903079694293582e-14
5.438000000000000000e+03 6.114424133300781250e+01 -5.190231323242187500e+00 -2.368566277220198954e-15 -3.670226828619144177e-13 -1.108173746993887376e-13 1.006805316200454214e-13
5.439000000000000000e+03 5.838064575195312500e+01 -8.843964576721191406e+00 3.365542978854552114e-13 6.989225956885794511e-14 1.219339706244257360e-13 -2.106380188001723275e-14
5.440000000000000000e+03 3.679677200317382812e+01 1.635333824157714844e+01 7.836202661152397164e-14 1.822743074097327165e-13 7.819089885112429084e-14 -5.564485029978423480e-14
5.441000000000000000e+03 3.781148147583007812e+01 1.631282997131347656e+01 1.076440301370044927e-13 1.261973110646547047e-13 7.015240710388226386e-14 -4.519540462905903555e-14
5.442000000000000000e+03 1.024542140960693359e+01 9.337751388549804688e+00 8.525327660621404013e-14 1.280390181900015190e-13 6.398768776123830992e-14 1.439300474593771528e-13
5.443000000000000000e+03 6.850451660156250000e+01 -9.469031333923339844e+00 2.062732444704437618e-13 -3.891227075801528823e-13 -5.485483961053909396e-14 1.382571764322812480e-13
5.444000000000000000e+03 1.196054458618164062e+01 9.422489166259765625e+00 1.939822136471161529e-13 2.203880795307450180e-13 1.243110838876002044e-13 1.485669192649499010e-14
5.445000000000000000e+03 5.813140869140625000e+01 -7.294122695922851562e+00 1.234688620874863085e-13 -3.130923526082490804e-13 -5.688705122198697839e-14 -6.641505379510748153e-14
5.446000000000000000e+03 5.546015930175781250e+01 -8.024700164794921875e+00 1.211667485095935248e-13 -1.310751908487756134e-13 -2.972529567732721742e-15 -5.280059836619901970e-14
5.447000000000000000e+03 6.684837341308593750e+01 5.145484447479248047e+00 -2.032628487183205102e-13 -6.132485469954873647e-13 -2.449534173588896468e-13 1.219255409525346612e-13
5.448000000000000000e+03 6.611967468261718750e+01 3.249240159988403320e+00 -2.253171607624615547e-13 -4.840178279875984035e-13 -2.128005074670397123e-13 1.617087811312672985e-13
5.449000000000000000e+03 7.274408340454101562e+00 1.395625114440917969e+01 2.147970013931677774e-14 4.209641261878477314e-13 1.327331528109404468e-13 -3.941634785762943710e-15
5.450000000000000000e+03 7.343325805664062500e+01 1.653804779052734375e+01 -2.605766893492428293e-13 1.628299681503617147e-13 -2.932401297153254538e-14 8.230007929495297692e-14
5.451000000000000000e+03 6.821706390380859375e+01 1.676991271972656250e+01 -5.129068285543436634e-13 -5.100497931995184864e-13 -3.068870027891912322e-13 1.224793785272945690e-13
5.452000000000000000e+03 1.109343242645263672e+01 7.906733512878417969e+00 3.227746100454599587e-14 -1.234196528613826227e-13 -2.734265552417191464e-14 1.472227559046884737e-13
5.453000000000000000e+03 5.312364578247070312e+01 -8.779680252075195312e+00 7.863276544652075817e-14 -1.721795178221546818e-13 -2.806402266337156698e-14 -5.060543794449014199e-14
5.454000000000000000e+03 9.618196487426757812e+00 9.765663146972656250e+00 5.154262907865019006e-14 -1.151631551623080729e-13 -1.908615613103147035e-14 1.216006597715493798e-13
5.455000000000000000e+03 1.050440025329589844e+01 1.126589584350585938e+01 2.322635627664132452e-13 1.452924830143767498e-13 1.132668177999951453e-13 1.525479504001225894e-13
5.456000000000000000e+03 1.037305736541748047e+01 2.204737663269042969e+01 -1.196926265783007648e-13 1.317069554546829169e-13 3.604297138255340566e-15 -1.123673840064919049e-13
5.457000000000000000e+03 5.689889526367187500e+01 -9.737030029296875000e+00 2.676673715572980283e-13 -2.284175181898467910e-13 1.177494974219156151e-14 1.024745474023300296e-13
5.458000000000000000e+03 3.938068008422851562e+01 1.913625526428222656e+01 2.444940781678572178e-14 -3.527263049240940418e-14 -3.246966972093694170e-15 -1.003796858459714281e-13
5.459000000000000000e+03 6.090566635131835938e+01 -6.828781604766845703e+00 2.501090426345470297e-13 -3.052837930367369168e-13 -1.655242478184378724e-14 -1.037860728890678541e-13
5.460000000000000000e+03 5.904341125488281250e+01 -5.723863601684570312e+00 1.957863667197135005e-13 -3.278501060043070847e-13 -3.961912246300443308e-14 -1.265280198323170957e-13
5.461000000000000000e+03 6.868990325927734375e+01 1.423895645141601562e+01 -2.802575879701230122e-13 -4.861179818058114499e-13 -2.299126600907586138e-13 2.102543941902290658e-13
5.462000000000000000e+03 6.764028167724609375e+01 1.226750469207763672e+01 -2.640667632475279802e-13 -7.079338200724483166e-13 -2.916001587329603018e-13 2.042457728553687124e-13
5.463000000000000000e+03 3.724968338012695312e+01 1.981925773620605469e+01 -3.702884827645573640e-14 -1.073714075007330127e-13 -4.332007707196980362e-14 4.766162914641644544e-14
5.464000000000000000e+03 7.033232116699218750e+01 -8.834978103637695312e+00 1.215567902411451850e-13 -1.537835071958870703e-13 -9.668012884136902713e-15 2.076650754568448720e-13
5.465000000000000000e+03 6.053719329833984375e+01 -4.628526210784912109e+00 -1.247961169760546454e-14 -2.798541021316325317e-13 -8.770011084534290458e-14 2.601152630690283657e-14
5.466000000000000000e+03 6.204094696044921875e+01 -9.272804260253906250e+00 1.741213239130762203e-13 -1.998822656869292391e-13 -7.728280329870242799e-15 4.344057597904620038e-14
5.467000000000000000e+03 1.236157131195068359e+01 8.739463806152343750e+00 -3.676119941765053356e-14 -6.150574570051164924e-14 -2.948008387426183374e-14 -2.750921947105178927e-14
5.468000000000000000e+03 6.746599674224853516e+00 2.871608924865722656e+01 -1.148386178766993768e-14 3.610859441310898532e-13 1.048806224160370171e-13 6.935978077689600174e-14
5.469000000000000000e+03 6.772699737548828125e+01 1.969545173645019531e+01 -4.915623572250560347e-13 -7.139300001873793988e-13 -3.616476963817089052e-13 -6.635764529007437407e-14
5.470000000000000000e+03 7.047982788085937500e+01 1.708745765686035156e+01 -3.059247462560560349e-13 -2.912389296741424438e-13 -1.791490946475432500e-13 4.823779450966597659e-14
5.471000000000000000e+03 6.756473541259765625e+01 1.144292259216308594e+01 -1.793320131065687106e-13 -5.343660626835888827e-13 -2.141094240922999936e-13 2.210016837502631892e-13
5.472000000000000000e+03 6.744555664062500000e+01 1.064582729339599609e+01 -2.419817818344327520e-13 -8.357216828291935684e-13 -3.233110393990878961e-13 2.015635108907481987e-13
5.473000000000000000e+03 6.499442291259765625e+01 1.014265418052673340e+00 -1.420567629457566983e-13 -6.098928328514274799e-13 -2.255848773839025379e-13 5.318592043016857895e-14
5.474000000000000000e+03 6.892522430419921875e+01 -8.918063163757324219e+00 2.645858250376054155e-13 -4.756495219394862861e-13 -6.331912126783870165e-14 3.515401132084955416e-13
5.475000000000000000e+03 3.776123809814453125e+01 2.112547302246093750e+01 3.979940834362982738e-14 -5.818585681495588510e-15 1.019424650217874012e-14 2.196869903603026336e-14
5.476000000000000000e+03 6.839957427978515625e+01 1.213490295410156250e+01 -1.938647674467816606e-13 -4.490925047204857856e-13 -1.928871830054329495e-13 2.019726210280084477e-13
5.477000000000000000e+03 6.772122192382812500e+01 1.307148933410644531e+01 -2.527363084439682162e-13 -6.573269489482114203e-13 -2.730189663756321661e-13 2.174485634956480062e-13
5.478000000000000000e+03 3.611315155029296875e+01 1.851852989196777344e+01 5.972494363220420821e-14 1.399737801794503911e-13 5.990961714349637979e-14 -5.770973027794182308e-14
5.479000000000000000e+03 5.703482055664062500e+01 -7.766765117645263672e+00 1.555783496823281986e-13 -4.823349293754664036e-13 -9.802698068420503952e-14 -1.610932524528929655e-13
5.480000000000000000e+03 7.170832824707031250e+01 -8.393425941467285156e+00 2.008940024967112437e-13 -2.341592089498412133e-13 -9.979564307631243192e-15 2.829513966878804965e-13
5.481000000000000000e+03 7.225764465332031250e+01 -8.158977508544921875e+00 2.188815535070220974e-13 -3.179521533211437934e-13 -2.972117994423650877e-14 2.089996199109572794e-13
5.482000000000000000e+03 4.047918319702148438e+01 2.233772468566894531e+01 -5.787891325069460802e-14 -7.949192790557974009e-14 -4.121125302450866223e-14 3.951708209791460202e-14
5.483000000000000000e+03 6.345685577392578125e+01 1.570317596197128296e-01 1.531703760442699406e-15 -7.771096591745185744e-13 -2.326733911876127658e-13 -3.464070325617622792e-14
5.484000000000000000e+03 6.850033283233642578e+00 1.635776138305664062e+01 -4.166769536286148157e-14 2.080377292960552960e-13 4.991100984114496542e-14 3.437402425009563126e-15
5.485000000000000000e+03 3.984857940673828125e+01 2.123046493530273438e+01 -3.736840345621925130e-14 -8.464145454401689195e-14 -3.660295672244448517e-14 4.769442287400234293e-14
5.486000000000000000e+03 3.801211166381835938e+01 2.008745384216308594e+01 -8.646616680030999591e-14 -1.056833521520181285e-13 -5.764485433044572171e-14 -1.172408117854420451e-13
5.487000000000000000e+03 6.672524261474609375e+01 6.683540821075439453e+00 -2.232694416718153385e-13 -7.819511097656439702e-13 -3.015661722075013707e-13 1.523697888781289089e-13
5.488000000000000000e+03 9.508154869079589844e+00 1.873464202880859375e+01 2.552533786550834072e-14 5.669038033602989690e-14 2.466471512164829238e-14 -1.115233986837818256e-14
5.489000000000000000e+03 9.226040840148925781e+00 1.735898590087890625e+01 -1.174842659951418761e-14 -5.078598809939507963e-14 -1.876032457907936962e-14 -9.920096834909949979e-14
5.490000000000000000e+03 6.444660949707031250e+01 1.490890979766845703e+00 -1.698012932517534157e-13 -8.047871722337285316e-13 -2.923765288036228593e-13 7.923593527891994049e-16
5.491000000000000000e+03 3.552328872680664062e+01 2.308568954467773438e+01 -3.018953156582772357e-14 -1.293837067106902439e-14 -1.293837067106902439e-14 5.014864916966189565e-15
5.492000000000000000e+03 7.261782073974609375e+01 5.379552364349365234e+00 -1.555106819142379471e-13 7.060541387660101975e-14 -2.547158007247789929e-14 4.267569641853291573e-13
5.493000000000000000e+03 7.312628936767578125e+01 -7.300621509552001953e+00 1.604673967488257080e-13 1.145226898339665733e-13 8.249702461958496880e-14 2.393362743234594969e-13
5.494000000000000000e+03 1.209991455078125000e+01 2.702730560302734375e+01 -9.606487968386728804e-14 2.790859719974808639e-13 5.490632904933678837e-14 -4.579346409992919587e-14
5.495000000000000000e+03 5.961052703857421875e+01 -6.554033756256103516e+00 2.191442014833067109e-13 -3.635905324646943049e-13 -4.333390403780078282e-14 -1.143315314384302228e-13
5.496000000000000000e+03 6.229566574096679688e+00 1.259794712066650391e+01 4.701293065782763403e-14 2.031521923340912084e-13 7.504953825282836832e-14 1.742723397231762950e-13
5.497000000000000000e+03 6.654627799987792969e+00 2.210243225097656250e+01 8.505090857665372622e-15 1.408978863486412547e-13 4.482089409362823018e-14 -3.383701806703061365e-14
5.498000000000000000e+03 7.206594944000244141e+00 2.347831535339355469e+01 -5.493675447280216284e-14 6.795757533095692082e-14 3.906246172743132669e-15 6.342583386666558742e-14
5.499000000000000000e+03 6.826430511474609375e+01 1.041362285614013672e+01 -1.598425032741865315e-13 -5.717643697909779998e-13 -2.194820659853075062e-13 2.451754890688689903e-13
5.500000000000000000e+03 6.095246887207031250e+01 -3.138875961303710938e+00 -7.948726583623805242e-14 -6.402660519821967711e-13 -2.159259912797723002e-13 -2.782586410365796986e-14
5.501000000000000000e+03 6.546787261962890625e+01 -7.930664062500000000e+00 2.603644838790331040e-13 -2.544228120283237304e-13 1.782503333982001295e-15 3.623382789554735472e-13
5.502000000000000000e+03 6.637683868408203125e+01 -8.155382156372070312e+00 3.770510921714820274e-13 -3.416670971752994168e-13 1.061519816004160427e-14 3.778773084370246060e-13
5.503000000000000000e+03 1.152069091796875000e+01 2.539701080322265625e+01 -1.008693793097016622e-13 3.685288023098226562e-13 8.029782893291537160e-14 -5.144593179739163913e-14
5.504000000000000000e+03 6.995461463928222656e+00 2.276110458374023438e+01 -3.946409849299795103e-14 -6.266413440664947432e-14 -3.063846919226786980e-14 -9.342279418600094032e-14
5.505000000000000000e+03 3.880568313598632812e+01 2.141532516479492188e+01 -1.087687882470045331e-13 -4.661519447898311574e-14 -4.661519447898311574e-14 -7.876860242620603580e-14
5.506000000000000000e+03 3.619927978515625000e+01 2.022283172607421875e+01 4.553179529373160839e-14 6.526457298856522260e-14 3.323891116231540710e-14 3.466244150973456228e-14
5.507000000000000000e+03 7.293136596679687500e+01 2.194481086730957031e+01 -1.901085083626241623e-13 1.930306094003256256e-13 8.766310842280033728e-16 -1.584927122270235467e-13
5.508000000000000000e+03 6.763600158691406250e+01 2.092611885070800781e+01 -4.060167187267677003e-13 -6.315166488704559988e-13 -3.112600238316942658e-13 -4.705528569332213806e-14
5.509000000000000000e+03 7.191612243652343750e+01 2.727019691467285156e+01 5.049378544951486913e-14 1.817685135437410726e-13 6.967869206966903484e-14 -2.225112455400690692e-13
5.510000000000000000e+03 3.439684677124023438e+01 2.407925033569335938e+01 -1.079636393849260634e-13 -1.606474962822027064e-13 -8.058334002251227313e-14 -1.514885900099141591e-14
5.511000000000000000e+03 3.333261489868164062e+01 2.434764862060546875e+01 -7.782300194894564704e-14 -1.019791415484035124e-13 -5.394064372683110564e-14 -1.319342990977259711e-13
5.512000000000000000e+03 2.644160461425781250e+01 3.307121276855468750e+01 -2.651370503627559910e-14 2.295019507552939486e-14 -1.069052776465624459e-15 -2.380220857651355049e-14
5.513000000000000000e+03 1.364397907257080078e+01 2.826930236816406250e+01 -7.391013663723619564e-14 2.657053993059682595e-13 5.753857541248783014e-14 -1.331733575276944012e-14
5.514000000000000000e+03 4.318959426879882812e+01 2.740334892272949219e+01 -1.012817759347972579e-13 -1.349083740770709583e-13 -7.085704364830774926e-14 -9.850488344930949380e-15
5.515000000000000000e+03 6.879895687103271484e+00 3.094498443603515625e+01 -3.657696975162272324e-14 5.790864749527502298e-13 1.627528542708436832e-13 -3.872533668519348438e-14
5.516000000000000000e+03 4.848601531982421875e+01 2.787677574157714844e+01 -1.147857850436473370e-13 -1.178203313991627033e-13 -6.978183357759029648e-14 1.514048624971439660e-13
5.517000000000000000e+03 1.743403244018554688e+01 3.089752578735351562e+01 -3.032141798384700715e-14 -1.557155618200033436e-15 -9.563572027674552972e-15 7.675575398793238469e-15
5.518000000000000000e+03 6.924494934082031250e+01 3.439737701416015625e+01 1.526033802361909109e-13 -1.747910355950205163e-13 -6.656295760615934393e-15 -1.123239820382745946e-13
5.519000000000000000e+03 6.845376586914062500e+01 3.051071166992187500e+01 1.036396175043557966e-13 -2.987151270696791761e-13 -5.852265829060787627e-14 -1.841228450087661894e-13
5.520000000000000000e+03 6.975305938720703125e+01 3.988863754272460938e+01 1.535754216939327899e-13 -8.287254481828890129e-14 2.121086035218773536e-14 -4.633979357464464155e-14
5.521000000000000000e+03 7.006851196289062500e+01 3.636594390869140625e+01 1.481870588694242374e-13 6.320055444291499194e-15 4.635213653875203121e-14 -1.062278317067767708e-13
5.522000000000000000e+03 3.302293395996093750e+01 2.706240272521972656e+01 -5.161737804217948755e-14 -1.021858921264329201e-13 -4.614098138939690119e-14 -9.747658545134277319e-14
5.523000000000000000e+03 4.348708724975585938e+01 2.557416725158691406e+01 -9.974073840067140817e-14 -6.562150589627460673e-14 -4.960867328908380447e-14 2.248076263989748358e-15
5.524000000000000000e+03 1.847129440307617188e+01 3.310921096801757812e+01 3.363204287005865101e-14 8.875902400215518462e-14 3.671731972285097179e-14 -1.231590479285667866e-14
5.525000000000000000e+03 2.180439567565917969e+01 2.999759864807128906e+01 4.303382736964289634e-14 -5.018335465060974609e-14 -2.144857464312049759e-15 -2.342214489308054592e-14
5.526000000000000000e+03 8.368906021118164062e+00 2.890887641906738281e+01 -8.679273527092620788e-14 1.458069098401668096e-13 1.770425237077218050e-14 -2.301450774611557212e-15
5.527000000000000000e+03 6.183230590820312500e+01 3.306511306762695312e+01 1.773420955442431279e-13 -5.759472759825357002e-13 -1.195815500657296249e-13 1.463361055324251953e-14
5.528000000000000000e+03 4.785756683349609375e+01 3.012704849243164062e+01 -1.282969634393629765e-13 -1.464863115790276948e-13 -8.243498115026448581e-14 1.224981623299328803e-13
5.529000000000000000e+03 6.989976501464843750e+01 2.660776901245117188e+01 1.450620324544831669e-14 -1.996623217237133985e-13 -5.554683503525975619e-14 -2.485783389023776824e-13
5.530000000000000000e+03 6.312630081176757812e+01 2.908781814575195312e+01 1.261324486696857594e-13 -7.294282365621906905e-13 -1.809887417887623418e-13 2.763444651603975954e-14
5.531000000000000000e+03 6.242992401123046875e+01 3.088944244384765625e+01 1.532354158926413357e-13 -6.663428489539491295e-13 -1.539322326288977694e-13 6.502146098017608233e-14
5.532000000000000000e+03 6.160968017578125000e+01 2.833969879150390625e+01 1.429796379525587278e-15 -7.771533525220697403e-13 -2.327170574301096195e-13 1.414332518288874407e-13
5.533000000000000000e+03 2.625930786132812500e+01 3.079734420776367188e+01 -5.705043371311696587e-14 -8.163887182379911400e-14 -4.160679369395389737e-14 -4.542886384998126581e-14
5.534000000000000000e+03 2.318783760070800781e+01 3.300256347656250000e+01 -2.686589964167804268e-14 -5.726490923162533275e-14 -2.523924232317783373e-14 -2.793362702333945097e-14
5.535000000000000000e+03 6.313965225219726562e+01 -1.666720032691955566e+00 -7.137966975302723061e-14 -4.423498243047441214e-13 -1.541188509278368368e-13 2.287259194978102927e-13
5.536000000000000000e+03 6.357804489135742188e+01 -9.510948657989501953e-01 -2.214717531546714357e-13 -7.640240978941392758e-13 -2.956487593804013603e-13 -8.577592303972425558e-14
5.537000000000000000e+03 7.004561614990234375e+01 -8.021801948547363281e+00 3.119856464644209237e-14 -3.068858372718558103e-13 -8.270618077118457867e-14 2.850884675900666743e-13
5.538000000000000000e+03 7.056403350830078125e+01 -8.186191558837890625e+00 1.942942334798303250e-13 -2.369876755774213972e-13 -1.280803262927732167e-14 2.225354096959883399e-13
5.539000000000000000e+03 7.265086364746093750e+01 6.965909004211425781e+00 -9.199793569092049039e-14 9.782516322606044090e-14 1.748167477036508943e-15 3.125929148774936328e-13
5.540000000000000000e+03 7.193567657470703125e+01 7.695184707641601562e+00 -1.534285800621967844e-13 -2.030079527875691681e-13 -1.069309639206879325e-13 2.810983054397225844e-13
5.541000000000000000e+03 5.848563003540039062e+01 -7.914010524749755859e+00 1.744552039720931313e-13 7.476651405196460543e-14 7.476651405196460543e-14 -3.174626631453209002e-14
5.542000000000000000e+03 7.285785675048828125e+01 2.263004302978515625e+01 -1.380790555678690357e-13 7.807610894611238805e-14 -1.800088500296653099e-14 -2.480817472023250092e-13
5.543000000000000000e+03 7.121145629882812500e+01 2.406334304809570312e+01 -9.467512223412105632e-14 5.092684629039168076e-14 -1.312448244430563377e-14 -2.650719270816392914e-13
5.544000000000000000e+03 6.784046173095703125e+01 2.160064888000488281e+01 -3.411806969756681074e-13 -4.207259811806612904e-13 -2.285720169994259754e-13 -1.844721749487410190e-13
5.545000000000000000e+03 7.327558135986328125e+01 -6.680341243743896484e+00 9.615253065324916304e-14 -2.332974579580954222e-13 -4.114348022433295116e-14 6.983645026202925377e-14
5.546000000000000000e+03 6.569196224212646484e+00 1.359816837310791016e+01 6.346837524940848740e-14 1.187026280220770946e-13 5.465130098144567461e-14 1.430745035250688413e-13
5.547000000000000000e+03 6.611093902587890625e+01 -7.569117069244384766e+00 2.850865431312105125e-13 -3.353295289013069613e-13 -1.507289369814986124e-14 1.739456831611335685e-13
5.548000000000000000e+03 6.836559295654296875e+01 2.509457969665527344e+01 -1.063062872864832531e-13 -4.115674272740788009e-13 -1.553621191115531208e-13 -1.977831554133072101e-13
5.549000000000000000e+03 5.703508377075195312e+01 -8.899411201477050781e+00 2.181665628318493755e-13 -1.810057366578160520e-13 1.114824785220999703e-14 2.528873107015411348e-14
5.550000000000000000e+03 5.693917465209960938e+01 -8.336938858032226562e+00 3.388007647868451766e-13 5.369842618523426592e-14 1.177497498377338969e-13 -1.460986821973098149e-14
5.551000000000000000e+03 6.843892574310302734e+00 2.043019866943359375e+01 -8.813375105675563814e-14 1.909831342551682187e-13 3.085481495952377418e-14 1.052996530031755085e-13
5.552000000000000000e+03 7.693104267120361328e+00 2.241036605834960938e+01 2.515880129824298733e-14 5.653329299376390338e-14 2.450762777938229886e-14 8.454638187195117477e-15
5.553000000000000000e+03 7.178034973144531250e+01 2.846739006042480469e+01 3.825870369345224856e-15 7.026607892540379097e-14 2.222758618602906772e-14 -1.199117573898872413e-13
5.554000000000000000e+03 6.467244720458984375e+01 2.627337455749511719e+01 -1.778580470293382454e-14 -8.997659930488899338e-13 -2.752655416972393798e-13 -4.246341166603932737e-14
5.555000000000000000e+03 7.334513854980468750e+01 1.724574089050292969e+01 -2.413973968634630651e-13 2.396760903893707662e-13 -5.163868070904469639e-16 1.176925310680809744e-13
5.556000000000000000e+03 7.307971191406250000e+01 1.869454574584960938e+01 -3.017593499295839754e-13 3.080288506359350753e-14 -8.128693979861031926e-14 -3.684083067908780484e-14
5.557000000000000000e+03 6.559452056884765625e+01 3.700220823287963867e+00 -2.634399588665597980e-13 -7.991670476423240466e-13 -3.187821100841814470e-13 7.883605335386179025e-14
5.558000000000000000e+03 7.302798748016357422e+00 2.420027351379394531e+01 -3.557889050108224704e-14 7.625380226338948630e-14 1.220247437572511903e-14 1.128417546442063088e-14
5.559000000000000000e+03 9.824172973632812500e+00 1.938670158386230469e+01 -5.594836930983976275e-14 2.047768692895607368e-13 4.464854999391629220e-14 -4.563284632433904642e-14
5.560000000000000000e+03 1.041601467132568359e+01 2.025522613525390625e+01 6.359374967812927992e-14 2.331337434300501110e-13 8.901824318906931266e-14 -1.207999764671688347e-13
5.561000000000000000e+03 6.174074935913085938e+01 -7.027776241302490234e+00 9.873087861590051917e-14 -3.694453055112789652e-13 -8.121432535810810260e-14 2.675469438009892009e-14
5.562000000000000000e+03 7.278609466552734375e+01 2.030481719970703125e+01 -2.603512024024201565e-13 7.142470480076684725e-14 -5.667794928049599279e-14 -1.375366021159202257e-13
5.563000000000000000e+03 6.862446594238281250e+01 1.864951133728027344e+01 -3.780048919276718378e-13 -5.909172348488034299e-13 -2.906766353224371491e-13 6.004744634467359954e-14
5.564000000000000000e+03 6.887358093261718750e+01 1.478177452087402344e+01 -2.438594031567431486e-13 -3.561413859133610860e-13 -1.800002340105258392e-13 1.668260392025458505e-13
5.565000000000000000e+03 7.076568603515625000e+01 1.634321403503417969e+01 -3.116934065450910341e-13 -8.783193627698998585e-14 -1.198576014913715904e-13 8.961954171392977342e-14
5.566000000000000000e+03 7.172232818603515625e+01 1.251369190216064453e+01 -2.586141749968268178e-13 2.094219844197761637e-13 -1.475765852836791181e-14 4.018076832628530992e-13
5.567000000000000000e+03 1.015131950378417969e+01 8.070330619812011719e+00 -4.473756638040914113e-14 3.702231934649830025e-15 -1.231059982550802498e-14 1.522386715660257323e-14
5.568000000000000000e+03 6.859948635101318359e+00 8.887036323547363281e+00 -2.902027373291073131e-14 -1.039391554595592293e-13 -3.988782841892780928e-14 4.113714102975569997e-14
5.569000000000000000e+03 7.200201511383056641e+00 8.374590873718261719e+00 -8.905747097892255382e-14 5.333440869395404682e-14 -1.071691834667737320e-14 1.472148954389379538e-13
5.570000000000000000e+03 7.328491210937500000e+01 1.346589279174804688e+01 -2.176226457069677100e-13 3.413671526442813020e-13 3.712335343644679320e-14 5.398567877457072228e-14
5.571000000000000000e+03 7.247241973876953125e+01 1.258194065093994141e+01 -1.694003959459497444e-13 2.476564689001675701e-13 2.347682256389170552e-14 9.307779427845247477e-14
5.572000000000000000e+03 9.330515861511230469e+00 2.494863700866699219e+01 -1.215502308180016477e-13 4.282920047261884466e-13 9.202253352770875527e-14 -4.703485864676615336e-15
5.573000000000000000e+03 7.327577590942382812e+00 2.560630035400390625e+01 -9.750961296002211287e-14 7.258753873581186289e-14 -7.476621759043306642e-15 -6.713583563454058115e-15
5.574000000000000000e+03 7.337635040283203125e+01 7.794668674468994141e+00 -1.109323543397808254e-13 1.812123042767288528e-13 2.108398667515030273e-14 3.392511152642413430e-13
5.575000000000000000e+03 6.743011474609375000e+01 6.008503437042236328e+00 -2.013770281170806919e-13 -4.980629624007359979e-13 -2.098320025763558694e-13 1.980208531870975008e-13
5.576000000000000000e+03 7.061921691894531250e+01 9.467891693115234375e+00 -2.683101408152560596e-13 -5.208250077417576895e-14 -9.611778874988458066e-14 3.261540343357793859e-13
5.577000000000000000e+03 7.336379241943359375e+01 7.015367984771728516e+00 -1.403198033027991398e-13 3.058705361474317597e-13 4.966521782051071254e-14 4.574683730787509894e-13
5.578000000000000000e+03 6.881532287597656250e+01 1.717137145996093750e+01 -4.009407552057336899e-13 -5.378393585532548204e-13 -2.816340368382019843e-13 -1.213584866991822709e-16
5.579000000000000000e+03 6.950415039062500000e+01 6.723671436309814453e+00 -8.112995410029799626e-14 -5.237332377679149165e-13 -1.814589602709693050e-13 1.545349948266910856e-13
5.580000000000000000e+03 7.333428955078125000e+01 4.677594602108001709e-01 -1.831391077200886230e-13 5.876465221550664086e-14 -3.731233665137459465e-14 3.728778624843137601e-13
5.581000000000000000e+03 7.268186187744140625e+01 -1.036757111549377441e+00 -1.883322057333325361e-13 -2.179666495037702045e-13 -1.218896538606253910e-13 4.259127230586690072e-13
5.582000000000000000e+03 7.175405120849609375e+01 7.072063684463500977e-01 -1.375279556035946538e-13 -1.961934033203188710e-13 -1.001164076771740574e-13 3.842831272377750240e-13
5.583000000000000000e+03 7.294030761718750000e+01 3.084367036819458008e+00 -2.077704328029561509e-13 3.227140776829173774e-13 3.448309075348293673e-14 4.743006118065884458e-13
5.584000000000000000e+03 7.312740325927734375e+01 2.394267559051513672e+00 -1.102383362003821199e-13 -1.844978434351746133e-13 -8.842085456829337775e-14 3.103100187831081547e-13
5.585000000000000000e+03 7.261660003662109375e+01 1.395998001098632812e+00 -2.317602761179454740e-13 6.080248473759250483e-14 -5.128734012461132197e-14 3.005549097361698285e-13
5.586000000000000000e+03 7.333676147460937500e+01 -5.329723834991455078e+00 -1.959671540438436693e-14 -3.286552345375948203e-13 -1.044755848131871667e-13 2.488148305012510830e-13
5.587000000000000000e+03 6.932294464111328125e+01 1.409116172790527344e+01 -2.034383674975187573e-13 -1.786897723971697660e-13 -1.146384419684065570e-13 9.484548427673641924e-14
5.588000000000000000e+03 7.259268951416015625e+01 -7.218118667602539062e+00 7.575229777224273819e-14 -1.505385307512194237e-13 -2.243586819962711115e-14 1.278921494532112013e-13
5.589000000000000000e+03 5.605043792724609375e+01 -9.419066429138183594e+00 3.347629790560746610e-13 -2.682887007172951588e-13 1.994228790620517638e-14 4.873978011552676515e-14
5.590000000000000000e+03 6.393866729736328125e+01 8.317037820816040039e-01 -2.154310258829783553e-13 -6.527767150606156310e-13 -2.604623331250999207e-13 6.544072196027622690e-14
5.591000000000000000e+03 6.554783630371093750e+01 2.690083265304565430e+00 -2.098092885408422981e-13 -9.134353429890440523e-13 -3.369733962352294832e-13 6.927885186098353687e-14
5.592000000000000000e+03 7.323247528076171875e+01 -3.818175792694091797e+00 -9.809985262272322148e-14 -2.250465845577906410e-13 -9.694393047652780093e-14 3.798374104396068374e-13
5.593000000000000000e+03 7.339801788330078125e+01 1.509615135192871094e+01 -1.720729000910178885e-13 5.667677698689699284e-13 1.184084568676274651e-13 1.053340611755588727e-14
5.594000000000000000e+03 6.993229675292968750e+01 1.343220996856689453e+01 -2.423071780114499640e-13 -5.809498796740739102e-14 -9.012064640552541750e-14 1.551771542209270938e-13
5.595000000000000000e+03 6.883743286132812500e+01 -8.056270599365234375e+00 2.051501194399660277e-13 -2.780861207540147317e-13 -2.188079903896189560e-14 3.380198139620038678e-13
5.596000000000000000e+03 8.005894660949707031e+00 1.832009506225585938e+01 2.774668007561684885e-14 1.189143371309797290e-14 1.189143371309797290e-14 -5.725153288732229284e-14
5.597000000000000000e+03 7.377536773681640625e+00 1.840933990478515625e+01 -4.213594534049902585e-14 -1.095601609652288588e-13 -4.550883053646564980e-14 6.861866082936637912e-14
5.598000000000000000e+03 8.961697578430175781e+00 1.270375919342041016e+01 4.961894949279989364e-14 2.042690560970228386e-13 7.616640201575999858e-14 -1.530925993614706826e-14
5.599000000000000000e+03 8.371685981750488281e+00 2.096620178222656250e+01 1.457269702587367377e-14 1.692331984184253235e-13 5.514176693922380468e-14 -7.755197851087858307e-14
5.600000000000000000e+03 7.175053596496582031e+00 1.900962257385253906e+01 2.866011532373820281e-14 3.325395514508500128e-13 1.083599017264423592e-13 1.049035329631943514e-13
5.601000000000000000e+03 8.814830780029296875e+00 1.477710247039794922e+01 -9.634730757353618391e-14 1.874630415092323754e-13 2.733471882545614184e-14 -3.284843744396064719e-15
5.602000000000000000e+03 6.838640689849853516e+00 1.292446517944335938e+01 -5.429857274528646083e-15 2.264276683901569887e-13 6.629934231824896607e-14 -3.055859737347357830e-14
5.603000000000000000e+03 7.351176261901855469e+00 2.088414382934570312e+01 3.655960218807222106e-14 1.214674655346595356e-13 4.740812234969860040e-14 -7.685542604890169271e-14
5.604000000000000000e+03 6.934515476226806641e+00 1.468363761901855469e+01 -3.248299863139493537e-14 -2.083628137649479184e-13 -7.225374676822146625e-14 1.226921938612263174e-13
5.605000000000000000e+03 6.865051746368408203e+00 1.820027542114257812e+01 2.307705001196286949e-16 9.160079921140262815e-14 2.754947047670531363e-14 -5.858507445442515116e-14
5.606000000000000000e+03 8.248896598815917969e+00 1.900179481506347656e+01 4.625880028422818535e-14 -1.448801236587308333e-14 9.531236544913120057e-15 1.724419828393226883e-14
5.607000000000000000e+03 7.245431518554687500e+01 -3.041507482528686523e+00 -1.214916025855244941e-13 -3.265735121563140275e-13 -1.344195344225515565e-13 2.862359058542623957e-13
5.608000000000000000e+03 6.967849731445312500e+01 -7.338157653808593750e+00 1.462430572691034159e-13 -2.118300923125565616e-13 -1.967611119066230152e-14 2.191451908177891039e-13
5.609000000000000000e+03 9.465704917907714844e+00 2.900859451293945312e+01 -6.613669843984898433e-14 1.775349751107282992e-13 3.341948164601107885e-14 5.528185263617250988e-14
5.610000000000000000e+03 7.097560882568359375e+00 2.709501266479492188e+01 2.513683434578889431e-14 1.937767302303758377e-13 6.567406937284941959e-14 1.462709686987813396e-14
5.611000000000000000e+03 7.157146453857421875e+01 2.081473731994628906e+01 -3.859994463818738897e-13 -7.964530185540497076e-14 -1.396934190501727957e-13 -2.039039103578568768e-13
5.612000000000000000e+03 7.116439819335937500e+01 1.976978111267089844e+01 -3.587977083410048840e-13 5.210882655817643261e-14 -9.200666351840899870e-14 -1.406158853635777750e-13
5.613000000000000000e+03 5.899734497070312500e+01 -7.609306335449218750e+00 2.416952000951905211e-13 -7.942014016923404363e-14 4.868251391202879641e-14 -8.087488198669362527e-14
5.614000000000000000e+03 9.172333717346191406e+00 8.453776359558105469e+00 2.375090040276656850e-14 5.592990737972140802e-14 2.390424216533980351e-14 6.169646363891542751e-14
5.615000000000000000e+03 6.844744110107421875e+01 -8.565743446350097656e+00 1.743635346784094819e-13 -5.200350783676754851e-13 -1.037014712382960946e-13 1.661625481305661900e-13
5.616000000000000000e+03 9.116988182067871094e+00 1.118230533599853516e+01 -6.613519410933466069e-14 1.546601388624502249e-13 2.655748308712149036e-14 -1.314495252013533899e-13
5.617000000000000000e+03 1.088255786895751953e+01 9.962631225585937500e+00 4.124676403378935152e-14 1.320545506711817696e-13 5.199039779962312535e-14 1.471984155659161742e-13
5.618000000000000000e+03 1.130124092102050781e+01 8.940775871276855469e+00 8.294427834452597348e-14 8.129849332801086792e-14 4.927283150176105242e-14 1.614903550510929375e-13
5.619000000000000000e+03 3.767957305908203125e+01 1.799030494689941406e+01 4.507777885773972537e-14 1.108209457902943618e-13 4.676961874966294175e-14 2.976088884880379037e-14
5.620000000000000000e+03 7.195332336425781250e+01 2.009821510314941406e+01 -2.287294160498165585e-13 1.078523731369747385e-13 -3.626311693961069282e-14 -3.836490383734604548e-14
5.621000000000000000e+03 9.917710304260253906e+00 1.100242233276367188e+01 -4.124611012435407120e-14 -1.549297528376930577e-13 -5.885275719454824417e-14 8.836555348123303899e-14
5.622000000000000000e+03 6.597711181640625000e+01 4.255547046661376953e+00 -1.739582734588615565e-13 -5.320630546389037985e-13 -2.118063889425605972e-13 1.048463684036500532e-13
5.623000000000000000e+03 6.749328613281250000e+01 5.382903575897216797e+00 -1.710354676897479775e-13 -7.138142073953579470e-13 -2.654548943940154837e-13 4.139534309950676505e-13
5.624000000000000000e+03 9.383626937866210938e+00 2.784842681884765625e+01 -9.319600619657128493e-14 3.832551409479328930e-13 8.701773432677126219e-14 3.374331928240534295e-14
5.625000000000000000e+03 9.345178604125976562e+00 1.802458953857421875e+01 2.223067955035244042e-14 -2.192273055798277248e-13 -5.909898628418328026e-14 -9.090813632471952954e-14
5.626000000000000000e+03 5.789150238037109375e+01 -9.169414520263671875e+00 3.254760285072155757e-13 -3.637706997607070836e-13 -1.148840696646490425e-14 1.323281490894084866e-13
5.627000000000000000e+03 5.794588088989257812e+01 -8.245957374572753906e+00 2.026699798653511242e-13 -3.020244915708653055e-13 -2.980635757741240122e-14 3.639336011371230306e-14
5.628000000000000000e+03 1.041906547546386719e+01 2.515205764770507812e+01 -9.423224597545146186e-14 2.798713951562836755e-13 5.569174543187602189e-14 -1.228791645258714427e-13
5.629000000000000000e+03 6.754321289062500000e+01 -7.834735870361328125e+00 1.239690723122896521e-13 -5.873836573383472981e-13 -1.390243849945863031e-13 2.556417263207405588e-13
5.630000000000000000e+03 7.745803356170654297e+00 1.943893241882324219e+01 -1.580440693680490449e-13 6.951967349228330151e-14 -2.655731876272972303e-14 3.484688801619686971e-14
5.631000000000000000e+03 9.609015464782714844e+00 2.311801719665527344e+01 -1.246843611430598076e-13 2.896959473523696982e-13 4.950347857329839840e-14 -8.703288096993406359e-15
5.632000000000000000e+03 9.431208610534667969e+00 1.423939132690429688e+01 2.446331948591142641e-14 1.877692066502151258e-13 6.366975902668409182e-14 -5.364547984976729411e-14
5.633000000000000000e+03 6.418196868896484375e+01 -1.338289022445678711e+00 -6.310793223716568145e-14 -2.100500491857698604e-13 -8.194739510450702036e-14 1.352298264686857543e-13
5.634000000000000000e+03 1.088706398010253906e+01 2.930338287353515625e+01 -3.351351585568346225e-14 2.143918045481238432e-13 5.426348864061118771e-14 -4.735973643961964574e-14
5.635000000000000000e+03 7.365078926086425781e+00 2.995597076416015625e+01 -3.427453091307819388e-14 3.741939755014939140e-13 1.019758347317774316e-13 4.563211109974082968e-14
5.636000000000000000e+03 6.371881103515625000e+01 -7.170088768005371094e+00 1.920727709910433068e-13 -2.608152138271896403e-13 -2.062273149559118446e-14 -3.992473120921995579e-16
5.637000000000000000e+03 6.079635238647460938e+01 -4.117021560668945312e+00 -1.971435303416493867e-14 -2.486414936789249630e-13 -8.050675469155332831e-14 -3.020824421769846557e-14
5.638000000000000000e+03 6.746721649169921875e+01 8.229528427124023438e+00 -2.158620504566499676e-13 -6.872746187262801509e-13 -2.709410115969007604e-13 2.435177710521929662e-13
5.639000000000000000e+03 6.745547485351562500e+01 6.712910652160644531e+00 -1.240617038354013824e-13 -6.479316323922124088e-13 -2.315979981577787061e-13 1.841925456559298513e-13
5.640000000000000000e+03 5.939197921752929688e+01 -7.190909385681152344e+00 1.003617084186989028e-13 -2.772444817125685468e-13 -5.306483198816089319e-14 -3.753475395079641785e-14
5.641000000000000000e+03 7.922814369201660156e+00 8.722434997558593750e+00 9.163985759466641845e-14 -9.797862526731218602e-14 -1.901629412409135654e-15 -2.870060349861695836e-14
5.642000000000000000e+03 6.273736953735351562e+01 -8.727211952209472656e+00 1.817372072060105537e-13 -1.051164228360254582e-13 2.298623632743506534e-14 1.881085890352574008e-13
5.643000000000000000e+03 9.672349929809570312e+00 1.154690837860107422e+01 1.473704377931081555e-13 3.376644395949174315e-13 1.455104618611549605e-13 -2.865422675068889091e-14
5.644000000000000000e+03 9.069727897644042969e+00 1.346969127655029297e+01 4.436419425725944554e-14 2.477679790936077042e-13 8.763964624543610360e-14 1.803023977678657602e-15
5.645000000000000000e+03 6.402375793457031250e+01 -2.748146057128906250e-01 -1.946974618203048402e-13 -4.036984234314505704e-13 -1.795187669307793388e-13 7.979790331118230551e-14
5.646000000000000000e+03 3.679539489746093750e+01 1.872736167907714844e+01 6.154390284071956096e-14 9.500238188362222780e-14 4.696388406204982102e-14 -6.995180259691813340e-14
5.647000000000000000e+03 3.880763626098632812e+01 2.021376228332519531e+01 2.211606074599588301e-14 -8.202358741217843918e-14 -1.797225698341523015e-14 -5.662131496357667576e-15
5.648000000000000000e+03 8.341050148010253906e+00 1.548316001892089844e+01 2.792103164341377952e-14 2.292831723094135299e-13 7.716125915296911941e-14 1.271126250318530687e-15
5.649000000000000000e+03 6.844657135009765625e+01 1.291723060607910156e+01 -3.051917713773472096e-13 -7.255588274288071737e-13 -3.092251660893191589e-13 1.660791594309748986e-13
5.650000000000000000e+03 7.109942626953125000e+01 1.268665695190429688e+01 -3.333480952209810777e-13 1.430799651935127370e-13 -5.708043900824050221e-14 3.056269701293828911e-13
5.651000000000000000e+03 1.201703071594238281e+01 7.846445083618164062e+00 -5.979352619587749440e-14 2.031289497500185504e-13 4.300062706624231679e-14 1.437722147281175755e-13
5.652000000000000000e+03 7.258188629150390625e+01 1.348121833801269531e+01 -3.141518891813105396e-13 2.313710746430774901e-13 -2.483424537790945158e-14 1.691552171771693036e-13
5.653000000000000000e+03 6.840562438964843750e+01 1.127150058746337891e+01 -2.028738505313598672e-13 -5.902063776944133089e-13 -2.379240738887428153e-13 2.456349197394597228e-13
5.654000000000000000e+03 7.021060943603515625e+01 1.256518268585205078e+01 -2.106467127463429456e-13 -3.647828566988309262e-13 -1.726288654125412991e-13 2.347622421981776508e-13
5.655000000000000000e+03 6.665871429443359375e+01 3.876078605651855469e+00 -1.326243124653500582e-13 -6.058503850513152766e-13 -2.215424160312631785e-13 1.338802658144844226e-13
5.656000000000000000e+03 6.265332031250000000e+01 -8.090228080749511719e+00 2.515883551837405641e-13 -2.942927206182194277e-14 6.664772358132287078e-14 1.957415078548269127e-13
5.657000000000000000e+03 6.048326873779296875e+01 -5.931072235107421875e+00 2.462204973328191437e-13 -2.147335721779455864e-13 9.446077546462067209e-15 1.188383159239636555e-13
5.658000000000000000e+03 5.975635147094726562e+01 -5.865656375885009766e+00 -1.238925530499005931e-14 -1.654380029237484395e-13 -5.334817806154461273e-14 -1.934227382210593205e-13
5.659000000000000000e+03 6.044823837280273438e+01 -7.240557193756103516e+00 1.318527128842464369e-13 -4.010011723717954446e-13 -8.074454055677013353e-14 9.679213539611625228e-14
5.660000000000000000e+03 6.552555847167968750e+01 1.616535186767578125e+00 -1.026499577613110281e-13 -8.217589477811648724e-13 -2.773226797942590638e-13 1.069237539762409039e-13
5.661000000000000000e+03 1.056570148468017578e+01 2.410245513916015625e+01 -1.867156602941566490e-13 2.173601739135361255e-13 9.193354255220432397e-15 -1.605795168059878653e-13
5.662000000000000000e+03 6.813128662109375000e+01 1.907526397705078125e+01 -5.328901382661843655e-13 -6.515777500881725359e-13 -3.553403502432744832e-13 -4.683634800524763553e-14
5.663000000000000000e+03 3.726209259033203125e+01 2.220920372009277344e+01 -9.269092383825533465e-14 -1.312265861296360581e-13 -6.717524892460927100e-14 -6.142179457104338103e-14
5.664000000000000000e+03 6.851177978515625000e+01 1.776236343383789062e+01 -3.743098767137326144e-13 -3.891732585064450189e-13 -2.290449459870641524e-13 1.321083677565185188e-13
5.665000000000000000e+03 6.561796188354492188e+00 9.486875534057617188e+00 -4.089209100998324187e-14 -1.752518282945904338e-14 -1.752518282945904338e-14 1.607015166554467966e-13
5.666000000000000000e+03 7.368835449218750000e+01 3.325544357299804688e+01 9.565602704462300432e-14 2.011237584895880781e-13 8.903393701551604034e-14 -1.590721640781084245e-13
5.667000000000000000e+03 1.113295745849609375e+01 2.654642486572265625e+01 -1.394187228772464371e-13 3.291321750732711937e-13 5.691404107981828941e-14 -7.584873077922174578e-14
5.668000000000000000e+03 8.517825126647949219e+00 1.737733650207519531e+01 8.242331920064668860e-14 3.532427917340118240e-14 3.532427917340118240e-14 -1.351488636714553992e-13
5.669000000000000000e+03 6.698889160156250000e+01 -7.816335678100585938e+00 2.513740897294031162e-13 -4.870305547743924990e-13 -7.069694764501310846e-14 1.625985587491718398e-13
5.670000000000000000e+03 6.219524765014648438e+01 -4.174261093139648438e+00 -4.959949145193556785e-14 -4.330154670158931074e-13 -1.447844800864586667e-13 -8.323482419796135456e-14
5.671000000000000000e+03 3.690314102172851562e+01 2.068724060058593750e+01 -4.900006656395443361e-14 -2.100002876941845648e-14 -2.100002876941845648e-14 -1.454569700364699569e-13
5.672000000000000000e+03 6.855429840087890625e+01 1.996595954895019531e+01 -4.287648252936093751e-13 -6.183903757984998695e-13 -3.141465494856110485e-13 -5.878517074162092904e-14
5.673000000000000000e+03 8.284344673156738281e+00 1.346789646148681641e+01 -3.833094459242472607e-14 1.437007793574779368e-13 3.161094771901053202e-14 -2.728548927056172191e-14
5.674000000000000000e+03 9.842676162719726562e+00 2.052318191528320312e+01 -1.277078486364158216e-13 6.536430603590673294e-14 -1.870306345777908441e-14 1.627980383963820166e-14
5.675000000000000000e+03 6.794801330566406250e+01 2.219512557983398438e+01 -3.666835715274152641e-13 -7.519124212151950815e-13 -3.355787869807613788e-13 -1.664763026867563389e-13
5.676000000000000000e+03 1.164242172241210938e+01 2.823826599121093750e+01 -8.047931760032586701e-14 3.086409708537296570e-13 6.844850207465835723e-14 -6.153822433184116814e-14
5.677000000000000000e+03 8.937402725219726562e+00 2.847497558593750000e+01 -7.080315202407164166e-14 2.355831729781293626e-13 4.943400831909638971e-14 6.945908691963209591e-14
5.678000000000000000e+03 3.630502319335937500e+01 2.464577484130859375e+01 -1.129881439603484805e-13 -1.170499108879216599e-13 -6.901141984261283113e-14 -7.329613261816692038e-15
5.679000000000000000e+03 7.066837310791015625e+01 3.200915908813476562e+01 1.378977634121023033e-13 1.334809151908424377e-14 4.537375588643290103e-14 -1.900273287249593102e-13
5.680000000000000000e+03 6.713744354248046875e+01 2.737822151184082031e+01 -7.402447507368721188e-16 -3.892003093506485323e-13 -1.169821618046684719e-13 -1.977471734537078474e-13
5.681000000000000000e+03 6.904456329345703125e+01 2.384380149841308594e+01 -1.585670884960560523e-13 -2.280856439048489781e-13 -1.159958224307769403e-13 -1.625817265104440024e-13
5.682000000000000000e+03 3.412161254882812500e+01 2.780679130554199219e+01 -9.140433500148467671e-14 -1.306751880097642426e-13 -6.662385758100103361e-14 -4.927898434908990766e-14
5.683000000000000000e+03 2.277817726135253906e+01 3.569404602050781250e+01 1.955321687441106959e-14 -3.057787457280366529e-15 4.948628634556797787e-15 6.823088406391567690e-15
5.684000000000000000e+03 1.527778625488281250e+01 2.985807418823242188e+01 -3.708943146097515298e-14 1.442328515736251981e-13 3.214302671142137136e-14 5.692735643774912702e-14
5.685000000000000000e+03 4.076444244384765625e+01 2.442064285278320312e+01 -8.641495857645078993e-14 -3.703498079499385753e-14 -3.703498079499385753e-14 6.938514433146858451e-14
5.686000000000000000e+03 6.679209136962890625e+01 2.473949813842773438e+01 -8.138582581300457530e-14 -6.182042182854841084e-13 -2.098770240715683300e-13 -1.520203098603553626e-13
5.687000000000000000e+03 3.295227050781250000e+01 2.905502700805664062e+01 -8.068150097670367948e-14 -3.457778564885417849e-14 -3.457778564885417849e-14 -7.348006074046550817e-14
5.688000000000000000e+03 3.874077224731445312e+01 2.477717399597167969e+01 -4.733103218710309201e-14 -4.316020129724144894e-14 -2.714737038411654119e-14 -2.608978368089966138e-14
5.689000000000000000e+03 5.027339935302734375e+01 3.023449134826660156e+01 -7.496467910404064350e-14 -2.837579346839924632e-13 -1.076167827811572164e-13 1.440506785035933213e-13
5.690000000000000000e+03 5.485591506958007812e+01 3.352841186523437500e+01 1.580888740228270084e-14 -4.049833114260631417e-13 -1.167523244966287010e-13 1.529214444960166897e-13
5.691000000000000000e+03 5.318180465698242188e+01 3.151213836669921875e+01 -4.157097097654861850e-14 -3.495105138466569894e-13 -1.173244444305221457e-13 1.700873871000180282e-13
5.692000000000000000e+03 2.949246406555175781e+01 3.251063537597656250e+01 -8.516120751297928670e-14 -8.796747510107782997e-14 -5.193860342896441940e-14 -4.422650735761736451e-14
5.693000000000000000e+03 1.422119140625000000e+01 2.936139297485351562e+01 -1.392577307130936012e-14 1.999110783596630414e-13 5.579559167120939911e-14 -2.580910745536568740e-14
5.694000000000000000e+03 1.270333862304687500e+01 2.860151290893554688e+01 -1.212138164364065518e-13 1.996814443395306116e-13 2.354028735449768123e-14 -5.093649907785859077e-14
5.695000000000000000e+03 5.074666213989257812e+01 3.249139022827148438e+01 -3.865149235285185447e-14 -2.910706072868640693e-13 -9.891663632936517625e-14 1.491229557372408809e-13
5.696000000000000000e+03 7.201909542083740234e+00 1.071504211425781250e+01 8.050073059323245572e-14 1.717531553178247572e-13 7.567616645094352168e-14 -8.736293752222706877e-14
5.697000000000000000e+03 7.372483253479003906e+00 8.957743644714355469e+00 -5.994925828542788104e-14 -2.569254047523044510e-14 -2.569254047523044510e-14 1.485135799061954032e-13
5.698000000000000000e+03 7.183246612548828125e+01 2.483672904968261719e+01 -1.066282478978664017e-13 1.373059787613054028e-13 9.203319597844879241e-15 -1.812801617801992893e-13
5.699000000000000000e+03 6.889955139160156250e+01 -7.195405960083007812e+00 1.580422126718286635e-13 -2.753997388211387731e-13 -3.520725987767210630e-14 2.862160649545059110e-13
5.700000000000000000e+03 6.928707122802734375e+01 -8.374305725097656250e+00 1.255861598525517819e-13 -3.579359031391504686e-13 -6.970492298597960601e-14 1.597308982130563049e-13
5.701000000000000000e+03 6.082155227661132812e+01 -8.637381553649902344e+00 3.215616249836739104e-13 -1.824445135982857846e-13 4.173513951425365798e-14 9.368836950815126463e-14
5.702000000000000000e+03 6.139982986450195312e+01 -7.671348094940185547e+00 2.031331239283826195e-13 -4.162033944484638814e-13 -6.392107709026623175e-14 1.535527483160006867e-13
5.703000000000000000e+03 7.166497802734375000e+01 -4.834151744842529297e+00 6.298429930818444378e-14 1.871215991400623779e-13 7.503177088972676212e-14 1.539621972664398375e-13
5.704000000000000000e+03 6.800297546386718750e+01 -8.192399024963378906e+00 1.788224380855005236e-13 -2.893694127630713764e-13 -3.316408765988675122e-14 1.006817039136444214e-13
5.705000000000000000e+03 7.092853546142578125e+01 -7.016613006591796875e+00 9.068390298665879312e-14 -5.263736834099953799e-14 1.141396208776367105e-14 2.083403978850317806e-13
5.706000000000000000e+03 6.144454193115234375e+01 -6.467509269714355469e+00 1.279441233948547252e-13 -1.379322681462416544e-14 3.424527100694824133e-14 1.485555520827977483e-13
5.707000000000000000e+03 6.051371383666992188e+01 -5.259713172912597656e+00 -1.691468688204411652e-13 -4.384990905537816674e-13 -1.822937959437831434e-13 -8.700267746910086974e-14
5.708000000000000000e+03 7.183654785156250000e+01 -7.817855834960937500e+00 -4.169533235386449488e-14 -1.551222800384721712e-13 -5.904528439532735762e-14 1.173072462735610944e-13
5.709000000000000000e+03 7.274947357177734375e+01 -5.987118721008300781e+00 1.071531576034116806e-13 -1.828319667971506357e-13 -2.270364072524261312e-14 1.296393954642802160e-13
5.710000000000000000e+03 7.263970947265625000e+01 6.179773330688476562e+00 -8.404340862567388770e-14 3.071135197280777662e-13 6.692103062021573234e-14 3.744229590003228525e-13
5.711000000000000000e+03 7.252445220947265625e+01 1.779952621459960938e+01 -2.541398894714136381e-13 1.427131253884522666e-13 -3.342802651438298023e-14 -2.225182996304538030e-14
5.712000000000000000e+03 7.861053943634033203e+00 2.725757026672363281e+01 -7.516193613679722496e-14 5.167991143535666243e-13 1.324911588860416822e-13 1.050896244076402267e-14
5.713000000000000000e+03 8.059530258178710938e+00 2.648268127441406250e+01 -1.388852683033292568e-13 1.692324801344860519e-13 9.104163379940449080e-15 1.518745930883733108e-13
5.714000000000000000e+03 6.793917083740234375e+01 -7.270990371704101562e+00 2.118821475693630219e-13 -1.207915061376962917e-13 2.732719209068684013e-14 1.597724096037353436e-13
5.715000000000000000e+03 6.449349212646484375e+01 3.805522620677947998e-01 -7.326187182951637844e-14 -8.091640964040525130e-13 -2.647277742070380802e-13 -6.575054289545932684e-15
5.716000000000000000e+03 6.253770446777343750e+01 -5.464465141296386719e+00 1.181899494722901678e-13 -1.781019044267209694e-13 -1.797358513107652489e-14 -1.373089111893687972e-14
5.717000000000000000e+03 6.456470489501953125e+01 -7.595662117004394531e+00 3.567606821942848061e-13 -1.216082627392839344e-13 7.054572854700569273e-14 2.010791977802989239e-13
5.718000000000000000e+03 7.204164123535156250e+01 2.146481704711914062e+01 -2.090021542335354643e-13 2.306842867769165473e-13 6.504641287673629951e-15 -1.101957744888484858e-13
5.719000000000000000e+03 7.139871978759765625e+01 1.905223846435546875e+01 -1.941516066840398569e-13 2.370488245799495797e-13 1.286916384411361178e-14 3.133110836202844529e-14
5.720000000000000000e+03 7.202297973632812500e+01 -3.929094672203063965e-01 -2.650342781611997323e-13 1.837950500344423532e-13 -2.437177216497218163e-14 2.678439067760329806e-13
5.721000000000000000e+03 6.608158874511718750e+01 2.187505960464477539e+00 -2.304370615765355401e-13 -7.020994029216520715e-13 -2.797609420599617147e-13 1.482960482928133428e-13
5.722000000000000000e+03 7.270164489746093750e+01 1.513916110992431641e+01 -2.066333622220348221e-13 1.630730598299601208e-13 -1.306808953177628421e-14 2.767667551303171214e-13
5.723000000000000000e+03 6.855561065673828125e+01 1.547650432586669922e+01 -3.291127949594380153e-13 -3.240521457940903627e-13 -1.959494713840367885e-13 1.437341998894448025e-13
5.724000000000000000e+03 7.266616821289062500e+01 7.737905502319335938e+00 -1.593185896793872236e-13 1.604753520822663204e-13 3.470270956192615013e-16 3.252624948893445556e-13
5.725000000000000000e+03 7.192369842529296875e+01 6.924130916595458984e+00 -1.253577184548090862e-13 1.750300073063634776e-13 1.490168801071903304e-14 3.835591512370978284e-13
5.726000000000000000e+03 7.197042846679687500e+01 1.368085956573486328e+01 -1.969715894296203418e-13 2.996097835973599022e-14 -5.010318128808623206e-14 1.877473870814938550e-13
5.727000000000000000e+03 6.913283538818359375e+01 1.283291244506835938e+01 -2.178776365054091446e-13 -2.763799117951742934e-13 -1.482772644901750314e-13 1.332958266334061115e-13
5.728000000000000000e+03 7.268894958496093750e+01 8.498633384704589844e+00 -1.532465154123821560e-13 7.157576804471196819e-14 -2.450122590436695086e-14 3.334499018049774666e-13
5.729000000000000000e+03 6.753568267822265625e+01 7.487246513366699219e+00 -6.738542829200916406e-14 -4.863889781388242017e-13 -1.661323124424810005e-13 2.139614169432285662e-13
5.730000000000000000e+03 6.791977691650390625e+01 3.890136003494262695e+00 -2.245862052102989836e-13 -6.288208885887880406e-13 -2.560221186529570980e-13 2.089040068318712140e-13
5.731000000000000000e+03 7.261282348632812500e+01 -2.577269673347473145e-01 -1.507277511353724564e-14 1.079176082264404757e-13 2.785345027268414791e-14 1.259970182658151638e-13
5.732000000000000000e+03 7.256275177001953125e+01 5.565381646156311035e-01 -2.709840273180941228e-13 6.686778951728311604e-14 -6.123487134024330203e-14 1.836181082398927189e-13
5.733000000000000000e+03 6.837816619873046875e+01 -1.340242743492126465e+00 -7.562786524415929246e-14 -3.069176315005639477e-13 -1.147636537668014767e-13 3.602745272252017017e-13
5.734000000000000000e+03 7.187836456298828125e+01 1.472707390785217285e+00 -1.366433821561180428e-13 -1.958142984781821583e-13 -9.973730283503734473e-14 4.148663292243004452e-13
5.735000000000000000e+03 8.673997879028320312e+00 1.814467620849609375e+01 -7.491639653198125387e-15 4.254024771875065947e-14 1.051458165733610770e-14 -8.433646169663314152e-14
5.736000000000000000e+03 7.813805103302001953e+00 1.753997802734375000e+01 4.774811121033110950e-14 6.621442218308903893e-14 3.418876035683922343e-14 -1.331232661167761500e-15
5.737000000000000000e+03 7.212584686279296875e+01 -9.621706604957580566e-01 -1.980268162990461711e-13 1.896370566004459968e-13 -2.516929180129473184e-15 1.704037030838406741e-13
5.738000000000000000e+03 7.256829833984375000e+01 -1.799892902374267578e+00 -1.737903711999250200e-13 2.457750528702534742e-13 2.159540314584582066e-14 3.390836060285923326e-13
5.739000000000000000e+03 7.265097808837890625e+01 -5.425179958343505859e+00 -1.070180592364564087e-13 9.138796354868014560e-14 -4.689029129849352565e-15 1.425234171133216154e-13
5.740000000000000000e+03 7.209338378906250000e+01 -6.511849880218505859e+00 7.380777439962640796e-14 -1.411904481404911010e-14 1.790661870626659991e-14 1.444261648209793636e-13
5.741000000000000000e+03 7.224754810333251953e+00 1.165455150604248047e+01 -1.230445460147569503e-13 3.132742004176292117e-13 5.706889903136710962e-14 -1.426804502454789847e-13
5.742000000000000000e+03 7.269490051269531250e+01 1.432306957244873047e+01 -2.512991713592843679e-13 1.210551027908818300e-13 -3.907322328102619258e-14 6.578947591784692350e-14
5.743000000000000000e+03 7.056172180175781250e+01 1.316679286956787109e+01 -1.895548605232444395e-13 1.026409961527290776e-14 -5.378722911942440676e-14 2.160704070091473694e-13
5.744000000000000000e+03 7.016993713378906250e+01 2.019524192810058594e+01 -3.094436599321293002e-13 -8.686775528499862675e-14 -1.188934204993802313e-13 -6.706440958126336227e-14
5.745000000000000000e+03 7.169141387939453125e+01 2.269708442687988281e+01 -1.677598489811804594e-13 6.535576794379840959e-14 -3.072122092308282593e-14 -1.901079120514292953e-13
5.746000000000000000e+03 7.266040802001953125e+01 9.995086669921875000e+00 -2.289988944997878306e-13 2.907406845657767303e-13 1.852253532573077538e-14 3.451784214361652836e-13
5.747000000000000000e+03 7.250360107421875000e+01 -4.740820407867431641e+00 4.622142241433174759e-14 -1.174436660119140829e-13 -2.136667206283516390e-14 2.775091896729808827e-13
5.748000000000000000e+03 8.287064552307128906e+00 2.487919425964355469e+01 -3.878719719539736044e-14 1.892561899297789951e-13 4.514069646506177480e-14 1.055518384284956368e-13
5.749000000000000000e+03 8.728645324707031250e+00 1.945879173278808594e+01 -4.848905497500770323e-14 3.109133501870420258e-13 7.872728754717076005e-14 -8.102946211143574606e-14
5.750000000000000000e+03 8.324408531188964844e+00 1.264532661437988281e+01 9.080246049422008303e-14 3.134210284968380611e-13 1.212670507630755901e-13 -7.762165882925151084e-15
5.751000000000000000e+03 7.700784683227539062e+00 1.180844402313232422e+01 7.845583720449827991e-14 2.166277275833863869e-13 8.852506672585996883e-14 5.400964641884622996e-14
5.752000000000000000e+03 7.517147064208984375e+00 1.322106647491455078e+01 -2.876456465053002509e-14 -1.038295697249752569e-13 -3.977823929621204790e-14 2.954465827802871258e-14
5.753000000000000000e+03 9.331065177917480469e+00 1.991575241088867188e+01 -5.813226419335015827e-14 2.038409182116354690e-13 4.371259552785923541e-14 -8.236229217086291077e-14
5.754000000000000000e+03 7.824144363403320312e+00 2.043799400329589844e+01 -1.601280008112562769e-13 1.115180742346753850e-13 -1.458297831178744647e-14 -1.107272046540217283e-14
5.755000000000000000e+03 7.089514160156250000e+01 2.042554473876953125e+01 -2.181044787049474243e-13 -4.772239529005246894e-14 -7.974806389256586248e-14 -5.407764622385180520e-14
5.756000000000000000e+03 6.851804733276367188e+00 1.734358024597167969e+01 2.094509190652543706e-15 1.953391739811446981e-13 5.923010698441824595e-14 -6.269144423117661066e-16
5.757000000000000000e+03 7.288352966308593750e+00 1.575350666046142578e+01 1.982410817533836189e-14 -3.725490104128717506e-14 -5.229237944487938675e-15 8.086544265152942335e-14
5.758000000000000000e+03 6.877535247802734375e+01 1.923500061035156250e+01 -4.701785293569071822e-13 -5.446371977545216847e-13 -3.044447018703960728e-13 1.693035563631560547e-14
5.759000000000000000e+03 6.329584121704101562e+01 -7.995018482208251953e+00 3.191632342528644140e-13 2.054106667745414505e-13 1.573721757292326218e-13 1.468708374320268351e-13
5.760000000000000000e+03 8.582524299621582031e+00 9.130074501037597656e+00 3.357699928101427755e-14 2.888958332541297080e-13 9.674184874410365897e-14 2.028087984010107370e-13
5.761000000000000000e+03 7.234538269042968750e+01 2.222538948059082031e+01 -2.226501724959459305e-13 4.183134212827101239e-14 -5.424565012674201214e-14 -8.158930345572579235e-14
5.762000000000000000e+03 6.999787139892578125e+01 2.229893493652343750e+01 -2.824774919182870825e-13 -2.125636906075145660e-13 -1.485123601787513570e-13 -2.196247469912065986e-13
5.763000000000000000e+03 6.262415695190429688e+01 -2.326053857803344727e+00 -4.547061918614911380e-14 -7.515025927939955608e-13 -2.390919493638898885e-13 -6.415137518422930896e-14
5.764000000000000000e+03 6.307997512817382812e+01 -2.927939891815185547e+00 2.094727894559524767e-14 -6.772868398931264355e-13 -1.969018616774023678e-13 4.940429779143849787e-14
5.765000000000000000e+03 6.135832595825195312e+01 -3.727532148361206055e+00 4.453864831604299399e-15 -3.640987793381011972e-13 -1.078934779518390952e-13 -7.100036162298317688e-14
5.766000000000000000e+03 5.940862274169921875e+01 -8.137734413146972656e+00 1.602936397981577499e-13 -1.600574734599360949e-13 7.085255241492361094e-17 1.374522715156915875e-14
5.767000000000000000e+03 7.344017028808593750e+01 1.583098125457763672e+01 -2.313853319016456744e-13 2.668424563343624323e-13 1.063713885447433241e-14 3.032455742676271049e-13
5.768000000000000000e+03 7.549334526062011719e+00 9.668096542358398438e+00 1.019649113948896402e-13 8.945019611085111566e-14 5.742453089646951114e-14 -5.321878192039025679e-14
5.769000000000000000e+03 8.105181694030761719e+00 9.345623970031738281e+00 -6.906373259743525672e-14 -7.534969284801740219e-14 -4.332402763363579767e-14 8.754178344684213076e-14
5.770000000000000000e+03 6.983264923095703125e+01 1.853707695007324219e+01 -3.816676250219253053e-13 -3.808888426014289674e-13 -2.287669294449845570e-13 2.101340511372149639e-14
5.771000000000000000e+03 6.725410461425781250e+01 4.452689170837402344e+00 -2.062910660436539922e-13 -7.375020190901471207e-13 -2.831379336716566275e-13 2.752390058490677971e-13
5.772000000000000000e+03 7.145906066894531250e+01 3.820705652236938477e+00 -2.003147132759522386e-13 -1.087246341135300609e-13 -9.271180828260283668e-14 4.459475052686484586e-13
5.773000000000000000e+03 7.270858764648437500e+01 9.244716644287109375e+00 -1.366568669206383313e-13 3.074403524729735215e-13 5.123505108671141950e-14 2.028334233428533140e-13
5.774000000000000000e+03 7.251245117187500000e+01 1.078155899047851562e+01 -1.640258431466132261e-13 1.127070035607594112e-13 -1.539565390863521788e-14 1.382769495694019524e-13
5.775000000000000000e+03 6.680005645751953125e+01 -7.205524921417236328e+00 3.563122832807991136e-13 -2.819287500937378566e-13 2.231506605475559735e-14 3.010284892451114969e-13
5.776000000000000000e+03 6.900495910644531250e+01 9.976456642150878906e+00 -1.841737483007643839e-13 -6.393807466982537324e-13 -2.470663376576837100e-13 2.042796406207317284e-13
5.777000000000000000e+03 8.065293312072753906e+00 1.429787254333496094e+01 -2.711023984784070168e-14 1.256341764562657337e-13 2.955718081312092016e-14 1.189428567303137813e-14
5.778000000000000000e+03 7.136124420166015625e+01 1.098430728912353516e+01 -1.391111753784937677e-13 -1.911530558406510094e-13 -9.907926665523800192e-14 2.719416759919962567e-13
5.779000000000000000e+03 8.627106666564941406e+00 2.747816276550292969e+01 -6.240005663874989561e-14 6.475901629179880992e-14 7.076879806179690174e-16 1.849654666084311894e-14
5.780000000000000000e+03 8.537496566772460938e+00 1.101027965545654297e+01 1.097705436205360929e-13 2.757992673216996815e-13 1.156709412497916589e-13 1.145589970542176816e-13
5.781000000000000000e+03 8.962173461914062500e+00 1.167367172241210938e+01 1.484173705159144707e-13 6.360744450682048745e-14 6.360744450682048745e-14 -1.121896019552585944e-13
5.782000000000000000e+03 7.671426296234130859e+00 1.505403900146484375e+01 -1.116601182717981422e-13 1.465871965911774710e-13 1.047812281818744085e-14 -2.168096533197976655e-14
5.783000000000000000e+03 6.696075439453125000e+01 2.042929530143737793e-01 4.288849684468479251e-15 -4.899846262236551286e-13 -1.457087353334482471e-13 2.699898410309792274e-13
5.784000000000000000e+03 6.950693511962890625e+01 1.460831451416015625e+01 -2.903440834110815327e-13 -1.015577053876948188e-13 -1.175705447711491991e-13 2.083752956424586578e-13
5.785000000000000000e+03 6.923993682861328125e+01 1.349610424041748047e+01 -2.906437297865022140e-13 -4.905691738249506884e-13 -2.343638792149521644e-13 1.578602022321226594e-13
5.786000000000000000e+03 7.249016571044921875e+01 -3.902232408523559570e+00 -2.863295605931744092e-14 1.060420706051803247e-14 -5.408625123156296163e-15 1.458451991175144929e-14
5.787000000000000000e+03 7.075373840332031250e+01 -7.571074008941650391e+00 -2.496772082973778423e-14 -3.538325773870532043e-13 -1.136400882791911704e-13 2.407812447688395530e-14
5.788000000000000000e+03 7.129079437255859375e+01 -7.699630737304687500e+00 1.830277872620286739e-13 -3.561935360378576387e-13 -5.194972327749597385e-14 2.957162509656385829e-13
5.789000000000000000e+03 9.437912940979003906e+00 2.102256011962890625e+01 -5.125851728748215264e-14 3.897906032234582652e-13 1.015596230702874025e-13 -6.605300480839668142e-14
5.790000000000000000e+03 7.205847930908203125e+01 9.187190055847167969e+00 -2.420858923480456726e-13 -8.087562059942363102e-14 -9.688845320661443328e-14 2.934634414815395775e-13
5.791000000000000000e+03 7.038099670410156250e+01 3.014488410949707031e+01 7.615907687483214339e-14 -4.742455817700712284e-14 8.620355101127737812e-15 -1.893249554525688882e-13
5.792000000000000000e+03 7.987143993377685547e+00 2.349342918395996094e+01 5.069096116710851418e-14 1.132265938993959331e-13 4.917526685876451309e-14 7.189838595366218610e-14
5.793000000000000000e+03 8.123838424682617188e+00 2.414364433288574219e+01 -5.763643143481822495e-14 3.413062746922962409e-13 8.510094620097982676e-14 6.797776182015588531e-14
5.794000000000000000e+03 5.992699432373046875e+01 -7.677318572998046875e+00 2.999687900417241648e-13 -1.916985857162642470e-13 3.248105723187982852e-14 -5.967161443784507746e-14
5.795000000000000000e+03 6.202733230590820312e+01 -8.144033432006835938e+00 2.492099408779591130e-13 -3.044859151054776780e-14 6.562840413259704575e-14 3.431935928477868047e-14
5.796000000000000000e+03 6.311610412597656250e+01 -7.336503982543945312e+00 1.560751582228153689e-13 -2.533672870033004676e-13 -2.918764066702460303e-14 2.149749020290137036e-13
5.797000000000000000e+03 7.254964447021484375e+01 2.202351808547973633e+00 -2.309458505510286752e-13 3.827605346931085839e-14 -5.780093878570216614e-14 4.248148328337558732e-13
5.798000000000000000e+03 7.152752685546875000e+01 1.318956089019775391e+01 -9.345577426083523376e-14 5.698474291992560586e-15 -2.632719007535609668e-14 2.589919923488837039e-13
5.799000000000000000e+03 6.911588287353515625e+01 1.211795425415039062e+01 -2.225025312651077170e-13 -5.528677017065108945e-13 -2.326110766677491615e-13 2.057255868480670213e-13
5.800000000000000000e+03 7.031549835205078125e+01 1.105104637145996094e+01 -1.859234879768301152e-13 -3.427494562040916959e-13 -1.586018778332656809e-13 1.100361189426864172e-13
5.801000000000000000e+03 7.191210937500000000e+01 5.374910354614257812e+00 -1.280320521910432996e-13 2.653857494004652207e-13 4.120611322858472314e-14 3.693422791998385302e-13
5.802000000000000000e+03 7.179252624511718750e+01 4.592230796813964844e+00 -1.935196930003338367e-13 -2.201898602685603556e-13 -1.241128646254155421e-13 2.746689594518292310e-13
5.803000000000000000e+03 6.458742523193359375e+01 -6.870452761650085449e-01 -2.192926558657742886e-13 -7.344958517264965625e-13 -2.861365658302084114e-13 2.317141805849558950e-14
5.804000000000000000e+03 6.503145599365234375e+01 -5.311501026153564453e-02 -2.327260834131955614e-13 -3.284945015655238443e-13 -1.683661754936158217e-13 8.987023636126273418e-14
5.805000000000000000e+03 8.320850372314453125e+00 2.197006034851074219e+01 -5.253862801627220969e-14 2.062381840826910118e-13 4.610986817517835623e-14 -1.104019270616171319e-14
5.806000000000000000e+03 7.222657775878906250e+01 -2.362394332885742188e+00 -8.117332896346099447e-14 -3.478856810371251662e-14 -3.478856810371251662e-14 2.934278660977548969e-14
5.807000000000000000e+03 6.846904754638671875e+01 2.074100494384765625e+01 -4.255453953626309183e-13 -4.797577808114683595e-13 -2.715909636942515082e-13 -2.071758969891465685e-13
5.808000000000000000e+03 6.869916534423828125e+01 6.520229816436767578e+00 -2.031911829547192183e-13 -7.962216498104413009e-13 -2.998238593163171650e-13 2.161650714113325100e-13
5.809000000000000000e+03 7.193712615966796875e+01 6.149854183197021484e+00 -1.983053478371576972e-13 -3.923705639368411935e-14 -7.126271821993393485e-14 3.334001098202060698e-13
5.810000000000000000e+03 6.726374816894531250e+01 3.317695856094360352e+00 -2.067447368902033955e-13 -4.589016341406682020e-13 -1.996939126645141949e-13 3.393731422187545865e-13
5.811000000000000000e+03 8.947907447814941406e+00 1.590492343902587891e+01 -5.169400403071990058e-14 2.931524448646256886e-14 -6.713628456200262593e-15 -8.481101021126646877e-14
5.812000000000000000e+03 1.068620014190673828e+01 2.758593368530273438e+01 -1.120884255637749627e-13 3.408451635083381559e-13 6.862702273862167357e-14 -5.301823162353475061e-14
5.813000000000000000e+03 1.014530563354492188e+01 2.119701766967773438e+01 1.648271905248244185e-14 1.443168636894656687e-13 4.823987482258443316e-14 -4.475141367503085443e-14
5.814000000000000000e+03 8.512459754943847656e+00 8.529110908508300781e+00 -1.923922514899568947e-14 -3.285020367706226185e-13 -1.043223734936878089e-13 1.193286599089973810e-13
5.815000000000000000e+03 6.761349487304687500e+01 2.354515266418457031e+01 -1.556617248293923339e-13 -4.784707244125108172e-13 -1.902397374830763765e-13 -1.250225644582395046e-13
5.816000000000000000e+03 6.746748352050781250e+01 2.573225784301757812e+01 -1.094482645247647767e-13 -5.415885296657096948e-13 -1.953110389347686993e-13 -1.576339698963064029e-13
5.817000000000000000e+03 6.929750061035156250e+01 2.077367019653320312e+01 -3.457075120963382098e-13 -3.311641596798892140e-13 -2.030614988223627959e-13 1.282654453433956440e-14
5.818000000000000000e+03 7.017404174804687500e+01 1.780818748474121094e+01 -4.021729238697091535e-13 -2.638617135116566592e-13 -1.998103966354206062e-13 -6.122447655191459726e-14
5.819000000000000000e+03 6.919949340820312500e+01 1.655675506591796875e+01 -3.558906912660281252e-13 -5.528453671417576931e-13 -2.726208202328411767e-13 1.247049880893913443e-13
5.820000000000000000e+03 6.473880767822265625e+01 2.954528999328613281e+01 1.108960200144754049e-13 -7.073638007802640626e-13 -1.789403315192311661e-13 -1.401150572282394095e-15
5.821000000000000000e+03 6.655460357666015625e+01 2.633508682250976562e+01 -1.750427297412312372e-14 -5.422160658831443047e-13 -1.679160960667627767e-13 -1.446630358906131342e-13
5.822000000000000000e+03 7.199280548095703125e+01 2.351641273498535156e+01 -1.550438922214014692e-13 9.368093594700616089e-14 -1.840888552706587689e-14 -1.731390774023858214e-13
5.823000000000000000e+03 3.673522567749023438e+01 2.338945770263671875e+01 -3.109962781007100108e-14 2.098479911702682416e-14 -3.034448946726431978e-15 -1.537190733995894357e-15
5.824000000000000000e+03 9.813634872436523438e+00 2.977737236022949219e+01 -4.667515085912156414e-14 3.231284868582956493e-13 8.293599775043361544e-14 6.521355450008620158e-14
5.825000000000000000e+03 7.131271362304687500e+01 2.583208274841308594e+01 -4.277972426173018428e-14 -1.833416705672268054e-14 -1.833416705672268054e-14 -2.561838816170919353e-13
5.826000000000000000e+03 3.848859024047851562e+01 2.272745704650878906e+01 -1.048077098199373669e-13 8.333581297164716940e-16 -3.119230676702777760e-14 3.947905031858288394e-14
5.827000000000000000e+03 6.722746276855468750e+01 2.266072654724121094e+01 -2.510279581858371190e-13 -8.853495193916760542e-13 -3.409132514047702456e-13 -9.699159471453569492e-14
5.828000000000000000e+03 1.309072589874267578e+01 2.996540069580078125e+01 8.846702633424820966e-15 2.954537385146255302e-13 9.129013463140406293e-14 9.121511461733164405e-15
5.829000000000000000e+03 1.029538822174072266e+01 3.272455978393554688e+01 2.916632931807168483e-14 3.098810270885099527e-13 1.017142031950295233e-13 4.009060810650048878e-14
5.830000000000000000e+03 4.204540252685546875e+01 2.514952278137207031e+01 -9.238383034916239356e-14 -2.225968704066411119e-13 -9.449420954911469384e-14 -6.140795066455345674e-14
5.831000000000000000e+03 3.428771209716796875e+01 2.654918670654296875e+01 -1.078811383758634945e-13 -3.479703504505327061e-14 -4.280345134864867174e-14 -7.759330694244101490e-14
5.832000000000000000e+03 1.581628704071044922e+01 3.352209091186523438e+01 6.217627138111825671e-15 9.416659753390746457e-14 3.011526710514425553e-14 -2.890487057604501642e-14
5.833000000000000000e+03 2.062271308898925781e+01 3.179562187194824219e+01 -5.608457220775825425e-14 -1.259850801834565617e-14 -2.060492347490811005e-14 1.656731223292472882e-14
5.834000000000000000e+03 1.079700565338134766e+01 3.138625144958496094e+01 1.540694994001980123e-14 1.667312934851977735e-13 5.464147539925752473e-14 -8.175124937897723654e-15
5.835000000000000000e+03 3.532643890380859375e+01 2.414476013183593750e+01 -1.163911276250628388e-14 -1.422410366574977658e-13 -4.616404440248474128e-14 -1.489335151245215622e-14
5.836000000000000000e+03 5.175113296508789062e+01 3.510079193115234375e+01 6.567621067214007846e-14 -3.149851798660285862e-13 -7.479269075816655232e-14 1.201081335083786783e-13
5.837000000000000000e+03 5.909674835205078125e+01 3.229513168334960938e+01 1.001537990995976513e-13 -6.033090693691178785e-13 -1.509465837913614994e-13 1.757615591697209156e-13
5.838000000000000000e+03 4.052360153198242188e+01 3.457759857177734375e+01 -2.659518621766967378e-14 -1.200564441698054319e-13 -4.399548759158322664e-14 2.222893974467878009e-14
5.839000000000000000e+03 6.519539642333984375e+01 -7.296488761901855469e+00 1.860944395543767671e-13 -2.633773461910987601e-13 -2.318487402389567131e-14 1.382955436366600788e-13
5.840000000000000000e+03 6.238032150268554688e+01 -4.823174476623535156e+00 1.531719494079694655e-14 -4.509449725523945185e-13 -1.306883339611056294e-13 2.236280279878377630e-13
5.841000000000000000e+03 6.852623748779296875e+01 -6.744612216949462891e+00 1.302350832428980643e-13 -1.615019695668656885e-13 -9.380066574816645075e-15 1.815465638065061338e-13
5.842000000000000000e+03 6.841336059570312500e+01 -7.678466796875000000e+00 2.332198832926540844e-13 -3.689958495006750994e-13 -4.073278782952723109e-14 1.231812774612345285e-13
5.843000000000000000e+03 7.198139953613281250e+01 -1.524573564529418945e+00 -6.846559181140215999e-14 -2.123461860991868178e-13 -8.424353879418755575e-14 1.237086469504586339e-13
5.844000000000000000e+03 7.170790100097656250e+01 -2.541869163513183594e+00 -1.755828148890595242e-13 -2.582535693542581390e-13 -1.301509220492588770e-13 1.937309633461697933e-13
5.845000000000000000e+03 7.040251922607421875e+01 2.459724617004394531e+01 -1.600311544521990093e-13 -6.858477951147620710e-14 -6.858477951147620710e-14 -2.142578242646589470e-13
5.846000000000000000e+03 1.010389995574951172e+01 1.044999122619628906e+01 1.898678967954953167e-13 2.186248008800503739e-13 1.225478052369055604e-13 1.911938624999179326e-13
5.847000000000000000e+03 7.103388214111328125e+01 1.557595729827880859e+01 -1.993206625141089039e-13 -3.967219415934759852e-14 -7.169785598559741402e-14 6.219790714368997331e-14
5.848000000000000000e+03 7.280046844482421875e+01 1.585503005981445312e+01 -1.884998504942531072e-13 3.309728793116084589e-13 4.274190932283296329e-14 5.097920309092736357e-14
5.849000000000000000e+03 6.197808837890625000e+01 -3.521592617034912109e+00 2.230534211652111798e-14 -6.080783663056643640e-13 -1.757319062403034371e-13 1.091320705136865354e-13
5.850000000000000000e+03 6.159897613525390625e+01 -4.381823539733886719e+00 6.232714912484792896e-15 -2.718345297123003768e-13 -7.968054520227432769e-14 1.484901882443240284e-13
5.851000000000000000e+03 8.917946815490722656e+00 2.670908164978027344e+01 -1.429211837853522349e-13 2.818801778364105060e-13 4.168770228107562814e-14 1.093641338243116906e-14
5.852000000000000000e+03 9.167858123779296875e+00 2.586360549926757812e+01 -1.563324393983461791e-13 2.450228130741922972e-14 -3.954904912134397932e-14 5.576933364984451580e-14
5.853000000000000000e+03 6.368859863281250000e+01 -2.701232671737670898e+00 -1.651789734722144964e-13 -2.537947879199115020e-13 -1.256921270623850839e-13 5.387722806413607068e-14
5.854000000000000000e+03 6.253329086303710938e+01 -3.324686765670776367e+00 -9.058099864796276268e-14 -2.218242272809464732e-13 -9.372156642342005517e-14 5.251789264972342441e-14
5.855000000000000000e+03 7.161775970458984375e+01 1.831929016113281250e+01 -2.498112936129281980e-13 -8.418650975991481822e-14 -1.001993423671056205e-13 1.391672930053152596e-14
5.856000000000000000e+03 6.090335083007812500e+01 -7.609963417053222656e+00 3.037367991669259748e-13 -3.502120468623637350e-13 -1.394257396981814917e-14 -8.107680786505547244e-14
5.857000000000000000e+03 6.989380645751953125e+01 6.302023410797119141e+00 -1.794646923474266242e-13 -5.115474558704813379e-13 -2.073036431101196730e-13 5.582538554690930077e-13
5.858000000000000000e+03 7.106439208984375000e+01 1.018711566925048828e+00 -1.688753981489779510e-13 -2.896921797498203111e-13 -1.375702665933759006e-13 2.637461646651240166e-13
5.859000000000000000e+03 6.812596893310546875e+01 6.662650585174560547e+00 -1.149471007743860240e-13 -5.525234675167467469e-13 -2.002411772636034093e-13 3.083646348250174141e-13
5.860000000000000000e+03 7.196827697753906250e+01 8.470043182373046875e+00 -1.724642970752851556e-13 1.090905252416896065e-13 -1.901213392177091704e-14 2.414665960671219525e-13
5.861000000000000000e+03 6.867060089111328125e+01 8.121423721313476562e+00 -8.743102541865915844e-14 -4.492289786689473985e-13 -1.609980052920401139e-13 2.351618520139014956e-13
5.862000000000000000e+03 7.154193878173828125e+01 3.298537433147430420e-02 -1.610960578260142717e-13 -1.147921140738292212e-13 -8.276645563571119468e-14 3.442095783748322368e-13
5.863000000000000000e+03 7.187336730957031250e+01 2.206281661987304688e+00 -1.717241800147650821e-13 1.790582249529618086e-14 -4.614550793346702817e-14 3.710942957004664811e-13
5.864000000000000000e+03 6.708924865722656250e+01 1.174702525138854980e+00 -2.550882072303688186e-14 -2.339682267371578916e-13 -7.784311389924525315e-14 2.935884770970814683e-13
5.865000000000000000e+03 7.037574768066406250e+01 1.951193046569824219e+01 -2.994723880770516766e-13 -1.512207785207830835e-13 -1.352079526898558592e-13 -8.088454832668769134e-15
5.866000000000000000e+03 7.141040039062500000e+01 -1.290643811225891113e+00 -8.853538019902573719e-14 -3.794373533904868423e-14 -3.794373533904868423e-14 2.345738349656539823e-13
5.867000000000000000e+03 6.963999938964843750e+01 1.522146987915039062e+01 -3.128494371115037032e-13 -1.112028560055523807e-13 -1.272156886127431830e-13 9.990341616038928008e-14
5.868000000000000000e+03 6.342863845825195312e+01 -3.617300748825073242e+00 1.612904688280680787e-13 -2.053812035805041569e-13 -1.322721907047810785e-14 -2.580409302031794194e-14
5.869000000000000000e+03 6.514903259277343750e+01 -1.076221585273742676e+00 -9.657261833750582780e-14 -4.531467974293323930e-13 -1.649158240524251084e-13 1.421927896608221609e-13
5.870000000000000000e+03 7.177417755126953125e+01 -2.034127950668334961e+00 -1.178776026848583555e-14 -9.655379387728604823e-14 -3.250246683665462821e-14 1.534929274611337990e-13
5.871000000000000000e+03 7.114703369140625000e+01 9.955130577087402344e+00 -1.394772155844520301e-13 -2.770929644589636975e-13 -1.249710513025192871e-13 2.748900282747990254e-13
5.872000000000000000e+03 7.209764099121093750e+01 1.433898925781250000e+01 -2.086698191626143450e-13 9.357387098247321733e-14 -3.452878309878962271e-14 2.395388303943341013e-13
5.873000000000000000e+03 6.993440246582031250e+01 1.415678977966308594e+01 -3.406239320550424887e-13 -1.002307367962626539e-13 -1.322564020106442584e-13 2.385578442686692169e-13
5.874000000000000000e+03 7.152338409423828125e+01 -6.442319869995117188e+00 2.935313396425914823e-14 5.833086292629519054e-14 2.630519940597948053e-14 3.553922022121736024e-13
5.875000000000000000e+03 7.222082519531250000e+01 -5.843073368072509766e+00 3.314306430213589949e-14 5.995511975342288080e-14 2.792945623310717079e-14 2.816576995506164804e-13
5.876000000000000000e+03 9.062012672424316406e+00 1.027987766265869141e+01 1.089678071082914035e-13 4.670048730863983477e-14 4.670048730863983477e-14 -2.763402808176381592e-14
5.877000000000000000e+03 8.670468330383300781e+00 2.376012802124023438e+01 -8.682825644460226422e-14 4.889237886079866868e-13 1.206286589713889690e-13 1.083023632018518482e-15
5.878000000000000000e+03 8.475194931030273438e+00 1.031889533996582031e+01 -2.951209155527267924e-14 2.847331203280345502e-13 7.656630998708127689e-14 6.158658652499759967e-14
5.879000000000000000e+03 9.123464584350585938e+00 9.117639541625976562e+00 3.540300241551899707e-14 -1.220801346298039380e-13 -2.600313898665912449e-14 8.928390660264615142e-14
5.880000000000000000e+03 7.173559570312500000e+01 1.585662841796875000e+01 -2.331628813634356590e-13 2.775183782863926973e-13 1.330664365587624909e-14 1.182300378476178193e-13
5.881000000000000000e+03 7.079316711425781250e+01 -5.909990310668945312e+00 -4.841556300837213112e-14 -6.650047537377218321e-14 -3.447481354752236771e-14 2.158158363390477730e-13
5.882000000000000000e+03 7.016260528564453125e+01 8.933027267456054688e+00 -8.617749119562215232e-14 -4.029408100583720120e-13 -1.467354883433191759e-13 1.908604161217700157e-13
5.883000000000000000e+03 7.119203948974609375e+01 3.037929058074951172e+00 -1.054541314839639587e-13 5.563203342074285636e-16 -3.146934413902034711e-14 3.810157213606640836e-13
5.884000000000000000e+03 7.232555389404296875e+01 1.620872688293457031e+01 -2.087832673674377970e-13 -1.123540144384524431e-13 -9.634118183126164081e-14 1.794178920830249296e-14
5.885000000000000000e+03 7.175714874267578125e+01 -3.962649106979370117e+00 -6.889822235954176644e-14 -1.439051785720457666e-13 -6.384102231235533331e-14 3.578822080265581240e-13
5.886000000000000000e+03 6.948716735839843750e+01 -6.793808460235595703e+00 1.415415636259187426e-13 -9.946764820221304371e-14 1.262217411889194132e-14 2.952748180511111098e-13
5.887000000000000000e+03 6.814192199707031250e+01 -6.258752346038818359e+00 1.262516702510776967e-13 -3.233374668270422303e-13 -5.912573897278936008e-14 1.656384719054410093e-13
5.888000000000000000e+03 7.138710021972656250e+01 2.191752243041992188e+01 -2.091862924200049711e-13 -4.390032174589331149e-14 -7.592598696027491600e-14 -2.085989801031695734e-13
5.889000000000000000e+03 7.002501678466796875e+01 2.316856193542480469e+01 -2.094515424815035498e-13 -1.583913664289504641e-13 -1.103528753836416354e-13 -1.236607794245433989e-13
5.890000000000000000e+03 6.810061645507812500e+01 8.621642112731933594e+00 -1.123940621561986264e-13 -6.429312377626006381e-13 -2.265975899756397793e-13 1.364918784550403497e-13
5.891000000000000000e+03 6.830249786376953125e+01 7.392957210540771484e+00 -8.072392038670217485e-14 -6.293582733955804809e-13 -2.130246662662010904e-13 1.906853852335493871e-13
5.892000000000000000e+03 8.212224006652832031e+00 2.290351104736328125e+01 7.789565704702933191e-15 1.291534967081536811e-13 4.108291736860426868e-14 -3.250341551355555303e-14
5.893000000000000000e+03 9.443850517272949219e+00 2.227250099182128906e+01 -1.003460416973064873e-13 1.857492973452931628e-13 2.562097804964871828e-14 -2.496688057305410796e-14
5.894000000000000000e+03 6.806000518798828125e+01 6.008856296539306641e+00 -1.915111407131686594e-13 -7.225894687289124985e-13 -2.742301828326243474e-13 4.155985993715971549e-13
5.895000000000000000e+03 7.271226501464843750e+01 3.790380477905273438e+00 -2.158273288820761193e-13 -1.839993272762657783e-13 -1.199479968475025693e-13 3.854826885214129861e-13
5.896000000000000000e+03 7.129117584228515625e+01 1.482219314575195312e+01 -2.745513506211688659e-13 2.025917817836606072e-13 -2.158787302294472993e-14 2.010845510285255711e-13
5.897000000000000000e+03 6.583348846435546875e+01 -6.950006008148193359e+00 2.669710698170735252e-13 -4.345952037913131116e-13 -5.028723815939280251e-14 3.256207423921880784e-13
5.898000000000000000e+03 6.911879730224609375e+01 6.206308364868164062e+00 -1.656749824135994587e-13 -3.340715291205720305e-13 -1.499239507497460155e-13 3.264465520819159750e-13
5.899000000000000000e+03 6.923799896240234375e+01 1.133247756958007812e+01 -1.918727899003283555e-13 -3.567368839565987493e-13 -1.645829062228362782e-13 1.548762068028994299e-13
5.900000000000000000e+03 6.659719848632812500e+01 1.687258601188659668e+00 -1.490640157966391377e-13 -6.128959644489950787e-13 -2.285879818764158244e-13 8.932142677407772791e-14
5.901000000000000000e+03 6.551803588867187500e+01 5.596891641616821289e-01 -1.051147084413402155e-13 -5.940605537872734043e-13 -2.097525712146941501e-13 5.218938616772389461e-14
5.902000000000000000e+03 6.780155944824218750e+01 4.908370971679687500e+00 -1.090579788477243073e-13 -5.328429754716812461e-13 -1.925702842629425926e-13 2.661927210774461816e-13
5.903000000000000000e+03 7.818493366241455078e+00 1.040496158599853516e+01 -7.956661588273683527e-14 2.404057042413448864e-13 4.825172989571420434e-14 1.505498403351311631e-14
5.904000000000000000e+03 6.105254364013671875e+01 -4.593039035797119141e+00 7.977014095930309856e-15 -4.083398116166980785e-13 -1.201088382397907939e-13 -1.157851348436086947e-13
5.905000000000000000e+03 6.122637557983398438e+01 -5.842472553253173828e+00 -7.255380485459407233e-17 -3.660386880752208860e-13 -1.098333731364316279e-13 -5.717303665003434232e-14
5.906000000000000000e+03 6.251185989379882812e+01 -7.467273712158203125e+00 1.826315384730395341e-13 -8.185765704594311076e-14 3.023216442812892701e-14 1.741100888680638392e-13
5.907000000000000000e+03 6.856840515136718750e+01 9.265637397766113281e+00 -1.511245555779749949e-13 -3.621488417308860175e-13 -1.539820246136691662e-13 2.295743348028345121e-13
5.908000000000000000e+03 7.041038990020751953e+00 1.225400257110595703e+01 7.350173123138806219e-14 1.230026416007903856e-13 5.895131117202717652e-14 8.139069117025360400e-14
5.909000000000000000e+03 6.666011810302734375e+01 2.749425649642944336e+00 -2.275730602227521437e-13 -6.922936616332586723e-13 -2.759600273988249697e-13 1.879944767566033015e-13
5.910000000000000000e+03 8.364136695861816406e+00 2.818298149108886719e+01 8.897629134125770167e-14 4.956422100001189879e-13 1.753855443037757866e-13 2.477866815810830792e-14
5.911000000000000000e+03 6.957828521728515625e+01 -7.863481521606445312e+00 3.423652420592171453e-13 -3.627582921008308536e-14 9.182682825931154369e-14 2.680668458477503124e-13
5.912000000000000000e+03 6.192924880981445312e+01 -7.580116748809814453e+00 1.784661014889860065e-13 -2.895221226390659597e-13 -3.331680431214491256e-14 3.443939740593177090e-14
5.913000000000000000e+03 7.115830230712890625e+01 6.873502731323242188e+00 -1.347718594710278772e-13 -1.492612728293957192e-13 -8.520994240063251013e-14 3.483353471118999511e-13
5.914000000000000000e+03 8.512921333312988281e+00 9.674730300903320312e+00 1.428089756367635632e-14 1.204977551115885004e-13 4.043359546376627811e-14 8.511149006710724829e-14
5.915000000000000000e+03 6.914838409423828125e+01 8.787375450134277344e+00 -2.595116233451016940e-13 -5.630098709290265457e-13 -2.467564455717330407e-13 2.118147779568702038e-13
5.916000000000000000e+03 7.072563934326171875e+01 1.048250007629394531e+01 -3.311459992935000818e-13 1.211482493100254909e-13 -6.299932228453694605e-14 3.077924200234338770e-13
5.917000000000000000e+03 6.973968505859375000e+01 1.278670501708984375e+01 -3.455522272401839734e-13 -5.141014025079881922e-13 -2.578960807929353560e-13 1.463533477350995038e-13
5.918000000000000000e+03 7.156381988525390625e+01 1.415747642517089844e+01 -1.735673237079904396e-13 -5.151052314181746306e-14 -6.752335236087647630e-14 1.833362292275736438e-13
5.919000000000000000e+03 6.949688720703125000e+01 1.750175285339355469e+01 -3.422614025961473461e-13 -3.411249960890566646e-13 -2.050159087635394783e-13 1.548548073625199972e-13
5.920000000000000000e+03 7.021749877929687500e+01 -7.389122009277343750e+00 1.724570735783109710e-13 -6.334266878377237120e-14 3.273432347124065334e-14 2.965048454157959146e-13
5.921000000000000000e+03 7.063670349121093750e+01 1.209987258911132812e+01 -1.814200645180313876e-13 -1.692533510263063978e-13 -1.052020205975431888e-13 1.684469756605203039e-13
5.922000000000000000e+03 7.033335113525390625e+01 -5.052881240844726562e-01 -5.840346381427025113e-14 -2.503005567839212270e-14 -2.503005567839212270e-14 4.058049198323726570e-13
5.923000000000000000e+03 6.604347991943359375e+01 1.139341235160827637e+00 -1.819970227041195487e-13 -3.982553761598672804e-13 -1.740757196591960487e-13 9.120741000564341894e-14
5.924000000000000000e+03 6.555118560791015625e+01 -4.603269994258880615e-01 -9.012835101721364262e-14 -5.990755851462137294e-13 -2.067611761056437070e-13 2.732164402488232446e-14
5.925000000000000000e+03 6.601084136962890625e+01 1.299421787261962891e-01 -1.142482782641104921e-14 -2.794020440358147006e-13 -8.724805952578865154e-14 1.833835275473483239e-13
5.926000000000000000e+03 6.553435516357421875e+01 -6.315255641937255859e+00 2.099772721149417709e-13 -1.273267515727871668e-13 2.479515988959134914e-14 1.815380934770335908e-13
5.927000000000000000e+03 6.407154846191406250e+01 -6.329144001007080078e+00 1.041758300175492369e-13 -3.213608036362752829e-13 -6.515549547374960282e-14 4.951745122879630534e-14
5.928000000000000000e+03 6.927972412109375000e+01 2.150546264648437500e+01 -3.583072965933353782e-13 -3.823150021391164000e-13 -2.221866896197355334e-13 -7.924206673866687756e-14
5.929000000000000000e+03 6.956351470947265625e+01 1.930494880676269531e+01 -3.956163196518203140e-13 -3.983045989384981223e-13 -2.381762864191172557e-13 -7.327425206307344729e-14
5.930000000000000000e+03 7.091551971435546875e+01 -3.037437051534652710e-02 -1.068241225728530641e-13 -1.830346177357153326e-13 -8.695762209257051900e-14 3.269345243746973884e-13
5.931000000000000000e+03 1.015007019042968750e+01 2.615447425842285156e+01 -8.432714433421334421e-14 3.527428728885423359e-13 8.052471179003511947e-14 -6.136102503927556850e-14
5.932000000000000000e+03 6.913013458251953125e+01 1.816347694396972656e+01 -4.572441600694809871e-13 -6.077203085382010261e-13 -3.194893622663480537e-13 -6.965022498637771231e-14
5.933000000000000000e+03 7.098556518554687500e+01 1.150905990600585938e+01 -3.692798833648119894e-13 -1.582628071563479955e-13 -1.582628071563479955e-13 4.048578421296522567e-13
5.934000000000000000e+03 6.035360717773437500e+01 -6.625819206237792969e+00 2.783901683126293464e-14 -4.227029967371342956e-13 -1.184591975292997867e-13 -7.107932542245801177e-14
5.935000000000000000e+03 6.083930587768554688e+01 -8.112404823303222656e+00 1.751336434815259357e-13 -1.994484086350820085e-13 -7.294429207253642911e-15 2.988521295666998756e-14
5.936000000000000000e+03 7.087517547607421875e+01 2.704586982727050781e+01 -6.627170871537774177e-14 -5.526686692926968680e-15 -2.153951930011777094e-14 -1.696116798443128570e-13
5.937000000000000000e+03 6.778169250488281250e+01 2.876311683654785156e+01 1.298843980502076279e-13 -3.846881309593069842e-13 -7.644112529374066933e-14 -1.167348146315430601e-13
5.938000000000000000e+03 7.040336608886718750e+01 2.844169235229492188e+01 1.043127647519341561e-13 -6.967190225356384436e-14 1.039225824129132517e-14 -2.422044498556069625e-13
5.939000000000000000e+03 7.844081878662109375e+00 2.140963172912597656e+01 -6.011988460232278730e-14 4.572019236185990987e-14 -4.319906994512505427e-15 -1.848311102423377122e-14
5.940000000000000000e+03 8.285593032836914062e+00 1.995986938476562500e+01 -4.202383205960044665e-14 6.777281372823823480e-14 7.724694839404515345e-15 -7.926438097462934484e-14
5.941000000000000000e+03 1.012441253662109375e+01 2.843134117126464844e+01 -7.550076286822610117e-14 2.764614437985452033e-13 6.028820021333758383e-14 7.432939084107276217e-14
5.942000000000000000e+03 8.843000411987304688e+00 2.311042213439941406e+01 -4.393354576621641416e-14 1.641751377857644800e-13 3.607247692823806196e-14 3.836997587063420423e-14
5.943000000000000000e+03 8.885599136352539062e+00 2.955857849121093750e+01 2.958852780843290731e-14 3.901261366907882167e-13 1.259144020602717684e-13 5.927634820707475272e-14
5.944000000000000000e+03 9.608361244201660156e+00 3.087637710571289062e+01 8.604934866322973275e-15 3.353822211268897568e-13 1.031961449344913351e-13 7.934928755726211591e-14
5.945000000000000000e+03 6.939821624755859375e+01 2.005857658386230469e+01 -4.049136514364809480e-13 -3.336627306914363711e-13 -2.215729227698914894e-13 -7.082794637250366954e-14
5.946000000000000000e+03 6.979544067382812500e+01 2.398992156982421875e+01 -9.263412519694425029e-14 -1.083267590212821929e-13 -6.028826797597336418e-14 -1.330342628592939835e-13
5.947000000000000000e+03 1.167384529113769531e+01 3.042570304870605469e+01 -2.711256071811617846e-14 2.857614860886370511e-13 7.759468252394735588e-14 -3.945593309538641957e-14
5.948000000000000000e+03 7.044453430175781250e+01 2.554301643371582031e+01 -1.147568910557505983e-13 -1.864343640405052849e-13 -9.035737517362404936e-14 -2.181158357227042099e-13
5.949000000000000000e+03 6.622415161132812500e+01 2.938352012634277344e+01 7.818103261135467275e-14 -4.468788078297591948e-13 -1.106093298550159254e-13 -1.079067458759248865e-13
5.950000000000000000e+03 4.136279678344726562e+01 2.681921958923339844e+01 -3.788576101600681090e-14 -3.911223084231314762e-14 -2.309939654105645085e-14 2.269661712804398046e-14
5.951000000000000000e+03 3.752507019042968750e+01 2.517540740966796875e+01 1.599248348766596495e-14 5.260486938087928499e-14 2.057920586056357498e-14 -1.139697314794059155e-14
5.952000000000000000e+03 1.177343368530273438e+01 3.321482086181640625e+01 4.176733693064468844e-14 2.924059919976601529e-13 1.002519939351069478e-13 1.516869312448432261e-14
5.953000000000000000e+03 3.787290954589843750e+01 2.391518783569335938e+01 -1.394507610514433837e-13 -1.627042413559348644e-13 -9.064650478797162125e-14 -3.922815238334258214e-14
5.954000000000000000e+03 1.201919364929199219e+01 3.171989631652832031e+01 -3.609207388250573745e-14 2.132867179312908368e-13 5.315839185938281419e-14 -1.832108547988528513e-14
5.955000000000000000e+03 3.552497863769531250e+01 2.586544799804687500e+01 4.604121276667160617e-15 -4.806690391849152699e-14 -1.303883555487696244e-14 -2.222699495703188421e-14
5.956000000000000000e+03 6.879615783691406250e+01 3.244395065307617188e+01 1.632158085984949936e-13 -2.503070179512428828e-13 -2.612736314463754567e-14 -1.351152534041083486e-13
5.957000000000000000e+03 6.591341400146484375e+01 2.720625877380371094e+01 -1.908411478162858749e-14 -6.486922002162109901e-13 -2.003328872148685269e-13 -8.188992561310171059e-14
5.958000000000000000e+03 3.978932571411132812e+01 2.591535186767578125e+01 -8.789555183946057282e-14 -3.766952366896815507e-14 -3.766952366896815507e-14 -2.781767329505802078e-14
5.959000000000000000e+03 1.567766284942626953e+01 3.579251861572265625e+01 -7.867446996071177090e-15 1.681942887916954010e-13 4.809805440215975114e-14 -1.613917095940557017e-14
5.960000000000000000e+03 3.560693359375000000e+01 2.862600517272949219e+01 -5.045874200242106422e-14 -8.757720975282809461e-15 -1.776493889331116210e-14 -2.098689637060422580e-14
5.961000000000000000e+03 1.894154930114746094e+01 3.573788833618164062e+01 -1.538496265877497410e-14 -2.946902840023427061e-14 -1.345619748710936286e-14 -1.724247541891755359e-14
5.962000000000000000e+03 8.532784461975097656e+00 1.157434082031250000e+01 6.249433479391108825e-14 1.640361295147246823e-13 6.795914064784344677e-14 1.305024068410515214e-13
5.963000000000000000e+03 7.999648094177246094e+00 1.107641124725341797e+01 1.778747098614766320e-13 3.049867487465302007e-13 1.448584362271493342e-13 2.743167191066476357e-14
5.964000000000000000e+03 6.381950759887695312e+01 -2.022247076034545898e+00 -1.155573033095880220e-13 -6.442868699489678885e-13 -2.279532628195884980e-13 -1.664461076562526176e-13
5.965000000000000000e+03 6.392347335815429688e+01 -3.257585048675537109e+00 -1.721836886123869620e-14 -7.794265450070114731e-13 -2.389934767015738926e-13 1.052993345187873409e-13
5.966000000000000000e+03 6.643414306640625000e+01 -4.764896869659423828e+00 1.627739148980442141e-13 -3.877492402680482453e-13 -6.749260167675935618e-14 2.869227750355862749e-13
5.967000000000000000e+03 7.176651763916015625e+01 -3.183547019958496094e+00 -2.711404810797155701e-14 -1.031222023463278237e-13 -3.907087530569640366e-14 -7.200113443829592175e-14
5.968000000000000000e+03 7.156916046142578125e+01 -5.698558330535888672e+00 -2.877760218165416328e-14 -2.410879926684900143e-13 -8.095968014910914778e-14 2.785488853462858572e-13
5.969000000000000000e+03 6.382945251464843750e+01 -5.747713565826416016e+00 1.144193653669287047e-13 -4.084726263828275528e-13 -8.821598101527508562e-14 6.204539377933915301e-14
5.970000000000000000e+03 7.128598785400390625e+01 5.417224884033203125e+00 -1.292875854118358259e-13 -2.384127509129363442e-13 -1.103101036079370822e-13 2.856349325900536806e-13
5.971000000000000000e+03 7.042048645019531250e+01 7.890736579895019531e+00 -8.724856096929342608e-14 -3.576488877190392435e-13 -1.334692312183680118e-13 2.040989312236327069e-13
5.972000000000000000e+03 8.970875740051269531e+00 2.155289459228515625e+01 -1.095904102058412044e-13 5.740203370139043693e-14 -1.565651295133523024e-14 -8.369662656080439911e-14
5.973000000000000000e+03 6.390935897827148438e+01 -4.158635616302490234e+00 1.473236951269468742e-14 -4.797899816159911790e-13 -1.395172768547253694e-13 1.466441985203958964e-13
5.974000000000000000e+03 6.271691131591796875e+01 -6.087940692901611328e+00 1.392165598296593587e-13 -2.148414502941078941e-13 -2.268746578408184500e-14 2.008126060186118944e-13
5.975000000000000000e+03 6.942794036865234375e+01 -5.306989669799804688e+00 1.496679570642950319e-13 -1.646113258722825545e-13 -4.483010811802846246e-15 2.541412718291835571e-13
5.976000000000000000e+03 7.111345672607421875e+01 -3.200821161270141602e+00 -1.749357223749387069e-13 -3.037272039776994781e-13 -1.435988779057914555e-13 5.059023404190010620e-13
5.977000000000000000e+03 7.095367431640625000e+01 -6.499472618103027344e+00 2.409280999531027145e-13 1.175300650665999161e-14 7.580433270025846437e-14 1.691842195852832909e-13
5.978000000000000000e+03 6.615858459472656250e+01 -5.915269851684570312e+00 3.128874926077579444e-13 -3.234148517571033832e-13 -3.158210201199178682e-15 2.444413486728247431e-13
5.979000000000000000e+03 9.503630638122558594e+00 2.401465988159179688e+01 -9.326396534399539195e-14 2.345354271036936833e-13 4.238143581740405619e-14 -6.153743150900253811e-14
5.980000000000000000e+03 6.717429351806640625e+01 2.222826719284057617e+00 -2.205035470621147242e-13 -2.775053136502142470e-13 -1.494026663452149850e-13 3.279678503602390105e-13
5.981000000000000000e+03 6.779041290283203125e+01 2.750871181488037109e+00 -1.528134444071099773e-13 -4.200613381438733640e-13 -1.718624293442841400e-13 2.365851384158318416e-13
5.982000000000000000e+03 7.061886596679687500e+01 1.880033111572265625e+01 -4.216186048292686062e-13 -1.349427432859387488e-13 -1.669684085003203533e-13 -1.355650346753639601e-13
5.983000000000000000e+03 6.282939147949218750e+01 -3.953874111175537109e+00 -2.917674782332291272e-14 -4.928892580538524193e-13 -1.566198071841634620e-13 1.095311653333784496e-13
5.984000000000000000e+03 7.125660705566406250e+01 6.102761745452880859e+00 -1.523988726014058326e-13 7.193904353513039251e-14 -2.413794871988263202e-14 3.491648430890142984e-13
5.985000000000000000e+03 7.167233276367187500e+01 1.166833782196044922e+01 -2.397438530251511102e-13 2.632602252514160135e-13 7.054911159659702641e-15 1.759335678443857409e-13
5.986000000000000000e+03 6.648760986328125000e+01 -6.565422534942626953e+00 2.140641857566530359e-13 -3.200167453080993152e-13 -3.178576854306024158e-14 1.778736798694127708e-13
5.987000000000000000e+03 6.749600982666015625e+01 -6.765559673309326172e+00 2.885184495829418161e-13 -4.482360934244394857e-13 -4.791529179719658527e-14 2.462097637313115372e-13
5.988000000000000000e+03 7.116762542724609375e+01 7.678117752075195312e+00 -1.561885928751116648e-13 -6.693797127916081835e-14 -6.693797127916081835e-14 3.814338981385917426e-13
5.989000000000000000e+03 6.896808624267578125e+01 7.095699310302734375e+00 3.590577745608662663e-14 -2.934307256809848274e-13 -7.725748209577720793e-14 2.862384808344220488e-13
5.990000000000000000e+03 7.123336029052734375e+01 -4.736033082008361816e-01 -3.853440868261878705e-14 -1.623458989854012491e-13 -6.026409026752693743e-14 3.075971823172235498e-13
5.991000000000000000e+03 7.122381591796875000e+01 1.591469645500183105e+00 -2.672726406513503683e-13 -1.145454174220073007e-13 -1.145454174220073007e-13 3.544423868989676762e-13
5.992000000000000000e+03 6.766161346435546875e+01 1.678182959556579590e+00 -1.332553452347909340e-13 -5.146189464150241477e-13 -1.943622807186809465e-13 2.375954251052081467e-13
5.993000000000000000e+03 7.082006072998046875e+01 -9.971419572830200195e-01 -4.694929815469810197e-14 -1.001852883964447771e-13 -4.414037765940875824e-14 3.509177269513802377e-13
5.994000000000000000e+03 7.120998382568359375e+01 -1.868279695510864258e+00 -1.174879421181329597e-13 -1.876048144958120112e-13 -9.152782562893077567e-14 2.502983985439716230e-13
5.995000000000000000e+03 7.128239440917968750e+01 8.421804428100585938e+00 -1.023971963535867669e-13 -3.183901981038822493e-13 -1.262362203701197783e-13 4.299688047011002157e-13
5.996000000000000000e+03 7.101875305175781250e+01 1.374779319763183594e+01 -2.815204666606341277e-13 2.517951972413282752e-14 -7.690228391154380061e-14 2.508594460631785594e-13
5.997000000000000000e+03 7.142266082763671875e+01 1.660854721069335938e+01 -2.897399930656269218e-13 -3.529290304015580970e-13 -1.928007043296500744e-13 6.411377369763479606e-14
5.998000000000000000e+03 6.894525909423828125e+01 1.576045703887939453e+01 -4.197007867114133095e-13 -2.256227160397222820e-13 -1.935970508253406774e-13 1.203353145210958597e-13
5.999000000000000000e+03 7.005070495605468750e+01 4.421057701110839844e+00 -4.726477388183707162e-14 -1.575091782262533213e-13 -6.143218258310850777e-14 4.644798543181061223e-13
6.000000000000000000e+03 7.044834899902343750e+01 -5.362661361694335938e+00 1.539062388818124294e-13 -1.410434286318361721e-14 4.194056872088534893e-14 2.135962983091169165e-13
6.001000000000000000e+03 7.011545562744140625e+01 -6.369883537292480469e+00 1.793950323578444306e-13 7.688358820033200369e-14 7.688358820033200369e-14 2.993226597570314285e-13
6.002000000000000000e+03 6.349991607666015625e+01 -6.537427902221679688e+00 1.472623699415656628e-13 -2.342687133692622492e-13 -2.610190641644076492e-14 1.209164875431295583e-13
6.003000000000000000e+03 6.431857299804687500e+01 -6.947658061981201172e+00 2.492337120105908577e-13 -2.134421925228252581e-13 1.073745720158239547e-14 2.497822098896512744e-13
6.004000000000000000e+03 6.463919830322265625e+01 -6.053548812866210938e+00 1.740585350547621535e-13 -4.744148867155684179e-13 -9.010690414298916373e-14 1.855511593982714369e-13
6.005000000000000000e+03 7.205645751953125000e+01 1.688014411926269531e+01 -3.156484405450465935e-13 -4.377600441429069233e-14 -1.078273348430539014e-13 6.262337518122759739e-14
6.006000000000000000e+03 7.108589172363281250e+01 2.131374740600585938e+01 -3.094984392468941303e-13 -2.241440811168865510e-13 -1.600927506881233420e-13 -2.834634890908679233e-14
6.007000000000000000e+03 7.063614654541015625e+01 2.098803329467773438e+01 -3.324302096617548496e-13 -2.339719943397072788e-13 -1.699206639109440697e-13 -1.189686505776235692e-13
6.008000000000000000e+03 6.999141693115234375e+01 7.253796100616455078e+00 -2.366774582308189823e-13 -5.854168603873499688e-14 -8.856574463611890935e-14 5.263806426326900212e-13
6.009000000000000000e+03 6.974235534667968750e+01 1.223078441619873047e+01 -2.598369382069559697e-13 -2.943624890280188700e-13 -1.662598281704924519e-13 1.448842131338001771e-13
6.010000000000000000e+03 8.721630096435546875e+00 2.252768898010253906e+01 -1.113407258643110687e-13 8.953539407281774221e-14 -6.541600299777650465e-15 2.843593280765430165e-14
6.011000000000000000e+03 9.795924186706542969e+00 2.707118797302246094e+01 -1.867038662073990801e-14 1.978776707376936339e-13 5.376218743737178063e-14 8.795716162791206161e-14
6.012000000000000000e+03 6.996699523925781250e+01 2.153956604003906250e+01 -3.499321600715366021e-13 -2.872237766637225631e-13 -1.911467810205777496e-13 -1.981896668534852829e-14
6.013000000000000000e+03 7.059693145751953125e+01 1.447097492218017578e+01 -2.454450759390575110e-13 -1.368884609750107076e-14 -7.774017567923133254e-14 1.548719513093724243e-13
6.014000000000000000e+03 9.556337356567382812e+00 1.028504085540771484e+01 2.225381032607606085e-14 9.537347040594612579e-15 9.537347040594612579e-15 -1.271292641470689322e-13
6.015000000000000000e+03 9.362926483154296875e+00 1.071876144409179688e+01 1.145925802165104201e-13 -1.951531723221912318e-14 2.852317720122149458e-14 -5.274174312889200189e-14
6.016000000000000000e+03 6.905893707275390625e+01 2.593341064453125000e+01 -1.446825650822450293e-13 -1.876432088052451541e-13 -9.969773623200520185e-14 -2.130791474253684870e-13
6.017000000000000000e+03 6.972978973388671875e+01 2.517455863952636719e+01 -1.132223790634503957e-13 -2.336722395440693489e-13 -1.040683855822559234e-13 -1.793595518417498424e-13
6.018000000000000000e+03 7.047698974609375000e+01 -6.816296577453613281e+00 3.421153537872499706e-14 -3.570643672227979959e-13 -9.685585260254050977e-14 1.775905133670138691e-13
6.019000000000000000e+03 6.953205871582031250e+01 5.855747699737548828e+00 -4.971823191861346469e-14 -6.160701289392722657e-13 -1.997365082573657191e-13 1.784986546592148837e-13
6.020000000000000000e+03 6.652938079833984375e+01 6.723439693450927734e-01 -1.363616386690705284e-13 -6.817973919812092554e-13 -2.454477051293257883e-13 2.644448042162829415e-14
6.021000000000000000e+03 6.291691207885742188e+01 -6.704509258270263672e+00 2.523464835528510530e-13 -3.036100559329624193e-13 -1.537907239165976769e-14 1.188313092674239679e-13
6.022000000000000000e+03 6.645909118652343750e+01 -2.681053280830383301e-01 3.584424220653449622e-14 -4.178424912928274670e-13 -1.145994649003057031e-13 8.646554338406081675e-14
6.023000000000000000e+03 7.033616638183593750e+01 1.531192588806152344e+01 -3.456465528291902123e-13 -1.023832846844610622e-13 -1.344089498988426667e-13 1.197050000355942556e-13
6.024000000000000000e+03 7.210585021972656250e+01 3.454237222671508789e+00 -1.758558305486185303e-13 1.176450294603989533e-13 -1.746323931002633639e-14 3.070077287010974931e-13
6.025000000000000000e+03 6.960258483886718750e+01 1.058705520629882812e+01 -1.834714834485912105e-13 -3.531363298569373255e-13 -1.609823385706476984e-13 2.841958439414593585e-13
6.026000000000000000e+03 6.776519775390625000e+01 2.427902412414550781e+01 -1.461844561416805743e-13 -4.286580584846738651e-13 -1.724527503221481850e-13 -1.422802305660331168e-13
6.027000000000000000e+03 6.921827697753906250e+01 2.305547332763671875e+01 -2.457291369082487131e-13 -2.425653265487187626e-13 -1.464883444581011052e-13 -1.445818427004211260e-13
6.028000000000000000e+03 6.858211517333984375e+01 2.222354316711425781e+01 -2.917519470371082724e-13 -4.452931892575534567e-13 -2.211135327568822251e-13 -1.811997681891094891e-13
6.029000000000000000e+03 6.927863311767578125e+01 2.227043533325195312e+01 -2.396430493281642704e-13 -2.399570071722617604e-13 -1.438800250816441029e-13 -4.634620391998946209e-14
6.030000000000000000e+03 7.198517608642578125e+01 1.507716751098632812e+01 -1.579940063327345268e-13 6.954113391903493646e-14 -2.653586172410987709e-14 5.397296057486769896e-15
6.031000000000000000e+03 6.982550811767578125e+01 1.682560157775878906e+01 -4.349984727893690950e-13 -3.579939621654870674e-13 -2.378977277759514175e-13 1.461440831632826454e-14
6.032000000000000000e+03 3.686598205566406250e+01 2.679611206054687500e+01 -1.112898767824214985e-13 -1.506352957951137550e-13 -7.857755245088693385e-14 -2.379624546456488021e-14
6.033000000000000000e+03 9.629759788513183594e+00 3.413010787963867188e+01 1.680902663695089949e-14 3.503359711706788282e-13 1.101435023916075284e-13 4.356996195580518927e-14
6.034000000000000000e+03 6.911019134521484375e+01 2.780345916748046875e+01 -2.780212685234411535e-14 -1.949189914291979409e-13 -6.681633734793510082e-14 -2.018578311229965450e-13
6.035000000000000000e+03 6.820586395263671875e+01 2.673611068725585938e+01 3.991093547772890660e-14 -4.175293194953050291e-13 -1.132855202874705203e-13 -1.373171189386276914e-13
6.036000000000000000e+03 1.358611965179443359e+01 3.349046707153320312e+01 -7.976443195723860458e-15 2.710872162598604307e-13 7.893323174983438162e-14 -8.634781766285373056e-15
6.037000000000000000e+03 6.677854156494140625e+01 3.293643951416015625e+01 1.829957626403588833e-13 -3.104563047612307614e-13 -3.823816737964606804e-14 -1.010802905135679830e-13
6.038000000000000000e+03 3.408158111572265625e+01 3.029600524902343750e+01 -4.355616887129210024e-14 -9.587165452793963705e-14 -4.182834701976952119e-14 -4.320856687852966949e-14
6.039000000000000000e+03 6.914048767089843750e+01 -6.275988578796386719e+00 9.884955809620621370e-14 -3.770006428891435613e-14 1.834484814218755727e-14 3.219805064930136851e-13
6.040000000000000000e+03 6.300722885131835938e+01 -4.648503780364990234e+00 -3.620682990619975006e-14 -4.272757549248634712e-13 -1.390447815479561866e-13 -1.066266080420805173e-13
6.041000000000000000e+03 7.109752655029296875e+01 4.823995113372802734e+00 -1.374912418075288634e-13 -1.161134990240730858e-13 -7.608142089422786913e-14 4.570343669491050420e-13
6.042000000000000000e+03 7.062484741210937500e+01 5.962902545928955078e+00 -1.551654583899914064e-13 -4.325070846172146544e-13 -1.763017629021618182e-13 3.839290268082412583e-13
6.043000000000000000e+03 6.714075469970703125e+01 -6.154379844665527344e+00 3.984328600555031574e-13 -2.638770820774516412e-13 4.036673745917360168e-14 2.040316971364114496e-13
6.044000000000000000e+03 7.011341857910156250e+01 1.610670471191406250e+01 -3.085506568127616145e-13 -2.694888312070736758e-13 -1.734118491164560183e-13 7.555486455663312784e-14
6.045000000000000000e+03 6.449044799804687500e+01 -2.306435823440551758e+00 -4.675136688371550608e-14 -6.147986308414898904e-13 -1.984649966070561877e-13 2.449215418150185730e-13
6.046000000000000000e+03 7.047145080566406250e+01 2.229479312896728516e+00 -1.372959498912099119e-13 -5.884112234998475910e-14 -5.884112234998475910e-14 4.118334904872067437e-13
6.047000000000000000e+03 6.977890014648437500e+01 2.175465583801269531e+00 -1.124211130004021397e-13 -2.540597398258126471e-13 -1.099442599136225829e-13 2.884629926418191825e-13
6.048000000000000000e+03 6.777071380615234375e+01 -5.730817794799804688e+00 1.733669902515694305e-13 -2.459564941038189234e-13 -2.177685284974074237e-14 1.926447147420837225e-13
6.049000000000000000e+03 7.005557250976562500e+01 5.796042442321777344e+00 -1.354894522314145644e-13 -1.038178535652488355e-13 -7.179218835086723094e-14 5.656935423564712906e-13
6.050000000000000000e+03 7.044329833984375000e+01 6.655930042266845703e+00 -1.850044640053227774e-13 -1.066120221347287983e-14 -5.869969495284760308e-14 4.209690050976239162e-13
6.051000000000000000e+03 7.107760620117187500e+01 -3.931103944778442383e+00 1.191427598939975852e-13 1.196875985907258633e-13 7.164910754541703453e-14 9.778574570082701478e-14
6.052000000000000000e+03 7.091668701171875000e+01 -4.705428600311279297e+00 -4.059149934579342478e-14 -3.834039476961065285e-13 -1.271986395335808484e-13 3.247638432051641599e-13
6.053000000000000000e+03 6.913557434082031250e+01 1.159965634346008301e+00 -1.759444911812735324e-13 -3.928020018625910659e-13 -1.706239452026539483e-13 3.160309199664451674e-13
6.054000000000000000e+03 6.848814392089843750e+01 3.264923810958862305e+00 -1.004790800801340367e-13 -4.090700488849213778e-13 -1.528647407223956978e-13 2.809590667757211335e-13
6.055000000000000000e+03 7.064719390869140625e+01 1.522287011146545410e+00 -1.954116393438481980e-13 -5.412573059020153732e-13 -2.210006944157807962e-13 3.648170090672642196e-13
6.056000000000000000e+03 7.057399749755859375e+01 5.444023609161376953e-01 -2.103147706987093524e-13 -2.731386894005288779e-13 -1.450360420955296159e-13 3.344136220110455193e-13
6.057000000000000000e+03 6.968023681640625000e+01 -9.098423719406127930e-01 -1.234922944069391515e-13 -2.130535873591521412e-13 -1.009637658850801034e-13 3.358393749729182698e-13
6.058000000000000000e+03 7.055822753906250000e+01 -1.697984933853149414e+00 -9.751802230312245356e-14 -2.247972316106461310e-13 -9.669457752938329098e-14 3.572349935396929022e-13
6.059000000000000000e+03 7.108863067626953125e+01 8.996571540832519531e+00 -4.471784406526527200e-14 -1.506987622797856252e-13 -5.862497987063619576e-14 3.430291532595386439e-13
6.060000000000000000e+03 8.845911026000976562e+00 2.047302055358886719e+01 -1.186284008308433058e-13 1.321630522035932565e-13 4.060395157715101025e-15 -9.691925132457659964e-14
6.061000000000000000e+03 7.115235137939453125e+01 1.734707641601562500e+01 -2.338606738816473296e-13 -5.447505375391278881e-14 -8.650071896829439333e-14 1.142171498032988966e-14
6.062000000000000000e+03 7.088597106933593750e+01 1.807693862915039062e+01 -3.730987144668490574e-13 -3.429032502822587647e-13 -2.148005894247323466e-13 -9.325962853530544994e-14
6.063000000000000000e+03 6.842125701904296875e+01 4.553505897521972656e+00 -1.166125979416496317e-13 -2.329806269782408457e-13 -1.048779661207144276e-13 2.553659323931145586e-13
6.064000000000000000e+03 6.624378204345703125e+01 -1.734771728515625000e+00 -1.104229216202477770e-13 -3.675807488251470190e-13 -1.434011058770029434e-13 1.605101820770574172e-13
6.065000000000000000e+03 7.016379547119140625e+01 3.755831718444824219e+00 -1.867910801077801719e-13 -3.545590199476728044e-13 -1.624050286613831773e-13 3.964325883624303382e-13
6.066000000000000000e+03 6.997901916503906250e+01 1.165777778625488281e+01 -2.130434636213665578e-13 -3.200590834029348741e-13 -1.599307573310268515e-13 2.880585039163191530e-13
6.067000000000000000e+03 7.057749938964843750e+01 2.153645706176757812e+01 -3.136667629192319007e-13 -2.259305074839637606e-13 -1.618791770552005516e-13 -2.562237802570394019e-13
6.068000000000000000e+03 6.960758972167968750e+01 9.418473243713378906e+00 -1.174399255144190080e-13 1.543559320616415265e-14 -3.060129799841056208e-14 3.883198829764816784e-13
6.069000000000000000e+03 6.975672912597656250e+01 8.326489448547363281e+00 -2.404393958238548734e-13 -1.144831977698337888e-13 -1.064767848543701767e-13 4.281534165834904870e-13
6.070000000000000000e+03 6.864375305175781250e+01 5.302152633666992188e+00 -1.334992229609643921e-13 -4.918479902873973408e-13 -1.876041504219813638e-13 2.484152748956358625e-13
6.071000000000000000e+03 7.047639465332031250e+01 -3.187956094741821289e+00 1.134255890437602804e-14 -3.153955503883143496e-13 -9.121589388764311801e-14 1.569773635081220253e-13
6.072000000000000000e+03 7.186184692382812500e+01 2.886450290679931641e+00 -2.574548105087337557e-13 7.266601464430907931e-14 -5.543664282508554975e-14 4.809390732884999409e-13
6.073000000000000000e+03 6.934458160400390625e+01 7.705207347869873047e+00 -1.753747564921595559e-13 -2.124134608439895433e-13 -1.163364652008447298e-13 7.966898489661020100e-14
6.074000000000000000e+03 6.176834869384765625e+01 -5.018465518951416016e+00 -4.347494857604577989e-14 -4.761415870954688323e-13 -1.558849620567070993e-13 -8.477817921423089209e-14
6.075000000000000000e+03 6.210574340820312500e+01 -6.255414485931396484e+00 1.103442356475796415e-13 -3.415926666961582869e-13 -6.937453270270538264e-14 -1.266410987307755448e-14
6.076000000000000000e+03 6.570201873779296875e+01 -1.432787299156188965e+00 1.481298841454845722e-14 -4.054101076112620605e-13 -1.171791342343547759e-13 6.245563555261693378e-14
6.077000000000000000e+03 6.917395782470703125e+01 -2.569675922393798828e+00 2.280306037039363937e-14 -2.647329512724116984e-13 -7.257896676238564937e-14 4.658402027839236847e-13
6.078000000000000000e+03 6.361976242065429688e+01 -5.209302425384521484e+00 2.048147621554891051e-13 -4.612336445934672735e-13 -7.692565524462444126e-14 1.566570071771409764e-15
6.079000000000000000e+03 7.112348175048828125e+01 -2.512362241744995117e+00 -1.221661118620820385e-13 -3.268625875605529751e-13 -1.347086098267905041e-13 2.038637000097848206e-13
6.080000000000000000e+03 7.154426574707031250e+01 9.433910369873046875e+00 -1.729726252638549844e-13 6.312171515728340343e-14 -3.295527370959783209e-14 3.938998920875041998e-13
6.081000000000000000e+03 6.403227996826171875e+01 -4.994465827941894531e+00 2.035685632377753213e-14 -4.945360527336406520e-13 -1.422537624804973144e-13 1.183939963211519397e-13
6.082000000000000000e+03 6.918121337890625000e+01 2.455563163757324219e+01 -1.572198182189440963e-13 -2.503837252549462322e-13 -1.222810643974198141e-13 -2.252044172890502183e-13
6.083000000000000000e+03 7.071052551269531250e+01 2.220867919921875000e+01 -2.563891210883434413e-13 -6.413009771659428093e-14 -9.615576293097588545e-14 -1.190171279672608273e-13
6.084000000000000000e+03 6.456031036376953125e+01 3.118909072875976562e+01 1.669186978307118929e-13 -5.117879861224472471e-13 -1.034607919085314687e-13 -5.839336040527540184e-14
6.085000000000000000e+03 6.387032699584960938e+01 2.758010673522949219e+01 1.622407076577476320e-14 -7.593752016088473056e-13 -2.229453465374051091e-13 4.030620170849923134e-14
6.086000000000000000e+03 3.860752105712890625e+01 2.772764205932617188e+01 -1.573841595513703756e-14 -1.818277177586223592e-14 -1.017635631929978204e-14 -1.144517016967230849e-14
6.087000000000000000e+03 3.729898452758789062e+01 2.977449226379394531e+01 -8.372251866393606856e-14 -9.878863271037610638e-14 -5.475334473466729468e-14 2.313691840655392185e-14
6.088000000000000000e+03 6.719928741455078125e+01 3.503570175170898438e+01 2.113898384678916664e-13 -3.211628825296880541e-13 -3.293191254091255848e-14 -9.083130027200819745e-14
6.089000000000000000e+03 3.338372421264648438e+01 3.356513977050781250e+01 -7.374407074572930654e-14 -1.202470604642555396e-13 -5.819734342875360067e-14 -3.847236860143009307e-14
6.090000000000000000e+03 3.038414382934570312e+01 3.490563201904296875e+01 -4.597452586273427511e-14 -8.265630408311845645e-15 -1.627204671190724677e-14 -3.458699459105672724e-14
6.091000000000000000e+03 6.824581909179687500e+01 2.171668291091918945e+00 -3.222282737944809350e-14 -2.883154869362525297e-13 -9.616148887369932452e-14 3.456737663037195984e-13
6.092000000000000000e+03 6.679573822021484375e+01 -5.493637084960937500e+00 1.189621995746972805e-13 -3.607747510025322013e-13 -7.254376407309776065e-14 1.393646753989480347e-13
6.093000000000000000e+03 6.425018310546875000e+01 -2.856034278869628906e+00 7.282228205868213067e-14 -5.635527851668986621e-13 -1.472191509324649594e-13 -8.899766367658282218e-14
6.094000000000000000e+03 6.539279174804687500e+01 -2.053253650665283203e+00 -4.468598885018493228e-14 -3.851587289122743174e-13 -1.289534207497486373e-13 2.714315046597332026e-13
6.095000000000000000e+03 6.484843444824218750e+01 -5.131508827209472656e+00 1.307966847216525050e-14 -6.005944981797572968e-13 -1.762544510298599820e-13 1.807089634181524573e-13
6.096000000000000000e+03 6.437091827392578125e+01 -3.706841230392456055e+00 1.647623281298554732e-13 -3.640215841434202293e-13 -5.977777815932214245e-14 3.899207074841565257e-14
6.097000000000000000e+03 7.072897338867187500e+01 5.296652317047119141e+00 -1.115254468094482865e-13 4.370527716319495826e-14 -2.034605157150235627e-14 4.463640828483717016e-13
6.098000000000000000e+03 7.012763977050781250e+01 9.982741355895996094e+00 -1.901003090836947407e-13 -5.046678136153004424e-13 -2.084304408754567017e-13 1.012174691934417115e-13
6.099000000000000000e+03 7.070101928710937500e+01 8.539699554443359375e+00 -2.366781087521224736e-13 -2.386863222261087492e-13 -1.426093265829639356e-13 3.624825049494684315e-13
6.100000000000000000e+03 6.328807067871093750e+01 -5.929316997528076172e+00 2.719649321285960708e-13 -3.409530958346090879e-13 -2.069644369079304269e-14 2.106291080135672122e-14
6.101000000000000000e+03 6.997024536132812500e+01 1.180560290813446045e-01 -9.810626296806804203e-14 -3.165512285890209609e-13 -1.243972508552584899e-13 3.889081168651636888e-13
6.102000000000000000e+03 6.191884613037109375e+01 -5.645077705383300781e+00 1.012266035967449018e-13 -2.768738200948500650e-13 -5.269416359417883333e-14 9.846020076727593495e-14
6.103000000000000000e+03 6.931187438964843750e+01 3.595167160034179688e+00 -1.011918210357988512e-13 -4.093755228470191687e-13 -1.531702011319663326e-13 2.889880717539539123e-13
6.104000000000000000e+03 6.887897491455078125e+01 2.592749834060668945e+00 -1.062797649908388264e-13 -5.373711458450669554e-13 -1.930952820599143860e-13 2.919864057569082627e-13
6.105000000000000000e+03 6.728272247314453125e+01 -2.921252548694610596e-01 -1.170904600491726177e-13 -3.246873256368409955e-13 -1.325333343505513684e-13 1.506542286755507831e-13
6.106000000000000000e+03 6.479431152343750000e+01 -1.698292732238769531e+00 -2.170910715461934343e-14 -3.066850701345658070e-13 -9.851825301734895568e-14 2.003931553031315649e-14
6.107000000000000000e+03 6.698759460449218750e+01 -1.355343937873840332e+00 -6.707739967854245422e-14 -3.032531365777801913e-13 -1.110991656202812983e-13 2.757294718068459272e-13
6.108000000000000000e+03 7.049525451660156250e+01 -2.467374086380004883e+00 -5.235126432833955845e-14 -2.511909950875246267e-13 -9.106268256814376016e-14 3.822102139991456760e-13
6.109000000000000000e+03 7.073898315429687500e+01 4.196160793304443359e+00 -1.130862981382763088e-13 -1.285297145407413022e-13 -7.248480380370528331e-14 3.535396801701562453e-13
6.110000000000000000e+03 7.038605499267578125e+01 3.030844926834106445e+00 -1.519376529972304990e-13 -1.108670853689971980e-13 -7.884142015461559350e-14 3.997888717126307778e-13
6.111000000000000000e+03 7.044850921630859375e+01 -3.872514247894287109e+00 -3.159255355152795763e-14 -1.965434650967601282e-13 -6.844080423923371015e-14 4.378557249846287691e-13
6.112000000000000000e+03 6.923352813720703125e+01 -4.667876243591308594e+00 6.342638274401540821e-14 -3.845758076142374859e-13 -9.634482746106662332e-14 2.793701413868893146e-13
6.113000000000000000e+03 6.755773162841796875e+01 6.230766177177429199e-01 -1.505943129529938029e-13 -3.390461197384786463e-13 -1.468921284521890191e-13 2.339180823866804371e-13
6.114000000000000000e+03 6.359914016723632812e+01 -4.668697357177734375e+00 2.192999471253842536e-13 -4.092747462550866411e-13 -5.699244244941614745e-14 9.736281876213115360e-14
6.115000000000000000e+03 6.877259826660156250e+01 -5.746841907501220703e+00 1.323144068268722329e-13 -1.720485733047727450e-13 -1.192024807989766969e-14 2.075017810571413990e-13
6.116000000000000000e+03 6.743501281738281250e+01 -5.117492675781250000e+00 2.087975246260059814e-13 -2.765229451667794436e-13 -2.031762175766071293e-14 2.681694113732674412e-13
6.117000000000000000e+03 6.725501251220703125e+01 -8.113133311271667480e-01 1.218406479224290462e-13 -4.281675383167871107e-13 -9.189806711830741937e-14 2.456624313695865425e-13
6.118000000000000000e+03 6.652368927001953125e+01 -1.134135723114013672e+00 1.004916500490712905e-13 -3.229397543651202351e-13 -6.673442587380382096e-14 1.042064926102398426e-13
6.119000000000000000e+03 6.434465026855468750e+01 -5.489808082580566406e+00 6.104762284879147738e-14 -2.483424165096448366e-13 -5.618844216401415459e-14 -1.858419932429088844e-14
6.120000000000000000e+03 6.977888488769531250e+01 -5.838468074798583984e+00 1.878919925462491092e-13 -3.426711497021839303e-13 -4.643374308102229953e-14 2.680782028655070981e-13
6.121000000000000000e+03 6.982978057861328125e+01 -3.884068012237548828e+00 1.330288198255749274e-14 -2.230535092566376942e-13 -6.292518996099324968e-14 2.382289786447000512e-13
6.122000000000000000e+03 6.509369659423828125e+01 -2.660174608230590820e+00 -1.374395660214827730e-13 -4.249102697299889098e-13 -1.687049480149360736e-13 2.844683242761956998e-14
6.123000000000000000e+03 6.579746246337890625e+01 -5.271288871765136719e+00 1.076555633376143073e-13 -6.401261356918375167e-13 -1.597411710286406050e-13 1.246223854363751049e-13
6.124000000000000000e+03 7.010601043701171875e+01 1.141578793525695801e+00 -2.341216684496189027e-13 -2.833416552598666538e-13 -1.552389944023402357e-13 4.036300915895296715e-13
6.125000000000000000e+03 7.001827239990234375e+01 2.085405158996582031e+01 -3.363329038018336714e-13 -3.042709855773095828e-13 -1.921811776557647011e-13 -1.364286288108029765e-13
6.126000000000000000e+03 6.149287414550781250e+01 3.557803344726562500e+01 2.062127188841647585e-13 -5.635741439496966265e-13 -1.072084248091541292e-13 1.269895342039580738e-14
6.127000000000000000e+03 6.983797454833984375e+01 -1.685906529426574707e+00 8.756577480804016156e-15 -1.792509825467025752e-13 -5.114831830104436816e-14 3.907333983275973477e-13
6.128000000000000000e+03 6.442658996582031250e+01 -4.616037845611572266e+00 9.052840806633363768e-14 -3.529446158077875761e-13 -7.872486164480982374e-14 -8.141345263961222156e-14
6.129000000000000000e+03 6.789252471923828125e+01 -3.636213392019271851e-02 -4.455129367091255344e-14 -2.020972094101541883e-13 -7.399454855262777020e-14 3.733330376613774870e-13
6.130000000000000000e+03 6.958989715576171875e+01 2.863910198211669922e+00 -1.704725499217935036e-13 -3.704408199460551554e-13 -1.622740163813654601e-13 3.557739497971057485e-13
6.131000000000000000e+03 6.814656066894531250e+01 1.119907021522521973e+00 -1.391657378528241007e-13 -2.426462622408948056e-13 -1.145436013833683875e-13 3.447637412102438903e-13
6.132000000000000000e+03 6.919900512695312500e+01 2.017996788024902344e+00 -3.511182298143906977e-14 4.214076326390300831e-14 2.108682381200713100e-15 3.558833457963095359e-13
6.133000000000000000e+03 6.958151245117187500e+01 6.840916872024536133e-01 -2.312674791254965001e-13 -3.736203241320318336e-13 -1.814663463982693625e-13 2.732106804247819154e-13
6.134000000000000000e+03 6.876313781738281250e+01 -4.949454069137573242e-01 -6.543014421283091520e-14 -3.025471854382205672e-13 -1.103932009281945181e-13 2.947703929903622289e-13
6.135000000000000000e+03 6.983804321289062500e+01 -4.488556861877441406e+00 1.162519770524879023e-14 -2.695234714664845876e-13 -7.736948018019496054e-14 3.338003701572334059e-13
6.136000000000000000e+03 7.035485076904296875e+01 -4.493456363677978516e+00 -7.039828467484418942e-16 -1.146790724448204513e-13 -3.461491957326180702e-14 2.048279216593576479e-13
6.137000000000000000e+03 6.598259735107421875e+01 -2.378397226333618164e+00 1.983630409452610821e-13 -1.894929661317226732e-13 2.661024942808717063e-15 1.481646023319266314e-13
6.138000000000000000e+03 6.569506072998046875e+01 -3.035354375839233398e+00 -4.099095669558676380e-14 -6.123299024947403968e-13 -1.959962547077795381e-13 1.850402426770147990e-13
6.139000000000000000e+03 7.008467864990234375e+01 5.136611938476562500e+00 -6.968289335308741617e-14 -3.958716763684949624e-13 -1.396663817584964384e-13 4.134362936638463770e-13
6.140000000000000000e+03 6.537271118164062500e+01 -4.683388233184814453e+00 1.999384409119911443e-13 -5.548253913592593456e-13 -1.064660783579168823e-13 1.637751078416987971e-13
6.141000000000000000e+03 6.788835906982421875e+01 -4.186512470245361328e+00 7.403767269403838114e-14 -3.800281216017470376e-13 -9.179712789604901890e-14 3.139504444176627329e-13
6.142000000000000000e+03 6.803549957275390625e+01 -4.822093486785888672e+00 6.920730807012664965e-14 -4.964756362101085951e-13 -1.281804930209837212e-13 1.678190464197981679e-13
6.143000000000000000e+03 6.984130859375000000e+01 -2.481980085372924805e+00 -1.116740299409238468e-13 -4.596188338777673632e-13 -1.713878605008600786e-13 2.792304961470731817e-13
6.144000000000000000e+03 6.983634948730468750e+01 -3.209189653396606445e+00 -1.948145793718557978e-14 -1.913529962737844925e-13 -6.325033541625807443e-14 4.380541610872479286e-13
6.145000000000000000e+03 6.476831054687500000e+01 -3.220325231552124023e+00 -6.286838454341858728e-14 -5.187662907753243235e-13 -1.744903998851174420e-13 6.565474346912486547e-14
6.146000000000000000e+03 6.593083190917968750e+01 -4.126575946807861328e+00 4.714206252470244662e-14 -4.701892629584147887e-13 -1.269141584360478081e-13 1.867030293388471929e-13
6.147000000000000000e+03 4.177472305297851562e+01 3.192864608764648438e+01 -7.369748393363032002e-14 -1.516808732652044633e-13 -6.761351054778222402e-14 1.473201375885684061e-14
6.148000000000000000e+03 4.047203445434570312e+01 2.874651527404785156e+01 -7.828472299662575518e-14 -1.593657118163088748e-13 -7.129512908862767340e-14 -1.061403603083797137e-14
6.149000000000000000e+03 6.160809326171875000e+01 3.830046463012695312e+01 2.075674972613211766e-13 -4.714916066080043766e-13 -7.917723822501582243e-14 2.291041332612864939e-14
6.150000000000000000e+03 1.118570995330810547e+01 3.486272430419921875e+01 4.942039565260106584e-15 2.651859851501847665e-13 8.103840677935875147e-14 1.834016404998924099e-14
6.151000000000000000e+03 6.657940673828125000e+01 -2.633675575256347656e+00 3.509816203406575241e-14 -3.738409863791869459e-13 -1.016228523857340416e-13 1.964090782374805499e-13
6.152000000000000000e+03 6.867900848388671875e+01 1.626662611961364746e+00 -1.455642924990188658e-13 -2.282318756728629605e-13 -1.121388545173226947e-13 2.560928628447117772e-13
6.153000000000000000e+03 6.853881835937500000e+01 1.385494619607925415e-01 -1.237514458312174992e-13 -1.445382306680328965e-13 -8.048690701553326554e-14 2.700831908380302293e-13
6.154000000000000000e+03 6.866516113281250000e+01 7.019895911216735840e-01 -7.659979828168392291e-14 -3.073341819752328785e-13 -1.151801906889432514e-13 1.991219011508379988e-13
6.155000000000000000e+03 6.855994415283203125e+01 -4.059486865997314453e+00 1.635394700520362288e-13 -4.331720800197086385e-13 -8.088978299030172292e-14 1.227819115909994929e-13
6.156000000000000000e+03 6.920131683349609375e+01 -3.966624736785888672e+00 6.126196961829186161e-14 -3.397524503487986403e-13 -8.354714896253653822e-14 3.673443656464908669e-13
6.157000000000000000e+03 6.899028778076171875e+01 -1.146605491638183594e+00 -5.247305411362757077e-14 -1.368658197843306001e-13 -5.680166352464016688e-14 2.980144614157104188e-13
6.158000000000000000e+03 6.937796783447265625e+01 -2.454210966825485229e-01 -1.808287948632664177e-13 -1.689999458735422233e-13 -1.049486222210425923e-13 3.503901812793031034e-13
6.159000000000000000e+03 6.908296966552734375e+01 3.137639164924621582e-01 -9.700613657617415675e-14 -1.330759504328260512e-13 -6.902462678032642018e-14 3.783763938020739959e-13
6.160000000000000000e+03 7.002580261230468750e+01 -4.956991672515869141e+00 2.247844515775379581e-14 -2.763098181247231055e-13 -7.614940714670628830e-14 3.067765496928692714e-13
6.161000000000000000e+03 6.860852813720703125e+01 -4.731431961059570312e+00 7.860757129853762626e-14 -3.323186181531517791e-13 -7.611331676688967707e-14 2.626100563136307686e-13
6.162000000000000000e+03 6.719831848144531250e+01 -2.763045072555541992e+00 4.278111000763189231e-14 -3.934237918085115027e-13 -1.051927981028134840e-13 2.198762818952232356e-13
6.163000000000000000e+03 6.532677459716796875e+01 -3.645925045013427734e+00 4.975355658064575803e-14 -2.989336751225979416e-13 -7.475403895071744409e-14 1.918398572593391083e-13
6.164000000000000000e+03 6.742472076416015625e+01 -1.510900855064392090e+00 2.539834052166060896e-14 -4.008735346710395886e-13 -1.126425612941323040e-13 1.623672848732535257e-13
6.165000000000000000e+03 6.786222839355468750e+01 -1.506123185157775879e+00 6.099302649314325420e-14 -4.313696210130057995e-13 -1.111129756454533324e-13 3.112482060280141738e-13
6.166000000000000000e+03 6.731279754638671875e+01 -2.086087703704833984e+00 -3.646294217626334933e-14 -5.188873961579909544e-13 -1.666051059048476168e-13 1.868468216519730829e-13
6.167000000000000000e+03 6.847840118408203125e+01 -1.996206521987915039e+00 -1.980946466974622955e-14 -2.829954695061920322e-13 -9.084147821990240512e-14 2.088368947173943613e-13
6.168000000000000000e+03 6.488023376464843750e+01 -4.169667243957519531e+00 7.595731362679616905e-14 -4.707072947564283627e-13 -1.184250045032850251e-13 1.488072225120859460e-13
6.169000000000000000e+03 6.912750244140625000e+01 -1.845576047897338867e+00 -2.791256978427070906e-14 -1.492153704199181141e-13 -5.313838494116866762e-14 2.844318747544094528e-13
6.170000000000000000e+03 4.468958282470703125e+01 3.253651428222656250e+01 -8.129468506788001259e-14 -1.949689053867137423e-13 -8.287907713637812646e-14 4.245856663758103278e-14
6.171000000000000000e+03 6.634865570068359375e+01 -3.403651237487792969e+00 6.226905791125933454e-14 -3.393208565689864731e-13 -8.311554163019721497e-14 1.181425427322982391e-13
6.172000000000000000e+03 6.715482330322265625e+01 -4.381123065948486328e+00 5.367170398981428725e-14 -4.802583027443962926e-13 -1.279759718336714869e-13 9.786594955653662997e-14
6.173000000000000000e+03 6.961411285400390625e+01 1.603961229324340820e+00 -1.586647886643241523e-13 -2.281275212137612307e-13 -1.160376861871620369e-13 3.471147252010614581e-13
6.174000000000000000e+03 6.787668609619140625e+01 -2.094820261001586914e+00 -2.445393012569111249e-15 -4.128065619370124839e-13 -1.245755885601051993e-13 2.830632863520810005e-13
6.175000000000000000e+03 6.782799530029296875e+01 -3.475753784179687500e+00 -1.652580592444337360e-14 -3.730900679545234855e-13 -1.168847597919978054e-13 1.073020863243297207e-13
6.176000000000000000e+03 6.815132904052734375e+01 -7.129685878753662109e-01 3.728551620013273449e-14 -1.212733391356760060e-13 -2.519634688066298145e-14 2.629668401435414360e-13
6.177000000000000000e+03 6.677613067626953125e+01 -1.958426475524902344e+00 6.482164251978700387e-14 -5.212306823133838751e-13 -1.369227132933317770e-13 2.088457987277358985e-13
6.178000000000000000e+03 6.784687805175781250e+01 -2.760530233383178711e+00 8.070762347279700211e-14 -4.229205147979891999e-13 -1.026638626541731547e-13 2.517638062003030308e-13
6.179000000000000000e+03 6.852262878417968750e+01 -3.373861789703369141e+00 -1.368836498278703032e-14 -6.463797054025166577e-13 -1.980204330587556627e-13 2.932876652043253651e-13
6.180000000000000000e+03 6.918704223632812500e+01 -3.278080940246582031e+00 -1.490734110860900824e-14 -4.638983424828935220e-13 -1.436417038916046329e-13 2.654609659261814025e-13
6.181000000000000000e+03 1.025470161437988281e+01 3.999739456176757812e+01 1.242595978369342991e-14 2.798311170455758390e-13 8.767711898302263385e-14 1.390113881210436331e-14
6.182000000000000000e+03 6.708215332031250000e+01 -3.554749727249145508e+00 7.785231606518422387e-14 -6.071480124214545526e-13 -1.587887129726392454e-13 3.327160595645306529e-13
6.183000000000000000e+03 6.850845336914062500e+01 -2.679310321807861328e+00 9.264415237297384670e-15 -1.790333289605761102e-13 -5.093067487931327020e-14 4.827582628899769468e-14
6.184000000000000000e+03 6.464863586425781250e+01 3.550795364379882812e+01 2.182882103156022491e-13 -3.982706092003907017e-13 -5.399472169831560919e-14 -2.463437270741174884e-14
6.185000000000000000e+03 5.783458328247070312e+01 3.504505157470703125e+01 1.306691164775983238e-13 -4.930103092264104259e-13 -1.087023673114126399e-13 1.160900260470387746e-13
6.186000000000000000e+03 3.537805557250976562e+01 3.580321884155273438e+01 -3.670754157450786814e-14 -8.435822705524578802e-14 -3.631973262180517026e-14 -2.123523118414613609e-14
6.187000000000000000e+03 4.781615447998046875e+01 3.550619506835937500e+01 -2.931702325565180289e-14 -2.756323815022998502e-13 -9.148482346026456935e-14 6.454424939395658756e-14
6.188000000000000000e+03 2.272898483276367188e+01 3.853452301025390625e+01 -2.160337203181358912e-14 -7.788501153694823986e-14 -2.984651371537583309e-14 2.378309781915759896e-14
6.189000000000000000e+03 2.672634506225585938e+01 3.561032867431640625e+01 -3.734534044313141121e-14 -3.888062154134772075e-14 -2.286778893415691849e-14 -2.779157620995311578e-14
6.190000000000000000e+03 3.929338455200195312e+01 3.094019126892089844e+01 -4.116699385894873053e-14 -9.484772044371717059e-14 -4.080441632367884375e-14 4.015820895898790724e-15
6.191000000000000000e+03 3.766934585571289062e+01 3.331181335449218750e+01 -7.206205304786245103e-14 -1.953012133525805494e-13 -8.020897856488018451e-14 7.333843344355280014e-15
6.192000000000000000e+03 1.340890884399414062e+01 4.104518127441406250e+01 2.014614163155497434e-14 2.202321983633959146e-13 7.211350521721046625e-14 2.148012704392219391e-14
6.193000000000000000e+03 5.243081665039062500e+01 3.806563568115234375e+01 4.772622049084226936e-14 -4.256176574374270771e-13 -1.133674317616018001e-13 9.293236210954070042e-14
6.194000000000000000e+03 3.884815979003906250e+01 3.749572753906250000e+01 -4.387150907315950921e-14 -1.274605827784533463e-13 -5.139962620023114104e-14 1.592519688440197784e-14
6.195000000000000000e+03 4.331874465942382812e+01 3.815903854370117188e+01 -3.104473668695713340e-14 -2.134652860290991994e-13 -7.335300579837736312e-14 2.395135413786608769e-14
6.196000000000000000e+03 3.249627304077148438e+01 4.079098892211914062e+01 -1.513879794364392933e-14 -6.367674535443304529e-14 -2.364466214239014513e-14 -1.715629828686390107e-14
6.197000000000000000e+03 6.530304718017578125e+01 3.806018829345703125e+01 2.300508687626962034e-13 -3.188841877187209572e-13 -2.664999094342292152e-14 -4.320662886714635165e-14
6.198000000000000000e+03 3.171085929870605469e+01 3.761962509155273438e+01 -4.091638730304228422e-14 -8.616202098587349978e-14 -3.812351977616930399e-14 -4.546453410145603891e-14
6.199000000000000000e+03 4.042335891723632812e+01 -3.744446039199829102e-01 -1.336794173620314830e-13 -1.487930736737350101e-13 -8.474175002123537914e-14 -4.478610136828681254e-14
6.200000000000000000e+03 2.610486030578613281e+01 -8.813499450683593750e+00 -1.107979539279740910e-13 -2.304886424948915380e-13 -1.023859748611015419e-13 7.927487740691172013e-14
6.201000000000000000e+03 2.651663398742675781e+01 -8.596408843994140625e+00 -4.580415365572354514e-14 -1.111322473390692622e-13 -4.708092029843784221e-14 9.712668064069455401e-17
6.202000000000000000e+03 3.112393760681152344e+01 -1.853895306587219238e+00 -1.785186988468787095e-13 3.123750444509326707e-13 4.015690706934797738e-14 -1.529011292578097425e-13
6.203000000000000000e+03 3.417128372192382812e+01 -2.687450408935546875e+00 -2.768577840670926465e-14 -1.186533323986127889e-14 -1.186533323986127889e-14 -1.527325764775697148e-13
6.204000000000000000e+03 3.039355468750000000e+01 -7.270428180694580078e+00 6.437287768806809751e-14 -1.816257342820200987e-14 1.386309178617959464e-14 -1.897688820320930780e-13
6.205000000000000000e+03 7.808406066894531250e+01 3.952439498901367188e+01 -8.338821847657731934e-14 2.845188277686427902e-13 6.033918482049871468e-14 -5.093612638336179887e-14
6.206000000000000000e+03 6.372200775146484375e+01 -1.125919723510742188e+01 5.770528369378191691e-13 1.672442024279463535e-13 2.232891199412459504e-13 2.294655893249342160e-13
6.207000000000000000e+03 7.256225109100341797e+00 3.686553955078125000e+01 -1.035218172442493520e-14 3.615709348678969315e-13 1.053656267053712514e-13 4.629269515464551343e-14
6.208000000000000000e+03 6.307759475708007812e+01 -1.083510494232177734e+01 6.245331942572596162e-13 -9.835050661247471404e-14 1.578548083263145441e-13 1.383055589542284136e-13
6.209000000000000000e+03 2.781663894653320312e+01 -5.536289691925048828e+00 -2.588097523632489939e-16 8.467384338985400188e-15 2.462572323047086155e-15 -9.772870989029069921e-14
6.210000000000000000e+03 1.460712337493896484e+01 1.082263565063476562e+01 1.661429376237713584e-13 2.999588695918459225e-13 1.398305435199378999e-13 4.780284309125089337e-14
6.211000000000000000e+03 3.213907241821289062e+01 -5.617902278900146484e+00 8.457121857203056536e-14 2.192485965999899089e-13 9.114594929499064691e-14 -3.170068103418993699e-13
6.212000000000000000e+03 5.855037689208984375e+01 2.397863388061523438e+01 -4.965177032544010327e-13 -5.788008961005175479e-13 -3.225955743854647118e-13 5.501845723801523924e-13
6.213000000000000000e+03 3.697837114334106445e+00 3.813857269287109375e+01 -1.494907590422788531e-15 5.483707021455841435e-13 1.640627466780592014e-13 5.300757256092650249e-14
6.214000000000000000e+03 5.293812179565429688e+01 -6.832996368408203125e+00 -2.892863086665503625e-13 -2.612326858737051838e-13 -1.651556902305603702e-13 -6.424102515136670410e-14
6.215000000000000000e+03 4.973421859741210938e+01 -1.320647907257080078e+01 4.968451865206002793e-13 -2.903267903864303889e-13 6.195551341924010469e-14 -1.428062448025416153e-13
6.216000000000000000e+03 5.042147445678710938e+01 -1.258349800109863281e+01 4.414054300024006228e-13 -1.310828886842002605e-13 9.309676104020739307e-14 4.964260204081902272e-15
6.217000000000000000e+03 6.136410140991210938e+01 2.231586456298828125e+01 -6.253659157358371079e-13 -1.366036732515507612e-12 -5.974207673703491039e-13 5.559686825501453100e-13
6.218000000000000000e+03 2.923969078063964844e+01 -4.535083770751953125e+00 5.755551607143291615e-14 2.076704422575986753e-13 7.956778817633583523e-14 -1.124320837711349774e-13
6.219000000000000000e+03 1.530159854888916016e+01 2.433963775634765625e+01 -1.892136620995632512e-13 7.903675272851601319e-14 -3.305307213368781361e-14 2.858854781595879246e-14
6.220000000000000000e+03 3.756988525390625000e+01 6.269752502441406250e+00 -9.554103046357197149e-15 -3.129135134598975965e-13 -9.674029020348071106e-14 1.326868709307024718e-13
6.221000000000000000e+03 3.386223602294921875e+01 1.884705734252929688e+01 -6.002919786685795289e-14 -1.172286958261645196e-13 -5.317736878553309954e-14 -1.661599053877707566e-13
6.222000000000000000e+03 4.803882980346679688e+01 -7.622326374053955078e+00 -1.841662944108285460e-13 -1.246793602605392182e-13 -9.265369504615761365e-14 -4.033822971830081094e-14
6.223000000000000000e+03 6.038887023925781250e+01 3.005525779724121094e+01 1.192784749009384582e-13 -6.551609298480198795e-13 -1.607647391946298576e-13 1.372564036169685031e-13
6.224000000000000000e+03 2.004095649719238281e+01 4.779781341552734375e+00 5.549291630596933644e-14 1.553166503829445100e-13 6.324287475005865855e-14 -1.340302651850477922e-13
6.225000000000000000e+03 2.404098749160766602e+00 3.797360992431640625e+01 8.905715249453438620e-14 5.414277966936387188e-13 1.891454793354410691e-13 -2.894013086357331843e-14
6.226000000000000000e+03 3.567506408691406250e+01 8.262401580810546875e+00 2.295853123498309278e-13 -6.336214647580107329e-13 -1.212108484329593727e-13 -6.953131511311036461e-14
6.227000000000000000e+03 6.855864715576171875e+01 -1.213615036010742188e+01 2.962958654470493336e-13 -1.932726981929144827e-13 3.090695491962495989e-14 2.670540892102998137e-14
6.228000000000000000e+03 2.737069702148437500e+01 2.388327407836914062e+01 -1.525216991550212842e-13 -2.712457266174778114e-13 -1.271302263764970131e-13 -6.573042755702793172e-14
6.229000000000000000e+03 5.208552551269531250e+01 2.306596946716308594e+01 -2.021280549619614009e-13 -6.375083702039527345e-14 -7.976366962758607571e-14 1.418873783791624668e-14
6.230000000000000000e+03 6.492247772216796875e+01 -6.661461353302001953e+00 2.618774338006280011e-13 -2.995253513531775935e-13 -1.129437458813851991e-14 1.480677288678150516e-13
6.231000000000000000e+03 3.497064208984375000e+01 1.703716468811035156e+01 -4.398957868974318064e-14 -2.247319490873353476e-13 -8.061645562261812725e-14 -3.076125847643364219e-14
6.232000000000000000e+03 4.726889801025390625e+01 -8.225152969360351562e+00 -1.310784434552930700e-13 -5.617647867066713485e-14 -5.617647867066713485e-14 2.269598524146532875e-14
6.233000000000000000e+03 4.265822219848632812e+01 2.952361488342285156e+01 -5.688587215212440040e-14 -1.273192976828513290e-13 -5.526154756236092980e-14 1.850193548445355080e-14
6.234000000000000000e+03 5.582412338256835938e+01 2.842944526672363281e+01 -1.159952938822178536e-13 -4.071415513756670990e-13 -1.569410562878709170e-13 3.294460516022057472e-13
6.235000000000000000e+03 3.225497484207153320e+00 3.502101516723632812e+01 3.646871894096362365e-14 4.960144166059332616e-13 1.597449386311899922e-13 -2.907558837249822614e-14
6.236000000000000000e+03 4.992348861694335938e+01 -1.202676486968994141e+01 2.333170278073087855e-13 -2.660145866605068132e-13 -9.809263251388082583e-15 -9.158984199319694652e-14
6.237000000000000000e+03 2.938175773620605469e+01 -5.075694084167480469e+00 4.435514455725098060e-14 -9.536802229002938613e-14 -1.530386264220716386e-14 -1.766414841003829950e-13
6.238000000000000000e+03 5.727992248535156250e+01 -1.180693054199218750e+01 5.183982041377654948e-13 -2.810897673476142611e-13 7.119253645805623254e-14 1.252070008003064450e-13
6.239000000000000000e+03 1.092468547821044922e+01 1.611302185058593750e+01 2.065417208804384321e-15 6.951160296236186253e-14 2.147310514078945576e-14 -3.917404053054018842e-14
6.240000000000000000e+03 3.541992950439453125e+01 1.835384750366210938e+01 5.008615931397820964e-14 2.044692946857537552e-13 7.636663382822733714e-14 -4.152058268058235468e-14
6.241000000000000000e+03 4.336739730834960938e+01 -8.344380378723144531e+00 1.373726436423861053e-13 -3.262790563987941206e-14 3.142342140075200796e-14 -1.683450471037795104e-13
6.242000000000000000e+03 1.173563385009765625e+01 1.191513729095458984e+01 5.828800305916412294e-14 7.073152014178823999e-14 3.870585831553842449e-14 -9.470347581499744677e-15
6.243000000000000000e+03 1.075904273986816406e+01 2.082044982910156250e+01 -2.062123665184587007e-13 1.146431040377482447e-13 -2.747077942183949462e-14 -8.748976884761713868e-14
6.244000000000000000e+03 6.520930480957031250e+01 -5.700572967529296875e+00 2.131807778265118469e-13 -3.547085585323128676e-13 -4.245833285648759059e-14 1.695713610760235524e-13
6.245000000000000000e+03 4.988025283813476562e+01 -1.152809524536132812e+01 4.904275770212240815e-13 -2.702017212405372071e-13 6.606776351046964035e-14 -9.688770104135727146e-14
6.246000000000000000e+03 5.039156723022460938e+01 -1.149978256225585938e+01 3.628579641618001617e-13 -1.189951322156865277e-13 7.315885229433952142e-14 -6.500558419461274773e-14
6.247000000000000000e+03 6.527466583251953125e+01 2.830993080139160156e+01 1.352810008112270701e-13 -6.683187532031953371e-13 -1.599113230070850489e-13 -9.183953375352035819e-14
6.248000000000000000e+03 6.232101440429687500e+01 -6.857218265533447266e+00 8.047996134536578028e-14 -3.772671194543497641e-13 -8.903614607744247955e-14 1.513320312162072523e-13
6.249000000000000000e+03 6.664094543457031250e+01 2.259663581848144531e+01 -3.376445173799980104e-13 -5.793388230083962309e-13 -2.750949966955074100e-13 -1.137158807873114852e-13
6.250000000000000000e+03 6.694753265380859375e+01 2.325908088684082031e+01 -2.084032274009273156e-13 -6.440459060161329852e-13 -2.557347508671398151e-13 -2.487736308186966339e-13
6.251000000000000000e+03 5.741435241699218750e+01 -4.266452312469482422e+00 -1.504687216838385133e-13 -4.762451284029411980e-13 -1.880141550260339134e-13 -3.108407899566484334e-13
6.252000000000000000e+03 6.143045806884765625e+01 -8.671912193298339844e+00 1.788842647143865094e-13 -4.265957433222805628e-13 -7.431344629287364723e-14 5.414894606921988318e-14
6.253000000000000000e+03 3.683669662475585938e+01 1.357485485076904297e+01 1.648960102577229359e-13 2.491876910165006370e-14 5.694443262196577371e-14 -1.384850249069608658e-14
6.254000000000000000e+03 3.637982177734375000e+01 1.426932144165039062e+01 -6.456674235387092550e-15 -9.426904108668018867e-14 -3.021771404604876865e-14 -1.275508426093127645e-13
6.255000000000000000e+03 3.658411788940429688e+01 -4.559077262878417969e+00 -4.746713005293612397e-14 2.598814989162451239e-13 6.372431472475084679e-14 -1.775158931524925543e-13
6.256000000000000000e+03 3.461883544921875000e+01 1.628541183471679688e+01 1.015145439768345287e-14 1.273063008093086590e-13 4.123732469862514960e-14 3.357720595705340760e-14
6.257000000000000000e+03 3.474494934082031250e+01 2.492767143249511719e+01 -1.358911491363204438e-13 3.898170306514125993e-14 -2.907283382135375516e-14 -6.868633537372020870e-14
6.258000000000000000e+03 5.462993621826171875e+01 -1.156328678131103516e+01 5.140065890280043348e-13 3.728473692982126053e-14 1.653873977873476786e-13 1.627407112065118455e-13
6.259000000000000000e+03 9.927336692810058594e+00 1.587242031097412109e+01 -1.213445254786291519e-14 1.606467102356276544e-13 4.455367891569202154e-14 -9.574182809404807593e-14
6.260000000000000000e+03 9.454538345336914062e+00 1.626814651489257812e+01 1.607583322374168261e-14 9.749077325320928272e-15 7.747473249422077990e-15 -4.624798875568943146e-14
6.261000000000000000e+03 4.198379516601562500e+01 -6.971734046936035156e+00 6.052278768214555682e-14 -1.113145085005276536e-13 -1.523751624551462902e-14 -4.768302519866408906e-14
6.262000000000000000e+03 6.855458068847656250e+01 2.149765777587890625e+01 -3.053124159740905341e-13 -5.883576503599996510e-13 -2.681010253212379180e-13 -1.380891793056546191e-13
6.263000000000000000e+03 6.783100891113281250e+01 2.284029579162597656e+01 -3.699991159809845609e-13 -7.304579033654001741e-13 -3.301371220669480078e-13 -2.052992378962642528e-13
6.264000000000000000e+03 5.776663970947265625e+01 -1.006211090087890625e+01 4.419632249150901027e-13 -3.595985813807656140e-13 2.470939272148416771e-14 1.619690303102452877e-13
6.265000000000000000e+03 6.142440414428710938e+01 -8.158009529113769531e+00 4.189290516050381274e-13 -9.496467197681046635e-14 9.718931253321558272e-14 5.610221759811545583e-14
6.266000000000000000e+03 6.689179229736328125e+01 1.753372192382812500e+01 -4.644118748418912812e-13 -6.565431249876130249e-13 -3.362864999488512918e-13 1.004091558162722997e-13
6.267000000000000000e+03 3.597208404541015625e+01 1.610915946960449219e+01 5.435032984649548760e-14 -3.675512110922103670e-14 5.278561943555977465e-15 -1.476354439091179249e-13
6.268000000000000000e+03 6.956355285644531250e+01 -1.141094684600830078e+01 2.370149974721680319e-13 -3.567498469488235291e-14 6.040200756013067163e-14 4.496237570087401048e-14
6.269000000000000000e+03 2.557218170166015625e+01 2.807121658325195312e+01 -8.806156352085883765e-14 8.010279620867827993e-15 -2.401538474648082927e-14 -7.113990521884563933e-14
6.270000000000000000e+03 1.597311115264892578e+01 5.895516395568847656e+00 8.514293870637290595e-14 5.936530699532718836e-14 4.335247438813638610e-14 -1.546677147251304674e-13
6.271000000000000000e+03 5.766531372070312500e+01 -5.200616359710693359e+00 -4.511920554512403869e-14 -4.082198717513668695e-13 -1.360017242053868092e-13 -2.314574584511702726e-13
6.272000000000000000e+03 5.225259399414062500e+01 2.697232055664062500e+01 -2.630427071905611092e-13 -2.728609168039380917e-13 -1.607710817773388978e-13 1.353455379455442698e-13
6.273000000000000000e+03 9.214842796325683594e+00 1.675259208679199219e+01 -6.316822065421945354e-14 -2.707209287202815701e-14 -2.707209287202815701e-14 -1.373390604800933668e-13
6.274000000000000000e+03 1.529368114471435547e+01 6.422438144683837891e+00 1.852469593737263165e-13 -1.211034260205226878e-14 5.194098528561209849e-14 -1.301107252537139769e-13
6.275000000000000000e+03 1.479361152648925781e+01 6.439315795898437500e+00 1.075719781263792529e-13 -9.115057070675086637e-14 4.926421548262158168e-15 -3.800090328672477147e-14
6.276000000000000000e+03 5.525891113281250000e+01 -1.086714267730712891e+01 3.914973000732763220e-13 -2.439739762213205543e-13 4.425699376745494129e-14 -1.079161140603215191e-14
6.277000000000000000e+03 6.777361297607421875e+01 1.631869506835937500e+01 -3.783079806449901605e-13 -6.024848588775943981e-13 -2.942378599882916612e-13 6.513904270578213529e-14
6.278000000000000000e+03 3.481019592285156250e+01 1.556635761260986328e+01 -7.985208631475226859e-14 2.517211157397614141e-13 5.156070476174459682e-14 -1.149747343772572483e-13
6.279000000000000000e+03 3.643873214721679688e+01 1.574230575561523438e+01 1.068677481577684496e-13 4.461212757718435729e-13 1.658967017578727443e-13 -2.503439621402703263e-13
6.280000000000000000e+03 6.832171630859375000e+01 2.371045303344726562e+01 -1.643505210396911664e-13 -3.678171048987488589e-13 -1.596502877815320076e-13 -2.142018252224500707e-13
6.281000000000000000e+03 1.010983371734619141e+01 1.245729160308837891e+01 1.415802560909493191e-13 4.266848376358045591e-13 1.704795294732788791e-13 -9.550064054451509743e-14
6.282000000000000000e+03 6.142412185668945312e+01 -9.174245834350585938e+00 4.380158345404505660e-13 -2.240374633857497577e-13 6.419350999115752687e-14 -1.334839086052780344e-13
6.283000000000000000e+03 6.310902023315429688e+01 -5.315568447113037109e+00 1.109906979691877016e-13 -4.099420455871971569e-13 -8.968540699590826781e-14 8.772500683772860297e-14
6.284000000000000000e+03 3.964910888671875000e+01 2.348074340820312500e+01 -3.881818504873971176e-14 -2.368127937669994854e-13 -8.268930109861169497e-14 -4.109512141930830864e-14
6.285000000000000000e+03 6.124249649047851562e+01 -7.250928401947021484e+00 6.603053471837191934e-14 -1.890182075529184269e-13 -3.689630117273759446e-14 2.144193974934135993e-13
6.286000000000000000e+03 5.629158020019531250e+01 -1.081481170654296875e+01 3.898496380317501009e-13 -1.531782242280427253e-13 7.100142549636492828e-14 -1.120906007443835117e-13
6.287000000000000000e+03 4.622485637664794922e+00 2.795672035217285156e+01 -8.332614790220252421e-14 3.760473378001949474e-13 8.781635087076050672e-14 -1.428186656936801524e-14
6.288000000000000000e+03 5.135828971862792969e+00 2.765971755981445312e+01 6.718554884524788329e-14 3.032994862206539466e-13 1.111455152631550536e-13 -1.560375499599572779e-13
6.289000000000000000e+03 3.816844940185546875e+01 1.912115478515625000e+01 -7.579753737843911675e-16 -2.320032051672180073e-14 -7.187488756563945730e-15 3.277774238011690877e-14
6.290000000000000000e+03 6.849909210205078125e+01 2.295680236816406250e+01 -2.528039084494226874e-13 -2.684728524562918217e-13 -1.563830174296926279e-13 -1.228732149664499285e-13
6.291000000000000000e+03 5.843058586120605469e+00 2.429308509826660156e+01 -7.429270076192949490e-15 -3.183973131806391854e-15 -3.183973131806391854e-15 -7.963068545486715055e-14
6.292000000000000000e+03 1.282078266143798828e+01 6.724145412445068359e+00 9.507414251491361212e-14 3.152517580751884596e-13 1.230977667888988325e-13 5.361846288688167095e-14
6.293000000000000000e+03 6.011666774749755859e+00 2.231503868103027344e+01 -4.993094222045975361e-14 9.297840004428986616e-14 1.291423616130290761e-14 -5.684172479491350627e-14
6.294000000000000000e+03 7.094026947021484375e+01 -8.984970092773437500e+00 2.244858894042897623e-13 -2.240484002751647052e-13 1.312439170590115915e-16 1.846963201953752409e-13
6.295000000000000000e+03 6.835427093505859375e+01 -5.292497634887695312e+00 1.795541119216023662e-13 -2.490237562598890397e-13 -2.084089330148600205e-14 1.953941159262354010e-13
6.296000000000000000e+03 6.086240005493164062e+01 -9.206845283508300781e+00 3.049802435334952877e-13 -1.895508218701519310e-13 3.462882107799214459e-14 2.773740167671262524e-13
6.297000000000000000e+03 6.902467346191406250e+01 1.527965164184570312e+01 -3.773100809654345023e-13 -1.617043223498329518e-13 -1.617043223498329518e-13 1.577391917171461211e-13
6.298000000000000000e+03 1.154900836944580078e+01 7.457022190093994141e+00 -1.344778644994312766e-14 2.344291481857357917e-13 6.629440919836415702e-14 1.983656464186068363e-14
6.299000000000000000e+03 8.851063728332519531e+00 1.885424232482910156e+01 2.650678816522832049e-14 -8.014184612161259769e-14 -1.609051738691528316e-14 -1.693265346729491694e-13
6.300000000000000000e+03 4.461374759674072266e+00 2.727145195007324219e+01 1.018348139104549577e-13 4.096510728291563597e-13 1.534457646666306796e-13 -1.977251201038931344e-14
6.301000000000000000e+03 5.940611648559570312e+01 -3.727294445037841797e+00 -9.209283048606728417e-14 -4.054759457881862428e-13 -1.492706376256605627e-13 -1.724914292346516054e-13
6.302000000000000000e+03 7.462598419189453125e+01 1.817657661437988281e+01 -5.748799060487780332e-14 6.158755688594197419e-13 1.675162694106044348e-13 -6.260181311052229192e-14
6.303000000000000000e+03 3.838122177124023438e+01 1.817973899841308594e+01 -3.768885804302218173e-15 2.157017647179751418e-13 6.357986511405788743e-14 -4.640703782626126594e-14
6.304000000000000000e+03 6.813150405883789062e+00 7.837442398071289062e+00 4.652801445991991414e-14 -7.156132105076359884e-14 -7.509991469033337058e-15 4.243313532037266966e-14
6.305000000000000000e+03 4.045481491088867188e+01 1.858374977111816406e+01 -1.131090697720302934e-14 1.524213562439577507e-13 4.233313461061982697e-14 5.271281187154558401e-14
6.306000000000000000e+03 5.949005889892578125e+01 -4.529842853546142578e+00 2.251577051160750381e-14 -5.164863220268045563e-13 -1.481911517326253702e-13 -9.190813664598437849e-14
6.307000000000000000e+03 6.000133514404296875e+01 -4.605988025665283203e+00 -1.124539778787556066e-13 -4.142021469734358252e-13 -1.579968388109101451e-13 -1.291978947871169625e-13
6.308000000000000000e+03 7.666535377502441406e+00 1.247702980041503906e+01 2.876068396908217951e-15 4.358666205739325505e-13 1.316228078135708857e-13 -3.637840489999558113e-14
6.309000000000000000e+03 7.183367919921875000e+01 1.759181404113769531e+01 -1.995612740812377495e-13 1.432284873386160950e-13 -1.689983703922603303e-14 6.000216735144517366e-14
6.310000000000000000e+03 5.875394058227539062e+01 -7.057678222656250000e+00 1.920024740326847779e-13 -1.922189214438943528e-13 -6.493281120013071690e-17 -4.566404762998410582e-14
6.311000000000000000e+03 8.137033462524414062e+00 1.167500400543212891e+01 -2.755442053724906776e-14 3.084476033962668673e-13 8.426795367185921370e-14 -8.175534054811247481e-15
6.312000000000000000e+03 3.899839401245117188e+01 1.851922798156738281e+01 1.123101652368389824e-14 7.343971486712189134e-14 2.540122043368127358e-14 1.346969326305796563e-14
6.313000000000000000e+03 6.921739959716796875e+01 -7.602173328399658203e+00 1.100534119673375610e-13 -5.933475282285383123e-13 -1.449882423322501612e-13 2.446550449210216360e-13
6.314000000000000000e+03 4.088362121582031250e+01 1.926102066040039062e+01 -4.008040982981554701e-14 -1.717731825648296379e-14 -1.717731825648296379e-14 -7.371187332933827607e-15
6.315000000000000000e+03 9.067037582397460938e+00 9.709043502807617188e+00 4.403089018064666738e-14 2.476251354573827390e-13 8.749680260921113839e-14 -5.393096044617809448e-14
6.316000000000000000e+03 9.690590858459472656e+00 9.198588371276855469e+00 9.148592799122778896e-15 -4.183012240082696620e-14 -9.804458880511256191e-15 -4.471147776563370868e-14
6.317000000000000000e+03 7.269229125976562500e+01 1.710213279724121094e+01 -2.248482297703344179e-13 2.696440618531192879e-13 1.343875030246181879e-14 6.560603568652595419e-14
6.318000000000000000e+03 5.239799022674560547e+00 1.904583740234375000e+01 2.359663537428082630e-14 1.931166408427123504e-13 6.501397998518593235e-14 -3.526735855934569341e-14
6.319000000000000000e+03 5.570501327514648438e+00 1.802180099487304688e+01 -6.648527303819309984e-16 2.284698038396149045e-13 6.834148454397045991e-14 2.006362029370167138e-14
6.320000000000000000e+03 7.144606018066406250e+01 -7.089823722839355469e+00 1.030977468110746975e-13 -1.388190506556447046e-13 -1.071639064515123377e-14 1.909501474040703473e-13
6.321000000000000000e+03 6.663649749755859375e+01 9.292466163635253906e+00 -8.729304036341964390e-14 -9.066793539916351286e-13 -2.981917013658574866e-13 2.023613888220074375e-13
6.322000000000000000e+03 6.684270477294921875e+01 -6.153004765510559082e-01 -1.063331483953065815e-13 -4.115789469221614594e-13 -1.553736252071086232e-13 2.699517584296706740e-13
6.323000000000000000e+03 6.604776763916015625e+01 -8.274661302566528320e-01 -5.907781046050192275e-14 -4.828285666245990537e-13 -1.625719009282558525e-13 2.092428471158272463e-13
6.324000000000000000e+03 6.719930267333984375e+01 9.317084312438964844e+00 -3.488067311114423363e-13 -1.156009424470305635e-12 -4.514448710690732725e-13 2.694721073885630869e-13
6.325000000000000000e+03 6.767020416259765625e+01 9.105401039123535156e+00 -4.189815269901864259e-14 -7.957224831302289747e-13 -2.512861880382688540e-13 2.520896631632435492e-13
6.326000000000000000e+03 6.674102783203125000e+01 8.749888420104980469e+00 -2.431890409534953612e-13 -1.110744742710556565e-12 -4.061801350992155779e-13 2.651134249197911741e-13
6.327000000000000000e+03 7.239746093750000000e+01 2.900211095809936523e+00 -1.653300299398960393e-13 -2.081085683555000676e-13 -1.120315794886188321e-13 2.944638890362005768e-13
6.328000000000000000e+03 6.922639465332031250e+01 4.389517307281494141e+00 -1.265397292157799392e-13 -4.202389033546721775e-13 -1.640335951921464974e-13 2.581659929237756224e-13
6.329000000000000000e+03 6.934896087646484375e+01 5.188919544219970703e+00 -1.001688288522137316e-13 -2.030578125349763452e-13 -9.096799783716788546e-14 2.568113094143092967e-13
6.330000000000000000e+03 6.726047515869140625e+01 8.814481735229492188e+00 -2.001161585887204636e-14 -1.015097294415623352e-12 -3.105326596992280530e-13 2.553405891673327099e-13
6.331000000000000000e+03 7.166571044921875000e+01 -7.839666008949279785e-01 6.600824758746376419e-14 -1.746169940412822807e-14 1.456396411618748193e-14 1.677448056760372230e-13
6.332000000000000000e+03 6.865298461914062500e+01 5.961582183837890625e+00 -1.247270380510742682e-13 -4.194620453930320014e-13 -1.632567236779791653e-13 1.168053555353903983e-13
6.333000000000000000e+03 7.118819427490234375e+01 2.268920183181762695e+00 -1.591957089156631477e-13 -1.139776749543852663e-13 -8.195201651626723982e-14 3.764515825802061677e-13
6.334000000000000000e+03 3.270701217651367188e+01 1.813640952110290527e+00 1.074949523382877359e-13 3.205749467966034771e-13 1.284209690628410061e-13 -5.852989534010921702e-14
6.335000000000000000e+03 8.749180793762207031e+00 3.899427950382232666e-01 4.656385411798413809e-14 -7.154595926123219485e-14 -7.494632220600774830e-15 4.047604197881908561e-14
6.336000000000000000e+03 7.082522392272949219e+00 3.898618221282958984e-01 -1.276441517587822982e-13 -1.462065332084178104e-13 -8.215520955591817942e-14 -1.902928464488692212e-14
6.337000000000000000e+03 6.247702121734619141e+00 1.129743337631225586e+00 -1.472979453253503435e-13 -1.546295914662404458e-13 -9.057826103747723678e-14 -2.431840061896568816e-14
6.338000000000000000e+03 4.581694126129150391e+00 3.896949291229248047e-01 -2.983130777990672389e-14 -1.278484679641212970e-14 -1.278484679641212970e-14 2.285606599816691897e-14
6.339000000000000000e+03 3.748422384262084961e+00 3.898865282535552979e-01 -6.055854856614568613e-15 8.890652970772183750e-14 2.485520266709041748e-14 -1.171588782884541366e-14
6.340000000000000000e+03 3.747751951217651367e+00 1.129886507987976074e+00 -2.074335068134609134e-14 3.686094262938741095e-14 4.835276991489332807e-15 1.183250681680361738e-13
6.341000000000000000e+03 2.915430068969726562e+00 3.901152908802032471e-01 6.678175807489639126e-14 -1.713019442549541804e-14 1.489546909482029197e-14 5.999586542631760167e-14
6.342000000000000000e+03 2.914908647537231445e+00 1.130115270614624023e+00 1.134648151395476270e-14 -8.663911737561216797e-14 -2.258779202904664246e-14 3.780756632244808291e-14
6.343000000000000000e+03 2.082287311553955078e+00 3.901598453521728516e-01 1.782283495050870914e-13 7.638358126343600119e-14 7.638358126343600119e-14 9.439242837610672260e-15
6.344000000000000000e+03 2.081915140151977539e+00 1.130159854888916016e+00 -2.299526061645511266e-14 -9.855111450757063352e-15 -9.855111450757063352e-15 4.316702838279631860e-14
6.345000000000000000e+03 1.249198555946350098e+00 1.130092263221740723e+00 5.179540403890160738e-14 -1.150548162602224589e-13 -1.897782400520943435e-14 9.656512717812031077e-15
6.346000000000000000e+03 4.164851903915405273e-01 1.130014061927795410e+00 5.076313515047815861e-14 -2.399532023002626940e-14 8.030344984355335114e-15 -4.931264205028200454e-14
6.347000000000000000e+03 4.165596663951873779e-01 3.900140523910522461e-01 -1.681683289259279512e-14 -7.207214459839603876e-15 -7.207214459839603876e-15 7.897165994058541472e-15
6.348000000000000000e+03 4.580874919891357422e+00 1.129694938659667969e+00 -2.532333236604945165e-14 8.064904267416489470e-14 1.659771224540168566e-14 -8.739399991446877847e-14
6.349000000000000000e+03 5.414232254028320312e+00 1.129676342010498047e+00 -6.506706523405625386e-14 1.786506326987430393e-14 -1.416060109747435333e-14 1.518367950901350349e-13
6.350000000000000000e+03 5.415200710296630859e+00 3.896763324737548828e-01 -1.106104276097155670e-13 -4.740446994363003985e-14 -4.740446994363003985e-14 -7.275294732975168266e-15
6.351000000000000000e+03 6.248819828033447266e+00 3.897433280944824219e-01 -1.378632180203814839e-13 7.816861172021613569e-14 -1.790838392292867787e-14 2.708342617286241955e-14
6.352000000000000000e+03 7.081255912780761719e+00 1.129861831665039062e+00 -6.080605582849812896e-15 -1.398588140915854594e-13 -4.378182861283601290e-14 -6.351399305581581500e-14
6.353000000000000000e+03 7.915904998779296875e+00 3.899158239364624023e-01 1.219355291650486839e-13 2.810128160984221024e-13 1.208845035790412359e-13 -3.498376176420958661e-14
6.354000000000000000e+03 9.582430839538574219e+00 3.899797797203063965e-01 -4.020159652764511427e-14 -1.722925492867680847e-14 -1.722925492867680847e-14 -2.685452229513052291e-14
6.355000000000000000e+03 9.580718994140625000e+00 1.129979729652404785e+00 -1.018605908171058005e-14 -9.586735160056758520e-14 -3.181602455993616518e-14 1.152021999930447071e-13
6.356000000000000000e+03 1.249422073364257812e+00 3.900922536849975586e-01 5.998114738182611094e-14 2.570620650480144598e-14 2.570620650480144598e-14 -4.108682388455700552e-14
6.357000000000000000e+03 7.914489746093750000e+00 1.129915833473205566e+00 -9.569071473787896243e-14 5.049158994011558599e-14 -1.355973710051583403e-14 -1.562907077791008542e-14
6.358000000000000000e+03 8.747616767883300781e+00 1.129942774772644043e+00 1.981602917508745038e-14 5.424353254437387639e-14 2.221786902405816638e-14 -1.461722321857022739e-15
6.359000000000000000e+03 1.111325168609619141e+01 1.138490676879882812e+00 -4.328807277909074713e-14 -1.855203070702006463e-14 -1.855203070702006463e-14 8.076565539407928873e-14
6.360000000000000000e+03 1.186833381652832031e+01 4.020517766475677490e-01 -1.003180896100470954e-13 4.850843170070909260e-14 -1.554289703398822192e-14 -1.988003056106551168e-15
6.361000000000000000e+03 1.037295722961425781e+01 3.924405574798583984e-01 -5.811329065533166194e-14 -2.490569430107624632e-14 -2.490569430107624632e-14 5.832330739240568218e-14
6.362000000000000000e+03 1.260390949249267578e+01 1.143149375915527344e+00 -1.129999820928193066e-13 2.718280787093740880e-13 4.764842898496643442e-14 1.981861940184015403e-13
6.363000000000000000e+03 1.261756992340087891e+01 4.032067656517028809e-01 -1.580911372948620719e-13 -2.050061916015685770e-13 -1.089291959584237635e-13 2.580593616401116730e-14
6.364000000000000000e+03 1.036947441101074219e+01 1.132432341575622559e+00 -3.359503430652721612e-14 3.135307700854843282e-14 -6.725873588002244385e-16 1.045507200237404122e-13
6.365000000000000000e+03 1.185806560516357422e+01 1.142010807991027832e+00 -8.620809280194055568e-14 -8.269727676084304147e-14 -5.067161154646143695e-14 -4.619171527480564476e-14
6.366000000000000000e+03 1.112012767791748047e+01 3.985152244567871094e-01 -1.042293557235521306e-13 -9.042067225170646871e-14 -5.839500703732486420e-14 4.389529037018662094e-14
6.367000000000000000e+03 1.408120155334472656e+01 1.187072157859802246e+00 -1.209689087181692324e-13 3.965807920231455286e-14 -2.439324783831686716e-14 1.441749416250873161e-13
6.368000000000000000e+03 1.410851097106933594e+01 4.475762248039245605e-01 -2.805725215961757391e-13 -2.574982057006874880e-13 -1.614212100575426745e-13 6.346676249867691522e-14
6.369000000000000000e+03 1.336430931091308594e+01 4.183164834976196289e-01 -9.442333660835203202e-14 3.255404572213155268e-13 6.933513550626269062e-14 4.085334433484404115e-14
6.370000000000000000e+03 1.485382461547851562e+01 4.748390913009643555e-01 -2.172701173705840483e-13 2.728918165658539285e-13 1.668651517959182651e-14 -4.724583761326825448e-14
6.371000000000000000e+03 1.555697250366210938e+01 1.239178419113159180e+00 -1.350639028787140039e-13 1.251192617394980555e-13 -2.983390647698890008e-15 -5.149245762311842334e-14
6.372000000000000000e+03 1.560021686553955078e+01 5.002670884132385254e-01 -2.490513763102331080e-13 -1.067363021968817383e-13 -1.067363021968817383e-13 5.093770525277548089e-14
6.373000000000000000e+03 1.334496879577636719e+01 1.158104777336120605e+00 -1.526277747850718347e-13 -6.541190928754242462e-14 -6.541190928754242462e-14 4.281289746007645169e-14
6.374000000000000000e+03 1.481854820251464844e+01 1.214042663574218750e+00 -1.536521696552176075e-13 -1.573528227204537555e-13 -9.330149906795412451e-14 3.355913027395900083e-14
6.375000000000000000e+03 1.701650238037109375e+01 1.350294589996337891e+00 -1.215290346655295561e-13 1.766708659792573521e-13 1.654255007174469660e-14 -2.846689626644777205e-13
6.376000000000000000e+03 1.708320045471191406e+01 6.133062839508056641e-01 -2.400962187312088991e-13 3.435447388264005475e-14 -6.172251837237296979e-14 -5.139863008948516998e-14
6.377000000000000000e+03 1.634315681457519531e+01 5.465459823608398438e-01 -2.978058067076155835e-13 1.926255785737393533e-13 -3.155406437440472223e-14 -7.527859629055666524e-14
6.378000000000000000e+03 1.782329559326171875e+01 6.808430552482604980e-01 -2.354777343168551473e-13 -3.229260595364290276e-14 -8.033110038708352052e-14 -1.233465894934183613e-14
6.379000000000000000e+03 1.847070503234863281e+01 1.483781576156616211e+00 -8.661090101407323272e-14 5.438294061496477816e-14 -9.668388119732536368e-15 -1.962013451012323273e-13
6.380000000000000000e+03 1.856336212158203125e+01 7.491624951362609863e-01 -1.689362218908543878e-13 -7.240123892126096306e-14 -7.240123892126096306e-14 -4.304444238653788724e-14
6.381000000000000000e+03 1.628943824768066406e+01 1.284718871116638184e+00 -1.552763045096008931e-13 -6.654698764697181135e-14 -6.654698764697181135e-14 9.738419109745627411e-14
6.382000000000000000e+03 1.774361801147460938e+01 1.416646718978881836e+00 -2.685049719456517048e-13 1.594321327519007681e-13 -3.272185175812528102e-14 8.003952454158427821e-14
6.383000000000000000e+03 2.075237083435058594e+01 1.106616377830505371e+00 -6.078010951525783523e-14 -2.604861957372899689e-14 -2.604861957372899689e-14 -1.520887636750206662e-14
6.384000000000000000e+03 2.060178184509277344e+01 1.831414580345153809e+00 -1.271153457016796495e-13 -5.447800481670102279e-14 -5.447800481670102279e-14 -5.292410593430406374e-14
6.385000000000000000e+03 2.130817413330078125e+01 1.960395336151123047e+00 2.413355261888638220e-14 -8.115894973214840546e-14 -1.710761760931930192e-14 -3.175844326018181785e-14
6.386000000000000000e+03 1.918785858154296875e+01 1.579434752464294434e+00 -1.383956290497076469e-13 -5.931241148183705181e-14 -5.931241148183705181e-14 -8.719089496624435331e-14
6.387000000000000000e+03 1.989505195617675781e+01 1.704050064086914062e+00 -6.692365303422043166e-14 6.282033405838674534e-14 -1.230995311585279632e-15 -3.598899336095667811e-14
6.388000000000000000e+03 1.929729461669921875e+01 8.472537398338317871e-01 -8.926887685003007111e-14 5.324381004991572686e-14 -1.080751953181453492e-14 -6.055200523662814666e-15
6.389000000000000000e+03 2.147934150695800781e+01 1.239288687705993652e+00 -6.937754136373402991e-14 -9.835965456830506048e-14 -5.032116013486444273e-14 2.764915947833356674e-14
6.390000000000000000e+03 2.002506446838378906e+01 9.755603671073913574e-01 -8.468035707321838745e-14 -1.341610826474876408e-14 -2.942894002490661909e-14 -3.578570206548385702e-14
6.391000000000000000e+03 2.384457206726074219e+01 1.920147299766540527e+00 2.106596011996683671e-14 -1.384720568325384024e-14 2.165626500420488390e-15 -3.298352056432286850e-14
6.392000000000000000e+03 2.269768333435058594e+01 2.332504749298095703e+00 -1.294319791183542664e-14 1.088302896152387733e-13 2.876612657928476202e-14 -7.886083414976666206e-14
6.393000000000000000e+03 2.200780105590820312e+01 2.124691486358642578e+00 -6.853513660450352707e-14 -7.512314880407655604e-14 -4.309748358969495152e-14 -5.955371422785085689e-14
6.394000000000000000e+03 2.224600791931152344e+01 1.422776222229003906e+00 1.303124139628505929e-13 5.584817886470673509e-14 5.584817886470673509e-14 -1.781093176590753391e-13
6.395000000000000000e+03 2.304938125610351562e+01 1.665326476097106934e+00 1.077632991522414763e-13 -1.139440511345110596e-13 -1.854223942966627854e-15 1.869711931936843263e-13
6.396000000000000000e+03 2.404323768615722656e+01 2.781441688537597656e+00 -4.198184633047094549e-14 -3.514882476870692662e-14 -2.313920200737971944e-14 2.402985715141761625e-14
6.397000000000000000e+03 2.462189483642578125e+01 2.183827638626098633e+00 -1.707328058770350709e-14 -7.317119525844691108e-15 -7.317119525844691108e-15 4.372488089372621178e-14
6.398000000000000000e+03 2.337939453125000000e+01 2.552543401718139648e+00 5.157717447037100944e-15 -3.352027856673434059e-13 -9.901352334600391214e-14 1.308302424729568258e-13
6.399000000000000000e+03 6.809269714355468750e+01 -1.561150836944580078e+01 3.053671935947894697e-15 -3.818554901533627310e-13 -1.136405422888508987e-13 1.225076897565235967e-13
6.400000000000000000e+03 6.902137756347656250e+01 -1.593779945373535156e+01 1.491621360932490759e-13 6.392662685013664192e-14 6.392662685013664192e-14 5.500485253362961957e-14
6.401000000000000000e+03 6.852732849121093750e+01 -1.547273349761962891e+01 -4.008281540338574922e-14 6.288581309334129177e-14 6.840899391689957490e-15 -7.748319943556153389e-14
6.402000000000000000e+03 6.853373718261718750e+01 -1.628846549987792969e+01 -7.024825735219356049e-14 1.564455284611999952e-14 -1.638111067419571049e-14 6.779154332076792189e-14
6.403000000000000000e+03 6.976448822021484375e+01 -1.608898162841796875e+01 1.062646369824008646e-14 -8.694770164269227664e-14 -2.289637121392906760e-14 -7.705862586481621035e-14
6.404000000000000000e+03 6.975740051269531250e+01 -1.534004783630371094e+01 1.027493113378921685e-13 -4.746647614350084365e-14 1.658485089713057636e-14 -6.159479258019059933e-14
6.405000000000000000e+03 6.909480285644531250e+01 -1.537976169586181641e+01 -7.844747529524298546e-14 1.213060278311764439e-14 -1.989506243126396012e-14 4.990242516222454308e-15
6.406000000000000000e+03 7.132652282714843750e+01 -1.597409629821777344e+01 1.298310146457398728e-13 -8.161098749917550244e-14 1.446600814396931112e-14 1.056928253685002206e-13
6.407000000000000000e+03 7.056670379638671875e+01 -1.601350212097167969e+01 1.701352139683517950e-13 1.186660361987557089e-13 8.664037776063768237e-14 -1.483919391987061076e-14
6.408000000000000000e+03 7.208541107177734375e+01 -1.593443489074707031e+01 9.101639391164220716e-14 1.305089256066135905e-13 6.645759517785038151e-14 -9.842973468622909228e-15
6.409000000000000000e+03 7.284317016601562500e+01 -1.589438438415527344e+01 -1.233350715394015973e-13 -9.860883810886011958e-14 -6.658317289447851506e-14 1.884395959585172253e-13
6.410000000000000000e+03 7.282823944091796875e+01 -1.515415287017822266e+01 -5.682875841455693744e-14 -2.435518217766725890e-14 -2.435518217766725890e-14 2.094191654941277014e-13
6.411000000000000000e+03 7.049587249755859375e+01 -1.527619743347167969e+01 -1.089526367482060790e-14 -5.042034769298792130e-14 -1.839468417267221129e-14 -5.105640506187190952e-14
6.412000000000000000e+03 7.127433013916015625e+01 -1.523581504821777344e+01 5.993705423472384108e-14 1.171892037620317351e-13 5.313788010953210406e-14 4.303893667238073428e-14
6.413000000000000000e+03 7.205184173583984375e+01 -1.519517898559570312e+01 -2.021930833753880080e-14 -2.831711102581346839e-13 -9.101712574810863488e-14 1.727272838647486708e-13
6.414000000000000000e+03 7.435244750976562500e+01 -1.591604232788085938e+01 -1.254325097699857464e-14 -5.375678929639892897e-15 -5.375678929639892897e-15 -2.389114703597525202e-14
6.415000000000000000e+03 7.588006591796875000e+01 -1.523305606842041016e+01 -5.767322654604695176e-14 -2.077208983162007194e-13 -7.961823745867430135e-14 7.688851454395323470e-14
6.416000000000000000e+03 7.359722137451171875e+01 -1.514822292327880859e+01 -1.896171513261855207e-14 -1.453793005033385266e-13 -4.930230147206192404e-14 -2.910694892033736936e-14
6.417000000000000000e+03 7.510590362548828125e+01 -1.594404602050781250e+01 1.632718686270760722e-14 -1.302554797962679478e-13 -3.417848754125492328e-14 -6.090671404757627781e-16
6.418000000000000000e+03 7.359909057617187500e+01 -1.588880252838134766e+01 -1.296210995526195231e-13 -9.800953011142570642e-15 -4.182661568442533340e-14 -3.105202667601767753e-15
6.419000000000000000e+03 7.435808563232421875e+01 -1.517574119567871094e+01 -5.281624475880070113e-14 -1.598883785786098244e-13 -6.381138971172858887e-14 1.153760433410732852e-14
6.420000000000000000e+03 7.585942077636718750e+01 -1.597279930114746094e+01 2.919769664217440608e-14 1.955170915576495694e-13 6.741443747638672934e-14 3.041389704102823166e-14
6.421000000000000000e+03 7.511904144287109375e+01 -1.520402336120605469e+01 8.955882639227058517e-15 9.534013118914219653e-14 3.128880414851077651e-14 6.831861465439459380e-14
6.422000000000000000e+03 7.887693023681640625e+01 -1.532412910461425781e+01 -2.607000546158127346e-14 -5.692380567563423699e-14 -2.489814384938442149e-14 -2.637463239073181004e-14
6.423000000000000000e+03 7.738233947753906250e+01 -1.528156280517578125e+01 3.926364475789843184e-15 -1.813210633071563049e-13 -5.321841261402525391e-14 -4.476255385235314299e-14
6.424000000000000000e+03 7.663458251953125000e+01 -1.525937652587890625e+01 -1.299233683420449037e-14 4.018280594874322487e-14 8.157139887328673095e-15 1.570827344067604603e-14
6.425000000000000000e+03 7.812899780273437500e+01 -1.530161857604980469e+01 9.468574063914783623e-14 4.057960022695039637e-14 4.057960022695039637e-14 8.444512585937050120e-14
6.426000000000000000e+03 7.811679840087890625e+01 -1.604657363891601562e+01 7.389038382890622536e-14 -1.055855367872692019e-13 -9.508546226322071859e-15 -3.813828948967057722e-15
6.427000000000000000e+03 7.886960601806640625e+01 -1.607122421264648438e+01 6.357196399072589932e-14 7.299607966693155703e-14 4.097041445254995251e-14 -4.560957959982739167e-16
6.428000000000000000e+03 7.661262512207031250e+01 -1.600004959106445312e+01 1.332291939395774047e-14 -8.579207765209428960e-14 -2.174074722333108056e-14 1.131366830461107836e-14
6.429000000000000000e+03 7.962351989746093750e+01 -1.609820365905761719e+01 4.746503957562230036e-14 2.034216030214267001e-14 2.034216030214267001e-14 8.540755179909514938e-15
6.430000000000000000e+03 7.962596130371093750e+01 -1.534896755218505859e+01 -5.366863434241343767e-15 -1.395529335536729865e-13 -4.347593791052817291e-14 6.156544204153529057e-15
6.431000000000000000e+03 7.736525726318359375e+01 -1.602437782287597656e+01 8.566927142726957212e-14 1.282173016847396041e-13 6.416597125597639506e-14 -1.928103469527216174e-14
6.432000000000000000e+03 3.965531539916992188e+01 2.505249738693237305e+00 4.673577808935423794e-14 -1.858496538088838523e-13 -4.173416373229842102e-14 9.151943661462116908e-15
6.433000000000000000e+03 3.901644134521484375e+01 1.608463168144226074e+00 2.318982239037353094e-14 -1.293697899593668557e-14 3.075853399495879874e-15 1.928517329825244625e-14
6.434000000000000000e+03 3.831746292114257812e+01 1.444619417190551758e+00 3.056770128359066752e-14 1.310044364926255672e-14 1.310044364926255672e-14 -1.066384919143304952e-14
6.435000000000000000e+03 3.824296951293945312e+01 2.186946392059326172e+00 3.449685334480992460e-14 6.053531699350134243e-14 2.850964839098794890e-14 8.372363674742644424e-14
6.436000000000000000e+03 3.963058853149414062e+01 1.739951610565185547e+00 1.234537815128933930e-14 5.290876108543160483e-15 5.290876108543160483e-15 -1.985106923404946627e-14
6.437000000000000000e+03 3.909907150268554688e+01 2.387167453765869141e+00 2.385532601263586766e-14 1.932275005148489933e-13 6.512485320984973125e-14 -1.218000005053562068e-14
6.438000000000000000e+03 4.016698074340820312e+01 2.892457544803619385e-01 3.269188373245142387e-14 1.283881854996504757e-13 4.832401907556467535e-14 -7.631564244480262826e-14
6.439000000000000000e+03 3.925618362426757812e+01 7.704395800828933716e-03 -6.754067926684551026e-14 -7.469695570633608228e-14 -4.267129049195447776e-14 5.694553037666541528e-14
6.440000000000000000e+03 3.979998016357421875e+01 1.368275731801986694e-01 -1.214205466856452253e-13 1.538418914828754147e-13 9.726402253322930652e-15 -1.608743757511906652e-14
6.441000000000000000e+03 3.973172378540039062e+01 9.480487704277038574e-01 -2.784534416737892426e-14 -1.034356180893390709e-13 -3.938428766057586183e-14 -1.277603595969479047e-14
6.442000000000000000e+03 3.853703308105468750e+01 6.684961915016174316e-01 -2.829552354411974530e-14 3.362429760078895769e-14 1.598631751132642727e-15 2.931042741009153366e-15
6.443000000000000000e+03 3.861248016357421875e+01 -7.360979169607162476e-02 -1.347920120789089515e-13 1.709867463546219102e-13 1.085841943568094034e-14 -1.608786617379037720e-14
6.444000000000000000e+03 3.927847671508789062e+01 5.706552267074584961e-01 -3.656846892896407908e-14 3.007874982072222814e-14 -1.946915605417613195e-15 9.192250359531923230e-16
6.445000000000000000e+03 3.626428222656250000e+01 2.291800230741500854e-01 -1.482187175728608142e-13 1.652324381918451879e-13 5.104117202134848819e-15 -2.170482116790623667e-14
6.446000000000000000e+03 3.700691604614257812e+01 3.713000714778900146e-01 -1.041216944478243200e-13 9.262926661595879962e-14 -3.447729238944250742e-15 -4.289321651226689347e-14
6.447000000000000000e+03 3.774913024902343750e+01 5.148828029632568359e-01 -1.354271106064966479e-13 1.058623048027845445e-14 -3.745226649426100507e-14 2.039441715279057682e-14
6.448000000000000000e+03 3.714301300048828125e+01 -3.560831546783447266e-01 -2.269673029164573363e-13 -9.727170512206090303e-14 -9.727170512206090303e-14 3.894817411295714571e-14
6.449000000000000000e+03 3.638907623291015625e+01 -5.003663301467895508e-01 -1.931959773366839772e-13 5.445457249724817983e-14 -4.162241975776484471e-14 -3.802585010108730512e-14
6.450000000000000000e+03 3.552131271362304688e+01 8.855232596397399902e-02 -2.177160497241273363e-13 8.969691309146377023e-14 -3.840574098979906981e-14 3.272922433289818245e-14
6.451000000000000000e+03 3.563480377197265625e+01 -6.431571245193481445e-01 -2.261794674078207446e-13 -5.118310425012220777e-14 -8.320876946450381229e-14 2.667145137017455647e-14
6.452000000000000000e+03 3.789653396606445312e+01 -2.103372663259506226e-01 -1.847274639027798870e-13 5.808393588151161691e-14 -3.799305976163319665e-14 -3.832981973267077236e-14
6.453000000000000000e+03 2.609040260314941406e+01 -1.820121884346008301e+00 -1.518449875928008785e-14 8.499425393094367509e-14 2.094292689031225507e-14 3.726826383306305890e-15
6.454000000000000000e+03 2.689648056030273438e+01 -1.948607444763183594e+00 -1.342768635810478312e-14 -1.887585140275538365e-13 -6.065585994629099642e-14 1.368926453177701438e-14
6.455000000000000000e+03 2.633171653747558594e+01 -1.219154477119445801e+00 6.353908555984527640e-14 1.187329314727980645e-13 5.468160782029843348e-14 -2.725135384278737360e-14
6.456000000000000000e+03 2.648352622985839844e+01 -2.422071456909179688e+00 1.870435603005659447e-14 -3.773479602788357146e-14 -5.709132507567861448e-15 -1.334747911426337891e-14
6.457000000000000000e+03 2.580365753173828125e+01 -3.127569198608398438e+00 -3.266575784822631223e-14 -1.741279375463283818e-13 -6.203810929599276602e-14 -7.126030587010015460e-14
6.458000000000000000e+03 2.654368019104003906e+01 -3.228775739669799805e+00 -1.132536786249173366e-13 -4.853728841915615211e-14 -4.853728841915615211e-14 6.830985294558819532e-14
6.459000000000000000e+03 2.592587280273437500e+01 -2.425395965576171875e+00 -3.663600455991455895e-15 -9.307201412562041143e-14 -2.902068369685720239e-14 -4.154271056929642603e-14
6.460000000000000000e+03 2.539006805419921875e+01 -6.085962772369384766e+00 9.597150277176197397e-14 -2.749577875224475804e-14 2.054271737526175423e-14 1.492079537994319555e-14
6.461000000000000000e+03 2.557643508911132812e+01 -4.601495265960693359e+00 9.604449837709045507e-15 -1.875928103448835232e-14 -2.746449697846970947e-15 -4.256044098421320199e-14
6.462000000000000000e+03 2.611915206909179688e+01 -6.219238281250000000e+00 -1.737574927690443971e-14 -1.446996006088802078e-13 -4.862260496573539426e-14 1.793642918381226775e-14
6.463000000000000000e+03 2.639842605590820312e+01 -4.004203796386718750e+00 2.000641507657590495e-14 -8.292771715634125740e-14 -1.887639180977573189e-14 2.935765034393390815e-14
6.464000000000000000e+03 2.630454063415527344e+01 -4.742311000823974609e+00 2.412488577777007620e-14 -3.541171330234856029e-14 -3.386048087966955777e-15 5.195194589194956913e-14
6.465000000000000000e+03 2.548282432556152344e+01 -5.343601703643798828e+00 -5.070134240291006289e-14 -1.361065258978846892e-13 -5.604235947379888894e-14 -5.723869186784191765e-14
6.466000000000000000e+03 2.567079353332519531e+01 -3.859614849090576172e+00 -5.737386477369654791e-14 -1.160906901208694220e-13 -5.203936646836979096e-14 -5.613225677455688234e-14
6.467000000000000000e+03 2.621140480041503906e+01 -5.480644702911376953e+00 3.382473947742721532e-14 -7.700558127352735704e-14 -1.295425253883004252e-14 1.005717522608272352e-13
6.468000000000000000e+03 2.557240486145019531e+01 -8.706668853759765625e+00 -3.016520816771436908e-14 -1.044298450340354345e-13 -4.037851460527222547e-14 1.364566960945431950e-13
6.469000000000000000e+03 2.597651672363281250e+01 -7.014376640319824219e+00 6.586664400747357928e-14 -6.327333405484192319e-14 7.779930387290560304e-16 8.569857876724457091e-14
6.470000000000000000e+03 2.577870750427246094e+01 -7.864178180694580078e+00 -3.541763236858397335e-14 -1.066808859133405729e-13 -4.262955548457736388e-14 8.436150676681755667e-14
6.471000000000000000e+03 2.486633300781250000e+01 -8.459415435791015625e+00 -2.157565372564763939e-14 -9.246708860567980776e-15 -9.246708860567980776e-15 -3.082829774607703105e-15
6.472000000000000000e+03 2.525181961059570312e+01 -6.859810829162597656e+00 -1.713754328334579635e-14 6.128176308420330010e-14 1.324326610966384057e-14 2.827350407562292250e-14
6.473000000000000000e+03 2.465999031066894531e+01 -9.230988502502441406e+00 -2.865993236462159588e-14 2.164719141786730638e-13 5.634359488302861929e-14 2.682037500889491305e-14
6.474000000000000000e+03 2.535675048828125000e+01 -9.524586677551269531e+00 -8.307007967785218217e-15 4.219080258229500335e-14 1.016513821494634609e-14 2.093716876033682034e-14
6.475000000000000000e+03 2.431071472167968750e+01 -1.057813739776611328e+01 3.435234952400834096e-14 1.519752883651429021e-13 5.589828933386629950e-14 -4.049551441924351472e-15
6.476000000000000000e+03 2.495792579650878906e+01 -1.019867897033691406e+01 3.620680957740901595e-14 1.070191027810474260e-13 4.296777235228421699e-14 1.342729502888315163e-14
6.477000000000000000e+03 2.506332397460937500e+01 -7.663268566131591797e+00 -2.616131730736118155e-14 3.453895427042025235e-14 2.513291173621015964e-15 -3.523452078604653870e-14
6.478000000000000000e+03 2.442913436889648438e+01 -9.942722320556640625e+00 -1.894299062228654851e-14 2.206363211706627303e-13 6.050800187501828575e-14 2.298622277490790927e-14
6.479000000000000000e+03 3.613071823120117188e+01 1.001799702644348145e+00 3.913179052713114392e-14 -7.473112840356010977e-14 -1.067980305699458426e-14 -6.169354306931329468e-14
6.480000000000000000e+03 3.686145401000976562e+01 1.141550779342651367e+00 -9.980595146728051675e-15 6.434902524027341641e-14 1.631052911276690415e-14 -3.970233836787448456e-14
6.481000000000000000e+03 3.744598388671875000e+01 2.005382776260375977e+00 4.425697343866420719e-14 6.471822318505904281e-14 3.269255797067743829e-14 -6.866532895662830205e-14
6.482000000000000000e+03 3.528780746459960938e+01 1.592470645904541016e+00 9.200991612492645522e-14 1.309347189048029603e-13 6.688338847603975124e-14 -8.654598440899566314e-14
6.483000000000000000e+03 3.600592422485351562e+01 1.731346011161804199e+00 3.177846711905490951e-14 -3.213160531916059437e-14 -1.059420569252354772e-16 3.893387958493928214e-14
6.484000000000000000e+03 3.672535705566406250e+01 1.868933916091918945e+00 -3.810715848776013992e-14 2.941930756623044318e-14 -2.606355318810556383e-15 -3.121444482013721600e-14
6.485000000000000000e+03 3.540129852294921875e+01 8.607612848281860352e-01 -2.007289530447410597e-14 1.427280501089828874e-14 -1.740027278655158303e-15 -8.884148265957039076e-15
6.486000000000000000e+03 3.759338760375976562e+01 1.280162692070007324e+00 4.377102724869262607e-14 4.163448489506553496e-14 2.562165398194062721e-14 2.822074069927255763e-14
6.487000000000000000e+03 3.242047500610351562e+01 -6.382087469100952148e-01 -1.036790892396978470e-13 2.300717938646251737e-13 3.791781274273091362e-14 5.057925446202461706e-14
6.488000000000000000e+03 3.177400016784667969e+01 -2.292438596487045288e-01 7.053198459040354446e-15 -6.560362333669217394e-14 -1.756512720918566167e-14 -4.217756515139531315e-14
6.489000000000000000e+03 3.389791488647460938e+01 -8.579165935516357422e-01 -3.070646222100986700e-13 5.140466774033319863e-14 -7.669798634092964140e-14 -1.807886387253029858e-13
6.490000000000000000e+03 3.379969787597656250e+01 -1.241296231746673584e-01 -7.662991877328828583e-14 1.290955545723638034e-14 -1.911610891011227692e-14 -1.140910282915186258e-13
6.491000000000000000e+03 3.298652648925781250e+01 -2.193930298089981079e-01 6.445811884871503403e-15 -4.298845689685616700e-14 -1.096279422357340425e-14 -1.570720617916250561e-14
6.492000000000000000e+03 3.108588027954101562e+01 -2.457440048456192017e-01 9.585509333975492097e-14 -5.042114390395834034e-14 1.363018483073897419e-14 3.874041048352282191e-14
6.493000000000000000e+03 3.138799095153808594e+01 -6.411798000335693359e-01 1.404095616901537835e-13 1.059264777129344248e-13 7.390081249855282031e-14 -5.556626597106976984e-14
6.494000000000000000e+03 3.184979820251464844e+01 -1.121615171432495117e+00 -1.736258977303589690e-13 1.709080061718451504e-14 -4.696052642344690498e-14 -1.261531298261259204e-13
6.495000000000000000e+03 3.308548355102539062e+01 -9.531037211418151855e-01 -3.165552943471677816e-13 -6.160515348720141393e-13 -2.797820568972708699e-13 -1.440568313509221765e-13
6.496000000000000000e+03 3.355125427246093750e+01 4.824572801589965820e-01 -2.384944590991602831e-14 -2.389759397314339395e-13 -7.884761365952591694e-14 -1.134260887931991604e-14
6.497000000000000000e+03 3.286275482177734375e+01 1.366154551506042480e+00 -5.460088558042509865e-14 -1.149022825670809045e-13 -5.085094875018590643e-14 -1.390702738515367520e-14
6.498000000000000000e+03 3.228193283081054688e+01 9.034321308135986328e-01 -4.370158494657787676e-15 4.387802445058978928e-14 1.185235923620818477e-14 2.852307428671840318e-15
6.499000000000000000e+03 3.287930679321289062e+01 4.690015316009521484e-01 7.066970028916583213e-14 5.316248811071573599e-14 3.714965550352493373e-14 3.329556750209135274e-14
6.500000000000000000e+03 3.326515960693359375e+01 8.809211850166320801e-01 7.008513913534311635e-14 -9.577862320527680273e-14 -7.708045559793284818e-15 -1.407069871451867640e-14
6.501000000000000000e+03 3.470178604125976562e+01 -2.625477313995361328e-02 -1.858147153938755070e-13 8.049344610988606874e-14 -3.159638214044954707e-14 -9.741120806034189727e-14
6.502000000000000000e+03 3.480463027954101562e+01 -7.595628499984741211e-01 -1.837072567635253395e-13 -2.159845246445593614e-13 -1.199075290014145478e-13 -1.848964503638889090e-13
6.503000000000000000e+03 3.076247978210449219e+01 -9.072458148002624512e-01 -1.055386518195727819e-13 1.034597348114132953e-13 -6.236748059863144247e-16 6.292097004285002876e-15
6.504000000000000000e+03 2.953321456909179688e+01 -5.663457512855529785e-01 4.358629613916004120e-14 -1.185729980998292965e-13 -2.249601262107985000e-14 9.704193557665691250e-14
6.505000000000000000e+03 3.034782981872558594e+01 -4.206801950931549072e-01 1.372730190152618435e-13 2.647105624975498728e-13 1.205950758090962305e-13 -7.211376271522643155e-14
6.506000000000000000e+03 3.038666725158691406e+01 -1.318126082420349121e+00 5.398485545854599110e-14 1.146382657855535281e-13 5.058693535679031905e-14 -5.855193174926498489e-14
6.507000000000000000e+03 2.873683547973632812e+01 -6.289992928504943848e-01 -1.053915323610300769e-13 -2.281715940320727665e-13 -1.000689399508099264e-13 8.646401152497570734e-17
6.508000000000000000e+03 2.802508735656738281e+01 -6.289408206939697266e-01 4.495709699154672168e-14 1.107692225704032252e-13 4.671789552977180515e-14 -6.401189257473904881e-14
6.509000000000000000e+03 2.791696357727050781e+01 -1.177338123321533203e+00 6.251793482588748757e-15 -2.019613351610192314e-14 -4.183302179460541767e-15 -7.792171178048687419e-14
6.510000000000000000e+03 2.678586959838867188e+01 -8.263717889785766602e-01 4.903568938158416046e-14 2.673416399552337036e-14 2.273095584372566980e-14 7.523043060904399670e-14
6.511000000000000000e+03 2.739744758605957031e+01 -1.507017254829406738e+00 1.507569703839209407e-13 -1.156859176393320622e-15 4.488003393400552543e-14 -8.923651341518137881e-14
6.512000000000000000e+03 3.112054824829101562e+01 -1.299885153770446777e+00 1.235572804687183959e-14 5.085557626058334613e-13 1.562734452476358116e-13 -2.013877752711154545e-14
6.513000000000000000e+03 2.954865646362304688e+01 -1.308701515197753906e+00 -1.821593480981313629e-14 -5.355777805840858385e-14 -2.153211453809287385e-14 1.242900232603996735e-14
6.514000000000000000e+03 2.868390464782714844e+01 -1.378432750701904297e+00 8.151363292034988217e-14 -7.944295584870128546e-14 6.212012580220950542e-16 4.226952921254460704e-14
6.515000000000000000e+03 2.740593719482421875e+01 -6.877901554107666016e-01 8.755099238904467951e-14 -1.912328937781274107e-13 -3.110457109435117717e-14 -1.140530202291094308e-14
6.516000000000000000e+03 3.086632347106933594e+01 -8.695044517517089844e+00 5.750844814461988919e-14 1.771004332327432134e-15 1.778383619836440555e-14 -1.278361639635294811e-13
6.517000000000000000e+03 3.225115966796875000e+01 -8.689290046691894531e+00 1.669256231720886441e-13 1.172904953499961933e-13 8.526483691187816683e-14 -2.336456223807348298e-13
6.518000000000000000e+03 3.135881805419921875e+01 -9.107579231262207031e+00 1.415058933744439695e-13 9.495859366838096949e-14 7.093934814572655512e-14 -8.775192893292413365e-14
6.519000000000000000e+03 3.377235031127929688e+01 -9.208752632141113281e+00 2.384420514766477650e-13 2.394423092959285793e-13 1.433653136527837657e-13 -1.319717853878396574e-13
6.520000000000000000e+03 3.427893447875976562e+01 -1.016785621643066406e+01 3.948679219972078824e-13 1.006026859040609622e-13 1.486411769493697910e-13 -1.193696698561716452e-13
6.521000000000000000e+03 3.580965805053710938e+01 -1.068376064300537109e+01 4.658515869067347825e-13 1.081487736821415413e-13 1.722001041109047503e-13 -2.275967229351666399e-13
6.522000000000000000e+03 3.609264755249023438e+01 -9.994895935058593750e+00 3.712107932239000485e-13 -6.966440092978296028e-14 9.046391836586148427e-14 -2.865958338704732711e-13
6.523000000000000000e+03 3.657517242431640625e+01 -1.094169998168945312e+01 5.575255426597258701e-13 3.306025836121231909e-14 1.771757518259295394e-13 -2.465104672038503919e-13
6.524000000000000000e+03 3.734022140502929688e+01 -1.120057773590087891e+01 7.924438015505241850e-13 3.167432950038767681e-13 3.327561208348039923e-13 -2.709129849707420101e-13
6.525000000000000000e+03 3.763978576660156250e+01 -1.051992034912109375e+01 4.556765121482841963e-13 1.266635044462963156e-13 1.747020090441323004e-13 -2.549099982745300919e-13
6.526000000000000000e+03 3.151015281677246094e+01 -8.515717506408691406e+00 2.310684467116824736e-13 7.527434418516144865e-15 7.157876315321345939e-14 -1.398246075130435417e-13
6.527000000000000000e+03 3.300304794311523438e+01 -8.946814537048339844e+00 2.736726318654236767e-13 -1.996458011931101506e-14 7.611241552383379849e-14 -1.985108177013708564e-13
6.528000000000000000e+03 3.454533767700195312e+01 -9.470784187316894531e+00 3.128833726395024994e-13 8.834192465013643303e-14 1.203675830882544595e-13 -1.307664642801603661e-13
6.529000000000000000e+03 3.531884002685546875e+01 -9.732975959777832031e+00 3.325948457616467735e-13 5.287806461142310899e-15 1.013647987161553354e-13 -1.519850326321681155e-13
6.530000000000000000e+03 3.686644744873046875e+01 -1.025693893432617188e+01 3.996283555809942989e-13 2.856466690785708362e-13 2.055824992663532469e-13 -1.667392081610569177e-13
6.531000000000000000e+03 3.275322341918945312e+01 -9.652093887329101562e+00 3.136583332473408259e-13 1.573004693080498617e-13 1.412876434771226375e-13 -2.039586490150402387e-13
6.532000000000000000e+03 3.351423263549804688e+01 -9.909928321838378906e+00 4.082018739953036102e-13 -7.668655478427349736e-14 9.945459711856174945e-14 -1.998295328037649754e-13
6.533000000000000000e+03 3.504414367675781250e+01 -1.042594432830810547e+01 4.012231085565032274e-13 3.469992102358467057e-14 1.307769132785976951e-13 -1.633799161498278307e-13
6.534000000000000000e+03 3.200962448120117188e+01 -9.398674011230468750e+00 2.500614190541206039e-13 -3.008366599994809210e-14 6.599332625506493244e-14 -1.650045388951887348e-13
6.535000000000000000e+03 3.293296813964843750e+01 -1.437336444854736328e+00 -3.139290043197018321e-13 -3.175447914598866772e-13 -1.894421306023602591e-13 -2.173819663772030841e-13
6.536000000000000000e+03 3.369779968261718750e+01 -1.458120226860046387e+00 -2.356819437960427921e-13 -4.898895959032367742e-13 -2.176714619097838699e-13 -6.357681579544777195e-14
6.537000000000000000e+03 3.284732055664062500e+01 -1.682937741279602051e+00 -7.310920938736684138e-14 4.261769702331580367e-13 1.059203316418691476e-13 -1.787391849111807929e-13
6.538000000000000000e+03 3.231448364257812500e+01 -1.727027297019958496e+00 -8.013944732430597351e-15 2.024447233114901046e-13 5.832923662303646228e-14 -6.998972934416439196e-14
6.539000000000000000e+03 3.330375671386718750e+01 -1.829273939132690430e+00 -1.057892448229520721e-13 3.321070903092998572e-13 6.789534890251983090e-14 -3.164305026771147000e-13
6.540000000000000000e+03 3.277976608276367188e+01 -1.938349246978759766e+00 -9.207565265789696696e-14 5.204090468020200477e-14 -1.201042490152825701e-14 -1.871323327415699844e-13
6.541000000000000000e+03 3.212217712402343750e+01 -1.481541037559509277e+00 -3.257115443241337394e-13 -6.886020616561627783e-13 -3.042940790835835241e-13 2.235349424550663044e-14
6.542000000000000000e+03 3.359871292114257812e+01 1.501616358757019043e+00 4.423114571003652906e-14 -1.640475949526987165e-13 -3.594493409517229843e-14 2.247176545593174840e-14
6.543000000000000000e+03 3.386261749267578125e+01 1.048467040061950684e+00 4.477229811937835646e-14 1.564409680358119781e-13 6.036397916893074256e-14 3.472356340720843260e-14
6.544000000000000000e+03 3.461767959594726562e+01 9.406403899192810059e-01 8.455684272884976538e-15 -1.793799348425925699e-13 -5.127727398506615186e-14 -7.971441466170323814e-15
6.545000000000000000e+03 3.428038787841796875e+01 6.043561100959777832e-01 8.773836624137269780e-15 1.519795303061427516e-14 7.191536727018874031e-15 -2.297363417124581586e-15
6.546000000000000000e+03 3.448412704467773438e+01 1.531275749206542969e+00 -3.401241826161624515e-14 -1.518295986982151624e-13 -5.575260305507034886e-14 4.294051483204157360e-14
