# el_label, x, y, sXX, sYY, sZZ, sXY
1.000000000000000000e+00 4.043542861938476562e+01 -1.330863285064697266e+01 -1.172591090202331543e+00 4.453067481517791748e-01 -2.181852906942367554e-01 -9.961045384407043457e-01
2.000000000000000000e+00 4.060995483398437500e+01 -1.340432929992675781e+01 1.981593251228332520e+00 7.808226346969604492e-01 8.287247419357299805e-01 -8.289536237716674805e-01
3.000000000000000000e+00 4.078448104858398438e+01 -1.350002479553222656e+01 1.328535676002502441e+00 5.459959506988525391e-01 5.623595118522644043e-01 -1.056557297706604004e+00
4.000000000000000000e+00 4.095901107788085938e+01 -1.359572029113769531e+01 1.480449438095092773e+00 6.459214091300964355e-01 6.379112601280212402e-01 -8.764175772666931152e-01
5.000000000000000000e+00 4.045836639404296875e+01 -1.325492095947265625e+01 4.136144638061523438e+00 9.165005683898925781e-01 1.515793561935424805e+00 -3.146897792816162109e+00
6.000000000000000000e+00 4.064818191528320312e+01 -1.331480884552001953e+01 2.754281282424926758e+00 8.754361867904663086e-01 1.088915228843688965e+00 -1.580922484397888184e+00
7.000000000000000000e+00 4.083800125122070312e+01 -1.337469577789306641e+01 3.188763856887817383e+00 7.542372345924377441e-01 1.182900309562683105e+00 -1.324837684631347656e+00
8.000000000000000000e+00 4.102781677246093750e+01 -1.343458366394042969e+01 2.540430307388305664e+00 6.391602158546447754e-01 9.538771510124206543e-01 -1.345223069190979004e+00
9.000000000000000000e+00 4.047040557861328125e+01 -1.319777107238769531e+01 8.304763793945312500e+00 3.240401744842529297e-01 2.588641166687011719e+00 -2.404573678970336914e+00
1.000000000000000000e+01 4.066825103759765625e+01 -1.321955871582031250e+01 5.536210060119628906e+00 5.868723392486572266e-01 1.836924672126770020e+00 -1.889522433280944824e+00
1.100000000000000000e+01 4.086609649658203125e+01 -1.324134635925292969e+01 4.470555782318115234e+00 6.418822407722473145e-01 1.533731460571289062e+00 -1.372016191482543945e+00
1.200000000000000000e+01 4.106393814086914062e+01 -1.326313400268554688e+01 4.193364143371582031e+00 5.429999232292175293e-01 1.420909166336059570e+00 -1.167477965354919434e+00
1.300000000000000000e+01 4.047108840942382812e+01 -1.313937091827392578e+01 1.137931060791015625e+01 3.855523467063903809e-01 3.529458761215209961e+00 -8.325330615043640137e-01
1.400000000000000000e+01 4.066939163208007812e+01 -1.312222385406494141e+01 7.728334426879882812e+00 3.782389461994171143e-01 2.431972026824951172e+00 -9.546883702278137207e-01
1.500000000000000000e+01 4.086769104003906250e+01 -1.310507774353027344e+01 6.336891174316406250e+00 4.881314039230346680e-01 2.047506809234619141e+00 -8.634435534477233887e-01
1.600000000000000000e+01 4.106599426269531250e+01 -1.308793163299560547e+01 5.413058280944824219e+00 4.387323856353759766e-01 1.755537152290344238e+00 -7.462539076805114746e-01
1.700000000000000000e+01 4.046039199829101562e+01 -1.308195400238037109e+01 1.306310081481933594e+01 1.067458033561706543e+00 4.239167690277099609e+00 1.362703561782836914e+00
1.800000000000000000e+01 4.065156173706054688e+01 -1.302653026580810547e+01 9.359127044677734375e+00 8.238629102706909180e-01 3.054896831512451172e+00 4.593104422092437744e-01
1.900000000000000000e+01 4.084273147583007812e+01 -1.297110652923583984e+01 7.539536476135253906e+00 6.489887833595275879e-01 2.456557512283325195e+00 1.820684075355529785e-01
2.000000000000000000e+01 4.103389739990234375e+01 -1.291568374633789062e+01 6.546506881713867188e+00 6.017194986343383789e-01 2.144467830657958984e+00 1.482578516006469727e-01
2.100000000000000000e+01 4.043872070312500000e+01 -1.302771949768066406e+01 1.362478542327880859e+01 2.766416549682617188e+00 4.917360782623291016e+00 3.503521442413330078e+00
2.200000000000000000e+01 4.061544036865234375e+01 -1.293613910675048828e+01 1.000561141967773438e+01 1.782246470451354980e+00 3.536357402801513672e+00 2.049653053283691406e+00
2.300000000000000000e+01 4.079216384887695312e+01 -1.284455871582031250e+01 8.219457626342773438e+00 1.480739831924438477e+00 2.910059213638305664e+00 1.458003520965576172e+00
2.400000000000000000e+01 4.096888351440429688e+01 -1.275297832489013672e+01 7.042571544647216797e+00 1.110107898712158203e+00 2.445803880691528320e+00 1.157729029655456543e+00
2.500000000000000000e+01 4.040690612792968750e+01 -1.297874069213867188e+01 1.304790401458740234e+01 5.068384170532226562e+00 5.434886455535888672e+00 5.227641582489013672e+00
2.600000000000000000e+01 4.056241607666015625e+01 -1.285450839996337891e+01 9.963535308837890625e+00 3.460411071777343750e+00 4.027184009552001953e+00 3.386951923370361328e+00
2.700000000000000000e+01 4.071792602539062500e+01 -1.273027610778808594e+01 8.170088768005371094e+00 2.682297945022583008e+00 3.255716085433959961e+00 2.658572435379028320e+00
2.800000000000000000e+01 4.087343597412109375e+01 -1.260604381561279297e+01 7.026108264923095703e+00 2.337070465087890625e+00 2.808953762054443359e+00 2.148377895355224609e+00
2.900000000000000000e+01 4.036616134643554688e+01 -1.293689346313476562e+01 1.189103031158447266e+01 7.910929679870605469e+00 5.940587997436523438e+00 6.123014450073242188e+00
3.000000000000000000e+01 4.049451065063476562e+01 -1.278476333618164062e+01 9.246455192565917969e+00 5.420592784881591797e+00 4.400114536285400391e+00 4.285465717315673828e+00
3.100000000000000000e+01 4.062285995483398438e+01 -1.263263320922851562e+01 7.689846038818359375e+00 4.363366127014160156e+00 3.615963697433471680e+00 3.447126388549804688e+00
3.200000000000000000e+01 4.075120925903320312e+01 -1.248050212860107422e+01 6.546197414398193359e+00 3.756807327270507812e+00 3.090901374816894531e+00 2.955166339874267578e+00
3.300000000000000000e+01 4.031805419921875000e+01 -1.290377902984619141e+01 1.039869594573974609e+01 1.066391086578369141e+01 6.318781852722167969e+00 6.148425102233886719e+00
3.400000000000000000e+01 4.041432952880859375e+01 -1.272957229614257812e+01 8.311981201171875000e+00 7.602112293243408203e+00 4.774228096008300781e+00 4.519515037536621094e+00
3.500000000000000000e+01 4.051060867309570312e+01 -1.255536460876464844e+01 6.853523731231689453e+00 6.115278244018554688e+00 3.890640735626220703e+00 3.745802879333496094e+00
3.600000000000000000e+01 4.060688400268554688e+01 -1.238115787506103516e+01 5.867890834808349609e+00 5.289652824401855469e+00 3.347263097763061523e+00 3.239299774169921875e+00
3.700000000000000000e+01 4.026441574096679688e+01 -1.288066387176513672e+01 9.216993331909179688e+00 1.313193607330322266e+01 6.704679012298583984e+00 5.306313037872314453e+00
3.800000000000000000e+01 4.032493591308593750e+01 -1.269104671478271484e+01 7.248238563537597656e+00 9.536604881286621094e+00 5.035453319549560547e+00 4.161837577819824219e+00
3.900000000000000000e+01 4.038545989990234375e+01 -1.250142955780029297e+01 6.070638179779052734e+00 7.832018375396728516e+00 4.170796871185302734e+00 3.410683155059814453e+00
4.000000000000000000e+01 4.044597625732421875e+01 -1.231181240081787109e+01 5.123008251190185547e+00 6.681702136993408203e+00 3.541413307189941406e+00 3.052500963211059570e+00
4.100000000000000000e+01 4.020730972290039062e+01 -1.286843299865722656e+01 8.294098854064941406e+00 1.481601238250732422e+01 6.933033466339111328e+00 3.946917295455932617e+00
4.200000000000000000e+01 4.022975540161132812e+01 -1.267066192626953125e+01 6.663204193115234375e+00 1.113354110717773438e+01 5.339023590087890625e+00 3.212715864181518555e+00
4.300000000000000000e+01 4.025220108032226562e+01 -1.247288990020751953e+01 5.265572547912597656e+00 9.196434020996093750e+00 4.338602066040039062e+00 2.686142921447753906e+00
4.400000000000000000e+01 4.027465057373046875e+01 -1.227511882781982422e+01 4.678143024444580078e+00 7.824997901916503906e+00 3.750942230224609375e+00 2.212015151977539062e+00
4.500000000000000000e+01 4.014891052246093750e+01 -1.286755371093750000e+01 8.315375328063964844e+00 1.578522491455078125e+01 7.230179786682128906e+00 2.370370626449584961e+00
4.600000000000000000e+01 4.013242340087890625e+01 -1.266919708251953125e+01 6.170202255249023438e+00 1.213050556182861328e+01 5.490212440490722656e+00 1.944797754287719727e+00
4.700000000000000000e+01 4.011594009399414062e+01 -1.247083950042724609e+01 5.199425697326660156e+00 1.004686737060546875e+01 4.573887825012207031e+00 1.614852309226989746e+00
4.800000000000000000e+01 4.009945678710937500e+01 -1.227248287200927734e+01 4.052752017974853516e+00 8.715630531311035156e+00 3.830514907836914062e+00 1.190312266349792480e+00
4.900000000000000000e+01 4.009145736694335938e+01 -1.287806129455566406e+01 8.706250190734863281e+00 1.590383911132812500e+01 7.383026599884033203e+00 7.473224401473999023e-01
5.000000000000000000e+01 4.003667068481445312e+01 -1.268670845031738281e+01 6.465661525726318359e+00 1.248428630828857422e+01 5.684984683990478516e+00 7.463585734367370605e-01
5.100000000000000000e+01 3.998188400268554688e+01 -1.249535560607910156e+01 5.201308250427246094e+00 1.041101646423339844e+01 4.683697223663330078e+00 3.409765958786010742e-01
5.200000000000000000e+01 3.992710113525390625e+01 -1.230400371551513672e+01 4.360437393188476562e+00 9.094827651977539062e+00 4.036579608917236328e+00 3.059168457984924316e-01
5.300000000000000000e+01 4.003715133666992188e+01 -1.289955139160156250e+01 9.454607009887695312e+00 1.548743629455566406e+01 7.482613086700439453e+00 -3.649865090847015381e-01
5.400000000000000000e+01 3.994616317749023438e+01 -1.272252655029296875e+01 7.293690681457519531e+00 1.220354366302490234e+01 5.849170207977294922e+00 -4.513966739177703857e-01
5.500000000000000000e+01 3.985517120361328125e+01 -1.254550075531005859e+01 5.620851516723632812e+00 1.027970695495605469e+01 4.770167350769042969e+00 -5.329795479774475098e-01
5.600000000000000000e+01 3.976417922973632812e+01 -1.236847591400146484e+01 4.979196071624755859e+00 8.836637496948242188e+00 4.144750118255615234e+00 -7.233239412307739258e-01
5.700000000000000000e+01 3.998806762695312500e+01 -1.293120384216308594e+01 1.093583583831787109e+01 1.467314338684082031e+01 7.682693958282470703e+00 -1.016351222991943359e+00
5.800000000000000000e+01 3.986435317993164062e+01 -1.277527999877929688e+01 7.961142539978027344e+00 1.150774478912353516e+01 5.840666294097900391e+00 -1.242571234703063965e+00
5.900000000000000000e+01 3.974063873291015625e+01 -1.261935615539550781e+01 6.877901554107666016e+00 9.666250228881835938e+00 4.963245391845703125e+00 -1.117528676986694336e+00
6.000000000000000000e+01 3.961692810058593750e+01 -1.246343231201171875e+01 5.346095085144042969e+00 8.266684532165527344e+00 4.083834171295166016e+00 -1.359395742416381836e+00
6.100000000000000000e+01 3.994608306884765625e+01 -1.297180557250976562e+01 1.195078849792480469e+01 1.349978637695312500e+01 7.635172367095947266e+00 -1.283761978149414062e+00
6.200000000000000000e+01 3.979438400268554688e+01 -1.284294986724853516e+01 9.281016349792480469e+00 1.068701839447021484e+01 5.990410327911376953e+00 -1.291218042373657227e+00
6.300000000000000000e+01 3.964268112182617188e+01 -1.271409416198730469e+01 7.569492816925048828e+00 8.738333702087402344e+00 4.892347812652587891e+00 -1.503355145454406738e+00
6.400000000000000000e+01 3.949097824096679688e+01 -1.258523845672607422e+01 6.703781604766845703e+00 7.857614040374755859e+00 4.368418693542480469e+00 -1.402751564979553223e+00
6.500000000000000000e+01 3.991281127929687500e+01 -1.301980400085449219e+01 1.303976726531982422e+01 1.256430721282958984e+01 7.681222438812255859e+00 -9.044051170349121094e-01
6.600000000000000000e+01 3.973892211914062500e+01 -1.292294788360595703e+01 1.026079559326171875e+01 9.674510955810546875e+00 5.980592250823974609e+00 -9.984725117683410645e-01
6.700000000000000000e+01 3.956504058837890625e+01 -1.282609081268310547e+01 8.421608924865722656e+00 8.006920814514160156e+00 4.928558826446533203e+00 -1.121427297592163086e+00
6.800000000000000000e+01 3.939115524291992188e+01 -1.272923374176025391e+01 7.271351814270019531e+00 7.101435184478759766e+00 4.311836242675781250e+00 -1.120290637016296387e+00
6.900000000000000000e+01 3.988951492309570312e+01 -1.307336235046386719e+01 1.385253429412841797e+01 1.189665889739990234e+01 7.724758148193359375e+00 -4.473203420639038086e-02
7.000000000000000000e+01 3.970009994506835938e+01 -1.301221179962158203e+01 1.086888599395751953e+01 8.785521507263183594e+00 5.896322250366210938e+00 -2.773584723472595215e-01
7.100000000000000000e+01 3.951068878173828125e+01 -1.295105934143066406e+01 9.066372871398925781e+00 7.559771060943603516e+00 4.987843513488769531e+00 -3.034310638904571533e-01
7.200000000000000000e+01 3.932127380371093750e+01 -1.288990879058837891e+01 7.565956115722656250e+00 6.001193523406982422e+00 4.070144653320312500e+00 -2.568325102329254150e-01
7.300000000000000000e+01 3.987709426879882812e+01 -1.313043117523193359e+01 1.404879760742187500e+01 1.118051624298095703e+01 7.568793773651123047e+00 1.084672093391418457e+00
7.400000000000000000e+01 3.967939758300781250e+01 -1.310732555389404297e+01 1.103891181945800781e+01 8.730628967285156250e+00 5.930862426757812500e+00 8.041024208068847656e-01
7.500000000000000000e+01 3.948170471191406250e+01 -1.308421897888183594e+01 9.166640281677246094e+00 6.897035121917724609e+00 4.819102287292480469e+00 6.894491910934448242e-01
7.600000000000000000e+01 3.928400802612304688e+01 -1.306111335754394531e+01 8.146859169006347656e+00 5.870887279510498047e+00 4.205323696136474609e+00 5.553858280181884766e-01
7.700000000000000000e+01 3.987602233886718750e+01 -1.318882560729980469e+01 1.375349044799804688e+01 1.135786533355712891e+01 7.533406734466552734e+00 2.300922393798828125e+00
7.800000000000000000e+01 3.967760848999023438e+01 -1.320464992523193359e+01 1.054659080505371094e+01 8.702260971069335938e+00 5.774655342102050781e+00 2.015877246856689453e+00
7.900000000000000000e+01 3.947919845581054688e+01 -1.322047424316406250e+01 8.810315132141113281e+00 7.142686843872070312e+00 4.785900592803955078e+00 1.608573079109191895e+00
8.000000000000000000e+01 3.928078842163085938e+01 -1.323629760742187500e+01 7.770633220672607422e+00 5.953821182250976562e+00 4.117336273193359375e+00 1.260406732559204102e+00
8.100000000000000000e+01 3.988633728027343750e+01 -1.324631214141845703e+01 1.269430828094482422e+01 1.191166305541992188e+01 7.381791591644287109e+00 3.565815687179565430e+00
8.200000000000000000e+01 3.969480133056640625e+01 -1.330045986175537109e+01 9.549946784973144531e+00 9.264698982238769531e+00 5.644393444061279297e+00 2.928114652633666992e+00
8.300000000000000000e+01 3.950326919555664062e+01 -1.335460853576660156e+01 7.846306800842285156e+00 7.734426021575927734e+00 4.674219608306884766e+00 2.447420358657836914e+00
8.400000000000000000e+01 3.931173324584960938e+01 -1.340875625610351562e+01 6.589268684387207031e+00 6.612063407897949219e+00 3.960399627685546875e+00 1.948177576065063477e+00
8.500000000000000000e+01 3.990764617919921875e+01 -1.330068969726562500e+01 1.105232810974121094e+01 1.286285781860351562e+01 7.174555778503417969e+00 4.411260604858398438e+00
8.600000000000000000e+01 3.973031997680664062e+01 -1.339109039306640625e+01 8.018167495727539062e+00 1.026138210296630859e+01 5.483864784240722656e+00 3.489686012268066406e+00
8.700000000000000000e+01 3.955298995971679688e+01 -1.348149108886718750e+01 6.442533016204833984e+00 8.516098022460937500e+00 4.487589359283447266e+00 2.899946689605712891e+00
8.800000000000000000e+01 3.937566375732421875e+01 -1.357189083099365234e+01 5.346676826477050781e+00 7.539861679077148438e+00 3.865961551666259766e+00 2.542873144149780273e+00
8.900000000000000000e+01 3.993913269042968750e+01 -1.334987926483154297e+01 8.902126312255859375e+00 1.425000381469726562e+01 6.945639133453369141e+00 4.681414127349853516e+00
9.000000000000000000e+01 3.978279876708984375e+01 -1.347307205200195312e+01 6.236606121063232422e+00 1.125615596771240234e+01 5.247828483581542969e+00 3.468680858612060547e+00
9.100000000000000000e+01 3.962646484375000000e+01 -1.359626579284667969e+01 4.848201274871826172e+00 9.492949485778808594e+00 4.302345275878906250e+00 2.918389320373535156e+00
9.200000000000000000e+01 3.947012710571289062e+01 -1.371945858001708984e+01 3.966578960418701172e+00 8.260253906250000000e+00 3.668049812316894531e+00 2.536557674407958984e+00
9.300000000000000000e+01 3.997959518432617188e+01 -1.339199733734130859e+01 6.613668441772460938e+00 1.555619430541992188e+01 6.650959014892578125e+00 4.161960601806640625e+00
9.400000000000000000e+01 3.985023498535156250e+01 -1.354326820373535156e+01 4.368777751922607422e+00 1.221135616302490234e+01 4.974040031433105469e+00 2.863122940063476562e+00
9.500000000000000000e+01 3.972087478637695312e+01 -1.369454097747802734e+01 3.387065410614013672e+00 1.016674423217773438e+01 4.066143035888671875e+00 2.334251880645751953e+00
9.600000000000000000e+01 3.959151458740234375e+01 -1.384581279754638672e+01 2.527030944824218750e+00 8.936764717102050781e+00 3.439138650894165039e+00 2.122493743896484375e+00
9.700000000000000000e+01 4.002748489379882812e+01 -1.342543125152587891e+01 4.356958389282226562e+00 1.656614112854003906e+01 6.276929855346679688e+00 2.846999406814575195e+00
9.800000000000000000e+01 3.993004608154296875e+01 -1.359899330139160156e+01 2.898339033126831055e+00 1.264898490905761719e+01 4.664196968078613281e+00 1.691249966621398926e+00
9.900000000000000000e+01 3.983261108398437500e+01 -1.377255535125732422e+01 2.008551597595214844e+00 1.055905532836914062e+01 3.770282030105590820e+00 1.295511603355407715e+00
1.000000000000000000e+02 3.973517608642578125e+01 -1.394611644744873047e+01 1.649246931076049805e+00 9.060590744018554688e+00 3.212951183319091797e+00 1.231342077255249023e+00
1.010000000000000000e+02 4.008096313476562500e+01 -1.344890403747558594e+01 2.757998943328857422e+00 1.675064468383789062e+01 5.852592945098876953e+00 9.348599910736083984e-01
1.020000000000000000e+02 4.001918029785156250e+01 -1.363811302185058594e+01 1.753499150276184082e+00 1.251643848419189453e+01 4.280981063842773438e+00 1.111941933631896973e-01
1.030000000000000000e+02 3.995740127563476562e+01 -1.382732295989990234e+01 1.253306508064270020e+00 1.027796936035156250e+01 3.459382772445678711e+00 3.313980251550674438e-02
1.040000000000000000e+02 3.989561843872070312e+01 -1.401653289794921875e+01 8.798136115074157715e-01 8.824110984802246094e+00 2.911177396774291992e+00 -8.135151118040084839e-02
1.050000000000000000e+02 4.013798904418945312e+01 -1.346151542663574219e+01 1.858132600784301758e+00 1.596916866302490234e+01 5.348190307617187500e+00 -1.381535887718200684e+00
1.060000000000000000e+02 4.011422729492187500e+01 -1.365913295745849609e+01 1.292164564132690430e+00 1.151185035705566406e+01 3.841204404830932617e+00 -1.447260141372680664e+00
1.070000000000000000e+02 4.009046173095703125e+01 -1.385675048828125000e+01 9.391491413116455078e-01 9.402821540832519531e+00 3.102591037750244141e+00 -1.364397168159484863e+00
1.080000000000000000e+02 4.006669998168945312e+01 -1.405436706542968750e+01 5.676290988922119141e-01 8.107180595397949219e+00 2.602442979812622070e+00 -1.179316163063049316e+00
1.090000000000000000e+02 4.019638061523437500e+01 -1.346278381347656250e+01 1.780003428459167480e+00 1.397980499267578125e+01 4.727942466735839844e+00 -3.428151845932006836e+00
1.100000000000000000e+02 4.021154403686523438e+01 -1.366124629974365234e+01 1.452401041984558105e+00 9.757998466491699219e+00 3.363120079040527344e+00 -2.876844644546508789e+00
1.110000000000000000e+02 4.022670745849609375e+01 -1.385970878601074219e+01 1.061354160308837891e+00 7.866179466247558594e+00 2.678260087966918945e+00 -2.357907772064208984e+00
1.120000000000000000e+02 4.024187088012695312e+01 -1.405817127227783203e+01 7.912686467170715332e-01 6.891454219818115234e+00 2.304816722869873047e+00 -2.015626192092895508e+00
1.130000000000000000e+02 4.025390243530273438e+01 -1.345266056060791016e+01 2.503617763519287109e+00 1.094554424285888672e+01 4.034748554229736328e+00 -4.979973793029785156e+00
1.140000000000000000e+02 4.030741119384765625e+01 -1.364437389373779297e+01 1.932144045829772949e+00 7.325288295745849609e+00 2.777229785919189453e+00 -3.590599536895751953e+00
1.150000000000000000e+02 4.036092376708984375e+01 -1.383608722686767578e+01 1.569698572158813477e+00 5.993024826049804688e+00 2.268816947937011719e+00 -2.912465810775756836e+00
1.160000000000000000e+02 4.041443252563476562e+01 -1.402780055999755859e+01 1.208327054977416992e+00 5.141469478607177734e+00 1.904939055442810059e+00 -2.383093357086181641e+00
1.170000000000000000e+02 4.030835342407226562e+01 -1.343153190612792969e+01 3.365099191665649414e+00 7.144365310668945312e+00 3.152839422225952148e+00 -5.325951576232910156e+00
1.180000000000000000e+02 4.039815902709960938e+01 -1.360916042327880859e+01 2.613061904907226562e+00 4.642047405242919922e+00 2.176532745361328125e+00 -3.626594543457031250e+00
1.190000000000000000e+02 4.048796844482421875e+01 -1.378678798675537109e+01 1.993584156036376953e+00 3.942998170852661133e+00 1.780974745750427246e+00 -2.643986463546752930e+00
1.200000000000000000e+02 4.057777786254882812e+01 -1.396441555023193359e+01 1.542590498924255371e+00 3.629139661788940430e+00 1.551519036293029785e+00 -2.410100698471069336e+00
1.210000000000000000e+02 4.035764694213867188e+01 -1.340020751953125000e+01 4.156059741973876953e+00 2.739455938339233398e+00 2.068654775619506836e+00 -4.499420642852783203e+00
1.220000000000000000e+02 4.048031616210937500e+01 -1.355695343017578125e+01 2.586594581604003906e+00 2.368863105773925781e+00 1.486637353897094727e+00 -2.374194383621215820e+00
1.230000000000000000e+02 4.060298919677734375e+01 -1.371369838714599609e+01 2.072361946105957031e+00 2.584026575088500977e+00 1.396916508674621582e+00 -2.273892641067504883e+00
1.240000000000000000e+02 4.072565841674804688e+01 -1.387044334411621094e+01 1.746136426925659180e+00 1.967374682426452637e+00 1.114053368568420410e+00 -1.893326759338378906e+00
1.250000000000000000e+02 4.039989852905273438e+01 -1.335988616943359375e+01 2.168692350387573242e+00 -6.785492300987243652e-01 4.470429122447967529e-01 -1.246895909309387207e+00
1.260000000000000000e+02 4.055073547363281250e+01 -1.348975086212158203e+01 2.140905618667602539e+00 1.813515186309814453e+00 1.186326265335083008e+00 -1.688712239265441895e+00
1.270000000000000000e+02 4.070157623291015625e+01 -1.361961460113525391e+01 1.754688024520874023e+00 9.503454566001892090e-01 8.115100264549255371e-01 -1.416875481605529785e+00
1.280000000000000000e+02 4.085241699218750000e+01 -1.374947929382324219e+01 1.498047113418579102e+00 1.017520427703857422e+00 7.546702623367309570e-01 -1.207077980041503906e+00
1.290000000000000000e+02 4.338046264648437500e+01 -1.470471668243408203e+01 9.377909302711486816e-01 1.730189323425292969e-01 3.332429528236389160e-01 -4.271927475929260254e-01
1.300000000000000000e+02 4.431885528564453125e+01 -1.566730880737304688e+01 4.338702559471130371e-01 9.852366149425506592e-02 1.597181707620620728e-01 -2.270429879426956177e-01
1.310000000000000000e+02 4.349868774414062500e+01 -1.406129837036132812e+01 1.450981259346008301e+00 -2.122738584876060486e-02 4.289261698722839355e-01 -3.810573220252990723e-01
1.320000000000000000e+02 4.546398925781250000e+01 -1.550536918640136719e+01 5.622652173042297363e-01 -7.724371552467346191e-02 1.455064564943313599e-01 -1.013682633638381958e-01
1.330000000000000000e+02 4.366848754882812500e+01 -1.391039848327636719e+01 1.570504188537597656e+00 -7.796548306941986084e-02 4.477616250514984131e-01 -3.402388989925384521e-01
1.340000000000000000e+02 4.458091735839843750e+01 -1.468687725067138672e+01 9.621272683143615723e-01 -8.211772143840789795e-02 2.640028595924377441e-01 -2.155336886644363403e-01
1.350000000000000000e+02 4.500646972656250000e+01 -1.507029247283935547e+01 7.185950875282287598e-01 -9.156668931245803833e-02 1.881085187196731567e-01 -1.681842207908630371e-01
1.360000000000000000e+02 4.309565734863281250e+01 -1.454071903228759766e+01 1.011020064353942871e+00 2.278584241867065430e-01 3.716635406017303467e-01 -5.141198039054870605e-01
1.370000000000000000e+02 4.368169784545898438e+01 -1.531140232086181641e+01 5.569108724594116211e-01 1.845556795597076416e-01 2.224399745464324951e-01 -3.383716642856597900e-01
1.380000000000000000e+02 4.298982620239257812e+01 -1.470967960357666016e+01 9.341139197349548340e-01 2.755294442176818848e-01 3.628929853439331055e-01 -5.135958194732666016e-01
1.390000000000000000e+02 4.375546264648437500e+01 -1.441632080078125000e+01 1.138829946517944336e+00 1.547163259238004684e-02 3.462904691696166992e-01 -3.551842570304870605e-01
1.400000000000000000e+02 4.323842620849609375e+01 -1.440187740325927734e+01 1.145870804786682129e+00 1.449212133884429932e-01 3.872376084327697754e-01 -4.802251160144805908e-01
1.410000000000000000e+02 4.294380187988281250e+01 -1.493305969238281250e+01 7.118355631828308105e-01 3.031666278839111328e-01 3.045006394386291504e-01 -4.530483484268188477e-01
1.420000000000000000e+02 4.326841354370117188e+01 -1.497657108306884766e+01 7.313545942306518555e-01 2.389291375875473022e-01 2.910851240158081055e-01 -4.171485304832458496e-01
1.430000000000000000e+02 4.381550598144531250e+01 -1.486377906799316406e+01 8.411240577697753906e-01 8.944373577833175659e-02 2.791703343391418457e-01 -3.414966762065887451e-01
1.440000000000000000e+02 4.337224197387695312e+01 -1.423925495147705078e+01 1.253149151802062988e+00 7.900395989418029785e-02 3.996459245681762695e-01 -4.321467280387878418e-01
1.450000000000000000e+02 4.444014739990234375e+01 -1.511263084411621094e+01 7.315148711204528809e-01 -2.151203574612736702e-03 2.188090980052947998e-01 -2.367132306098937988e-01
1.460000000000000000e+02 4.410583114624023438e+01 -1.430692863464355469e+01 1.190159797668457031e+00 -8.789869397878646851e-02 3.306783437728881836e-01 -2.805669903755187988e-01
1.470000000000000000e+02 4.498962783813476562e+01 -1.607589912414550781e+01 3.238968551158905029e-01 2.050292119383811951e-02 1.033199355006217957e-01 -1.391266137361526489e-01
1.480000000000000000e+02 4.126657867431640625e+01 -1.284802055358886719e+01 5.564895629882812500e+00 4.128068685531616211e-01 1.793310761451721191e+00 7.268904894590377808e-02
1.490000000000000000e+02 4.088144683837890625e+01 -1.229623603820800781e+01 5.528398513793945312e+00 3.412403583526611328e+00 2.682240486145019531e+00 2.380384683609008789e+00
1.500000000000000000e+02 4.002416610717773438e+01 -1.209891414642333984e+01 3.724385499954223633e+00 8.380765914916992188e+00 3.631545305252075195e+00 7.396349310874938965e-01
1.510000000000000000e+02 3.949701309204101562e+01 -1.229649829864501953e+01 4.974079132080078125e+00 7.806411266326904297e+00 3.834146976470947266e+00 -1.626186728477478027e+00
1.520000000000000000e+02 3.885403442382812500e+01 -1.336730575561523438e+01 5.357308387756347656e+00 4.604666233062744141e+00 2.988592386245727539e+00 1.287785649299621582e+00
1.530000000000000000e+02 3.985315704345703125e+01 -1.419813823699951172e+01 4.085910618305206299e-01 7.964244842529296875e+00 2.511850833892822266e+00 -1.185831800103187561e-01
1.540000000000000000e+02 4.172505569458007812e+01 -1.565645790100097656e+01 2.306429594755172729e-01 1.424608945846557617e+00 4.965755641460418701e-01 -7.630906105041503906e-01
1.550000000000000000e+02 4.157268142700195312e+01 -1.552432537078857422e+01 2.586676776409149170e-01 1.561512231826782227e+00 5.460540056228637695e-01 -8.689716458320617676e-01
1.560000000000000000e+02 4.220761871337890625e+01 -1.499441146850585938e+01 3.337168097496032715e-01 4.569896757602691650e-01 2.372119426727294922e-01 -4.116456806659698486e-01
1.570000000000000000e+02 3.903113555908203125e+01 -1.374635696411132812e+01 3.591945886611938477e+00 5.907473564147949219e+00 2.849825859069824219e+00 1.725933074951171875e+00
1.580000000000000000e+02 3.984497070312500000e+01 -1.214591789245605469e+01 3.704192399978637695e+00 8.192528724670410156e+00 3.569016456604003906e+00 4.305465817451477051e-01
1.590000000000000000e+02 4.202103805541992188e+01 -1.390104579925537109e+01 1.557778000831604004e+00 3.891733586788177490e-01 5.840854048728942871e-01 -7.901898622512817383e-01
1.600000000000000000e+02 4.335074615478515625e+01 -1.367873191833496094e+01 1.812852621078491211e+00 -7.659589499235153198e-02 5.208770632743835449e-01 -3.799824416637420654e-01
1.610000000000000000e+02 4.317283248901367188e+01 -1.356770324707031250e+01 1.942523360252380371e+00 -4.699864238500595093e-02 5.686573982238769531e-01 -4.081511497497558594e-01
1.620000000000000000e+02 4.102911376953125000e+01 -1.208877944946289062e+01 4.965404033660888672e+00 2.393310308456420898e+00 2.207614183425903320e+00 2.039180517196655273e+00
1.630000000000000000e+02 4.154404449462890625e+01 -1.241360378265380859e+01 4.944766044616699219e+00 6.207798719406127930e-01 1.669663786888122559e+00 9.376200437545776367e-01
1.640000000000000000e+02 4.185334014892578125e+01 -1.266679763793945312e+01 4.309491157531738281e+00 1.949008256196975708e-01 1.351317644119262695e+00 2.800537645816802979e-01
1.650000000000000000e+02 4.130255889892578125e+01 -1.307223320007324219e+01 4.817099571228027344e+00 2.921303212642669678e-01 1.532768964767456055e+00 -5.989333391189575195e-01
1.660000000000000000e+02 4.140120697021484375e+01 -1.357110691070556641e+01 2.151663780212402344e+00 4.885023236274719238e-01 7.920498251914978027e-01 -1.055304646492004395e+00
1.670000000000000000e+02 4.187821960449218750e+01 -1.377235031127929688e+01 1.770586371421813965e+00 4.244098961353302002e-01 6.584988832473754883e-01 -8.778308033943176270e-01
1.680000000000000000e+02 4.282625961303710938e+01 -1.365558528900146484e+01 1.948060154914855957e+00 6.170803308486938477e-02 6.029304265975952148e-01 -5.376086235046386719e-01
1.690000000000000000e+02 4.300288009643554688e+01 -1.345645999908447266e+01 2.119684934616088867e+00 -5.206928029656410217e-02 6.202846765518188477e-01 -4.035310447216033936e-01
1.700000000000000000e+02 4.175551223754882812e+01 -1.595558547973632812e+01 1.402756124734878540e-01 1.520261049270629883e+00 4.981609880924224854e-01 -6.919862627983093262e-01
1.710000000000000000e+02 4.197873687744140625e+01 -1.460162353515625000e+01 4.704897999763488770e-01 4.007235467433929443e-01 2.613640129566192627e-01 -4.222255647182464600e-01
1.720000000000000000e+02 4.248561477661132812e+01 -1.492108535766601562e+01 2.342294454574584961e-01 1.800543069839477539e-01 1.242851242423057556e-01 -2.400057613849639893e-01
1.730000000000000000e+02 4.225000000000000000e+01 -1.527089881896972656e+01 3.265457749366760254e-01 6.030443310737609863e-01 2.788770496845245361e-01 -4.754065573215484619e-01
1.740000000000000000e+02 4.212990951538085938e+01 -1.544139957427978516e+01 3.020690679550170898e-01 8.576696515083312988e-01 3.479216098785400391e-01 -5.951406359672546387e-01
1.750000000000000000e+02 4.159411621093750000e+01 -1.583734226226806641e+01 1.087948679924011230e-01 1.665012598037719727e+00 5.321422815322875977e-01 -8.109682798385620117e-01
1.760000000000000000e+02 4.147071838378906250e+01 -1.426521968841552734e+01 7.736802697181701660e-01 6.021130084991455078e-01 4.127379953861236572e-01 -7.109956741333007812e-01
1.770000000000000000e+02 4.164173889160156250e+01 -1.476083564758300781e+01 5.972690582275390625e-01 9.426023364067077637e-01 4.619614183902740479e-01 -7.926187515258789062e-01
1.780000000000000000e+02 4.067444992065429688e+01 -1.413541221618652344e+01 1.301922559738159180e+00 3.076735258102416992e+00 1.313597321510314941e+00 -2.055246114730834961e+00
1.790000000000000000e+02 4.084886932373046875e+01 -1.402182102203369141e+01 1.437330245971679688e+00 1.860896825790405273e+00 9.894680976867675781e-01 -1.690034627914428711e+00
1.800000000000000000e+02 4.100262451171875000e+01 -1.387745952606201172e+01 1.271726369857788086e+00 8.517731428146362305e-01 6.370498538017272949e-01 -1.068525552749633789e+00
1.810000000000000000e+02 3.913121032714843750e+01 -1.304672908782958984e+01 7.378833293914794922e+00 5.428348541259765625e+00 3.842154502868652344e+00 4.116439521312713623e-01
1.820000000000000000e+02 3.912723922729492188e+01 -1.324205970764160156e+01 7.340557098388671875e+00 5.552891254425048828e+00 3.868034601211547852e+00 1.176790475845336914e+00
1.830000000000000000e+02 4.006036376953125000e+01 -1.426362323760986328e+01 3.248663544654846191e-01 7.127224445343017578e+00 2.235627174377441406e+00 -1.044149756431579590e+00
1.840000000000000000e+02 4.113201904296875000e+01 -1.369193935394287109e+01 1.353407859802246094e+00 5.535439848899841309e-01 5.720855593681335449e-01 -9.193001985549926758e-01
1.850000000000000000e+02 4.149396896362304688e+01 -1.388201141357421875e+01 1.294557332992553711e+00 4.669321775436401367e-01 5.284468531608581543e-01 -8.276597857475280762e-01
1.860000000000000000e+02 4.117114257812500000e+01 -1.263325023651123047e+01 6.153956413269042969e+00 9.890257716178894043e-01 2.142894744873046875e+00 1.159211039543151855e+00
1.870000000000000000e+02 4.066650390625000000e+01 -1.217257213592529297e+01 4.960802078247070312e+00 5.144016742706298828e+00 3.031445741653442383e+00 2.984263658523559570e+00
1.880000000000000000e+02 3.966498947143554688e+01 -1.202566242218017578e+01 3.617966651916503906e+00 6.693941116333007812e+00 3.093572378158569336e+00 -4.665530025959014893e-01
1.890000000000000000e+02 3.968140411376953125e+01 -1.220381832122802734e+01 4.648720264434814453e+00 7.390899658203125000e+00 3.611886024475097656e+00 -9.392476677894592285e-01
1.900000000000000000e+02 4.268456649780273438e+01 -1.322471809387207031e+01 2.575212240219116211e+00 -5.920860916376113892e-02 7.548010945320129395e-01 -3.771166503429412842e-01
1.910000000000000000e+02 4.240183258056640625e+01 -1.420316600799560547e+01 1.237179517745971680e+00 3.462399542331695557e-01 4.750258326530456543e-01 -6.590736508369445801e-01
1.920000000000000000e+02 4.247041702270507812e+01 -1.460846710205078125e+01 8.841236233711242676e-01 3.733024299144744873e-01 3.772278130054473877e-01 -5.526098012924194336e-01
1.930000000000000000e+02 4.286621093750000000e+01 -1.438275432586669922e+01 1.139586806297302246e+00 2.625087201595306396e-01 4.206286668777465820e-01 -5.635927915573120117e-01
1.940000000000000000e+02 4.263055801391601562e+01 -1.471824550628662109e+01 8.313233256340026855e-01 3.187074363231658936e-01 3.450092077255249023e-01 -5.466247200965881348e-01
1.950000000000000000e+02 3.927573013305664062e+01 -1.241003608703613281e+01 5.102024555206298828e+00 6.150910377502441406e+00 3.375880479812622070e+00 -1.342576622962951660e+00
1.960000000000000000e+02 3.888920211791992188e+01 -1.281640529632568359e+01 5.968906402587890625e+00 4.532113075256347656e+00 3.150305747985839844e+00 -7.839753031730651855e-01
1.970000000000000000e+02 3.958510208129882812e+01 -1.445714855194091797e+01 2.492617964744567871e-01 7.176208496093750000e+00 2.227641105651855469e+00 7.077734470367431641e-01
1.980000000000000000e+02 4.111293029785156250e+01 -1.513310432434082031e+01 3.708221912384033203e-01 2.265238046646118164e+00 7.908180356025695801e-01 -1.203526377677917480e+00
1.990000000000000000e+02 3.913410568237304688e+01 -1.343022251129150391e+01 5.976156234741210938e+00 5.817016124725341797e+00 3.537951707839965820e+00 1.596806049346923828e+00
2.000000000000000000e+02 4.002290725708007812e+01 -1.447630596160888672e+01 8.905514329671859741e-02 6.388355255126953125e+00 1.943223237991333008e+00 -8.884963393211364746e-01
2.010000000000000000e+02 3.914582061767578125e+01 -1.286678886413574219e+01 6.843364238739013672e+00 5.362299442291259766e+00 3.661699056625366211e+00 -4.590204358100891113e-01
2.020000000000000000e+02 3.913816452026367188e+01 -1.405975055694580078e+01 2.471104860305786133e+00 6.641603469848632812e+00 2.733812332153320312e+00 2.173844575881958008e+00
2.030000000000000000e+02 3.944100952148437500e+01 -1.413350391387939453e+01 2.012116670608520508e+00 7.185613155364990234e+00 2.759318828582763672e+00 1.554554820060729980e+00
2.040000000000000000e+02 3.919585418701171875e+01 -1.363073158264160156e+01 4.683527469635009766e+00 6.436040878295898438e+00 3.335870742797851562e+00 2.100960493087768555e+00
2.050000000000000000e+02 3.976006698608398438e+01 -1.457355213165283203e+01 3.821286931633949280e-02 6.516740322113037109e+00 1.966485977172851562e+00 -6.963675469160079956e-02
2.060000000000000000e+02 4.057852935791015625e+01 -1.479302024841308594e+01 2.870016098022460938e-01 3.884223699569702148e+00 1.251367568969726562e+00 -1.481559991836547852e+00
2.070000000000000000e+02 3.949625015258789062e+01 -1.398700428009033203e+01 2.345506429672241211e+00 8.042242050170898438e+00 3.116324424743652344e+00 2.115355253219604492e+00
2.080000000000000000e+02 4.044186782836914062e+01 -1.210700225830078125e+01 4.530300140380859375e+00 6.016640663146972656e+00 3.164082288742065430e+00 2.523216009140014648e+00
2.090000000000000000e+02 4.014731216430664062e+01 -1.193280601501464844e+01 3.281012773513793945e+00 7.777986526489257812e+00 3.317699670791625977e+00 1.111756086349487305e+00
2.100000000000000000e+02 3.933803939819335938e+01 -1.213353919982910156e+01 4.323801517486572266e+00 6.419270992279052734e+00 3.222921848297119141e+00 -1.544919371604919434e+00
2.110000000000000000e+02 4.104480361938476562e+01 -1.244666576385498047e+01 6.133903026580810547e+00 1.742435455322265625e+00 2.362901687622070312e+00 1.859166383743286133e+00
2.120000000000000000e+02 4.033029174804687500e+01 -1.187442398071289062e+01 3.598892211914062500e+00 5.584153175354003906e+00 2.754913806915283203e+00 1.467082023620605469e+00
2.130000000000000000e+02 4.127082443237304688e+01 -1.329405879974365234e+01 3.535113573074340820e+00 4.034306704998016357e-01 1.181563258171081543e+00 -1.136355400085449219e+00
2.140000000000000000e+02 4.168400955200195312e+01 -1.288191032409667969e+01 4.423063755035400391e+00 1.671964079141616821e-01 1.377078056335449219e+00 -1.949242353439331055e-01
2.150000000000000000e+02 4.121585083007812500e+01 -1.349865341186523438e+01 2.456956624984741211e+00 6.054545044898986816e-01 9.187233448028564453e-01 -1.125007987022399902e+00
2.160000000000000000e+02 4.219826126098632812e+01 -1.288851642608642578e+01 3.472614288330078125e+00 4.714374430477619171e-03 1.043198585510253906e+00 -2.062253206968307495e-01
2.170000000000000000e+02 4.120704650878906250e+01 -1.222664356231689453e+01 5.257726669311523438e+00 1.843221545219421387e+00 2.130284547805786133e+00 1.964624285697937012e+00
2.180000000000000000e+02 3.986075592041015625e+01 -1.193607616424560547e+01 3.045340538024902344e+00 7.060141086578369141e+00 3.031644582748413086e+00 3.140925168991088867e-01
2.190000000000000000e+02 4.111413574218750000e+01 -1.547941589355468750e+01 1.619437038898468018e-01 2.325028419494628906e+00 7.460916638374328613e-01 -1.029547572135925293e+00
2.200000000000000000e+02 4.078876876831054688e+01 -1.524904346466064453e+01 1.078444495797157288e-01 3.097430944442749023e+00 9.615826010704040527e-01 -1.195549011230468750e+00
2.210000000000000000e+02 4.010808944702148438e+01 -1.480294895172119141e+01 -1.084330007433891296e-01 5.395029544830322266e+00 1.585978865623474121e+00 -8.798232078552246094e-01
2.220000000000000000e+02 4.200558090209960938e+01 -1.561012458801269531e+01 2.691980004310607910e-01 1.017034053802490234e+00 3.858696222305297852e-01 -6.706736683845520020e-01
2.230000000000000000e+02 4.045164871215820312e+01 -1.502284908294677734e+01 1.677434891462326050e-02 4.051881313323974609e+00 1.220596671104431152e+00 -1.208568096160888672e+00
2.240000000000000000e+02 3.993607330322265625e+01 -1.468687152862548828e+01 -1.317174285650253296e-01 6.165975093841552734e+00 1.810277342796325684e+00 -4.915122091770172119e-01
2.250000000000000000e+02 3.966709899902343750e+01 -1.410600471496582031e+01 1.273032665252685547e+00 8.086664199829101562e+00 2.807909011840820312e+00 8.296283483505249023e-01
2.260000000000000000e+02 4.180706024169921875e+01 -1.449715137481689453e+01 5.526841282844543457e-01 4.636383652687072754e-01 3.048967421054840088e-01 -5.148187875747680664e-01
2.270000000000000000e+02 4.145863723754882812e+01 -1.463884544372558594e+01 7.100859284400939941e-01 1.121070981025695801e+00 5.493470430374145508e-01 -9.566670656204223633e-01
2.280000000000000000e+02 4.097762680053710938e+01 -1.417511940002441406e+01 1.235637426376342773e+00 1.674735426902770996e+00 8.731118440628051758e-01 -1.504348874092102051e+00
2.290000000000000000e+02 4.130947113037109375e+01 -1.413829612731933594e+01 9.186115264892578125e-01 6.995255947113037109e-01 4.854411482810974121e-01 -7.964570522308349609e-01
2.300000000000000000e+02 4.115407562255859375e+01 -1.400622653961181641e+01 1.063547492027282715e+00 7.766642570495605469e-01 5.520635247230529785e-01 -9.320530295372009277e-01
2.310000000000000000e+02 4.201353073120117188e+01 -1.423080158233642578e+01 1.091252326965332031e+00 3.965035378932952881e-01 4.463267624378204346e-01 -6.621671319007873535e-01
2.320000000000000000e+02 4.297412109375000000e+01 -1.420954227447509766e+01 1.300288438796997070e+00 1.867681741714477539e-01 4.461169838905334473e-01 -5.218762159347534180e-01
2.330000000000000000e+02 4.232016754150390625e+01 -1.449002170562744141e+01 9.471841454505920410e-01 3.663385510444641113e-01 3.940567970275878906e-01 -5.889389514923095703e-01
2.340000000000000000e+02 4.167496490478515625e+01 -1.399323177337646484e+01 1.263895869255065918e+00 4.484595358371734619e-01 5.137066245079040527e-01 -7.539910674095153809e-01
2.350000000000000000e+02 4.217729568481445312e+01 -1.435627937316894531e+01 1.031423449516296387e+00 3.886475563049316406e-01 4.260213077068328857e-01 -6.175683736801147461e-01
2.360000000000000000e+02 4.236506652832031250e+01 -1.299717807769775391e+01 3.158188343048095703e+00 -4.437772557139396667e-02 9.341431856155395508e-01 -2.982774674892425537e-01
2.370000000000000000e+02 4.207197952270507812e+01 -1.308555507659912109e+01 3.353126287460327148e+00 6.666094064712524414e-02 1.025936126708984375e+00 -4.715322554111480713e-01
2.380000000000000000e+02 4.138591384887695312e+01 -1.232346153259277344e+01 5.279516696929931641e+00 1.077326536178588867e+00 1.907052993774414062e+00 1.404436230659484863e+00
2.390000000000000000e+02 4.168906402587890625e+01 -1.254220867156982422e+01 4.682192802429199219e+00 3.642711341381072998e-01 1.513939142227172852e+00 6.175363659858703613e-01
2.400000000000000000e+02 4.309143066406250000e+01 -1.403286743164062500e+01 1.506053209304809570e+00 9.750804305076599121e-02 4.810684025287628174e-01 -4.928373694419860840e-01
2.410000000000000000e+02 4.321683120727539062e+01 -1.385563182830810547e+01 1.648112058639526367e+00 2.121160924434661865e-02 5.007970929145812988e-01 -4.407292604446411133e-01
2.420000000000000000e+02 4.223616790771484375e+01 -1.345290565490722656e+01 2.475243568420410156e+00 1.651017814874649048e-01 7.921035885810852051e-01 -6.780412793159484863e-01
2.430000000000000000e+02 4.236700820922851562e+01 -1.509683609008789062e+01 2.747027873992919922e-01 3.758993744850158691e-01 1.951806545257568359e-01 -3.477037549018859863e-01
2.440000000000000000e+02 4.232141876220703125e+01 -1.481052780151367188e+01 3.206432461738586426e-01 2.685567438602447510e-01 1.767600029706954956e-01 -2.661364376544952393e-01
2.450000000000000000e+02 4.215208435058593750e+01 -1.470368289947509766e+01 3.749083578586578369e-01 3.108125925064086914e-01 2.057162821292877197e-01 -3.565531373023986816e-01
2.460000000000000000e+02 4.130594253540039062e+01 -1.378909683227539062e+01 1.350346803665161133e+00 5.578292608261108398e-01 5.724528431892395020e-01 -8.527420759201049805e-01
2.470000000000000000e+02 4.142427825927734375e+01 -1.538699340820312500e+01 3.034901320934295654e-01 1.763625979423522949e+00 6.201348304748535156e-01 -9.747572541236877441e-01
2.480000000000000000e+02 4.027808380126953125e+01 -1.427158641815185547e+01 5.298417806625366211e-01 5.885436534881591797e+00 1.924583554267883301e+00 -1.760004281997680664e+00
2.490000000000000000e+02 4.020897674560546875e+01 -1.460156631469726562e+01 9.423937648534774780e-02 5.654999732971191406e+00 1.724771738052368164e+00 -1.228541731834411621e+00
2.500000000000000000e+02 4.127426147460937500e+01 -1.451153182983398438e+01 8.480795025825500488e-01 1.389935731887817383e+00 6.714045405387878418e-01 -1.143086791038513184e+00
2.510000000000000000e+02 4.249572753906250000e+01 -1.434434223175048828e+01 1.110653877258300781e+00 3.497048318386077881e-01 4.381076097488403320e-01 -6.009582877159118652e-01
2.520000000000000000e+02 4.252663040161132812e+01 -1.310924339294433594e+01 2.815225601196289062e+00 -3.425390273332595825e-02 8.342915177345275879e-01 -3.634959757328033447e-01
2.530000000000000000e+02 4.138376617431640625e+01 -1.252695941925048828e+01 5.465021133422851562e+00 7.928867936134338379e-01 1.877372384071350098e+00 9.879921674728393555e-01
2.540000000000000000e+02 4.268208312988281250e+01 -1.386587810516357422e+01 1.700830578804016113e+00 1.754034608602523804e-01 5.628702044486999512e-01 -6.170318126678466797e-01
2.550000000000000000e+02 4.188002395629882812e+01 -1.578086090087890625e+01 1.787046641111373901e-01 1.237864017486572266e+00 4.249706268310546875e-01 -6.865250468254089355e-01
2.560000000000000000e+02 4.078533935546875000e+01 -1.430452823638916016e+01 1.042667984962463379e+00 2.712471961975097656e+00 1.126541972160339355e+00 -1.817182660102844238e+00
2.570000000000000000e+02 4.048434066772460938e+01 -1.421884822845458984e+01 8.858833312988281250e-01 4.601630210876464844e+00 1.646254062652587891e+00 -2.156024694442749023e+00
2.580000000000000000e+02 4.058337402343750000e+01 -1.441822338104248047e+01 7.325414419174194336e-01 3.947694540023803711e+00 1.404070854187011719e+00 -1.879239678382873535e+00
2.590000000000000000e+02 4.155782699584960938e+01 -1.311667633056640625e+01 4.007749557495117188e+00 2.666011452674865723e-01 1.282305240631103516e+00 -6.702709794044494629e-01
2.600000000000000000e+02 4.109658813476562500e+01 -1.476833820343017578e+01 6.524564027786254883e-01 2.088364362716674805e+00 8.222462534904479980e-01 -1.343523859977722168e+00
2.610000000000000000e+02 4.301740646362304688e+01 -1.375419235229492188e+01 1.790444254875183105e+00 3.804648295044898987e-02 5.485472083091735840e-01 -4.861896336078643799e-01
2.620000000000000000e+02 4.127362442016601562e+01 -1.559757232666015625e+01 1.462611705064773560e-01 2.107994079589843750e+00 6.762765645980834961e-01 -9.925087094306945801e-01
2.630000000000000000e+02 4.183981323242187500e+01 -1.484269905090332031e+01 5.002470016479492188e-01 7.567789554595947266e-01 3.771077990531921387e-01 -6.567448973655700684e-01
2.640000000000000000e+02 4.238584899902343750e+01 -1.328647327423095703e+01 2.680412530899047852e+00 4.932702705264091492e-02 8.189218640327453613e-01 -5.164597034454345703e-01
2.650000000000000000e+02 4.177745437622070312e+01 -1.322109031677246094e+01 3.356247425079345703e+00 2.169160693883895874e-01 1.071949005126953125e+00 -7.173017859458923340e-01
2.660000000000000000e+02 4.268320083618164062e+01 -1.431210613250732422e+01 1.177016377449035645e+00 2.808202505111694336e-01 4.373509883880615234e-01 -5.952581167221069336e-01
2.670000000000000000e+02 4.071529388427734375e+01 -1.459593486785888672e+01 6.233220100402832031e-01 3.410028219223022461e+00 1.210005044937133789e+00 -1.716584324836730957e+00
2.680000000000000000e+02 4.111252975463867188e+01 -1.435064601898193359e+01 1.000743985176086426e+00 1.556660890579223633e+00 7.672214508056640625e-01 -1.335151910781860352e+00
2.690000000000000000e+02 4.185964965820312500e+01 -1.548870182037353516e+01 2.920440435409545898e-01 1.163561701774597168e+00 4.366817474365234375e-01 -7.166498899459838867e-01
2.700000000000000000e+02 4.199004364013671875e+01 -1.533215904235839844e+01 3.640261888504028320e-01 9.051724672317504883e-01 3.807595968246459961e-01 -6.713350415229797363e-01
2.710000000000000000e+02 4.128235244750976562e+01 -1.489169883728027344e+01 5.796982049942016602e-01 1.725769877433776855e+00 6.916404366493225098e-01 -1.144416928291320801e+00
2.720000000000000000e+02 4.166633224487304688e+01 -1.343455123901367188e+01 2.780458450317382812e+00 3.734753727912902832e-01 9.461801648139953613e-01 -9.654082655906677246e-01
2.730000000000000000e+02 4.284142303466796875e+01 -1.334211540222167969e+01 2.309485435485839844e+00 -5.524175986647605896e-02 6.762731075286865234e-01 -3.848884701728820801e-01
2.740000000000000000e+02 4.266331863403320312e+01 -1.353509616851806641e+01 2.159788370132446289e+00 6.555735319852828979e-02 6.676037311553955078e-01 -5.607010722160339355e-01
2.750000000000000000e+02 4.288333129882812500e+01 -1.394448947906494141e+01 1.597134828567504883e+00 1.379077881574630737e-01 5.205127596855163574e-01 -5.501924753189086914e-01
2.760000000000000000e+02 4.275386810302734375e+01 -1.455139446258544922e+01 9.378783702850341797e-01 2.901783883571624756e-01 3.684170246124267578e-01 -5.490244626998901367e-01
2.770000000000000000e+02 4.260163116455078125e+01 -1.446021270751953125e+01 1.004373788833618164e+00 3.213533461093902588e-01 3.977181613445281982e-01 -5.646377205848693848e-01
2.780000000000000000e+02 4.252611923217773438e+01 -1.340272140502929688e+01 2.409261703491210938e+00 6.295860558748245239e-02 7.416660785675048828e-01 -5.474147200584411621e-01
2.790000000000000000e+02 4.211718750000000000e+01 -1.334850215911865234e+01 2.728751182556152344e+00 1.569229662418365479e-01 8.657022118568420410e-01 -6.525911688804626465e-01
2.800000000000000000e+02 4.223687744140625000e+01 -1.317923736572265625e+01 2.933583736419677734e+00 6.698945909738540649e-02 9.001719951629638672e-01 -5.235472917556762695e-01
2.810000000000000000e+02 4.143340301513671875e+01 -1.571758365631103516e+01 1.566120088100433350e-01 1.898374438285827637e+00 6.164959073066711426e-01 -8.835238218307495117e-01
2.820000000000000000e+02 4.095272445678710938e+01 -1.536330318450927734e+01 1.003819108009338379e-01 2.756920814514160156e+00 8.571908473968505859e-01 -1.088631391525268555e+00
2.830000000000000000e+02 4.195758819580078125e+01 -1.508550643920898438e+01 4.289735257625579834e-01 7.444111704826354980e-01 3.520154058933258057e-01 -6.220346093177795410e-01
2.840000000000000000e+02 4.163784027099609375e+01 -1.438412380218505859e+01 6.597647070884704590e-01 5.522791147232055664e-01 3.636131584644317627e-01 -6.013283729553222656e-01
2.850000000000000000e+02 4.183885192871093750e+01 -1.411873817443847656e+01 1.176623463630676270e+00 4.289219975471496582e-01 4.816636443138122559e-01 -6.998395919799804688e-01
2.860000000000000000e+02 4.218629074096679688e+01 -1.400174617767333984e+01 1.469349503517150879e+00 3.687174320220947266e-01 5.514200925827026367e-01 -7.319528460502624512e-01
2.870000000000000000e+02 4.127363967895507812e+01 -1.525558948516845703e+01 3.303954601287841797e-01 2.009279727935791016e+00 7.019025683403015137e-01 -1.088313579559326172e+00
2.880000000000000000e+02 4.094415283203125000e+01 -1.501817893981933594e+01 3.451012074947357178e-01 2.704446077346801758e+00 9.148641824722290039e-01 -1.284972786903381348e+00
2.890000000000000000e+02 4.076618194580078125e+01 -1.491137027740478516e+01 3.382627367973327637e-01 3.111700296401977539e+00 1.034988880157470703e+00 -1.419208407402038574e+00
2.900000000000000000e+02 4.062185668945312500e+01 -1.513580417633056641e+01 5.360104516148567200e-02 3.617122650146484375e+00 1.101217031478881836e+00 -1.244438886642456055e+00
2.910000000000000000e+02 4.038490676879882812e+01 -1.470265579223632812e+01 2.319099456071853638e-01 4.525589942932128906e+00 1.427250027656555176e+00 -1.477393269538879395e+00
2.920000000000000000e+02 4.027915954589843750e+01 -1.491468238830566406e+01 -1.025324016809463501e-01 4.742586612701416016e+00 1.392016291618347168e+00 -1.115253806114196777e+00
2.930000000000000000e+02 3.940864181518554688e+01 -1.433452415466308594e+01 7.703317403793334961e-01 6.699658870697021484e+00 2.240997076034545898e+00 8.903084993362426758e-01
2.940000000000000000e+02 4.147813415527343750e+01 -1.335222339630126953e+01 3.249664545059204102e+00 3.852868080139160156e-01 1.090485453605651855e+00 -1.001934409141540527e+00
2.950000000000000000e+02 4.067039489746093750e+01 -1.192618179321289062e+01 4.023207664489746094e+00 4.864620208740234375e+00 2.666348218917846680e+00 2.464934110641479492e+00
2.960000000000000000e+02 4.023918151855468750e+01 -1.209088897705078125e+01 3.721160411834716797e+00 7.153917789459228516e+00 3.262523412704467773e+00 1.601403951644897461e+00
2.970000000000000000e+02 3.914472198486328125e+01 -1.261765480041503906e+01 6.064136981964111328e+00 5.348505973815917969e+00 3.423792839050292969e+00 -1.188427209854125977e+00
2.980000000000000000e+02 3.902292251586914062e+01 -1.300039100646972656e+01 6.736833572387695312e+00 5.228561878204345703e+00 3.589618682861328125e+00 -3.515524149406701326e-04
2.990000000000000000e+02 4.150562286376953125e+01 -1.272276306152343750e+01 5.085128784179687500e+00 3.724350631237030029e-01 1.637269139289855957e+00 3.030534684658050537e-01
3.000000000000000000e+02 4.188907241821289062e+01 -1.299343872070312500e+01 3.723091363906860352e+00 1.158971786499023438e-01 1.151696562767028809e+00 -3.928464651107788086e-01
3.010000000000000000e+02 4.202671432495117188e+01 -1.278048992156982422e+01 3.936039209365844727e+00 4.549259692430496216e-02 1.194459557533264160e+00 -4.942217841744422913e-02
3.020000000000000000e+02 3.962662124633789062e+01 -1.426263618469238281e+01 5.491231679916381836e-01 7.569527149200439453e+00 2.435595035552978516e+00 5.377836227416992188e-01
3.030000000000000000e+02 3.933922195434570312e+01 -1.383183860778808594e+01 2.954668283462524414e+00 7.673101902008056641e+00 3.188331127166748047e+00 2.420993328094482422e+00
3.040000000000000000e+02 3.924735641479492188e+01 -1.395025825500488281e+01 2.858593702316284180e+00 7.453804969787597656e+00 3.093719482421875000e+00 2.639086246490478516e+00
3.050000000000000000e+02 3.901650238037109375e+01 -1.327557563781738281e+01 6.532342910766601562e+00 5.354697704315185547e+00 3.566112279891967773e+00 1.217038035392761230e+00
3.060000000000000000e+02 4.000874328613281250e+01 -1.179973697662353516e+01 2.821258306503295898e+00 6.984976291656494141e+00 2.941870450973510742e+00 4.147346019744873047e-01
3.070000000000000000e+02 4.276166915893554688e+01 -1.413594150543212891e+01 1.392509698867797852e+00 2.293773740530014038e-01 4.865661263465881348e-01 -5.907029509544372559e-01
3.080000000000000000e+02 4.238698196411132812e+01 -1.403434276580810547e+01 1.443406701087951660e+00 3.211232125759124756e-01 5.293589830398559570e-01 -6.825691461563110352e-01
3.090000000000000000e+02 4.158940124511718750e+01 -1.364052009582519531e+01 2.066466093063354492e+00 4.692177474498748779e-01 7.607051134109497070e-01 -9.705953001976013184e-01
3.100000000000000000e+02 4.257444381713867188e+01 -1.406418418884277344e+01 1.431678056716918945e+00 2.607369422912597656e-01 5.077245235443115234e-01 -6.326982378959655762e-01
3.110000000000000000e+02 4.178264999389648438e+01 -1.358944797515869141e+01 2.266118526458740234e+00 3.815453052520751953e-01 7.942991256713867188e-01 -9.253041744232177734e-01
3.120000000000000000e+02 3.981662750244140625e+01 -1.437528800964355469e+01 2.272942066192626953e-01 7.405265331268310547e+00 2.289767742156982422e+00 -2.188984677195549011e-02
3.130000000000000000e+02 4.196895980834960938e+01 -1.328597068786621094e+01 2.946490764617919922e+00 1.759041100740432739e-01 9.367184638977050781e-01 -7.210715413093566895e-01
3.140000000000000000e+02 4.172153854370117188e+01 -1.535138511657714844e+01 3.370203375816345215e-01 1.269196391105651855e+00 4.818650186061859131e-01 -7.921734452247619629e-01
3.150000000000000000e+02 4.160086822509765625e+01 -1.518253040313720703e+01 4.273062646389007568e-01 1.329898834228515625e+00 5.271615386009216309e-01 -8.819786906242370605e-01
3.160000000000000000e+02 4.145921707153320312e+01 -1.502131748199462891e+01 5.088941454887390137e-01 1.451655983924865723e+00 5.881650447845458984e-01 -9.928659200668334961e-01
3.170000000000000000e+02 4.036899566650390625e+01 -1.449199390411376953e+01 3.555898368358612061e-01 5.049553871154785156e+00 1.621543169021606445e+00 -1.639864206314086914e+00
3.180000000000000000e+02 4.089577484130859375e+01 -1.468865299224853516e+01 6.395272016525268555e-01 2.653091192245483398e+00 9.877855181694030762e-01 -1.499328374862670898e+00
3.190000000000000000e+02 4.197013854980468750e+01 -1.346788883209228516e+01 2.525721073150634766e+00 2.667339742183685303e-01 8.377365469932556152e-01 -8.062292337417602539e-01
3.200000000000000000e+02 4.207114028930664062e+01 -1.360758686065673828e+01 2.223712444305419922e+00 2.749713063240051270e-01 7.496051192283630371e-01 -8.208061456680297852e-01
3.210000000000000000e+02 4.231297302246093750e+01 -1.381057834625244141e+01 1.796347856521606445e+00 2.892723679542541504e-01 6.256860494613647461e-01 -7.475852966308593750e-01
3.220000000000000000e+02 4.247878265380859375e+01 -1.383989715576171875e+01 1.747399091720581055e+00 2.325509488582611084e-01 5.939850211143493652e-01 -6.826180219650268555e-01
3.230000000000000000e+02 4.203585815429687500e+01 -1.490467643737792969e+01 4.133796095848083496e-01 5.696458816528320312e-01 2.949076294898986816e-01 -5.011215209960937500e-01
3.240000000000000000e+02 4.210361099243164062e+01 -1.517076969146728516e+01 3.649348914623260498e-01 6.842039227485656738e-01 3.147416412830352783e-01 -5.564162135124206543e-01
3.250000000000000000e+02 4.179133224487304688e+01 -1.506558132171630859e+01 4.680138230323791504e-01 9.826207756996154785e-01 4.351903796195983887e-01 -7.512232065200805664e-01
3.260000000000000000e+02 4.235704803466796875e+01 -1.356222629547119141e+01 2.247023105621337891e+00 1.571463048458099365e-01 7.212508320808410645e-01 -6.707151532173156738e-01
3.270000000000000000e+02 4.247099685668945312e+01 -1.368132019042968750e+01 1.993109941482543945e+00 1.798243224620819092e-01 6.518803238868713379e-01 -6.680933833122253418e-01
3.280000000000000000e+02 4.186367797851562500e+01 -1.521912765502929688e+01 4.020968973636627197e-01 1.022338151931762695e+00 4.273305237293243408e-01 -7.383868694305419922e-01
3.290000000000000000e+02 4.218870162963867188e+01 -1.371857357025146484e+01 1.948750138282775879e+00 3.033821582794189453e-01 6.756396889686584473e-01 -7.991788983345031738e-01
3.300000000000000000e+02 4.090001678466796875e+01 -1.448414993286132812e+01 8.897534608840942383e-01 2.476035356521606445e+00 1.009736657142639160e+00 -1.607278347015380859e+00
3.310000000000000000e+02 4.219844818115234375e+01 -1.582012462615966797e+01 1.728159487247467041e-01 9.790256023406982422e-01 3.455524742603302002e-01 -5.497726798057556152e-01
3.320000000000000000e+02 4.312205123901367188e+01 -1.603318977355957031e+01 6.109097972512245178e-02 3.361969292163848877e-01 1.191863715648651123e-01 -2.096145302057266235e-01
3.330000000000000000e+02 4.362532424926757812e+01 -1.693112564086914062e+01 4.277905449271202087e-02 3.255692720413208008e-01 1.105045005679130554e-01 -1.619333624839782715e-01
3.340000000000000000e+02 4.245172119140625000e+01 -1.544034576416015625e+01 2.417206168174743652e-01 5.332069993019104004e-01 2.324782907962799072e-01 -3.889672160148620605e-01
3.350000000000000000e+02 4.206076431274414062e+01 -1.593716335296630859e+01 2.017459273338317871e-01 1.149298667907714844e+00 4.053133726119995117e-01 -6.692188978195190430e-01
3.360000000000000000e+02 4.225236511230468750e+01 -1.612191963195800781e+01 1.095907092094421387e-01 1.053527593612670898e+00 3.489355146884918213e-01 -5.678724646568298340e-01
3.370000000000000000e+02 4.414469146728515625e+01 -1.732674598693847656e+01 3.547243773937225342e-02 1.989111900329589844e-01 7.031508535146713257e-02 -8.360600471496582031e-02
3.380000000000000000e+02 4.397371292114257812e+01 -1.627053260803222656e+01 -5.077055096626281738e-02 3.539913147687911987e-02 -4.611426033079624176e-03 -8.074871264398097992e-03
3.390000000000000000e+02 4.455804061889648438e+01 -1.671259498596191406e+01 -7.222737371921539307e-02 6.423321086913347244e-03 -1.974121481180191040e-02 4.365230351686477661e-02
3.400000000000000000e+02 4.234561157226562500e+01 -1.565938091278076172e+01 2.330183833837509155e-01 7.346985936164855957e-01 2.903150916099548340e-01 -4.878714680671691895e-01
3.410000000000000000e+02 4.279916763305664062e+01 -1.516851902008056641e+01 1.830778270959854126e-01 1.374228447675704956e-01 9.615020453929901123e-02 -1.448281705379486084e-01
3.420000000000000000e+02 4.258093261718750000e+01 -1.528518772125244141e+01 2.423343062400817871e-01 3.317520022392272949e-01 1.722258925437927246e-01 -2.754876613616943359e-01
3.430000000000000000e+02 4.257872390747070312e+01 -1.636338615417480469e+01 1.026702001690864563e-01 8.019523024559020996e-01 2.713867425918579102e-01 -4.279084801673889160e-01
3.440000000000000000e+02 4.269226455688476562e+01 -1.591839694976806641e+01 1.271118521690368652e-01 5.649055242538452148e-01 2.076052129268646240e-01 -3.844521343708038330e-01
3.450000000000000000e+02 4.308806991577148438e+01 -1.662295150756835938e+01 7.085794955492019653e-02 5.201327800750732422e-01 1.772972196340560913e-01 -2.828592956066131592e-01
3.460000000000000000e+02 4.303763961791992188e+01 -1.556964111328125000e+01 8.695993572473526001e-02 1.440164744853973389e-01 6.929292529821395874e-02 -1.634403616189956665e-01
3.470000000000000000e+02 4.344588851928710938e+01 -1.579869270324707031e+01 1.604854315519332886e-02 8.308061212301254272e-02 2.973874658346176147e-02 -5.630677565932273865e-02
3.480000000000000000e+02 4.201208877563476562e+01 -1.614330673217773438e+01 9.412879496812820435e-02 1.204969882965087891e+00 3.897295892238616943e-01 -6.240885257720947266e-01
3.490000000000000000e+02 4.271979522705078125e+01 -1.557303714752197266e+01 1.629761308431625366e-01 3.752213120460510254e-01 1.614592373371124268e-01 -2.853129208087921143e-01
3.500000000000000000e+02 4.477265548706054688e+01 -1.781283950805664062e+01 4.204613342881202698e-02 1.024009212851524353e-01 4.333411902189254761e-02 -5.600823089480400085e-03
3.510000000000000000e+02 4.592887496948242188e+01 -1.777315521240234375e+01 -3.749851137399673462e-03 -4.424198716878890991e-02 -1.439755130559206009e-02 2.611973695456981659e-02
3.520000000000000000e+02 4.522016906738281250e+01 -1.722324943542480469e+01 -4.234183207154273987e-02 -3.858963027596473694e-02 -2.427943982183933258e-02 5.602322891354560852e-02
3.530000000000000000e+02 4.547800064086914062e+01 -1.836006927490234375e+01 3.162259235978126526e-02 -4.494656622409820557e-02 -3.997192718088626862e-03 2.511594817042350769e-02
3.540000000000000000e+02 4.605249404907226562e+01 -1.858669471740722656e+01 2.743531251326203346e-03 -9.553787857294082642e-02 -2.783830463886260986e-02 -1.440137252211570740e-02
3.550000000000000000e+02 4.658209228515625000e+01 -1.637586402893066406e+01 3.114437162876129150e-01 -2.585920691490173340e-02 8.567535132169723511e-02 1.514932140707969666e-02
3.560000000000000000e+02 4.631165695190429688e+01 -1.710632896423339844e+01 3.687659278512001038e-02 -6.747293286025524139e-03 9.038790129125118256e-03 4.201987292617559433e-03
3.570000000000000000e+02 4.698057174682617188e+01 -1.691733360290527344e+01 7.989604026079177856e-02 9.477060288190841675e-03 2.681192941963672638e-02 2.163190022110939026e-02
3.580000000000000000e+02 4.604409027099609375e+01 -1.595431995391845703e+01 4.042029082775115967e-01 -7.293949276208877563e-02 9.937902539968490601e-02 -5.345121026039123535e-02
3.590000000000000000e+02 4.565672302246093750e+01 -1.659176063537597656e+01 1.749857366085052490e-01 -4.622544161975383759e-03 5.110895633697509766e-02 -3.522269427776336670e-02
3.600000000000000000e+02 4.778731536865234375e+01 -1.612909507751464844e+01 3.691578507423400879e-01 4.074757546186447144e-02 1.229716241359710693e-01 1.329363882541656494e-01
3.610000000000000000e+02 4.708440780639648438e+01 -1.571047687530517578e+01 4.600434601306915283e-01 -9.956189244985580444e-02 1.081444770097732544e-01 4.219529405236244202e-02
3.620000000000000000e+02 4.701802825927734375e+01 -8.665026664733886719e+00 2.583671510219573975e-01 -6.362662315368652344e-01 -1.133697256445884705e-01 1.719908595085144043e+00
3.630000000000000000e+02 4.495877838134765625e+01 -6.773079395294189453e+00 -1.051045417785644531e+00 -7.348530888557434082e-01 -5.357695817947387695e-01 1.661404967308044434e+00
3.640000000000000000e+02 4.213727188110351562e+01 -4.226654052734375000e+00 -3.258192777633666992e+00 -7.577556967735290527e-01 -1.204784512519836426e+00 1.090533733367919922e+00
3.650000000000000000e+02 3.964566040039062500e+01 -2.170619487762451172e+00 -2.734953403472900391e+00 3.635923564434051514e-02 -8.095782995223999023e-01 1.260958790779113770e+00
3.660000000000000000e+02 4.032079696655273438e+01 -1.483550190925598145e+00 -1.730858325958251953e+00 -9.025751948356628418e-01 -7.900300621986389160e-01 1.232747435569763184e+00
3.670000000000000000e+02 3.932141494750976562e+01 -7.836586236953735352e-01 -1.391315460205078125e+00 -9.426613338291645050e-03 -4.202226400375366211e-01 7.886632084846496582e-01
3.680000000000000000e+02 3.849447631835937500e+01 -1.448083162307739258e+00 -2.032075643539428711e+00 3.982375860214233398e-01 -4.901514351367950439e-01 8.347596526145935059e-01
3.690000000000000000e+02 3.653182601928710938e+01 -1.126461505889892578e+00 -2.185312986373901367e+00 4.095166027545928955e-01 -5.327389240264892578e-01 3.234611451625823975e-01
3.700000000000000000e+02 3.465386581420898438e+01 -1.594258308410644531e+00 -2.990431547164916992e+00 4.056097865104675293e-01 -7.754464745521545410e-01 1.736174076795578003e-01
3.710000000000000000e+02 3.350347518920898438e+01 -2.324922561645507812e+00 -2.441082000732421875e+00 -2.532706856727600098e-01 -8.083057999610900879e-01 2.956198751926422119e-01
3.720000000000000000e+02 3.252891159057617188e+01 -3.113135576248168945e+00 -1.720507383346557617e+00 -8.541681617498397827e-02 -5.417772531509399414e-01 -1.107004880905151367e-01
3.730000000000000000e+02 3.192877769470214844e+01 -8.228312492370605469e+00 2.504601955413818359e+00 6.651744246482849121e-01 9.509329199790954590e-01 -8.271932601928710938e-01
3.740000000000000000e+02 3.588407516479492188e+01 -9.355110168457031250e+00 1.561466932296752930e+00 3.932984471321105957e-01 5.864295959472656250e-01 -1.499253869056701660e+00
3.750000000000000000e+02 3.910812759399414062e+01 -1.172317314147949219e+01 3.339290142059326172e+00 5.149231910705566406e+00 2.546556472778320312e+00 -1.479928135871887207e+00
3.760000000000000000e+02 3.974291229248046875e+01 -1.145167827606201172e+01 2.412489652633666992e+00 5.873950481414794922e+00 2.485932111740112305e+00 -6.505428254604339600e-02
3.770000000000000000e+02 4.022926712036132812e+01 -1.120251941680908203e+01 2.166679143905639648e+00 5.096109867095947266e+00 2.178836584091186523e+00 9.541142582893371582e-01
3.780000000000000000e+02 4.128367996215820312e+01 -6.326589584350585938e+00 -1.382089257240295410e+00 4.345923960208892822e-01 -2.842490375041961670e-01 6.242125034332275391e-01
3.790000000000000000e+02 3.605873107910156250e+01 -6.985748767852783203e+00 9.738871455192565918e-02 6.601886153221130371e-01 2.272732108831405640e-01 -6.873275041580200195e-01
3.800000000000000000e+02 3.733249664306640625e+01 -1.561648726463317871e+00 -2.168844938278198242e+00 5.376873612403869629e-01 -4.893472492694854736e-01 5.930023789405822754e-01
3.810000000000000000e+02 4.014877319335937500e+01 -2.944858312606811523e+00 -3.159744977951049805e+00 1.454392969608306885e-01 -9.042916893959045410e-01 9.890465140342712402e-01
3.820000000000000000e+02 4.650660705566406250e+01 -1.360927009582519531e+01 9.932909011840820312e-01 -3.404270410537719727e-01 1.958591639995574951e-01 2.762258946895599365e-01
3.830000000000000000e+02 4.945760345458984375e+01 -1.526430892944335938e+01 3.413078784942626953e-01 5.226460844278335571e-02 1.180717498064041138e-01 1.969106495380401611e-01
3.840000000000000000e+02 5.071172714233398438e+01 -1.515280246734619141e+01 -1.843352615833282471e-02 2.342508547008037567e-02 1.497467746958136559e-03 1.736551076173782349e-01
3.850000000000000000e+02 5.594278717041015625e+01 -1.448275566101074219e+01 -1.618666648864746094e+00 1.736793667078018188e-02 -4.803896248340606689e-01 -7.388756424188613892e-02
3.860000000000000000e+02 5.726408767700195312e+01 -9.444779396057128906e+00 -7.469642162322998047e-01 7.373964190483093262e-01 -2.870345255360007286e-03 3.825680315494537354e-01
3.870000000000000000e+02 5.751970291137695312e+01 -6.578481197357177734e+00 2.769556595012545586e-03 1.068935751914978027e+00 3.215115964412689209e-01 5.565639734268188477e-01
3.880000000000000000e+02 5.544292068481445312e+01 -1.761924982070922852e+00 1.746512889862060547e+00 2.327300310134887695e+00 1.222144007682800293e+00 1.932490825653076172e+00
3.890000000000000000e+02 5.731916427612304688e+01 -1.437401652336120605e+00 1.326403498649597168e+00 2.036170482635498047e+00 1.008772134780883789e+00 1.394820570945739746e+00
3.900000000000000000e+02 5.876515197753906250e+01 2.768357992172241211e+00 1.226274609565734863e+00 2.610774278640747070e+00 1.151114702224731445e+00 1.744193196296691895e+00
3.910000000000000000e+02 5.793846511840820312e+01 1.652293443679809570e+00 1.105802416801452637e+00 2.429767370223999023e+00 1.060670971870422363e+00 1.686420559883117676e+00
3.920000000000000000e+02 5.726106643676757812e+01 -1.428793144226074219e+01 -1.703161358833312988e+00 3.918594121932983398e-02 -4.991926252841949463e-01 -1.675447970628738403e-01
3.930000000000000000e+02 6.105778503417968750e+01 -1.318960952758789062e+01 -1.884198427200317383e+00 -2.149663716554641724e-01 -6.297494173049926758e-01 -6.853393316268920898e-01
3.940000000000000000e+02 6.224671554565429688e+01 -1.260284996032714844e+01 -2.434188127517700195e+00 -3.313586115837097168e-01 -8.296640515327453613e-01 -9.394969344139099121e-01
3.950000000000000000e+02 6.341856002807617188e+01 -1.207280158996582031e+01 -3.400073289871215820e+00 -5.840395092964172363e-01 -1.195233821868896484e+00 -6.508489847183227539e-01
3.960000000000000000e+02 6.442963409423828125e+01 -1.143521881103515625e+01 -2.823616743087768555e+00 -7.210994958877563477e-01 -1.063414931297302246e+00 -3.083498477935791016e-01
3.970000000000000000e+02 6.537878417968750000e+01 -1.227867794036865234e+01 -2.626552820205688477e+00 -3.929573297500610352e-01 -9.058530330657958984e-01 2.943392395973205566e-01
3.980000000000000000e+02 6.833205413818359375e+01 -1.321981620788574219e+01 -7.276983857154846191e-01 1.052403151988983154e-01 -1.867374181747436523e-01 4.972291365265846252e-02
3.990000000000000000e+02 6.902037811279296875e+01 -1.399434566497802734e+01 -4.861281812191009521e-01 6.527236849069595337e-02 -1.262567341327667236e-01 6.582954525947570801e-02
4.000000000000000000e+02 7.046273803710937500e+01 -1.456329822540283203e+01 -3.229460716247558594e-01 4.488857090473175049e-02 -8.341725170612335205e-02 4.455963615328073502e-03
4.010000000000000000e+02 7.202748107910156250e+01 -1.447106742858886719e+01 -2.568084299564361572e-01 3.029757179319858551e-02 -6.795325875282287598e-02 -4.495843499898910522e-02
4.020000000000000000e+02 7.435808563232421875e+01 -1.443592071533203125e+01 -1.564576923847198486e-01 -4.400170408189296722e-03 -4.825735837221145630e-02 -7.408417016267776489e-02
4.030000000000000000e+02 7.527162933349609375e+01 -1.056128978729248047e+01 -2.185813188552856445e-01 -1.135672703385353088e-01 -9.964457899332046509e-02 -3.099070191383361816e-01
4.040000000000000000e+02 7.443450927734375000e+01 -5.490726470947265625e+00 -1.238393485546112061e-01 -3.717367649078369141e-01 -1.486728340387344360e-01 -6.767175793647766113e-01
4.050000000000000000e+02 7.571613311767578125e+01 -4.289308547973632812e+00 -5.097551271319389343e-02 -6.146204471588134766e-01 -1.996787935495376587e-01 -6.090666651725769043e-01
4.060000000000000000e+02 7.420063018798828125e+01 -3.201118409633636475e-01 6.624323874711990356e-02 -6.470430493354797363e-01 -1.742399483919143677e-01 -7.276709079742431641e-01
4.070000000000000000e+02 7.548439788818359375e+01 1.093583703041076660e+00 6.438373029232025146e-02 -1.033438563346862793e+00 -2.907164394855499268e-01 -6.144992709159851074e-01
4.080000000000000000e+02 7.427597808837890625e+01 6.721217632293701172e+00 1.826711595058441162e-01 -9.363408684730529785e-01 -2.261009067296981812e-01 -4.503519833087921143e-01
4.090000000000000000e+02 7.554527282714843750e+01 9.468560218811035156e+00 1.428739428520202637e-01 -1.520112276077270508e+00 -4.131714999675750732e-01 -2.494739592075347900e-01
4.100000000000000000e+02 7.422684478759765625e+01 1.357911014556884766e+01 2.748282551765441895e-01 -9.921587705612182617e-01 -2.151991575956344604e-01 -7.980252616107463837e-03
4.110000000000000000e+02 7.408755493164062500e+01 1.646345901489257812e+01 2.586307823657989502e-01 -9.629780650138854980e-01 -2.113041728734970093e-01 2.147488743066787720e-01
4.120000000000000000e+02 7.535751342773437500e+01 2.165256500244140625e+01 9.645943343639373779e-02 -1.284238815307617188e+00 -3.563338220119476318e-01 4.507705271244049072e-01
4.130000000000000000e+02 7.377376556396484375e+01 2.268186569213867188e+01 1.120816245675086975e-01 -6.837499141693115234e-01 -1.715004891157150269e-01 5.531412959098815918e-01
4.140000000000000000e+02 7.449325561523437500e+01 2.674800682067871094e+01 -6.179151311516761780e-02 -7.466228008270263672e-01 -2.425242960453033447e-01 5.385620594024658203e-01
4.150000000000000000e+02 7.309709167480468750e+01 3.141164207458496094e+01 -1.725971847772598267e-01 -3.202619850635528564e-01 -1.478577554225921631e-01 4.762524366378784180e-01
4.160000000000000000e+02 7.293248748779296875e+01 3.381937408447265625e+01 -1.905440837144851685e-01 -1.787614971399307251e-01 -1.107916757464408875e-01 3.728702366352081299e-01
4.170000000000000000e+02 7.326309967041015625e+01 3.776426315307617188e+01 -1.885984987020492554e-01 -1.890792101621627808e-01 -1.133033111691474915e-01 1.991771459579467773e-01
4.180000000000000000e+02 7.172845458984375000e+01 4.109293365478515625e+01 -2.353867739439010620e-01 -5.179651826620101929e-02 -8.615498989820480347e-02 5.464451760053634644e-02
4.190000000000000000e+02 6.979250335693359375e+01 3.561138916015625000e+01 -3.295241296291351318e-01 2.575999796390533447e-01 -2.157724276185035706e-02 2.730799615383148193e-01
4.200000000000000000e+02 7.159598541259765625e+01 3.227711868286132812e+01 -2.440031021833419800e-01 4.118266329169273376e-02 -6.084612756967544556e-02 4.476245939731597900e-01
4.210000000000000000e+02 7.297016143798828125e+01 2.611989402770996094e+01 -3.278568014502525330e-02 -3.114400207996368408e-01 -1.032677069306373596e-01 6.042942404747009277e-01
4.220000000000000000e+02 7.229373168945312500e+01 2.281599044799804688e+01 1.584012210369110107e-01 -1.632325947284698486e-01 -1.449411734938621521e-03 5.923116803169250488e-01
4.230000000000000000e+02 7.112980651855468750e+01 1.960082435607910156e+01 3.950173258781433105e-01 2.137444019317626953e-01 1.826285123825073242e-01 4.450952410697937012e-01
4.240000000000000000e+02 7.117913818359375000e+01 1.632759475708007812e+01 4.924811720848083496e-01 2.830542027950286865e-01 2.326606065034866333e-01 1.965838223695755005e-01
4.250000000000000000e+02 6.997336578369140625e+01 1.160226631164550781e+01 5.414566397666931152e-01 7.882786393165588379e-01 3.989205658435821533e-01 -1.527106016874313354e-01
4.260000000000000000e+02 7.195437622070312500e+01 2.252427816390991211e+00 2.179175019264221191e-01 -1.442675590515136719e-01 2.209498174488544464e-02 -7.024884223937988281e-01
4.270000000000000000e+02 7.220584869384765625e+01 -1.979343295097351074e+00 2.557867206633090973e-02 -2.099912464618682861e-01 -5.532376840710639954e-02 -8.145456314086914062e-01
4.280000000000000000e+02 7.099466705322265625e+01 -3.523594141006469727e+00 -7.366570830345153809e-02 -2.583429217338562012e-02 -2.985000051558017731e-02 -8.451270461082458496e-01
4.290000000000000000e+02 7.212834930419921875e+01 -6.416817188262939453e+00 -2.645389437675476074e-01 -9.724045544862747192e-02 -1.085338145494461060e-01 -7.546555399894714355e-01
4.300000000000000000e+02 7.028608703613281250e+01 -1.118953514099121094e+01 -7.033170461654663086e-01 1.708677709102630615e-01 -1.597347706556320190e-01 -3.250511884689331055e-01
4.310000000000000000e+02 7.152336120605468750e+01 -1.095020866394042969e+01 -5.339222550392150879e-01 9.588856250047683716e-02 -1.314101070165634155e-01 -3.641730546951293945e-01
4.320000000000000000e+02 6.903010559082031250e+01 -1.472244167327880859e+01 -3.356566429138183594e-01 2.976366318762302399e-02 -9.176789224147796631e-02 8.739713579416275024e-02
4.330000000000000000e+02 7.512989044189453125e+01 -1.445149230957031250e+01 -1.203604564070701599e-01 -6.143962033092975616e-03 -3.795132786035537720e-02 -7.101728022098541260e-02
4.340000000000000000e+02 7.863360595703125000e+01 -1.320160007476806641e+01 -2.233896031975746155e-02 -4.953587800264358521e-02 -2.156245149672031403e-02 -3.594582527875900269e-02
4.350000000000000000e+02 7.940781402587890625e+01 -8.624625205993652344e+00 -4.342633299529552460e-03 -3.403421342372894287e-01 -1.034054309129714966e-01 -6.964474171400070190e-02
4.360000000000000000e+02 7.941044616699218750e+01 -1.001871871948242188e+01 -6.756968796253204346e-03 -1.895576566457748413e-01 -5.889438837766647339e-02 -5.599673464894294739e-02
4.370000000000000000e+02 7.939894104003906250e+01 -5.842577457427978516e+00 -7.227475289255380630e-04 -7.514262199401855469e-01 -2.256446778774261475e-01 -9.947962313890457153e-02
4.380000000000000000e+02 7.695493316650390625e+01 -5.704764366149902344e+00 -4.582627117633819580e-02 -6.084322929382324219e-01 -1.962775737047195435e-01 -4.428788721561431885e-01
4.390000000000000000e+02 7.938166046142578125e+01 -1.659247994422912598e+00 -1.431904267519712448e-03 -1.541654467582702637e+00 -4.629259109497070312e-01 -1.149873062968254089e-01
4.400000000000000000e+02 7.811695861816406250e+01 -2.621814012527465820e-01 7.475227583199739456e-03 -1.520914435386657715e+00 -4.540317654609680176e-01 -3.332353234291076660e-01
4.410000000000000000e+02 7.678674316406250000e+01 5.284844875335693359e+00 6.793458014726638794e-02 -1.776510357856750488e+00 -5.125727057456970215e-01 -3.783732056617736816e-01
4.420000000000000000e+02 7.807532501220703125e+01 5.302081584930419922e+00 2.549852058291435242e-02 -2.258028268814086914e+00 -6.697589159011840820e-01 -2.486339509487152100e-01
4.430000000000000000e+02 7.809838104248046875e+01 1.089152431488037109e+01 3.622659668326377869e-02 -2.708852529525756836e+00 -8.017877936363220215e-01 -9.151848405599594116e-02
4.440000000000000000e+02 7.937137603759765625e+01 1.513341236114501953e+01 4.329015500843524933e-03 -3.397448539733886719e+00 -1.017935872077941895e+00 2.621413953602313995e-02
4.450000000000000000e+02 7.810708618164062500e+01 1.785844039916992188e+01 3.448380902409553528e-02 -2.634291172027587891e+00 -7.799422144889831543e-01 1.489353775978088379e-01
4.460000000000000000e+02 7.802048492431640625e+01 2.197527885437011719e+01 1.496111694723367691e-02 -2.242044925689697266e+00 -6.681250929832458496e-01 2.520263493061065674e-01
4.470000000000000000e+02 7.786474609375000000e+01 2.471990585327148438e+01 1.297052251175045967e-03 -1.886021494865417480e+00 -5.654173493385314941e-01 3.014293015003204346e-01
4.480000000000000000e+02 7.748253631591796875e+01 2.888222694396972656e+01 -1.807226613163948059e-02 -1.352740883827209473e+00 -4.112439155578613281e-01 3.061241805553436279e-01
4.490000000000000000e+02 7.717808532714843750e+01 3.180791854858398438e+01 -3.747662156820297241e-02 -1.022002220153808594e+00 -3.178436756134033203e-01 2.815874814987182617e-01
4.500000000000000000e+02 7.912742614746093750e+01 3.619309234619140625e+01 -1.589680649340152740e-02 -9.542888998985290527e-01 -2.910557091236114502e-01 5.384902283549308777e-02
4.510000000000000000e+02 7.794645690917968750e+01 3.784238433837890625e+01 -1.331036351621150970e-02 -7.492327094078063965e-01 -2.287629246711730957e-01 1.160062849521636963e-01
4.520000000000000000e+02 7.797048187255859375e+01 4.160860061645507812e+01 -6.054850295186042786e-02 -6.782332658767700195e-01 -2.216345220804214478e-01 1.703451201319694519e-02
4.530000000000000000e+02 6.726663208007812500e+01 4.125133895874023438e+01 -4.079555273056030273e-01 4.513105154037475586e-01 1.300649251788854599e-02 2.950494736433029175e-02
4.540000000000000000e+02 6.684647369384765625e+01 3.862708282470703125e+01 -4.174396395683288574e-01 5.070847868919372559e-01 2.689354307949542999e-02 1.035982742905616760e-01
4.550000000000000000e+02 6.656446838378906250e+01 3.586127090454101562e+01 -4.326436817646026611e-01 6.371248364448547363e-01 6.134434789419174194e-02 1.581802219152450562e-01
4.560000000000000000e+02 6.618061065673828125e+01 3.058996009826660156e+01 -4.031678736209869385e-01 1.007431030273437500e+00 1.812789440155029297e-01 2.449421733617782593e-01
4.570000000000000000e+02 6.873973846435546875e+01 2.685533523559570312e+01 -1.653716266155242920e-01 8.450723290443420410e-01 2.039102017879486084e-01 5.542747974395751953e-01
4.580000000000000000e+02 6.866521453857421875e+01 2.292613220214843750e+01 2.487900406122207642e-01 9.917860627174377441e-01 3.721728324890136719e-01 5.683559775352478027e-01
4.590000000000000000e+02 6.937677001953125000e+01 2.002364349365234375e+01 4.628582298755645752e-01 8.869370222091674805e-01 4.049385786056518555e-01 4.416072070598602295e-01
4.600000000000000000e+02 6.837154388427734375e+01 1.180426979064941406e+01 6.151180863380432129e-01 1.533711671829223633e+00 6.446489095687866211e-01 -6.687428057193756104e-02
4.610000000000000000e+02 6.792004394531250000e+01 1.103365230560302734e+01 5.820937752723693848e-01 1.768375277519226074e+00 7.051407098770141602e-01 -1.127303317189216614e-01
4.620000000000000000e+02 6.797241973876953125e+01 7.032752990722656250e+00 5.558902025222778320e-01 1.404261350631713867e+00 5.880454778671264648e-01 -2.433785051107406616e-01
4.630000000000000000e+02 6.694724273681640625e+01 4.320879459381103516e+00 5.340616106986999512e-01 1.457305669784545898e+00 5.974102020263671875e-01 -2.292826920747756958e-01
4.640000000000000000e+02 6.833676910400390625e+01 1.307091116905212402e-01 2.623446285724639893e-01 5.744972229003906250e-01 2.510525584220886230e-01 -6.165925860404968262e-01
4.650000000000000000e+02 6.922767639160156250e+01 -4.141463279724121094e+00 -1.256109327077865601e-01 1.481948494911193848e-01 6.775174755603075027e-03 -8.223213553428649902e-01
4.660000000000000000e+02 6.799641418457031250e+01 -8.155794143676757812e+00 -6.540449261665344238e-01 9.106625616550445557e-02 -1.688936054706573486e-01 -7.453987598419189453e-01
4.670000000000000000e+02 7.009008026123046875e+01 -1.001148319244384766e+01 -6.960867047309875488e-01 1.397680044174194336e-01 -1.668955981731414795e-01 -5.512005686759948730e-01
4.680000000000000000e+02 6.647899627685546875e+01 -1.296244144439697266e+01 -1.065389275550842285e+00 -8.494546264410018921e-02 -3.451004326343536377e-01 4.449506402015686035e-01
4.690000000000000000e+02 6.281283187866210938e+01 3.858075332641601562e+01 -4.701586365699768066e-01 7.976562976837158203e-01 9.824929386377334595e-02 -7.907793857157230377e-03
4.700000000000000000e+02 6.312661361694335938e+01 3.577454757690429688e+01 -4.625551402568817139e-01 8.688086867332458496e-01 1.218760684132575989e-01 1.681177061982452869e-03
4.710000000000000000e+02 6.635549163818359375e+01 3.315161132812500000e+01 -4.311835169792175293e-01 8.070631027221679688e-01 1.127638667821884155e-01 2.032795399427413940e-01
4.720000000000000000e+02 6.400250244140625000e+01 2.771757507324218750e+01 -3.093495368957519531e-01 1.585431218147277832e+00 3.828245103359222412e-01 2.911942452192306519e-02
4.730000000000000000e+02 6.209212493896484375e+01 2.093824195861816406e+01 1.376539587974548340e+00 3.560041189193725586e+00 1.480974197387695312e+00 -1.207996606826782227e+00
4.740000000000000000e+02 6.250820922851562500e+01 1.357684707641601562e+01 2.034545838832855225e-01 5.632873058319091797e+00 1.750898361206054688e+00 1.590241342782974243e-01
4.750000000000000000e+02 6.595204925537109375e+01 1.015093231201171875e+01 6.018639802932739258e-01 2.777234315872192383e+00 1.013729572296142578e+00 8.876549452543258667e-02
4.760000000000000000e+02 6.540545654296875000e+01 7.556189060211181641e+00 6.872653365135192871e-01 2.584132909774780273e+00 9.814195036888122559e-01 1.963092088699340820e-01
4.770000000000000000e+02 6.347029495239257812e+01 2.081566810607910156e+00 5.879516005516052246e-01 2.053099632263183594e+00 7.923153638839721680e-01 3.224526345729827881e-01
4.780000000000000000e+02 6.449176025390625000e+01 9.355733394622802734e-01 5.230860710144042969e-01 1.511545896530151367e+00 6.103895902633666992e-01 1.605946756899356842e-02
4.790000000000000000e+02 6.186781692504882812e+01 -3.203440904617309570e+00 4.036811888217926025e-01 1.041231632232666016e+00 4.334738254547119141e-01 2.301923334598541260e-01
4.800000000000000000e+02 6.598645019531250000e+01 -1.110830783843994141e+01 -1.618447303771972656e+00 -2.564254589378833771e-02 -4.932269454002380371e-01 -6.286542415618896484e-01
4.810000000000000000e+02 6.258740615844726562e+01 4.124346923828125000e+01 -4.684751331806182861e-01 7.575497627258300781e-01 8.672238886356353760e-02 -6.153880385681986809e-04
4.820000000000000000e+02 5.880229187011718750e+01 3.821667861938476562e+01 -3.963112831115722656e-01 8.262451887130737305e-01 1.289801746606826782e-01 -1.053837537765502930e-01
4.830000000000000000e+02 5.965351104736328125e+01 3.519968414306640625e+01 -3.971984982490539551e-01 9.386284947395324707e-01 1.624289900064468384e-01 -1.762275993824005127e-01
4.840000000000000000e+02 5.913571548461914062e+01 3.106974983215332031e+01 -2.731050550937652588e-01 1.108410954475402832e+00 2.505917549133300781e-01 -3.733965456485748291e-01
4.850000000000000000e+02 6.072816467285156250e+01 2.824770927429199219e+01 -2.331465184688568115e-01 1.439186096191406250e+00 3.618118762969970703e-01 -3.787475824356079102e-01
4.860000000000000000e+02 5.979533767700195312e+01 2.417669105529785156e+01 3.563416004180908203e-01 1.888319969177246094e+00 6.733984947204589844e-01 -1.022388100624084473e+00
4.870000000000000000e+02 5.916232681274414062e+01 2.201526069641113281e+01 1.779644727706909180e+00 1.124903082847595215e+00 8.713643550872802734e-01 -1.169989585876464844e+00
4.880000000000000000e+02 6.052256393432617188e+01 2.138966941833496094e+01 1.987506031990051270e+00 2.848889589309692383e+00 1.450918674468994141e+00 -1.752810239791870117e+00
4.890000000000000000e+02 6.200527954101562500e+01 1.934794044494628906e+01 1.477002620697021484e+00 4.946929454803466797e+00 1.927179694175720215e+00 -1.824204087257385254e+00
4.900000000000000000e+02 6.236017990112304688e+01 1.802013397216796875e+01 7.762467861175537109e-01 6.031316280364990234e+00 2.042268991470336914e+00 -1.309234142303466797e+00
4.910000000000000000e+02 6.252908325195312500e+01 1.658097267150878906e+01 3.908626437187194824e-01 5.961981773376464844e+00 1.905853271484375000e+00 -5.976768136024475098e-01
4.920000000000000000e+02 6.227360153198242188e+01 1.214881992340087891e+01 1.280312687158584595e-01 5.591632843017578125e+00 1.715899229049682617e+00 5.050233006477355957e-01
4.930000000000000000e+02 6.419499206542968750e+01 1.514077472686767578e+01 5.163811445236206055e-01 4.332429885864257812e+00 1.454643368721008301e+00 -2.461690306663513184e-01
4.940000000000000000e+02 6.204446792602539062e+01 1.079281044006347656e+01 1.431201696395874023e-01 5.593644618988037109e+00 1.721029520034790039e+00 6.966828107833862305e-01
4.950000000000000000e+02 6.278129577636718750e+01 9.390493392944335938e+00 4.991586804389953613e-01 4.585728645324707031e+00 1.525466203689575195e+00 7.609241604804992676e-01
4.960000000000000000e+02 6.156666564941406250e+01 8.127768516540527344e+00 3.885479867458343506e-01 4.909178733825683594e+00 1.589317917823791504e+00 1.321829557418823242e+00
4.970000000000000000e+02 6.135722732543945312e+01 6.837953090667724609e+00 7.338108420372009277e-01 4.641387939453125000e+00 1.612559556961059570e+00 1.507176399230957031e+00
4.980000000000000000e+02 6.043991470336914062e+01 4.869998931884765625e+00 1.267250657081604004e+00 3.867453336715698242e+00 1.540411233901977539e+00 1.854716897010803223e+00
4.990000000000000000e+02 6.136518096923828125e+01 3.689177989959716797e+00 7.578442096710205078e-01 3.067183732986450195e+00 1.147508382797241211e+00 9.730414152145385742e-01
5.000000000000000000e+02 6.172705078125000000e+01 1.309024393558502197e-01 6.878530383110046387e-01 1.805367231369018555e+00 7.479661107063293457e-01 6.148104667663574219e-01
5.010000000000000000e+02 6.105383682250976562e+01 -2.491972208023071289e+00 6.003280282020568848e-01 1.336438775062561035e+00 5.810300707817077637e-01 4.792547821998596191e-01
5.020000000000000000e+02 6.097362136840820312e+01 -4.729724407196044922e+00 2.108256518840789795e-01 9.115325212478637695e-01 3.367074429988861084e-01 2.738618850708007812e-01
5.030000000000000000e+02 6.173916244506835938e+01 -1.127502822875976562e+01 -2.079844951629638672e+00 -7.767719682306051254e-03 -6.262838244438171387e-01 -1.242760792374610901e-01
5.040000000000000000e+02 5.792921829223632812e+01 4.110968017578125000e+01 -3.948471546173095703e-01 7.959187030792236328e-01 1.203214600682258606e-01 -3.443645313382148743e-02
5.050000000000000000e+02 5.519588851928710938e+01 3.766571044921875000e+01 -2.855736017227172852e-01 7.342035174369812012e-01 1.345889717340469360e-01 -1.679587811231613159e-01
5.060000000000000000e+02 5.620346069335937500e+01 3.459110641479492188e+01 -2.555257678031921387e-01 8.106625676155090332e-01 1.665410548448562622e-01 -2.789401710033416748e-01
5.070000000000000000e+02 5.457638168334960938e+01 2.631174468994140625e+01 2.871087193489074707e-01 3.595815002918243408e-01 1.940070688724517822e-01 -4.751939177513122559e-01
5.080000000000000000e+02 5.793041229248046875e+01 2.457043457031250000e+01 5.926852822303771973e-01 9.060310125350952148e-01 4.496148824691772461e-01 -9.483606219291687012e-01
5.090000000000000000e+02 5.456781005859375000e+01 2.150924301147460938e+01 1.195781230926513672e-01 1.689491234719753265e-02 4.094191268086433411e-02 -1.068940684199333191e-01
5.100000000000000000e+02 5.757762145996093750e+01 2.225283622741699219e+01 1.011475086212158203e+00 3.185756206512451172e-01 3.990152180194854736e-01 -5.264886617660522461e-01
5.110000000000000000e+02 5.353912734985351562e+01 4.085671997070312500e+01 -2.520726621150970459e-01 6.435843706130981445e-01 1.174535155296325684e-01 -4.728437215089797974e-02
5.120000000000000000e+02 5.233517074584960938e+01 3.702742385864257812e+01 -1.827239394187927246e-01 6.111594438552856445e-01 1.285306513309478760e-01 -1.752342730760574341e-01
5.130000000000000000e+02 5.323261260986328125e+01 3.157828330993652344e+01 -6.548108533024787903e-03 5.558434724807739258e-01 1.647886186838150024e-01 -3.775563240051269531e-01
5.140000000000000000e+02 5.317586898803710938e+01 2.903074836730957031e+01 1.216458976268768311e-01 4.393582046031951904e-01 1.683012247085571289e-01 -4.165918529033660889e-01
5.150000000000000000e+02 5.250709915161132812e+01 2.279296875000000000e+01 2.118066400289535522e-01 8.108530193567276001e-03 6.597455590963363647e-02 -1.522661149501800537e-01
5.160000000000000000e+02 5.189499282836914062e+01 2.062393569946289062e+01 -1.237517446279525757e-01 -1.593709364533424377e-02 -4.190665110945701599e-02 -8.340160548686981201e-02
5.170000000000000000e+02 5.062591552734375000e+01 3.954931259155273438e+01 -1.602691262960433960e-01 5.340131521224975586e-01 1.121232062578201294e-01 -8.269530534744262695e-02
5.180000000000000000e+02 4.975840377807617188e+01 3.707302093505859375e+01 -8.807354420423507690e-02 4.511012732982635498e-01 1.089083179831504822e-01 -1.463155001401901245e-01
5.190000000000000000e+02 4.976971435546875000e+01 3.436930465698242188e+01 -2.789897471666336060e-02 4.097568392753601074e-01 1.145573630928993225e-01 -2.091998755931854248e-01
5.200000000000000000e+02 4.991361999511718750e+01 3.159047508239746094e+01 4.941615462303161621e-02 3.244845569133758545e-01 1.121702194213867188e-01 -2.418396919965744019e-01
5.210000000000000000e+02 5.030447006225585938e+01 2.350190162658691406e+01 1.460628211498260498e-01 1.881370693445205688e-02 4.946295917034149170e-02 -1.125631853938102722e-01
5.220000000000000000e+02 4.937017059326171875e+01 1.940985107421875000e+01 -1.681242883205413818e-01 -4.593722894787788391e-02 -6.421845406293869019e-02 -9.519385546445846558e-02
5.230000000000000000e+02 4.820539474487304688e+01 1.865351104736328125e+01 -1.466328948736190796e-01 -6.060463562607765198e-02 -6.217125803232192993e-02 -7.956381887197494507e-02
5.240000000000000000e+02 4.317493438720703125e+01 1.712432479858398438e+01 -6.867506355047225952e-02 1.577596366405487061e-02 -1.586973108351230621e-02 -1.980800181627273560e-02
5.250000000000000000e+02 3.971736145019531250e+01 1.867561721801757812e+01 -5.374454334378242493e-02 3.408829122781753540e-02 -5.896876100450754166e-03 7.735054939985275269e-03
5.260000000000000000e+02 3.794298171997070312e+01 1.704608535766601562e+01 -4.791928827762603760e-02 2.411728538572788239e-02 -7.140601053833961487e-03 1.128199510276317596e-02
5.270000000000000000e+02 3.075455665588378906e+01 1.751014137268066406e+01 -2.022580616176128387e-02 -6.154606491327285767e-02 -2.453156001865863800e-02 3.266599774360656738e-02
5.280000000000000000e+02 3.325365447998046875e+01 8.174598693847656250e+00 2.105072344420477748e-04 2.011147094890475273e-03 6.664962857030332088e-04 -5.435110069811344147e-04
5.290000000000000000e+02 3.351704025268554688e+01 6.130720615386962891e+00 1.095602870918810368e-03 5.365092074498534203e-04 4.896336467936635017e-04 -1.353285915683954954e-04
5.300000000000000000e+02 3.359589004516601562e+01 1.898126363754272461e+00 -1.989901502383872867e-04 3.680028021335601807e-04 5.070379484095610678e-05 2.181615709559991956e-04
5.310000000000000000e+02 4.719847869873046875e+01 4.088900756835937500e+01 -9.073423594236373901e-02 4.028305709362030029e-01 9.362889826297760010e-02 -3.290525823831558228e-02
5.320000000000000000e+02 4.674444198608398438e+01 3.774110794067382812e+01 -4.197914153337478638e-02 3.463831245899200439e-01 9.132120013236999512e-02 -1.095775961875915527e-01
5.330000000000000000e+02 4.652518463134765625e+01 3.475157165527343750e+01 7.309125270694494247e-03 2.836774587631225586e-01 8.729597181081771851e-02 -1.363771408796310425e-01
5.340000000000000000e+02 4.646283340454101562e+01 3.184732818603515625e+01 5.349775031208992004e-02 2.282688021659851074e-01 8.452996611595153809e-02 -1.497474908828735352e-01
5.350000000000000000e+02 4.849103164672851562e+01 2.785571479797363281e+01 1.221906170248985291e-01 1.586958616971969604e-01 8.426594734191894531e-02 -1.710292845964431763e-01
5.360000000000000000e+02 4.917966079711914062e+01 2.477369689941406250e+01 1.430156677961349487e-01 6.070138514041900635e-02 6.111511960625648499e-02 -1.197893545031547546e-01
5.370000000000000000e+02 4.752610778808593750e+01 1.987297630310058594e+01 -9.642559289932250977e-02 -8.894839324057102203e-03 -3.159612789750099182e-02 -4.223226010799407959e-02
5.380000000000000000e+02 4.312527084350585938e+01 4.104785537719726562e+01 -7.162571884691715240e-03 2.401722222566604614e-01 6.990289688110351562e-02 -1.689830608665943146e-02
5.390000000000000000e+02 4.352162551879882812e+01 3.821121978759765625e+01 -7.653020787984132767e-03 2.516878843307495117e-01 7.321045547723770142e-02 -5.527468770742416382e-02
5.400000000000000000e+02 4.313893127441406250e+01 3.532858657836914062e+01 2.006244286894798279e-02 2.079997509717941284e-01 6.841865926980972290e-02 -7.778561115264892578e-02
5.410000000000000000e+02 4.290137481689453125e+01 3.230008697509765625e+01 4.337177798151969910e-02 1.454216241836547852e-01 5.663802102208137512e-02 -7.178595662117004395e-02
5.420000000000000000e+02 4.222161865234375000e+01 2.641130638122558594e+01 3.852376341819763184e-02 7.262637466192245483e-02 3.334503993391990662e-02 -3.169518336653709412e-02
5.430000000000000000e+02 4.531042098999023438e+01 2.396527290344238281e+01 3.281718865036964417e-02 3.332369402050971985e-02 1.984226517379283905e-02 -2.589609846472740173e-02
5.440000000000000000e+02 4.294555664062500000e+01 2.062668991088867188e+01 -5.158616974949836731e-02 3.321719542145729065e-02 -5.510692019015550613e-03 3.739757230505347252e-03
5.450000000000000000e+02 4.057773971557617188e+01 3.942807769775390625e+01 2.017354965209960938e-02 1.730833053588867188e-01 5.797705799341201782e-02 -2.171619050204753876e-02
5.460000000000000000e+02 3.976361083984375000e+01 3.618360137939453125e+01 3.294349089264869690e-02 1.297141760587692261e-01 4.879729822278022766e-02 -3.003315441310405731e-02
5.470000000000000000e+02 3.934622192382812500e+01 3.298267364501953125e+01 3.581749275326728821e-02 1.069168075919151306e-01 4.282028973102569580e-02 -3.712764382362365723e-02
5.480000000000000000e+02 3.864787292480468750e+01 3.012447547912597656e+01 3.466799110174179077e-02 7.032926380634307861e-02 3.149917721748352051e-02 -2.541266195476055145e-02
5.490000000000000000e+02 3.965443420410156250e+01 2.662786102294921875e+01 1.642169430851936340e-02 5.521303787827491760e-02 2.149041928350925446e-02 -1.035791169852018356e-02
5.500000000000000000e+02 4.043650054931640625e+01 2.393424797058105469e+01 -3.754816250875592232e-03 5.022803321480751038e-02 1.394196506589651108e-02 2.007886767387390137e-03
5.510000000000000000e+02 4.064900588989257812e+01 1.958169746398925781e+01 -5.653711408376693726e-02 3.537379205226898193e-02 -6.348996888846158981e-03 1.177497766911983490e-02
5.520000000000000000e+02 4.003654098510742188e+01 2.228757667541503906e+01 -3.321651369333267212e-02 4.627331346273422241e-02 3.917039837688207626e-03 1.179896388202905655e-02
5.530000000000000000e+02 3.700326538085937500e+01 4.065007400512695312e+01 3.663670644164085388e-02 1.060371771454811096e-01 4.280216619372367859e-02 -4.769762977957725525e-03
5.540000000000000000e+02 3.623624801635742188e+01 3.712565994262695312e+01 3.942952305078506470e-02 8.190635591745376587e-02 3.640076518058776855e-02 -1.658506318926811218e-02
5.550000000000000000e+02 3.573070144653320312e+01 3.388186264038085938e+01 3.638372942805290222e-02 5.602621659636497498e-02 2.772298455238342285e-02 -1.121557597070932388e-02
5.560000000000000000e+02 3.776508712768554688e+01 2.774205207824707031e+01 1.262382138520479202e-02 4.872366040945053101e-02 1.840424537658691406e-02 -8.188595063984394073e-03
5.570000000000000000e+02 3.653790283203125000e+01 2.419528770446777344e+01 -2.609853446483612061e-02 3.289084509015083313e-02 2.037692582234740257e-03 9.340057149529457092e-03
5.580000000000000000e+02 3.714842605590820312e+01 1.975503158569335938e+01 -5.438557267189025879e-02 2.974882349371910095e-02 -7.391024846583604813e-03 2.143249846994876862e-02
5.590000000000000000e+02 3.783518218994140625e+01 2.058851051330566406e+01 -4.404956102371215820e-02 3.417064622044563293e-02 -2.963674254715442657e-03 1.678119972348213196e-02
5.600000000000000000e+02 3.245707321166992188e+01 4.094990921020507812e+01 4.620749503374099731e-02 3.981079161167144775e-02 2.580548636615276337e-02 -1.247107400558888912e-03
5.610000000000000000e+02 3.232323837280273438e+01 3.780180740356445312e+01 4.357082769274711609e-02 3.618556633591651917e-02 2.392691746354103088e-02 5.342035437934100628e-04
5.620000000000000000e+02 3.206355667114257812e+01 3.467462158203125000e+01 3.474531695246696472e-02 2.724368125200271606e-02 1.859669946134090424e-02 -1.133675454184412956e-03
5.630000000000000000e+02 3.311045455932617188e+01 3.064400863647460938e+01 2.087330259382724762e-02 2.098264731466770172e-02 1.255678478628396988e-02 2.176653128117322922e-03
5.640000000000000000e+02 3.360928344726562500e+01 2.656705856323242188e+01 -8.892623707652091980e-03 1.424500159919261932e-02 1.605713390745222569e-03 6.277842912822961807e-03
5.650000000000000000e+02 3.246124649047851562e+01 2.188429260253906250e+01 -6.110943853855133057e-02 -1.357034430839121342e-03 -1.873994059860706329e-02 2.149558998644351959e-02
5.660000000000000000e+02 3.154973983764648438e+01 2.044269943237304688e+01 -7.074871659278869629e-02 -2.024586685001850128e-02 -2.729837410151958466e-02 3.516126796603202820e-02
5.670000000000000000e+02 2.777560043334960938e+01 4.106483078002929688e+01 4.364135116338729858e-02 2.378723118454217911e-03 1.380602270364761353e-02 2.526573371142148972e-03
5.680000000000000000e+02 2.827528190612792969e+01 3.812436294555664062e+01 4.113928601145744324e-02 3.473886754363775253e-03 1.338395196944475174e-02 4.209545440971851349e-03
5.690000000000000000e+02 2.857381629943847656e+01 3.519391250610351562e+01 3.513965010643005371e-02 8.392288582399487495e-04 1.079366356134414673e-02 9.860487654805183411e-03
5.700000000000000000e+02 2.901186943054199219e+01 2.992314910888671875e+01 1.062806043773889542e-02 -1.033078320324420929e-02 8.918309322325512767e-05 1.507247053086757660e-02
5.710000000000000000e+02 2.711704444885253906e+01 2.886170196533203125e+01 1.985316164791584015e-03 -1.830154657363891602e-02 -4.894868936389684677e-03 2.030591480433940887e-02
5.720000000000000000e+02 2.851714706420898438e+01 2.253190612792968750e+01 -7.610072195529937744e-02 -4.458522051572799683e-02 -3.620578348636627197e-02 3.898448124527931213e-02
5.730000000000000000e+02 2.594558715820312500e+01 2.151605033874511719e+01 -1.220750659704208374e-01 -1.391717512160539627e-02 -4.079767316579818726e-02 3.677871450781822205e-02
5.740000000000000000e+02 2.896802902221679688e+01 2.022863769531250000e+01 -1.320037096738815308e-01 -9.531401842832565308e-02 -6.819532066583633423e-02 1.005309745669364929e-01
5.750000000000000000e+02 2.957233238220214844e+01 2.016413307189941406e+01 -1.011713296175003052e-01 -7.491967082023620605e-02 -5.282729864120483398e-02 6.896992027759552002e-02
5.760000000000000000e+02 3.005889129638671875e+01 1.948777961730957031e+01 -6.642506271600723267e-02 -7.218397408723831177e-02 -4.158271104097366333e-02 6.404171139001846313e-02
5.770000000000000000e+02 2.973295783996582031e+01 1.926584434509277344e+01 -5.103273689746856689e-02 -9.550787508487701416e-02 -4.396218433976173401e-02 6.787981092929840088e-02
5.780000000000000000e+02 2.445112609863281250e+01 3.797128295898437500e+01 3.378188237547874451e-02 -1.230124849826097488e-02 6.444189697504043579e-03 9.896596893668174744e-03
5.790000000000000000e+02 2.289183616638183594e+01 3.470233917236328125e+01 2.313392795622348785e-02 -1.769367046654224396e-02 1.632077153772115707e-03 1.826202683150768280e-02
5.800000000000000000e+02 2.594559669494628906e+01 3.248564529418945312e+01 2.150017768144607544e-02 -1.511746551841497421e-02 1.914813416078686714e-03 1.854351162910461426e-02
5.810000000000000000e+02 2.602121734619140625e+01 2.525905799865722656e+01 -3.791287541389465332e-02 -2.674652449786663055e-02 -1.939781941473484039e-02 3.161265328526496887e-02
5.820000000000000000e+02 2.317224502563476562e+01 4.096609878540039062e+01 3.576757758855819702e-02 -1.495788153260946274e-02 6.242908537387847900e-03 2.060947939753532410e-03
5.830000000000000000e+02 2.129230117797851562e+01 3.728350448608398438e+01 2.681510709226131439e-02 -1.784552074968814850e-02 2.690876135602593422e-03 1.162393391132354736e-02
5.840000000000000000e+02 2.106862068176269531e+01 3.385592651367187500e+01 1.749142818152904510e-02 -1.807004958391189575e-02 -1.735863770591095090e-04 1.862872764468193054e-02
5.850000000000000000e+02 2.265657615661621094e+01 3.047291374206542969e+01 5.302563309669494629e-03 -1.899016462266445160e-02 -4.106280393898487091e-03 2.481160126626491547e-02
5.860000000000000000e+02 2.269097137451171875e+01 2.555863952636718750e+01 -3.567927703261375427e-02 -1.723996736109256744e-02 -1.587577350437641144e-02 2.772690914571285248e-02
5.870000000000000000e+02 2.194767761230468750e+01 2.224061393737792969e+01 -9.494811296463012695e-02 -5.603401921689510345e-03 -3.016545623540878296e-02 7.701271213591098785e-03
5.880000000000000000e+02 2.274583244323730469e+01 2.212772369384765625e+01 -9.147524833679199219e-02 -4.904653411358594894e-03 -2.891397103667259216e-02 1.683781296014785767e-02
5.890000000000000000e+02 1.890385246276855469e+01 4.058821487426757812e+01 2.417205646634101868e-02 -1.873955689370632172e-02 1.629749778658151627e-03 4.618159960955381393e-03
5.900000000000000000e+02 1.912412261962890625e+01 3.594738388061523438e+01 1.869499497115612030e-02 -1.850783824920654297e-02 5.614701149170286953e-05 1.536477357149124146e-02
5.910000000000000000e+02 2.101124191284179688e+01 3.141217613220214844e+01 8.233096450567245483e-03 -1.793603785336017609e-02 -2.910882467404007912e-03 2.297644317150115967e-02
5.920000000000000000e+02 1.919314575195312500e+01 2.583271789550781250e+01 -2.873906679451465607e-02 -7.382946088910102844e-03 -1.083660405129194260e-02 2.237115427851676941e-02
5.930000000000000000e+02 1.870991134643554688e+01 2.179146766662597656e+01 -3.485984727740287781e-02 -1.716455910354852676e-03 -1.097289193421602249e-02 -5.303747020661830902e-03
5.940000000000000000e+02 1.675816154479980469e+01 2.107773590087890625e+01 -1.493826508522033691e-02 -2.490976359695196152e-03 -5.228772293776273727e-03 -6.018154788762331009e-03
5.950000000000000000e+02 1.952321243286132812e+01 2.194827461242675781e+01 -4.196419939398765564e-02 -1.298102433793246746e-03 -1.297869067639112473e-02 -4.332784097641706467e-03
5.960000000000000000e+02 1.610600852966308594e+01 3.880310058593750000e+01 1.776064559817314148e-02 -1.797910220921039581e-02 -6.553676939802244306e-05 7.307267747819423676e-03
5.970000000000000000e+02 1.448545837402343750e+01 3.621384811401367188e+01 9.437149390578269958e-03 -1.523904129862785339e-02 -1.740567269735038280e-03 1.192328613251447678e-02
5.980000000000000000e+02 1.486742115020751953e+01 3.295435714721679688e+01 4.049424082040786743e-03 -1.310874614864587784e-02 -2.717796480283141136e-03 1.616007648408412933e-02
5.990000000000000000e+02 1.323432254791259766e+01 3.017586708068847656e+01 -3.711079014465212822e-03 -7.859542965888977051e-03 -3.471186617389321327e-03 1.498861704021692276e-02
6.000000000000000000e+02 1.650181198120117188e+01 2.579592323303222656e+01 -1.925790682435035706e-02 -2.433312358334660530e-03 -6.507365964353084564e-03 1.557124778628349304e-02
6.010000000000000000e+02 1.623772621154785156e+01 2.174395942687988281e+01 -1.815377920866012573e-02 7.553522591479122639e-04 -5.219527985900640488e-03 -1.608391030458733439e-04
6.020000000000000000e+02 1.584273433685302734e+01 2.038144302368164062e+01 -3.900651587173342705e-03 -1.446170266717672348e-03 -1.604046556167304516e-03 -1.897783949971199036e-03
6.030000000000000000e+02 1.615174674987792969e+01 2.060489654541015625e+01 -5.553285591304302216e-03 -1.656249398365616798e-03 -2.162860473617911339e-03 -3.824303159490227699e-03
6.040000000000000000e+02 1.215148830413818359e+01 4.074250793457031250e+01 1.164400856941938400e-02 -1.618630625307559967e-02 -1.362689188681542873e-03 2.376117510721087456e-03
6.050000000000000000e+02 1.146981525421142578e+01 3.753738403320312500e+01 9.079323150217533112e-03 -1.462999451905488968e-02 -1.665201503783464432e-03 8.513371460139751434e-03
6.060000000000000000e+02 1.321781349182128906e+01 3.414845657348632812e+01 5.399454385042190552e-03 -1.272681448608636856e-02 -2.198208123445510864e-03 1.301869656890630722e-02
6.070000000000000000e+02 1.023809623718261719e+01 2.992313575744628906e+01 -2.393060829490423203e-03 -6.318342871963977814e-03 -2.613421063870191574e-03 1.100038364529609680e-02
6.080000000000000000e+02 1.202083778381347656e+01 2.672116470336914062e+01 -8.416616357862949371e-03 -2.605008892714977264e-03 -3.306487575173377991e-03 1.046669669449329376e-02
6.090000000000000000e+02 1.398583221435546875e+01 2.277293586730957031e+01 -1.310552190989255905e-02 1.733976765535771847e-03 -3.411463461816310883e-03 3.053296357393264771e-03
6.100000000000000000e+02 1.349928188323974609e+01 1.857126045227050781e+01 -7.762517780065536499e-04 3.941983159165829420e-04 -1.146160429925657809e-04 -7.127510616555809975e-05
6.110000000000000000e+02 1.470386695861816406e+01 1.621559333801269531e+01 2.574957325123250484e-04 1.831429544836282730e-03 6.266775890253484249e-04 1.228564797202125192e-04
6.120000000000000000e+02 1.085341453552246094e+01 5.150767803192138672e+00 -3.428467380217625760e-06 -1.068020537786651403e-05 -4.232601895637344569e-06 2.161972406611312181e-05
6.130000000000000000e+02 1.041009616851806641e+01 1.830667972564697266e+00 3.596525493776425719e-05 1.563590740261133760e-05 1.548034924780949950e-05 5.061243882664712146e-06
6.140000000000000000e+02 1.409260654449462891e+01 1.860349059104919434e+00 9.746012210598564707e-07 -1.732347118377219886e-05 -4.904661182081326842e-06 9.906519153446424752e-06
6.150000000000000000e+02 1.336343574523925781e+01 1.842807531356811523e+00 1.934300780703779310e-05 2.161948941648006439e-05 1.228874953085323796e-05 7.405354608636116609e-06
6.160000000000000000e+02 1.115081882476806641e+01 1.831801891326904297e+00 1.402872476319316775e-05 -1.988501935556996614e-05 -1.756888423187774606e-06 1.325991615885868669e-05
6.170000000000000000e+02 7.889639854431152344e+00 4.092533111572265625e+01 4.956590011715888977e-03 -1.390826329588890076e-02 -2.685501938685774803e-03 1.781480270437896252e-03
6.180000000000000000e+02 8.293777465820312500e+00 3.783729553222656250e+01 5.017123185098171234e-03 -1.349751837551593781e-02 -2.544118557125329971e-03 5.357005167752504349e-03
6.190000000000000000e+02 8.243882179260253906e+00 2.768958854675292969e+01 -4.070764407515525818e-03 -3.808476263657212257e-03 -2.363772131502628326e-03 7.289232686161994934e-03
6.200000000000000000e+02 8.473017692565917969e+00 2.483747482299804688e+01 -4.490260966122150421e-03 -1.809641253203153610e-03 -1.889970619231462479e-03 4.903129301965236664e-03
6.210000000000000000e+02 7.098008155822753906e+00 2.026442527770996094e+01 -1.724001602269709110e-03 -7.190611213445663452e-04 -7.329188520088791847e-04 5.944152362644672394e-04
6.220000000000000000e+02 7.915017604827880859e+00 1.728575325012207031e+01 -6.572517449967563152e-04 -9.147409000433981419e-04 -4.715977993328124285e-04 -1.902087024063803256e-05
6.230000000000000000e+02 9.427420616149902344e+00 1.315751552581787109e+01 1.485291286371648312e-04 -3.862197918351739645e-04 -7.130720041459426284e-05 2.028618037002161145e-04
6.240000000000000000e+02 7.477281570434570312e+00 9.646991729736328125e+00 1.103418544516898692e-04 -2.241385664092376828e-04 -3.413901504245586693e-05 2.643777588673401624e-05
6.250000000000000000e+02 8.090982437133789062e+00 5.331374168395996094e+00 5.521614730241708457e-05 -6.366450543282553554e-05 -2.534508439566707239e-06 8.997188160719815642e-06
6.260000000000000000e+02 8.134504318237304688e+00 1.838309884071350098e+00 1.936861008289270103e-05 -2.247963493573479354e-05 -9.333073194284224883e-07 4.543523118627490476e-06
6.270000000000000000e+02 6.607646942138671875e+00 1.851002573966979980e+00 1.454580524296034127e-05 -2.155926085833925754e-05 -2.104036411765264347e-06 -2.223168849013745785e-06
6.280000000000000000e+02 4.721772670745849609e+00 4.018321990966796875e+01 1.916286884807050228e-03 -1.390369608998298645e-02 -3.596222726628184319e-03 1.928877318277955055e-03
6.290000000000000000e+02 5.696674823760986328e+00 3.778656768798828125e+01 2.788242883980274200e-03 -1.241224911063909531e-02 -2.887201728299260139e-03 4.193791188299655914e-03
6.300000000000000000e+02 4.759677886962890625e+00 3.370937728881835938e+01 6.400482379831373692e-04 -9.533669799566268921e-03 -2.668086439371109009e-03 5.333750974386930466e-03
6.310000000000000000e+02 6.364758014678955078e+00 3.083110427856445312e+01 -1.086357515305280685e-03 -6.868434138596057892e-03 -2.386437496170401573e-03 7.046376820653676987e-03
6.320000000000000000e+02 5.798901081085205078e+00 2.645687675476074219e+01 -1.918167225085198879e-03 -3.094978863373398781e-03 -1.503943814896047115e-03 4.679407458752393723e-03
6.330000000000000000e+02 4.486074447631835938e+00 2.501465034484863281e+01 -1.168732880614697933e-03 -2.059889724478125572e-03 -9.685867698863148689e-04 2.788461511954665184e-03
6.340000000000000000e+02 6.357515811920166016e+00 2.063980293273925781e+01 -1.731681753881275654e-03 -9.535868884995579720e-04 -8.055805810727179050e-04 9.120903559960424900e-04
6.350000000000000000e+02 5.171261310577392578e+00 1.724196243286132812e+01 -4.556042258627712727e-04 -4.432099231053143740e-04 -2.696442534215748310e-04 -1.901666255434975028e-04
6.360000000000000000e+02 5.933109760284423828e+00 1.063323211669921875e+01 2.167655475204810500e-04 -1.468109840061515570e-04 2.098637378367129713e-05 -1.713736128294840455e-04
6.370000000000000000e+02 5.000242233276367188e+00 7.805171489715576172e+00 1.323467731708660722e-04 -5.935837543802335858e-05 2.189651968365069479e-05 8.982799045043066144e-06
6.380000000000000000e+02 4.309115886688232422e+00 1.923169016838073730e+00 2.544467861298471689e-05 1.969184631889220327e-05 1.354095729766413569e-05 -1.873400105978362262e-05
6.390000000000000000e+02 2.763302564620971680e+00 2.043438911437988281e+00 3.345759296280448325e-07 3.488048241706565022e-05 1.056451765180099756e-05 -1.877989052445627749e-05
6.400000000000000000e+02 4.503068447113037109e+00 2.737220048904418945e+00 1.322132629866246134e-05 -1.131044882640708238e-05 5.732634349442378152e-07 -7.650844054296612740e-06
6.410000000000000000e+02 1.977529287338256836e+00 4.160540390014648438e+01 2.382997045060619712e-04 -1.599724777042865753e-02 -4.727683961391448975e-03 6.306153954938054085e-05
6.420000000000000000e+02 1.776962518692016602e+00 3.792164230346679688e+01 4.232811625115573406e-04 -1.420292071998119354e-02 -4.133891779929399490e-03 1.313048065640032291e-03
6.430000000000000000e+02 2.214155912399291992e+00 3.344594192504882812e+01 3.662490053102374077e-04 -9.444134309887886047e-03 -2.723365556448698044e-03 2.928854897618293762e-03
6.440000000000000000e+02 2.138507127761840820e+00 3.200558853149414062e+01 -2.771553699858486652e-04 -7.863771170377731323e-03 -2.442277967929840088e-03 2.782451920211315155e-03
6.450000000000000000e+02 2.009777307510375977e+00 2.775191307067871094e+01 -8.939843974076211452e-05 -3.265883307904005051e-03 -1.006584498099982738e-03 2.154850866645574570e-03
6.460000000000000000e+02 1.918998360633850098e+00 2.493119239807128906e+01 -1.018053881125524640e-04 -1.003121840767562389e-03 -3.314781642984598875e-04 1.248531159944832325e-03
6.470000000000000000e+02 1.811858177185058594e+00 2.075623893737792969e+01 -4.155883798375725746e-04 5.467978771775960922e-04 3.936284701921977103e-05 1.044649616233073175e-04
6.480000000000000000e+02 1.812988281250000000e+00 1.796004867553710938e+01 -2.771384606603533030e-04 6.561082554981112480e-04 1.136909413617104292e-04 -2.009599556913599372e-04
6.490000000000000000e+02 1.909682273864746094e+00 1.508533477783203125e+01 -1.587027945788577199e-04 4.435077134985476732e-04 8.544147567590698600e-05 -2.488826576154679060e-04
6.500000000000000000e+02 1.748858809471130371e+00 1.082329559326171875e+01 1.875711895991116762e-04 1.784071646397933364e-04 1.097935091820545495e-04 -1.257041585631668568e-04
6.510000000000000000e+02 1.860795855522155762e+00 8.019593238830566406e+00 1.620503317099064589e-04 7.222402200568467379e-05 7.028230902506038547e-05 -7.598776574013754725e-05
6.520000000000000000e+02 2.971751451492309570e+00 3.095885992050170898e+00 2.408008367638103664e-05 -3.854143415082944557e-06 6.067781669116811827e-06 -1.115434315579477698e-05
6.530000000000000000e+02 4.602817595005035400e-01 3.603394746780395508e+00 6.260858208406716585e-05 8.333112418767996132e-06 2.128250707755796611e-05 -9.079542905965354294e-06
6.540000000000000000e+02 1.630341529846191406e+01 3.100674390792846680e+00 1.445501038688234985e-05 2.289712938363663852e-05 1.120564138545887545e-05 2.237306489405455068e-06
6.550000000000000000e+02 1.742608261108398438e+01 8.361026763916015625e+00 6.313595076790079474e-05 2.391555608483031392e-05 2.611545096442569047e-05 3.230624133720993996e-05
6.560000000000000000e+02 1.684717178344726562e+01 9.826474189758300781e+00 -6.080615639802999794e-05 5.364668140828143805e-06 -1.663244620431214571e-05 -4.516165063250809908e-05
6.570000000000000000e+02 1.616332817077636719e+01 1.078016185760498047e+01 1.117687716032378376e-04 1.195597142213955522e-04 6.939854210941120982e-05 3.273645415902137756e-05
6.580000000000000000e+02 1.591561698913574219e+01 1.109145355224609375e+01 -7.302781887119635940e-05 1.055395696312189102e-04 9.753525773703586310e-06 -1.007449609460309148e-04
6.590000000000000000e+02 1.339603710174560547e+01 1.039457321166992188e+01 1.350632228422909975e-04 1.347504148725420237e-04 8.094408985925838351e-05 9.115148714045062661e-05
6.600000000000000000e+02 1.980700874328613281e+01 2.355264186859130859e+00 -5.609809250017860904e-06 -1.738424180075526237e-05 -6.898215360706672072e-06 2.932989389137219405e-07
6.610000000000000000e+02 1.627132415771484375e+01 1.948558330535888672e+00 8.833550054987426847e-06 2.273521022289060056e-05 9.470628356211818755e-06 1.895046580102643929e-06
6.620000000000000000e+02 1.423794555664062500e+01 1.318449306488037109e+01 1.534139883005991578e-04 5.648042424581944942e-04 2.154654794139787555e-04 1.479655911680310965e-04
6.630000000000000000e+02 1.479025936126708984e+01 1.417093944549560547e+01 -1.809815148590132594e-04 9.576195734553039074e-04 2.329914132133126259e-04 -9.672813757788389921e-05
6.640000000000000000e+02 1.419821357727050781e+01 1.627348709106445312e+01 -2.318076003575697541e-04 1.445444533601403236e-03 3.640911018010228872e-04 3.693150938488543034e-04
6.650000000000000000e+02 1.476034641265869141e+01 1.858573150634765625e+01 6.156489835120737553e-04 3.779111895710229874e-03 1.318428316153585911e-03 3.393638180568814278e-04
6.660000000000000000e+02 1.480703639984130859e+01 1.978563880920410156e+01 -2.043281449005007744e-03 1.758186612278223038e-03 -8.552845247322693467e-05 -6.173574365675449371e-04
6.670000000000000000e+02 1.329075622558593750e+01 1.999858283996582031e+01 -3.903861623257398605e-03 4.035360470879822969e-04 -1.050097635015845299e-03 -8.640804444439709187e-04
6.680000000000000000e+02 3.592707061767578125e+01 2.378044128417968750e+00 -4.155026108492165804e-04 6.617986218770965934e-05 -1.047968253260478377e-04 -1.065096585080027580e-04
6.690000000000000000e+02 3.891180038452148438e+01 3.175210714340209961e+00 2.167429047403857112e-04 5.048030288890004158e-04 2.164637699024751782e-04 3.810494090430438519e-04
6.700000000000000000e+02 3.949615478515625000e+01 3.500947952270507812e+00 7.724624010734260082e-04 1.143224071711301804e-04 2.660354366526007652e-04 -9.152200073003768921e-05
6.710000000000000000e+02 3.735640335083007812e+01 2.711487531661987305e+00 -9.430582576896995306e-05 -5.117058390169404447e-05 -4.364292180980555713e-05 -2.728778927121311426e-04
6.720000000000000000e+02 3.861327362060546875e+01 5.766254425048828125e+00 -1.165893394500017166e-03 -8.426910499110817909e-04 -6.025753100402653217e-04 1.112366211600601673e-03
6.730000000000000000e+02 3.834218597412109375e+01 8.368556976318359375e+00 1.130147255025804043e-03 -9.734430350363254547e-04 4.701124998973682523e-05 2.020933752646669745e-04
6.740000000000000000e+02 3.937363433837890625e+01 8.003146171569824219e+00 -1.549961161799728870e-03 1.262984238564968109e-03 -8.609307406004518270e-05 1.750934752635657787e-03
6.750000000000000000e+02 3.982527160644531250e+01 9.306217193603515625e+00 1.967964228242635727e-03 2.785511314868927002e-03 1.426042639650404453e-03 -3.120807814411818981e-04
6.760000000000000000e+02 4.050878524780273438e+01 1.048948574066162109e+01 -3.429195843636989594e-03 3.574708534870296717e-04 -9.215174941346049309e-04 8.404203690588474274e-04
6.770000000000000000e+02 4.037883758544921875e+01 1.205710792541503906e+01 -1.438233908265829086e-02 -4.801457398571074009e-04 -4.458745475858449936e-03 -5.268514622002840042e-03
6.780000000000000000e+02 4.048118972778320312e+01 1.756093406677246094e+01 -5.963823199272155762e-02 2.603117004036903381e-02 -1.008211821317672729e-02 5.794915370643138885e-03
6.790000000000000000e+02 4.089715194702148438e+01 1.308549976348876953e+01 -2.313973195850849152e-02 1.287120976485311985e-03 -6.555783562362194061e-03 -1.181953120976686478e-02
6.800000000000000000e+02 4.130879592895507812e+01 1.515573406219482422e+01 -4.523187503218650818e-02 9.068999439477920532e-03 -1.084886211901903152e-02 -8.726106025278568268e-03
6.810000000000000000e+02 4.391902160644531250e+01 1.543527793884277344e+01 -5.544450134038925171e-02 -2.186131104826927185e-02 -2.319174446165561676e-02 -3.055058792233467102e-02
6.820000000000000000e+02 4.494468688964843750e+01 1.620289039611816406e+01 -6.826594471931457520e-02 -2.181712910532951355e-02 -2.702492102980613708e-02 -4.814172908663749695e-02
6.830000000000000000e+02 5.450173950195312500e+01 -2.804663896560668945e+00 1.729304075241088867e+00 2.060151338577270508e+00 1.136836647987365723e+00 1.861511468887329102e+00
6.840000000000000000e+02 5.355775833129882812e+01 -3.841519355773925781e+00 1.831200480461120605e+00 1.989952683448791504e+00 1.146345973014831543e+00 1.858560204505920410e+00
6.850000000000000000e+02 5.403862380981445312e+01 -8.454445838928222656e+00 -3.353726267814636230e-01 1.108876228332519531e+00 2.320510745048522949e-01 1.033065080642700195e+00
6.860000000000000000e+02 4.907962799072265625e+01 -5.386729717254638672e+00 -1.344738841056823730e+00 -2.968072593212127686e-01 -4.924638569355010986e-01 7.574243545532226562e-01
6.870000000000000000e+02 5.007696533203125000e+01 -6.861293792724609375e+00 -2.475630640983581543e-01 3.038035631179809570e-01 1.687215082347393036e-02 1.845926165580749512e+00
6.880000000000000000e+02 4.628104782104492188e+01 -4.679751396179199219e+00 -3.328022956848144531e+00 -5.374721288681030273e-01 -1.159648537635803223e+00 1.339924693107604980e+00
6.890000000000000000e+02 4.364521789550781250e+01 -3.765132427215576172e+00 -5.149775505065917969e+00 -9.438217878341674805e-01 -1.828079223632812500e+00 1.978572249412536621e+00
6.900000000000000000e+02 4.274474716186523438e+01 -5.653052330017089844e+00 -2.072267055511474609e+00 -4.665371477603912354e-01 -7.616412639617919922e-01 1.167982697486877441e+00
6.910000000000000000e+02 5.321571350097656250e+01 -6.740399837493896484e+00 2.141748666763305664e-01 1.499750614166259766e+00 5.141776800155639648e-01 1.258069872856140137e+00
6.920000000000000000e+02 5.611566162109375000e+01 -7.046602725982666016e+00 -1.919236779212951660e-02 1.207429528236389160e+00 3.564711511135101318e-01 7.351686954498291016e-01
6.930000000000000000e+02 5.185958862304687500e+01 -5.975421428680419922e+00 8.598188161849975586e-01 1.259269356727600098e+00 6.357264518737792969e-01 1.391318082809448242e+00
6.940000000000000000e+02 3.299462127685546875e+01 -3.041745185852050781e+00 -1.866936206817626953e+00 -7.087310403585433960e-02 -5.813428163528442383e-01 7.507997006177902222e-02
6.950000000000000000e+02 3.232609176635742188e+01 -2.522824048995971680e+00 -2.403793811798095703e+00 -1.913981288671493530e-01 -7.785575985908508301e-01 -2.819949388504028320e-01
6.960000000000000000e+02 2.529944992065429688e+01 -2.620359659194946289e+00 -1.383652329444885254e+00 -6.312721222639083862e-02 -4.340338408946990967e-01 -7.947576642036437988e-01
6.970000000000000000e+02 2.340682983398437500e+01 -3.246057033538818359e+00 -7.741969227790832520e-01 4.687827453017234802e-02 -2.181955873966217041e-01 -6.970327496528625488e-01
6.980000000000000000e+02 1.898273849487304688e+01 -2.290904998779296875e+00 -3.959799706935882568e-01 -7.784840464591979980e-02 -1.421485096216201782e-01 -3.256950080394744873e-01
6.990000000000000000e+02 1.573497867584228516e+01 -1.731102943420410156e+00 -1.826087087392807007e-01 -5.596268922090530396e-02 -7.157141715288162231e-02 -1.776416897773742676e-01
7.000000000000000000e+02 1.269227981567382812e+01 -1.825027465820312500e+00 -2.510777860879898071e-02 -3.105913661420345306e-02 -1.685007475316524506e-02 -7.607223093509674072e-02
7.010000000000000000e+02 1.042083644866943359e+01 -1.866639018058776855e+00 3.141177818179130554e-02 -1.850561611354351044e-02 3.871849039569497108e-03 -2.291053347289562225e-02
7.020000000000000000e+02 4.994751453399658203e+00 -2.699665546417236328e+00 2.077442966401576996e-02 -3.362470772117376328e-03 5.223587621003389359e-03 3.334511071443557739e-02
7.030000000000000000e+02 1.257777452468872070e+00 -2.106758117675781250e+00 5.273230373859405518e-03 1.598801836371421814e-02 6.378374528139829636e-03 1.507322024554014206e-02
7.040000000000000000e+02 5.743530988693237305e-01 -3.601569414138793945e+00 2.222602022811770439e-03 3.851322457194328308e-02 1.222074776887893677e-02 1.101427711546421051e-02
7.050000000000000000e+02 3.166131401062011719e+01 -1.700658559799194336e+00 -3.324283838272094727e+00 3.736612796783447266e-01 -8.851867318153381348e-01 -4.635013639926910400e-01
7.060000000000000000e+02 3.150495529174804688e+01 -1.649364590644836426e+00 -3.429544210433959961e+00 4.154158532619476318e-01 -9.042384624481201172e-01 -2.544030845165252686e-01
7.070000000000000000e+02 3.150679397583007812e+01 -1.970476984977722168e+00 -2.826106071472167969e+00 1.202000901103019714e-01 -8.117718100547790527e-01 -3.290279507637023926e-01
7.080000000000000000e+02 2.485624694824218750e+01 -2.049293279647827148e+00 -1.530531406402587891e+00 9.174831211566925049e-02 -4.316349327564239502e-01 -6.262852549552917480e-01
7.090000000000000000e+02 2.421857452392578125e+01 -1.788058996200561523e+00 -1.403042554855346680e+00 2.071913331747055054e-01 -3.587553799152374268e-01 -4.481635391712188721e-01
7.100000000000000000e+02 2.436525154113769531e+01 -9.395782947540283203e-01 -1.450493574142456055e+00 2.488037347793579102e-01 -3.605069518089294434e-01 -1.132664754986763000e-01
7.110000000000000000e+02 2.439230728149414062e+01 -1.891792267560958862e-01 -1.014049291610717773e+00 1.259694844484329224e-01 -2.664239406585693359e-01 1.478310674428939819e-01
7.120000000000000000e+02 1.117875766754150391e+01 -1.855418086051940918e+00 1.797006651759147644e-02 -2.233584225177764893e-02 -1.309733022935688496e-03 -3.829487040638923645e-02
7.130000000000000000e+02 7.339728355407714844e+00 -1.886406898498535156e+00 4.892061650753021240e-02 -8.758756332099437714e-03 1.204855740070343018e-02 1.771165430545806885e-02
7.140000000000000000e+02 3.431478500366210938e+00 -1.835290551185607910e+00 2.293193899095058441e-02 2.854237332940101624e-03 7.735853083431720734e-03 2.847769297659397125e-02
7.150000000000000000e+02 4.999775409698486328e+00 -1.899239301681518555e+00 3.571445494890213013e-02 -1.397685264237225056e-03 1.029503159224987030e-02 2.882966585457324982e-02
7.160000000000000000e+02 1.421117401123046875e+01 -1.775541901588439941e+00 -9.183616936206817627e-02 -4.164834693074226379e-02 -4.004535451531410217e-02 -1.234286203980445862e-01
7.170000000000000000e+02 1.201944828033447266e+01 -2.535813331604003906e+00 -3.158287331461906433e-02 -4.717770591378211975e-02 -2.362817339599132538e-02 -7.757852226495742798e-02
7.180000000000000000e+02 3.745136499404907227e+00 -3.988174676895141602e+00 1.370416139252483845e-03 5.876568611711263657e-03 2.174095483496785164e-03 3.631642460823059082e-02
7.190000000000000000e+02 1.660750746726989746e+00 -9.236496925354003906e+00 -1.006005238741636276e-02 5.688470229506492615e-02 1.404739543795585632e-02 -1.800453523173928261e-03
7.200000000000000000e+02 2.772053241729736328e+00 -9.188743591308593750e+00 -2.208844944834709167e-02 1.322877407073974609e-02 -2.657902659848332405e-03 -6.752748042345046997e-03
7.210000000000000000e+02 2.139263153076171875e+00 -1.617285156250000000e+01 -1.288525853306055069e-02 -1.291229128837585449e-01 -4.260245338082313538e-02 -1.034072265028953552e-01
7.220000000000000000e+02 2.061960220336914062e+00 -2.053707695007324219e+01 1.081388676539063454e-03 -3.363042473793029785e-01 -1.005668640136718750e-01 -1.251812875270843506e-01
7.230000000000000000e+02 6.926507353782653809e-01 -2.764487838745117188e+01 2.313850214704871178e-03 -7.285025119781494141e-01 -2.178566008806228638e-01 -2.645144052803516388e-02
7.240000000000000000e+02 2.117028474807739258e+00 -2.763865852355957031e+01 1.142195705324411392e-02 -6.399108171463012695e-01 -1.885466575622558594e-01 -7.614599913358688354e-02
7.250000000000000000e+02 6.561307311058044434e-01 -3.464027786254882812e+01 2.671772148460149765e-03 -8.810814619064331055e-01 -2.635228931903839111e-01 -8.387780981138348579e-04
7.260000000000000000e+02 6.836504340171813965e-01 -3.601522064208984375e+01 -2.620106795802712440e-03 -8.838690519332885742e-01 -2.659467458724975586e-01 -1.541449688374996185e-03
7.270000000000000000e+02 1.326629161834716797e+00 -4.005073165893554688e+01 1.483508758246898651e-02 -8.385567665100097656e-01 -2.471165060997009277e-01 2.092678658664226532e-02
7.280000000000000000e+02 8.227107048034667969e+00 -4.105255126953125000e+01 2.754380181431770325e-02 -4.023733139038085938e-01 -1.124488562345504761e-01 -1.190386805683374405e-02
7.290000000000000000e+02 9.783087730407714844e+00 -3.515532684326171875e+01 7.509177178144454956e-02 -2.866131961345672607e-01 -6.345643103122711182e-02 -6.071694940328598022e-02
7.300000000000000000e+02 8.162166595458984375e+00 -3.073615264892578125e+01 9.370934963226318359e-02 -3.688080012798309326e-01 -8.252959698438644409e-02 -1.150960698723793030e-01
7.310000000000000000e+02 1.073681545257568359e+01 -2.693941879272460938e+01 1.725993454456329346e-01 -2.425403743982315063e-01 -2.098230831325054169e-02 -1.797179728746414185e-01
7.320000000000000000e+02 8.252076148986816406e+00 -2.484498977661132812e+01 1.177906095981597900e-01 -3.616391420364379883e-01 -7.315456122159957886e-02 -2.346625924110412598e-01
7.330000000000000000e+02 1.015726661682128906e+01 -2.229912185668945312e+01 1.324303746223449707e-01 -3.202184438705444336e-01 -5.633641779422760010e-02 -3.000940084457397461e-01
7.340000000000000000e+02 8.808576583862304688e+00 -1.728918647766113281e+01 -1.186171025037765503e-01 -2.668504416942596436e-01 -1.156402602791786194e-01 -3.159767687320709229e-01
7.350000000000000000e+02 1.092371368408203125e+01 -1.312379741668701172e+01 -2.746694684028625488e-01 -2.923965454101562500e-01 -1.701198071241378784e-01 -2.058264911174774170e-01
7.360000000000000000e+02 7.909174442291259766e+00 -1.047326087951660156e+01 -1.457839757204055786e-01 -1.490805298089981079e-01 -8.845935016870498657e-02 -9.689930081367492676e-02
7.370000000000000000e+02 9.831169128417968750e+00 -5.628615856170654297e+00 -7.265755534172058105e-02 -1.065494194626808167e-01 -5.376208946108818054e-02 -5.739442631602287292e-02
7.380000000000000000e+02 8.887642860412597656e+00 -1.875316977500915527e+00 4.708544909954071045e-02 -1.318507175892591476e-02 1.017011236399412155e-02 1.121844630688428879e-03
7.390000000000000000e+02 2.034833669662475586e+00 -4.162332534790039062e+01 -2.579073980450630188e-02 -8.283751606941223145e-01 -2.562497556209564209e-01 7.330560591071844101e-03
7.400000000000000000e+02 1.268563175201416016e+01 -4.113634490966796875e+01 6.536234915256500244e-02 -1.292723268270492554e-01 -1.917299441993236542e-02 -8.109687827527523041e-03
7.410000000000000000e+02 1.296698188781738281e+01 -3.820163345336914062e+01 7.417897880077362061e-02 -1.174240857362747192e-01 -1.297353301197290421e-02 -3.437042236328125000e-02
7.420000000000000000e+02 1.298074817657470703e+01 -3.488676071166992188e+01 1.095410212874412537e-01 -1.181737259030342102e-01 -2.589812036603689194e-03 -6.318113952875137329e-02
7.430000000000000000e+02 1.084918975830078125e+01 -3.112608718872070312e+01 1.269016563892364502e-01 -2.329362481832504272e-01 -3.181037679314613342e-02 -1.114843189716339111e-01
7.440000000000000000e+02 1.133104515075683594e+01 -2.373707580566406250e+01 1.836451143026351929e-01 -2.675880789756774902e-01 -2.518288604915142059e-02 -2.545333504676818848e-01
7.450000000000000000e+02 1.105791378021240234e+01 -1.866270637512207031e+01 -6.327587366104125977e-02 -3.454245328903198242e-01 -1.226101219654083252e-01 -3.566618263721466064e-01
7.460000000000000000e+02 1.196557903289794922e+01 -1.791152572631835938e+01 -1.248423606157302856e-01 -3.979386389255523682e-01 -1.568343043327331543e-01 -3.683677613735198975e-01
7.470000000000000000e+02 1.243444347381591797e+01 -1.346241474151611328e+01 -3.356367051601409912e-01 -3.916122615337371826e-01 -2.181746959686279297e-01 -2.340720593929290771e-01
7.480000000000000000e+02 1.189720535278320312e+01 -1.118384838104248047e+01 -2.558802962303161621e-01 -3.347893655300140381e-01 -1.772008985280990601e-01 -1.680699586868286133e-01
7.490000000000000000e+02 1.189505863189697266e+01 -5.410969734191894531e+00 -9.148601442575454712e-02 -1.541383266448974609e-01 -7.368730753660202026e-02 -1.260956674814224243e-01
7.500000000000000000e+02 1.698657989501953125e+01 -3.801194000244140625e+01 1.101220250129699707e-01 9.823408722877502441e-02 6.250683218240737915e-02 -2.796491235494613647e-02
7.510000000000000000e+02 1.633133697509765625e+01 -3.474773406982421875e+01 1.512927263975143433e-01 6.532154232263565063e-02 6.498427689075469971e-02 -6.332170963287353516e-02
7.520000000000000000e+02 1.500250911712646484e+01 -3.114427757263183594e+01 1.803353577852249146e-01 -1.893576933071017265e-03 5.353253707289695740e-02 -1.081954240798950195e-01
7.530000000000000000e+02 1.358624172210693359e+01 -2.527594184875488281e+01 2.414701730012893677e-01 -1.040005087852478027e-01 4.124089702963829041e-02 -1.797868907451629639e-01
7.540000000000000000e+02 1.801613426208496094e+01 -2.584453201293945312e+01 3.153218924999237061e-01 2.772517204284667969e-01 1.777720749378204346e-01 -2.808269858360290527e-01
7.550000000000000000e+02 1.715684509277343750e+01 -2.466387176513671875e+01 2.774412333965301514e-01 2.779220640659332275e-01 1.666089892387390137e-01 -2.695136368274688721e-01
7.560000000000000000e+02 1.520803928375244141e+01 -2.259898948669433594e+01 2.119128406047821045e-01 1.276715397834777832e-01 1.018753200769424438e-01 -2.083209455013275146e-01
7.570000000000000000e+02 1.438895606994628906e+01 -2.144055366516113281e+01 1.509537994861602783e-01 -5.348336696624755859e-02 2.924113161861896515e-02 -1.654363572597503662e-01
7.580000000000000000e+02 1.417197132110595703e+01 -1.919120216369628906e+01 1.588543690741062164e-02 -3.578869998455047607e-01 -1.026004701852798462e-01 -1.229025647044181824e-01
7.590000000000000000e+02 1.429031372070312500e+01 -1.791360473632812500e+01 -2.266224846243858337e-02 -6.062567234039306641e-01 -1.886757016181945801e-01 -1.194203868508338928e-01
7.600000000000000000e+02 1.468732452392578125e+01 -1.511563205718994141e+01 -3.133956789970397949e-01 -9.625174999237060547e-01 -3.827739655971527100e-01 -4.377485215663909912e-01
7.610000000000000000e+02 1.442730522155761719e+01 -1.129697608947753906e+01 -3.302932083606719971e-01 -5.265073776245117188e-01 -2.570401728153228760e-01 -2.579063475131988525e-01
7.620000000000000000e+02 1.562158870697021484e+01 -1.264129161834716797e+01 -5.348045825958251953e-01 -6.835276484489440918e-01 -3.654996752738952637e-01 -4.608110785484313965e-01
7.630000000000000000e+02 1.667754554748535156e+01 -5.685011386871337891e+00 -1.340155303478240967e-01 -2.519800961017608643e-01 -1.157986894249916077e-01 -3.689318299293518066e-01
7.640000000000000000e+02 1.734921836853027344e+01 -4.109458923339843750e+01 9.601142257452011108e-02 1.219041943550109863e-01 6.537468731403350830e-02 -8.653364144265651703e-03
7.650000000000000000e+02 2.095571327209472656e+01 -3.786920547485351562e+01 1.411648839712142944e-01 2.881468832492828369e-01 1.287935227155685425e-01 -1.167383138090372086e-02
7.660000000000000000e+02 1.872975158691406250e+01 -3.377059555053710938e+01 1.920618116855621338e-01 1.616978496313095093e-01 1.061278954148292542e-01 -6.925789266824722290e-02
7.670000000000000000e+02 1.773073005676269531e+01 -3.047547149658203125e+01 2.292488664388656616e-01 1.134115830063819885e-01 1.027981340885162354e-01 -1.365767270326614380e-01
7.680000000000000000e+02 2.144219017028808594e+01 -2.862273216247558594e+01 4.227040112018585205e-01 2.283008396625518799e-01 1.953014582395553589e-01 -2.693662345409393311e-01
7.690000000000000000e+02 1.907173347473144531e+01 -2.689867782592773438e+01 3.336471319198608398e-01 2.576298117637634277e-01 1.773830801248550415e-01 -2.742552459239959717e-01
7.700000000000000000e+02 2.028833198547363281e+01 -2.776461410522460938e+01 3.599160313606262207e-01 2.345167398452758789e-01 1.783298403024673462e-01 -2.768614888191223145e-01
7.710000000000000000e+02 2.196405601501464844e+01 -4.099478912353515625e+01 1.047145202755928040e-01 3.532186150550842285e-01 1.373799443244934082e-01 2.332144882529973984e-03
7.720000000000000000e+02 2.443584823608398438e+01 -3.748901748657226562e+01 1.653600484132766724e-01 4.452691376209259033e-01 1.831887662410736084e-01 5.183757096529006958e-02
7.730000000000000000e+02 2.297240638732910156e+01 -3.329867172241210938e+01 3.005126118659973145e-01 2.466613948345184326e-01 1.641522049903869629e-01 -5.442791804671287537e-02
7.740000000000000000e+02 2.465541076660156250e+01 -2.974756050109863281e+01 5.041920542716979980e-01 9.851583093404769897e-02 1.808123588562011719e-01 -9.568902105093002319e-02
7.750000000000000000e+02 2.370529365539550781e+01 -3.036492347717285156e+01 5.118976831436157227e-01 1.532928645610809326e-01 1.995571702718734741e-01 -1.320771425962448120e-01
7.760000000000000000e+02 2.261529731750488281e+01 -2.936242485046386719e+01 4.804264008998870850e-01 1.748291403055191040e-01 1.965766698122024536e-01 -2.235175669193267822e-01
7.770000000000000000e+02 2.633739852905273438e+01 -4.074423980712890625e+01 6.071082875132560730e-02 5.970759987831115723e-01 1.973360478878021240e-01 1.983048766851425171e-02
7.780000000000000000e+02 2.701683235168457031e+01 -3.662792968750000000e+01 1.665862649679183960e-01 5.443592667579650879e-01 2.132836580276489258e-01 9.923275560140609741e-02
7.790000000000000000e+02 2.646938896179199219e+01 -3.430161666870117188e+01 3.162138760089874268e-01 4.334455728530883789e-01 2.248978316783905029e-01 1.319936066865921021e-01
7.800000000000000000e+02 3.217758560180664062e+01 -2.960224151611328125e+01 5.130829215049743652e-01 1.057924747467041016e+00 4.713023006916046143e-01 5.583360195159912109e-01
7.810000000000000000e+02 3.234753799438476562e+01 -2.723793792724609375e+01 8.274149894714355469e-01 1.171287894248962402e+00 5.996108651161193848e-01 9.067618250846862793e-01
7.820000000000000000e+02 2.922652435302734375e+01 -3.308081817626953125e+01 3.154218792915344238e-01 6.239486932754516602e-01 2.818111777305603027e-01 3.005867898464202881e-01
7.830000000000000000e+02 2.556122779846191406e+01 -3.118655586242675781e+01 5.156427621841430664e-01 1.606911718845367432e-01 2.029001861810684204e-01 1.120887417346239090e-02
7.840000000000000000e+02 2.934986305236816406e+01 -3.923154449462890625e+01 3.089336864650249481e-02 7.439358234405517578e-01 2.324487715959548950e-01 7.243248075246810913e-02
7.850000000000000000e+02 3.077104187011718750e+01 -3.662079238891601562e+01 5.004584044218063354e-02 8.283898830413818359e-01 2.635307013988494873e-01 1.663637012243270874e-01
7.860000000000000000e+02 2.846715354919433594e+01 -3.516826629638671875e+01 2.045363187789916992e-01 6.321277618408203125e-01 2.509992420673370361e-01 1.790091097354888916e-01
7.870000000000000000e+02 3.131539344787597656e+01 -2.818845558166503906e+01 9.172360301017761230e-01 9.277854561805725098e-01 5.535064339637756348e-01 8.196296691894531250e-01
7.880000000000000000e+02 3.618395996093750000e+01 -2.888420486450195312e+01 2.218184620141983032e-01 1.469537973403930664e+00 5.074068903923034668e-01 2.488839179277420044e-01
7.890000000000000000e+02 4.097950744628906250e+01 -2.939613342285156250e+01 2.578952535986900330e-02 9.420310258865356445e-01 2.903461754322052002e-01 -1.316833347082138062e-01
7.900000000000000000e+02 4.305629348754882812e+01 -2.577076339721679688e+01 6.699153780937194824e-02 6.678635478019714355e-01 2.204565256834030151e-01 -7.918692380189895630e-02
7.910000000000000000e+02 4.447561645507812500e+01 -2.591893386840820312e+01 2.782858163118362427e-02 3.626191914081573486e-01 1.171343326568603516e-01 -8.107225596904754639e-02
7.920000000000000000e+02 4.589210510253906250e+01 -2.565333747863769531e+01 -2.495430875569581985e-03 4.048726335167884827e-02 1.139754988253116608e-02 -6.416820921003818512e-03
7.930000000000000000e+02 4.567851638793945312e+01 -1.967532730102539062e+01 -5.761833861470222473e-03 -1.008316949009895325e-01 -3.197805956006050110e-02 -2.771938964724540710e-02
7.940000000000000000e+02 4.433767318725585938e+01 -1.841822624206542969e+01 4.999351128935813904e-02 2.815491557121276855e-01 9.946279972791671753e-02 -6.519923359155654907e-02
7.950000000000000000e+02 4.327855682373046875e+01 -1.752357864379882812e+01 3.690614923834800720e-02 6.344897150993347168e-01 2.014187574386596680e-01 -2.343172281980514526e-01
7.960000000000000000e+02 4.148638916015625000e+01 -1.608715820312500000e+01 1.232182327657938004e-02 1.898551344871520996e+00 5.732619166374206543e-01 -7.385809421539306641e-01
7.970000000000000000e+02 3.851672744750976562e+01 -1.480965423583984375e+01 7.231034636497497559e-01 4.382028102874755859e+00 1.531539440155029297e+00 1.555361866950988770e+00
7.980000000000000000e+02 3.813852310180664062e+01 -1.398819541931152344e+01 2.406101703643798828e+00 3.638482809066772461e+00 1.813375353813171387e+00 1.473576188087463379e+00
7.990000000000000000e+02 3.618460083007812500e+01 -1.387656021118164062e+01 8.739802837371826172e-01 2.638705074787139893e-01 3.413552343845367432e-01 3.746601045131683350e-01
8.000000000000000000e+02 3.844646072387695312e+01 -1.260822296142578125e+01 4.869383811950683594e+00 3.427668571472167969e+00 2.489115715026855469e+00 -8.962049484252929688e-01
8.010000000000000000e+02 3.298441696166992188e+01 -4.084542846679687500e+01 -6.799431145191192627e-02 8.696312904357910156e-01 2.404910922050476074e-01 2.912492677569389343e-02
8.020000000000000000e+02 3.375190353393554688e+01 -3.771438980102539062e+01 -5.583628267049789429e-02 9.329596757888793945e-01 2.631370127201080322e-01 9.205156564712524414e-02
8.030000000000000000e+02 3.422420120239257812e+01 -3.487332153320312500e+01 -1.478194072842597961e-02 1.028276681900024414e+00 3.040484189987182617e-01 1.536647528409957886e-01
8.040000000000000000e+02 3.527975463867187500e+01 -3.075418281555175781e+01 1.199929639697074890e-01 1.281641483306884766e+00 4.204903542995452881e-01 2.358931899070739746e-01
8.050000000000000000e+02 3.412990951538085938e+01 -3.002184295654296875e+01 1.879661828279495239e-01 1.391630530357360840e+00 4.738790094852447510e-01 3.819254934787750244e-01
8.060000000000000000e+02 3.743695831298828125e+01 -4.104069900512695312e+01 -1.193773150444030762e-01 8.948248624801635742e-01 2.326342761516571045e-01 -6.290497840382158756e-04
8.070000000000000000e+02 3.720358276367187500e+01 -3.810620117187500000e+01 -1.016039699316024780e-01 9.121021628379821777e-01 2.431494444608688354e-01 4.907126538455486298e-03
8.080000000000000000e+02 3.694954299926757812e+01 -3.535040283203125000e+01 -7.854752987623214722e-02 1.002011537551879883e+00 2.770392000675201416e-01 1.975069567561149597e-02
8.090000000000000000e+02 3.695637512207031250e+01 -3.292504119873046875e+01 -2.561680972576141357e-02 1.107271075248718262e+00 3.244962692260742188e-01 2.531172335147857666e-02
8.100000000000000000e+02 4.081854248046875000e+01 -3.769496917724609375e+01 -7.567638903856277466e-02 7.579323053359985352e-01 2.046767622232437134e-01 -7.073312997817993164e-02
8.110000000000000000e+02 4.102034378051757812e+01 -3.394297027587890625e+01 -5.719868093729019165e-02 8.204873204231262207e-01 2.289865761995315552e-01 -1.284648776054382324e-01
8.120000000000000000e+02 4.646839523315429688e+01 -3.302055358886718750e+01 3.866217331960797310e-03 2.964757680892944336e-01 9.010259807109832764e-02 -1.394784152507781982e-01
8.130000000000000000e+02 4.210719299316406250e+01 -4.084780883789062500e+01 -6.384474784135818481e-02 6.552408933639526367e-01 1.774188429117202759e-01 -2.859750017523765564e-02
8.140000000000000000e+02 4.328165435791015625e+01 -3.593277740478515625e+01 -3.193366900086402893e-02 6.081338524818420410e-01 1.728600561618804932e-01 -1.101406663656234741e-01
8.150000000000000000e+02 4.689904403686523438e+01 -3.503794860839843750e+01 2.386692352592945099e-02 3.036717176437377930e-01 9.826159477233886719e-02 -1.138306558132171631e-01
8.160000000000000000e+02 4.630624389648437500e+01 -3.010383987426757812e+01 -7.593588903546333313e-03 2.376820892095565796e-01 6.902655214071273804e-02 -1.204048395156860352e-01
8.170000000000000000e+02 4.666084289550781250e+01 -2.697855758666992188e+01 -3.507568687200546265e-02 2.149146609008312225e-02 -4.075266886502504349e-03 3.276864532381296158e-03
8.180000000000000000e+02 4.697257995605468750e+01 -2.905137062072753906e+01 -4.661410674452781677e-02 1.018807366490364075e-01 1.657998934388160706e-02 -4.993048310279846191e-02
8.190000000000000000e+02 4.691662216186523438e+01 -4.074935531616210938e+01 2.069469355046749115e-02 3.566388785839080811e-01 1.132000759243965149e-01 -3.319851309061050415e-02
8.200000000000000000e+02 4.653049468994140625e+01 -3.754650115966796875e+01 1.019456889480352402e-02 3.541043400764465332e-01 1.092896759510040283e-01 -8.562477678060531616e-02
8.210000000000000000e+02 4.592824554443359375e+01 -3.134226799011230469e+01 3.768463386222720146e-03 3.156887888908386230e-01 9.583717584609985352e-02 -1.514945179224014282e-01
8.220000000000000000e+02 4.882966995239257812e+01 -2.898326683044433594e+01 -1.365950703620910645e-01 -3.678002208471298218e-02 -5.201252549886703491e-02 6.244470551609992981e-02
8.230000000000000000e+02 5.153362274169921875e+01 -4.071105575561523438e+01 6.935556977987289429e-02 1.050872206687927246e-01 5.233283713459968567e-02 -5.899896845221519470e-03
8.240000000000000000e+02 5.009243392944335938e+01 -3.757986450195312500e+01 5.195086449384689331e-02 1.569545865058898926e-01 6.267163902521133423e-02 -3.112578392028808594e-02
8.250000000000000000e+02 4.971729660034179688e+01 -3.342934417724609375e+01 2.687700791284441948e-03 9.561664611101150513e-02 2.949130535125732422e-02 -5.397594347596168518e-02
8.260000000000000000e+02 5.434586715698242188e+01 -3.091628456115722656e+01 -1.600559353828430176e-01 -1.145836990326642990e-02 -5.145429074764251709e-02 2.727499604225158691e-02
8.270000000000000000e+02 5.585719680786132812e+01 -3.090947532653808594e+01 -1.309133917093276978e-01 -7.033376023173332214e-03 -4.138403013348579407e-02 1.491338014602661133e-02
8.280000000000000000e+02 6.013476943969726562e+01 -2.972255325317382812e+01 -4.594351723790168762e-02 -4.157119430601596832e-03 -1.503019127994775772e-02 -5.417063366621732712e-03
8.290000000000000000e+02 6.306332778930664062e+01 -3.184990310668945312e+01 -2.508910000324249268e-02 2.907453803345561028e-03 -6.654493976384401321e-03 1.164988614618778229e-02
8.300000000000000000e+02 6.472021484375000000e+01 -2.641181182861328125e+01 -3.727565053850412369e-03 -5.778878112323582172e-04 -1.291635911911725998e-03 -1.154987723566591740e-03
8.310000000000000000e+02 6.345885848999023438e+01 -2.959619331359863281e+01 -2.041620761156082153e-02 2.350018359720706940e-03 -5.419856868684291840e-03 9.401389979757368565e-04
8.320000000000000000e+02 6.262155151367187500e+01 -2.830682754516601562e+01 -1.672194711863994598e-02 -2.832806203514337540e-03 -5.866425577551126480e-03 -4.538017790764570236e-03
8.330000000000000000e+02 6.221051025390625000e+01 -3.044391250610351562e+01 -3.001619875431060791e-02 2.207683399319648743e-03 -8.342554792761802673e-03 4.721847828477621078e-03
8.340000000000000000e+02 5.290415954589843750e+01 -3.649891281127929688e+01 4.841891303658485413e-02 3.284713253378868103e-02 2.437981404364109039e-02 6.756909657269716263e-03
8.350000000000000000e+02 5.137160491943359375e+01 -3.453120803833007812e+01 1.438054814934730530e-02 4.955689609050750732e-02 1.918123289942741394e-02 -6.141754332929849625e-03
8.360000000000000000e+02 5.497619628906250000e+01 -3.920343017578125000e+01 6.366090476512908936e-02 1.548969838768243790e-02 2.374518290162086487e-02 8.535199798643589020e-03
8.370000000000000000e+02 5.714556121826171875e+01 -3.666577529907226562e+01 2.499451301991939545e-02 -1.563853025436401367e-02 2.806794596835970879e-03 3.039987571537494659e-02
8.380000000000000000e+02 5.507421875000000000e+01 -3.489743804931640625e+01 6.127104628831148148e-03 -1.128031872212886810e-02 -1.545964274555444717e-03 3.453842177987098694e-02
8.390000000000000000e+02 5.834325027465820312e+01 -4.092193984985351562e+01 5.604836344718933105e-02 -7.976735942065715790e-03 1.442148815840482712e-02 8.261813782155513763e-03
8.400000000000000000e+02 5.981473922729492188e+01 -3.805339813232421875e+01 3.046924248337745667e-02 -1.381249260157346725e-02 4.997024778276681900e-03 2.353668957948684692e-02
8.410000000000000000e+02 5.881409454345703125e+01 -3.477349472045898438e+01 -8.933753706514835358e-03 -1.216563209891319275e-02 -6.329815369099378586e-03 3.643587976694107056e-02
8.420000000000000000e+02 6.078013992309570312e+01 -3.568106842041015625e+01 2.902109175920486450e-03 -1.102004013955593109e-02 -2.435379195958375931e-03 3.052256070077419281e-02
8.430000000000000000e+02 6.271540451049804688e+01 -4.122464752197265625e+01 3.052552230656147003e-02 -1.936504244804382324e-02 3.348144236952066422e-03 4.853098187595605850e-03
8.440000000000000000e+02 6.312599945068359375e+01 -3.860544204711914062e+01 2.431120537221431732e-02 -1.501979026943445206e-02 2.787424484267830849e-03 1.704332232475280762e-02
8.450000000000000000e+02 6.346035003662109375e+01 -3.585996246337890625e+01 1.901554758660495281e-03 -7.220274303108453751e-03 -1.595615874975919724e-03 2.294171601533889771e-02
8.460000000000000000e+02 6.768670654296875000e+01 -3.044379043579101562e+01 -8.900118991732597351e-03 1.465800916776061058e-03 -2.230295445770025253e-03 4.296618513762950897e-03
8.470000000000000000e+02 6.572134399414062500e+01 -2.763486480712890625e+01 -7.361433934420347214e-03 1.011945190839469433e-03 -1.904846518300473690e-03 -1.153961522504687309e-03
8.480000000000000000e+02 6.866286468505859375e+01 -2.408238029479980469e+01 -9.803329594433307648e-04 1.201392078655771911e-04 -2.580581349320709705e-04 7.144526534830220044e-06
8.490000000000000000e+02 7.212066650390625000e+01 -1.912702751159667969e+01 8.706746302777901292e-05 -1.527707499917596579e-04 -1.971098390640690923e-05 1.000064294203184545e-04
8.500000000000000000e+02 6.937111663818359375e+01 -2.265783691406250000e+01 1.073068415280431509e-04 2.900646359194070101e-05 4.089399226359091699e-05 2.198694892285857350e-05
8.510000000000000000e+02 6.722577667236328125e+01 -4.122272109985351562e+01 1.414675731211900711e-02 -1.285876519978046417e-02 3.863977617584168911e-04 3.063994226977229118e-03
8.520000000000000000e+02 6.980666351318359375e+01 -3.797980499267578125e+01 4.473561886698007584e-03 -7.053470704704523087e-03 -7.739727152511477470e-04 6.796668283641338348e-03
8.530000000000000000e+02 6.688648223876953125e+01 -3.396843719482421875e+01 -5.163623020052909851e-03 -1.558383577503263950e-03 -2.016602084040641785e-03 1.381638087332248688e-02
8.540000000000000000e+02 7.116725921630859375e+01 -3.162355804443359375e+01 -3.433922538533806801e-03 -6.709135486744344234e-04 -1.231450820341706276e-03 4.993500187993049622e-03
8.550000000000000000e+02 7.188666534423828125e+01 -2.291026687622070312e+01 -2.878535888157784939e-04 -1.794176059775054455e-04 -1.401813642587512732e-04 8.017359505174681544e-05
8.560000000000000000e+02 7.174519348144531250e+01 -1.984338569641113281e+01 1.805128122214227915e-04 -1.674854429438710213e-04 3.908211965608643368e-06 -1.631293798709521070e-06
8.570000000000000000e+02 7.288027191162109375e+01 -1.824309539794921875e+01 1.059635105775669217e-04 -7.297678530449047685e-05 9.896019037114456296e-06 2.845078233804088086e-05
8.580000000000000000e+02 7.144064331054687500e+01 -1.829026603698730469e+01 7.894961163401603699e-05 -4.527065175352618098e-05 1.010368760034907609e-05 1.147944203694351017e-04
8.590000000000000000e+02 7.157963562011718750e+01 -4.090942382812500000e+01 5.150150973349809647e-03 -8.213657885789871216e-03 -9.190519922412931919e-04 2.015124075114727020e-03
8.600000000000000000e+02 7.177871704101562500e+01 -3.661861038208007812e+01 2.448660787194967270e-03 -5.550694651901721954e-03 -9.306101710535585880e-04 5.801644641906023026e-03
8.610000000000000000e+02 7.296932220458984375e+01 -3.520146179199218750e+01 -3.371008788235485554e-04 -3.728989511728286743e-03 -1.219827099703252316e-03 5.413079634308815002e-03
8.620000000000000000e+02 7.470426940917968750e+01 -3.199198150634765625e+01 -1.075109001249074936e-03 -2.009385032579302788e-03 -9.253482567146420479e-04 3.080935915932059288e-03
8.630000000000000000e+02 7.570471191406250000e+01 -2.922068595886230469e+01 -7.498878403566777706e-04 -8.901741239242255688e-04 -4.920185892842710018e-04 1.614074339158833027e-03
8.640000000000000000e+02 7.517746734619140625e+01 -2.305146980285644531e+01 -1.811611873563379049e-04 -1.545868290122598410e-04 -1.007244063657708466e-04 -3.154717705911025405e-05
8.650000000000000000e+02 7.572715759277343750e+01 -1.902604675292968750e+01 1.175113211502321064e-04 -3.242883167331456207e-06 3.428053241805173457e-05 -7.364773045992478728e-05
8.660000000000000000e+02 7.773548126220703125e+01 -1.838103103637695312e+01 1.095797197194769979e-04 4.529179568635299802e-05 4.646145316655747592e-05 -1.187117595691233873e-04
8.670000000000000000e+02 7.577633666992187500e+01 -1.825276565551757812e+01 1.031188367051072419e-04 -6.624842353630810976e-05 1.106112540583126247e-05 -1.215324155054986477e-04
8.680000000000000000e+02 7.433436584472656250e+01 -1.822994422912597656e+01 1.036363901221193373e-04 -7.261132850544527173e-05 9.307517757406458259e-06 -7.571028254460543394e-05
8.690000000000000000e+02 7.471939849853515625e+01 -4.008864593505859375e+01 1.569375628605484962e-03 -6.658393424004316330e-03 -1.526705338619649410e-03 2.058819867670536041e-03
8.700000000000000000e+02 7.363954925537109375e+01 -3.780641555786132812e+01 1.927942153997719288e-03 -6.433926522731781006e-03 -1.351795275695621967e-03 3.525945125147700310e-03
8.710000000000000000e+02 7.824195861816406250e+01 -2.938688468933105469e+01 -4.039957730128662661e-06 -6.584913935512304306e-04 -1.987594005186110735e-04 6.651349831372499466e-04
8.720000000000000000e+02 7.941433715820312500e+01 -2.815310859680175781e+01 1.217686731251887977e-04 2.262285415781661868e-04 1.043991651386022568e-04 1.304137986153364182e-04
8.730000000000000000e+02 7.826822662353515625e+01 -2.536966705322265625e+01 -2.660187019500881433e-04 1.530609588371589780e-04 -3.388732147868722677e-05 5.317411341820843518e-05
8.740000000000000000e+02 7.942672729492187500e+01 -2.544659614562988281e+01 1.135795027948915958e-04 5.682908813469111919e-04 2.045611181529238820e-04 6.112466508056968451e-06
8.750000000000000000e+02 7.957870483398437500e+01 -1.993959426879882812e+01 8.085457375273108482e-05 1.920341601362451911e-04 8.186661580111831427e-05 -5.485018118633888662e-05
8.760000000000000000e+02 7.757047271728515625e+01 -2.024261093139648438e+01 1.345211640000343323e-04 8.539864211343228817e-05 6.597593892365694046e-05 -1.961442467290908098e-04
8.770000000000000000e+02 7.901689910888671875e+01 -1.852318382263183594e+01 2.076394412142690271e-05 1.080563743016682565e-04 3.864609607262536883e-05 -5.590779255726374686e-05
8.780000000000000000e+02 7.792693328857421875e+01 -4.164164352416992188e+01 8.797493064776062965e-04 -7.709307596087455750e-03 -2.048867521807551384e-03 2.457660448271781206e-04
8.790000000000000000e+02 7.858695220947265625e+01 -4.009198760986328125e+01 -3.071389219257980585e-04 -7.412360515445470810e-03 -2.315849764272570610e-03 7.212070049718022346e-04
8.800000000000000000e+02 7.919109344482421875e+01 -3.746652984619140625e+01 -2.871592296287417412e-04 -5.833117756992578506e-03 -1.836083014495670795e-03 5.798754282295703888e-04
8.810000000000000000e+02 7.718451690673828125e+01 -3.789340209960937500e+01 6.472526729339733720e-05 -6.014182232320308685e-03 -1.784837106242775917e-03 1.810095622204244137e-03
8.820000000000000000e+02 7.819283294677734375e+01 -3.449597549438476562e+01 1.817169541027396917e-04 -3.548734122887253761e-03 -1.010105130262672901e-03 1.301358686760067940e-03
8.830000000000000000e+02 7.943101501464843750e+01 -3.218109893798828125e+01 -2.413921320112422109e-04 -1.739881699904799461e-03 -5.943821161054074764e-04 4.251793143339455128e-04
8.840000000000000000e+02 6.824993133544921875e+01 -2.195590591430664062e+01 1.014511944958940148e-04 5.904254503548145294e-04 2.075629890896379948e-04 3.280415257904678583e-04
8.850000000000000000e+02 6.665666961669921875e+01 -2.433222579956054688e+01 -6.604393711313605309e-04 2.753991284407675266e-04 -1.155120698967948556e-04 1.728889183141291142e-04
8.860000000000000000e+02 6.371012496948242188e+01 -2.739856147766113281e+01 -7.199359126389026642e-03 -9.074903209693729877e-04 -2.432054840028285980e-03 -3.384641371667385101e-03
8.870000000000000000e+02 6.680553436279296875e+01 -2.893105697631835938e+01 -9.705275297164916992e-03 1.934739993885159492e-03 -2.331160474568605423e-03 1.969633391126990318e-03
8.880000000000000000e+02 5.877967453002929688e+01 -3.027339553833007812e+01 -6.785359978675842285e-02 -2.581465523689985275e-03 -2.113051898777484894e-02 -3.070286940783262253e-03
8.890000000000000000e+02 5.138830947875976562e+01 -3.038387870788574219e+01 -2.080623805522918701e-01 -2.811972238123416901e-02 -7.085463404655456543e-02 5.317483097314834595e-02
8.900000000000000000e+02 4.925415420532226562e+01 -3.103463172912597656e+01 -7.676028460264205933e-02 2.833549492061138153e-02 -1.452743634581565857e-02 -2.971997670829296112e-02
8.910000000000000000e+02 4.072268676757812500e+01 -1.155504035949707031e+01 3.201583623886108398e+00 4.214404582977294922e+00 2.224796533584594727e+00 1.859271287918090820e+00
8.920000000000000000e+02 4.151363372802734375e+01 -1.203736400604248047e+01 4.484480381011962891e+00 1.241861224174499512e+00 1.717902421951293945e+00 1.645891666412353516e+00
8.930000000000000000e+02 4.439499282836914062e+01 -1.399759960174560547e+01 1.335124969482421875e+00 -1.945849806070327759e-01 3.421619832515716553e-01 -1.707557290792465210e-01
8.940000000000000000e+02 3.135772895812988281e+01 -8.957693099975585938e+00 3.120781898498535156e+00 1.351408362388610840e+00 1.341657161712646484e+00 -1.924048304557800293e+00
8.950000000000000000e+02 3.245808029174804688e+01 -9.763079643249511719e+00 2.081968545913696289e+00 1.064336180686950684e+00 9.438914060592651367e-01 -1.489213705062866211e+00
8.960000000000000000e+02 2.854398536682128906e+01 -8.077868461608886719e+00 3.333330869674682617e+00 3.445624709129333496e-01 1.103368043899536133e+00 -6.305196881294250488e-02
8.970000000000000000e+02 3.442849731445312500e+01 -9.805947303771972656e+00 1.953248023986816406e+00 -2.427625954151153564e-01 5.131456255912780762e-01 -1.285572409629821777e+00
8.980000000000000000e+02 3.750410079956054688e+01 -1.319045543670654297e+01 3.109858274459838867e+00 1.877640962600708008e+00 1.496249794960021973e+00 -2.013076990842819214e-01
8.990000000000000000e+02 3.540753936767578125e+01 -1.159386920928955078e+01 1.779910564422607422e+00 -5.111415386199951172e-01 3.806307315826416016e-01 -1.353114247322082520e+00
9.000000000000000000e+02 3.430039596557617188e+01 -1.203906917572021484e+01 6.476918458938598633e-01 -1.303249716758728027e+00 -1.966673433780670166e-01 -2.708812654018402100e-01
9.010000000000000000e+02 3.523083114624023438e+01 -1.462146759033203125e+01 -7.504477351903915405e-02 -1.944961667060852051e+00 -6.060019731521606445e-01 8.683413863182067871e-01
9.020000000000000000e+02 3.639147949218750000e+01 -1.706625175476074219e+01 -3.588604331016540527e-01 1.723916411399841309e+00 4.095167815685272217e-01 1.347983479499816895e+00
9.030000000000000000e+02 3.547808837890625000e+01 -1.921916389465332031e+01 -4.860481992363929749e-02 2.223617792129516602e+00 6.525039076805114746e-01 2.842822074890136719e-01
9.040000000000000000e+02 3.550151062011718750e+01 -2.057485580444335938e+01 1.451569199562072754e-01 3.154910564422607422e+00 9.900202155113220215e-01 4.088681936264038086e-01
9.050000000000000000e+02 4.019336700439453125e+01 -2.249422645568847656e+01 8.918714523315429688e-02 1.508585929870605469e+00 4.793319404125213623e-01 2.393892109394073486e-01
9.060000000000000000e+02 4.427627182006835938e+01 -2.301800727844238281e+01 7.623998913913965225e-03 3.649043142795562744e-01 1.117584928870201111e-01 -3.519625589251518250e-02
9.070000000000000000e+02 4.540923690795898438e+01 -2.281346702575683594e+01 9.486965835094451904e-03 3.850328549742698669e-02 1.439707539975643158e-02 -3.784977830946445465e-03
9.080000000000000000e+02 4.007853317260742188e+01 -2.118829154968261719e+01 -4.641840234398841858e-02 1.720241904258728027e+00 5.021470785140991211e-01 3.658361732959747314e-01
9.090000000000000000e+02 3.757867813110351562e+01 -2.041016769409179688e+01 7.093760371208190918e-02 2.350272655487060547e+00 7.263630628585815430e-01 8.510035872459411621e-01
9.100000000000000000e+02 3.660128784179687500e+01 -2.183947944641113281e+01 4.541981816291809082e-01 2.620177745819091797e+00 9.223127961158752441e-01 7.744293808937072754e-01
9.110000000000000000e+02 4.069224929809570312e+01 -2.401590347290039062e+01 1.782609075307846069e-01 1.261276602745056152e+00 4.318612515926361084e-01 9.211189299821853638e-02
9.120000000000000000e+02 3.528986358642578125e+01 -2.327493286132812500e+01 6.520031094551086426e-01 3.274971723556518555e+00 1.178092479705810547e+00 1.055142879486083984e+00
9.130000000000000000e+02 3.740769577026367188e+01 -2.840310668945312500e+01 1.311707645654678345e-01 1.528444290161132812e+00 4.978845119476318359e-01 1.519304662942886353e-01
9.140000000000000000e+02 1.524442195892333984e+01 -1.033747673034667969e+01 -2.265962660312652588e-01 -4.956379830837249756e-01 -2.166702747344970703e-01 -2.787757813930511475e-01
9.150000000000000000e+02 1.963236045837402344e+01 -7.869774818420410156e+00 -6.003852188587188721e-02 -2.763471603393554688e-01 -1.009157076478004456e-01 -4.595593512058258057e-01
9.160000000000000000e+02 1.939564895629882812e+01 -1.007737255096435547e+01 -1.856310814619064331e-01 -2.395307272672653198e-01 -1.275485455989837646e-01 -3.666990697383880615e-01
9.170000000000000000e+02 2.339928054809570312e+01 -1.059092235565185547e+01 1.893931031227111816e-01 -1.844087429344654083e-02 5.128566920757293701e-02 2.501243958249688148e-03
9.180000000000000000e+02 2.374078750610351562e+01 -8.081401824951171875e+00 4.578270316123962402e-01 -2.591786980628967285e-01 5.959450080990791321e-02 -3.403744995594024658e-01
9.190000000000000000e+02 2.382264900207519531e+01 -2.604587554931640625e+00 -1.068809151649475098e+00 1.168142929673194885e-01 -2.855984270572662354e-01 -6.830509901046752930e-01
9.200000000000000000e+02 2.414046096801757812e+01 -9.064411163330078125e+00 4.667559564113616943e-01 -1.489551812410354614e-01 9.534023702144622803e-02 -8.509044349193572998e-02
9.210000000000000000e+02 2.573984909057617188e+01 -9.413146972656250000e+00 6.363455653190612793e-01 7.185219973325729370e-02 2.124593257904052734e-01 2.266714870929718018e-01
9.220000000000000000e+02 2.673577308654785156e+01 -7.301175594329833984e+00 1.172337532043457031e+00 -7.146815955638885498e-02 3.302608132362365723e-01 -5.605839490890502930e-01
9.230000000000000000e+02 2.752780723571777344e+01 -7.891038417816162109e+00 2.117807865142822266e+00 1.080303117632865906e-01 6.677514314651489258e-01 -6.552974134683609009e-02
9.240000000000000000e+02 3.575302505493164062e+01 -3.042255163192749023e+00 -2.104045152664184570e+00 6.053987145423889160e-01 -4.495939016342163086e-01 3.865960240364074707e-01
9.250000000000000000e+02 3.623936843872070312e+01 -2.409702062606811523e+00 -2.320878028869628906e+00 6.286254525184631348e-01 -5.076757073402404785e-01 4.496249556541442871e-01
9.260000000000000000e+02 5.328063964843750000e+01 -1.134027099609375000e+01 -6.315621733665466309e-01 5.150351524353027344e-01 -3.495809435844421387e-02 8.686907291412353516e-01
9.270000000000000000e+02 5.242208862304687500e+01 -1.055815124511718750e+01 -4.278621673583984375e-01 5.708019137382507324e-01 4.288192465901374817e-02 1.211817264556884766e+00
9.280000000000000000e+02 4.902423477172851562e+01 -1.124573802947998047e+01 3.125294148921966553e-01 -1.839612275362014771e-01 3.857045993208885193e-02 1.230668663978576660e+00
9.290000000000000000e+02 5.066205596923828125e+01 -1.401078605651855469e+01 -1.039911136031150818e-01 9.220458567142486572e-02 -3.535956609994173050e-03 5.251895785331726074e-01
9.300000000000000000e+02 5.759376525878906250e+01 -1.134307098388671875e+01 -1.232322216033935547e+00 4.558398425579071045e-01 -2.329447120428085327e-01 1.296687871217727661e-01
9.310000000000000000e+02 4.172279739379882812e+01 -1.136280822753906250e+01 3.317881822586059570e+00 1.483024239540100098e+00 1.440271735191345215e+00 1.815360307693481445e+00
9.320000000000000000e+02 4.227674484252929688e+01 -1.159433460235595703e+01 3.302233695983886719e+00 4.692748188972473145e-01 1.131452560424804688e+00 1.314086318016052246e+00
9.330000000000000000e+02 5.332369232177734375e+01 -1.483557510375976562e+01 -9.795955419540405273e-01 2.633278816938400269e-02 -2.859788239002227783e-01 6.484945118427276611e-02
9.340000000000000000e+02 7.331302642822265625e+01 -6.949726581573486328e+00 -2.383511960506439209e-01 -1.797858774662017822e-01 -1.254411190748214722e-01 -6.799339652061462402e-01
9.350000000000000000e+02 7.570619201660156250e+01 -5.609926223754882812e+00 -9.706921875476837158e-02 -4.951336681842803955e-01 -1.776608675718307495e-01 -5.692529082298278809e-01
9.360000000000000000e+02 6.725567626953125000e+01 -9.041602134704589844e+00 -9.357764720916748047e-01 6.881859898567199707e-02 -2.600873410701751709e-01 -7.841734886169433594e-01
9.370000000000000000e+02 6.008606719970703125e+01 -1.042737388610839844e+01 -1.427980303764343262e+00 3.493464589118957520e-01 -3.235901594161987305e-01 6.636103987693786621e-02
9.380000000000000000e+02 4.823856353759765625e+01 -8.875429153442382812e+00 2.106543779373168945e-01 -4.522258341312408447e-01 -7.247143983840942383e-02 1.733755826950073242e+00
9.390000000000000000e+02 3.490175628662109375e+01 -7.035023689270019531e+00 5.837681293487548828e-01 3.142771422863006592e-01 2.694135904312133789e-01 -6.239767074584960938e-01
9.400000000000000000e+02 7.323079681396484375e+01 -1.759876847267150879e+00 2.428364194929599762e-02 -4.065999388694763184e-01 -1.146948859095573425e-01 -7.911906242370605469e-01
9.410000000000000000e+02 7.569606018066406250e+01 -2.958204746246337891e+00 -2.692910470068454742e-02 -7.310408353805541992e-01 -2.273909747600555420e-01 -6.324962973594665527e-01
9.420000000000000000e+02 6.876561737060546875e+01 -7.355666160583496094e+00 -5.363389253616333008e-01 1.211353912949562073e-01 -1.245610490441322327e-01 -8.129846453666687012e-01
9.430000000000000000e+02 6.000915908813476562e+01 -4.510858058929443359e+00 3.657405674457550049e-01 1.044216752052307129e+00 4.229871928691864014e-01 4.161857962608337402e-01
9.440000000000000000e+02 5.647215270996093750e+01 -2.567803621292114258e+00 1.306204795837402344e+00 1.955361127853393555e+00 9.784697890281677246e-01 1.411913871765136719e+00
9.450000000000000000e+02 5.759710693359375000e+01 -3.431633472442626953e+00 9.122958183288574219e-01 1.576364517211914062e+00 7.465981245040893555e-01 9.807254672050476074e-01
9.460000000000000000e+02 4.871946334838867188e+01 -6.574089527130126953e+00 -3.575764000415802002e-01 -4.332284331321716309e-01 -2.372414469718933105e-01 1.658482789993286133e+00
9.470000000000000000e+02 2.273716926574707031e+01 -8.419299125671386719e+00 2.502887547016143799e-01 -2.125763595104217529e-01 1.131371688097715378e-02 -3.246230483055114746e-01
9.480000000000000000e+02 2.037329292297363281e+01 -6.773484230041503906e+00 -6.269633024930953979e-02 -2.449440360069274902e-01 -9.229210764169692993e-02 -5.217664837837219238e-01
9.490000000000000000e+02 1.964351272583007812e+01 -1.384911775588989258e+00 -5.098912119865417480e-01 -4.516005888581275940e-02 -1.665153801441192627e-01 -2.595830857753753662e-01
9.500000000000000000e+02 3.802037715911865234e+00 -6.914989471435546875e+00 -2.607504092156887054e-02 -4.111475776880979538e-03 -9.055954404175281525e-03 1.761402189731597900e-02
9.510000000000000000e+02 8.109570503234863281e+00 -7.724110603332519531e+00 -9.794863313436508179e-02 -1.130492314696311951e-01 -6.329935789108276367e-02 -4.580564796924591064e-02
9.520000000000000000e+02 1.642159938812255859e+00 -7.915437698364257812e+00 -6.988499313592910767e-03 5.919248983263969421e-02 1.566119678318500519e-02 1.060745399445295334e-02
9.530000000000000000e+02 4.188529968261718750e+00 -5.129487991333007812e+00 -1.393231377005577087e-02 -3.293283516541123390e-03 -5.167679395526647568e-03 3.116505406796932220e-02
9.540000000000000000e+02 3.982489347457885742e+00 -1.030834579467773438e+01 -4.806093871593475342e-02 -3.780188784003257751e-02 -2.575884759426116943e-02 -3.881775215268135071e-02
9.550000000000000000e+02 6.316933155059814453e+00 -1.107798671722412109e+01 -1.117849647998809814e-01 -1.123200654983520508e-01 -6.723150610923767090e-02 -8.979764580726623535e-02
9.560000000000000000e+02 1.176934528350830078e+01 -6.098609924316406250e+00 -1.050990372896194458e-01 -1.778364479541778564e-01 -8.488065004348754883e-02 -1.283279657363891602e-01
9.570000000000000000e+02 1.549677276611328125e+01 -8.584836006164550781e+00 -1.465829163789749146e-01 -3.999248147010803223e-01 -1.639523208141326904e-01 -2.934424877166748047e-01
9.580000000000000000e+02 7.076578521728515625e+01 1.192030906677246094e+00 2.213022559881210327e-01 1.168074086308479309e-01 1.014329046010971069e-01 -7.070189118385314941e-01
9.590000000000000000e+02 7.563103485107421875e+01 -1.620435833930969238e+00 1.769907958805561066e-02 -8.432528972625732422e-01 -2.476661354303359985e-01 -6.433471441268920898e-01
9.600000000000000000e+02 6.840808105468750000e+01 -3.348600625991821289e+00 5.734347738325595856e-03 2.898061871528625488e-01 8.866215497255325317e-02 -7.575559616088867188e-01
9.610000000000000000e+02 6.262792587280273438e+01 -2.463552236557006836e+00 4.400727748870849609e-01 1.118109703063964844e+00 4.674547314643859863e-01 1.632006764411926270e-01
9.620000000000000000e+02 6.012795639038085938e+01 -1.802411794662475586e+00 7.879090309143066406e-01 1.548046469688415527e+00 7.007866501808166504e-01 7.828884124755859375e-01
9.630000000000000000e+02 7.815957641601562500e+01 -3.026439905166625977e+00 -7.539317943155765533e-03 -1.099637150764465332e+00 -3.321529328823089600e-01 -3.294838964939117432e-01
9.640000000000000000e+02 7.279448699951171875e+01 4.177053928375244141e+00 2.389907538890838623e-01 -4.087213277816772461e-01 -5.091917142271995544e-02 -6.094052195549011230e-01
9.650000000000000000e+02 7.545703125000000000e+01 2.491360902786254883e+00 8.628912270069122314e-02 -1.131403565406799316e+00 -3.135343194007873535e-01 -5.791940093040466309e-01
9.660000000000000000e+02 6.727615356445312500e+01 -6.436316370964050293e-01 2.459636181592941284e-01 6.983991265296936035e-01 2.833088040351867676e-01 -5.356300473213195801e-01
9.670000000000000000e+02 5.993476867675781250e+01 -6.080035120248794556e-03 9.258092045783996582e-01 1.987224698066711426e+00 8.739101886749267578e-01 1.115869164466857910e+00
9.680000000000000000e+02 7.937483978271484375e+01 -2.633152604103088379e-01 4.150146618485450745e-03 -1.814142346382141113e+00 -5.429976582527160645e-01 -1.127367913722991943e-01
9.690000000000000000e+02 7.057233428955078125e+01 5.736320495605468750e+00 3.839869499206542969e-01 3.476225733757019043e-01 2.194828540086746216e-01 -4.971120655536651611e-01
9.700000000000000000e+02 7.549849700927734375e+01 5.290810108184814453e+00 1.178624182939529419e-01 -1.314150452613830566e+00 -3.588864207267761230e-01 -4.671287536621093750e-01
9.710000000000000000e+02 6.811607360839843750e+01 5.080125808715820312e+00 5.043471455574035645e-01 1.167018890380859375e+00 5.014098286628723145e-01 -3.331777453422546387e-01
9.720000000000000000e+02 6.374109649658203125e+01 4.350393295288085938e+00 7.708566784858703613e-01 2.624811887741088867e+00 1.018700599670410156e+00 4.245090484619140625e-01
9.730000000000000000e+02 5.960675811767578125e+01 3.849138021469116211e+00 1.266780734062194824e+00 2.944343566894531250e+00 1.263337254524230957e+00 1.898331999778747559e+00
9.740000000000000000e+02 7.807531738281250000e+01 3.903834819793701172e+00 2.593740262091159821e-02 -2.094293832778930664e+00 -6.205069422721862793e-01 -2.797617018222808838e-01
9.750000000000000000e+02 7.083809661865234375e+01 1.040226078033447266e+01 4.457840323448181152e-01 3.837445676326751709e-01 2.488585859537124634e-01 -2.366864532232284546e-01
9.760000000000000000e+02 7.555931091308593750e+01 1.083588600158691406e+01 1.481846421957015991e-01 -1.558418273925781250e+00 -4.230700731277465820e-01 -1.791483908891677856e-01
9.770000000000000000e+02 6.805058288574218750e+01 9.467267990112304688e+00 6.034110188484191895e-01 1.650613069534301758e+00 6.762072443962097168e-01 -1.258962899446487427e-01
9.780000000000000000e+02 6.422565460205078125e+01 7.245635986328125000e+00 6.582874059677124023e-01 3.157379388809204102e+00 1.144700050354003906e+00 3.705616593360900879e-01
9.790000000000000000e+02 7.936025238037109375e+01 6.730784416198730469e+00 4.521943163126707077e-03 -2.964840650558471680e+00 -8.880956172943115234e-01 -6.942524015903472900e-02
9.800000000000000000e+02 6.982259368896484375e+01 1.352328777313232422e+01 5.847683548927307129e-01 8.994492888450622559e-01 4.452652931213378906e-01 -5.514080077409744263e-02
9.810000000000000000e+02 7.555996704101562500e+01 1.222114181518554688e+01 1.793942302465438843e-01 -1.573544859886169434e+00 -4.182451963424682617e-01 -9.401115030050277710e-02
9.820000000000000000e+02 6.722740173339843750e+01 9.182619094848632812e+00 6.216511130332946777e-01 2.011304378509521484e+00 7.898866534233093262e-01 -7.997382432222366333e-02
9.830000000000000000e+02 6.467962646484375000e+01 1.142374706268310547e+01 5.307392477989196777e-01 3.711656093597412109e+00 1.272718667984008789e+00 2.495221048593521118e-01
9.840000000000000000e+02 7.257557678222656250e+01 1.788241577148437500e+01 3.308085799217224121e-01 -3.642829060554504395e-01 -1.004230044782161713e-02 3.273550271987915039e-01
9.850000000000000000e+02 7.406292724609375000e+01 1.781527709960937500e+01 2.207350581884384155e-01 -9.399167895317077637e-01 -2.157545089721679688e-01 2.905037999153137207e-01
9.860000000000000000e+02 7.809897613525390625e+01 1.369262790679931641e+01 3.870543837547302246e-02 -2.769200325012207031e+00 -8.191484212875366211e-01 8.951747789978981018e-03
9.870000000000000000e+02 7.167072296142578125e+01 2.122966766357421875e+01 2.631098330020904541e-01 2.318954654037952423e-02 8.588980883359909058e-02 5.451126694679260254e-01
9.880000000000000000e+02 7.398716735839843750e+01 2.142845726013183594e+01 1.648719757795333862e-01 -7.850916981697082520e-01 -1.860659122467041016e-01 5.136905908584594727e-01
9.890000000000000000e+02 6.734914398193359375e+01 1.679795265197753906e+01 7.523242235183715820e-01 1.983955740928649902e+00 8.208839893341064453e-01 9.469845145940780640e-02
9.900000000000000000e+02 6.412450408935546875e+01 1.665105056762695312e+01 7.729360461235046387e-01 4.232810020446777344e+00 1.501723885536193848e+00 -5.137037038803100586e-01
9.910000000000000000e+02 7.280543518066406250e+01 2.419511413574218750e+01 3.121758811175823212e-02 -3.319935500621795654e-01 -9.023278951644897461e-02 6.119621992111206055e-01
9.920000000000000000e+02 7.511799621582031250e+01 2.421468544006347656e+01 3.844203427433967590e-02 -1.048095941543579102e+00 -3.028961718082427979e-01 5.288535356521606445e-01
9.930000000000000000e+02 6.363916397094726562e+01 2.413169860839843750e+01 5.944089964032173157e-02 2.369609355926513672e+00 7.287151217460632324e-01 -7.838574051856994629e-02
9.940000000000000000e+02 4.993590545654296875e+01 2.136868858337402344e+01 -2.978625893592834473e-02 -1.796094514429569244e-02 -1.432416122406721115e-02 -5.603181570768356323e-02
9.950000000000000000e+02 8.374658584594726562e+00 2.096522903442382812e+01 -3.127785632386803627e-03 -7.656353409402072430e-04 -1.168026239611208439e-03 1.127636525779962540e-03
9.960000000000000000e+02 4.296329975128173828e+00 2.225361251831054688e+01 -8.129111374728381634e-04 -8.677520672790706158e-04 -5.041989497840404510e-04 1.143618603236973286e-03
9.970000000000000000e+02 4.145550251007080078e+00 1.694317054748535156e+01 8.405127300648018718e-05 -1.461664505768567324e-04 -1.863455327111296356e-05 -2.020627580350264907e-04
9.980000000000000000e+02 6.975902557373046875e+00 1.775761222839355469e+01 -7.604532875120639801e-04 -8.391229202970862389e-04 -4.798728623427450657e-04 1.751607487676665187e-05
9.990000000000000000e+02 6.055780053138732910e-01 2.064441299438476562e+01 1.854123984230682254e-04 1.416761311702430248e-03 4.806521174032241106e-04 4.667117536882869899e-05
1.000000000000000000e+03 7.245535278320312500e+01 2.762685012817382812e+01 -1.256083399057388306e-01 -1.541779488325119019e-01 -8.393588662147521973e-02 5.939014554023742676e-01
1.001000000000000000e+03 7.364097595214843750e+01 2.504163360595703125e+01 1.139399246312677860e-04 -5.447931289672851562e-01 -1.634037643671035767e-01 5.817258358001708984e-01
1.002000000000000000e+03 6.020875549316406250e+01 2.633481216430664062e+01 -7.040466368198394775e-02 1.678007125854492188e+00 4.822807312011718750e-01 -5.736221671104431152e-01
1.003000000000000000e+03 5.843915176391601562e+01 2.675647735595703125e+01 8.580011129379272461e-02 1.275709152221679688e+00 4.084527790546417236e-01 -7.693696022033691406e-01
1.004000000000000000e+03 5.392314147949218750e+01 2.321991348266601562e+01 3.660030663013458252e-01 1.145639084279537201e-02 1.132378429174423218e-01 -2.095853388309478760e-01
1.005000000000000000e+03 4.599663543701171875e+01 2.582895851135253906e+01 7.484174519777297974e-02 5.869045853614807129e-02 4.005966335535049438e-02 -6.417506188154220581e-02
1.006000000000000000e+03 4.467179489135742188e+01 2.531725502014160156e+01 5.898004770278930664e-02 5.687136575579643250e-02 3.475542366504669189e-02 -4.128341376781463623e-02
1.007000000000000000e+03 3.495611190795898438e+01 2.324109077453613281e+01 -4.018413275480270386e-02 2.238060347735881805e-02 -5.341058596968650818e-03 1.315995957702398300e-02
1.008000000000000000e+03 3.233402633666992188e+01 2.362390518188476562e+01 -4.316094890236854553e-02 -2.011446515098214149e-03 -1.355171855539083481e-02 1.349990162998437881e-02
1.009000000000000000e+03 2.939756774902343750e+01 2.276169013977050781e+01 -6.609693169593811035e-02 -3.930411487817764282e-02 -3.162031620740890503e-02 2.986638806760311127e-02
1.010000000000000000e+03 2.235207557678222656e+01 2.220269966125488281e+01 -9.604496508836746216e-02 -4.489677492529153824e-03 -3.016039356589317322e-02 1.416680123656988144e-02
1.011000000000000000e+03 1.911307716369628906e+01 2.188817596435546875e+01 -3.896738961338996887e-02 -1.224128529429435730e-03 -1.205745525658130646e-02 -4.976553376764059067e-03
1.012000000000000000e+03 1.576063442230224609e+01 2.200052452087402344e+01 -1.668860949575901031e-02 1.857732539065182209e-03 -4.449263215065002441e-03 1.193113625049591064e-03
1.013000000000000000e+03 1.375831317901611328e+01 2.423151016235351562e+01 -1.348376180976629257e-02 7.802015170454978943e-04 -3.811068134382367134e-03 6.916371174156665802e-03
1.014000000000000000e+03 7.020050525665283203e+00 2.527622604370117188e+01 -3.087412565946578979e-03 -2.180465264245867729e-03 -1.580363372340798378e-03 4.468365106731653214e-03
1.015000000000000000e+03 4.398664474487304688e+00 2.362668037414550781e+01 -1.701944973319768906e-03 -1.307656988501548767e-03 -9.028805652633309364e-04 1.839347532950341702e-03
1.016000000000000000e+03 6.250165104866027832e-01 2.345639038085937500e+01 1.611048646736890078e-04 8.312314748764038086e-04 2.977008989546447992e-04 2.786623663268983364e-04
1.017000000000000000e+03 7.795256805419921875e+01 2.334392929077148438e+01 2.074597775936126709e-02 -2.070508003234863281e+00 -6.149286031723022461e-01 2.814291715621948242e-01
1.018000000000000000e+03 7.440905761718750000e+01 3.263135528564453125e+01 -1.253938972949981689e-01 -5.012015104293823242e-01 -1.879786252975463867e-01 3.907791972160339355e-01
1.019000000000000000e+03 6.629290008544921875e+01 2.817173004150390625e+01 -3.016985654830932617e-01 1.204227328300476074e+00 2.707586288452148438e-01 3.137196600437164307e-01
1.020000000000000000e+03 6.367796707153320312e+01 3.035959434509277344e+01 -4.083949625492095947e-01 1.257726907730102539e+00 2.547995746135711670e-01 -8.254479616880416870e-03
1.021000000000000000e+03 5.875654602050781250e+01 2.884543228149414062e+01 -1.589147150516510010e-01 1.161269545555114746e+00 3.007064461708068848e-01 -4.886982440948486328e-01
1.022000000000000000e+03 5.675016784667968750e+01 2.722048759460449219e+01 2.041444778442382812e-01 8.380396366119384766e-01 3.126552402973175049e-01 -7.341590523719787598e-01
1.023000000000000000e+03 5.006359863281250000e+01 2.597157096862792969e+01 1.869703531265258789e-01 1.245117858052253723e-01 9.344464540481567383e-02 -2.115254402160644531e-01
1.024000000000000000e+03 4.615013885498046875e+01 2.924763107299804688e+01 8.342643082141876221e-02 1.498960256576538086e-01 6.999673694372177124e-02 -1.292999386787414551e-01
1.025000000000000000e+03 4.389235687255859375e+01 2.703100776672363281e+01 5.928430706262588501e-02 7.806265354156494141e-02 4.120408743619918823e-02 -5.599746853113174438e-02
1.026000000000000000e+03 4.094566345214843750e+01 2.845183944702148438e+01 3.577717021107673645e-02 8.170448243618011475e-02 3.524449840188026428e-02 -3.149204328656196594e-02
1.027000000000000000e+03 3.350244522094726562e+01 2.845567321777343750e+01 7.473137229681015015e-03 2.250905148684978485e-02 8.994656614959239960e-03 2.124210121110081673e-03
1.028000000000000000e+03 2.973647308349609375e+01 2.792210578918457031e+01 -2.985493745654821396e-03 -1.282589230686426163e-02 -4.743415862321853638e-03 1.270066481083631516e-02
1.029000000000000000e+03 2.568677902221679688e+01 2.749043273925781250e+01 -1.554926205426454544e-02 -2.480639331042766571e-02 -1.210669614374637604e-02 2.828526869416236877e-02
1.030000000000000000e+03 1.930884552001953125e+01 2.657870101928710938e+01 -2.209485322237014771e-02 -9.578105993568897247e-03 -9.501887485384941101e-03 2.401370555162429810e-02
1.031000000000000000e+03 1.584623718261718750e+01 2.667741203308105469e+01 -1.592838205397129059e-02 -3.821675898507237434e-03 -5.925017409026622772e-03 1.684150844812393188e-02
1.032000000000000000e+03 1.027451324462890625e+01 2.691380500793457031e+01 -6.699052639305591583e-03 -2.837947336956858635e-03 -2.861100016161799431e-03 8.885759860277175903e-03
1.033000000000000000e+03 6.962990760803222656e+00 2.652352142333984375e+01 -3.517846576869487762e-03 -2.919358666986227036e-03 -1.931161619722843170e-03 5.191352684050798416e-03
1.034000000000000000e+03 4.666890144348144531e+00 2.783953094482421875e+01 -1.018228125758469105e-03 -4.069301299750804901e-03 -1.526258769445121288e-03 4.620925989001989365e-03
1.035000000000000000e+03 6.688793897628784180e-01 2.768901443481445312e+01 -2.549718774389475584e-04 -2.347326604649424553e-03 -7.806895300745964050e-04 7.004216313362121582e-04
1.036000000000000000e+03 7.775255584716796875e+01 2.610555458068847656e+01 2.310331183252856135e-04 -1.692260742187500000e+00 -5.076088905334472656e-01 3.161127567291259766e-01
1.037000000000000000e+03 6.347338104248046875e+01 3.306249618530273438e+01 -4.467181563377380371e-01 1.000459194183349609e+00 1.661223024129867554e-01 1.354853739030659199e-03
1.038000000000000000e+03 6.070941925048828125e+01 3.259619522094726562e+01 -3.930206596851348877e-01 1.081278681755065918e+00 2.064774185419082642e-01 -1.957698762416839600e-01
1.039000000000000000e+03 5.648285293579101562e+01 3.160209655761718750e+01 -1.629143059253692627e-01 8.573405146598815918e-01 2.083278596401214600e-01 -4.143680632114410400e-01
1.040000000000000000e+03 3.558839416503906250e+01 3.090442848205566406e+01 2.648815140128135681e-02 4.723017662763595581e-02 2.211549878120422363e-02 -1.042173709720373154e-02
1.041000000000000000e+03 3.142909431457519531e+01 3.214717483520507812e+01 2.864693664014339447e-02 1.174379419535398483e-02 1.211721915751695633e-02 3.603502176702022552e-03
1.042000000000000000e+03 2.862277221679687500e+01 3.240409088134765625e+01 2.420162223279476166e-02 -2.839322667568922043e-03 6.408689543604850769e-03 1.176515780389308929e-02
1.043000000000000000e+03 1.982049560546875000e+01 3.264883422851562500e+01 9.803913533687591553e-03 -1.753161847591400146e-02 -2.318311715498566628e-03 2.133487910032272339e-02
1.044000000000000000e+03 1.395072269439697266e+01 3.153493499755859375e+01 3.720469831023365259e-04 -1.008635107427835464e-02 -2.914291108027100563e-03 1.550361141562461853e-02
1.045000000000000000e+03 1.087950992584228516e+01 3.273423385620117188e+01 1.550264423713088036e-03 -9.858928620815277100e-03 -2.492599189281463623e-03 1.181629020720720291e-02
1.046000000000000000e+03 8.223826408386230469e+00 3.257807159423828125e+01 -1.564382546348497272e-05 -8.696243166923522949e-03 -2.613566117361187935e-03 9.015967138111591339e-03
1.047000000000000000e+03 4.939198017120361328e+00 3.076590156555175781e+01 -1.979530788958072662e-04 -6.762109231203794479e-03 -2.088018693029880524e-03 5.915723741054534912e-03
1.048000000000000000e+03 7.006766200065612793e-01 3.051891136169433594e+01 -1.918900670716539025e-04 -5.839694757014513016e-03 -1.809475361369550228e-03 9.328902815468609333e-04
1.049000000000000000e+03 7.736481475830078125e+01 3.030683517456054688e+01 -3.319371864199638367e-02 -1.192100405693054199e+00 -3.675882220268249512e-01 3.033673167228698730e-01
1.050000000000000000e+03 7.048225402832031250e+01 3.834545135498046875e+01 -3.033879697322845459e-01 1.229562163352966309e-01 -5.412952601909637451e-02 1.689751595258712769e-01
1.051000000000000000e+03 5.291795730590820312e+01 3.432789611816406250e+01 -1.218218281865119934e-01 5.975899696350097656e-01 1.427304446697235107e-01 -2.753684520721435547e-01
1.052000000000000000e+03 2.543763923645019531e+01 3.516362762451171875e+01 3.017116151750087738e-02 -1.133585907518863678e-02 5.650591105222702026e-03 1.271514780819416046e-02
1.053000000000000000e+03 1.094269466400146484e+01 3.480903244018554688e+01 3.601313102990388870e-03 -1.182680204510688782e-02 -2.467646729201078415e-03 1.061973348259925842e-02
1.054000000000000000e+03 6.257104873657226562e+00 3.451534271240234375e+01 1.761402585543692112e-03 -1.055241841822862625e-02 -2.637304831296205521e-03 6.369492504745721817e-03
1.055000000000000000e+03 6.513252258300781250e+00 3.256047439575195312e+01 7.441112538799643517e-04 -8.526321500539779663e-03 -2.334663178771734238e-03 7.700466550886631012e-03
1.056000000000000000e+03 7.901098132133483887e-01 3.481003570556640625e+01 2.688185195438563824e-04 -1.167910266667604446e-02 -3.423085203394293785e-03 9.061704040504992008e-04
1.057000000000000000e+03 7.574842071533203125e+01 3.396546173095703125e+01 -8.073022961616516113e-02 -6.777884960174560547e-01 -2.275556176900863647e-01 2.752810418605804443e-01
1.058000000000000000e+03 6.232448220252990723e-01 3.755377960205078125e+01 6.681041559204459190e-04 -1.434234995394945145e-02 -4.102273844182491302e-03 3.880245494656264782e-04
1.059000000000000000e+03 4.403397083282470703e+00 1.341053771972656250e+01 1.850910339271649718e-04 -1.015623129205778241e-04 2.505861448298674077e-05 -3.270231827627867460e-04
1.060000000000000000e+03 7.298589229583740234e+00 1.412326717376708984e+01 1.608636084711179137e-04 -5.294074071571230888e-04 -1.105631308746524155e-04 -1.986916613532230258e-04
1.061000000000000000e+03 6.248894929885864258e-01 1.640324401855468750e+01 -1.773086260072886944e-04 1.002017641440033913e-03 2.474127104505896568e-04 -1.146742215496487916e-04
1.062000000000000000e+03 3.860405683517456055e+00 9.764767646789550781e+00 -1.770430208125617355e-05 -2.214691085100639611e-05 -1.195536424347665161e-05 -1.201547711389139295e-04
1.063000000000000000e+03 7.120807170867919922e+00 1.135067653656005859e+01 2.574042882770299911e-04 -2.735836023930460215e-04 -4.853790414927061647e-06 -1.047508121700957417e-04
1.064000000000000000e+03 6.310482025146484375e-01 1.356245231628417969e+01 -1.451295829610899091e-04 5.716832238249480724e-04 1.279660937143489718e-04 -9.659818169893696904e-05
1.065000000000000000e+03 4.024505615234375000e+00 6.347917079925537109e+00 2.620518716867081821e-05 -9.574673640599939972e-06 4.989154149370733649e-06 -1.856617018347606063e-05
1.066000000000000000e+03 8.269920349121093750e+00 5.930854320526123047e+00 6.415783718694001436e-05 -1.880059971881564707e-05 1.360717033094260842e-05 -1.713567689876072109e-05
1.067000000000000000e+03 1.219839477539062500e+01 6.759971618652343750e+00 -2.996241846631164663e-06 -4.719138087239116430e-05 -1.505628733866615221e-05 5.536137905437499285e-05
1.068000000000000000e+03 5.941600203514099121e-01 9.325481414794921875e+00 1.234945957548916340e-04 1.575064670760184526e-04 8.430031448369845748e-05 -3.667675264296121895e-05
1.069000000000000000e+03 5.844598770141601562e+00 1.863293409347534180e+00 4.018121398985385895e-05 1.452130527468398213e-05 1.641075505176559091e-05 -1.499078916822327301e-05
1.070000000000000000e+03 8.260675430297851562e+00 2.519043922424316406e+00 5.141183282830752432e-05 8.583563612774014473e-06 1.799861820472870022e-05 -6.681446393486112356e-06
1.071000000000000000e+03 6.204818487167358398e-01 6.464709281921386719e+00 7.667465979466214776e-05 5.862236139364540577e-05 4.058910417370498180e-05 -1.465551667934050784e-05
1.072000000000000000e+03 1.904410171508789062e+01 3.359820604324340820e+00 1.346460703643970191e-05 1.670193887548521161e-05 9.049963409779593349e-06 -6.123434104665648192e-06
1.073000000000000000e+03 3.785961151123046875e+01 1.337615776062011719e+01 -2.306138537824153900e-02 7.107935845851898193e-03 -4.786035045981407166e-03 2.463520038872957230e-03
1.074000000000000000e+03 4.121262741088867188e+01 1.162604427337646484e+01 -3.643451491370797157e-03 -1.544041908346116543e-03 -1.556247938424348831e-03 -5.422724876552820206e-03
1.075000000000000000e+03 3.864685440063476562e+01 1.295143795013427734e+01 -2.385360933840274811e-02 5.348709877580404282e-03 -5.551469512283802032e-03 -3.454866964602842927e-05
1.076000000000000000e+03 3.842372131347656250e+01 1.091092586517333984e+01 -6.484393961727619171e-03 1.226513530127704144e-03 -1.577364047989249229e-03 -1.844473648816347122e-03
1.077000000000000000e+03 3.442424392700195312e+01 6.410210132598876953e+00 1.201974111609160900e-03 6.205194222275167704e-05 3.792078350670635700e-04 -9.059127769432961941e-04
1.078000000000000000e+03 3.810527038574218750e+01 7.297836780548095703e+00 -9.253274183720350266e-04 -8.003870025277137756e-04 -5.177143611945211887e-04 9.116034489125013351e-04
1.079000000000000000e+03 3.663465499877929688e+01 2.549517631530761719e+00 2.828313445206731558e-04 2.321397914784029126e-05 9.181359928334131837e-05 2.232974657090380788e-04
1.080000000000000000e+03 3.343664550781250000e+01 7.352813720703125000e+00 -4.162758705206215382e-05 1.272863242775201797e-03 3.693707112688571215e-04 -5.206819623708724976e-04
1.081000000000000000e+03 2.133941841125488281e+01 -1.698178410530090332e+00 -6.788473725318908691e-01 4.737152904272079468e-02 -1.894427537918090820e-01 -2.898201048374176025e-01
1.082000000000000000e+03 2.119471359252929688e+01 -1.056562542915344238e+00 -6.706053018569946289e-01 2.518235333263874054e-02 -1.936268806457519531e-01 -2.153013646602630615e-01
1.083000000000000000e+03 1.885808372497558594e+01 -1.510069012641906738e+00 -4.308550059795379639e-01 -6.314530968666076660e-02 -1.482000946998596191e-01 -2.600454688072204590e-01
1.084000000000000000e+03 1.501310920715332031e+01 -2.424786806106567383e+00 -1.421771943569183350e-01 -7.559751719236373901e-02 -6.533241271972656250e-02 -1.876800209283828735e-01
1.085000000000000000e+03 1.807297134399414062e+01 -1.592459559440612793e+00 -3.633288443088531494e-01 -6.668217480182647705e-02 -1.290033012628555298e-01 -2.479670345783233643e-01
1.086000000000000000e+03 2.851806163787841797e+00 -1.046037578582763672e+01 -2.884205058217048645e-02 -1.990681281313300133e-03 -9.249819442629814148e-03 -2.867826446890830994e-02
1.087000000000000000e+03 4.332050800323486328e+00 -1.284558868408203125e+01 -6.310049444437026978e-02 -8.919017761945724487e-02 -4.568720236420631409e-02 -1.046713292598724365e-01
1.088000000000000000e+03 1.062502956390380859e+01 -1.459323596954345703e+01 -2.770021259784698486e-01 -2.945970892906188965e-01 -1.714797616004943848e-01 -2.646788954734802246e-01
1.089000000000000000e+03 1.304830360412597656e+01 -1.277775287628173828e+01 -3.469427227973937988e-01 -4.522632062435150146e-01 -2.397617697715759277e-01 -2.299949824810028076e-01
1.090000000000000000e+03 1.684804534912109375e+01 -1.243036842346191406e+01 -6.961685419082641602e-01 -6.070135831832885742e-01 -3.909546434879302979e-01 -5.502938628196716309e-01
1.091000000000000000e+03 1.897123456001281738e+00 -1.332131385803222656e+01 -1.527704577893018723e-02 -1.882848516106605530e-02 -1.023165974766016006e-02 -5.686556920409202576e-02
1.092000000000000000e+03 3.135490179061889648e+00 -1.311691570281982422e+01 -3.789800778031349182e-02 -6.050955504179000854e-02 -2.952226996421813965e-02 -8.501429110765457153e-02
1.093000000000000000e+03 5.137041568756103516e+00 -1.787017631530761719e+01 -4.231115803122520447e-02 -2.365006059408187866e-01 -8.364352583885192871e-02 -2.335329055786132812e-01
1.094000000000000000e+03 9.404085159301757812e+00 -1.649173164367675781e+01 -1.553706377744674683e-01 -2.731109857559204102e-01 -1.285444796085357666e-01 -3.118199706077575684e-01
1.095000000000000000e+03 1.341466808319091797e+01 -1.438949966430664062e+01 -3.914889991283416748e-01 -5.500600337982177734e-01 -2.824647128582000732e-01 -3.023934364318847656e-01
1.096000000000000000e+03 1.535589504241943359e+01 -1.391029739379882812e+01 -5.043168067932128906e-01 -8.684872388839721680e-01 -4.118412137031555176e-01 -5.601486563682556152e-01
1.097000000000000000e+03 3.636551618576049805e+00 -1.600590133666992188e+01 -3.956575691699981689e-02 -1.587408632040023804e-01 -5.949198827147483826e-02 -1.592851728200912476e-01
1.098000000000000000e+03 4.785236358642578125e+00 -1.926503562927246094e+01 -1.240685489028692245e-02 -2.832437753677368164e-01 -8.869519084692001343e-02 -2.375636994838714600e-01
1.099000000000000000e+03 1.007249832153320312e+01 -2.114509963989257812e+01 8.776292949914932251e-02 -3.169498741626739502e-01 -6.875608116388320923e-02 -3.301743566989898682e-01
1.100000000000000000e+03 1.290667819976806641e+01 -1.646064186096191406e+01 -2.457918673753738403e-01 -5.133700370788574219e-01 -2.277485728263854980e-01 -3.448569774627685547e-01
1.101000000000000000e+03 1.432985687255859375e+01 -1.650701332092285156e+01 -1.667705327272415161e-01 -8.578613996505737305e-01 -3.073895871639251709e-01 -2.553454935550689697e-01
1.102000000000000000e+03 3.387681007385253906e+00 -2.055014801025390625e+01 4.748507402837276459e-03 -3.326946198940277100e-01 -9.838383644819259644e-02 -1.861426383256912231e-01
1.103000000000000000e+03 6.000844001770019531e+00 -2.318677520751953125e+01 5.679322779178619385e-02 -3.896291553974151611e-01 -9.985077381134033203e-02 -2.432072162628173828e-01
1.104000000000000000e+03 9.225852012634277344e+00 -2.665488243103027344e+01 1.378084570169448853e-01 -3.348123729228973389e-01 -5.910117179155349731e-02 -1.961454451084136963e-01
1.105000000000000000e+03 1.216167831420898438e+01 -2.135925865173339844e+01 1.551109701395034790e-01 -2.645489275455474854e-01 -3.283138945698738098e-02 -3.031860291957855225e-01
1.106000000000000000e+03 2.054178237915039062e+00 -2.338551139831542969e+01 8.694292046129703522e-03 -4.754698574542999268e-01 -1.400326639413833618e-01 -1.125918924808502197e-01
1.107000000000000000e+03 4.675782203674316406e+00 -2.191962623596191406e+01 2.413256466388702393e-02 -3.727344572544097900e-01 -1.045805662870407104e-01 -2.236655652523040771e-01
1.108000000000000000e+03 5.367492675781250000e+00 -2.772737693786621094e+01 5.875451862812042236e-02 -4.816627800464630127e-01 -1.268724799156188965e-01 -1.506064385175704956e-01
1.109000000000000000e+03 1.024363613128662109e+01 -2.852078056335449219e+01 1.535433083772659302e-01 -2.715022265911102295e-01 -3.538767993450164795e-02 -1.557729244232177734e-01
1.110000000000000000e+03 1.280348396301269531e+01 -2.368607330322265625e+01 2.145403325557708740e-01 -1.908887028694152832e-01 7.095491047948598862e-03 -2.127138972282409668e-01
1.111000000000000000e+03 2.056530237197875977e+00 -2.902226448059082031e+01 1.052947808057069778e-02 -6.829347014427185059e-01 -2.017215639352798462e-01 -6.183704733848571777e-02
1.112000000000000000e+03 3.531601667404174805e+00 -2.908767127990722656e+01 2.888853847980499268e-02 -5.983737707138061523e-01 -1.708455681800842285e-01 -9.735893458127975464e-02
1.113000000000000000e+03 5.490281581878662109e+00 -3.156970977783203125e+01 5.356249213218688965e-02 -5.135782361030578613e-01 -1.380047202110290527e-01 -9.147827327251434326e-02
1.114000000000000000e+03 9.243812561035156250e+00 -3.260337066650390625e+01 9.109050780534744263e-02 -3.149441778659820557e-01 -6.715609878301620483e-02 -8.844421058893203735e-02
1.115000000000000000e+03 1.159602546691894531e+01 -2.917173004150390625e+01 1.649987995624542236e-01 -1.809130012989044189e-01 -4.774263128638267517e-03 -1.382783353328704834e-01
1.116000000000000000e+03 1.655472946166992188e+01 -2.863421249389648438e+01 2.311885058879852295e-01 1.097015216946601868e-01 1.022670120000839233e-01 -1.594266593456268311e-01
1.117000000000000000e+03 1.977716445922851562e+00 -3.039093589782714844e+01 1.127086859196424484e-02 -7.208224534988403320e-01 -2.128654718399047852e-01 -4.774319380521774292e-02
1.118000000000000000e+03 3.330381155014038086e+00 -3.042171287536621094e+01 2.817197330296039581e-02 -6.347192525863647461e-01 -1.819641888141632080e-01 -7.306753098964691162e-02
1.119000000000000000e+03 1.298044013977050781e+01 -3.179002952575683594e+01 1.501260101795196533e-01 -1.131014451384544373e-01 1.110737118870019913e-02 -9.431570023298263550e-02
1.120000000000000000e+03 1.616591262817382812e+01 -3.223988723754882812e+01 1.736554652452468872e-01 4.190908372402191162e-02 6.466936320066452026e-02 -9.534575045108795166e-02
1.121000000000000000e+03 1.992720413208007812e+01 -3.199589347839355469e+01 2.652264237403869629e-01 2.139440327882766724e-01 1.437511444091796875e-01 -1.098291128873825073e-01
1.122000000000000000e+03 4.461201858520507812e+01 -3.061327362060546875e+01 1.147251669317483902e-02 4.313758909702301025e-01 1.328545212745666504e-01 -1.614565998315811157e-01
1.123000000000000000e+03 6.435686492919921875e+01 -3.104005241394042969e+01 -2.062026038765907288e-02 3.190195886418223381e-03 -5.229019559919834137e-03 8.213726803660392761e-03
1.124000000000000000e+03 1.988952159881591797e+00 -3.447157669067382812e+01 9.518075734376907349e-03 -7.925928831100463867e-01 -2.349224537611007690e-01 -1.720630377531051636e-02
1.125000000000000000e+03 3.363870859146118164e+00 -3.429951858520507812e+01 2.449907921254634857e-02 -6.863636970520019531e-01 -1.985593736171722412e-01 -3.696249052882194519e-02
1.126000000000000000e+03 7.152797698974609375e+00 -3.534140396118164062e+01 4.047793149948120117e-02 -4.570107758045196533e-01 -1.249598562717437744e-01 -5.791898816823959351e-02
1.127000000000000000e+03 9.350915908813476562e+00 -3.813694763183593750e+01 5.024591460824012756e-02 -3.276036381721496582e-01 -8.320731669664382935e-02 -3.193194419145584106e-02
1.128000000000000000e+03 2.079759407043457031e+01 -3.505392074584960938e+01 2.081604450941085815e-01 2.403976321220397949e-01 1.345674246549606323e-01 -3.489781543612480164e-02
1.129000000000000000e+03 2.449651908874511719e+01 -3.187013626098632812e+01 4.252729415893554688e-01 2.208018898963928223e-01 1.938224434852600098e-01 -7.806047797203063965e-03
1.130000000000000000e+03 3.942621231079101562e+01 -3.515768432617187500e+01 -7.486969977617263794e-02 8.962810635566711426e-01 2.464234083890914917e-01 -7.516112178564071655e-02
1.131000000000000000e+03 6.623835754394531250e+01 -3.603664016723632812e+01 3.658200614154338837e-03 -6.543966010212898254e-03 -8.657297003082931042e-04 1.545980945229530334e-02
1.132000000000000000e+03 7.425165557861328125e+01 -3.429259490966796875e+01 -3.718406369443982840e-04 -3.348030149936676025e-03 -1.115961233153939247e-03 4.035365767776966095e-03
1.133000000000000000e+03 7.480593323707580566e-01 -3.737473297119140625e+01 9.476114995777606964e-03 -8.760160207748413086e-01 -2.599619925022125244e-01 7.840214297175407410e-03
1.134000000000000000e+03 5.107925415039062500e+00 -3.544034957885742188e+01 2.789195068180561066e-02 -5.709140300750732422e-01 -1.629066318273544312e-01 -4.907472804188728333e-02
1.135000000000000000e+03 6.665399169921875000e+01 -3.861179351806640625e+01 1.091656927019357681e-02 -1.192355807870626450e-02 -3.020965959876775742e-04 1.005322765558958054e-02
1.136000000000000000e+03 7.569594573974609375e+01 -2.668595886230468750e+01 -5.091936909593641758e-04 -4.029487026855349541e-04 -2.736427122727036476e-04 6.118702585808932781e-04
1.137000000000000000e+03 7.201351165771484375e+01 -2.924736976623535156e+01 -3.241654019802808762e-03 -7.938589988043531775e-05 -9.963120101019740105e-04 2.641569590196013451e-03
1.138000000000000000e+03 7.523636627197265625e+01 -2.550711822509765625e+01 -6.856438703835010529e-04 -2.936561941169202328e-04 -2.937900135293602943e-04 1.961166562978178263e-04
1.139000000000000000e+03 6.970639038085937500e+01 -2.520798492431640625e+01 -1.594269648194313049e-03 -9.019947901833802462e-05 -5.053407512605190277e-04 -2.081640850519761443e-04
1.140000000000000000e+03 7.362220764160156250e+01 -2.097751998901367188e+01 -1.428880350431427360e-04 -2.453462802805006504e-04 -1.164702916867099702e-04 -8.839607471600174904e-05
1.141000000000000000e+03 3.430168151855468750e+01 -2.783825302124023438e+01 3.922526240348815918e-01 1.730839252471923828e+00 6.369275450706481934e-01 6.877012848854064941e-01
1.142000000000000000e+03 3.434785461425781250e+01 -2.540249443054199219e+01 8.920826315879821777e-01 2.255270481109619141e+00 9.442059397697448730e-01 1.129518747329711914e+00
1.143000000000000000e+03 3.336109161376953125e+01 -2.629717445373535156e+01 8.472986817359924316e-01 1.442401766777038574e+00 6.869101524353027344e-01 1.064232826232910156e+00
1.144000000000000000e+03 4.334620666503906250e+01 -1.838537597656250000e+01 -3.065138822421431541e-03 6.863230466842651367e-01 2.049773782491683960e-01 -1.571507155895233154e-01
1.145000000000000000e+03 4.692403793334960938e+01 -1.465519905090332031e+01 7.133686542510986328e-01 -2.130239754915237427e-01 1.501033902168273926e-01 1.382869780063629150e-01
1.146000000000000000e+03 5.433203506469726562e+01 -1.353962707519531250e+01 -1.057991147041320801e+00 1.567775011062622070e-01 -2.703641057014465332e-01 3.095070719718933105e-01
1.147000000000000000e+03 5.463444900512695312e+01 -1.466704082489013672e+01 -1.347085833549499512e+00 3.524666652083396912e-02 -3.935517370700836182e-01 -6.736776791512966156e-03
1.148000000000000000e+03 5.556745529174804688e+01 -1.328174209594726562e+01 -1.209136724472045898e+00 1.781080961227416992e-01 -3.093085885047912598e-01 1.841017603874206543e-01
1.149000000000000000e+03 5.856951904296875000e+01 -1.404812240600585938e+01 -1.639400601387023926e+00 2.998968213796615601e-02 -4.828232824802398682e-01 -2.918497622013092041e-01
1.150000000000000000e+03 5.932922744750976562e+01 -1.222506332397460938e+01 -1.672105669975280762e+00 2.423887550830841064e-01 -4.289150536060333252e-01 -2.435873150825500488e-01
1.151000000000000000e+03 6.834599304199218750e+01 -1.479597377777099609e+01 -2.267255485057830811e-01 -4.180537536740303040e-02 -8.055927604436874390e-02 1.169710084795951843e-01
1.152000000000000000e+03 6.972661590576171875e+01 -1.463474369049072266e+01 -3.155502080917358398e-01 4.364047199487686157e-02 -8.157292008399963379e-02 6.000418215990066528e-02
1.153000000000000000e+03 7.279979705810546875e+01 -1.370343875885009766e+01 -2.747012972831726074e-01 2.620834484696388245e-02 -7.454788684844970703e-02 -1.079189479351043701e-01
1.154000000000000000e+03 7.359101867675781250e+01 -1.441682624816894531e+01 -1.901291161775588989e-01 1.190969068557024002e-02 -5.346582829952239990e-02 -7.483693957328796387e-02
1.155000000000000000e+03 7.434790802001953125e+01 -1.369817924499511719e+01 -1.940351724624633789e-01 1.419575564796105027e-04 -5.816796422004699707e-02 -1.141001656651496887e-01
1.156000000000000000e+03 7.592519378662109375e+01 -1.444200992584228516e+01 -8.914799243211746216e-02 -2.031893841922283173e-02 -3.284008055925369263e-02 -5.822485312819480896e-02
1.157000000000000000e+03 7.661581420898437500e+01 -1.453358650207519531e+01 -6.372852623462677002e-02 -1.869135908782482147e-02 -2.472596615552902222e-02 -4.295000061392784119e-02
1.158000000000000000e+03 7.835299682617187500e+01 -1.448472785949707031e+01 -1.661455072462558746e-02 -2.744113653898239136e-02 -1.321670599281787872e-02 -1.295338291674852371e-02
1.159000000000000000e+03 7.939157867431640625e+01 -1.145192337036132812e+01 -9.252096526324748993e-03 -8.119636029005050659e-02 -2.713453583419322968e-02 -3.578953072428703308e-02
1.160000000000000000e+03 7.897619628906250000e+01 -1.437224292755126953e+01 -3.642417956143617630e-03 -8.366990834474563599e-03 -3.602822544053196907e-03 1.031419960781931877e-03
1.161000000000000000e+03 7.964917755126953125e+01 -1.429848194122314453e+01 -1.396881532855331898e-03 1.274225674569606781e-02 3.403612645342946053e-03 -5.149928620085120201e-04
1.162000000000000000e+03 7.489398193359375000e+01 4.016994857788085938e+01 -1.184819266200065613e-01 -4.447701871395111084e-01 -1.689756363630294800e-01 6.791722774505615234e-02
1.163000000000000000e+03 7.872045135498046875e+01 4.002198791503906250e+01 1.469672657549381256e-02 -7.020402550697326660e-01 -2.062030583620071411e-01 5.589023977518081665e-02
1.164000000000000000e+03 7.663076019287109375e+01 3.878362655639648438e+01 -3.418087959289550781e-02 -6.797475218772888184e-01 -2.141785174608230591e-01 1.275604963302612305e-01
1.165000000000000000e+03 7.908920288085937500e+01 3.477539062500000000e+01 -1.639785617589950562e-02 -1.054337143898010254e+00 -3.212204873561859131e-01 7.835297286510467529e-02
1.166000000000000000e+03 7.916278076171875000e+01 2.909414672851562500e+01 -8.428113535046577454e-03 -1.673579931259155273e+00 -5.046023726463317871e-01 1.190610229969024658e-01
1.167000000000000000e+03 7.920603179931640625e+01 2.769596099853515625e+01 7.943453267216682434e-03 -1.878389000892639160e+00 -5.611336231231689453e-01 1.211245879530906677e-01
1.168000000000000000e+03 7.934111785888671875e+01 2.210893058776855469e+01 1.165795885026454926e-02 -2.743551731109619141e+00 -8.195681571960449219e-01 9.721828997135162354e-02
1.169000000000000000e+03 7.806843566894531250e+01 2.060571670532226562e+01 2.915756031870841980e-02 -2.397804498672485352e+00 -7.105941176414489746e-01 2.234053313732147217e-01
1.170000000000000000e+03 7.937397003173828125e+01 1.792637252807617188e+01 1.470245537348091602e-03 -3.232427597045898438e+00 -9.692872166633605957e-01 5.656134337186813354e-02
1.171000000000000000e+03 7.810597991943359375e+01 1.647810745239257812e+01 2.880297973752021790e-02 -2.706972599029541016e+00 -8.034508824348449707e-01 1.056792065501213074e-01
1.172000000000000000e+03 7.936708831787109375e+01 1.093083000183105469e+01 7.956073619425296783e-03 -3.349609375000000000e+00 -1.002496004104614258e+00 -2.572539448738098145e-02
1.173000000000000000e+03 7.809378051757812500e+01 9.497543334960937500e+00 3.337992355227470398e-02 -2.631649971008300781e+00 -7.794810533523559570e-01 -1.348465085029602051e-01
1.174000000000000000e+03 7.807996368408203125e+01 6.703815460205078125e+00 3.109774924814701080e-02 -2.406453847885131836e+00 -7.126067876815795898e-01 -2.140115499496459961e-01
1.175000000000000000e+03 7.936035156250000000e+01 3.928931713104248047e+00 2.096333308145403862e-03 -2.564453601837158203e+00 -7.687072157859802246e-01 -9.340618550777435303e-02
1.176000000000000000e+03 7.808187103271484375e+01 2.511822700500488281e+00 1.651738211512565613e-02 -1.913506627082824707e+00 -5.690968036651611328e-01 -3.052393198013305664e-01
1.177000000000000000e+03 7.938795471191406250e+01 -3.055175781250000000e+00 1.664599170908331871e-03 -1.267568111419677734e+00 -3.797710239887237549e-01 -1.137661412358283997e-01
1.178000000000000000e+03 7.817464447021484375e+01 -4.406466007232666016e+00 -8.388583548367023468e-03 -8.921490907669067383e-01 -2.701613008975982666e-01 -3.145354092121124268e-01
1.179000000000000000e+03 7.819638061523437500e+01 -7.146937370300292969e+00 -2.404911443591117859e-02 -5.186298489570617676e-01 -1.628036946058273315e-01 -2.519166767597198486e-01
1.180000000000000000e+03 7.817332458496093750e+01 -1.121814823150634766e+01 -4.163978993892669678e-02 -1.422312259674072266e-01 -5.516130849719047546e-02 -1.133893281221389771e-01
1.181000000000000000e+03 4.033983051776885986e-01 2.199999094009399414e+00 -5.644877455779351294e-05 -1.117993724619736895e-05 -2.028861308644991368e-05 -4.348333277448546141e-06
1.182000000000000000e+03 5.503841638565063477e-01 5.023370265960693359e+00 -6.547466182382777333e-05 3.386941898497752845e-05 -9.481572305958252400e-06 -7.503936558350687847e-06
1.183000000000000000e+03 1.883896827697753906e+00 6.479883670806884766e+00 -8.208336657844483852e-05 5.045048237661831081e-05 -9.489865988143719733e-06 -1.608819547982420772e-05
1.184000000000000000e+03 1.748505711555480957e+00 9.443713188171386719e+00 -1.308940700255334377e-04 1.478245394537225366e-04 5.079140919406199828e-06 -9.089016384677961469e-05
1.185000000000000000e+03 6.098504066467285156e-01 1.214782524108886719e+01 1.554964401293545961e-04 4.015596059616655111e-04 1.671168138273060322e-04 -5.559451165026985109e-05
1.186000000000000000e+03 1.815642952919006348e+00 1.221507263183593750e+01 -1.293952664127573371e-04 2.694824943318963051e-04 4.202617128612473607e-05 -1.807751978049054742e-04
1.187000000000000000e+03 1.857031583786010742e+00 1.653162193298339844e+01 1.832112902775406837e-04 5.522475694306194782e-04 2.206376666435971856e-04 -2.350064751226454973e-04
1.188000000000000000e+03 1.798194646835327148e+00 1.936582756042480469e+01 1.128781659645028412e-04 6.534734857268631458e-04 2.299054904142394662e-04 -4.469061605050228536e-05
1.189000000000000000e+03 6.137845516204833984e-01 2.205007171630859375e+01 -2.774106687866151333e-04 1.250685541890561581e-03 2.919824910350143909e-04 1.002191638690419495e-04
1.190000000000000000e+03 6.382128596305847168e-01 2.486456489562988281e+01 -2.903665590565651655e-04 9.749198943609371781e-05 -5.786236943094991148e-05 3.821898717433214188e-04
1.191000000000000000e+03 6.529693603515625000e-01 2.627585792541503906e+01 1.271502260351553559e-04 -9.642859222367405891e-04 -2.511407074052840471e-04 5.974994273856282234e-04
1.192000000000000000e+03 6.848458647727966309e-01 2.910334014892578125e+01 1.124797418015077710e-04 -3.990891389548778534e-03 -1.163523527793586254e-03 8.820136426948010921e-04
1.193000000000000000e+03 2.058555364608764648e+00 2.917079734802246094e+01 -4.200566618237644434e-04 -4.738282412290573120e-03 -1.547501771710813046e-03 2.399776130914688110e-03
1.194000000000000000e+03 7.506191134452819824e-01 3.336981201171875000e+01 -7.147121505113318563e-05 -9.880254045128822327e-03 -2.985517494380474091e-03 1.039495808072388172e-03
1.195000000000000000e+03 7.590872645378112793e-01 3.622810363769531250e+01 -1.799038436729460955e-04 -1.314882282167673111e-02 -3.998618107289075851e-03 7.599145174026489258e-04
1.196000000000000000e+03 1.172412157058715820e+00 4.001769256591796875e+01 2.638615551404654980e-04 -1.588471233844757080e-02 -4.686255473643541336e-03 3.165416710544377565e-04
1.197000000000000000e+03 9.659005165100097656e+00 1.830637812614440918e+00 1.916286964842583984e-05 -2.127663174178451300e-05 -6.341289804367988836e-07 1.026343852572608739e-05
1.198000000000000000e+03 8.897505760192871094e+00 1.833582282066345215e+00 4.223006180836819112e-05 1.291568605665815994e-05 1.654372317716479301e-05 -1.743930170050589368e-06
1.199000000000000000e+03 5.078202724456787109e+00 1.885957717895507812e+00 1.084200994228012860e-05 -1.925842479977291077e-05 -2.524924639146775007e-06 -6.688751000183401629e-06
1.200000000000000000e+03 1.985543966293334961e+00 2.114477872848510742e+00 1.561497992952354252e-05 -3.172435390297323465e-05 -4.832811555388616398e-06 1.526072992419358343e-05
1.201000000000000000e+03 1.201475381851196289e+00 2.170817613601684570e+00 1.228697874466888607e-05 3.722773180925287306e-05 1.485441316617652774e-05 -1.365495791105786338e-05
1.202000000000000000e+03 1.123184299468994141e+01 2.486486673355102539e+00 3.661861774162389338e-05 1.503834391769487411e-05 1.549708758830092847e-05 9.124545613303780556e-06
1.203000000000000000e+03 1.262949657440185547e+01 1.833662509918212891e+00 7.756819286441896111e-06 -1.795590105757582933e-05 -3.059724804188590497e-06 1.308841547142947093e-05
1.204000000000000000e+03 1.554965305328369141e+01 1.906263589859008789e+00 -2.714369429668295197e-06 -1.718281237117480487e-05 -5.969154244667151943e-06 5.490358944371109828e-06
1.205000000000000000e+03 1.698744392395019531e+01 2.007601737976074219e+00 -5.836106993228895590e-06 -1.794005765987094492e-05 -7.132849077606806532e-06 1.641406583985371981e-06
1.206000000000000000e+03 1.841435623168945312e+01 2.140777111053466797e+00 -5.580649030889617279e-06 -1.828218410082627088e-05 -7.158849712141091004e-06 7.189424309217429254e-07
1.207000000000000000e+03 2.050310707092285156e+01 2.483593225479125977e+00 5.113130555400857702e-06 1.454470748285530135e-05 5.897351456951582804e-06 -3.196836360075394623e-06
1.208000000000000000e+03 2.119816207885742188e+01 2.605046033859252930e+00 -1.790707244708755752e-07 -1.612577398191206157e-05 -4.891453045274829492e-06 1.649750402066274546e-06
1.209000000000000000e+03 2.292337989807128906e+01 4.062001228332519531e+00 6.752226454409537837e-06 6.428444066841620952e-06 3.954201019951142371e-06 4.692056336352834478e-06
1.210000000000000000e+03 2.320979499816894531e+01 3.811218261718750000e+00 -2.511657112336251885e-05 -4.380267000669846311e-06 -8.849051482684444636e-06 -3.186638878105441108e-06
1.211000000000000000e+03 2.361461067199707031e+01 3.246896266937255859e+00 -7.517047038163582329e-07 -6.730718723702011630e-06 -2.244727056677220389e-06 -5.983361916150897741e-06
1.212000000000000000e+03 2.187351608276367188e+01 2.748576164245605469e+00 -6.931862799319787882e-07 1.359429825242841616e-05 3.870333330269204453e-06 1.834350882745638955e-06
1.213000000000000000e+03 2.206295394897460938e+01 4.849463462829589844e+00 -1.371196049149148166e-05 -2.536265128583181649e-05 -1.172238353319698945e-05 -1.918909583764616400e-05
1.214000000000000000e+03 2.144769287109375000e+01 5.325718402862548828e+00 -1.839765172917395830e-05 -2.881168438761960715e-05 -1.416280065313912928e-05 -1.931870428961701691e-05
1.215000000000000000e+03 2.016192817687988281e+01 6.356461524963378906e+00 -3.711862882482819259e-05 -1.748537215462420136e-05 -1.638120011193677783e-05 -2.046004192379768938e-05
1.216000000000000000e+03 1.985409164428710938e+01 6.619223117828369141e+00 2.475726614648010582e-05 1.117900592362275347e-05 1.078088189387926832e-05 1.968310425581876189e-05
1.217000000000000000e+03 1.870424652099609375e+01 7.748054981231689453e+00 3.589943298720754683e-05 2.127681182173546404e-05 1.715287362458184361e-05 3.316267248010262847e-05
1.218000000000000000e+03 1.784945297241210938e+01 8.598318099975585938e+00 -6.996816955506801605e-05 -1.871731365099549294e-05 -2.660564496181905270e-05 -3.748933886527083814e-05
1.219000000000000000e+03 1.757666969299316406e+01 8.889681816101074219e+00 7.064288365654647350e-05 2.236651380371768028e-05 2.790282087516970932e-05 3.482371175778098404e-05
1.220000000000000000e+03 1.731959152221679688e+01 9.190111160278320312e+00 -6.910812953719869256e-05 -7.665716111660003662e-06 -2.303215478605125099e-05 -3.616819594753906131e-05
1.221000000000000000e+03 1.707723999023437500e+01 9.503215789794921875e+00 6.850756471976637840e-05 3.433807796682231128e-05 3.085369462496601045e-05 2.437933471810538322e-05
1.222000000000000000e+03 1.662589073181152344e+01 1.015234375000000000e+01 7.772290700813755393e-05 7.282864680746570230e-05 4.516546687227673829e-05 2.113029040629044175e-05
1.223000000000000000e+03 1.548680305480957031e+01 1.180706977844238281e+01 -4.949807407683692873e-05 2.699292963370680809e-04 6.612936704186722636e-05 -9.047844650922343135e-05
1.224000000000000000e+03 1.465875720977783203e+01 1.540376758575439453e+01 2.566698822192847729e-04 1.541025587357580662e-03 5.393086466938257217e-04 8.746696403250098228e-05
1.225000000000000000e+03 1.468083572387695312e+01 1.581225395202636719e+01 -2.157451672246679664e-04 1.664309878833591938e-03 4.345694324001669884e-04 1.466256362618878484e-04
1.226000000000000000e+03 1.471963787078857422e+01 1.661336898803710938e+01 -2.869304153136909008e-04 2.057183301076292992e-03 5.310758715495467186e-04 1.654082007007673383e-04
1.227000000000000000e+03 1.475471973419189453e+01 1.818935585021972656e+01 -4.225988814141601324e-04 3.292273031547665596e-03 8.609022479504346848e-04 1.987506984733045101e-04
1.228000000000000000e+03 1.486163520812988281e+01 1.935588264465332031e+01 4.689317138399928808e-04 2.786840079352259636e-03 9.767315350472927094e-04 3.749769530259072781e-04
1.229000000000000000e+03 1.645352554321289062e+01 2.083644104003906250e+01 -1.013621874153614044e-02 -3.365505021065473557e-03 -4.050516989082098007e-03 -4.586581140756607056e-03
1.230000000000000000e+03 1.646257591247558594e+01 2.130438232421875000e+01 -1.670745760202407837e-02 -8.262901101261377335e-04 -5.260123871266841888e-03 -2.961146878078579903e-03
1.231000000000000000e+03 1.708637619018554688e+01 2.134466552734375000e+01 -2.109717205166816711e-02 -3.134885337203741074e-03 -7.269617170095443726e-03 -4.157088696956634521e-03
1.232000000000000000e+03 1.993035697937011719e+01 2.200241279602050781e+01 -4.552625119686126709e-02 8.706563676241785288e-05 -1.363175641745328903e-02 -4.642969928681850433e-03
1.233000000000000000e+03 2.392789459228515625e+01 2.194545364379882812e+01 -9.974687546491622925e-02 -5.137518513947725296e-03 -3.146531805396080017e-02 2.089789137244224548e-02
1.234000000000000000e+03 2.432894897460937500e+01 2.186381530761718750e+01 -1.041678562760353088e-01 -6.537355482578277588e-03 -3.321156278252601624e-02 2.329692617058753967e-02
1.235000000000000000e+03 2.513520240783691406e+01 2.171063423156738281e+01 -1.139130145311355591e-01 -9.199680760502815247e-03 -3.693380951881408691e-02 2.963295020163059235e-02
1.236000000000000000e+03 2.634615516662597656e+01 2.140198326110839844e+01 -1.237457022070884705e-01 -1.425365637987852097e-02 -4.139980673789978027e-02 4.039393737912178040e-02
1.237000000000000000e+03 2.713944244384765625e+01 2.116471672058105469e+01 -1.341100633144378662e-01 -1.716426387429237366e-02 -4.538229852914810181e-02 4.685233905911445618e-02
1.238000000000000000e+03 2.792517852783203125e+01 2.089316177368164062e+01 -1.611465066671371460e-01 -3.677087649703025818e-02 -5.937521532177925110e-02 6.686201691627502441e-02
1.239000000000000000e+03 2.864912223815917969e+01 2.049246406555175781e+01 -1.544194221496582031e-01 -7.500627636909484863e-02 -6.882771104574203491e-02 9.554081410169601440e-02
1.240000000000000000e+03 2.950236320495605469e+01 1.960315704345703125e+01 -7.086578756570816040e-02 -1.056810840964317322e-01 -5.296406149864196777e-02 8.089082688093185425e-02
1.241000000000000000e+03 2.925262832641601562e+01 1.992860412597656250e+01 -1.003188118338584900e-01 -1.069494709372520447e-01 -6.218048557639122009e-02 9.487666189670562744e-02
1.242000000000000000e+03 3.017567253112792969e+01 1.858625984191894531e+01 -3.511319682002067566e-02 -7.832500338554382324e-02 -3.403145819902420044e-02 5.152313411235809326e-02
1.243000000000000000e+03 3.038297843933105469e+01 1.823705863952636719e+01 -3.052387572824954987e-02 -7.381416857242584229e-02 -3.130141273140907288e-02 4.489733278751373291e-02
1.244000000000000000e+03 3.057748603820800781e+01 1.787766647338867188e+01 -2.420046180486679077e-02 -6.806667894124984741e-02 -2.768014185130596161e-02 3.968475386500358582e-02
1.245000000000000000e+03 3.091141319274902344e+01 1.713305664062500000e+01 -1.444997638463973999e-02 -5.392830818891525269e-02 -2.051348611712455750e-02 2.728085033595561981e-02
1.246000000000000000e+03 3.168986701965332031e+01 1.485977458953857422e+01 -3.865537932142615318e-03 -1.742835715413093567e-02 -6.388168781995773315e-03 8.759405463933944702e-03
1.247000000000000000e+03 3.174916648864746094e+01 1.611754608154296875e+01 -1.226582378149032593e-02 -2.793242782354354858e-02 -1.205947529524564743e-02 2.060923725366592407e-02
1.248000000000000000e+03 3.257415390014648438e+01 1.208917331695556641e+01 -1.356080058030784130e-03 1.828854437917470932e-04 -3.519583842717111111e-04 9.847837500274181366e-04
1.249000000000000000e+03 3.263401031494140625e+01 1.169161319732666016e+01 1.237800897797569633e-04 1.301727490499615669e-03 4.276522668078541756e-04 5.720655899494886398e-04
1.250000000000000000e+03 3.292580413818359375e+01 1.011390781402587891e+01 5.826936103403568268e-04 2.931362949311733246e-03 1.054216991178691387e-03 -6.403958541341125965e-04
1.251000000000000000e+03 3.348390197753906250e+01 5.310839653015136719e+00 1.192933763377368450e-03 2.922718995250761509e-04 4.455616872292011976e-04 -1.666198077145963907e-04
1.252000000000000000e+03 3.349417114257812500e+01 4.123331546783447266e+00 -1.589480438269674778e-03 2.527191536501049995e-04 -4.010283737443387508e-04 -2.943012441392056644e-05
1.253000000000000000e+03 3.350678634643554688e+01 3.714609384536743164e+00 1.247014850378036499e-03 -5.878894808120094240e-05 3.564677608665078878e-04 -2.914120559580624104e-04
1.254000000000000000e+03 3.424335479736328125e+01 2.023676395416259766e+00 -1.339868758805096149e-04 5.242452025413513184e-04 1.170775067294016480e-04 -2.321789943380281329e-04
1.255000000000000000e+03 3.343699264526367188e+01 2.092705011367797852e+00 -3.453624667599797249e-04 -3.156995226163417101e-04 -1.983185939025133848e-04 4.975993651896715164e-04
1.256000000000000000e+03 3.358518600463867188e+01 2.327960729598999023e+00 6.661060615442693233e-04 4.580604436341673136e-04 3.372499486431479454e-04 -5.820846999995410442e-04
1.257000000000000000e+03 3.378829956054687500e+01 1.995832800865173340e+00 4.474929592106491327e-04 -5.040506366640329361e-04 -1.696729668765328825e-05 -1.089537545340135694e-04
1.258000000000000000e+03 3.444117355346679688e+01 2.016026973724365234e+00 -3.368377510923892260e-04 -7.636260706931352615e-04 -3.301391552668064833e-04 1.086198317352682352e-04
1.259000000000000000e+03 3.460663986206054688e+01 1.981478571891784668e+00 2.531980862841010094e-04 1.027347821036528330e-06 7.626763544976711273e-05 6.218191992957144976e-05
1.260000000000000000e+03 3.656232833862304688e+01 3.175542593002319336e+00 -4.982786776963621378e-05 -3.576513563530170359e-06 -1.602131487743463367e-05 -2.337442128919064999e-05
1.261000000000000000e+03 3.814510345458984375e+01 2.864442825317382812e+00 8.849622827256098390e-05 -2.665938227437436581e-04 -5.342927761375904083e-05 2.003676781896501780e-04
1.262000000000000000e+03 3.818356704711914062e+01 3.538298606872558594e+00 -2.906942390836775303e-04 -5.926833837293088436e-04 -2.650132810231298208e-04 -1.120618617278523743e-04
1.263000000000000000e+03 3.920153045654296875e+01 4.722391128540039062e+00 -3.498327569104731083e-04 3.368777106516063213e-04 -3.886514150508446619e-06 1.710984361125156283e-04
1.264000000000000000e+03 3.916352462768554688e+01 6.707384109497070312e+00 2.068643458187580109e-03 1.427148701623082161e-03 1.048737671226263046e-03 -6.186203681863844395e-04
1.265000000000000000e+03 4.192843627929687500e+01 1.271757698059082031e+01 -1.642131432890892029e-02 -8.308948948979377747e-03 -7.419079076498746872e-03 -9.402908384799957275e-03
1.266000000000000000e+03 4.265929412841796875e+01 1.511341762542724609e+01 -4.925678297877311707e-02 -2.582175889983773232e-03 -1.555168814957141876e-02 -2.099037915468215942e-02
1.267000000000000000e+03 4.600104522705078125e+01 1.702513504028320312e+01 -9.396611154079437256e-02 -4.382423311471939087e-02 -4.133710265159606934e-02 -5.517584085464477539e-02
1.268000000000000000e+03 4.708816146850585938e+01 1.785082054138183594e+01 -1.136285886168479919e-01 -4.032392054796218872e-02 -4.618575051426887512e-02 -7.649400830268859863e-02
1.269000000000000000e+03 5.060403823852539062e+01 2.007955741882324219e+01 -1.782087534666061401e-01 -5.529024079442024231e-02 -7.004969567060470581e-02 -7.987209409475326538e-02
1.270000000000000000e+03 5.320967864990234375e+01 2.109281921386718750e+01 -4.011701792478561401e-02 -3.568704426288604736e-02 -2.274121902883052826e-02 -6.827648729085922241e-02
1.271000000000000000e+03 5.601367187500000000e+01 2.198418045043945312e+01 4.760605096817016602e-01 8.241648226976394653e-02 1.675430983304977417e-01 -2.395894825458526611e-01
1.272000000000000000e+03 6.260251617431640625e+01 1.508025550842285156e+01 1.567008793354034424e-01 5.639658927917480469e+00 1.738908052444458008e+00 -1.384505331516265869e-01
1.273000000000000000e+03 6.180935287475585938e+01 9.456324577331542969e+00 4.632246792316436768e-01 5.526948928833007812e+00 1.797052145004272461e+00 1.099533200263977051e+00
1.274000000000000000e+03 5.633565139770507812e+01 -6.630921363830566406e-01 1.587129950523376465e+00 2.622454881668090820e+00 1.262875437736511230e+00 1.923131346702575684e+00
1.275000000000000000e+03 4.766211318969726562e+01 -5.104733467102050781e+00 -2.545289278030395508e+00 -4.095985591411590576e-01 -8.864663243293762207e-01 1.130208849906921387e+00
1.276000000000000000e+03 4.494459915161132812e+01 -4.210165977478027344e+00 -4.098251342773437500e+00 -5.041621327400207520e-01 -1.380724072456359863e+00 1.569430470466613770e+00
1.277000000000000000e+03 4.248978042602539062e+01 -3.266864061355590820e+00 -4.956219673156738281e+00 -1.602576017379760742e+00 -1.967638731002807617e+00 2.469973802566528320e+00
1.278000000000000000e+03 3.724699783325195312e+01 -9.886903762817382812e-01 -2.052678823471069336e+00 4.121279716491699219e-01 -4.921652376651763916e-01 4.889194667339324951e-01
1.279000000000000000e+03 3.668637084960937500e+01 -1.692441344261169434e+00 -2.336878299713134766e+00 5.688284039497375488e-01 -5.304149389266967773e-01 4.758642911911010742e-01
1.280000000000000000e+03 3.484522628784179688e+01 -1.276397347450256348e+00 -2.883147239685058594e+00 4.611654877662658691e-01 -7.265945076942443848e-01 -6.665541976690292358e-02
1.281000000000000000e+03 3.422457504272460938e+01 -1.668795108795166016e+00 -3.033939599990844727e+00 2.423609197139739990e-01 -8.374735713005065918e-01 2.268794924020767212e-01
1.282000000000000000e+03 3.132357025146484375e+01 -1.638389348983764648e+00 -3.111196041107177734e+00 3.360587656497955322e-01 -8.325411677360534668e-01 -1.968548148870468140e-01
1.283000000000000000e+03 2.660928153991699219e+01 -2.111270427703857422e+00 -1.918951511383056641e+00 -2.959657609462738037e-01 -6.644752025604248047e-01 -5.765088796615600586e-01
1.284000000000000000e+03 2.276679611206054688e+01 -6.580553054809570312e-01 -8.849689364433288574e-01 1.721214056015014648e-01 -2.138542532920837402e-01 -1.147460862994194031e-01
1.285000000000000000e+03 2.042328453063964844e+01 -1.226032853126525879e+00 -5.878951549530029297e-01 -1.953956671059131622e-02 -1.822304129600524902e-01 -2.428493052721023560e-01
1.286000000000000000e+03 1.728948783874511719e+01 -1.652230143547058105e+00 -2.994439601898193359e-01 -6.540794670581817627e-02 -1.094555780291557312e-01 -2.306822985410690308e-01
1.287000000000000000e+03 1.650874519348144531e+01 -1.699783325195312500e+00 -2.380884587764739990e-01 -6.059483066201210022e-02 -8.960498869419097900e-02 -2.036489248275756836e-01
1.288000000000000000e+03 1.345153331756591797e+01 -1.802649021148681641e+00 -5.558787286281585693e-02 -3.548606485128402710e-02 -2.732218243181705475e-02 -9.812644869089126587e-02
1.289000000000000000e+03 1.497037982940673828e+01 -1.751560688018798828e+00 -1.337559074163436890e-01 -4.807219654321670532e-02 -5.454843118786811829e-02 -1.488202214241027832e-01
1.290000000000000000e+03 1.193551540374755859e+01 -1.840986132621765137e+00 -1.354423468001186848e-03 -2.584205381572246552e-02 -8.158943615853786469e-03 -5.536942183971405029e-02
1.291000000000000000e+03 8.964070320129394531e+00 -2.621331930160522461e+00 1.559652946889400482e-02 -2.529492415487766266e-02 -2.909518312662839890e-03 -5.847804713994264603e-03
1.292000000000000000e+03 8.115758895874023438e+00 -1.878997206687927246e+00 4.946451634168624878e-02 -1.101855654269456863e-02 1.153378840535879135e-02 9.746045805513858795e-03
1.293000000000000000e+03 4.191661357879638672e+00 -1.902454733848571777e+00 2.929149754345417023e-02 3.005070902872830629e-04 8.877601474523544312e-03 2.982336096465587616e-02
1.294000000000000000e+03 2.753174304962158203e+00 -1.823786020278930664e+00 1.743161305785179138e-02 5.814371164888143539e-03 6.973795592784881592e-03 2.523890323936939240e-02
1.295000000000000000e+03 2.039573431015014648e+00 -1.964340686798095703e+00 1.156806387007236481e-02 1.044126786291599274e-02 6.602799519896507263e-03 2.240482158958911896e-02
1.296000000000000000e+03 5.083453655242919922e+00 -4.023893737792968750e+01 5.702221766114234924e-03 -6.173195838928222656e-01 -1.834851950407028198e-01 -3.037542849779129028e-02
1.297000000000000000e+03 9.395653009414672852e-01 -3.870247650146484375e+01 -4.536201246082782745e-03 -8.611223101615905762e-01 -2.596975564956665039e-01 8.615321479737758636e-03
1.298000000000000000e+03 6.415773630142211914e-01 -3.324990463256835938e+01 3.039684146642684937e-03 -8.726202845573425293e-01 -2.608741819858551025e-01 -7.011678535491228104e-03
1.299000000000000000e+03 6.409211754798889160e-01 -3.184729194641113281e+01 1.521468511782586575e-03 -8.513690233230590820e-01 -2.549542784690856934e-01 -1.223431620746850967e-02
1.300000000000000000e+03 6.741208434104919434e-01 -2.904507255554199219e+01 2.357482444494962692e-03 -7.785838842391967773e-01 -2.328679114580154419e-01 -2.170074172317981720e-02
1.301000000000000000e+03 6.991844773292541504e-01 -2.623931884765625000e+01 2.486614743247628212e-03 -6.696634292602539062e-01 -2.001530379056930542e-01 -3.132545948028564453e-02
1.302000000000000000e+03 2.040433406829833984e+00 -2.196387481689453125e+01 5.851570051163434982e-03 -4.076172411441802979e-01 -1.205297037959098816e-01 -1.204602420330047607e-01
1.303000000000000000e+03 2.117481470108032227e+00 -1.908925819396972656e+01 -4.686987493187189102e-03 -2.616140544414520264e-01 -7.989031821489334106e-02 -1.271307170391082764e-01
1.304000000000000000e+03 7.070436477661132812e-01 -1.629292297363281250e+01 -4.570097196847200394e-03 -8.336579799652099609e-02 -2.638076990842819214e-02 -3.758300840854644775e-02
1.305000000000000000e+03 2.021953105926513672e+00 -1.473651599884033203e+01 -1.827636174857616425e-02 -6.975947320461273193e-02 -2.641075104475021362e-02 -8.222841471433639526e-02
1.306000000000000000e+03 1.791895151138305664e+00 -1.193571090698242188e+01 -1.478998176753520966e-02 1.878837123513221741e-02 1.199516933411359787e-03 -3.553570061922073364e-02
1.307000000000000000e+03 5.525899529457092285e-01 -9.264792442321777344e+00 -1.477740705013275146e-03 1.124073937535285950e-01 3.327889740467071533e-02 1.248766493517905474e-04
1.308000000000000000e+03 1.847046256065368652e+00 -5.300759792327880859e+00 -2.886150730773806572e-03 3.962156176567077637e-02 1.102062314748764038e-02 2.660357207059860229e-02
1.309000000000000000e+03 7.966925811767578125e+01 -1.862468528747558594e+01 -5.961966962786391377e-05 4.805259231943637133e-05 -3.470122237558825873e-06 -1.092047750717028975e-05
1.310000000000000000e+03 7.946981811523437500e+01 -2.272479629516601562e+01 1.055293978424742818e-04 4.398160381242632866e-04 1.636036322452127934e-04 -5.958957990515045822e-05
1.311000000000000000e+03 7.839970397949218750e+01 -2.267474365234375000e+01 -1.439333136659115553e-04 2.237453736597672105e-04 2.394362127233762294e-05 -9.927621431415900588e-05
1.312000000000000000e+03 7.941286468505859375e+01 -2.680041313171386719e+01 -1.731191878207027912e-04 4.662144347093999386e-04 8.792857988737523556e-05 7.596257637487724423e-05
1.313000000000000000e+03 7.821469116210937500e+01 -2.671600341796875000e+01 2.131398832716513425e-05 1.277772935281973332e-05 1.022751530399546027e-05 2.163429453503340483e-04
1.314000000000000000e+03 7.943026733398437500e+01 -3.084204101562500000e+01 1.616305380593985319e-04 -8.662999607622623444e-04 -2.114008239004760981e-04 2.821606758516281843e-04
1.315000000000000000e+03 7.826528167724609375e+01 -3.197559547424316406e+01 6.345901056192815304e-05 -1.893653068691492081e-03 -5.490582552738487720e-04 1.079610083252191544e-03
1.316000000000000000e+03 7.939450836181640625e+01 -3.484120941162109375e+01 -2.969744964502751827e-04 -3.811058821156620979e-03 -1.232409966178238392e-03 5.652733962051570415e-04
1.317000000000000000e+03 7.805847167968750000e+01 -3.570657730102539062e+01 -1.938915811479091644e-04 -4.515720531344413757e-03 -1.412883633747696877e-03 1.592967426404356956e-03
1.318000000000000000e+03 7.896054840087890625e+01 -3.875498962402343750e+01 1.882473879959434271e-04 -6.635609082877635956e-03 -1.934208557941019535e-03 5.107625038363039494e-04
1.319000000000000000e+03 7.687066650390625000e+01 -2.006361770629882812e+01 1.453998720535309985e-05 -4.252055805409327149e-05 -8.394170436076819897e-06 -1.153395351138897240e-04
1.320000000000000000e+03 7.710060119628906250e+01 -1.833329010009765625e+01 4.712400186690501869e-05 -2.304516783624421805e-05 7.223650754895061255e-06 -9.058320574695244431e-05
1.321000000000000000e+03 7.645877838134765625e+01 -1.828763771057128906e+01 1.192063937196508050e-04 3.517268487485125661e-05 4.631372212315909564e-05 -1.022419382934458554e-04
1.322000000000000000e+03 7.360674285888671875e+01 -1.822764778137207031e+01 2.369896683376282454e-04 -5.741199129261076450e-05 5.387330384110100567e-05 2.512744140403810889e-05
1.323000000000000000e+03 7.505698394775390625e+01 -1.823551177978515625e+01 1.856665912782773376e-04 -1.539426921226549894e-05 5.108169716550037265e-05 -2.283394496771506965e-05
1.324000000000000000e+03 7.216014099121093750e+01 -1.826204299926757812e+01 2.230082318419590592e-04 -4.650700793717987835e-05 5.295036680763587356e-05 7.451060082530602813e-05
1.325000000000000000e+03 6.989387512207031250e+01 -1.892520332336425781e+01 9.968296944862231612e-05 5.720386252505704761e-05 4.706604886450804770e-05 1.458634214941412210e-04
1.326000000000000000e+03 6.569728088378906250e+01 -2.539194297790527344e+01 -1.380561967380344868e-03 2.157046692445874214e-04 -3.494572010822594166e-04 -6.366730085574090481e-04
1.327000000000000000e+03 6.141683959960937500e+01 -2.906970214843750000e+01 -2.814628928899765015e-02 -1.832574140280485153e-03 -8.993659168481826782e-03 -7.043234072625637054e-03
1.328000000000000000e+03 5.734404373168945312e+01 -3.070049667358398438e+01 -9.739546477794647217e-02 -6.785400211811065674e-03 -3.125425800681114197e-02 4.686507862061262131e-03
1.329000000000000000e+03 5.241690444946289062e+01 -3.278258514404296875e+01 -3.987692669034004211e-02 -5.696457345038652420e-03 -1.367201469838619232e-02 2.416663989424705505e-02
1.330000000000000000e+03 5.284606170654296875e+01 -3.076638412475585938e+01 -1.883593797683715820e-01 -1.110142469406127930e-02 -5.983824282884597778e-02 3.938722237944602966e-02
1.331000000000000000e+03 4.555508804321289062e+01 -2.419100761413574219e+01 3.879945725202560425e-04 4.615534842014312744e-02 1.396300271153450012e-02 -1.414378546178340912e-02
1.332000000000000000e+03 4.503223419189453125e+01 -1.906946563720703125e+01 3.073210455477237701e-02 1.131609380245208740e-01 4.316791146993637085e-02 -3.577320370823144913e-03
1.333000000000000000e+03 4.375218582153320312e+01 -1.791095924377441406e+01 5.611869320273399353e-02 4.389595687389373779e-01 1.485234797000885010e-01 -1.461123377084732056e-01
1.334000000000000000e+03 4.236896896362304688e+01 -1.679426002502441406e+01 1.411925908178091049e-02 1.069651842117309570e+00 3.251313269138336182e-01 -4.461266994476318359e-01
1.335000000000000000e+03 4.165167236328125000e+01 -1.619817352294921875e+01 -3.284519771113991737e-03 1.666950464248657227e+00 4.990997910499572754e-01 -6.972249746322631836e-01
1.336000000000000000e+03 4.095836639404296875e+01 -1.637229537963867188e+01 -3.001136183738708496e-01 2.566476583480834961e+00 6.799089312553405762e-01 -6.318911314010620117e-01
1.337000000000000000e+03 4.110053253173828125e+01 -1.591352272033691406e+01 -5.956079810857772827e-02 2.415073156356811523e+00 7.066537141799926758e-01 -8.235597610473632812e-01
1.338000000000000000e+03 4.093444061279296875e+01 -1.576123619079589844e+01 -1.113638430833816528e-01 2.754503250122070312e+00 7.929418683052062988e-01 -8.940860629081726074e-01
1.339000000000000000e+03 3.947009277343750000e+01 -1.468426609039306641e+01 1.022014990448951721e-01 6.179318904876708984e+00 1.884456157684326172e+00 6.281917095184326172e-01
1.340000000000000000e+03 4.259273910522460938e+01 -1.247203731536865234e+01 3.390745878219604492e+00 -1.263346374034881592e-01 9.793233275413513184e-01 3.022412061691284180e-01
1.341000000000000000e+03 4.339339065551757812e+01 -1.331032085418701172e+01 2.106404781341552734e+00 -1.899375319480895996e-01 5.749402046203613281e-01 -2.260936647653579712e-01
1.342000000000000000e+03 4.360255050659179688e+01 -1.344011497497558594e+01 1.924501538276672363e+00 -1.880418062210083008e-01 5.209379196166992188e-01 -2.368241250514984131e-01
1.343000000000000000e+03 4.489070892333984375e+01 -1.431816101074218750e+01 1.109227061271667480e+00 -2.029972374439239502e-01 2.718689441680908203e-01 -1.219011023640632629e-01
1.344000000000000000e+03 4.594354629516601562e+01 -1.494828891754150391e+01 7.369471192359924316e-01 -1.798494011163711548e-01 1.671293228864669800e-01 -2.648958005011081696e-02
1.345000000000000000e+03 3.478852844238281250e+01 -1.337719535827636719e+01 1.317030787467956543e-01 -2.439594984054565430e+00 -6.923675537109375000e-01 4.742545187473297119e-01
1.346000000000000000e+03 3.541325378417968750e+01 -1.664828491210937500e+01 -2.798642218112945557e-01 -4.949827492237091064e-01 -2.324540913105010986e-01 6.820915937423706055e-01
1.347000000000000000e+03 3.543254470825195312e+01 -1.789935493469238281e+01 5.282877944409847260e-03 1.108113050460815430e+00 3.340187668800354004e-01 3.090823590755462646e-01
1.348000000000000000e+03 3.544256973266601562e+01 -2.194254493713378906e+01 2.590341567993164062e-01 3.559441804885864258e+00 1.145542860031127930e+00 7.344793677330017090e-01
1.349000000000000000e+03 3.567735290527343750e+01 -2.485862541198730469e+01 7.120165824890136719e-01 2.511768817901611328e+00 9.671356081962585449e-01 7.675873637199401855e-01
1.350000000000000000e+03 2.883238601684570312e+01 -2.971566390991210938e+01 6.953619122505187988e-01 2.545831799507141113e-01 2.849835157394409180e-01 3.402531743049621582e-01
1.351000000000000000e+03 2.731919479370117188e+01 -3.003254699707031250e+01 6.017487645149230957e-01 1.892496198415756226e-01 2.372995167970657349e-01 1.709012687206268311e-01
1.352000000000000000e+03 1.623634147644042969e+01 -2.360544586181640625e+01 2.366195768117904663e-01 2.304500490427017212e-01 1.401208937168121338e-01 -2.450845688581466675e-01
1.353000000000000000e+03 1.941548538208007812e+01 -1.142570400238037109e+01 -3.489403724670410156e-01 -1.299923807382583618e-01 -1.436798274517059326e-01 -2.124993950128555298e-01
1.354000000000000000e+03 2.212675857543945312e+01 -1.097706794738769531e+01 5.560008063912391663e-02 -4.681926220655441284e-02 2.634245203807950020e-03 -4.962271079421043396e-02
1.355000000000000000e+03 2.461098289489746094e+01 -1.007625865936279297e+01 3.306726217269897461e-01 -1.100159715861082077e-02 9.590130299329757690e-02 9.069632738828659058e-02
1.356000000000000000e+03 3.523427963256835938e+01 2.208214521408081055e+00 4.655254888348281384e-04 -1.210672198794782162e-04 1.033374865073710680e-04 2.582768138381652534e-05
1.357000000000000000e+03 3.515893936157226562e+01 3.300558090209960938e+00 6.863336311653256416e-04 -5.341263604350388050e-04 4.566219286061823368e-05 -1.858126634033396840e-04
1.358000000000000000e+03 3.320928192138671875e+01 2.507209539413452148e+00 -8.664130000397562981e-04 7.337114311667392030e-06 -2.577227714937180281e-04 1.225674932356923819e-04
1.359000000000000000e+03 3.342111206054687500e+01 1.865080356597900391e+00 3.403466253075748682e-04 -2.252694976050406694e-04 3.452313467278145254e-05 -9.033002424985170364e-05
1.360000000000000000e+03 3.401214981079101562e+01 2.023038625717163086e+00 -4.620362888090312481e-04 -2.107631153194233775e-04 -2.018398226937279105e-04 5.332971340976655483e-04
1.361000000000000000e+03 3.416808319091796875e+01 2.400071144104003906e+00 1.858465548139065504e-04 9.615226881578564644e-04 3.442107699811458588e-04 -3.016252885572612286e-04
1.362000000000000000e+03 3.382684326171875000e+01 2.689237117767333984e+00 -8.638034923933446407e-04 -3.854430979117751122e-04 -3.747739829123020172e-04 4.689647757913917303e-04
1.363000000000000000e+03 4.193885421752929688e+01 -1.644901275634765625e+01 1.483005192130804062e-02 1.370573878288269043e+00 4.156211912631988525e-01 -5.743677616119384766e-01
1.364000000000000000e+03 4.130411529541015625e+01 -1.601307106018066406e+01 -3.376894816756248474e-02 2.091427087783813477e+00 6.172974109649658203e-01 -8.056735992431640625e-01
1.365000000000000000e+03 4.078837966918945312e+01 -1.562086105346679688e+01 -9.460723400115966797e-02 3.056330442428588867e+00 8.885169625282287598e-01 -9.643200039863586426e-01
1.366000000000000000e+03 4.042593002319335938e+01 -1.541132354736328125e+01 -2.100947052240371704e-01 3.829874038696289062e+00 1.085933804512023926e+00 -8.967095613479614258e-01
1.367000000000000000e+03 4.009480285644531250e+01 -1.514451408386230469e+01 -3.019003272056579590e-01 4.826638221740722656e+00 1.357421278953552246e+00 -7.153429388999938965e-01
1.368000000000000000e+03 3.963177490234375000e+01 -1.479810810089111328e+01 -1.809360086917877197e-01 6.121618747711181641e+00 1.782204866409301758e+00 2.502391636371612549e-01
1.369000000000000000e+03 3.924489974975585938e+01 -1.458854484558105469e+01 2.956129908561706543e-01 6.456232070922851562e+00 2.025553464889526367e+00 1.271338105201721191e+00
1.370000000000000000e+03 3.884915924072265625e+01 -1.431938648223876953e+01 1.756790399551391602e+00 5.359859466552734375e+00 2.134994983673095703e+00 1.745516538619995117e+00
1.371000000000000000e+03 3.972741317749023438e+01 -1.513423442840576172e+01 -3.919014334678649902e-01 5.356634616851806641e+00 1.489419937133789062e+00 -6.682813912630081177e-02
1.372000000000000000e+03 3.077288818359375000e+01 -1.642209887504577637e+00 -3.072571277618408203e+00 3.289871215820312500e-01 -8.230752348899841309e-01 -1.595541834831237793e-01
1.373000000000000000e+03 3.021261596679687500e+01 -1.824360251426696777e+00 -2.799004793167114258e+00 2.576107382774353027e-01 -7.624182105064392090e-01 -2.219973355531692505e-01
1.374000000000000000e+03 2.861040496826171875e+01 -1.886194586753845215e+00 -2.598689079284667969e+00 3.111259639263153076e-02 -7.702729701995849609e-01 -3.608543574810028076e-01
1.375000000000000000e+03 2.823898124694824219e+01 -1.993375420570373535e+00 -2.449042558670043945e+00 -1.831040903925895691e-02 -7.402058839797973633e-01 -3.935838043689727783e-01
1.376000000000000000e+03 2.977161979675292969e+01 -1.854933261871337891e+00 -2.693631649017333984e+00 2.147241383790969849e-01 -7.436722517013549805e-01 -2.592202425003051758e-01
1.377000000000000000e+03 2.916138076782226562e+01 -1.816378474235534668e+00 -2.671742200851440430e+00 9.809122979640960693e-02 -7.720952630043029785e-01 -2.961404919624328613e-01
1.378000000000000000e+03 2.880489730834960938e+01 -1.868031144142150879e+00 -2.620132207870483398e+00 4.623149335384368896e-02 -7.721702456474304199e-01 -3.352758288383483887e-01
1.379000000000000000e+03 2.697740745544433594e+01 -2.091817140579223633e+00 -2.085949897766113281e+00 -2.605327069759368896e-01 -7.039448022842407227e-01 -4.923025667667388916e-01
1.380000000000000000e+03 2.639804267883300781e+01 -2.195811510086059570e+00 -1.798737764358520508e+00 -3.318893611431121826e-01 -6.391881704330444336e-01 -6.179530024528503418e-01
1.381000000000000000e+03 2.678781318664550781e+01 -2.082530260086059570e+00 -1.998763084411621094e+00 -3.163743317127227783e-01 -6.945412158966064453e-01 -5.261703133583068848e-01
1.382000000000000000e+03 3.095976638793945312e+01 -1.641557931900024414e+00 -3.056386470794677734e+00 3.060577511787414551e-01 -8.250986337661743164e-01 -1.163249835371971130e-01
1.383000000000000000e+03 2.998638343811035156e+01 -1.839331269264221191e+00 -2.748009920120239258e+00 2.375056445598602295e-01 -7.531512975692749023e-01 -2.319615334272384644e-01
1.384000000000000000e+03 2.759598350524902344e+01 -2.025098085403442383e+00 -2.261644124984741211e+00 -1.408617347478866577e-01 -7.207517623901367188e-01 -4.278186857700347900e-01
1.385000000000000000e+03 2.718266677856445312e+01 -2.086185932159423828e+00 -2.139831781387329102e+00 -2.413903772830963135e-01 -7.143666744232177734e-01 -4.693190753459930420e-01
1.386000000000000000e+03 2.594130325317382812e+01 -2.262044668197631836e+00 -1.679149150848388672e+00 -2.039321660995483398e-01 -5.649244189262390137e-01 -7.272225618362426758e-01
1.387000000000000000e+03 2.652154350280761719e+01 -2.552137374877929688e+00 -1.611586451530456543e+00 -2.748294770717620850e-01 -5.659247636795043945e-01 -6.916568875312805176e-01
1.388000000000000000e+03 4.393177032470703125e+01 -1.367401599884033203e+01 1.655962824821472168e+00 -1.924021840095520020e-01 4.390681982040405273e-01 -2.143760323524475098e-01
1.389000000000000000e+03 4.319761657714843750e+01 -1.319629192352294922e+01 2.312659263610839844e+00 -1.699812859296798706e-01 6.428034305572509766e-01 -2.237031608819961548e-01
1.390000000000000000e+03 4.112662506103515625e+01 -1.175822257995605469e+01 4.114498615264892578e+00 2.683344364166259766e+00 2.039352893829345703e+00 2.319088220596313477e+00
1.391000000000000000e+03 4.124092102050781250e+01 -1.127760696411132812e+01 2.958060979843139648e+00 2.770322322845458984e+00 1.718515038490295410e+00 1.983532071113586426e+00
1.392000000000000000e+03 4.186779403686523438e+01 -1.228435134887695312e+01 4.307961463928222656e+00 4.236163794994354248e-01 1.419473409652709961e+00 8.580431938171386719e-01
1.393000000000000000e+03 4.268250274658203125e+01 -1.288658905029296875e+01 2.962784767150878906e+00 -1.393317878246307373e-01 8.470358848571777344e-01 -1.172450333833694458e-01
1.394000000000000000e+03 4.236055755615234375e+01 -1.263947772979736328e+01 3.545039176940917969e+00 -6.249589100480079651e-02 1.044762969017028809e+00 1.439237892627716064e-01
1.395000000000000000e+03 3.465650939941406250e+01 -1.313172340393066406e+00 -2.976411581039428711e+00 3.891852498054504395e-01 -7.761679291725158691e-01 2.556143514811992645e-02
1.396000000000000000e+03 3.453239822387695312e+01 -1.917769908905029297e+00 -2.695150136947631836e+00 2.968904078006744385e-01 -7.194778919219970703e-01 2.937023341655731201e-01
1.397000000000000000e+03 3.300430679321289062e+01 1.820394873619079590e+00 -4.672720388043671846e-04 -6.011750519974157214e-05 -1.582168624736368656e-04 1.614567008800804615e-04
1.398000000000000000e+03 1.428868770599365234e+01 1.974128723144531250e+01 -2.107881940901279449e-03 1.354429754428565502e-03 -2.260356268379837275e-04 -9.979676688089966774e-04
1.399000000000000000e+03 1.522819805145263672e+01 1.992031478881835938e+01 -1.401142566464841366e-03 1.001282129436731339e-03 -1.199581092805601656e-04 -2.687967498786747456e-04
1.400000000000000000e+03 1.435137748718261719e+01 1.858671188354492188e+01 -2.378576318733394146e-04 2.028163289651274681e-03 5.370917497202754021e-04 3.691417805384844542e-04
1.401000000000000000e+03 1.478999328613281250e+01 1.898084068298339844e+01 -3.006697515957057476e-04 3.784786676988005638e-03 1.045235083438456059e-03 5.780546925961971283e-04
1.402000000000000000e+03 1.553104019165039062e+01 2.015365791320800781e+01 -2.222359180450439453e-03 -3.711736644618213177e-05 -6.778429378755390644e-04 -1.358034554868936539e-03
1.403000000000000000e+03 1.461628723144531250e+01 2.027053260803222656e+01 -4.445899277925491333e-03 1.169793191365897655e-03 -9.828318143263459206e-04 -1.348148682154715061e-03
1.404000000000000000e+03 1.475106811523437500e+01 1.779475212097167969e+01 4.060827195644378662e-04 2.880266169086098671e-03 9.859047131612896919e-04 1.597511582076549530e-04
1.405000000000000000e+03 1.531998062133789062e+01 1.219635200500488281e+01 9.963522461475804448e-05 3.594101872295141220e-04 1.377136213704943657e-04 -3.274623668403364718e-05
1.406000000000000000e+03 1.556059074401855469e+01 1.079709339141845703e+01 6.733851478202268481e-05 1.772875984897837043e-04 7.338783325394615531e-05 1.472159965487662703e-05
1.407000000000000000e+03 2.072910690307617188e+01 2.213656044006347656e+01 -6.159383803606033325e-02 -1.120862318202853203e-03 -1.881440915167331696e-02 -5.407722666859626770e-03
1.408000000000000000e+03 1.471955490112304688e+01 1.458448505401611328e+01 2.845981507562100887e-04 1.176851568743586540e-03 4.384349158499389887e-04 3.044934373974683695e-06
1.409000000000000000e+03 1.500941371917724609e+01 2.038979721069335938e+01 -5.620870739221572876e-03 1.375209772959351540e-03 -1.273698289878666401e-03 -1.717292470857501030e-03
1.410000000000000000e+03 1.625360870361328125e+01 2.102858352661132812e+01 -1.177528593689203262e-02 -6.755974609404802322e-04 -3.735264996066689491e-03 -3.798916935920715332e-03
1.411000000000000000e+03 1.570114612579345703e+01 2.070716476440429688e+01 -7.297895383089780807e-03 9.766187577042728662e-05 -2.160069998353719711e-03 -2.703415695577859879e-03
1.412000000000000000e+03 1.671372795104980469e+01 9.318408012390136719e+00 -7.485690730391070247e-05 2.226448850706219673e-05 -1.577772673044819385e-05 -3.587765968404710293e-05
1.413000000000000000e+03 1.692608833312988281e+01 8.985981941223144531e+00 7.450145494658499956e-05 4.115297997486777604e-05 3.469632792985066772e-05 1.729655741655733436e-05
1.414000000000000000e+03 1.486840248107910156e+01 1.374991607666015625e+01 1.927207631524652243e-04 7.737011183053255081e-04 2.899265673477202654e-04 -2.257890628243330866e-05
1.415000000000000000e+03 1.833615112304687500e+01 2.165596199035644531e+01 -2.996248379349708557e-02 -1.137335202656686306e-03 -9.329945780336856842e-03 -5.425700917840003967e-03
1.416000000000000000e+03 1.518424606323242188e+01 1.260380935668945312e+01 -8.247168443631380796e-05 3.994087164755910635e-04 9.508110815659165382e-05 -9.351166954729706049e-05
1.417000000000000000e+03 1.956501007080078125e+01 6.898266315460205078e+00 -2.602822678454685956e-05 -2.330633287783712149e-05 -1.480036826251307502e-05 -1.631830309634096920e-05
1.418000000000000000e+03 1.466818332672119141e+01 1.499460315704345703e+01 -1.978836953639984131e-04 1.398165593855082989e-03 3.600845811888575554e-04 5.756971222581341863e-05
1.419000000000000000e+03 1.813327789306640625e+01 8.312887191772460938e+00 5.591781882685609162e-05 2.310920172021724284e-05 2.370810580032411963e-05 4.027907198178581893e-05
1.420000000000000000e+03 1.750552940368652344e+01 2.156048583984375000e+01 -2.366951294243335724e-02 -1.030541490763425827e-03 -7.410016376525163651e-03 -4.361679311841726303e-03
1.421000000000000000e+03 1.640316581726074219e+01 1.047372055053710938e+01 -6.331977056106552482e-05 3.660842139652231708e-06 -1.789767884474713355e-05 -8.292226993944495916e-05
1.422000000000000000e+03 1.650571060180664062e+01 9.654618263244628906e+00 7.668397302040830255e-05 6.510847015306353569e-05 4.253773295204155147e-05 1.400660039507783949e-05
1.423000000000000000e+03 2.047148323059082031e+01 6.095442771911621094e+00 3.104484130744822323e-05 1.925056312757078558e-05 1.508862169430358335e-05 3.112985359621234238e-05
1.424000000000000000e+03 2.033091926574707031e+01 2.206659317016601562e+01 -5.163834616541862488e-02 -9.709039586596190929e-04 -1.578277535736560822e-02 -5.308812018483877182e-03
1.425000000000000000e+03 1.927643966674804688e+01 7.182899475097656250e+00 2.637753459566738456e-05 1.445324778615031391e-05 1.224923471454530954e-05 2.895589022955391556e-05
1.426000000000000000e+03 1.911162567138671875e+01 6.548490524291992188e+00 2.731886524998117238e-05 2.889455936383455992e-05 1.686402720224577934e-05 2.301136191817931831e-05
1.427000000000000000e+03 2.304256629943847656e+01 3.029890060424804688e+00 5.789594069938175380e-06 2.100194433296564966e-05 8.037461157073266804e-06 1.813778544601518661e-05
1.428000000000000000e+03 1.630315017700195312e+01 9.983334541320800781e+00 -6.981460319366306067e-05 2.934920848929323256e-05 -1.213961877510882914e-05 -3.395910243852995336e-05
1.429000000000000000e+03 2.229834747314453125e+01 4.015367031097412109e+00 8.500172953063156456e-06 2.051485535048414022e-05 8.704508218215778470e-06 1.066850927600171417e-05
1.430000000000000000e+03 2.182307624816894531e+01 3.235018014907836914e+00 5.720195076719392091e-06 -1.691049328655935824e-05 -3.357089553901460022e-06 -3.225102773285470903e-06
1.431000000000000000e+03 2.341459465026855469e+01 3.542482376098632812e+00 2.206204226240515709e-05 5.156409201845235657e-07 6.773304903617827222e-06 1.308257651544408873e-05
1.432000000000000000e+03 1.535933017730712891e+01 2.054585456848144531e+01 -6.455107592046260834e-03 8.518074755556881428e-04 -1.680990098975598812e-03 -1.535985618829727173e-03
1.433000000000000000e+03 2.176996421813964844e+01 5.099833011627197266e+00 1.807794433261733502e-05 2.552144724177196622e-05 1.307981710851890966e-05 2.170746120100375265e-05
1.434000000000000000e+03 1.434334278106689453e+01 1.820177078247070312e+01 4.666326276492327452e-04 2.180234761908650398e-03 7.940602372400462627e-04 4.394574498292058706e-04
1.435000000000000000e+03 1.426884937286376953e+01 1.705246925354003906e+01 -2.679233730304986238e-04 1.717492821626365185e-03 4.348708316683769226e-04 3.964090719819068909e-04
1.436000000000000000e+03 1.501329994201660156e+01 1.336718273162841797e+01 -1.429034746252000332e-04 5.986465257592499256e-04 1.367229269817471504e-04 -1.279807183891534805e-04
1.437000000000000000e+03 1.989173889160156250e+01 2.253524589538574219e+01 -4.897908866405487061e-02 -2.418213698547333479e-04 -1.476627308875322342e-02 1.289036707021296024e-03
1.438000000000000000e+03 2.176556777954101562e+01 4.557724952697753906e+00 8.316274943354073912e-06 1.961505040526390076e-05 8.379397513635922223e-06 1.954810977622400969e-05
1.439000000000000000e+03 2.108782005310058594e+01 5.538555622100830078e+00 1.597463779035024345e-05 2.548608063079882413e-05 1.243821589014260098e-05 2.308021976205054671e-05
1.440000000000000000e+03 1.795659637451171875e+01 2.160642814636230469e+01 -2.557358145713806152e-02 -7.611267501488327980e-04 -7.900413125753402710e-03 -4.735940601676702499e-03
1.441000000000000000e+03 1.841997528076171875e+01 8.030882835388183594e+00 -5.264940409688279033e-05 -2.631659117469098419e-05 -2.368979949096683413e-05 -3.251640737289562821e-05
1.442000000000000000e+03 1.469634723663330078e+01 1.309306716918945312e+01 -3.149288022541441023e-05 5.636902060359716415e-04 1.596592046553269029e-04 3.404771632631309330e-05
1.443000000000000000e+03 1.474206161499023438e+01 1.740099525451660156e+01 -3.559210454113781452e-04 2.576893894001841545e-03 6.662918603979051113e-04 1.728711358737200499e-04
1.444000000000000000e+03 1.432575702667236328e+01 1.781779479980468750e+01 -3.241096565034240484e-04 2.074910793453454971e-03 5.252403207123279572e-04 4.110470181331038475e-04
1.445000000000000000e+03 1.898579978942871094e+01 7.464416027069091797e+00 -4.203103162581101060e-05 -2.325569039385300130e-05 -1.958601751539390534e-05 -2.185905032092705369e-05
1.446000000000000000e+03 2.075980949401855469e+01 5.802783966064453125e+00 -2.577862505859229714e-05 -2.882208173105027527e-05 -1.638021240069065243e-05 -2.523447255953215063e-05
1.447000000000000000e+03 1.473130416870117188e+01 1.700775146484375000e+01 3.291821922175586224e-04 2.324175788089632988e-03 7.960073417052626610e-04 1.308986247749999166e-04
1.448000000000000000e+03 1.512052726745605469e+01 1.300580883026123047e+01 1.566095452290028334e-04 4.868123214691877365e-04 1.930265570990741253e-04 -3.416018444113433361e-05
1.449000000000000000e+03 1.438092613220214844e+01 1.279661655426025391e+01 -1.127914074459113181e-04 4.913605516776442528e-04 1.135707498178817332e-04 1.994248668779619038e-05
1.450000000000000000e+03 2.823708724975585938e+01 2.132831001281738281e+01 -1.178090572357177734e-01 -5.314999818801879883e-02 -5.128771811723709106e-02 5.844653025269508362e-02
1.451000000000000000e+03 2.829990196228027344e+01 2.071381950378417969e+01 -1.653005331754684448e-01 -5.508273094892501831e-02 -6.611497700214385986e-02 8.165265619754791260e-02
1.452000000000000000e+03 2.313728141784667969e+01 2.205802917480468750e+01 -9.059424698352813721e-02 -3.632189705967903137e-03 -2.826792933046817780e-02 1.835613884031772614e-02
1.453000000000000000e+03 2.317973136901855469e+01 2.253207206726074219e+01 -8.736427873373031616e-02 -6.220176815986633301e-03 -2.807533554732799530e-02 1.928861252963542938e-02
1.454000000000000000e+03 3.286636734008789062e+01 2.080543041229248047e+00 3.837776603177189827e-04 3.217622288502752781e-04 2.116619725711643696e-04 -3.326022706460207701e-04
1.455000000000000000e+03 3.032072257995605469e+01 1.916522407531738281e+01 -5.472293868660926819e-02 -6.752561777830123901e-02 -3.667456656694412231e-02 5.807953327894210815e-02
1.456000000000000000e+03 3.348320007324218750e+01 4.915462493896484375e+00 -1.193603733554482460e-03 1.609519531484693289e-04 -3.097955195698887110e-04 -5.450268145068548620e-05
1.457000000000000000e+03 3.348154067993164062e+01 4.519852161407470703e+00 1.419332344084978104e-03 1.426159142283722758e-04 4.685844760388135910e-04 9.001418948173522949e-05
1.458000000000000000e+03 3.413710021972656250e+01 6.025873184204101562e+00 -1.013419008813798428e-03 1.602450356585904956e-04 -2.559521817602217197e-04 7.000764071563025936e-06
1.459000000000000000e+03 3.079835128784179688e+01 1.847933197021484375e+01 -4.101913794875144958e-02 -5.720412731170654297e-02 -2.946697920560836792e-02 4.628971964120864868e-02
1.460000000000000000e+03 3.105076217651367188e+01 1.674835586547851562e+01 -1.157958153635263443e-02 -4.599718749523162842e-02 -1.727303117513656616e-02 2.166319079697132111e-02
1.461000000000000000e+03 3.262856292724609375e+01 1.394376468658447266e+01 -5.790215451270341873e-03 -7.899574004113674164e-03 -4.106936976313591003e-03 8.872854523360729218e-03
1.462000000000000000e+03 3.245710372924804688e+01 1.291864871978759766e+01 -2.647250890731811523e-03 -3.410899313166737556e-03 -1.817445037886500359e-03 3.094858489930629730e-03
1.463000000000000000e+03 3.390138626098632812e+01 4.865787506103515625e+00 1.142347231507301331e-03 3.163764486089348793e-04 4.376170982141047716e-04 -2.763298689387738705e-04
1.464000000000000000e+03 3.333269119262695312e+01 7.771457195281982422e+00 5.307641185936518013e-05 1.661004615016281605e-03 5.142243462614715099e-04 -3.650341532193124294e-04
1.465000000000000000e+03 2.753502655029296875e+01 2.103822135925292969e+01 -1.478582620620727539e-01 -2.512922510504722595e-02 -5.189624428749084473e-02 5.367386713624000549e-02
1.466000000000000000e+03 3.394533157348632812e+01 5.243898868560791016e+00 -1.177373691461980343e-03 3.049995866604149342e-04 -2.617122372612357140e-04 -6.852596015960443765e-06
1.467000000000000000e+03 3.348879241943359375e+01 5.711493015289306641e+00 -1.097860513255000114e-03 4.791926767211407423e-04 -1.856003364082425833e-04 -9.822304855333641171e-05
1.468000000000000000e+03 3.345365524291992188e+01 6.938028812408447266e+00 7.891377899795770645e-04 1.002070028334856033e-03 5.373623571358621120e-04 -6.229605060070753098e-05
1.469000000000000000e+03 2.353178787231445312e+01 2.200945663452148438e+01 -9.477838128805160522e-02 -4.109642002731561661e-03 -2.966640703380107880e-02 1.924582198262214661e-02
1.470000000000000000e+03 2.995768928527832031e+01 1.892692947387695312e+01 -4.116674140095710754e-02 -8.543270826339721680e-02 -3.797983378171920776e-02 5.793009325861930847e-02
1.471000000000000000e+03 3.100528526306152344e+01 1.913905143737792969e+01 -5.801173299551010132e-02 -4.460589215159416199e-02 -3.078528866171836853e-02 4.921437427401542664e-02
1.472000000000000000e+03 2.524105453491210938e+01 2.226808166503906250e+01 -9.889360517263412476e-02 -1.414285507053136826e-02 -3.391093760728836060e-02 3.238167241215705872e-02
1.473000000000000000e+03 2.568613052368164062e+01 2.218310546875000000e+01 -1.008305102586746216e-01 -1.716982387006282806e-02 -3.540010005235671997e-02 3.512738272547721863e-02
1.474000000000000000e+03 3.270220184326171875e+01 1.129590797424316406e+01 -9.802820859476923943e-04 2.117968862876296043e-03 3.413060039747506380e-04 -1.098706488846801221e-04
1.475000000000000000e+03 2.674332618713378906e+01 2.128504943847656250e+01 -1.264124363660812378e-01 -1.573931798338890076e-02 -4.264552518725395203e-02 4.266717657446861267e-02
1.476000000000000000e+03 3.057397651672363281e+01 1.883524703979492188e+01 -4.668835550546646118e-02 -6.309775263071060181e-02 -3.293583169579505920e-02 5.123439431190490723e-02
1.477000000000000000e+03 2.473225402832031250e+01 2.178556632995605469e+01 -1.088321506977081299e-01 -7.757237646728754044e-03 -3.497681394219398499e-02 2.637082897126674652e-02
1.478000000000000000e+03 3.318731689453125000e+01 8.570378303527832031e+00 9.510597737971693277e-05 2.334221266210079193e-03 7.287982152774930000e-04 -5.859565571881830692e-04
1.479000000000000000e+03 3.153309249877929688e+01 1.522337341308593750e+01 -4.787468351423740387e-03 -2.151670865714550018e-02 -7.891253568232059479e-03 1.008209772408008575e-02
1.480000000000000000e+03 3.185061264038085938e+01 1.449488925933837891e+01 -3.720956388860940933e-03 -1.432643271982669830e-02 -5.414216779172420502e-03 6.869158241897821426e-03
1.481000000000000000e+03 3.199255752563476562e+01 1.411709880828857422e+01 -2.461204072460532188e-03 -1.138750184327363968e-02 -4.154611844569444656e-03 6.172321271151304245e-03
1.482000000000000000e+03 3.117748641967773438e+01 1.636091995239257812e+01 -8.108491078019142151e-03 -3.830866515636444092e-02 -1.392514631152153015e-02 1.771186478435993195e-02
1.483000000000000000e+03 3.129460716247558594e+01 1.597519493103027344e+01 -6.791621912270784378e-03 -3.170578554272651672e-02 -1.154922228306531906e-02 1.422031875699758530e-02
1.484000000000000000e+03 3.298586273193359375e+01 9.725083351135253906e+00 -6.354501965688541532e-05 2.988494234159588814e-03 8.774847956374287605e-04 -5.292766145430505276e-04
1.485000000000000000e+03 3.304151535034179688e+01 9.338384628295898438e+00 9.034112736117094755e-05 2.915591932833194733e-03 9.017799166031181812e-04 -5.791367730125784874e-04
1.486000000000000000e+03 3.392999649047851562e+01 4.155663013458251953e+00 7.129224832169711590e-04 -4.538581415545195341e-04 7.771930540911853313e-05 4.513426392804831266e-04
1.487000000000000000e+03 3.386304473876953125e+01 9.286029815673828125e+00 3.632848092820495367e-04 1.274903770536184311e-03 4.914565943181514740e-04 -7.213074713945388794e-04
1.488000000000000000e+03 3.346917343139648438e+01 9.374956130981445312e+00 3.039307011931668967e-05 1.402178546413779259e-03 4.297714913263916969e-04 -5.353642627596855164e-04
1.489000000000000000e+03 3.311267471313476562e+01 8.955312728881835938e+00 1.289795181946828961e-04 2.723682438954710960e-03 8.557986002415418625e-04 -6.773851928301155567e-04
1.490000000000000000e+03 3.346904373168945312e+01 9.734381675720214844e+00 2.906349836848676205e-04 1.535125426016747952e-03 5.477281520143151283e-04 -6.562345661222934723e-04
1.491000000000000000e+03 3.277798461914062500e+01 1.090092182159423828e+01 6.599877378903329372e-04 2.535839332267642021e-03 9.587481617927551270e-04 -2.089779736706987023e-04
1.492000000000000000e+03 3.140475845336914062e+01 1.559476852416992188e+01 -5.148908589035272598e-03 -2.628690004348754883e-02 -9.430742822587490082e-03 1.222004555165767670e-02
1.493000000000000000e+03 3.231191635131835938e+01 1.333518028259277344e+01 -1.797039061784744263e-03 -5.456284154206514359e-03 -2.175997011363506317e-03 4.432789981365203857e-03
1.494000000000000000e+03 3.212713623046875000e+01 1.372718238830566406e+01 -2.571194199845194817e-03 -8.450544439256191254e-03 -3.306521568447351456e-03 4.962617531418800354e-03
1.495000000000000000e+03 4.208377456665039062e+01 -1.714873313903808594e+01 -8.894740045070648193e-02 1.358025074005126953e+00 3.807232975959777832e-01 -4.247941076755523682e-01
1.496000000000000000e+03 4.281982803344726562e+01 -1.715394783020019531e+01 1.073447242379188538e-02 8.052193522453308105e-01 2.447861582040786743e-01 -3.209132850170135498e-01
1.497000000000000000e+03 4.290672302246093750e+01 -1.793651771545410156e+01 -1.146034058183431625e-02 8.488810062408447266e-01 2.512262165546417236e-01 -2.318619936704635620e-01
1.498000000000000000e+03 4.248971939086914062e+01 -1.753141403198242188e+01 -4.282535240054130554e-02 1.090123653411865234e+00 3.141894936561584473e-01 -3.275516629219055176e-01
1.499000000000000000e+03 4.649044036865234375e+01 -1.531570911407470703e+01 5.997402667999267578e-01 -1.322390288114547729e-01 1.402503699064254761e-01 1.234044507145881653e-02
1.500000000000000000e+03 4.585659790039062500e+01 -1.354800891876220703e+01 1.165230035781860352e+00 -3.743326663970947266e-01 2.372692078351974487e-01 1.906294524669647217e-01
1.501000000000000000e+03 4.570240783691406250e+01 -1.409813785552978516e+01 1.062067031860351562e+00 -2.990614771842956543e-01 2.289016842842102051e-01 5.913657695055007935e-02
1.502000000000000000e+03 4.541046142578125000e+01 -1.463067817687988281e+01 8.785001039505004883e-01 -1.916990876197814941e-01 2.060403078794479370e-01 -6.248765811324119568e-02
1.503000000000000000e+03 4.468102264404296875e+01 -1.362088871002197266e+01 1.488571047782897949e+00 -3.184702992439270020e-01 3.510302305221557617e-01 -2.386323548853397369e-02
1.504000000000000000e+03 4.633789062500000000e+01 -1.430814933776855469e+01 8.583250045776367188e-01 -2.586235105991363525e-01 1.799104511737823486e-01 1.080986782908439636e-01
1.505000000000000000e+03 4.315519714355468750e+01 -1.275975036621093750e+01 2.687609672546386719e+00 -2.668847739696502686e-01 7.262175083160400391e-01 4.491696506738662720e-02
1.506000000000000000e+03 4.427338027954101562e+01 -1.334060192108154297e+01 1.723894953727722168e+00 -3.251410722732543945e-01 4.196261763572692871e-01 -2.060376480221748352e-02
1.507000000000000000e+03 7.717411041259765625e+01 -1.460904026031494141e+01 -4.774963110685348511e-02 -1.800103299319744110e-02 -1.972519978880882263e-02 -3.283292055130004883e-02
1.508000000000000000e+03 7.754116821289062500e+01 -1.388318061828613281e+01 -5.698405951261520386e-02 -3.425936773419380188e-02 -2.737302705645561218e-02 -4.289655759930610657e-02
1.509000000000000000e+03 7.782945251464843750e+01 -1.236654186248779297e+01 -4.309093952178955078e-02 -7.663523405790328979e-02 -3.591785207390785217e-02 -8.102202415466308594e-02
1.510000000000000000e+03 7.775012207031250000e+01 -1.455857467651367188e+01 -2.665977552533149719e-02 -1.673086173832416534e-02 -1.301719062030315399e-02 -2.272132597863674164e-02
1.511000000000000000e+03 7.765454864501953125e+01 -1.929879570007324219e+01 -4.431279739947058260e-05 3.516652577673085034e-05 -2.743881623246124946e-06 -9.145511285169050097e-05
1.512000000000000000e+03 7.837373352050781250e+01 -1.843419265747070312e+01 -9.315051556768594310e-07 3.359885158715769649e-05 9.800203770282678306e-06 -8.641069871373474598e-05
1.513000000000000000e+03 7.948980712890625000e+01 -2.132482910156250000e+01 -8.234256529249250889e-05 3.101908077951520681e-04 6.835447129560634494e-05 -3.647791891125962138e-05
1.514000000000000000e+03 2.249136543273925781e+01 2.873288869857788086e+00 7.012280548224225640e-06 -1.489807436882983893e-05 -2.365738055232213810e-06 -1.021629395836498588e-05
1.515000000000000000e+03 2.199383354187011719e+01 4.270191192626953125e+00 -8.432044523942749947e-06 -2.609304465295281261e-05 -1.035752666211919859e-05 -1.016522219288162887e-05
1.516000000000000000e+03 4.051301574707031250e+01 -6.013795137405395508e-01 -4.403328001499176025e-01 -1.084583759307861328e+00 -4.574749767780303955e-01 6.460357904434204102e-01
1.517000000000000000e+03 4.000291061401367188e+01 -6.655244231224060059e-01 -9.945013523101806641e-01 -4.049104750156402588e-01 -4.198235571384429932e-01 8.319039940834045410e-01
1.518000000000000000e+03 3.864493942260742188e+01 -7.863762378692626953e-01 -1.667985081672668457e+00 2.004707604646682739e-01 -4.402543008327484131e-01 7.288153171539306641e-01
1.519000000000000000e+03 4.100725173950195312e+01 -2.247558593750000000e+00 -2.882067441940307617e+00 -1.530328750610351562e+00 -1.323718905448913574e+00 1.854179978370666504e+00
1.520000000000000000e+03 3.905748748779296875e+01 -1.684330344200134277e+00 -2.114005804061889648e+00 1.533439010381698608e-01 -5.881986021995544434e-01 1.058024764060974121e+00
1.521000000000000000e+03 6.904804992675781250e+01 -1.330129432678222656e+01 -6.759560704231262207e-01 1.078381985425949097e-01 -1.704353541135787964e-01 2.427636273205280304e-02
1.522000000000000000e+03 7.046166229248046875e+01 -1.385559368133544922e+01 -4.233275055885314941e-01 8.769001811742782593e-02 -1.006912514567375183e-01 -1.387874782085418701e-02
1.523000000000000000e+03 6.830300140380859375e+01 -1.402173042297363281e+01 -5.714859366416931152e-01 4.574896395206451416e-02 -1.577210873365402222e-01 1.514178961515426636e-01
1.524000000000000000e+03 2.045548248291015625e+01 3.056057214736938477e+00 -5.505692570295650512e-06 -1.857176357589196414e-05 -7.223236934805754572e-06 8.562191169403376989e-07
1.525000000000000000e+03 1.769883155822753906e+01 2.641698837280273438e+00 -7.768057002977002412e-06 -1.520189107395708561e-05 -6.890984423080226406e-06 2.039024820987833664e-06
1.526000000000000000e+03 1.911441802978515625e+01 2.234699487686157227e+00 7.126539458113256842e-06 1.865628109953831881e-05 7.734845894447062165e-06 -2.656251581356627867e-06
1.527000000000000000e+03 2.116916084289550781e+01 3.178635120391845703e+00 -2.733434712354210205e-06 1.366435571981128305e-05 3.279276143075549044e-06 -7.690101710977614857e-07
1.528000000000000000e+03 1.975756454467773438e+01 5.991830348968505859e+00 3.143234425806440413e-05 8.929077011998742819e-06 1.210842583532212302e-05 2.017805854848120362e-05
1.529000000000000000e+03 7.072531127929687500e+01 -1.830630302429199219e+01 1.749956572894006968e-04 4.876075763604603708e-06 5.396151755121536553e-05 9.600749763194471598e-05
1.530000000000000000e+03 6.997326660156250000e+01 -1.831193923950195312e+01 6.735021452186629176e-05 2.805627900670515373e-06 2.104675331793259829e-05 1.590094325365498662e-04
1.531000000000000000e+03 7.063475036621093750e+01 -1.918290901184082031e+01 4.512017039814963937e-05 -2.344239874219056219e-05 6.503331860585603863e-06 2.028457674896344543e-04
1.532000000000000000e+03 7.025769805908203125e+01 -2.011844635009765625e+01 2.343781525269150734e-04 -4.342766624176874757e-05 5.728514588554389775e-05 8.783735393080860376e-05
1.533000000000000000e+03 1.770247268676757812e+01 2.071407318115234375e+00 6.594442766072461382e-06 2.073866926366463304e-05 8.199933290597982705e-06 -9.888605063679278828e-07
1.534000000000000000e+03 1.557782554626464844e+01 2.496135473251342773e+00 1.249681918125133961e-05 2.326232606719713658e-05 1.072774375643348321e-05 3.201133495167596266e-06
1.535000000000000000e+03 1.839465713500976562e+01 2.713665723800659180e+00 1.021773732645669952e-05 1.858900759543757886e-05 8.642023203719872981e-06 -3.149182930428651161e-06
1.536000000000000000e+03 1.628870201110839844e+01 2.530564069747924805e+00 -6.377703812177060172e-06 -1.430397242074832320e-05 -6.204502824402879924e-06 5.281911853671772406e-06
1.537000000000000000e+03 3.642444229125976562e+01 3.777843236923217773e+00 2.528770710341632366e-04 -4.437249153852462769e-04 -5.725435039494186640e-05 -1.813763992686290294e-05
1.538000000000000000e+03 3.586938476562500000e+01 2.948379516601562500e+00 4.038110491819679737e-04 -2.536272222641855478e-04 4.505514880293048918e-05 -3.645146716735325754e-05
1.539000000000000000e+03 3.464480209350585938e+01 2.210976839065551758e+00 -8.687515510246157646e-04 1.765433844411745667e-04 -2.076624514302238822e-04 -2.904846624005585909e-04
1.540000000000000000e+03 1.348712253570556641e+01 3.096231222152709961e+00 2.601685264380648732e-05 2.133978341589681804e-05 1.420699118170887232e-05 9.479111213295254856e-06
1.541000000000000000e+03 1.482169628143310547e+01 1.880965948104858398e+00 1.153657740360358730e-05 2.308206421730574220e-05 1.038559275912120938e-05 4.853422979067545384e-06
1.542000000000000000e+03 1.196435356140136719e+01 2.480880737304687500e+00 9.617330761102493852e-06 -1.715167309157550335e-05 -2.260302380818757229e-06 1.897036963782738894e-05
1.543000000000000000e+03 1.486186122894287109e+01 2.477945089340209961e+00 -2.112300990120274946e-06 -1.362118837278103456e-05 -4.720046945294598117e-06 1.138051902671577409e-05
1.544000000000000000e+03 7.434609222412109375e+01 -1.908719635009765625e+01 2.104440936818718910e-04 -7.812838885001838207e-05 3.969471435993909836e-05 8.781959763837221544e-07
1.545000000000000000e+03 7.362544250488281250e+01 -1.911936187744140625e+01 3.495814235066063702e-05 -1.247702602995559573e-04 -2.694363502087071538e-05 -4.174634887021966279e-05
1.546000000000000000e+03 7.504507446289062500e+01 -1.904640007019042969e+01 6.382502033375203609e-05 -1.184779102914035320e-04 -1.639586844248697162e-05 -1.431093987775966525e-04
1.547000000000000000e+03 1.189046382904052734e+01 1.832457423210144043e+00 2.707997737161349505e-05 1.860912379925139248e-05 1.370672998746158555e-05 8.223471013479866087e-06
1.548000000000000000e+03 1.355947399139404297e+01 3.718685150146484375e+00 -1.635510102460102644e-06 -6.918099643371533602e-06 -2.566082912380807102e-06 2.791215410979930311e-05
1.549000000000000000e+03 1.269590854644775391e+01 2.474896430969238281e+00 2.703579957596957684e-05 1.905668068502563983e-05 1.382774371450068429e-05 9.528129339742008597e-06
1.550000000000000000e+03 1.136099243164062500e+01 -3.285688638687133789e+00 -4.000798985362052917e-02 -6.388702988624572754e-02 -3.116850554943084717e-02 -7.345582544803619385e-02
1.551000000000000000e+03 1.126352596282958984e+01 -2.573990106582641602e+00 -1.583318039774894714e-02 -3.999531641602516174e-02 -1.674854941666126251e-02 -5.560591816902160645e-02
1.552000000000000000e+03 1.277326393127441406e+01 -2.497246026992797852e+00 -5.293837562203407288e-02 -5.291512235999107361e-02 -3.175605088472366333e-02 -1.014487743377685547e-01
1.553000000000000000e+03 9.657134056091308594e+00 -1.872675776481628418e+00 4.131917282938957214e-02 -1.591838337481021881e-02 7.620236370712518692e-03 -1.053318846970796585e-02
1.554000000000000000e+03 7.281385803222656250e+01 -1.442863559722900391e+01 -2.311281561851501465e-01 1.991014368832111359e-02 -6.336539983749389648e-02 -6.078874319791793823e-02
1.555000000000000000e+03 7.510736846923828125e+01 -1.371093845367431641e+01 -1.534621715545654297e-01 -2.039828523993492126e-02 -5.215813592076301575e-02 -1.049495413899421692e-01
1.556000000000000000e+03 7.588265228271484375e+01 -1.362555885314941406e+01 -1.082700043916702271e-01 -3.128094598650932312e-02 -4.186528548598289490e-02 -9.484668821096420288e-02
1.557000000000000000e+03 7.667553710937500000e+01 -1.332540702819824219e+01 -8.945137262344360352e-02 -5.002944543957710266e-02 -4.184424504637718201e-02 -8.543451130390167236e-02
1.558000000000000000e+03 1.432533264160156250e+01 -3.123788118362426758e+00 -1.181121468544006348e-01 -9.623824059963226318e-02 -6.430511921644210815e-02 -1.868938803672790527e-01
1.559000000000000000e+03 1.352606487274169922e+01 -2.466907501220703125e+00 -7.847566157579421997e-02 -6.044204533100128174e-02 -4.167531058192253113e-02 -1.290812492370605469e-01
1.560000000000000000e+03 1.427158641815185547e+01 -2.444088220596313477e+00 -1.082036495208740234e-01 -6.708838045597076416e-02 -5.258760601282119751e-02 -1.568659842014312744e-01
1.561000000000000000e+03 1.576802158355712891e+01 -2.417822360992431641e+00 -1.808313429355621338e-01 -8.353930711746215820e-02 -7.931119203567504883e-02 -2.187960147857666016e-01
1.562000000000000000e+03 6.757704734802246094e+00 2.552443027496337891e+00 5.265183426672592759e-05 8.439457815256901085e-06 1.832738780649378896e-05 -1.730996154947206378e-05
1.563000000000000000e+03 7.370769023895263672e+00 1.843847036361694336e+00 4.473347144084982574e-05 1.311702271777903661e-05 1.735514888423494995e-05 -9.543001397105399519e-06
1.564000000000000000e+03 5.259035587310791016e+00 2.638297796249389648e+00 4.378430094220675528e-05 8.678225640323944390e-06 1.573875852045603096e-05 -2.439277704979758710e-05
1.565000000000000000e+03 9.011068344116210938e+00 2.505032539367675781e+00 1.972794962057378143e-05 -2.564055102993734181e-05 -1.773780354596965481e-06 1.131745921156834811e-05
1.566000000000000000e+03 3.538150072097778320e+00 1.976188778877258301e+00 1.442911798221757635e-05 -2.040693289018236101e-05 -1.793344608813640662e-06 -5.730336397391511127e-06
1.567000000000000000e+03 3.323219776153564453e+00 4.035792827606201172e+00 4.674951014749240130e-06 -2.677718384802574292e-06 5.991698230900510680e-07 -4.568122312775813043e-05
1.568000000000000000e+03 6.010976314544677734e+00 2.581668615341186523e+00 1.169680854218313470e-05 -1.999801861529704183e-05 -2.490362930984701961e-06 -3.966482381656533107e-06
1.569000000000000000e+03 1.349649190902709961e+00 3.520886659622192383e+00 -2.736728129093535244e-05 -1.184093548545206431e-06 -8.565412827010732144e-06 1.420991884515387937e-05
1.570000000000000000e+03 1.049739170074462891e+01 2.490372180938720703e+00 1.604624958417844027e-05 -2.209399281127844006e-05 -1.814322558857384138e-06 1.709976277197711170e-05
1.571000000000000000e+03 9.757301330566406250e+00 2.495215177536010742e+00 4.513682506512850523e-05 1.136511582444654778e-05 1.695058199402410537e-05 3.199627826688811183e-06
1.572000000000000000e+03 1.050219440460205078e+01 -2.602458238601684570e+00 -2.056556520983576775e-03 -3.522197157144546509e-02 -1.118355803191661835e-02 -3.712664917111396790e-02
1.573000000000000000e+03 6.560021400451660156e+00 -1.897190213203430176e+00 4.601263999938964844e-02 -5.948889534920454025e-03 1.201912574470043182e-02 2.302659675478935242e-02
1.574000000000000000e+03 5.780606269836425781e+00 -1.904570817947387695e+00 4.144082963466644287e-02 -3.729481482878327370e-03 1.131340395659208298e-02 2.719957567751407623e-02
1.575000000000000000e+03 7.485579490661621094e+00 -3.377587080001831055e+00 5.093842046335339546e-04 -2.486164122819900513e-02 -7.305677048861980438e-03 1.310175936669111252e-02
1.576000000000000000e+03 4.209719181060791016e+00 -2.649348020553588867e+00 1.759917475283145905e-02 6.318283267319202423e-04 5.469301249831914902e-03 3.406606614589691162e-02
1.577000000000000000e+03 7.404777526855468750e+00 -2.646553516387939453e+00 2.267123758792877197e-02 -1.660188660025596619e-02 1.820805133320391178e-03 1.621801406145095825e-02
1.578000000000000000e+03 4.119053840637207031e+00 -3.311311721801757812e+00 8.932227268815040588e-03 1.624173251911997795e-03 3.166920272633433342e-03 3.654418513178825378e-02
1.579000000000000000e+03 8.189535140991210938e+00 -2.627091884613037109e+00 2.043748460710048676e-02 -2.030775137245655060e-02 3.891976666636765003e-05 7.049006875604391098e-03
1.580000000000000000e+03 6.606771945953369141e+00 -2.684554338455200195e+00 2.276692353188991547e-02 -1.212745439261198044e-02 3.191841067746281624e-03 2.487265318632125854e-02
1.581000000000000000e+03 2.982418060302734375e+00 -3.500348329544067383e+00 5.859566386789083481e-03 1.159592811018228531e-02 5.236648488789796829e-03 3.421114385128021240e-02
1.582000000000000000e+03 6.295429468154907227e-01 -5.053132057189941406e+00 -1.190080773085355759e-03 6.263630092144012451e-02 1.843386515974998474e-02 1.208038814365863800e-02
1.583000000000000000e+03 3.195384788513183594e+01 -1.986912608146667480e+00 -2.882453441619873047e+00 -5.463913548737764359e-03 -8.663751482963562012e-01 -3.696309626102447510e-01
1.584000000000000000e+03 3.114943504333496094e+01 -1.622536659240722656e+00 -3.148087978363037109e+00 3.202109634876251221e-01 -8.483631014823913574e-01 -1.846832931041717529e-01
1.585000000000000000e+03 3.284953308105468750e+01 -2.398113250732421875e+00 -2.335755586624145508e+00 -3.781390190124511719e-01 -8.141683936119079590e-01 -1.169135496020317078e-01
1.586000000000000000e+03 3.462999343872070312e+01 -2.967995405197143555e+00 -2.081741809844970703e+00 3.343556523323059082e-01 -5.242158770561218262e-01 3.754201531410217285e-01
1.587000000000000000e+03 3.301872634887695312e+01 -3.640590667724609375e+00 -1.388518691062927246e+00 6.090700998902320862e-02 -3.982834815979003906e-01 -1.385791413486003876e-02
1.588000000000000000e+03 3.585687255859375000e+01 -1.267094016075134277e+00 -2.448473930358886719e+00 4.065550267696380615e-01 -6.125757098197937012e-01 1.758185029029846191e-01
1.589000000000000000e+03 3.523449325561523438e+01 -1.528513073921203613e+00 -2.647683143615722656e+00 4.736402332782745361e-01 -6.522128582000732422e-01 1.859244555234909058e-01
1.590000000000000000e+03 3.483413696289062500e+01 -2.034538745880126953e+00 -2.613926410675048828e+00 4.328886270523071289e-01 -6.543113589286804199e-01 2.873066663742065430e-01
1.591000000000000000e+03 1.815866851806640625e+01 -2.395494699478149414e+00 -3.297707140445709229e-01 -9.041223675012588501e-02 -1.260548830032348633e-01 -3.131141066551208496e-01
1.592000000000000000e+03 1.733689117431640625e+01 -3.202915668487548828e+00 -2.415946871042251587e-01 -1.254444867372512817e-01 -1.101117506623268127e-01 -3.273960947990417480e-01
1.593000000000000000e+03 1.654424858093261719e+01 -2.424151659011840820e+00 -2.256413251161575317e-01 -9.048842638731002808e-02 -9.483892470598220825e-02 -2.546397149562835693e-01
1.594000000000000000e+03 1.734155654907226562e+01 -2.425515174865722656e+00 -2.740156054496765137e-01 -9.436308592557907104e-02 -1.105136051774024963e-01 -2.853781878948211670e-01
1.595000000000000000e+03 3.830652999877929688e+01 -1.330302619934082031e+01 4.410798549652099609e+00 3.300459861755371094e+00 2.313377618789672852e+00 6.794981956481933594e-01
1.596000000000000000e+03 3.948072814941406250e+01 -1.084091663360595703e+01 1.705295681953430176e+00 4.356072902679443359e+00 1.818410515785217285e+00 -5.824831128120422363e-01
1.597000000000000000e+03 3.887068939208984375e+01 -1.104422760009765625e+01 2.095466613769531250e+00 3.981976985931396484e+00 1.823233127593994141e+00 -1.314460277557373047e+00
1.598000000000000000e+03 3.848396301269531250e+01 -1.195297813415527344e+01 3.881354808807373047e+00 3.743112802505493164e+00 2.287340164184570312e+00 -1.668596148490905762e+00
1.599000000000000000e+03 3.588557815551757812e+01 -1.562407875061035156e+01 -2.024274468421936035e-01 -2.496813237667083740e-01 -1.356326341629028320e-01 1.071415305137634277e+00
1.600000000000000000e+03 3.868143463134765625e+01 -1.035055160522460938e+01 1.402950167655944824e+00 3.183467149734497070e+00 1.375925183296203613e+00 -1.280277252197265625e+00
1.601000000000000000e+03 7.124188995361328125e+01 -1.451699829101562500e+01 -2.928773462772369385e-01 5.155476555228233337e-02 -7.239677011966705322e-02 -1.079139672219753265e-02
1.602000000000000000e+03 7.201369476318359375e+01 -1.376048374176025391e+01 -3.353165090084075928e-01 5.821798369288444519e-02 -8.312955498695373535e-02 -8.148398995399475098e-02
1.603000000000000000e+03 7.122994232177734375e+01 -1.381261157989501953e+01 -3.850523531436920166e-01 6.464151293039321899e-02 -9.612325578927993774e-02 -6.423761695623397827e-02
1.604000000000000000e+03 7.358042144775390625e+01 -1.367952728271484375e+01 -2.364782541990280151e-01 1.510607358068227768e-02 -6.641165167093276978e-02 -1.059402450919151306e-01
1.605000000000000000e+03 2.196290397644042969e+01 -8.773947954177856445e-01 -7.745583057403564453e-01 9.859791398048400879e-02 -2.027881145477294922e-01 -1.703573912382125854e-01
1.606000000000000000e+03 2.207145500183105469e+01 -1.444060564041137695e+00 -7.906507253646850586e-01 1.072079539299011230e-01 -2.050328254699707031e-01 -2.642131745815277100e-01
1.607000000000000000e+03 2.359350776672363281e+01 -1.055041432380676270e+00 -1.141756892204284668e+00 2.325680404901504517e-01 -2.727566659450531006e-01 -1.878040581941604614e-01
1.608000000000000000e+03 1.979351806640625000e+01 -2.120306491851806641e+00 -4.738553762435913086e-01 -5.175963789224624634e-02 -1.576845049858093262e-01 -3.306866884231567383e-01
1.609000000000000000e+03 2.057876586914062500e+01 -1.923704743385314941e+00 -5.751497149467468262e-01 -8.473034948110580444e-03 -1.750868260860443115e-01 -3.211974501609802246e-01
1.610000000000000000e+03 2.684738349914550781e+01 -3.060477018356323242e+00 -1.297507524490356445e+00 -1.630719900131225586e-01 -4.381738603115081787e-01 -7.355640530586242676e-01
1.611000000000000000e+03 6.976549530029296875e+01 -2.122982025146484375e+01 -7.058395567582920194e-06 1.523600258224178106e-05 2.453282149872393347e-06 2.759597264230251312e-04
1.612000000000000000e+03 6.867457580566406250e+01 -2.061470031738281250e+01 1.407740637660026550e-04 4.146729770582169294e-04 1.666341122472658753e-04 1.889608538476750255e-04
1.613000000000000000e+03 4.533528137207031250e+01 -2.151819801330566406e+01 -1.354351826012134552e-02 1.636985503137111664e-02 8.479011594317853451e-04 -1.367754023522138596e-02
1.614000000000000000e+03 4.389363479614257812e+01 -2.085907173156738281e+01 -2.903660386800765991e-02 5.187997817993164062e-01 1.469289511442184448e-01 -1.602789387106895447e-02
1.615000000000000000e+03 4.496232604980468750e+01 -2.046399497985839844e+01 -2.307369373738765717e-03 1.214509159326553345e-01 3.574306145310401917e-02 -2.401896193623542786e-02
1.616000000000000000e+03 3.731714630126953125e+01 3.394459247589111328e+00 1.530541921965777874e-04 2.185399207519367337e-04 1.114782353397458792e-04 1.849972177296876907e-04
1.617000000000000000e+03 2.326180267333984375e+01 -2.427237987518310547e+00 -1.018737554550170898e+00 1.588409543037414551e-01 -2.579689621925354004e-01 -5.498198270797729492e-01
1.618000000000000000e+03 2.430708122253417969e+01 -2.887312650680541992e+00 -1.000635266304016113e+00 6.181875988841056824e-02 -2.816449403762817383e-01 -7.608177065849304199e-01
1.619000000000000000e+03 5.983708953857421875e+01 -1.368883419036865234e+01 -1.634260535240173340e+00 -5.762216751463711262e-04 -4.904510378837585449e-01 -4.983001947402954102e-01
1.620000000000000000e+03 5.684260177612304688e+01 -1.300522994995117188e+01 -1.340075612068176270e+00 1.986972540616989136e-01 -3.424135148525238037e-01 2.113936282694339752e-02
1.621000000000000000e+03 5.810470581054687500e+01 -1.264416313171386719e+01 -1.473467946052551270e+00 2.611617147922515869e-01 -3.636918663978576660e-01 -1.781136244535446167e-01
1.622000000000000000e+03 5.201031494140625000e+01 -1.500258350372314453e+01 -4.927127659320831299e-01 5.486147478222846985e-02 -1.313553899526596069e-01 1.304241418838500977e-01
1.623000000000000000e+03 6.859410095214843750e+01 -1.235666084289550781e+01 -9.199551343917846680e-01 1.359378397464752197e-01 -2.352051883935928345e-01 -9.292061626911163330e-02
1.624000000000000000e+03 5.187388992309570312e+01 -1.395151805877685547e+01 -4.445170164108276367e-01 1.157518699765205383e-01 -9.862954169511795044e-02 4.856443107128143311e-01
1.625000000000000000e+03 5.310870742797851562e+01 -1.378482437133789062e+01 -7.790053486824035645e-01 1.652530729770660400e-01 -1.841256916522979736e-01 4.149217307567596436e-01
1.626000000000000000e+03 5.525315475463867188e+01 2.380050277709960938e+01 5.670952796936035156e-01 1.897063404321670532e-01 2.270404994487762451e-01 -4.560459852218627930e-01
1.627000000000000000e+03 7.827564239501953125e+01 -1.936250495910644531e+01 1.118650616263039410e-04 6.516728899441659451e-05 5.310970300342887640e-05 -1.018669208860956132e-04
1.628000000000000000e+03 7.826004028320312500e+01 -3.068464660644531250e+01 -3.692282771226018667e-04 -1.247667358256876469e-03 -4.850686818826943636e-04 9.323887061327695847e-04
1.629000000000000000e+03 7.942305755615234375e+01 -2.950083732604980469e+01 -2.126970939571037889e-04 -2.311950956936925650e-04 -1.331676612608134747e-04 2.495616790838539600e-04
1.630000000000000000e+03 7.944922637939453125e+01 -2.408814620971679688e+01 -1.360945607302710414e-04 5.432684556581079960e-04 1.221521670231595635e-04 -2.590084841358475387e-05
1.631000000000000000e+03 7.932761383056640625e+01 -3.616409301757812500e+01 2.903080894611775875e-04 -4.836892243474721909e-03 -1.363975228741765022e-03 4.179622337687760592e-04
1.632000000000000000e+03 7.773883056640625000e+01 -3.683467102050781250e+01 4.946640110574662685e-04 -5.322380922734737396e-03 -1.448314986191689968e-03 1.506963744759559631e-03
1.633000000000000000e+03 7.942227172851562500e+01 -3.351424407958984375e+01 2.259459579363465309e-04 -2.673899289220571518e-03 -7.343859761022031307e-04 3.679222136270254850e-04
1.634000000000000000e+03 7.824699401855468750e+01 -3.324748992919921875e+01 -2.932817442342638969e-04 -2.804137300699949265e-03 -9.292257600463926792e-04 1.326498924754559994e-03
1.635000000000000000e+03 7.834912872314453125e+01 -2.402156257629394531e+01 9.124667121795937419e-05 2.177346905227750540e-04 9.269441216019913554e-05 -7.831792754586786032e-05
1.636000000000000000e+03 7.822059631347656250e+01 -2.806318092346191406e+01 -3.583657089620828629e-04 -2.821540692821145058e-04 -1.921559305628761649e-04 4.491153231356292963e-04
1.637000000000000000e+03 7.630440521240234375e+01 -3.896207427978515625e+01 5.462272674776613712e-04 -5.990215111523866653e-03 -1.633196254260838032e-03 1.884677796624600887e-03
1.638000000000000000e+03 4.315607452392578125e+01 -2.437670135498046875e+01 3.404982760548591614e-02 6.495872139930725098e-01 2.050911039113998413e-01 -5.235333740711212158e-02
1.639000000000000000e+03 2.934924697875976562e+01 -6.885168552398681641e+00 1.420398950576782227e+00 8.580406308174133301e-01 6.835318803787231445e-01 -6.803283691406250000e-01
1.640000000000000000e+03 3.029791831970214844e+01 -8.315750122070312500e+00 4.304444789886474609e+00 9.532225131988525391e-01 1.577300190925598145e+00 -1.375462412834167480e+00
1.641000000000000000e+03 3.976214599609375000e+01 1.103049945831298828e+01 -5.180232692509889603e-03 1.394437742419540882e-03 -1.135738450102508068e-03 -3.711364232003688812e-03
1.642000000000000000e+03 4.773591995239257812e+01 -2.804381752014160156e+01 -7.434061169624328613e-02 -3.770777257159352303e-03 -2.343341708183288574e-02 4.016294702887535095e-02
1.643000000000000000e+03 5.003698730468750000e+01 -2.978075408935546875e+01 -1.896808892488479614e-01 -3.457364812493324280e-02 -6.727635860443115234e-02 6.845736503601074219e-02
1.644000000000000000e+03 5.599292755126953125e+01 -3.304299926757812500e+01 -4.471342638134956360e-02 -1.911111921072006226e-02 -1.914736442267894745e-02 3.990138694643974304e-02
1.645000000000000000e+03 5.070074462890625000e+01 -3.194069671630859375e+01 -6.043342873454093933e-02 1.468063797801733017e-02 -1.372583676129579544e-02 -3.390637226402759552e-03
1.646000000000000000e+03 4.259644317626953125e+01 1.375913619995117188e+01 -2.770276926457881927e-02 -1.337012276053428650e-02 -1.232186704874038696e-02 -2.049624919891357422e-02
1.647000000000000000e+03 4.124574661254882812e+01 1.407791614532470703e+01 -4.025602340698242188e-02 6.963793653994798660e-03 -9.987669065594673157e-03 -1.074678450822830200e-02
1.648000000000000000e+03 3.720800399780273438e+01 7.691126346588134766e+00 1.238951459527015686e-03 -5.763070657849311829e-04 1.987933210330083966e-04 4.259985144017264247e-05
1.649000000000000000e+03 4.679032897949218750e+01 2.115747833251953125e+01 -4.928954318165779114e-02 5.466944072395563126e-03 -1.314678043127059937e-02 -1.395535003393888474e-02
1.650000000000000000e+03 6.768298339843750000e+01 -2.533166503906250000e+01 -1.893072389066219330e-03 2.495542867109179497e-04 -4.930554423481225967e-04 -4.487582773435860872e-04
1.651000000000000000e+03 6.755921173095703125e+01 -2.320841217041015625e+01 1.719609281281009316e-04 5.456793005578219891e-04 2.152920787921175361e-04 2.164738689316436648e-04
1.652000000000000000e+03 4.807420349121093750e+01 -3.001942825317382812e+01 -6.867317855358123779e-02 8.152187615633010864e-02 3.854609327390789986e-03 -2.684027329087257385e-02
1.653000000000000000e+03 5.120017623901367188e+01 2.208613395690917969e+01 4.907147958874702454e-02 -2.668162994086742401e-02 6.716954987496137619e-03 -7.447939366102218628e-02
1.654000000000000000e+03 4.421014785766601562e+01 1.769109153747558594e+01 -8.191764354705810547e-02 2.245997311547398567e-03 -2.390149421989917755e-02 -2.078492008149623871e-02
1.655000000000000000e+03 3.905848312377929688e+01 1.006280422210693359e+01 -3.612823085859417915e-03 -1.491082482971251011e-03 -1.531171612441539764e-03 7.041968638077378273e-05
1.656000000000000000e+03 4.870058441162109375e+01 2.062799072265625000e+01 -8.821722865104675293e-02 -2.562126144766807556e-02 -3.415154665708541870e-02 -3.365422412753105164e-02
1.657000000000000000e+03 4.640079116821289062e+01 1.911069869995117188e+01 -1.006006971001625061e-01 -1.198828313499689102e-02 -3.377669304609298706e-02 -3.280678763985633850e-02
1.658000000000000000e+03 4.529430389404296875e+01 1.836764526367187500e+01 -8.726216852664947510e-02 4.703985061496496201e-03 -2.476745471358299255e-02 -3.369398415088653564e-02
1.659000000000000000e+03 3.015540313720703125e+01 -2.899542427062988281e+01 8.886387348175048828e-01 5.839354991912841797e-01 4.417722821235656738e-01 5.943824052810668945e-01
1.660000000000000000e+03 6.050843048095703125e+01 -3.376901245117187500e+01 -2.518934942781925201e-02 -4.624145571142435074e-03 -8.944048546254634857e-03 2.888942323625087738e-02
1.661000000000000000e+03 6.091725540161132812e+01 -3.127083206176757812e+01 -4.006008803844451904e-02 1.284339348785579205e-03 -1.163272466510534286e-02 1.084429398179054260e-02
1.662000000000000000e+03 5.779501724243164062e+01 -3.284628677368164062e+01 -4.580188170075416565e-02 -1.015232596546411514e-02 -1.678626239299774170e-02 3.298073261976242065e-02
1.663000000000000000e+03 5.949192047119140625e+01 -3.205943679809570312e+01 -4.682535678148269653e-02 -1.490649534389376640e-03 -1.449480187147855759e-02 1.989646255970001221e-02
1.664000000000000000e+03 4.575410842895507812e+01 -2.812428283691406250e+01 3.801128594204783440e-03 2.112286984920501709e-01 6.450895220041275024e-02 -8.991330862045288086e-02
1.665000000000000000e+03 5.421985626220703125e+01 -3.302119445800781250e+01 -4.193247854709625244e-02 -9.717398323118686676e-03 -1.549496315419673920e-02 3.554050251841545105e-02
1.666000000000000000e+03 6.462862396240234375e+01 -2.865429496765136719e+01 -1.403754390776157379e-02 1.568290172144770622e-03 -3.740776097401976585e-03 -9.385783050674945116e-05
1.667000000000000000e+03 7.080578613281250000e+01 -2.168633842468261719e+01 3.711635945364832878e-04 -2.234081912320107222e-04 4.432662171893753111e-05 1.049904167302884161e-04
1.668000000000000000e+03 6.672408294677734375e+01 -2.652668380737304688e+01 -4.591666162014007568e-03 4.598917148541659117e-04 -1.239532371982932091e-03 -4.613316268660128117e-04
1.669000000000000000e+03 4.383820724487304688e+01 -1.894004821777343750e+01 2.137922681868076324e-02 4.888582825660705566e-01 1.530712544918060303e-01 -8.016077429056167603e-02
1.670000000000000000e+03 1.803372383117675781e+01 -1.178423023223876953e+01 -6.215010285377502441e-01 -2.829387485980987549e-01 -2.713319361209869385e-01 -3.992320597171783447e-01
1.671000000000000000e+03 6.259899902343750000e+01 2.507452011108398438e+01 -1.778126880526542664e-02 2.103512763977050781e+00 6.257194280624389648e-01 -3.242675960063934326e-01
1.672000000000000000e+03 2.961510467529296875e+01 -7.649837970733642578e+00 3.286647319793701172e+00 8.307718038558959961e-01 1.235225796699523926e+00 -6.823413372039794922e-01
1.673000000000000000e+03 3.724737548828125000e+01 -2.457049751281738281e+01 4.406085908412933350e-01 1.984314322471618652e+00 7.274768948554992676e-01 3.343499600887298584e-01
1.674000000000000000e+03 2.583535766601562500e+01 -2.982282257080078125e+01 5.039396286010742188e-01 2.283047884702682495e-02 1.580310314893722534e-01 3.843979164958000183e-02
1.675000000000000000e+03 1.435286235809326172e+01 -1.232824707031250000e+01 -3.597635626792907715e-01 -5.784902572631835938e-01 -2.814761400222778320e-01 -2.813858687877655029e-01
1.676000000000000000e+03 2.188024902343750000e+01 -9.808509826660156250e+00 7.460492849349975586e-02 -1.141928285360336304e-01 -1.187636982649564743e-02 -1.936905384063720703e-01
1.677000000000000000e+03 3.352581024169921875e+01 -1.075791645050048828e+01 1.377926349639892578e+00 1.137696579098701477e-01 4.475088119506835938e-01 -9.635583162307739258e-01
1.678000000000000000e+03 3.791119384765625000e+01 -1.220918464660644531e+01 3.645473718643188477e+00 2.378907442092895508e+00 1.807314395904541016e+00 -1.204533219337463379e+00
1.679000000000000000e+03 1.822083282470703125e+01 -9.728438377380371094e+00 -1.869996786117553711e-01 -3.647929131984710693e-01 -1.655377745628356934e-01 -4.156529009342193604e-01
1.680000000000000000e+03 1.646083641052246094e+01 -1.116250419616699219e+01 -3.245282471179962158e-01 -5.330579280853271484e-01 -2.572758495807647705e-01 -3.296873569488525391e-01
1.681000000000000000e+03 2.715349960327148438e+01 -3.211907196044921875e+01 4.360325336456298828e-01 3.309352695941925049e-01 2.300903350114822388e-01 1.745311170816421509e-01
1.682000000000000000e+03 3.650495529174804688e+01 -2.053201293945312500e+01 1.469470858573913574e-01 2.555638551712036133e+00 8.107757568359375000e-01 7.716553807258605957e-01
1.683000000000000000e+03 3.640711212158203125e+01 -1.926927375793457031e+01 -1.957194693386554718e-02 2.290884971618652344e+00 6.813938617706298828e-01 7.911892533302307129e-01
1.684000000000000000e+03 2.605937957763671875e+01 -7.939488887786865234e+00 1.194881200790405273e+00 -2.133406847715377808e-01 2.944621443748474121e-01 -3.313038945198059082e-01
1.685000000000000000e+03 2.680636978149414062e+01 -8.729677200317382812e+00 1.468242883682250977e+00 1.424041688442230225e-01 4.831941127777099609e-01 3.534211516380310059e-01
1.686000000000000000e+03 2.193246269226074219e+01 -3.106260490417480469e+01 3.618516623973846436e-01 2.172254323959350586e-01 1.737231314182281494e-01 -1.240442097187042236e-01
1.687000000000000000e+03 2.318757820129394531e+01 -3.167992973327636719e+01 3.690528273582458496e-01 2.333114892244338989e-01 1.807093024253845215e-01 -8.916155993938446045e-02
1.688000000000000000e+03 2.067328071594238281e+01 -1.001818561553955078e+01 -9.169045090675354004e-02 -1.472568213939666748e-01 -7.168418169021606445e-02 -2.725738286972045898e-01
1.689000000000000000e+03 3.345299530029296875e+01 -8.089965820312500000e+00 1.830099344253540039e+00 1.868061870336532593e-01 6.050716638565063477e-01 -7.709288597106933594e-01
1.690000000000000000e+03 2.081100273132324219e+01 -1.126295089721679688e+01 -9.820427745580673218e-02 -3.303148970007896423e-02 -3.937073051929473877e-02 -1.018876284360885620e-01
1.691000000000000000e+03 3.292007064819335938e+01 -8.829026222229003906e+00 2.098985910415649414e+00 3.653505742549896240e-01 7.393009662628173828e-01 -1.006407499313354492e+00
1.692000000000000000e+03 3.633563613891601562e+01 -1.809491729736328125e+01 -2.601871490478515625e-01 1.629448652267456055e+00 4.107784628868103027e-01 1.049809098243713379e+00
1.693000000000000000e+03 1.417301845550537109e+01 -2.396705245971679688e+01 2.309331297874450684e-01 -4.229967296123504639e-02 5.659003928303718567e-02 -1.805572360754013062e-01
1.694000000000000000e+03 1.947392654418945312e+01 -2.943331146240234375e+01 3.118547499179840088e-01 2.090546935796737671e-01 1.562728434801101685e-01 -2.053820639848709106e-01
1.695000000000000000e+03 1.450240421295166016e+01 -2.588333129882812500e+01 2.406537085771560669e-01 -3.480381146073341370e-02 6.175496801733970642e-02 -1.631557941436767578e-01
1.696000000000000000e+03 2.516730690002441406e+01 -8.530748367309570312e+00 8.605253696441650391e-01 -2.037975192070007324e-01 1.970183551311492920e-01 -8.732523769140243530e-02
1.697000000000000000e+03 3.712203979492187500e+01 -1.571231365203857422e+01 -5.156010985374450684e-01 1.847764730453491211e+00 3.996490836143493652e-01 1.542501807212829590e+00
1.698000000000000000e+03 3.539107131958007812e+01 -2.718778991699218750e+01 2.267729490995407104e-01 1.850759387016296387e+00 6.232597231864929199e-01 4.115497469902038574e-01
1.699000000000000000e+03 1.452565097808837891e+01 -2.766826248168945312e+01 2.196941375732421875e-01 -2.858013659715652466e-02 5.733419954776763916e-02 -1.437889337539672852e-01
1.700000000000000000e+03 5.386854934692382812e+01 -5.671114921569824219e+00 6.369243860244750977e-01 1.540164709091186523e+00 6.531267166137695312e-01 1.059987306594848633e+00
1.701000000000000000e+03 5.260495376586914062e+01 -4.817341327667236328e+00 1.886377573013305664e+00 1.673167467117309570e+00 1.067863464355468750e+00 1.636927366256713867e+00
1.702000000000000000e+03 7.927471160888671875e+01 3.754311370849609375e+01 4.744894336909055710e-03 -8.708699941635131836e-01 -2.598375380039215088e-01 4.411644488573074341e-02
1.703000000000000000e+03 7.723455810546875000e+01 3.474772644042968750e+01 -3.961275145411491394e-02 -8.476141095161437988e-01 -2.661680579185485840e-01 1.905395388603210449e-01
1.704000000000000000e+03 7.911785888671875000e+01 3.050437355041503906e+01 -5.009731277823448181e-03 -1.489629030227661133e+00 -4.483916163444519043e-01 1.085059419274330139e-01
1.705000000000000000e+03 7.761935424804687500e+01 2.749330139160156250e+01 -1.723165437579154968e-02 -1.508074760437011719e+00 -4.575919210910797119e-01 3.151600956916809082e-01
1.706000000000000000e+03 7.820865631103515625e+01 -9.867114067077636719e+00 -2.894816175103187561e-02 -2.379511743783950806e-01 -8.006980270147323608e-02 -1.578225791454315186e-01
1.707000000000000000e+03 7.820366668701171875e+01 -8.512965202331542969e+00 -3.801496326923370361e-02 -3.599334359169006348e-01 -1.193845197558403015e-01 -2.101449519395828247e-01
1.708000000000000000e+03 7.940346527099609375e+01 -7.233570575714111328e+00 -9.344780817627906799e-03 -5.276828408241271973e-01 -1.611082851886749268e-01 -8.664514869451522827e-02
1.709000000000000000e+03 7.935935211181640625e+01 5.329361915588378906e+00 8.276451379060745239e-03 -2.777604579925537109e+00 -8.307984471321105957e-01 -8.238098770380020142e-02
1.710000000000000000e+03 7.936815643310546875e+01 1.233197879791259766e+01 7.321176584810018539e-03 -3.407112121582031250e+00 -1.019937276840209961e+00 -9.253160096704959869e-03
1.711000000000000000e+03 7.809963226318359375e+01 1.229090976715087891e+01 4.100389778614044189e-02 -2.753133535385131836e+00 -8.136388659477233887e-01 -3.916263207793235779e-02
1.712000000000000000e+03 7.936951446533203125e+01 1.373340892791748047e+01 1.019528601318597794e-02 -3.422851562500000000e+00 -1.023796916007995605e+00 1.051147747784852982e-02
1.713000000000000000e+03 7.936907196044921875e+01 1.932135772705078125e+01 1.153889112174510956e-02 -3.097895145416259766e+00 -9.259068369865417480e-01 7.217638194561004639e-02
1.714000000000000000e+03 7.931694030761718750e+01 2.350258827209472656e+01 -1.668941229581832886e-03 -2.534407377243041992e+00 -7.608228921890258789e-01 1.063909158110618591e-01
1.715000000000000000e+03 7.928617858886718750e+01 2.489846801757812500e+01 9.147603064775466919e-03 -2.314179182052612305e+00 -6.915094852447509766e-01 1.153335794806480408e-01
1.716000000000000000e+03 7.924861145019531250e+01 2.629715538024902344e+01 -5.478149279952049255e-03 -2.093438148498535156e+00 -6.296749114990234375e-01 1.173246279358863831e-01
1.717000000000000000e+03 7.907732391357421875e+01 3.192515182495117188e+01 -6.850694306194782257e-03 -1.330269932746887207e+00 -4.011361896991729736e-01 9.923575818538665771e-02
1.718000000000000000e+03 7.908187866210937500e+01 3.335028076171875000e+01 -1.918336842209100723e-03 -1.187483787536621094e+00 -3.568206429481506348e-01 9.297563880681991577e-02
1.719000000000000000e+03 7.918478393554687500e+01 3.875600051879882812e+01 -5.200828425586223602e-03 -7.753021121025085449e-01 -2.341508716344833374e-01 4.188316315412521362e-02
1.720000000000000000e+03 7.813963317871093750e+01 -1.644436836242675781e+00 6.399431731551885605e-03 -1.311007142066955566e+00 -3.913823068141937256e-01 -3.358196914196014404e-01
1.721000000000000000e+03 7.936826324462890625e+01 1.133062958717346191e+00 5.135263199917972088e-04 -2.078734636306762695e+00 -6.234663128852844238e-01 -1.089800745248794556e-01
1.722000000000000000e+03 7.936256408691406250e+01 8.131667137145996094e+00 7.107954937964677811e-03 -3.124663591384887695e+00 -9.352667331695556641e-01 -5.684517323970794678e-02
1.723000000000000000e+03 7.809573364257812500e+01 1.923408699035644531e+01 2.422863803803920746e-02 -2.530784606933593750e+00 -7.519668340682983398e-01 1.846453398466110229e-01
1.724000000000000000e+03 7.935826110839843750e+01 2.071551322937011719e+01 -3.610308340284973383e-04 -2.933485031127929688e+00 -8.801538348197937012e-01 8.358585089445114136e-02
1.725000000000000000e+03 7.810039520263671875e+01 1.509033489227294922e+01 4.064870253205299377e-02 -2.753136634826660156e+00 -8.137463927268981934e-01 6.433383375406265259e-02
1.726000000000000000e+03 7.937346649169921875e+01 1.653090286254882812e+01 1.064988877624273300e-02 -3.333078145980834961e+00 -9.967284798622131348e-01 4.357925802469253540e-02
1.727000000000000000e+03 7.808691406250000000e+01 8.103058815002441406e+00 2.905766852200031281e-02 -2.531864166259765625e+00 -7.508419752120971680e-01 -1.740444451570510864e-01
1.728000000000000000e+03 7.936512756347656250e+01 9.531420707702636719e+00 6.863942369818687439e-03 -3.254570722579956055e+00 -9.743120670318603516e-01 -4.214405268430709839e-02
1.729000000000000000e+03 7.809617614746093750e+01 1.122678518295288086e+00 1.699916459619998932e-02 -1.721892714500427246e+00 -5.114680528640747070e-01 -3.210272789001464844e-01
1.730000000000000000e+03 7.936331176757812500e+01 2.530640363693237305e+00 6.631269585341215134e-03 -2.330338001251220703e+00 -6.971120238304138184e-01 -1.016785725951194763e-01
1.731000000000000000e+03 7.818643188476562500e+01 -5.779801845550537109e+00 -2.444071322679519653e-02 -6.952640414237976074e-01 -2.159114331007003784e-01 -2.883307635784149170e-01
1.732000000000000000e+03 7.939379882812500000e+01 -4.449732303619384766e+00 -5.674742627888917923e-03 -1.001020550727844238e+00 -3.020085692405700684e-01 -1.081983149051666260e-01
1.733000000000000000e+03 7.746543121337890625e+01 -1.320363044738769531e+01 -6.007476150989532471e-02 -5.258522555232048035e-02 -3.379799425601959229e-02 -7.200517505407333374e-02
1.734000000000000000e+03 7.949060058593750000e+01 -1.290369415283203125e+01 -7.234943099319934845e-03 -2.085351012647151947e-02 -8.426535874605178833e-03 -1.743284799158573151e-02
1.735000000000000000e+03 5.046969604492187500e+01 -5.527111530303955078e+00 5.601472854614257812e-01 4.166950881481170654e-01 2.930527031421661377e-01 1.056425929069519043e+00
1.736000000000000000e+03 6.403202056884765625e+01 1.814029502868652344e+01 1.139779210090637207e+00 3.731508731842041016e+00 1.461386322975158691e+00 -5.538576245307922363e-01
1.737000000000000000e+03 1.961958765983581543e+00 2.633801078796386719e+01 -5.690363468602299690e-04 -2.002678811550140381e-03 -7.715145475231111050e-04 1.604584511369466782e-03
1.738000000000000000e+03 2.421752929687500000e+00 3.496126174926757812e+01 2.694341237656772137e-04 -1.134858932346105576e-02 -3.323746379464864731e-03 2.833217382431030273e-03
1.739000000000000000e+03 7.192992568016052246e-01 3.193757820129394531e+01 8.079319377429783344e-05 -7.834178395569324493e-03 -2.326015615835785866e-03 1.073091989383101463e-03
1.740000000000000000e+03 2.982601404190063477e+00 3.887316894531250000e+01 5.114956875331699848e-04 -1.423391886055469513e-02 -4.116727039217948914e-03 1.884271623566746712e-03
1.741000000000000000e+03 7.135775685310363770e-01 3.875236129760742188e+01 -5.533502553589642048e-04 -1.534933410584926605e-02 -4.770805127918720245e-03 3.867155464831739664e-04
1.742000000000000000e+03 1.879357099533081055e+00 2.353341865539550781e+01 -5.388280260376632214e-04 -2.510866615921258926e-04 -2.369744033785536885e-04 7.412335253320634365e-04
1.743000000000000000e+03 2.101014137268066406e+00 3.058906555175781250e+01 5.780595529358834028e-05 -6.301462650299072266e-03 -1.873096916824579239e-03 2.750972285866737366e-03
1.744000000000000000e+03 3.325400590896606445e+00 -3.692001342773437500e+01 2.066198177635669708e-02 -7.388840913772583008e-01 -2.154666334390640259e-01 -5.714243743568658829e-03
1.745000000000000000e+03 6.531799435615539551e-01 -3.044426918029785156e+01 2.478543668985366821e-03 -8.195630311965942383e-01 -2.451253533363342285e-01 -1.649896055459976196e-02
1.746000000000000000e+03 1.633236289024353027e+00 4.936495304107666016e+00 6.350124749587848783e-05 1.862342469394207001e-05 2.463740202074404806e-05 -5.752900688094086945e-05
1.747000000000000000e+03 5.641682744026184082e-01 -6.483613014221191406e+00 -1.405258662998676300e-03 8.843908458948135376e-02 2.611014805734157562e-02 8.917500264942646027e-03
1.748000000000000000e+03 5.705441832542419434e-01 -1.065700149536132812e+01 -3.229994326829910278e-03 1.050041690468788147e-01 3.053225390613079071e-02 -5.874101538211107254e-03
1.749000000000000000e+03 5.983402729034423828e-01 -1.205533695220947266e+01 -2.491182181984186172e-03 8.182295411825180054e-02 2.379953302443027496e-02 -1.281243748962879181e-02
1.750000000000000000e+03 6.345742344856262207e-01 -1.346167755126953125e+01 -4.810141865164041519e-03 4.183083027601242065e-02 1.110620610415935516e-02 -2.139890938997268677e-02
1.751000000000000000e+03 7.185950875282287598e-01 -1.771241760253906250e+01 -7.700588321313261986e-04 -1.626339852809906006e-01 -4.902121052145957947e-02 -4.262829944491386414e-02
1.752000000000000000e+03 7.084605693817138672e-01 -1.913800811767578125e+01 -1.726207206957042217e-03 -2.494078278541564941e-01 -7.534021139144897461e-02 -4.514735937118530273e-02
1.753000000000000000e+03 6.930742263793945312e-01 -2.056441497802734375e+01 7.825838401913642883e-04 -3.419364094734191895e-01 -1.023461446166038513e-01 -4.608732089400291443e-02
1.754000000000000000e+03 6.848169565200805664e-01 -2.198673629760742188e+01 1.327138277702033520e-03 -4.348326325416564941e-01 -1.300516575574874878e-01 -4.389947652816772461e-02
1.755000000000000000e+03 6.870447993278503418e-01 -2.340651893615722656e+01 2.109782071784138680e-03 -5.224978923797607422e-01 -1.561164408922195435e-01 -4.041479900479316711e-02
1.756000000000000000e+03 2.125825166702270508e+00 -2.623772430419921875e+01 1.118416525423526764e-02 -5.922219753265380859e-01 -1.743113398551940918e-01 -8.912640810012817383e-02
1.757000000000000000e+03 1.933396577835083008e+00 -3.313019561767578125e+01 1.028166990727186203e-02 -7.710833549499511719e-01 -2.282405048608779907e-01 -2.498915418982505798e-02
1.758000000000000000e+03 2.055399179458618164e+00 -3.576593399047851562e+01 8.981028571724891663e-03 -7.953748106956481934e-01 -2.359181195497512817e-01 -1.658117544138804078e-04
1.759000000000000000e+03 1.842657566070556641e+00 2.214292716979980469e+01 -4.212701696815202013e-06 2.510748454369604588e-04 7.405864016618579626e-05 4.496223700698465109e-04
1.760000000000000000e+03 6.039729118347167969e-01 1.923667335510253906e+01 -2.343744999961927533e-04 1.382350339554250240e-03 3.443927271291613579e-04 -6.596105959033593535e-05
1.761000000000000000e+03 6.109905242919921875e-01 1.782324028015136719e+01 1.809430686989799142e-04 1.220747828483581543e-03 4.205072764307260513e-04 -7.215116784209385514e-05
1.762000000000000000e+03 6.367172002792358398e-01 1.498117160797119141e+01 1.661882270127534866e-04 7.771573727950453758e-04 2.830036974046379328e-04 -8.894684287952259183e-05
1.763000000000000000e+03 5.912608504295349121e-01 1.073729610443115234e+01 -1.314986875513568521e-04 2.690653200261294842e-04 4.126998828724026680e-05 -5.664963100571185350e-05
1.764000000000000000e+03 6.208750009536743164e-01 7.903633117675781250e+00 -8.709617395652458072e-05 9.555178257869556546e-05 2.536683950893348083e-06 -1.808041633921675384e-05
1.765000000000000000e+03 1.896661877632141113e+00 1.363919162750244141e+01 1.956446067197248340e-04 3.534844145178794861e-04 1.647387107368558645e-04 -2.079968253383412957e-04
1.766000000000000000e+03 3.483014106750488281e+00 -3.897273635864257812e+01 1.232892647385597229e-02 -7.601605057716369629e-01 -2.243494689464569092e-01 -1.116435322910547256e-02
1.767000000000000000e+03 2.517976999282836914e+00 -3.800394439697265625e+01 1.927880570292472839e-02 -7.733203172683715820e-01 -2.262124419212341309e-01 8.743261918425559998e-03
1.768000000000000000e+03 1.927680969238281250e+00 -3.175871467590332031e+01 7.909027859568595886e-03 -7.494585514068603516e-01 -2.224648594856262207e-01 -3.479368612170219421e-02
1.769000000000000000e+03 2.092580080032348633e+00 -2.481478881835937500e+01 1.184442639350891113e-02 -5.380367040634155273e-01 -1.578576713800430298e-01 -1.019444093108177185e-01
1.770000000000000000e+03 6.950885653495788574e-01 -2.482552719116210938e+01 2.200736664235591888e-03 -6.010521054267883301e-01 -1.796554028987884521e-01 -3.599280118942260742e-02
1.771000000000000000e+03 6.741152405738830566e-01 -1.487616539001464844e+01 -3.005498321726918221e-03 -1.420701108872890472e-02 -5.163752939552068710e-03 -2.974599413573741913e-02
1.772000000000000000e+03 2.774991750717163086e+00 -6.779332160949707031e+00 -1.323685236275196075e-02 2.172862924635410309e-02 2.547533484175801277e-03 2.151362225413322449e-02
1.773000000000000000e+03 5.466123819351196289e-01 -7.876589775085449219e+00 -1.969764009118080139e-03 1.062157079577445984e-01 3.127378225326538086e-02 4.616114310920238495e-03
1.774000000000000000e+03 1.592209100723266602e+00 -3.312479019165039062e+00 3.229077206924557686e-03 2.557531371712684631e-02 8.641317486763000488e-03 2.491591870784759521e-02
1.775000000000000000e+03 4.150612640380859375e+01 -3.366224288940429688e+00 -3.771954536437988281e+00 -1.115547657012939453e+00 -1.466250658035278320e+00 1.681103706359863281e+00
1.776000000000000000e+03 4.323693847656250000e+01 -4.694326400756835938e+00 -3.010346174240112305e+00 -9.895079135894775391e-01 -1.199956178665161133e+00 1.581956028938293457e+00
1.777000000000000000e+03 6.239601516723632812e+01 4.082100391387939453e+00 7.696721553802490234e-01 2.793148756027221680e+00 1.068846225738525391e+00 7.127492427825927734e-01
1.778000000000000000e+03 6.168587112426757812e+01 5.477567672729492188e+00 1.075289845466613770e+00 3.870392560958862305e+00 1.483704686164855957e+00 1.299138307571411133e+00
1.779000000000000000e+03 5.813605117797851562e+01 -2.903052568435668945e-01 1.260614991188049316e+00 2.095471858978271484e+00 1.006826043128967285e+00 1.491655826568603516e+00
1.780000000000000000e+03 6.291611099243164062e+01 6.984715938568115234e+00 7.648588418960571289e-01 3.623305320739746094e+00 1.316449284553527832e+00 8.691722154617309570e-01
1.781000000000000000e+03 6.322333908081054688e+01 5.738292217254638672e+00 7.428840994834899902e-01 3.128378152847290039e+00 1.161378622055053711e+00 6.214900612831115723e-01
1.782000000000000000e+03 4.575702667236328125e+01 -5.800390243530273438e+00 -1.953154087066650391e+00 -6.809442043304443359e-01 -7.902294993400573730e-01 1.585759401321411133e+00
1.783000000000000000e+03 5.467860412597656250e+01 -4.650190830230712891e+00 1.237662672996520996e+00 1.574400424957275391e+00 8.436189293861389160e-01 1.261216521263122559e+00
1.784000000000000000e+03 5.715013504028320312e+01 4.941669106483459473e-01 1.268016815185546875e+00 2.612630605697631836e+00 1.164194226264953613e+00 1.753150105476379395e+00
1.785000000000000000e+03 6.578365325927734375e+01 1.668380737304687500e+01 8.824591636657714844e-01 2.854999780654907227e+00 1.121237635612487793e+00 -1.690839678049087524e-01
1.786000000000000000e+03 5.558024597167968750e+01 -3.625096559524536133e+00 1.293254375457763672e+00 1.819410443305969238e+00 9.337994456291198730e-01 1.431152820587158203e+00
1.787000000000000000e+03 6.373384475708007812e+01 1.306579494476318359e+01 3.688875734806060791e-01 4.530481338500976562e+00 1.469810724258422852e+00 8.674522489309310913e-02
1.788000000000000000e+03 6.583045196533203125e+01 1.401219272613525391e+01 6.365927457809448242e-01 3.130863189697265625e+00 1.130236864089965820e+00 -1.058620214462280273e-01
1.789000000000000000e+03 5.975939178466796875e+01 1.873709559440612793e+00 9.174799919128417969e-01 2.521923780441284180e+00 1.031821131706237793e+00 1.455618262290954590e+00
1.790000000000000000e+03 6.058190917968750000e+01 2.854040384292602539e+00 8.591787219047546387e-01 3.012793540954589844e+00 1.161591649055480957e+00 1.334296941757202148e+00
1.791000000000000000e+03 1.283045768737792969e+01 -1.866145133972167969e+01 -8.665440604090690613e-03 -4.293402433395385742e-01 -1.314017027616500854e-01 -3.013787269592285156e-01
1.792000000000000000e+03 6.502651214599609375e+01 -1.040517234802246094e+01 -1.422069430351257324e+00 -3.916718959808349609e-01 -5.441223978996276855e-01 -5.915662050247192383e-01
1.793000000000000000e+03 3.997332000732421875e+01 -1.557375717163085938e+01 -5.085161328315734863e-01 4.433157920837402344e+00 1.177392482757568359e+00 -3.671402037143707275e-01
1.794000000000000000e+03 4.042911148071289062e+01 -1.586392116546630859e+01 -3.955840468406677246e-01 3.505464792251586914e+00 9.329642057418823242e-01 -5.981231927871704102e-01
1.795000000000000000e+03 4.060904312133789062e+01 -1.552581977844238281e+01 -1.672760993242263794e-01 3.445036649703979492e+00 9.833281636238098145e-01 -9.608035683631896973e-01
1.796000000000000000e+03 3.903341674804687500e+01 -1.490142250061035156e+01 2.759380638599395752e-01 5.672978401184082031e+00 1.784674882888793945e+00 1.342325329780578613e+00
1.797000000000000000e+03 4.025284576416015625e+01 -1.528335380554199219e+01 -2.829709351062774658e-01 4.380627632141113281e+00 1.229297041893005371e+00 -8.200652003288269043e-01
1.798000000000000000e+03 2.843567085266113281e+01 -1.936833024024963379e+00 -2.496921539306640625e+00 1.813898608088493347e-02 -7.436348199844360352e-01 -3.802261352539062500e-01
1.799000000000000000e+03 2.801276588439941406e+01 -2.002557516098022461e+00 -2.385837316513061523e+00 -4.967737942934036255e-02 -7.306544184684753418e-01 -4.145039021968841553e-01
1.800000000000000000e+03 2.955523109436035156e+01 -1.871331214904785156e+00 -2.665238142013549805e+00 1.693136990070343018e-01 -7.487773299217224121e-01 -2.686021029949188232e-01
1.801000000000000000e+03 3.060854148864746094e+01 -2.018731594085693359e+00 -2.749525070190429688e+00 2.887805700302124023e-01 -7.382233142852783203e-01 -2.358756661415100098e-01
1.802000000000000000e+03 2.739064216613769531e+01 -2.060516357421875000e+00 -2.230679750442504883e+00 -1.797733753919601440e-01 -7.231358885765075684e-01 -4.444289207458496094e-01
1.803000000000000000e+03 2.615356063842773438e+01 -2.840685606002807617e+00 -1.305466651916503906e+00 -1.596037447452545166e-01 -4.395211338996887207e-01 -7.884374856948852539e-01
1.804000000000000000e+03 3.080549430847167969e+01 -2.832410812377929688e+00 -2.045596122741699219e+00 3.007213473320007324e-01 -5.234624743461608887e-01 -3.598244786262512207e-01
1.805000000000000000e+03 2.988273429870605469e+01 -2.164632558822631836e+00 -2.516301631927490234e+00 2.530150115489959717e-01 -6.789859533309936523e-01 -2.896590530872344971e-01
1.806000000000000000e+03 3.090590286254882812e+01 -2.180232048034667969e+00 -2.606704950332641602e+00 2.844503521919250488e-01 -6.966763734817504883e-01 -2.913319766521453857e-01
1.807000000000000000e+03 3.037571334838867188e+01 -2.201432943344116211e+00 -2.576627969741821289e+00 2.976157665252685547e-01 -6.837036609649658203e-01 -2.732341587543487549e-01
1.808000000000000000e+03 2.803394889831542969e+01 -2.331998348236083984e+00 -2.123880386352539062e+00 -3.210731223225593567e-02 -6.467963457107543945e-01 -4.564051032066345215e-01
1.809000000000000000e+03 2.780074501037597656e+01 -2.005445957183837891e+00 -2.346287250518798828e+00 -8.726353198289871216e-02 -7.300652265548706055e-01 -4.151273667812347412e-01
1.810000000000000000e+03 2.762589454650878906e+01 -2.288691997528076172e+00 -2.088518381118774414e+00 -1.120120584964752197e-01 -6.601591706275939941e-01 -4.847913682460784912e-01
1.811000000000000000e+03 4.289448165893554688e+01 -1.274653816223144531e+01 2.937752485275268555e+00 -2.087914198637008667e-01 8.186883330345153809e-01 1.686938852071762085e-02
1.812000000000000000e+03 4.283092498779296875e+01 -1.300699710845947266e+01 2.654676914215087891e+00 -1.391265541315078735e-01 7.546651363372802734e-01 -2.018827497959136963e-01
1.813000000000000000e+03 4.289073181152343750e+01 -1.242668342590332031e+01 3.048300981521606445e+00 -2.010292857885360718e-01 8.541815280914306641e-01 3.152314126491546631e-01
1.814000000000000000e+03 4.392949676513671875e+01 -1.309441661834716797e+01 2.006148099899291992e+00 -3.392777144908905029e-01 5.000611543655395508e-01 3.766111796721816063e-03
1.815000000000000000e+03 4.364686203002929688e+01 -1.264438629150390625e+01 2.396955251693725586e+00 -3.624790608882904053e-01 6.103428602218627930e-01 2.030015885829925537e-01
1.816000000000000000e+03 4.208924102783203125e+01 -1.196202564239501953e+01 3.782501459121704102e+00 4.539871215820312500e-01 1.270946621894836426e+00 1.097712278366088867e+00
1.817000000000000000e+03 2.565774917602539062e+01 -3.235516071319580078e+00 -1.049044132232666016e+00 -1.118084117770195007e-01 -3.482557833194732666e-01 -8.889297246932983398e-01
1.818000000000000000e+03 3.938356781005859375e+01 -1.492406749725341797e+01 -1.784112304449081421e-01 5.778208255767822266e+00 1.679939150810241699e+00 5.663654804229736328e-01
1.819000000000000000e+03 2.357621002197265625e+01 2.256810188293457031e+01 -8.717376738786697388e-02 -7.330389693379402161e-03 -2.835124731063842773e-02 2.258164994418621063e-02
1.820000000000000000e+03 3.460950469970703125e+01 2.605537176132202148e+00 6.918440340086817741e-04 -6.101076141931116581e-04 2.452093576721381396e-05 4.039797568111680448e-05
1.821000000000000000e+03 3.347575378417968750e+01 6.543539047241210938e+00 -9.473928366787731647e-04 7.835061987861990929e-04 -4.916597754345275462e-05 -3.483126929495483637e-04
1.822000000000000000e+03 3.537082290649414062e+01 6.373291492462158203e+00 1.594031695276498795e-03 -4.135581257287412882e-04 3.541420737747102976e-04 -7.404755451716482639e-04
1.823000000000000000e+03 3.395633697509765625e+01 6.754487037658691406e+00 -3.954996354877948761e-04 5.481730331666767597e-04 4.580201857606880367e-05 -3.137722087558358908e-04
1.824000000000000000e+03 2.348210716247558594e+01 2.312536430358886719e+01 -7.633890211582183838e-02 -1.216613501310348511e-02 -2.655151113867759705e-02 2.352474443614482880e-02
1.825000000000000000e+03 2.782818984985351562e+01 2.152588653564453125e+01 -1.165475100278854370e-01 -4.126736149191856384e-02 -4.734446108341217041e-02 5.692775174975395203e-02
1.826000000000000000e+03 2.263111305236816406e+01 4.323117733001708984e+00 -6.816571840317919850e-06 -1.096357300411909819e-05 -5.334043180482694879e-06 -6.917024620634038001e-06
1.827000000000000000e+03 2.234261512756347656e+01 4.585175514221191406e+00 9.276875971409026533e-06 1.928366873471532017e-05 8.568163138988893479e-06 1.224375773745123297e-05
1.828000000000000000e+03 1.429896068572998047e+01 1.743417358398437500e+01 3.552950511220842600e-04 1.922714640386402607e-03 6.834028754383325577e-04 3.701794776134192944e-04
1.829000000000000000e+03 1.414183235168457031e+01 1.586500549316406250e+01 2.877487277146428823e-04 1.271623885259032249e-03 4.678117693401873112e-04 2.768677368294447660e-04
1.830000000000000000e+03 1.775143241882324219e+01 2.258104705810546875e+01 -2.915279194712638855e-02 3.647461126092821360e-04 -8.636413142085075378e-03 1.795920892618596554e-03
1.831000000000000000e+03 1.384310913085937500e+01 1.748718070983886719e+01 -2.353317395318299532e-04 1.195634482428431511e-03 2.880908141378313303e-04 4.646519373636692762e-04
1.832000000000000000e+03 2.195631408691406250e+01 3.656512022018432617e+00 -9.172876161755993962e-06 -2.117950862157158554e-05 -9.105715434998273849e-06 -9.258482350560370833e-06
1.833000000000000000e+03 1.797333145141601562e+01 7.748516082763671875e+00 4.915913814329542220e-05 2.764594864856917411e-05 2.304152621945831925e-05 3.583022407838143408e-05
1.834000000000000000e+03 1.849503707885742188e+01 7.109479904174804688e+00 3.946298966184258461e-05 2.823155773512553424e-05 2.030836367339361459e-05 2.542041693232022226e-05
1.835000000000000000e+03 1.882409286499023438e+01 6.831973075866699219e+00 -2.242411210318095982e-05 -1.903552765725180507e-05 -1.243789211002876982e-05 -2.872017284971661866e-05
1.836000000000000000e+03 2.163699531555175781e+01 3.895806789398193359e+00 7.103147254383657128e-06 3.057044523302465677e-05 1.130207692767726257e-05 7.559425284853205085e-06
1.837000000000000000e+03 2.067237854003906250e+01 4.592064380645751953e+00 -2.770523451545159332e-06 7.727672709734179080e-06 1.487144686507235747e-06 -6.494144599855644628e-06
1.838000000000000000e+03 1.459572029113769531e+01 1.241836166381835938e+01 9.779628453543409705e-05 4.508356796577572823e-04 1.645895827095955610e-04 1.054430176736786962e-04
1.839000000000000000e+03 1.392290210723876953e+01 1.821982002258300781e+01 -3.029534127563238144e-04 1.162024564109742641e-03 2.577213454060256481e-04 3.466588095761835575e-04
1.840000000000000000e+03 3.180421829223632812e+01 1.572756385803222656e+01 -1.034556422382593155e-02 -2.419909462332725525e-02 -1.036339718848466873e-02 1.681322045624256134e-02
1.841000000000000000e+03 3.213752365112304688e+01 1.565250110626220703e+01 -1.210626587271690369e-02 -2.092143148183822632e-02 -9.908309206366539001e-03 1.855335384607315063e-02
1.842000000000000000e+03 1.611718177795410156e+01 1.029257774353027344e+01 4.083124440512619913e-05 1.446669484721496701e-04 5.564945604419335723e-05 -2.381078729740693234e-06
1.843000000000000000e+03 1.615194129943847656e+01 9.500092506408691406e+00 -9.805124864215031266e-05 5.920540570514276624e-05 -1.165375306300120428e-05 -2.809612487908452749e-05
1.844000000000000000e+03 2.399794387817382812e+01 2.250059890747070312e+01 -8.872751891613006592e-02 -9.277116507291793823e-03 -2.940138988196849823e-02 2.466222643852233887e-02
1.845000000000000000e+03 1.579858779907226562e+01 1.019594287872314453e+01 -1.082342860172502697e-04 7.933912274893373251e-05 -8.668549526191782206e-06 2.750096973613835871e-05
1.846000000000000000e+03 3.320232391357421875e+01 1.171036243438720703e+01 -2.451305277645587921e-03 -3.922313917428255081e-04 -8.530609775334596634e-04 1.731970580294728279e-03
1.847000000000000000e+03 1.568614387512207031e+01 1.143527126312255859e+01 1.086451302398927510e-04 2.195706474594771862e-04 9.846473403740674257e-05 -2.145586950064171106e-05
1.848000000000000000e+03 3.285498428344726562e+01 1.050649452209472656e+01 -7.055861642584204674e-04 2.934433287009596825e-03 6.686541601084172726e-04 -5.045788129791617393e-04
1.849000000000000000e+03 3.189365577697753906e+01 1.539849662780761719e+01 -8.021063171327114105e-03 -2.081668004393577576e-02 -8.651322685182094574e-03 1.442043762654066086e-02
1.850000000000000000e+03 2.113129043579101562e+01 2.219821357727050781e+01 -7.388173788785934448e-02 -2.970269648358225822e-03 -2.305560372769832611e-02 -3.456191392615437508e-03
1.851000000000000000e+03 3.455818557739257812e+01 3.187887430191040039e+00 -8.512594504281878471e-04 4.581530811265110970e-04 -1.179319151560775936e-04 6.119392492109909654e-05
1.852000000000000000e+03 3.347592163085937500e+01 3.287051916122436523e+00 -6.984734791330993176e-04 -8.957311365520581603e-05 -2.364139800192788243e-04 2.684700011741369963e-04
1.853000000000000000e+03 1.375215244293212891e+01 1.674124908447265625e+01 -2.273797144880518317e-04 1.072404324077069759e-03 2.535073726903647184e-04 5.286106606945395470e-04
1.854000000000000000e+03 2.769901466369628906e+01 2.223339653015136719e+01 -9.252180159091949463e-02 -3.842597827315330505e-02 -3.928433358669281006e-02 4.713129624724388123e-02
1.855000000000000000e+03 1.770292282104492188e+01 8.055098533630371094e+00 -5.870137101737782359e-05 -1.030517432809574530e-05 -2.070196387649048120e-05 -3.672622187878005207e-05
1.856000000000000000e+03 3.208547210693359375e+01 1.668542480468750000e+01 -2.211712300777435303e-02 -2.582064084708690643e-02 -1.438132952898740768e-02 2.797156572341918945e-02
1.857000000000000000e+03 1.939242553710937500e+01 6.240760326385498047e+00 -3.360670962138101459e-05 -1.784008600225206465e-05 -1.543403777759522200e-05 -1.386500025546411052e-05
1.858000000000000000e+03 3.284133911132812500e+01 1.361608314514160156e+01 -5.204703193157911301e-03 -6.078958511352539062e-03 -3.385098418220877647e-03 7.644187193363904953e-03
1.859000000000000000e+03 3.067273521423339844e+01 1.946133995056152344e+01 -6.486000865697860718e-02 -5.079015344381332397e-02 -3.469504788517951965e-02 5.310085788369178772e-02
1.860000000000000000e+03 3.379213714599609375e+01 7.882715702056884766e+00 4.286507028155028820e-04 9.478685096837580204e-04 4.129557637497782707e-04 -7.677617250010371208e-04
1.861000000000000000e+03 3.035902214050292969e+01 1.972810554504394531e+01 -7.454741746187210083e-02 -5.573746189475059509e-02 -3.908546268939971924e-02 5.726405605673789978e-02
1.862000000000000000e+03 3.254337692260742188e+01 1.436204338073730469e+01 -7.917748764157295227e-03 -1.044204179197549820e-02 -5.507937166839838028e-03 1.089334208518266678e-02
1.863000000000000000e+03 1.346705150604248047e+01 1.266561794281005859e+01 1.204982472700066864e-04 3.325820434838533401e-04 1.359240850433707237e-04 1.953955943463370204e-04
1.864000000000000000e+03 3.369047546386718750e+01 8.267821311950683594e+00 1.156270445790141821e-04 1.240642275661230087e-03 4.068808048032224178e-04 -5.458847153931856155e-04
1.865000000000000000e+03 1.475474166870117188e+01 1.197268104553222656e+01 -9.375806257594376802e-05 3.125991206616163254e-04 6.565231888089329004e-05 -4.646969955501845106e-06
1.866000000000000000e+03 2.008478927612304688e+01 5.769723415374755859e+00 -3.523629857227206230e-05 -1.046538363880245015e-05 -1.371050439047394320e-05 -2.100889469147659838e-05
1.867000000000000000e+03 3.150670051574707031e+01 1.692747497558593750e+01 -1.980763860046863556e-02 -3.689118847250938416e-02 -1.700964756309986115e-02 2.841058373451232910e-02
1.868000000000000000e+03 3.421743774414062500e+01 4.391646862030029297e+00 8.602563175372779369e-04 8.136713877320289612e-04 5.021783290430903435e-04 -6.363416323438286781e-04
1.869000000000000000e+03 3.386519241333007812e+01 4.503336429595947266e+00 -7.815156714059412479e-04 -1.998022489715367556e-04 -2.943953732028603554e-04 -3.359805268701165915e-04
1.870000000000000000e+03 2.485399436950683594e+01 2.280144500732421875e+01 -8.646599948406219482e-02 -1.477645989507436752e-02 -3.037273883819580078e-02 3.025743179023265839e-02
1.871000000000000000e+03 1.601369285583496094e+01 2.084503936767578125e+01 -9.059835225343704224e-03 -9.349642787128686905e-04 -2.998439827933907509e-03 -2.836111700162291527e-03
1.872000000000000000e+03 1.523450660705566406e+01 2.094253921508789062e+01 -9.383431635797023773e-03 1.437063794583082199e-03 -2.383910352364182472e-03 -1.737827318720519543e-03
1.873000000000000000e+03 3.251720809936523438e+01 1.249338340759277344e+01 -1.051525236107409000e-03 -1.477131503634154797e-03 -7.585970452055335045e-04 2.129824599251151085e-03
1.874000000000000000e+03 3.305673217773437500e+01 1.400487041473388672e+01 -9.427174925804138184e-03 -7.241739425808191299e-03 -5.000674165785312653e-03 1.125127449631690979e-02
1.875000000000000000e+03 1.861427307128906250e+01 6.432396888732910156e+00 -1.516897100373171270e-05 -1.274321766686625779e-05 -8.373656783078331500e-06 5.451447577797807753e-06
1.876000000000000000e+03 1.946217727661132812e+01 2.250795555114746094e+01 -4.358113929629325867e-02 -2.089157787850126624e-04 -1.313701644539833069e-02 8.203444303944706917e-04
1.877000000000000000e+03 3.101095581054687500e+01 1.810975646972656250e+01 -3.522640466690063477e-02 -5.146635323762893677e-02 -2.600782737135887146e-02 4.009785875678062439e-02
1.878000000000000000e+03 2.029480743408203125e+01 5.059043407440185547e+00 -2.212921754107810557e-05 1.681971662037540227e-05 -1.592849912412930280e-06 -5.932481599302263930e-06
1.879000000000000000e+03 2.698503684997558594e+01 2.183113670349121094e+01 -1.130617782473564148e-01 -2.334361523389816284e-02 -4.092161729931831360e-02 4.666393995285034180e-02
1.880000000000000000e+03 2.597069168090820312e+01 2.310618400573730469e+01 -7.774646580219268799e-02 -2.430543489754199982e-02 -3.061557002365589142e-02 3.580943867564201355e-02
1.881000000000000000e+03 1.485971355438232422e+01 2.081729125976562500e+01 -8.113688789308071136e-03 1.558311632834374905e-03 -1.966613112017512321e-03 -1.188253052532672882e-03
1.882000000000000000e+03 1.517098903656005859e+01 1.048648357391357422e+01 -1.132130419136956334e-04 1.604862918611615896e-04 1.418197280145250261e-05 5.698176437363144942e-07
1.883000000000000000e+03 1.586866474151611328e+01 1.052795219421386719e+01 -9.928004146786406636e-06 9.262438106816262007e-05 2.480891271261498332e-05 -8.747590618440881371e-05
1.884000000000000000e+03 1.633402442932128906e+01 9.155799865722656250e+00 7.683512376388534904e-05 6.487820064648985863e-05 4.251399877830408514e-05 1.677069121797103435e-05
1.885000000000000000e+03 2.656010055541992188e+01 2.194783020019531250e+01 -1.092574074864387512e-01 -2.058045752346515656e-02 -3.895135968923568726e-02 4.125959053635597229e-02
1.886000000000000000e+03 1.392957592010498047e+01 1.857864379882812500e+01 2.395927149336785078e-04 1.049690763466060162e-03 3.867850464303046465e-04 1.177294834633357823e-04
1.887000000000000000e+03 2.153854942321777344e+01 2.223647689819335938e+01 -8.618357032537460327e-02 -2.834350103512406349e-03 -2.670537494122982025e-02 9.906080085784196854e-04
1.888000000000000000e+03 1.690597534179687500e+01 7.594272136688232422e+00 -5.467013397719711065e-05 1.507779052190016955e-05 -1.187770249089226127e-05 -3.590894993976689875e-05
1.889000000000000000e+03 3.120759201049804688e+01 1.773225212097167969e+01 -2.994588576257228851e-02 -4.663072526454925537e-02 -2.297298237681388855e-02 3.667606785893440247e-02
1.890000000000000000e+03 3.123141288757324219e+01 1.874360466003417969e+01 -5.036939308047294617e-02 -4.178784415125846863e-02 -2.764717116951942444e-02 4.465464875102043152e-02
1.891000000000000000e+03 2.156632804870605469e+01 2.272075653076171875e+01 -7.188103348016738892e-02 -8.406866341829299927e-03 -2.408636920154094696e-02 1.090541016310453415e-02
1.892000000000000000e+03 3.437561035156250000e+01 5.142346858978271484e+00 1.472326461225748062e-03 -1.206139640999026597e-04 4.055137396790087223e-04 -4.473352164495736361e-04
1.893000000000000000e+03 3.401483154296875000e+01 5.627798557281494141e+00 1.311448169872164726e-03 2.384273102506995201e-04 4.649626498576253653e-04 -4.470975545700639486e-04
1.894000000000000000e+03 2.981710815429687500e+01 1.982217025756835938e+01 -8.421607315540313721e-02 -7.499524950981140137e-02 -4.776339605450630188e-02 6.904755532741546631e-02
1.895000000000000000e+03 1.899795913696289062e+01 2.249541664123535156e+01 -3.793571144342422485e-02 -1.061603776179254055e-03 -1.169919408857822418e-02 1.326789846643805504e-03
1.896000000000000000e+03 1.667593002319335938e+01 2.166989517211914062e+01 -1.872693561017513275e-02 -2.766663965303450823e-04 -5.701080895960330963e-03 -1.169666415080428123e-03
1.897000000000000000e+03 1.424929046630859375e+01 1.410262584686279297e+01 2.475587243679910898e-04 7.773137185722589493e-04 3.074617416132241488e-04 2.081099082715809345e-04
1.898000000000000000e+03 4.148681259155273438e+01 -1.642022132873535156e+01 -1.067728251218795776e-01 1.860757112503051758e+00 5.261952877044677734e-01 -6.743427515029907227e-01
1.899000000000000000e+03 1.551461505889892578e+01 2.146320915222167969e+01 -1.339319534599781036e-02 1.630723010748624802e-03 -3.528741654008626938e-03 -6.214811000972986221e-04
1.900000000000000000e+03 1.597799682617187500e+01 2.113101577758789062e+01 -1.290791947394609451e-02 2.668944071047008038e-04 -3.792307339608669281e-03 -2.585189417004585266e-03
1.901000000000000000e+03 2.071730232238769531e+01 2.263831329345703125e+01 -6.074254587292671204e-02 -2.387664048001170158e-03 -1.893906295299530029e-02 5.731378681957721710e-03
1.902000000000000000e+03 1.417299079895019531e+01 1.453343677520751953e+01 -1.672555517870932817e-04 9.126508375629782677e-04 2.236185828223824501e-04 1.899945491459220648e-04
1.903000000000000000e+03 3.399253463745117188e+01 3.196918964385986328e+00 1.061186078004539013e-03 -2.420601413177791983e-05 3.110940160695463419e-04 -4.529391881078481674e-04
1.904000000000000000e+03 1.445581626892089844e+01 2.073696517944335938e+01 -7.570832036435604095e-03 1.609589322470128536e-03 -1.788372872397303581e-03 -1.110372249968349934e-03
1.905000000000000000e+03 2.897571563720703125e+01 2.081427764892578125e+01 -1.196670457720756531e-01 -6.840535998344421387e-02 -5.642172321677207947e-02 6.310593336820602417e-02
1.906000000000000000e+03 2.282676506042480469e+01 2.260016632080078125e+01 -8.437699079513549805e-02 -6.598739884793758392e-03 -2.729271911084651947e-02 1.670713722705841064e-02
1.907000000000000000e+03 2.243439865112304688e+01 2.270244979858398438e+01 -7.916367053985595703e-02 -9.453141130506992340e-03 -2.658504247665405273e-02 1.339689828455448151e-02
1.908000000000000000e+03 2.928811454772949219e+01 2.049747848510742188e+01 -1.131938174366950989e-01 -7.274185121059417725e-02 -5.578070133924484253e-02 6.711236387491226196e-02
1.909000000000000000e+03 2.858414840698242188e+01 2.177631378173828125e+01 -9.434598684310913086e-02 -5.226344615221023560e-02 -4.398282989859580994e-02 4.701940715312957764e-02
1.910000000000000000e+03 1.618998527526855469e+01 2.214180755615234375e+01 -1.883931271731853485e-02 9.558859164826571941e-04 -5.365028046071529388e-03 1.477782614529132843e-03
1.911000000000000000e+03 4.515342330932617188e+01 -1.387968158721923828e+01 1.227279186248779297e+00 -3.059116601943969727e-01 2.764102518558502197e-01 1.133866235613822937e-02
1.912000000000000000e+03 2.964920234680175781e+01 2.076027870178222656e+01 -9.948122501373291016e-02 -5.709156021475791931e-02 -4.697183519601821899e-02 4.967957735061645508e-02
1.913000000000000000e+03 2.994942283630371094e+01 2.040310287475585938e+01 -9.464180469512939453e-02 -5.574328079819679260e-02 -4.511552676558494568e-02 5.368269607424736023e-02
1.914000000000000000e+03 1.434247779846191406e+01 1.934877014160156250e+01 -1.459198188968002796e-03 1.234610914252698421e-03 -6.737619696650654078e-05 -7.935158209875226021e-04
1.915000000000000000e+03 3.337042236328125000e+01 2.871187448501586914e+00 5.806231638416647911e-04 9.519648301647976041e-05 2.027458976954221725e-04 -1.138215739047154784e-04
1.916000000000000000e+03 2.440872383117675781e+01 2.237025070190429688e+01 -9.364432841539382935e-02 -1.058692485094070435e-02 -3.126937523484230042e-02 2.711875550448894501e-02
1.917000000000000000e+03 1.416802024841308594e+01 2.018287277221679688e+01 -4.530026111751794815e-03 1.336034038104116917e-03 -9.581976919434964657e-04 -1.328217796981334686e-03
1.918000000000000000e+03 3.502218246459960938e+01 -1.237293243408203125e+00 -2.695099592208862305e+00 3.914148509502410889e-01 -6.911054253578186035e-01 -6.545326858758926392e-02
1.919000000000000000e+03 3.492554473876953125e+01 -1.731374979019165039e+00 -2.700635194778442383e+00 4.332263171672821045e-01 -6.802226901054382324e-01 2.330019176006317139e-01
1.920000000000000000e+03 3.521179962158203125e+01 2.746837377548217773e+00 -4.376512661110609770e-04 4.058970662299543619e-04 -9.526262147119268775e-06 2.162574855901766568e-05
1.921000000000000000e+03 1.387422752380371094e+01 1.930111122131347656e+01 -1.115054008550941944e-03 8.927240851335227489e-04 -6.669897993560880423e-05 -6.418242119252681732e-04
1.922000000000000000e+03 3.169754409790039062e+01 -2.322934865951538086e+00 -2.598652124404907227e+00 1.422838270664215088e-01 -7.369105219841003418e-01 -3.214142024517059326e-01
1.923000000000000000e+03 2.119856071472167969e+01 4.931672573089599609e+00 9.529370800009928644e-06 2.616891651996411383e-05 1.070948655979009345e-05 5.939087714068591595e-06
1.924000000000000000e+03 7.702013397216796875e+01 -1.919343757629394531e+01 8.857112698024138808e-05 6.240431685000658035e-05 4.529263605945743620e-05 -1.643426658120006323e-04
1.925000000000000000e+03 7.638399505615234375e+01 -1.908029556274414062e+01 6.507578655146062374e-05 -7.696278771618381143e-05 -3.566100303942221217e-06 -1.369858655380085111e-04
1.926000000000000000e+03 4.213315963745117188e+01 -1.788875579833984375e+01 -1.320697814226150513e-01 1.346105575561523438e+00 3.642107248306274414e-01 -2.687634229660034180e-01
1.927000000000000000e+03 4.170759201049804688e+01 -1.677894783020019531e+01 -1.074586138129234314e-01 1.695218324661254883e+00 4.763278961181640625e-01 -5.388256311416625977e-01
1.928000000000000000e+03 4.250043106079101562e+01 -1.829795646667480469e+01 -8.377655595541000366e-02 1.104019045829772949e+00 3.060727417469024658e-01 -2.024637311697006226e-01
1.929000000000000000e+03 4.287292098999023438e+01 -1.875962066650390625e+01 -5.148651823401451111e-02 9.012947678565979004e-01 2.549424767494201660e-01 -1.507223248481750488e-01
1.930000000000000000e+03 4.044826126098632812e+01 -1.678346061706542969e+01 -5.557217001914978027e-01 2.969849109649658203e+00 7.242382168769836426e-01 -2.802243232727050781e-01
1.931000000000000000e+03 2.132566070556640625e+01 4.089539527893066406e+00 -1.319693910772912204e-05 -9.959938324755057693e-06 -6.947063411644194275e-06 -4.323277607909403741e-06
1.932000000000000000e+03 7.805861663818359375e+01 -1.366513442993164062e+01 -3.564980626106262207e-02 -3.601848334074020386e-02 -2.150048688054084778e-02 -4.199360311031341553e-02
1.933000000000000000e+03 4.043891525268554688e+01 -1.077383995056152344e+01 1.827627897262573242e+00 3.873716592788696289e+00 1.710403323173522949e+00 1.119529247283935547e+00
1.934000000000000000e+03 7.286176300048828125e+01 -1.916924476623535156e+01 2.443668199703097343e-04 -1.107666830648668110e-04 4.008004543720744550e-05 4.442929639481008053e-05
1.935000000000000000e+03 7.439988708496093750e+01 -1.999115562438964844e+01 -2.512635546736419201e-05 -1.668642653385177255e-04 -5.759718624176457524e-05 -1.399243919877335429e-04
1.936000000000000000e+03 3.661648559570312500e+01 -1.264382457733154297e+01 2.196847200393676758e+00 7.043984532356262207e-01 8.703737258911132812e-01 -7.529001832008361816e-01
1.937000000000000000e+03 3.822985839843750000e+01 -1.126941204071044922e+01 2.553385257720947266e+00 3.192985773086547852e+00 1.723911285400390625e+00 -1.820028305053710938e+00
1.938000000000000000e+03 1.907788085937500000e+01 2.801560401916503906e+00 -7.987852768565062433e-06 -1.804074781830422580e-05 -7.808580448909197003e-06 1.821759497033781372e-06
1.939000000000000000e+03 1.769320869445800781e+01 3.210838794708251953e+00 1.437118771718814969e-05 1.830925430112984031e-05 9.804131877899635583e-06 -1.894642650768219028e-06
1.940000000000000000e+03 2.297680854797363281e+01 -2.986669301986694336e+00 -8.152382373809814453e-01 7.910058647394180298e-02 -2.208413034677505493e-01 -6.345921754837036133e-01
1.941000000000000000e+03 3.936090087890625000e+01 -3.432459831237792969e+00 -2.657833099365234375e+00 5.169216394424438477e-01 -6.422734856605529785e-01 6.150714159011840820e-01
1.942000000000000000e+03 3.405956268310546875e+01 -2.316939592361450195e+00 -2.579545259475708008e+00 2.979492209851741791e-02 -7.649250626564025879e-01 4.044952094554901123e-01
1.943000000000000000e+03 4.751721954345703125e+01 -1.497568416595458984e+01 5.349381566047668457e-01 -1.212745383381843567e-01 1.240990832448005676e-01 1.453337073326110840e-01
1.944000000000000000e+03 7.694970703125000000e+01 -1.404719257354736328e+01 -5.342874303460121155e-02 -2.359463460743427277e-02 -2.310701273381710052e-02 -5.018274858593940735e-02
1.945000000000000000e+03 4.835739898681640625e+01 -1.518477916717529297e+01 4.707576036453247070e-01 2.356387488543987274e-02 1.482964456081390381e-01 1.844905018806457520e-01
1.946000000000000000e+03 4.700679779052734375e+01 -1.277879047393798828e+01 9.194844961166381836e-01 -3.807016611099243164e-01 1.616348475217819214e-01 6.146649122238159180e-01
1.947000000000000000e+03 1.490493583679199219e+01 3.069134235382080078e+00 1.709823300188872963e-05 2.496928573236800730e-05 1.262025580217596143e-05 5.049575065640965477e-06
1.948000000000000000e+03 6.778106689453125000e+01 -1.208386611938476562e+01 -1.188848257064819336e+00 2.225757390260696411e-01 -2.898817658424377441e-01 3.540625795722007751e-02
1.949000000000000000e+03 6.972986602783203125e+01 -1.392989253997802734e+01 -4.633327126502990723e-01 7.658273726701736450e-02 -1.160249933600425720e-01 1.634118147194385529e-02
1.950000000000000000e+03 1.975769805908203125e+01 2.911765813827514648e+00 8.786590115050785244e-06 1.863131728896405548e-05 8.225372766901273280e-06 -3.684737748699262738e-06
1.951000000000000000e+03 7.115957641601562500e+01 -2.062340736389160156e+01 -5.425114068202674389e-05 -7.276716496562585235e-05 -3.810549242189154029e-05 2.094426017720252275e-04
1.952000000000000000e+03 7.140956878662109375e+01 -1.916949462890625000e+01 2.432854525977745652e-04 -4.506940967985428870e-05 5.946481178398244083e-05 1.740272564347833395e-04
1.953000000000000000e+03 1.342213726043701172e+01 2.470940828323364258e+00 2.257160076624131761e-06 -1.422620334778912365e-05 -3.590713049561600201e-06 1.696503204584587365e-05
1.954000000000000000e+03 1.204060268402099609e+01 3.131864547729492188e+00 3.685788396978750825e-05 1.518752196716377512e-05 1.561362114443909377e-05 1.255368806596379727e-05
1.955000000000000000e+03 1.699910926818847656e+01 3.149093866348266602e+00 -9.948708793672267348e-06 -1.112765767175005749e-05 -6.322909939626697451e-06 3.998309239250374958e-06
1.956000000000000000e+03 1.699518966674804688e+01 2.580532550811767578e+00 1.118079035222763196e-05 2.103231963701546192e-05 9.663933269621338695e-06 2.547499207139480859e-07
1.957000000000000000e+03 1.837761688232421875e+01 3.281393766403198242e+00 -1.094553681468823925e-05 -1.338921993010444567e-05 -7.300427114387275651e-06 3.190150891896337271e-06
1.958000000000000000e+03 3.576676559448242188e+01 3.502186298370361328e+00 -1.466478861402720213e-04 4.887572722509503365e-04 1.026328172883950174e-04 6.632022268604487181e-05
1.959000000000000000e+03 7.510144042968750000e+01 -1.988515090942382812e+01 1.187138841487467289e-04 -5.884736310690641403e-05 1.795995558495633304e-05 -3.632499283412471414e-05
1.960000000000000000e+03 1.419914054870605469e+01 3.078997850418090820e+00 -2.046695271928911097e-06 -1.018374314298853278e-05 -3.669131501737865619e-06 1.898389200505334884e-05
1.961000000000000000e+03 1.414297294616699219e+01 2.471031904220581055e+00 1.855251503002364188e-05 2.248063174192793667e-05 1.230994439538335428e-05 6.856559139123419300e-06
1.962000000000000000e+03 1.560569000244140625e+01 3.073934078216552734e+00 -5.345760200725635514e-06 -1.091334343072958291e-05 -4.877731043961830437e-06 1.061348575603915378e-05
1.963000000000000000e+03 3.401712417602539062e+01 3.728261947631835938e+00 -9.949353989213705063e-04 3.733533376362174749e-04 -1.864746009232476354e-04 7.459546759491786361e-05
1.964000000000000000e+03 1.131521892547607422e+01 3.144959449768066406e+00 1.178384172817459330e-05 -1.874495319498237222e-05 -2.088333303618128411e-06 2.337176010769326240e-05
1.965000000000000000e+03 1.276677131652832031e+01 3.115186452865600586e+00 3.839425971818855032e-06 -1.200681253976654261e-05 -2.450216015859041363e-06 2.402797326794825494e-05
1.966000000000000000e+03 1.058996009826660156e+01 3.155018329620361328e+00 4.710732537205331028e-05 1.022389733407180756e-05 1.719936699373647571e-05 1.013713972497498617e-05
1.967000000000000000e+03 7.652249813079833984e+00 3.232104778289794922e+00 6.137093441793695092e-05 3.347411848153569736e-06 1.941550362971611321e-05 -1.454666926292702556e-05
1.968000000000000000e+03 1.069927883148193359e+01 -4.085847854614257812e+00 -5.013506859540939331e-02 -8.039955794811248779e-02 -3.916038945317268372e-02 -6.547787040472030640e-02
1.969000000000000000e+03 1.059291839599609375e+01 -3.339090347290039062e+00 -2.955584973096847534e-02 -5.438679829239845276e-02 -2.518279477953910828e-02 -5.032907426357269287e-02
1.970000000000000000e+03 7.506037139892578125e+01 -1.304578876495361328e+01 -1.793459206819534302e-01 -2.362451143562793732e-02 -6.089112907648086548e-02 -1.448668986558914185e-01
1.971000000000000000e+03 7.436143493652343750e+01 -1.295871162414550781e+01 -2.198598086833953857e-01 -8.081139996647834778e-03 -6.838228553533554077e-02 -1.488397419452667236e-01
1.972000000000000000e+03 7.628255462646484375e+01 -1.252126502990722656e+01 -9.721481055021286011e-02 -7.218743115663528442e-02 -5.082067102193832397e-02 -1.305187642574310303e-01
1.973000000000000000e+03 7.566035461425781250e+01 -1.292999076843261719e+01 -1.500220894813537598e-01 -5.086557567119598389e-02 -6.026630103588104248e-02 -1.392425149679183960e-01
1.974000000000000000e+03 1.504216480255126953e+01 -3.097393512725830078e+00 -1.421099603176116943e-01 -1.052813604474067688e-01 -7.421739399433135986e-02 -2.158635407686233521e-01
1.975000000000000000e+03 9.735049247741699219e+00 -2.616846561431884766e+00 7.837511599063873291e-03 -2.936366759240627289e-02 -6.457846611738204956e-03 -1.964386738836765289e-02
1.976000000000000000e+03 7.507750034332275391e+00 2.534581661224365234e+00 1.755276935000438243e-05 -2.524968112993519753e-05 -2.309073579453979619e-06 3.091363169005489908e-06
1.977000000000000000e+03 6.913982868194580078e+00 3.253090858459472656e+00 1.595719186298083514e-05 -2.876950566133018583e-05 -3.843694230454275385e-06 1.007711830425250810e-06
1.978000000000000000e+03 9.133486747741699219e+00 3.185183048248291016e+00 5.624123514280654490e-05 6.298398602666566148e-06 1.876188980531878769e-05 2.197638053758055321e-07
1.979000000000000000e+03 8.396341323852539062e+00 3.208380460739135742e+00 2.153697641915641725e-05 -3.193669181200675666e-05 -3.119914481430896558e-06 1.063637955667218193e-05
1.980000000000000000e+03 5.468839645385742188e+00 3.349064350128173828e+00 1.477716432418674231e-05 -1.672209145908709615e-05 -5.834780836266872939e-07 -9.571971304467297159e-07
1.981000000000000000e+03 4.751953125000000000e+00 3.479743480682373047e+00 4.118715514778159559e-05 6.569549668711260892e-07 1.255323331861291081e-05 -4.287715637474320829e-05
1.982000000000000000e+03 3.744076490402221680e+00 2.887804508209228516e+00 2.354954085603822023e-05 1.232184604305075482e-05 1.076141597877722234e-05 -2.697508716664742678e-05
1.983000000000000000e+03 4.396230220794677734e+00 4.370214939117431641e+00 1.872249413281679153e-05 -7.849767825973685831e-06 3.261817710153991356e-06 -7.521809311583638191e-05
1.984000000000000000e+03 6.190092563629150391e+00 3.282391786575317383e+00 5.959977352176792920e-05 5.297216375765856355e-06 1.946909651451278478e-05 -2.882914668589364737e-05
1.985000000000000000e+03 6.357698917388916016e+00 3.967543840408325195e+00 1.482376683270558715e-05 -3.533646668074652553e-05 -6.153809408715460449e-06 -4.601961791195208207e-06
1.986000000000000000e+03 9.863221168518066406e+00 3.166927337646484375e+00 1.900026290968526155e-05 -2.743247569014783949e-05 -2.529664016037713736e-06 1.887512735265772790e-05
1.987000000000000000e+03 5.800364494323730469e+00 -2.720574855804443359e+00 2.167426049709320068e-02 -7.231238763779401779e-03 4.332906566560268402e-03 2.985775284469127655e-02
1.988000000000000000e+03 6.685363292694091797e+00 -3.453419446945190430e+00 2.774129388853907585e-03 -2.080136165022850037e-02 -5.408169236034154892e-03 2.132217586040496826e-02
1.989000000000000000e+03 3.080125093460083008e+00 -2.384965419769287109e+00 1.581187359988689423e-02 6.243087351322174072e-03 6.616488564759492874e-03 3.086246177554130554e-02
1.990000000000000000e+03 4.927626132965087891e+00 -3.538859367370605469e+00 4.295507911592721939e-03 -5.551393143832683563e-03 -3.767656162381172180e-04 3.403197228908538818e-02
1.991000000000000000e+03 8.263754844665527344e+00 -3.353234529495239258e+00 -3.583512268960475922e-03 -3.305101394653320312e-02 -1.099035702645778656e-02 8.087577298283576965e-04
1.992000000000000000e+03 5.391653060913085938e+00 -4.867322921752929688e+00 -1.713689602911472321e-02 -1.731581613421440125e-02 -1.033581327646970749e-02 2.717884071171283722e-02
1.993000000000000000e+03 2.324609994888305664e+00 -4.233599662780761719e+00 3.402629517950117588e-04 2.449802123010158539e-02 7.451485376805067062e-03 3.161425143480300903e-02
1.994000000000000000e+03 2.397898912429809570e+00 -2.820929288864135742e+00 8.061008527874946594e-03 1.317369192838668823e-02 6.370410323143005371e-03 3.020022250711917877e-02
1.995000000000000000e+03 9.035710334777832031e+00 -3.359153509140014648e+00 -1.039836090058088303e-02 -3.913423046469688416e-02 -1.485977694392204285e-02 -1.325762365013360977e-02
1.996000000000000000e+03 7.594818115234375000e+01 -2.038408279418945312e+01 2.484333708707708865e-05 -4.530089790932834148e-05 -6.137267519079614431e-06 -1.186228473670780659e-04
1.997000000000000000e+03 4.272003173828125000e+01 -2.022169303894042969e+01 -7.999661564826965332e-02 9.745499491691589355e-01 2.683660089969635010e-01 -1.571724750101566315e-02
1.998000000000000000e+03 4.413758468627929688e+01 -2.184169578552246094e+01 2.412156434729695320e-03 4.422263801097869873e-01 1.333915591239929199e-01 -2.228650078177452087e-02
1.999000000000000000e+03 3.194215393066406250e+01 -2.789393901824951172e+00 -2.130208253860473633e+00 8.304909616708755493e-02 -6.141477227210998535e-01 -2.962917387485504150e-01
2.000000000000000000e+03 3.795296859741210938e+01 -1.425016164779663086e+00 -2.087022304534912109e+00 4.661246836185455322e-01 -4.862693250179290771e-01 6.874819993972778320e-01
2.001000000000000000e+03 1.722859191894531250e+01 -3.994969606399536133e+00 -2.087051123380661011e-01 -1.599408090114593506e-01 -1.105937734246253967e-01 -3.542177081108093262e-01
2.002000000000000000e+03 1.822292900085449219e+01 -3.239596605300903320e+00 -2.866384685039520264e-01 -1.244594603776931763e-01 -1.233293786644935608e-01 -3.661109805107116699e-01
2.003000000000000000e+03 4.086551666259765625e+01 -1.103468322753906250e+01 2.282388687133789062e+00 3.256223440170288086e+00 1.661583542823791504e+00 1.397250294685363770e+00
2.004000000000000000e+03 3.933879852294921875e+01 -1.018327713012695312e+01 1.082128643989562988e+00 3.490621328353881836e+00 1.371824979782104492e+00 -6.371342539787292480e-01
2.005000000000000000e+03 1.211226749420166016e+01 -3.216288089752197266e+00 -5.515908077359199524e-02 -6.985210627317428589e-02 -3.750335797667503357e-02 -9.735123813152313232e-02
2.006000000000000000e+03 1.285400390625000000e+01 -3.156015634536743164e+00 -7.156534492969512939e-02 -7.938892394304275513e-02 -4.528628289699554443e-02 -1.239834949374198914e-01
2.007000000000000000e+03 7.199106597900390625e+01 -1.306360626220703125e+01 -3.827764093875885010e-01 5.427793413400650024e-02 -9.854954481124877930e-02 -1.469508707523345947e-01
2.008000000000000000e+03 7.277207946777343750e+01 -1.294952774047851562e+01 -3.400081694126129150e-01 4.805222526192665100e-02 -8.758678287267684937e-02 -1.493679583072662354e-01
2.009000000000000000e+03 7.043929290771484375e+01 -1.309002113342285156e+01 -5.466654896736145020e-01 1.087228357791900635e-01 -1.313827931880950928e-01 -9.356051683425903320e-02
2.010000000000000000e+03 1.576708602905273438e+01 -3.093390464782714844e+00 -1.735714524984359741e-01 -1.148284897208213806e-01 -8.651997894048690796e-02 -2.538622617721557617e-01
2.011000000000000000e+03 3.691494750976562500e+01 4.732002735137939453e+00 2.407101856078952551e-04 -9.292376926168799400e-04 -2.065582521026954055e-04 4.623128625098615885e-04
2.012000000000000000e+03 7.357704162597656250e+01 -1.290072822570800781e+01 -2.768023908138275146e-01 1.101595535874366760e-02 -7.973593473434448242e-02 -1.703877896070480347e-01
2.013000000000000000e+03 7.366426086425781250e+01 -2.001531600952148438e+01 2.370279107708483934e-04 -1.601888361619785428e-04 2.305172165506519377e-05 -8.143614650180097669e-06
2.014000000000000000e+03 2.474281311035156250e+01 -3.299575805664062500e+00 -9.184245467185974121e-01 -4.862525034695863724e-03 -2.769861221313476562e-01 -8.543334603309631348e-01
2.015000000000000000e+03 3.719740295410156250e+01 4.073094844818115234e+00 6.102470069890841842e-05 1.947748969541862607e-04 7.673988147871568799e-05 1.030363637255504727e-04
2.016000000000000000e+03 2.281639862060546875e+01 -1.214651942253112793e+00 -9.534696340560913086e-01 1.896256506443023682e-01 -2.291531860828399658e-01 -2.188919633626937866e-01
2.017000000000000000e+03 2.155706787109375000e+01 -2.365550518035888672e+00 -6.727167367935180664e-01 4.833975434303283691e-02 -1.873130947351455688e-01 -4.013409614562988281e-01
2.018000000000000000e+03 6.952472686767578125e+01 -1.953092765808105469e+01 1.772101386450231075e-04 2.375377225689589977e-04 1.244243612745776772e-04 2.571918303146958351e-04
2.019000000000000000e+03 1.913223838806152344e+01 -3.103104591369628906e+00 -3.463257849216461182e-01 -1.025882437825202942e-01 -1.346742063760757446e-01 -3.963282108306884766e-01
2.020000000000000000e+03 2.561942481994628906e+01 -4.267224788665771484e+00 -5.079808831214904785e-01 -1.081428676843643188e-01 -1.848371177911758423e-01 -9.529877901077270508e-01
2.021000000000000000e+03 4.358203887939453125e+01 -2.002764320373535156e+01 -2.457133680582046509e-02 5.972388982772827148e-01 1.718002706766128540e-01 -3.279801830649375916e-02
2.022000000000000000e+03 2.350095748901367188e+01 -1.753314971923828125e+00 -1.124573111534118652e+00 2.135695517063140869e-01 -2.733010649681091309e-01 -3.561618328094482422e-01
2.023000000000000000e+03 1.997910881042480469e+01 -2.857834100723266602e+00 -4.486902058124542236e-01 -5.982822179794311523e-02 -1.525555253028869629e-01 -4.068897962570190430e-01
2.024000000000000000e+03 2.077246665954589844e+01 -2.638804435729980469e+00 -5.404809117317199707e-01 -1.249500177800655365e-02 -1.658927798271179199e-01 -4.057658314704895020e-01
2.025000000000000000e+03 3.735135650634765625e+01 -1.376636600494384766e+01 2.350375652313232422e+00 1.724207162857055664e+00 1.222374796867370605e+00 6.838605403900146484e-01
2.026000000000000000e+03 5.145423126220703125e+01 2.441460418701171875e+01 2.456097155809402466e-01 5.050490796566009521e-02 8.883438259363174438e-02 -2.058265209197998047e-01
2.027000000000000000e+03 3.353217697143554688e+01 -3.708560466766357422e+00 -1.418238162994384766e+00 1.390400379896163940e-01 -3.837594389915466309e-01 1.415034979581832886e-01
2.028000000000000000e+03 3.354460144042968750e+01 -3.038608074188232422e+00 -1.863290548324584961e+00 -1.447237329557538033e-03 -5.594213604927062988e-01 1.486917883157730103e-01
2.029000000000000000e+03 5.894113540649414062e+01 8.188785314559936523e-01 1.086335301399230957e+00 2.342707395553588867e+00 1.028712868690490723e+00 1.504522442817687988e+00
2.030000000000000000e+03 6.157424163818359375e+01 1.948909282684326172e+00 6.875472664833068848e-01 2.349376678466796875e+00 9.110771417617797852e-01 7.903587818145751953e-01
2.031000000000000000e+03 4.722143554687500000e+01 -6.290594577789306641e+00 -1.238743782043457031e+00 -7.390314340591430664e-01 -5.933325886726379395e-01 1.460618257522583008e+00
2.032000000000000000e+03 6.280948257446289062e+01 8.191684722900390625e+00 5.683021545410156250e-01 4.395783901214599609e+00 1.489225745201110840e+00 8.704100251197814941e-01
2.033000000000000000e+03 6.747146606445312500e+01 -1.325000095367431641e+01 -7.485572099685668945e-01 -6.158792227506637573e-02 -2.430435419082641602e-01 1.649290174245834351e-01
2.034000000000000000e+03 5.393223571777343750e+01 2.473511123657226562e+01 3.981069028377532959e-01 1.934237331151962280e-01 1.774591952562332153e-01 -4.151316881179809570e-01
2.035000000000000000e+03 5.640442276000976562e+01 -1.183363056182861328e+01 -1.109920024871826172e+00 4.420715570449829102e-01 -2.003545463085174561e-01 2.303815335035324097e-01
2.036000000000000000e+03 2.303849792480468750e+01 -9.490416526794433594e+00 2.385764867067337036e-01 -1.382934302091598511e-01 3.008492104709148407e-02 -1.353989094495773315e-01
2.037000000000000000e+03 2.061974525451660156e+01 -8.845676422119140625e+00 -1.131019275635480881e-02 -2.308678627014160156e-01 -7.265341281890869141e-02 -3.924240171909332275e-01
2.038000000000000000e+03 4.437189102172851562e+01 -2.437202644348144531e+01 1.503342762589454651e-02 3.466382026672363281e-01 1.085014864802360535e-01 -3.687311336398124695e-02
2.039000000000000000e+03 1.880014610290527344e+01 -3.097391891479492188e+01 2.377091944217681885e-01 1.701952517032623291e-01 1.223713308572769165e-01 -1.355014145374298096e-01
2.040000000000000000e+03 1.955727958679199219e+01 -8.872535705566406250e+00 -7.740439474582672119e-02 -2.848741114139556885e-01 -1.086835488677024841e-01 -4.138435423374176025e-01
2.041000000000000000e+03 6.870240783691406250e+01 -2.634460067749023438e+01 -3.372314153239130974e-03 4.096381599083542824e-04 -8.888027514331042767e-04 1.246463216375559568e-04
2.042000000000000000e+03 1.035454845428466797e+01 -1.691662979125976562e+01 -1.637385040521621704e-01 -3.095565736293792725e-01 -1.419885158538818359e-01 -3.391101062297821045e-01
2.043000000000000000e+03 3.617222976684570312e+01 4.356459617614746094e+00 3.397502005100250244e-04 5.516210221685469151e-04 2.674113493412733078e-04 -3.511966788209974766e-04
2.044000000000000000e+03 3.772846221923828125e+01 5.178411483764648438e+00 4.060474748257547617e-04 8.141762809827923775e-04 3.660671354737132788e-04 -6.051384843885898590e-04
2.045000000000000000e+03 5.176021194458007812e+01 -1.292653179168701172e+01 -3.787712752819061279e-01 1.891239583492279053e-01 -5.689419433474540710e-02 7.635247707366943359e-01
2.046000000000000000e+03 5.068712997436523438e+01 -1.289253902435302734e+01 -1.255791634321212769e-01 9.359156340360641479e-02 -9.596278890967369080e-03 7.982497215270996094e-01
2.047000000000000000e+03 6.192245864868164062e+01 -3.282391357421875000e+01 -2.386945113539695740e-02 -1.021674979710951447e-04 -7.191485725343227386e-03 1.996615342795848846e-02
2.048000000000000000e+03 2.168856239318847656e+01 -8.673362731933593750e+00 8.689062297344207764e-02 -2.075368016958236694e-01 -3.619385138154029846e-02 -3.498214483261108398e-01
2.049000000000000000e+03 6.657385253906250000e+01 -1.001751327514648438e+01 -1.231568932533264160e+00 -2.023292146623134613e-02 -3.755405545234680176e-01 -5.865788459777832031e-01
2.050000000000000000e+03 6.691345214843750000e+01 -1.169738483428955078e+01 -1.870740532875061035e+00 1.882077455520629883e-01 -5.047598481178283691e-01 -2.544897794723510742e-01
2.051000000000000000e+03 5.394258880615234375e+01 -1.237115669250488281e+01 -8.087212443351745605e-01 3.563793897628784180e-01 -1.357025653123855591e-01 5.998168587684631348e-01
2.052000000000000000e+03 5.514156341552734375e+01 -1.206225395202636719e+01 -9.790223836898803711e-01 3.838212788105010986e-01 -1.785603314638137817e-01 4.570988714694976807e-01
2.053000000000000000e+03 5.284782791137695312e+01 -1.275463581085205078e+01 -6.387189626693725586e-01 2.695566713809967041e-01 -1.107486784458160400e-01 6.967930197715759277e-01
2.054000000000000000e+03 6.054091262817382812e+01 -1.177577972412109375e+01 -1.819592356681823730e+00 2.220398336648941040e-01 -4.792657792568206787e-01 -3.222035467624664307e-01
2.055000000000000000e+03 4.727278137207031250e+01 -1.347332859039306641e+01 7.835221886634826660e-01 -2.743802070617675781e-01 1.527425944805145264e-01 3.820807933807373047e-01
2.056000000000000000e+03 4.949741363525390625e+01 -1.396978855133056641e+01 1.854995340108871460e-01 3.112089587375521660e-03 5.658349022269248962e-02 5.012760162353515625e-01
2.057000000000000000e+03 3.323980712890625000e+01 -2.867139625549316406e+01 5.375151038169860840e-01 1.249454140663146973e+00 5.360907912254333496e-01 6.754916310310363770e-01
2.058000000000000000e+03 6.564006805419921875e+01 1.978013038635253906e+01 7.975262999534606934e-01 2.508803129196166992e+00 9.918988347053527832e-01 3.801510110497474670e-02
2.059000000000000000e+03 7.844882965087890625e+01 -2.132294464111328125e+01 1.135053316829726100e-04 1.954420586116611958e-04 9.268421854358166456e-05 -1.214856674778275192e-04
2.060000000000000000e+03 7.729180145263671875e+01 -2.260696792602539062e+01 8.298012835439294577e-05 5.854242408531717956e-05 4.245676609571091831e-05 -1.583057892275974154e-04
2.061000000000000000e+03 7.702402496337890625e+01 -3.055117416381835938e+01 -2.656484721228480339e-04 -1.345855998806655407e-03 -4.834513529203832150e-04 1.407947507686913013e-03
2.062000000000000000e+03 7.694989776611328125e+01 -2.661093139648437500e+01 -5.876899231225252151e-04 -2.715745358727872372e-04 -2.577793202362954617e-04 3.665278200060129166e-04
2.063000000000000000e+03 7.727955627441406250e+01 -2.392611694335937500e+01 -2.803643583320081234e-04 1.769843402144033462e-05 -7.879977056290954351e-05 -1.245438579644542187e-05
2.064000000000000000e+03 7.707824707031250000e+01 -2.523577499389648438e+01 -4.922909647575579584e-05 -1.269961358048021793e-04 -5.286757368594408035e-05 9.137485903920605779e-05
2.065000000000000000e+03 7.697404479980468750e+01 -3.417053604125976562e+01 -2.608766662888228893e-04 -3.530539572238922119e-03 -1.137424842454493046e-03 2.244411502033472061e-03
2.066000000000000000e+03 7.699525451660156250e+01 -2.799242782592773438e+01 -2.842384565155953169e-04 -5.191475502215325832e-04 -2.410158049315214157e-04 7.692892686463892460e-04
2.067000000000000000e+03 7.704898071289062500e+01 -3.179442977905273438e+01 -6.164772785268723965e-04 -1.982894027605652809e-03 -7.798114093020558357e-04 1.784600433893501759e-03
2.068000000000000000e+03 7.700605773925781250e+01 -2.929430389404296875e+01 -6.486587808467447758e-04 -9.647203842177987099e-04 -4.840137553401291370e-04 1.092125778086483479e-03
2.069000000000000000e+03 7.562774658203125000e+01 -3.398422622680664062e+01 -1.975094201043248177e-04 -3.138923086225986481e-03 -1.000929740257561207e-03 3.189551644027233124e-03
2.070000000000000000e+03 7.506520080566406250e+01 -3.754522705078125000e+01 8.912951452657580376e-04 -5.693491548299789429e-03 -1.440658932551741600e-03 2.545030321925878525e-03
2.071000000000000000e+03 4.436851501464843750e+01 -1.964299774169921875e+01 1.022174395620822906e-02 3.465534448623657227e-01 1.070325598120689392e-01 -4.673881083726882935e-02
2.072000000000000000e+03 4.315639114379882812e+01 -2.313378524780273438e+01 3.238801285624504089e-02 6.749866008758544922e-01 2.122123986482620239e-01 -3.315202426165342331e-03
2.073000000000000000e+03 3.050712776184082031e+01 -6.991175651550292969e+00 1.556822299957275391e+00 1.068645954132080078e+00 7.876405119895935059e-01 -6.884569525718688965e-01
2.074000000000000000e+03 2.785348892211914062e+01 -6.964701652526855469e+00 1.688657879829406738e+00 2.737911045551300049e-01 5.887346863746643066e-01 -8.876010775566101074e-01
2.075000000000000000e+03 4.354005050659179688e+01 1.915421867370605469e+01 -6.693246960639953613e-02 2.825288102030754089e-02 -1.160387694835662842e-02 -9.845537133514881134e-03
2.076000000000000000e+03 4.248040390014648438e+01 1.864927864074707031e+01 -6.966838240623474121e-02 2.447339706122875214e-02 -1.355849578976631165e-02 -1.338613219559192657e-03
2.077000000000000000e+03 7.677695465087890625e+01 3.888247489929199219e+00 5.490276962518692017e-02 -1.647254467010498047e+00 -4.777055382728576660e-01 -4.243692159652709961e-01
2.078000000000000000e+03 7.678118133544921875e+01 2.496200561523437500e+00 4.785845428705215454e-02 -1.517714142799377441e+00 -4.409566819667816162e-01 -4.597907662391662598e-01
2.079000000000000000e+03 7.682745361328125000e+01 1.085946178436279297e+01 9.090380370616912842e-02 -2.111660957336425781e+00 -6.062271595001220703e-01 -1.413010060787200928e-01
2.080000000000000000e+03 7.682036590576171875e+01 9.474742889404296875e+00 7.582761347293853760e-02 -2.058738470077514648e+00 -5.948732495307922363e-01 -2.052896916866302490e-01
2.081000000000000000e+03 7.680901336669921875e+01 1.780624198913574219e+01 7.107616961002349854e-02 -2.057958602905273438e+00 -5.960647463798522949e-01 2.165738791227340698e-01
2.082000000000000000e+03 7.680631256103515625e+01 1.644411849975585938e+01 8.870521932840347290e-02 -2.116556882858276367e+00 -6.083555221557617188e-01 1.588342487812042236e-01
2.083000000000000000e+03 7.669380187988281250e+01 2.182146453857421875e+01 5.423965305089950562e-02 -1.759530544281005859e+00 -5.115872621536254883e-01 3.754019141197204590e-01
2.084000000000000000e+03 7.659245300292968750e+01 2.314540672302246094e+01 2.697745524346828461e-02 -1.614052176475524902e+00 -4.761224389076232910e-01 4.042862653732299805e-01
2.085000000000000000e+03 7.542962646484375000e+01 3.139093208312988281e+01 -1.043993011116981506e-01 -7.309780716896057129e-01 -2.506132125854492188e-01 3.674773871898651123e-01
2.086000000000000000e+03 7.646690368652343750e+01 2.448691177368164062e+01 2.639244683086872101e-02 -1.464280128479003906e+00 -4.313662946224212646e-01 4.344252049922943115e-01
2.087000000000000000e+03 7.680027770996093750e+01 1.915351676940917969e+01 7.200596481561660767e-02 -1.981645584106445312e+00 -5.728918910026550293e-01 2.711932957172393799e-01
2.088000000000000000e+03 7.680368041992187500e+01 1.506175613403320312e+01 9.344826638698577881e-02 -2.143319129943847656e+00 -6.149612665176391602e-01 8.089869469404220581e-02
2.089000000000000000e+03 7.681171417236328125e+01 1.366374111175537109e+01 1.015902534127235413e-01 -2.155214548110961914e+00 -6.160872578620910645e-01 1.233487296849489212e-02
2.090000000000000000e+03 7.682494354248046875e+01 1.225649929046630859e+01 9.796135127544403076e-02 -2.150214433670043945e+00 -6.156759262084960938e-01 -7.123034447431564331e-02
2.091000000000000000e+03 7.681078338623046875e+01 8.086463928222656250e+00 7.627610117197036743e-02 -1.981652259826660156e+00 -5.716128349304199219e-01 -2.639036774635314941e-01
2.092000000000000000e+03 7.679980468750000000e+01 6.688102722167968750e+00 7.211069017648696899e-02 -1.887991309165954590e+00 -5.447641611099243164e-01 -3.218272030353546143e-01
2.093000000000000000e+03 7.680359649658203125e+01 1.109878778457641602e+00 3.434012457728385925e-02 -1.377657532691955566e+00 -4.029952287673950195e-01 -4.905601441860198975e-01
2.094000000000000000e+03 7.684151458740234375e+01 -2.640348374843597412e-01 2.440534345805644989e-02 -1.229200243949890137e+00 -3.614384829998016357e-01 -5.055214166641235352e-01
2.095000000000000000e+03 7.688728332519531250e+01 -1.629586100578308105e+00 3.500645747408270836e-03 -1.079087495803833008e+00 -3.226760625839233398e-01 -5.086811184883117676e-01
2.096000000000000000e+03 7.696231842041015625e+01 -7.047002792358398438e+00 -7.397771626710891724e-02 -4.647167026996612549e-01 -1.616083234548568726e-01 -3.958458900451660156e-01
2.097000000000000000e+03 7.696280670166015625e+01 -8.386019706726074219e+00 -7.849434018135070801e-02 -3.401376008987426758e-01 -1.255895793437957764e-01 -3.338433504104614258e-01
2.098000000000000000e+03 7.686048126220703125e+01 -1.186358165740966797e+01 -9.695763140916824341e-02 -1.076722070574760437e-01 -6.138895079493522644e-02 -1.492858976125717163e-01
2.099000000000000000e+03 7.693372344970703125e+01 -9.712696075439453125e+00 -9.923960268497467041e-02 -2.277747690677642822e-01 -9.810430556535720825e-02 -2.672552764415740967e-01
2.100000000000000000e+03 7.700199127197265625e+01 -1.091647338867187500e+01 -9.527452290058135986e-02 -1.531052440404891968e-01 -7.451392710208892822e-02 -1.953721344470977783e-01
2.101000000000000000e+03 7.692434692382812500e+01 -2.994228363037109375e+00 -7.087729871273040771e-03 -9.196363687515258789e-01 -2.780172228813171387e-01 -5.019590258598327637e-01
2.102000000000000000e+03 7.694515991210937500e+01 -4.355750560760498047e+00 -3.686675056815147400e-02 -7.585604190826416016e-01 -2.386281490325927734e-01 -4.788401722908020020e-01
2.103000000000000000e+03 7.723923492431640625e+01 3.330773162841796875e+01 -4.335532337427139282e-02 -9.276808500289916992e-01 -2.913108468055725098e-01 2.387611865997314453e-01
2.104000000000000000e+03 7.488402557373046875e+01 2.549052429199218750e+01 9.358455426990985870e-03 -8.873367905616760254e-01 -2.633934915065765381e-01 5.487582087516784668e-01
2.105000000000000000e+03 7.628438568115234375e+01 2.584072494506835938e+01 -7.471570279449224472e-03 -1.298726558685302734e+00 -3.918594121932983398e-01 4.588617086410522461e-01
2.106000000000000000e+03 3.875874328613281250e+01 -2.790341758728027344e+01 1.014490202069282532e-01 1.321876406669616699e+00 4.269976317882537842e-01 -3.311244538053870201e-03
2.107000000000000000e+03 3.990728759765625000e+01 1.340186309814453125e+01 -2.998895198106765747e-02 6.801359355449676514e-03 -6.956277880817651749e-03 -4.713245201855897903e-03
2.108000000000000000e+03 4.462914657592773438e+01 1.972456550598144531e+01 -7.155328989028930664e-02 1.843265630304813385e-02 -1.593619026243686676e-02 -7.325170561671257019e-03
2.109000000000000000e+03 3.168649101257324219e+01 -3.195220375061035156e+01 2.429428845643997192e-01 9.590108990669250488e-01 3.605861365795135498e-01 3.684388697147369385e-01
2.110000000000000000e+03 3.505412673950195312e+01 -2.928487586975097656e+01 1.881845891475677490e-01 1.450753450393676758e+00 4.916814267635345459e-01 2.993567287921905518e-01
2.111000000000000000e+03 3.512545347213745117e+00 3.066640853881835938e+01 -4.618217062670737505e-04 -6.652847863733768463e-03 -2.134400885552167892e-03 4.167316481471061707e-03
2.112000000000000000e+03 3.543535232543945312e+00 3.208367919921875000e+01 2.224707714049145579e-04 -8.007394149899482727e-03 -2.335477154701948166e-03 4.306147806346416473e-03
2.113000000000000000e+03 3.138241052627563477e+00 2.359149932861328125e+01 -4.706625186372548342e-04 -9.609805420041084290e-04 -4.294929094612598419e-04 1.378000481054186821e-03
2.114000000000000000e+03 3.203572511672973633e+00 2.497998237609863281e+01 -1.099250046536326408e-03 -1.653012586757540703e-03 -8.256787550635635853e-04 1.920043141581118107e-03
2.115000000000000000e+03 2.349596023559570312e+00 3.652441024780273438e+01 7.883466314524412155e-04 -1.276276167482137680e-02 -3.592324443161487579e-03 2.221943810582160950e-03
2.116000000000000000e+03 3.270680427551269531e+00 2.638525962829589844e+01 -5.660325405187904835e-04 -2.635881071910262108e-03 -9.605740779079496861e-04 2.741848118603229523e-03
2.117000000000000000e+03 3.349973678588867188e+00 2.780394554138183594e+01 -1.000291667878627777e-03 -3.776883939281105995e-03 -1.433152705430984497e-03 3.249994944781064987e-03
2.118000000000000000e+03 3.437596321105957031e+00 2.923070144653320312e+01 -3.048226062674075365e-04 -5.143980961292982101e-03 -1.634641084820032120e-03 4.008075688034296036e-03
2.119000000000000000e+03 3.654291391372680664e+00 -2.767084312438964844e+01 2.736144326627254486e-02 -5.608727335929870605e-01 -1.600533872842788696e-01 -1.175978854298591614e-01
2.120000000000000000e+03 3.618224143981933594e+00 -2.622383689880371094e+01 3.114263154566287994e-02 -5.259771347045898438e-01 -1.484503448009490967e-01 -1.370843797922134399e-01
2.121000000000000000e+03 3.072065591812133789e+00 2.221483802795410156e+01 -8.718426106497645378e-04 -4.245495074428617954e-04 -3.889176296070218086e-04 7.352030370384454727e-04
2.122000000000000000e+03 3.199606895446777344e+00 -3.171274375915527344e+01 1.949883252382278442e-02 -6.622399091720581055e-01 -1.928223222494125366e-01 -5.340470746159553528e-02
2.123000000000000000e+03 3.037056207656860352e+00 1.669738006591796875e+01 -2.865341084543615580e-04 1.783163461368530989e-04 -3.246532651246525347e-05 -2.979824203066527843e-04
2.124000000000000000e+03 2.964731931686401367e+00 1.810913848876953125e+01 8.009716111700981855e-05 1.604399003554135561e-04 7.216111407615244389e-05 -1.537243952043354511e-04
2.125000000000000000e+03 3.185160160064697266e+00 1.367389774322509766e+01 -1.203904394060373306e-04 9.586249507265165448e-05 -7.358381935773650184e-06 -2.574389218352735043e-04
2.126000000000000000e+03 3.085126161575317383e+00 6.446292877197265625e+00 1.130331947933882475e-04 2.746726386249065399e-05 4.215013541397638619e-05 -9.731089085107669234e-05
2.127000000000000000e+03 3.002815961837768555e+00 8.382062911987304688e+00 -8.586233889218419790e-05 3.075311178690753877e-05 -1.653276922297663987e-05 -1.285337057197466493e-04
2.128000000000000000e+03 1.712179780006408691e+00 -1.057579708099365234e+01 -1.104637328535318375e-02 4.381744936108589172e-02 9.831323288381099701e-03 -1.650826446712017059e-02
2.129000000000000000e+03 1.685635328292846680e+00 -6.606262207031250000e+00 -6.300999317318201065e-03 5.316454544663429260e-02 1.405906397849321365e-02 1.933133229613304138e-02
2.130000000000000000e+03 2.171474218368530273e+00 -1.762659454345703125e+01 -1.149400044232606888e-02 -1.904091238975524902e-01 -6.057093665003776550e-02 -1.182942017912864685e-01
2.131000000000000000e+03 3.684180259704589844e+00 -1.757553863525390625e+01 -2.653848566114902496e-02 -2.141873091459274292e-01 -7.221774011850357056e-02 -1.836388707160949707e-01
2.132000000000000000e+03 2.950268507003784180e+00 -5.689144611358642578e+00 -1.102888118475675583e-02 1.737282425165176392e-02 1.903183059766888618e-03 3.012977167963981628e-02
2.133000000000000000e+03 2.974024057388305664e+00 -1.176792526245117188e+01 -3.218210861086845398e-02 -2.652507647871971130e-02 -1.761215552687644958e-02 -5.410033091902732849e-02
2.134000000000000000e+03 3.491179704666137695e+00 -1.910867118835449219e+01 -9.960366412997245789e-03 -2.742752134799957275e-01 -8.527067303657531738e-02 -1.888638585805892944e-01
2.135000000000000000e+03 3.401203393936157227e+00 -2.334094429016113281e+01 1.998077891767024994e-02 -4.384539127349853516e-01 -1.255419403314590454e-01 -1.681500822305679321e-01
2.136000000000000000e+03 3.365769147872924805e+00 -2.194431877136230469e+01 1.229008939117193222e-02 -3.883904814720153809e-01 -1.128301173448562622e-01 -1.774410307407379150e-01
2.137000000000000000e+03 3.480539798736572266e+00 -3.559663009643554688e+01 2.080591954290866852e-02 -7.143452167510986328e-01 -2.080617994070053101e-01 -3.322425112128257751e-02
2.138000000000000000e+03 2.858938217163085938e+00 1.087970447540283203e+01 -8.900559623725712299e-05 1.018008988467045128e-04 3.838591055682627484e-06 -1.543322432553395629e-04
2.139000000000000000e+03 2.982406377792358398e+00 1.221511363983154297e+01 2.407053543720394373e-04 9.189816773869097233e-05 9.978105663321912289e-05 -2.419509546598419547e-04
2.140000000000000000e+03 3.199823141098022461e+00 1.521187400817871094e+01 2.401941601419821382e-04 1.057847330230288208e-04 1.037936672219075263e-04 -2.951557689812034369e-04
2.141000000000000000e+03 4.715091705322265625e+00 -2.326030731201171875e+01 3.276566416025161743e-02 -4.111326932907104492e-01 -1.135101094841957092e-01 -2.095132470130920410e-01
2.142000000000000000e+03 3.349657773971557617e+00 -1.451617050170898438e+01 -4.006285965442657471e-02 -1.024296730756759644e-01 -4.274776205420494080e-02 -1.190383359789848328e-01
2.143000000000000000e+03 2.735434055328369141e+00 -7.958346843719482422e+00 -1.884642615914344788e-02 2.106902375817298889e-02 6.667797570116817951e-04 8.919879794120788574e-03
2.144000000000000000e+03 4.620942115783691406e+00 -4.360274314880371094e+00 -4.235145170241594315e-03 -6.245499476790428162e-03 -3.144193440675735474e-03 3.363680094480514526e-02
2.145000000000000000e+03 2.562695980072021484e+00 4.552188396453857422e+00 5.480109030031599104e-05 2.280652552144601941e-05 2.328228401893284172e-05 -7.826963155821431428e-06
2.146000000000000000e+03 3.252507209777832031e+00 5.387387752532958984e+00 -1.238278055097907782e-04 1.454552966606570408e-05 -3.278468284406699240e-05 -2.565243630670011044e-05
2.147000000000000000e+03 2.961512804031372070e+00 1.948792076110839844e+01 -5.415627383626997471e-04 1.111709716496989131e-04 -1.291175285587087274e-04 -9.141262125922366977e-06
2.148000000000000000e+03 2.838178396224975586e+00 9.612533569335937500e+00 1.962812093552201986e-04 7.077161717461422086e-05 8.011584577616304159e-05 -1.164058048743754625e-04
2.149000000000000000e+03 3.422056961059570312e+01 -7.604579925537109375e+00 1.174970984458923340e+00 1.972634792327880859e-01 4.116703271865844727e-01 -6.305837035179138184e-01
2.150000000000000000e+03 3.384525680541992188e+01 -6.948413848876953125e+00 8.364953398704528809e-01 2.916347682476043701e-01 3.384390175342559814e-01 -4.859839379787445068e-01
2.151000000000000000e+03 3.785610961914062500e+01 -1.738592529296875000e+01 -6.278447508811950684e-01 2.868870258331298828e+00 6.723076105117797852e-01 1.305955648422241211e+00
2.152000000000000000e+03 3.667207717895507812e+01 -1.625854873657226562e+01 -4.254373610019683838e-01 1.761108994483947754e+00 4.007014930248260498e-01 1.318074703216552734e+00
2.153000000000000000e+03 7.834425354003906250e+01 -2.021896553039550781e+01 -1.248435582965612411e-04 1.062555529642850161e-04 -5.576399416895583272e-06 -1.418698957422748208e-04
2.154000000000000000e+03 5.618202209472656250e+01 2.531470108032226562e+01 4.726109504699707031e-01 5.366930365562438965e-01 3.027912080287933350e-01 -6.580519080162048340e-01
2.155000000000000000e+03 3.950302124023437500e+01 1.249957847595214844e+01 -1.856168173253536224e-02 4.442259669303894043e-03 -4.235826432704925537e-03 -5.643845070153474808e-03
2.156000000000000000e+03 3.900277328491210938e+01 1.163154792785644531e+01 -1.266391482204198837e-02 4.848096286877989769e-04 -3.653731662780046463e-03 -2.139753662049770355e-03
2.157000000000000000e+03 3.757055664062500000e+01 -1.155693340301513672e+01 2.753949165344238281e+00 1.938929557800292969e+00 1.407863616943359375e+00 -1.776521444320678711e+00
2.158000000000000000e+03 3.576199722290039062e+01 -1.285272789001464844e+01 1.199886679649353027e+00 -4.980804026126861572e-01 2.105418741703033447e-01 -6.277319192886352539e-01
2.159000000000000000e+03 3.719345092773437500e+01 -1.818066406250000000e+01 -4.323017001152038574e-01 2.456211566925048828e+00 6.071729660034179688e-01 1.181951642036437988e+00
2.160000000000000000e+03 3.739303588867187500e+01 -1.921994972229003906e+01 -2.177934497594833374e-01 2.299915552139282227e+00 6.246366500854492188e-01 1.032147645950317383e+00
2.161000000000000000e+03 2.069960212707519531e+01 -3.028552055358886719e+01 3.341542482376098633e-01 2.053614407777786255e-01 1.618547141551971436e-01 -1.638523489236831665e-01
2.162000000000000000e+03 5.668464660644531250e+01 -4.501668930053710938e+00 8.168545365333557129e-01 1.454889655113220215e+00 6.815232634544372559e-01 9.516508579254150391e-01
2.163000000000000000e+03 6.783558654785156250e+01 -2.768766212463378906e+01 -5.564257502555847168e-03 1.037673326209187508e-03 -1.357975299470126629e-03 4.838659078814089298e-04
2.164000000000000000e+03 6.759050750732421875e+01 -1.417619323730468750e+01 -4.963640868663787842e-01 -1.349945515394210815e-01 -1.894075870513916016e-01 1.816285699605941772e-01
2.165000000000000000e+03 6.233639526367187500e+01 2.914713859558105469e+00 7.813884615898132324e-01 2.544605970382690430e+00 9.977983236312866211e-01 7.231626510620117188e-01
2.166000000000000000e+03 1.304350280761718750e+01 -1.769669342041015625e+01 -1.162558868527412415e-01 -5.036562085151672363e-01 -1.859736293554306030e-01 -3.195529282093048096e-01
2.167000000000000000e+03 1.213063144683837891e+01 -1.954741859436035156e+01 2.523649111390113831e-02 -3.758298456668853760e-01 -1.051780059933662415e-01 -3.214772641658782959e-01
2.168000000000000000e+03 4.022866058349609375e+01 1.515831470489501953e+01 -4.675251990556716919e-02 1.724857836961746216e-02 -8.851182647049427032e-03 -2.920305822044610977e-03
2.169000000000000000e+03 3.929727172851562500e+01 1.448451805114746094e+01 -3.798384964466094971e-02 1.235593296587467194e-02 -7.688375189900398254e-03 3.484828630462288857e-04
2.170000000000000000e+03 5.836311721801757812e+01 -2.212649583816528320e+00 1.022682070732116699e+00 1.678596615791320801e+00 8.103836178779602051e-01 1.078401088714599609e+00
2.171000000000000000e+03 2.997722625732421875e+01 -3.134238624572753906e+01 4.199122488498687744e-01 6.892966032028198242e-01 3.327626585960388184e-01 3.992678523063659668e-01
2.172000000000000000e+03 3.779104614257812500e+01 -1.462507247924804688e+01 9.317860007286071777e-01 3.134975433349609375e+00 1.220028400421142578e+00 1.533216953277587891e+00
2.173000000000000000e+03 5.913905334472656250e+01 -1.070526599884033203e+00 1.017966389656066895e+00 1.868008375167846680e+00 8.657923936843872070e-01 1.098661303520202637e+00
2.174000000000000000e+03 2.467368316650390625e+01 -7.644475936889648438e+00 6.379934549331665039e-01 -2.609272301197052002e-01 1.131198555231094360e-01 -4.638277888298034668e-01
2.175000000000000000e+03 3.769010162353515625e+01 -2.163381958007812500e+01 3.167045712471008301e-01 2.111730337142944336e+00 7.285304665565490723e-01 6.589669585227966309e-01
2.176000000000000000e+03 7.177750396728515625e+01 -2.183633804321289062e+01 -2.358961210120469332e-04 -3.403547452762722969e-04 -1.728752686176449060e-04 -1.257533003808930516e-04
2.177000000000000000e+03 4.938094711303710938e+01 -3.519336318969726562e+01 3.197171539068222046e-02 1.560859680175781250e-01 5.641730502247810364e-02 -6.689850986003875732e-02
2.178000000000000000e+03 2.179978847503662109e+00 3.335457086563110352e+00 -1.032166801451239735e-05 3.738997475011274219e-05 8.120491656882222742e-06 -3.158630715915933251e-05
2.179000000000000000e+03 4.843121719360351562e+01 -7.733488082885742188e+00 -2.448767870664596558e-01 -4.037645161151885986e-01 -1.945923864841461182e-01 1.835700273513793945e+00
2.180000000000000000e+03 1.404351806640625000e+01 -1.336260223388671875e+01 -3.980329632759094238e-01 -5.965622663497924805e-01 -2.983785569667816162e-01 -2.802583575248718262e-01
2.181000000000000000e+03 4.971480178833007812e+01 -8.029129028320312500e+00 -1.020930781960487366e-01 5.969654396176338196e-02 -1.271895971149206161e-02 1.778466582298278809e+00
2.182000000000000000e+03 5.137511062622070312e+01 -7.287996292114257812e+00 -2.052073031663894653e-01 8.721528053283691406e-01 2.000836580991744995e-01 1.607211232185363770e+00
2.183000000000000000e+03 4.842921829223632812e+01 -1.403402328491210938e+01 4.487351477146148682e-01 -8.633714914321899414e-02 1.087193936109542847e-01 3.997519016265869141e-01
2.184000000000000000e+03 6.305369186401367188e+01 1.048413562774658203e+01 4.492674767971038818e-01 4.677207946777343750e+00 1.537942647933959961e+00 6.513744592666625977e-01
2.185000000000000000e+03 6.454313659667968750e+01 1.383525657653808594e+01 4.701673388481140137e-01 4.090477466583251953e+00 1.368193507194519043e+00 -2.103336155414581299e-02
2.186000000000000000e+03 2.138577270507812500e+01 -3.288907623291015625e+01 2.773799598217010498e-01 2.325887233018875122e-01 1.529905945062637329e-01 -7.454333454370498657e-02
2.187000000000000000e+03 1.340997505187988281e+01 -2.036574554443359375e+01 7.340618222951889038e-02 -2.601872682571411133e-01 -5.603432655334472656e-02 -2.071517854928970337e-01
2.188000000000000000e+03 1.748619461059570312e+01 -1.064215946197509766e+01 -2.742750048637390137e-01 -4.650863409042358398e-01 -2.218084037303924561e-01 -3.876381516456604004e-01
2.189000000000000000e+03 5.502801895141601562e+01 -6.396157741546630859e+00 3.304964601993560791e-01 1.412307620048522949e+00 5.228412151336669922e-01 1.028306841850280762e+00
2.190000000000000000e+03 6.479199981689453125e+01 1.270599460601806641e+01 4.759471416473388672e-01 3.788523197174072266e+00 1.279341101646423340e+00 9.424226731061935425e-02
2.191000000000000000e+03 6.569431304931640625e+01 1.524847221374511719e+01 7.029996514320373535e-01 3.083453893661499023e+00 1.135936021804809570e+00 -1.662964075803756714e-01
2.192000000000000000e+03 3.659416580200195312e+01 -2.666052436828613281e+01 3.104432821273803711e-01 1.711631298065185547e+00 6.066223382949829102e-01 2.614154517650604248e-01
2.193000000000000000e+03 3.679156494140625000e+01 -2.315101051330566406e+01 6.013965606689453125e-01 2.239574670791625977e+00 8.522913455963134766e-01 5.594661831855773926e-01
2.194000000000000000e+03 3.540751647949218750e+01 -1.034490489959716797e+01 1.931792855262756348e+00 -1.750016957521438599e-01 5.270373821258544922e-01 -1.621691346168518066e+00
2.195000000000000000e+03 3.467898941040039062e+01 -8.270723342895507812e+00 1.536431670188903809e+00 1.555301807820796967e-02 4.655954241752624512e-01 -1.019202351570129395e+00
2.196000000000000000e+03 1.575274276733398438e+01 -9.302577018737792969e+00 -1.543408930301666260e-01 -4.385317862033843994e-01 -1.778618097305297852e-01 -3.044753372669219971e-01
2.197000000000000000e+03 4.385470199584960938e+01 -6.130376338958740234e+00 -1.606939911842346191e+00 -7.053751349449157715e-01 -6.936945319175720215e-01 1.496447205543518066e+00
2.198000000000000000e+03 3.101903915405273438e+01 -3.037824249267578125e+01 4.586302340030670166e-01 8.616294264793395996e-01 3.960779011249542236e-01 5.146219134330749512e-01
2.199000000000000000e+03 3.479514694213867188e+01 -3.252177810668945312e+01 3.737891837954521179e-02 1.190683484077453613e+00 3.684187233448028564e-01 2.086225003004074097e-01
2.200000000000000000e+03 3.798273086547851562e+01 -2.283904647827148438e+01 3.795762062072753906e-01 1.975155353546142578e+00 7.064194679260253906e-01 4.483374655246734619e-01
2.201000000000000000e+03 4.445419692993164062e+01 -5.193467140197753906e+00 -2.820284843444824219e+00 -8.025094866752624512e-01 -1.086838364601135254e+00 1.681592941284179688e+00
2.202000000000000000e+03 5.881754684448242188e+01 -1.081965827941894531e+01 -1.264610409736633301e+00 4.646088480949401855e-01 -2.400004863739013672e-01 3.375691920518875122e-02
2.203000000000000000e+03 1.539824867248535156e+01 -2.667055702209472656e+01 2.405358552932739258e-01 4.917991906404495239e-02 8.691473305225372314e-02 -1.660380959510803223e-01
2.204000000000000000e+03 6.558246612548828125e+01 -2.999029922485351562e+01 -1.372526586055755615e-02 2.655161311849951744e-03 -3.321031341329216957e-03 4.079534206539392471e-03
2.205000000000000000e+03 5.270085906982421875e+01 -7.912816524505615234e+00 -1.284567713737487793e-01 1.176848888397216797e+00 3.145176470279693604e-01 1.322282314300537109e+00
2.206000000000000000e+03 6.787738037109375000e+01 -1.486688041687011719e+01 -1.897415667772293091e-01 -1.407381612807512283e-02 -6.114461645483970642e-02 1.233846917748451233e-01
2.207000000000000000e+03 6.752651214599609375e+01 -1.480977249145507812e+01 -2.202894538640975952e-01 -1.621142774820327759e-01 -1.147211194038391113e-01 1.466589421033859253e-01
2.208000000000000000e+03 4.139997863769531250e+01 -1.790517997741699219e+01 -2.885571420192718506e-01 1.842058300971984863e+00 4.660503566265106201e-01 -2.121114581823348999e-01
2.209000000000000000e+03 3.981974792480468750e+01 -1.536139106750488281e+01 -4.693893492221832275e-01 4.925791263580322266e+00 1.336920619010925293e+00 -1.573047339916229248e-01
2.210000000000000000e+03 4.027099227905273438e+01 -1.624584007263183594e+01 -5.894773602485656738e-01 3.509127140045166016e+00 8.758949637413024902e-01 -3.580299913883209229e-01
2.211000000000000000e+03 2.865511322021484375e+01 -2.732333660125732422e+00 -1.914680361747741699e+00 8.383573591709136963e-02 -5.492534041404724121e-01 -4.613571465015411377e-01
2.212000000000000000e+03 2.861673355102539062e+01 -2.096727609634399414e+00 -2.395124435424804688e+00 4.161299020051956177e-02 -7.060534358024597168e-01 -3.817348480224609375e-01
2.213000000000000000e+03 2.924515533447265625e+01 -2.095035314559936523e+00 -2.491046667098999023e+00 1.287281662225723267e-01 -7.086955308914184570e-01 -3.284918069839477539e-01
2.214000000000000000e+03 2.962830352783203125e+01 -2.445456743240356445e+00 -2.262614488601684570e+00 2.304783016443252563e-01 -6.096408367156982422e-01 -3.578791320323944092e-01
2.215000000000000000e+03 2.899060249328613281e+01 -1.828723192214965820e+00 -2.648886919021606445e+00 7.923866063356399536e-02 -7.708945274353027344e-01 -3.232182562351226807e-01
2.216000000000000000e+03 3.123741531372070312e+01 -2.135274648666381836e+00 -2.790785312652587891e+00 2.724434435367584229e-01 -7.555025219917297363e-01 -3.373226821422576904e-01
2.217000000000000000e+03 3.083380317687988281e+01 -2.514425992965698242e+00 -2.439682722091674805e+00 2.805349230766296387e-01 -6.477443575859069824e-01 -2.952626645565032959e-01
2.218000000000000000e+03 4.200665283203125000e+01 -1.145212459564208984e+01 3.288655519485473633e+00 9.485409259796142578e-01 1.271158933639526367e+00 1.536244153976440430e+00
2.219000000000000000e+03 4.338879776000976562e+01 -1.286297035217285156e+01 2.483761310577392578e+00 -2.971693575382232666e-01 6.559775471687316895e-01 2.310601063072681427e-02
2.220000000000000000e+03 4.219384384155273438e+01 -1.252386760711669922e+01 3.756040096282958984e+00 4.507584124803543091e-02 1.140334844589233398e+00 3.325456976890563965e-01
2.221000000000000000e+03 4.290002059936523438e+01 -1.204562854766845703e+01 3.016288518905639648e+00 -1.324734240770339966e-01 8.651444911956787109e-01 6.902346611022949219e-01
2.222000000000000000e+03 4.202358627319335938e+01 -1.242305755615234375e+01 4.116100788116455078e+00 2.350778281688690186e-01 1.305353522300720215e+00 6.093195676803588867e-01
2.223000000000000000e+03 4.321153259277343750e+01 -1.239521789550781250e+01 2.751530647277832031e+00 -2.915960848331451416e-01 7.379803657531738281e-01 3.457033634185791016e-01
2.224000000000000000e+03 2.079589080810546875e+01 5.055342674255371094e+00 1.795540470084233675e-06 -3.149512485833838582e-05 -8.909875759854912758e-06 -3.262298150730202906e-06
2.225000000000000000e+03 2.029239463806152344e+01 5.486262321472167969e+00 3.529885725583881140e-05 5.491847332450561225e-06 1.223721119458787143e-05 2.121805300703272223e-05
2.226000000000000000e+03 4.459735870361328125e+01 -1.296950340270996094e+01 1.755400419235229492e+00 -4.365601539611816406e-01 3.956520855426788330e-01 1.849907487630844116e-01
2.227000000000000000e+03 3.117303085327148438e+01 -1.835289478302001953e+00 -3.060789823532104492e+00 3.074529767036437988e-01 -8.260010480880737305e-01 -1.772466301918029785e-01
2.228000000000000000e+03 2.449164772033691406e+01 2.281484603881835938e+01 -8.592652529478073120e-02 -1.336851529777050018e-02 -2.978851273655891418e-02 2.877251431345939636e-02
2.229000000000000000e+03 3.412614822387695312e+01 -3.073350906372070312e+00 -1.880557417869567871e+00 1.501928716897964478e-01 -5.191093683242797852e-01 3.006587028503417969e-01
2.230000000000000000e+03 3.531124496459960938e+01 -2.546511650085449219e+00 -2.298837423324584961e+00 4.901825487613677979e-01 -5.425965189933776855e-01 3.751559257507324219e-01
2.231000000000000000e+03 1.902749252319335938e+01 2.310936164855957031e+01 -3.946322202682495117e-02 -5.483060958795249462e-04 -1.200345810502767563e-02 6.540111266076564789e-03
2.232000000000000000e+03 1.852398872375488281e+01 2.236880111694335938e+01 -3.410052135586738586e-02 -2.078899415209889412e-04 -1.029252354055643082e-02 6.209053099155426025e-04
2.233000000000000000e+03 1.716073608398437500e+01 8.668460845947265625e+00 -7.802693289704620838e-05 1.236479602084727958e-05 -1.969864024431444705e-05 -3.247709901188500226e-05
2.234000000000000000e+03 1.775621986389160156e+01 7.178210258483886719e+00 5.111474092700518668e-05 2.840184242813847959e-05 2.385497464274521917e-05 2.952410977741237730e-05
2.235000000000000000e+03 1.804739189147949219e+01 6.439789295196533203e+00 3.437102714087814093e-05 2.122496698575560004e-05 1.667879769229330122e-05 1.059287114912876859e-05
2.236000000000000000e+03 2.389946556091308594e+01 2.337004470825195312e+01 -7.340860366821289062e-02 -1.316814776510000229e-02 -2.597302384674549103e-02 2.608361653983592987e-02
2.237000000000000000e+03 2.029763984680175781e+01 2.308446502685546875e+01 -5.229956284165382385e-02 -2.566095208749175072e-03 -1.645969785749912262e-02 9.702299721539020538e-03
2.238000000000000000e+03 1.371017837524414062e+01 1.635625839233398438e+01 3.384351730346679688e-04 9.507320355623960495e-04 3.867501509375870228e-04 3.941346658393740654e-04
2.239000000000000000e+03 2.142703437805175781e+01 4.459191799163818359e+00 1.040592178469523787e-05 6.262951046664966270e-06 5.000661985832266510e-06 -1.120485740102594718e-05
2.240000000000000000e+03 1.349222946166992188e+01 1.824221801757812500e+01 5.662807598127983510e-05 5.609671352431178093e-04 1.852785644587129354e-04 1.100112058338709176e-04
2.241000000000000000e+03 1.337616920471191406e+01 1.757988548278808594e+01 1.433823636034503579e-04 6.948108784854412079e-04 2.514579682610929012e-04 3.229457070119678974e-04
2.242000000000000000e+03 2.723536682128906250e+01 2.240888595581054688e+01 -9.193456918001174927e-02 -3.232229873538017273e-02 -3.727706149220466614e-02 4.460541531443595886e-02
2.243000000000000000e+03 3.461248397827148438e+01 5.811936855316162109e+00 1.146607683040201664e-03 3.989001270383596420e-04 4.636523372028023005e-04 -5.113935912959277630e-04
2.244000000000000000e+03 3.484251785278320312e+01 6.777081012725830078e+00 -8.033070480450987816e-04 1.414260964338609483e-06 -2.405678242212161422e-04 -2.546788018662482500e-04
2.245000000000000000e+03 3.324717330932617188e+01 1.131557559967041016e+01 -4.702933074440807104e-04 1.004214354907162488e-04 -1.109615623136050999e-04 1.340899034403264523e-03
2.246000000000000000e+03 1.580543994903564453e+01 9.355945587158203125e+00 8.488407911499962211e-05 8.518858521711081266e-05 5.102180148242041469e-05 3.050232407986186445e-05
2.247000000000000000e+03 1.596074008941650391e+01 9.837863922119140625e+00 9.815850353334099054e-05 9.788447641767561436e-05 5.881289325770922005e-05 -7.408742931147571653e-06
2.248000000000000000e+03 3.220172119140625000e+01 1.628132629394531250e+01 -1.903529092669487000e-02 -2.233374863862991333e-02 -1.241071242839097977e-02 2.382662706077098846e-02
2.249000000000000000e+03 3.163150596618652344e+01 1.652398109436035156e+01 -1.644977740943431854e-02 -3.210824728012084961e-02 -1.456740684807300568e-02 2.386036701500415802e-02
2.250000000000000000e+03 1.728740692138671875e+01 7.818151950836181641e+00 5.348028207663446665e-05 3.028526589332614094e-05 2.512966420908924192e-05 3.418728738324716687e-05
2.251000000000000000e+03 1.405367374420166016e+01 1.542468166351318359e+01 -1.236009557032957673e-04 1.040620729327201843e-03 2.751059073489159346e-04 3.377142420504242182e-04
2.252000000000000000e+03 1.502007675170898438e+01 1.155711650848388672e+01 7.521983206970617175e-05 2.868697629310190678e-04 1.086268748622387648e-04 5.308762411004863679e-05
2.253000000000000000e+03 3.242579650878906250e+01 1.540094470977783203e+01 -1.326529495418071747e-02 -1.647724770009517670e-02 -8.922762237489223480e-03 1.795340143144130707e-02
2.254000000000000000e+03 1.426944732666015625e+01 1.164956951141357422e+01 1.850143780757207423e-05 3.306184080429375172e-04 1.047359546646475792e-04 1.281024451600387692e-04
2.255000000000000000e+03 1.325447750091552734e+01 1.719658088684082031e+01 -2.238677989225834608e-04 4.540144000202417374e-04 6.904397741891443729e-05 5.435592029243707657e-04
2.256000000000000000e+03 1.724489784240722656e+01 2.229060554504394531e+01 -2.453257516026496887e-02 -5.302083445712924004e-04 -7.518835365772247314e-03 8.121174760162830353e-04
2.257000000000000000e+03 2.105931663513183594e+01 4.542585849761962891e+00 -1.014904046314768493e-05 -1.527046697447076440e-05 -7.625852049386594445e-06 1.196594621433177963e-05
2.258000000000000000e+03 2.119497489929199219e+01 3.682789802551269531e+00 1.259056898561539128e-05 -1.100579356716480106e-05 4.754324436362367123e-07 4.564034952636575326e-06
2.259000000000000000e+03 1.988862609863281250e+01 2.304050064086914062e+01 -4.791539907455444336e-02 -1.153610181063413620e-03 -1.472070254385471344e-02 7.601373828947544098e-03
2.260000000000000000e+03 3.236402511596679688e+01 1.476390361785888672e+01 -8.484503254294395447e-03 -1.365365739911794662e-02 -6.641448475420475006e-03 1.303760707378387451e-02
2.261000000000000000e+03 2.285821914672851562e+01 2.333909797668457031e+01 -6.954683363437652588e-02 -1.243608072400093079e-02 -2.459487318992614746e-02 2.075645327568054199e-02
2.262000000000000000e+03 1.404807376861572266e+01 1.244841384887695312e+01 -5.383788811741396785e-05 3.504054329823702574e-04 8.897026418708264828e-05 1.869439729489386082e-04
2.263000000000000000e+03 3.140741539001464844e+01 1.957184791564941406e+01 -6.382063031196594238e-02 -2.995125763118267059e-02 -2.813156507909297943e-02 4.229356721043586731e-02
2.264000000000000000e+03 3.109021949768066406e+01 2.030767631530761719e+01 -7.409532368183135986e-02 -2.865075878798961639e-02 -3.082382492721080780e-02 4.086603224277496338e-02
2.265000000000000000e+03 3.184028053283691406e+01 1.753008270263671875e+01 -3.251816704869270325e-02 -3.060147166252136230e-02 -1.893589273095130920e-02 3.476414829492568970e-02
2.266000000000000000e+03 3.365631866455078125e+01 8.674743652343750000e+00 1.172663251054473221e-04 1.327731646597385406e-03 4.334994009695947170e-04 -6.499037845060229301e-04
2.267000000000000000e+03 2.020648002624511719e+01 4.079376220703125000e+00 -1.722323577268980443e-05 -6.969525202293880284e-06 -7.257828201545635238e-06 -8.614304078946588561e-07
2.268000000000000000e+03 3.405607223510742188e+01 8.323325157165527344e+00 1.364114577881991863e-04 5.343284574337303638e-04 2.012219774769619107e-04 -5.644990014843642712e-04
2.269000000000000000e+03 1.354241752624511719e+01 2.054636001586914062e+01 -5.844421684741973877e-03 1.095304964110255241e-03 -1.424735062755644321e-03 -1.042479183524847031e-03
2.270000000000000000e+03 1.342570018768310547e+01 1.922238731384277344e+01 -1.754892407916486263e-03 2.812207094393670559e-04 -4.421015037223696709e-04 -4.876616876572370529e-04
2.271000000000000000e+03 3.210556411743164062e+01 1.509579086303710938e+01 -8.044538088142871857e-03 -1.775056682527065277e-02 -7.738531567156314850e-03 1.335387118160724640e-02
2.272000000000000000e+03 1.500445461273193359e+01 9.813881874084472656e+00 -9.511710231890901923e-05 1.212082061101682484e-04 7.827332410670351237e-06 3.098573142779059708e-05
2.273000000000000000e+03 1.560715961456298828e+01 9.686759948730468750e+00 -1.221372513100504875e-04 1.063879681169055402e-04 -4.724783593701431528e-06 -1.186882218462415040e-05
2.274000000000000000e+03 1.540982913970947266e+01 1.007473278045654297e+01 8.580057328799739480e-05 1.512745511718094349e-04 7.112253661034628749e-05 1.017927388602402061e-05
2.275000000000000000e+03 2.693579101562500000e+01 2.319785881042480469e+01 -7.216253876686096191e-02 -3.117505274713039398e-02 -3.100127726793289185e-02 3.883823379874229431e-02
2.276000000000000000e+03 3.263838195800781250e+01 1.573428726196289062e+01 -1.648725382983684540e-02 -1.559505052864551544e-02 -9.624691680073738098e-03 2.055539749562740326e-02
2.277000000000000000e+03 3.318484497070312500e+01 1.251053524017333984e+01 -4.275019746273756027e-03 -2.383447019383311272e-03 -1.997540006414055824e-03 4.249210469424724579e-03
2.278000000000000000e+03 2.113657951354980469e+01 2.268837165832519531e+01 -6.700348109006881714e-02 -4.083040636032819748e-03 -2.132595703005790710e-02 8.227727375924587250e-03
2.279000000000000000e+03 1.649097442626953125e+01 8.786672592163085938e+00 -8.521552808815613389e-05 2.860556378436740488e-05 -1.698298910923767835e-05 -1.694959064479917288e-05
2.280000000000000000e+03 1.368578624725341797e+01 1.442900848388671875e+01 2.663740306161344051e-04 6.119370809756219387e-04 2.634933334775269032e-04 3.926847712136805058e-04
2.281000000000000000e+03 3.196670913696289062e+01 1.709775924682617188e+01 -2.746491879224777222e-02 -2.800529822707176208e-02 -1.664106547832489014e-02 3.045208752155303955e-02
2.282000000000000000e+03 3.136841392517089844e+01 1.733385276794433594e+01 -2.556257136166095734e-02 -4.159059748053550720e-02 -2.014595083892345428e-02 3.207544237375259399e-02
2.283000000000000000e+03 2.517472839355468750e+01 2.334489631652832031e+01 -7.519709318876266479e-02 -1.838256232440471649e-02 -2.807389758527278900e-02 3.153680264949798584e-02
2.284000000000000000e+03 2.524842834472656250e+01 2.282608032226562500e+01 -8.528911322355270386e-02 -1.866493560373783112e-02 -3.118621557950973511e-02 3.313936293125152588e-02
2.285000000000000000e+03 3.447102737426757812e+01 5.487880229949951172e+00 -1.175441197119653225e-03 1.605464058229699731e-04 -3.044684126507490873e-04 -1.652765640756115317e-04
2.286000000000000000e+03 2.639618873596191406e+01 2.313850021362304688e+01 -7.586848735809326172e-02 -2.554910257458686829e-02 -3.042527660727500916e-02 3.744566813111305237e-02
2.287000000000000000e+03 1.561564826965332031e+01 2.107954597473144531e+01 -1.138163357973098755e-02 1.239787670783698559e-03 -3.042553784325718880e-03 -1.578920520842075348e-03
2.288000000000000000e+03 1.497577190399169922e+01 2.169173812866210938e+01 -1.312519982457160950e-02 2.196948276832699776e-03 -3.278475487604737282e-03 2.423733385512605309e-04
2.289000000000000000e+03 1.851385116577148438e+01 5.962775230407714844e+00 5.641668394673615694e-06 -3.560897539500729181e-06 6.242312338144984096e-07 -8.848629477142821997e-06
2.290000000000000000e+03 3.067512893676757812e+01 2.042218399047851562e+01 -8.122130483388900757e-02 -3.814314305782318115e-02 -3.580933436751365662e-02 4.388277605175971985e-02
2.291000000000000000e+03 3.015670394897460938e+01 2.003708648681640625e+01 -8.511509001255035400e-02 -5.590852722525596619e-02 -4.230708628892898560e-02 5.637820437550544739e-02
2.292000000000000000e+03 3.475349426269531250e+01 4.701379299163818359e+00 1.185331610031425953e-03 -1.827563246479257941e-04 3.007725754287093878e-04 -2.846325805876404047e-04
2.293000000000000000e+03 3.431434249877929688e+01 4.776692390441894531e+00 -1.099881948903203011e-03 3.316886432003229856e-05 -3.200139035470783710e-04 2.440352109260857105e-04
2.294000000000000000e+03 2.603268241882324219e+01 -3.724996805191040039e+00 -8.144494891166687012e-01 -1.032209396362304688e-01 -2.753011286258697510e-01 -9.070739150047302246e-01
2.295000000000000000e+03 1.809528541564941406e+01 2.207894134521484375e+01 -3.061250038444995880e-02 -3.737824445124715567e-04 -9.295884519815444946e-03 -1.024537254124879837e-03
2.296000000000000000e+03 3.434508132934570312e+01 7.123529434204101562e+00 1.011390122584998608e-03 1.362025650450959802e-04 3.442777961026877165e-04 -7.996321655809879303e-04
2.297000000000000000e+03 3.398595046997070312e+01 7.496805191040039062e+00 -1.108690339606255293e-04 7.925721001811325550e-04 2.045109285973012447e-04 -3.828424087259918451e-04
2.298000000000000000e+03 1.611751365661621094e+01 2.143254280090332031e+01 -1.481679081916809082e-02 7.700934074819087982e-04 -4.214009270071983337e-03 -1.117470790632069111e-03
2.299000000000000000e+03 1.588353633880615234e+01 2.164394187927246094e+01 -1.594065874814987183e-02 1.333327963948249817e-03 -4.382199142128229141e-03 -3.070993407163769007e-04
2.300000000000000000e+03 2.199808120727539062e+01 2.272473144531250000e+01 -7.554242014884948730e-02 -9.242504835128784180e-03 -2.543547749519348145e-02 1.237988658249378204e-02
2.301000000000000000e+03 1.436904430389404297e+01 2.120835113525390625e+01 -9.175111539661884308e-03 1.797154196538031101e-03 -2.213387051597237587e-03 -5.391082377173006535e-04
2.302000000000000000e+03 1.405833244323730469e+01 1.496936798095703125e+01 3.457952698227018118e-04 9.093265398405492306e-04 3.765365399885922670e-04 2.509376208763569593e-04
2.303000000000000000e+03 1.343009853363037109e+01 1.481732273101806641e+01 -6.888899224577471614e-05 6.308647571131587029e-04 1.685927418293431401e-04 3.182914515491575003e-04
2.304000000000000000e+03 3.032634162902832031e+01 2.069921684265136719e+01 -8.673489093780517578e-02 -4.257156699895858765e-02 -3.879193961620330811e-02 4.189697653055191040e-02
2.305000000000000000e+03 2.862703895568847656e+01 2.109441566467285156e+01 -1.199905201792716980e-01 -6.220218911767005920e-02 -5.465781316161155701e-02 6.065722182393074036e-02
2.306000000000000000e+03 2.114257431030273438e+01 2.318942070007324219e+01 -5.909103527665138245e-02 -7.380378898233175278e-03 -1.994142308831214905e-02 1.428438443690538406e-02
2.307000000000000000e+03 1.350460815429687500e+01 1.888861656188964844e+01 -6.568728713318705559e-04 4.153577901888638735e-04 -7.245452434290200472e-05 -3.312596527393907309e-04
2.308000000000000000e+03 1.742721557617187500e+01 2.321743965148925781e+01 -2.796892635524272919e-02 -1.193931093439459801e-04 -8.426495827734470367e-03 6.810667924582958221e-03
2.309000000000000000e+03 1.973517227172851562e+01 5.009108543395996094e+00 1.348169553239131346e-05 -1.558538133394904435e-05 -6.311058200481056701e-07 4.460986019694246352e-06
2.310000000000000000e+03 2.021306419372558594e+01 4.566280364990234375e+00 1.805765714379958808e-05 -8.227106263802852482e-06 2.949165491372696124e-06 5.091921138955513015e-06
2.311000000000000000e+03 2.306873130798339844e+01 2.293726921081542969e+01 -7.808695733547210693e-02 -8.863315917551517487e-03 -2.608508057892322540e-02 1.898824796080589294e-02
2.312000000000000000e+03 2.247054481506347656e+01 2.320696449279785156e+01 -7.057160884141921997e-02 -1.005697995424270630e-02 -2.418857626616954803e-02 1.791343279182910919e-02
2.313000000000000000e+03 2.901351356506347656e+01 2.149697494506835938e+01 -9.556356817483901978e-02 -5.561604350805282593e-02 -4.535388201475143433e-02 4.460882395505905151e-02
2.314000000000000000e+03 2.936365509033203125e+01 2.114076042175292969e+01 -9.863345324993133545e-02 -5.718457326292991638e-02 -4.674540832638740540e-02 4.591130465269088745e-02
2.315000000000000000e+03 1.669619560241699219e+01 2.220095634460449219e+01 -2.169620431959629059e-02 5.241325707174837589e-04 -6.351621821522712708e-03 8.019459201022982597e-04
2.316000000000000000e+03 1.536898326873779297e+01 2.182988739013671875e+01 -1.488437876105308533e-02 1.823645550757646561e-03 -3.918219823390245438e-03 8.353650919161736965e-04
2.317000000000000000e+03 2.671370697021484375e+01 -2.304923534393310547e+00 -1.846069216728210449e+00 -2.712830901145935059e-01 -6.352056860923767090e-01 -5.966107249259948730e-01
2.318000000000000000e+03 2.691977691650390625e+01 -2.394021749496459961e+00 -1.817837834358215332e+00 -2.418133765459060669e-01 -6.178953647613525391e-01 -5.961960554122924805e-01
2.319000000000000000e+03 3.001383781433105469e+01 2.100478935241699219e+01 -9.158109873533248901e-02 -4.576979205012321472e-02 -4.120526462793350220e-02 4.100576788187026978e-02
2.320000000000000000e+03 1.399954509735107422e+01 2.067118644714355469e+01 -6.087610498070716858e-03 1.273299567401409149e-03 -1.444293302483856678e-03 -9.027260821312665939e-04
2.321000000000000000e+03 2.416341400146484375e+01 2.296673774719238281e+01 -8.159837126731872559e-02 -1.299876347184181213e-02 -2.837914042174816132e-02 2.752971276640892029e-02
2.322000000000000000e+03 4.235502243041992188e+01 -1.905983161926269531e+01 -1.172038912773132324e-01 1.170268058776855469e+00 3.159192502498626709e-01 -1.000755652785301208e-01
2.323000000000000000e+03 4.147764968872070312e+01 -1.152002906799316406e+01 3.567159175872802734e+00 1.749522686004638672e+00 1.595004558563232422e+00 1.884929656982421875e+00
2.324000000000000000e+03 4.186672592163085938e+01 -1.181247615814208984e+01 3.843739032745361328e+00 8.969976305961608887e-01 1.422221064567565918e+00 1.479260206222534180e+00
2.325000000000000000e+03 1.290835762023925781e+01 2.008418273925781250e+01 -3.851243527606129646e-03 6.455197581090033054e-04 -9.617171017453074455e-04 -7.305786712095141411e-04
2.326000000000000000e+03 1.381126689910888672e+01 1.967851448059082031e+01 -2.796293469145894051e-03 7.286919862963259220e-04 -6.202803924679756165e-04 -9.505242342129349709e-04
2.327000000000000000e+03 4.182808685302734375e+01 -1.092498683929443359e+01 2.586456537246704102e+00 1.495472311973571777e+00 1.224578619003295898e+00 1.715573072433471680e+00
2.328000000000000000e+03 4.000384902954101562e+01 -1.069825172424316406e+01 1.437003254890441895e+00 4.547569274902343750e+00 1.795371770858764648e+00 2.637557983398437500e-01
2.329000000000000000e+03 4.175294876098632812e+01 -1.750898170471191406e+01 -1.917488723993301392e-01 1.641167402267456055e+00 4.348255693912506104e-01 -3.578891158103942871e-01
2.330000000000000000e+03 4.205452346801757812e+01 -1.861915779113769531e+01 -1.507849544286727905e-01 1.331342339515686035e+00 3.541672229766845703e-01 -1.328572481870651245e-01
2.331000000000000000e+03 1.671095085144042969e+01 8.435278892517089844e+00 7.037947216304019094e-05 3.326946534798480570e-05 3.109468161710537970e-05 2.507680801500100642e-05
2.332000000000000000e+03 3.169473838806152344e+01 1.878093147277832031e+01 -5.173151567578315735e-02 -3.038919158279895782e-02 -2.463621273636817932e-02 4.174305126070976257e-02
2.333000000000000000e+03 1.596497058868408203e+01 9.033600807189941406e+00 -9.337012306787073612e-05 4.964808249496854842e-05 -1.311661162617383525e-05 -1.584216079208999872e-05
2.334000000000000000e+03 4.641366958618164062e+01 -1.295545959472656250e+01 1.091521501541137695e+00 -4.168379008769989014e-01 2.024050652980804443e-01 4.588012099266052246e-01
2.335000000000000000e+03 7.652250671386718750e+01 -2.096787834167480469e+01 1.433749548596097156e-05 -1.876540591183584183e-05 -1.328373173237196170e-06 -1.806060172384604812e-04
2.336000000000000000e+03 4.495523071289062500e+01 -1.324256038665771484e+01 1.533055901527404785e+00 -4.090831279754638672e-01 3.371918499469757080e-01 1.573649197816848755e-01
2.337000000000000000e+03 4.533703231811523438e+01 -1.345326805114746094e+01 1.344331979751586914e+00 -3.868492245674133301e-01 2.872448265552520752e-01 1.445520222187042236e-01
2.338000000000000000e+03 3.213477325439453125e+01 -3.277201652526855469e+00 -1.752695083618164062e+00 4.566683620214462280e-02 -5.121085047721862793e-01 -2.413171082735061646e-01
2.339000000000000000e+03 3.610574722290039062e+01 -1.816273331642150879e+00 -2.361812591552734375e+00 5.749689936637878418e-01 -5.360531210899353027e-01 3.587501347064971924e-01
2.340000000000000000e+03 4.752572631835937500e+01 -1.422876644134521484e+01 6.996195912361145020e-01 -1.914597004652023315e-01 1.524479687213897705e-01 2.508170604705810547e-01
2.341000000000000000e+03 1.836772346496582031e+01 3.848203659057617188e+00 1.960954250534996390e-05 1.379342029395047575e-05 1.002088902168907225e-05 -4.338161943451268598e-06
2.342000000000000000e+03 1.969524765014648438e+01 3.452340602874755859e+00 -1.015325869957450777e-05 -1.888458973553497344e-05 -8.711354894330725074e-06 5.920157946093240753e-06
2.343000000000000000e+03 4.177980422973632812e+01 -1.823520851135253906e+01 -2.171316444873809814e-01 1.569691419601440430e+00 4.057679176330566406e-01 -1.940030306577682495e-01
2.344000000000000000e+03 4.138977813720703125e+01 -1.712630653381347656e+01 -2.480079233646392822e-01 1.949515938758850098e+00 5.104523897171020508e-01 -4.247698485851287842e-01
2.345000000000000000e+03 1.699471092224121094e+01 3.708522796630859375e+00 1.901372343127150089e-05 2.048057831416372210e-05 1.184829034173162654e-05 1.620191369511303492e-06
2.346000000000000000e+03 1.563373756408691406e+01 3.636584997177124023e+00 1.533257272967603058e-05 2.726134152908343822e-05 1.277817409572890028e-05 4.091170922038145363e-06
2.347000000000000000e+03 1.631034278869628906e+01 3.653366088867187500e+00 -1.017586691887117922e-05 -8.306902600452303886e-06 -5.544830855797044933e-06 6.829567610111553222e-06
2.348000000000000000e+03 3.260815811157226562e+01 -3.611022472381591797e+00 -1.457157135009765625e+00 6.332950294017791748e-02 -4.181483089923858643e-01 -2.585440315306186676e-02
2.349000000000000000e+03 3.796369171142578125e+01 -8.615275621414184570e-01 -1.854528546333312988e+00 3.978683054447174072e-01 -4.369980394840240479e-01 5.950369834899902344e-01
2.350000000000000000e+03 2.032909774780273438e+01 3.588342428207397461e+00 1.962911665032152086e-05 1.963845897989813238e-05 1.178027287096483633e-05 -1.073154180630808696e-05
2.351000000000000000e+03 1.292562198638916016e+01 4.392632007598876953e+00 8.405934863731090445e-07 -6.921071417309576645e-06 -1.824143396333965939e-06 3.848452979582361877e-05
2.352000000000000000e+03 1.139949607849121094e+01 3.808563470840454102e+00 4.956110933562740684e-05 8.881253961590118706e-06 1.753270953486207873e-05 1.744757719279732555e-05
2.353000000000000000e+03 3.851209640502929688e+01 -2.346319913864135742e+00 -2.671303033828735352e+00 6.451391577720642090e-01 -6.078491806983947754e-01 8.555766344070434570e-01
2.354000000000000000e+03 3.899899673461914062e+01 -2.805580139160156250e+00 -2.710035800933837891e+00 6.509335637092590332e-01 -6.177306771278381348e-01 6.796728372573852539e-01
2.355000000000000000e+03 1.768583297729492188e+01 3.774796247482299805e+00 -1.378344404656672850e-05 -7.659325092390645295e-06 -6.432830559788271785e-06 3.388954382899100892e-06
2.356000000000000000e+03 4.809746932983398438e+01 -1.307243442535400391e+01 5.565337538719177246e-01 -2.083034962415695190e-01 1.044690757989883423e-01 6.297289729118347168e-01
2.357000000000000000e+03 1.284300708770751953e+01 3.755267858505249023e+00 3.543542334227822721e-05 1.795767275325488299e-05 1.601792973815463483e-05 1.319062630500411615e-05
2.358000000000000000e+03 1.495555877685546875e+01 3.653489589691162109e+00 -4.665339929488254711e-06 -7.543333595094736665e-06 -3.662602011900162324e-06 1.851155684562399983e-05
2.359000000000000000e+03 1.426403522491455078e+01 3.683614253997802734e+00 2.323481021448969841e-05 2.597978891571983695e-05 1.476437955716392025e-05 7.631263542862143368e-06
2.360000000000000000e+03 1.068502235412597656e+01 3.825161218643188477e+00 1.638202047615777701e-05 -2.419734664727002382e-05 -2.344597760384203866e-06 2.537829823268111795e-05
2.361000000000000000e+03 9.975946426391601562e+00 3.847703218460083008e+00 5.868064909009262919e-05 4.290657216188265011e-06 1.889139275590423495e-05 9.952280379366129637e-06
2.362000000000000000e+03 1.211953163146972656e+01 3.786703109741210938e+00 4.822108166990801692e-06 -1.121746572607662529e-05 -1.918607267725747079e-06 3.056474452023394406e-05
2.363000000000000000e+03 4.042260169982910156e+00 3.695743322372436523e+00 2.560920256655663252e-05 5.327379767550155520e-06 9.280975064029917121e-06 -7.014252219050831627e-07
2.364000000000000000e+03 3.803261041641235352e+00 4.749794006347656250e+00 1.056116889230906963e-04 1.091394278773805127e-05 3.495769124128855765e-05 3.185167543051647954e-07
2.365000000000000000e+03 2.517263412475585938e+01 -3.794883251190185547e+00 -7.287057042121887207e-01 -9.875045716762542725e-02 -2.482368499040603638e-01 -9.160653948783874512e-01
2.366000000000000000e+03 3.681685256958007812e+01 -2.303224563598632812e+00 -2.306601762771606445e+00 7.107042670249938965e-01 -4.787692129611968994e-01 4.899935424327850342e-01
2.367000000000000000e+03 1.148353004455566406e+01 -3.993213891983032227e+00 -6.161492317914962769e-02 -8.852615952491760254e-02 -4.504232481122016907e-02 -9.014436602592468262e-02
2.368000000000000000e+03 7.614300537109375000e+01 -1.119691181182861328e+01 -1.324467360973358154e-01 -1.223671957850456238e-01 -7.644417881965637207e-02 -2.243516743183135986e-01
2.369000000000000000e+03 7.448395538330078125e+01 -1.220979976654052734e+01 -2.466073185205459595e-01 -3.097745589911937714e-02 -8.327542990446090698e-02 -2.200146168470382690e-01
2.370000000000000000e+03 9.814196586608886719e+00 -3.361858606338500977e+00 -1.910528726875782013e-02 -4.753991961479187012e-02 -1.999356225132942200e-02 -3.143427893519401550e-02
2.371000000000000000e+03 1.358341789245605469e+01 -4.357658863067626953e+00 -1.041098013520240784e-01 -1.380023360252380371e-01 -7.263363897800445557e-02 -1.846266388893127441e-01
2.372000000000000000e+03 9.266391754150390625e+00 3.877197504043579102e+00 2.202623181801754981e-05 -3.568681495380587876e-05 -4.098174940736498684e-06 1.868247090897057205e-05
2.373000000000000000e+03 1.359373188018798828e+01 -3.129576206207275391e+00 -9.311570972204208374e-02 -8.857794851064682007e-02 -5.450809746980667114e-02 -1.547719538211822510e-01
2.374000000000000000e+03 1.363212585449218750e+01 -3.772163867950439453e+00 -1.005401760339736938e-01 -1.195954531431198120e-01 -6.604068726301193237e-02 -1.734544038772583008e-01
2.375000000000000000e+03 5.291931629180908203e+00 4.783149242401123047e+00 2.860734275600407273e-05 2.767350815702229738e-05 1.688425436441320926e-05 -1.068711862899363041e-04
2.376000000000000000e+03 7.060364246368408203e+00 3.961728811264038086e+00 7.584557170048356056e-05 -1.249423235094582196e-06 2.237884473288431764e-05 -2.669311288627795875e-05
2.377000000000000000e+03 7.396555423736572266e+00 -5.645247459411621094e+00 -5.096884071826934814e-02 -6.171704828739166260e-02 -3.380576893687248230e-02 -4.330260679125785828e-03
2.378000000000000000e+03 7.589068889617919922e+00 -4.076196670532226562e+00 -1.698229275643825531e-02 -3.724265843629837036e-02 -1.626748405396938324e-02 6.857968866825103760e-03
2.379000000000000000e+03 5.827955245971679688e+00 -3.575629949569702148e+00 3.137759398669004440e-03 -1.321473345160484314e-02 -3.023092169314622879e-03 3.001140616834163666e-02
2.380000000000000000e+03 3.299350500106811523e+00 -4.761344909667968750e+00 -4.288255702704191208e-03 1.181798428297042847e-02 2.258918480947613716e-03 3.450499847531318665e-02
2.381000000000000000e+03 8.327262878417968750e+00 -4.056622982025146484e+00 -2.351120859384536743e-02 -4.520250111818313599e-02 -2.061411179602146149e-02 -6.039600353688001633e-03
2.382000000000000000e+03 9.890246391296386719e+00 -4.118194103240966797e+00 -4.172671213746070862e-02 -6.700953096151351929e-02 -3.262087330222129822e-02 -4.122038558125495911e-02
2.383000000000000000e+03 1.810392570495605469e+01 -4.095825195312500000e+00 -2.375386953353881836e-01 -1.595079600811004639e-01 -1.191139966249465942e-01 -4.006989002227783203e-01
2.384000000000000000e+03 8.540882110595703125e+00 3.907706499099731445e+00 6.778776150895282626e-05 5.282956294649920892e-07 2.049481736321467906e-05 -3.013997911693877541e-06
2.385000000000000000e+03 1.652768898010253906e+01 -3.145258426666259766e+00 -2.071727216243743896e-01 -1.205252707004547119e-01 -9.830939769744873047e-02 -2.893253266811370850e-01
2.386000000000000000e+03 1.222307491302490234e+01 -3.879830837249755859e+00 -7.080486416816711426e-02 -9.766586124897003174e-02 -5.054121464490890503e-02 -1.159402728080749512e-01
2.387000000000000000e+03 6.933046722412109375e+01 -1.266532611846923828e+01 -6.972433328628540039e-01 1.616830527782440186e-01 -1.606680750846862793e-01 -6.896088272333145142e-02
2.388000000000000000e+03 6.970039367675781250e+01 -1.320796203613281250e+01 -6.126570105552673340e-01 1.285191178321838379e-01 -1.452413797378540039e-01 -4.845484346151351929e-02
2.389000000000000000e+03 3.800117492675781250e+01 -1.055971145629882812e+01 1.798489570617675781e+00 2.509840250015258789e+00 1.292498946189880371e+00 -1.736174225807189941e+00
2.390000000000000000e+03 7.192584991455078125e+01 -1.242742443084716797e+01 -4.683949351310729980e-01 9.352175146341323853e-02 -1.124619543552398682e-01 -1.955414116382598877e-01
2.391000000000000000e+03 7.560642242431640625e+01 -1.189293575286865234e+01 -1.818818151950836182e-01 -8.295467495918273926e-02 -7.945095002651214600e-02 -2.149556875228881836e-01
2.392000000000000000e+03 3.685122680664062500e+01 -1.336706352233886719e+01 1.908279180526733398e+00 1.013575196266174316e+00 8.765562772750854492e-01 2.676556631922721863e-02
2.393000000000000000e+03 1.508358669281005859e+01 -3.774825096130371094e+00 -1.390518099069595337e-01 -1.385682821273803711e-01 -8.328602463006973267e-02 -2.415666878223419189e-01
2.394000000000000000e+03 1.572095012664794922e+01 -3.732697486877441406e+00 -1.616367846727371216e-01 -1.431069970130920410e-01 -9.142313152551651001e-02 -2.751598060131072998e-01
2.395000000000000000e+03 7.058808898925781250e+01 -1.229602241516113281e+01 -5.973371267318725586e-01 1.507015824317932129e-01 -1.339906603097915649e-01 -1.586547493934631348e-01
2.396000000000000000e+03 7.122798156738281250e+01 -1.311643409729003906e+01 -4.623939692974090576e-01 1.034367755055427551e-01 -1.076871603727340698e-01 -1.134878769516944885e-01
2.397000000000000000e+03 2.857960700988769531e+01 -7.077713966369628906e+00 1.544536709785461426e+00 6.003106236457824707e-01 6.434541940689086914e-01 -9.345378279685974121e-01
2.398000000000000000e+03 3.549932098388671875e+01 5.438608646392822266e+00 1.424811314791440964e-03 -4.827768498216755688e-05 4.129600711166858673e-04 -6.037781713530421257e-04
2.399000000000000000e+03 3.456684112548828125e+01 3.756421566009521484e+00 1.091685495339334011e-03 -3.540419857017695904e-04 2.212930412497371435e-04 -1.111788587877526879e-04
2.400000000000000000e+03 7.358829498291015625e+01 -1.204281330108642578e+01 -3.169860541820526123e-01 1.580388285219669342e-02 -9.035464376211166382e-02 -2.201231271028518677e-01
2.401000000000000000e+03 2.245139694213867188e+01 -2.888711929321289062e+00 -7.652553915977478027e-01 8.175136893987655640e-02 -2.050512135028839111e-01 -5.504643321037292480e-01
2.402000000000000000e+03 1.892127609252929688e+01 -4.403818607330322266e+00 -2.513867318630218506e-01 -1.603957116603851318e-01 -1.235347315669059753e-01 -4.527903497219085693e-01
2.403000000000000000e+03 7.267428588867187500e+01 -1.214825153350830078e+01 -3.702756762504577637e-01 3.470055013895034790e-02 -1.006725355982780457e-01 -2.349213510751724243e-01
2.404000000000000000e+03 3.572910308837890625e+01 -2.470462083816528320e+00 -2.328081607818603516e+00 6.189754009246826172e-01 -5.127319097518920898e-01 3.605874180793762207e-01
2.405000000000000000e+03 6.980879974365234375e+01 -1.196172142028808594e+01 -7.906428575515747070e-01 1.644362509250640869e-01 -1.878619790077209473e-01 -2.144646793603897095e-01
2.406000000000000000e+03 7.618840026855468750e+01 -2.271156692504882812e+01 -2.133841335307806730e-04 -1.548251893837004900e-04 -1.104627954191528261e-04 -1.007661485346034169e-04
2.407000000000000000e+03 7.233387756347656250e+01 -2.034355354309082031e+01 1.905711314975633286e-06 -1.237014366779476404e-04 -3.653871681308373809e-05 9.449432400288060308e-05
2.408000000000000000e+03 7.293490600585937500e+01 -2.001190757751464844e+01 -3.244158142479136586e-05 -1.823995844461023808e-04 -6.445234612328931689e-05 -5.969209269096609205e-06
2.409000000000000000e+03 3.448440551757812500e+01 -2.392179489135742188e+00 -2.430736303329467773e+00 3.349125385284423828e-01 -6.287471652030944824e-01 3.170890510082244873e-01
2.410000000000000000e+03 3.821202850341796875e+01 9.510187149047851562e+00 -1.861976110376417637e-03 8.826063130982220173e-04 -2.938109391834586859e-04 -9.044662001542747021e-04
2.411000000000000000e+03 2.223636436462402344e+01 -2.010836601257324219e+00 -8.127540946006774902e-01 1.207768544554710388e-01 -2.075931727886199951e-01 -3.660320639610290527e-01
2.412000000000000000e+03 1.366002273559570312e+01 -1.014886283874511719e+01 -2.274590432643890381e-01 -4.160056412220001221e-01 -1.930394023656845093e-01 -1.975677758455276489e-01
2.413000000000000000e+03 1.545820713043212891e+01 -1.136782360076904297e+01 -3.632313609123229980e-01 -5.308868288993835449e-01 -2.682354450225830078e-01 -2.943990826606750488e-01
2.414000000000000000e+03 3.004418945312500000e+01 -6.402206420898437500e+00 1.107737660408020020e+00 9.117646813392639160e-01 6.058506965637207031e-01 -5.843796133995056152e-01
2.415000000000000000e+03 3.106909942626953125e+01 -7.649607181549072266e+00 2.086026668548583984e+00 9.461315274238586426e-01 9.096474647521972656e-01 -5.990298390388488770e-01
2.416000000000000000e+03 4.324750137329101562e+01 -1.932279586791992188e+01 -3.489895164966583252e-02 7.715867757797241211e-01 2.210063487291336060e-01 -8.052907884120941162e-02
2.417000000000000000e+03 4.306505584716796875e+01 -2.202706336975097656e+01 5.245779640972614288e-03 7.554832696914672852e-01 2.282187044620513916e-01 2.055601589381694794e-02
2.418000000000000000e+03 3.307722854614257812e+01 -7.311124324798583984e+00 1.319930791854858398e+00 2.947052419185638428e-01 4.843908250331878662e-01 -4.409734606742858887e-01
2.419000000000000000e+03 3.632161331176757812e+01 -1.039090061187744141e+01 1.840548396110534668e+00 4.798074662685394287e-01 6.961067914962768555e-01 -1.848247647285461426e+00
2.420000000000000000e+03 2.917554855346679688e+01 -6.280555248260498047e+00 8.800500035285949707e-01 6.109689474105834961e-01 4.473056793212890625e-01 -8.399490118026733398e-01
2.421000000000000000e+03 4.462080383300781250e+01 -8.174524307250976562e+00 9.950750321149826050e-02 -5.979557633399963379e-01 -1.495344787836074829e-01 1.638504147529602051e+00
2.422000000000000000e+03 2.098135566711425781e+01 -3.414252996444702148e+00 -4.815914332866668701e-01 -4.125951603055000305e-02 -1.568552851676940918e-01 -5.006785988807678223e-01
2.423000000000000000e+03 2.332917594909667969e+01 -4.153666496276855469e+00 -4.879649579524993896e-01 -5.126303061842918396e-02 -1.617683917284011841e-01 -7.625388503074645996e-01
2.424000000000000000e+03 2.019149780273437500e+01 -3.596290588378906250e+00 -3.880371749401092529e-01 -8.262249082326889038e-02 -1.411979049444198608e-01 -4.765176475048065186e-01
2.425000000000000000e+03 3.809710693359375000e+01 -1.926014542579650879e+00 -2.272795200347900391e+00 5.658563375473022461e-01 -5.120816826820373535e-01 8.031130433082580566e-01
2.426000000000000000e+03 3.845160293579101562e+01 -3.262457609176635742e+00 -2.549876451492309570e+00 7.307834625244140625e-01 -5.457279086112976074e-01 6.201664209365844727e-01
2.427000000000000000e+03 3.378282546997070312e+01 1.495360851287841797e+01 -1.759574003517627716e-02 -6.232779007405042648e-03 -7.148555945605039597e-03 1.767969876527786255e-02
2.428000000000000000e+03 1.161052227020263672e+01 -1.408382892608642578e+01 -3.277407288551330566e-01 -3.494290411472320557e-01 -2.031509280204772949e-01 -2.534538507461547852e-01
2.429000000000000000e+03 3.868360137939453125e+01 -2.148780632019042969e+01 1.368675678968429565e-01 2.007810115814208984e+00 6.434032917022705078e-01 5.609871149063110352e-01
2.430000000000000000e+03 4.084266281127929688e+01 -2.081618118286132812e+01 -1.144207194447517395e-01 1.556221246719360352e+00 4.325401782989501953e-01 2.084587514400482178e-01
2.431000000000000000e+03 1.526091480255126953e+01 -2.475137329101562500e+01 2.528742253780364990e-01 9.042996913194656372e-02 1.029912605881690979e-01 -1.996137350797653198e-01
2.432000000000000000e+03 6.288800811767578125e+01 -1.075874233245849609e+01 -1.575872540473937988e+00 -3.402968347072601318e-01 -5.748507976531982422e-01 -1.068604141473770142e-01
2.433000000000000000e+03 4.131044387817382812e+00 -1.155649662017822266e+01 -5.818768590688705444e-02 -5.996211990714073181e-02 -3.544494137167930603e-02 -6.979963183403015137e-02
2.434000000000000000e+03 3.879330873489379883e+00 -9.109451293945312500e+00 -4.095625877380371094e-02 -2.127247862517833710e-02 -1.866862177848815918e-02 -1.560647320002317429e-02
2.435000000000000000e+03 4.963849258422851562e+01 -1.271790981292724609e+01 1.700112223625183105e-01 -3.838277235627174377e-02 3.948853164911270142e-02 8.236536979675292969e-01
2.436000000000000000e+03 3.734597778320312500e+01 -1.661369895935058594e+01 -4.396207630634307861e-01 2.384534120559692383e+00 5.834740400314331055e-01 1.551144838333129883e+00
2.437000000000000000e+03 3.762936782836914062e+01 -1.605911445617675781e+01 -4.988822340965270996e-01 2.906074285507202148e+00 7.221576571464538574e-01 1.555120944976806641e+00
2.438000000000000000e+03 3.470365142822265625e+01 8.803624153137207031e+00 -9.650555148255079985e-05 5.792935262434184551e-04 1.448363909730687737e-04 -5.272995331324636936e-04
2.439000000000000000e+03 1.660174369812011719e+01 -2.685252952575683594e+01 2.660872638225555420e-01 1.399688273668289185e-01 1.218168288469314575e-01 -1.869011968374252319e-01
2.440000000000000000e+03 6.129117202758789062e+01 -9.981695175170898438e+00 -1.186818838119506836e+00 9.923182427883148193e-02 -3.262761235237121582e-01 -1.357852015644311905e-02
2.441000000000000000e+03 7.053723144531250000e+01 -2.649053382873535156e+01 -3.015474649146199226e-03 3.522177867125719786e-04 -7.989770965650677681e-04 6.092548719607293606e-04
2.442000000000000000e+03 6.824981689453125000e+01 -1.111035728454589844e+01 -1.319471120834350586e+00 2.578299343585968018e-01 -3.184923529624938965e-01 -4.317230284214019775e-01
2.443000000000000000e+03 7.190034484863281250e+01 -2.102667427062988281e+01 3.514828276820480824e-04 -3.491904353722929955e-04 6.877177156638936140e-07 1.007011887850239873e-04
2.444000000000000000e+03 5.605746459960937500e+01 -1.004166221618652344e+01 -6.915209889411926270e-01 7.549318671226501465e-01 1.902325637638568878e-02 5.603799223899841309e-01
2.445000000000000000e+03 3.385466766357421875e+01 -8.879461288452148438e+00 1.909769773483276367e+00 3.995964676141738892e-02 5.849187970161437988e-01 -1.016546130180358887e+00
2.446000000000000000e+03 3.826084136962890625e+01 1.218914604187011719e+01 -1.537218131124973297e-02 3.946723882108926773e-03 -3.427637275308370590e-03 -1.343471929430961609e-03
2.447000000000000000e+03 3.451324081420898438e+01 9.551198005676269531e+00 5.120902278576977551e-05 -6.187668768689036369e-04 -1.702673471299931407e-04 -4.267125623300671577e-04
2.448000000000000000e+03 3.218453168869018555e+00 -3.302159118652343750e+01 1.459481753408908844e-02 -6.807026863098144531e-01 -1.998323649168014526e-01 -4.655820131301879883e-02
2.449000000000000000e+03 7.150208473205566406e+00 -3.313280105590820312e+01 6.233228743076324463e-02 -4.358327686786651611e-01 -1.120501458644866943e-01 -7.840854674577713013e-02
2.450000000000000000e+03 5.940845489501953125e+00 -1.953760910034179688e+01 -1.559386961162090302e-02 -2.923627793788909912e-01 -9.238699078559875488e-02 -2.729657292366027832e-01
2.451000000000000000e+03 3.692143249511718750e+01 -1.440510368347167969e+01 9.397859573364257812e-01 1.495204687118530273e+00 7.304971814155578613e-01 1.199286460876464844e+00
2.452000000000000000e+03 4.022639274597167969e+00 5.718200683593750000e+00 1.448842813260853291e-04 3.338720489409752190e-05 5.348144622985273600e-05 -1.448732218705117702e-04
2.453000000000000000e+03 4.316251277923583984e+00 8.205347061157226562e+00 -1.736537160468287766e-05 1.505586260464042425e-05 -6.928528364369412884e-07 -1.841157209128141403e-04
2.454000000000000000e+03 7.089007568359375000e+01 -2.449423217773437500e+01 -9.513521217741072178e-04 -9.302765829488635063e-05 -3.133139398414641619e-04 1.431085984222590923e-04
2.455000000000000000e+03 7.547534179687500000e+01 1.504766941070556641e+01 1.727916598320007324e-01 -1.556667327880859375e+00 -4.151627123355865479e-01 1.029342412948608398e-01
2.456000000000000000e+03 2.327127075195312500e+01 -6.280569553375244141e+00 9.697851538658142090e-02 -2.278080880641937256e-01 -3.924887254834175110e-02 -6.712431907653808594e-01
2.457000000000000000e+03 3.006868600845336914e+00 2.085037231445312500e+01 -1.895468449220061302e-04 -1.053387968568131328e-04 -8.846569107845425606e-05 3.603342920541763306e-04
2.458000000000000000e+03 4.078000068664550781e+00 1.958251762390136719e+01 -2.713789290282875299e-04 -3.237756900489330292e-04 -1.785463828127831221e-04 1.548813888803124428e-04
2.459000000000000000e+03 5.109162139892578125e+01 -1.086808395385742188e+01 -1.982139050960540771e-01 2.619964480400085449e-01 1.913475990295410156e-02 1.297610044479370117e+00
2.460000000000000000e+03 4.991086196899414062e+01 -1.157257556915283203e+01 9.887657314538955688e-02 -1.862734183669090271e-02 2.407477051019668579e-02 1.167876482009887695e+00
2.461000000000000000e+03 5.496029663085937500e+01 -1.088279914855957031e+01 -7.817890644073486328e-01 6.351801753044128418e-01 -4.398268088698387146e-02 6.494486331939697266e-01
2.462000000000000000e+03 4.806938171386718750e+00 2.927702522277832031e+01 -1.267130835913121700e-03 -5.336480680853128433e-03 -1.981083536520600319e-03 5.100070498883724213e-03
2.463000000000000000e+03 1.240202140808105469e+01 -1.517866992950439453e+01 -3.223814666271209717e-01 -4.410086274147033691e-01 -2.290170192718505859e-01 -3.110794425010681152e-01
2.464000000000000000e+03 6.372913360595703125e+01 9.662452697753906250e+00 4.895212948322296143e-01 4.121581554412841797e+00 1.383330941200256348e+00 4.912841916084289551e-01
2.465000000000000000e+03 6.398860931396484375e+01 8.431703567504882812e+00 6.880317926406860352e-01 3.423662900924682617e+00 1.233508348464965820e+00 4.753650426864624023e-01
2.466000000000000000e+03 7.582312774658203125e+01 -3.168651771545410156e+01 -6.195895839482545853e-04 -1.859347103163599968e-03 -7.436810410581529140e-04 2.258993452414870262e-03
2.467000000000000000e+03 7.569546508789062500e+01 -3.047970390319824219e+01 -9.478143183514475822e-04 -1.504354178905487061e-03 -7.356505375355482101e-04 1.948164077475667000e-03
2.468000000000000000e+03 7.740074157714843750e+01 -2.133186912536621094e+01 -1.094384788302704692e-04 2.409087937849108130e-05 -2.560427856224123389e-05 -1.272997324122115970e-04
2.469000000000000000e+03 7.423576354980468750e+01 3.037521743774414062e+01 -1.270640641450881958e-01 -5.162186622619628906e-01 -1.929848045110702515e-01 4.754475951194763184e-01
2.470000000000000000e+03 4.211886978149414062e+01 1.669504547119140625e+01 -6.370659917593002319e-02 1.246638596057891846e-02 -1.537206489592790604e-02 -1.043258979916572571e-02
2.471000000000000000e+03 4.272254180908203125e+01 -2.732733345031738281e+01 7.494873553514480591e-02 7.297186851501464844e-01 2.414002269506454468e-01 -1.300462633371353149e-01
2.472000000000000000e+03 4.431264495849609375e+01 -2.755901527404785156e+01 3.598570078611373901e-02 4.095524251461029053e-01 1.336614340543746948e-01 -1.161446124315261841e-01
2.473000000000000000e+03 5.050130367279052734e+00 -1.553270816802978516e+01 -6.970268487930297852e-02 -1.702179163694381714e-01 -7.197617739439010620e-02 -1.896643936634063721e-01
2.474000000000000000e+03 6.893979072570800781e+00 -1.333699989318847656e+01 -1.406662613153457642e-01 -1.584756076335906982e-01 -8.974255621433258057e-02 -1.689993888139724731e-01
2.475000000000000000e+03 3.934788513183593750e+01 1.517855358123779297e+01 -3.961553424596786499e-02 1.336554903537034988e-02 -7.874995470046997070e-03 2.494341460987925529e-03
2.476000000000000000e+03 4.016794586181640625e+01 1.426976585388183594e+01 -3.475245088338851929e-02 9.700518101453781128e-03 -7.515579927712678909e-03 -5.547957494854927063e-03
2.477000000000000000e+03 7.571311187744140625e+01 -8.227772712707519531e+00 -1.571917831897735596e-01 -2.787561714649200439e-01 -1.307843923568725586e-01 -4.475655853748321533e-01
2.478000000000000000e+03 7.547628021240234375e+01 1.909870910644531250e+01 1.126211881637573242e-01 -1.455824017524719238e+00 -4.029608666896820068e-01 3.331134915351867676e-01
2.479000000000000000e+03 6.562120056152343750e+01 -9.265126228332519531e+00 -1.113716125488281250e+00 -1.625662893056869507e-01 -3.828847110271453857e-01 -7.048538923263549805e-01
2.480000000000000000e+03 6.475811767578125000e+01 -8.257753372192382812e+00 -6.734833121299743652e-01 -1.109800636768341064e-01 -2.353390157222747803e-01 -5.500712990760803223e-01
2.481000000000000000e+03 4.092537879943847656e+00 1.209222030639648438e+01 8.332170182256959379e-06 -5.287166277412325144e-05 -1.336184686806518584e-05 -1.640367263462394476e-04
2.482000000000000000e+03 3.645370101928710938e+01 -1.127691268920898438e+01 2.251336812973022461e+00 5.157694220542907715e-01 8.301318883895874023e-01 -1.720389485359191895e+00
2.483000000000000000e+03 3.521952056884765625e+01 -8.898736953735351562e+00 1.546321153640747070e+00 1.832153350114822388e-01 5.188609361648559570e-01 -1.339262843132019043e+00
2.484000000000000000e+03 1.607109069824218750e+01 -1.015050411224365234e+01 -2.224322408437728882e-01 -4.759894609451293945e-01 -2.095265090465545654e-01 -3.231550157070159912e-01
2.485000000000000000e+03 7.553873443603515625e+01 8.087580680847167969e+00 1.361851990222930908e-01 -1.472722887992858887e+00 -4.009613096714019775e-01 -3.297282159328460693e-01
2.486000000000000000e+03 2.614943504333496094e+01 -6.670044898986816406e+00 8.098167181015014648e-01 -1.740598976612091064e-01 1.907270550727844238e-01 -7.152293324470520020e-01
2.487000000000000000e+03 4.559189319610595703e+00 2.642132377624511719e+01 -1.833466463722288609e-03 -2.864417387172579765e-03 -1.409365213476121426e-03 3.510023700073361397e-03
2.488000000000000000e+03 4.401869201660156250e+01 2.102847290039062500e+01 -4.369607940316200256e-02 3.340632468461990356e-02 -3.086927114054560661e-03 -3.117059357464313507e-03
2.489000000000000000e+03 4.055210113525390625e+01 -5.083774089813232422e+00 -2.300694942474365234e+00 2.186708599328994751e-01 -6.246072649955749512e-01 4.770874083042144775e-01
2.490000000000000000e+03 4.226590347290039062e+01 -6.621320247650146484e+00 -1.194153189659118652e+00 -2.455316483974456787e-02 -3.656119108200073242e-01 1.083581924438476562e+00
2.491000000000000000e+03 1.151108360290527344e+01 -2.240576934814453125e+01 1.552880704402923584e-01 -2.812066376209259033e-01 -3.777556866407394409e-02 -2.695229053497314453e-01
2.492000000000000000e+03 4.702099609375000000e+01 -7.513003349304199219e+00 -2.926319241523742676e-01 -7.319396138191223145e-01 -3.073714673519134521e-01 1.760300755500793457e+00
2.493000000000000000e+03 3.539581775665283203e+00 3.342292404174804688e+01 -6.290461169555783272e-05 -9.337217546999454498e-03 -2.820036606863141060e-03 4.242642316967248917e-03
2.494000000000000000e+03 3.727969741821289062e+01 -1.086760807037353516e+01 2.165408134460449219e+00 1.695199966430664062e+00 1.158182382583618164e+00 -1.890093445777893066e+00
2.495000000000000000e+03 4.194538879394531250e+01 -2.424032402038574219e+01 9.268083423376083374e-02 9.172819852828979492e-01 3.029888272285461426e-01 2.767668804153800011e-03
2.496000000000000000e+03 4.180432891845703125e+01 -2.544566345214843750e+01 9.914799034595489502e-02 9.046390056610107422e-01 3.011361062526702881e-01 -6.034066900610923767e-02
2.497000000000000000e+03 6.573389434814453125e+01 1.825802803039550781e+01 8.744000792503356934e-01 2.629587888717651367e+00 1.051196455955505371e+00 -2.972514368593692780e-03
2.498000000000000000e+03 6.389714813232421875e+01 1.953639030456542969e+01 1.068909883499145508e+00 3.324908971786499023e+00 1.318145632743835449e+00 -2.155709713697433472e-01
2.499000000000000000e+03 1.816167259216308594e+01 -2.874608230590820312e+01 2.726993262767791748e-01 1.818857789039611816e-01 1.363755315542221069e-01 -1.925222575664520264e-01
2.500000000000000000e+03 5.844473648071289062e+01 -9.370260238647460938e+00 -9.067332744598388672e-01 6.297979950904846191e-01 -8.308058977127075195e-02 3.098437488079071045e-01
2.501000000000000000e+03 3.952993011474609375e+01 -5.173137664794921875e+00 -2.054040431976318359e+00 8.140791654586791992e-01 -3.719883561134338379e-01 2.143658697605133057e-01
2.502000000000000000e+03 6.344304656982421875e+01 1.170996952056884766e+01 3.268784880638122559e-01 4.723607540130615234e+00 1.515145778656005859e+00 3.050082921981811523e-01
2.503000000000000000e+03 2.250372314453125000e+01 -7.364086627960205078e+00 1.741317063570022583e-01 -2.527197301387786865e-01 -2.357641234993934631e-02 -4.998575747013092041e-01
2.504000000000000000e+03 4.570188140869140625e+01 2.041278457641601562e+01 -6.026348099112510681e-02 2.019871026277542114e-02 -1.201943121850490570e-02 -1.586717180907726288e-02
2.505000000000000000e+03 4.378104400634765625e+01 2.239608955383300781e+01 -1.448064390569925308e-02 3.687949851155281067e-02 6.719656288623809814e-03 -1.951676793396472931e-03
2.506000000000000000e+03 2.055502128601074219e+01 -7.765904426574707031e+00 -1.134852785617113113e-02 -2.611490488052368164e-01 -8.174927532672882080e-02 -4.687366485595703125e-01
2.507000000000000000e+03 4.051783370971679688e+01 -3.931583881378173828e+00 -2.879233598709106445e+00 6.778252124786376953e-02 -8.434352874755859375e-01 6.525303721427917480e-01
2.508000000000000000e+03 5.882879638671875000e+01 -4.111083030700683594e+00 5.807605385780334473e-01 1.268231987953186035e+00 5.546977519989013672e-01 7.049406170845031738e-01
2.509000000000000000e+03 4.718502426147460938e+01 -3.096380996704101562e+01 -1.794966869056224823e-02 1.693993210792541504e-01 4.543489590287208557e-02 -9.822435677051544189e-02
2.510000000000000000e+03 4.815686416625976562e+01 -3.230292510986328125e+01 -1.046432554721832275e-02 1.426741927862167358e-01 3.966296091675758362e-02 -8.801955729722976685e-02
2.511000000000000000e+03 5.664338302612304688e+01 -6.158919811248779297e+00 2.733900249004364014e-01 1.274539232254028320e+00 4.643787741661071777e-01 8.093628287315368652e-01
2.512000000000000000e+03 5.743881988525390625e+01 -5.517664909362792969e+00 3.403339385986328125e-01 1.292842864990234375e+00 4.899530112743377686e-01 7.303672432899475098e-01
2.513000000000000000e+03 4.106023788452148438e+01 -2.294051933288574219e+01 8.699449896812438965e-02 1.240124583244323730e+00 3.981357216835021973e-01 1.420087963342666626e-01
2.514000000000000000e+03 7.503312683105468750e+01 -3.566875457763671875e+01 1.204619547934271395e-04 -4.307474475353956223e-03 -1.256103860214352608e-03 3.864644793793559074e-03
2.515000000000000000e+03 5.722752380371093750e+01 -7.650435924530029297e+00 -3.023040890693664551e-01 1.001043915748596191e+00 2.096219360828399658e-01 5.937098860740661621e-01
2.516000000000000000e+03 5.574662017822265625e+01 -5.428995132446289062e+00 5.310405492782592773e-01 1.479695439338684082e+00 6.032208204269409180e-01 9.361296892166137695e-01
2.517000000000000000e+03 3.926418304443359375e+00 3.725009536743164062e+01 1.342745730653405190e-03 -1.286473870277404785e-02 -3.456597914919257164e-03 3.186974441632628441e-03
2.518000000000000000e+03 5.099541187286376953e+00 3.598121261596679688e+01 1.474439748562872410e-03 -1.161636598408222198e-02 -3.042577998712658882e-03 4.918233491480350494e-03
2.519000000000000000e+03 6.743790435791015625e+01 -1.062966537475585938e+01 -1.133235454559326172e+00 9.779576957225799561e-02 -3.106319308280944824e-01 -6.127323508262634277e-01
2.520000000000000000e+03 3.808909416198730469e+00 -7.972463130950927734e+00 -3.147586062550544739e-02 -1.001343224197626114e-02 -1.244678720831871033e-02 4.139400552958250046e-03
2.521000000000000000e+03 4.857901573181152344e+00 -7.919649124145507812e+00 -4.987696185708045959e-02 -3.602635860443115234e-02 -2.577099576592445374e-02 -4.326500464230775833e-03
2.522000000000000000e+03 6.456395721435546875e+01 6.063681602478027344e+00 6.970830559730529785e-01 2.703243732452392578e+00 1.020098090171813965e+00 3.347932398319244385e-01
2.523000000000000000e+03 4.440340042114257812e+00 7.066338539123535156e+00 5.469976167660206556e-05 -2.701519406400620937e-05 8.305370101879816502e-06 -1.296836271649226546e-04
2.524000000000000000e+03 3.594444036483764648e+00 7.514378070831298828e+00 9.859992132987827063e-05 2.630795643199235201e-05 3.747236405615694821e-05 2.612060416140593588e-05
2.525000000000000000e+03 5.092532348632812500e+01 -8.430222511291503906e+00 -1.473553925752639771e-01 4.931212663650512695e-01 1.037297621369361877e-01 1.711181402206420898e+00
2.526000000000000000e+03 4.942403030395507812e+01 -9.126458168029785156e+00 2.313963696360588074e-02 -7.685539871454238892e-02 -1.611473038792610168e-02 1.739269495010375977e+00
2.527000000000000000e+03 6.453658294677734375e+01 2.968896150588989258e+00 6.023772358894348145e-01 1.966402888298034668e+00 7.706340551376342773e-01 1.227874830365180969e-01
2.528000000000000000e+03 7.434844970703125000e+01 3.511103057861328125e+01 -1.338159739971160889e-01 -4.431842267513275146e-01 -1.731000542640686035e-01 2.932747304439544678e-01
2.529000000000000000e+03 1.119976806640625000e+01 -1.563300514221191406e+01 -2.536934316158294678e-01 -3.373645544052124023e-01 -1.773173958063125610e-01 -3.113045394420623779e-01
2.530000000000000000e+03 6.653742218017578125e+01 -3.132582092285156250e+01 -1.173282042145729065e-02 2.002615481615066528e-03 -2.919061342254281044e-03 7.562566548585891724e-03
2.531000000000000000e+03 6.354714965820312500e+01 -3.350833129882812500e+01 -1.510428264737129211e-02 -5.776809994131326675e-04 -4.704589024186134338e-03 1.952255889773368835e-02
2.532000000000000000e+03 5.906474590301513672e+00 -1.667374229431152344e+01 -7.285749167203903198e-02 -2.144536525011062622e-01 -8.619334548711776733e-02 -2.383844405412673950e-01
2.533000000000000000e+03 3.678853225708007812e+01 -3.076007461547851562e+01 3.043970279395580292e-02 1.322526335716247559e+00 4.058898091316223145e-01 1.103454455733299255e-01
2.534000000000000000e+03 3.815427398681640625e+01 -3.019357299804687500e+01 6.508497893810272217e-02 1.210866093635559082e+00 3.827853202819824219e-01 7.731489837169647217e-03
2.535000000000000000e+03 5.942371749877929688e+01 -2.890285253524780273e+00 7.667226791381835938e-01 1.446607232093811035e+00 6.639989614486694336e-01 7.410148382186889648e-01
2.536000000000000000e+03 3.054060935974121094e+01 -2.801228046417236328e+00 -2.103639125823974609e+00 2.918734252452850342e-01 -5.435296893119812012e-01 -3.480902314186096191e-01
2.537000000000000000e+03 2.892568969726562500e+01 -2.377638101577758789e+00 -2.228570699691772461e+00 1.174544915556907654e-01 -6.333348155021667480e-01 -4.018932878971099854e-01
2.538000000000000000e+03 2.781207656860351562e+01 -2.272459268569946289e+00 -2.117971897125244141e+00 -8.512611687183380127e-02 -6.609293818473815918e-01 -4.681670069694519043e-01
2.539000000000000000e+03 2.987156867980957031e+01 -2.742626905441284180e+00 -2.083539962768554688e+00 2.993711829185485840e-01 -5.352506041526794434e-01 -3.658348321914672852e-01
2.540000000000000000e+03 2.921432304382324219e+01 -2.340902566909790039e+00 -2.308024406433105469e+00 1.622485518455505371e-01 -6.437327861785888672e-01 -3.843962848186492920e-01
2.541000000000000000e+03 2.944314956665039062e+01 -2.194951057434082031e+00 -2.437523603439331055e+00 1.975981444120407104e-01 -6.719775795936584473e-01 -3.284695744514465332e-01
2.542000000000000000e+03 2.709471321105957031e+01 -2.795650720596313477e+00 -1.545969605445861816e+00 -1.570656448602676392e-01 -5.109105706214904785e-01 -6.689315438270568848e-01
2.543000000000000000e+03 2.754742622375488281e+01 -2.646903753280639648e+00 -1.777383565902709961e+00 -1.027150750160217285e-01 -5.640295743942260742e-01 -5.882218480110168457e-01
2.544000000000000000e+03 4.103556442260742188e+01 -1.752851486206054688e+01 -3.848812878131866455e-01 2.216609477996826172e+00 5.495184659957885742e-01 -2.476530820131301880e-01
2.545000000000000000e+03 3.900112533569335938e+01 -1.526556015014648438e+01 -2.059104740619659424e-01 5.085681438446044922e+00 1.463931202888488770e+00 1.042979836463928223e+00
2.546000000000000000e+03 3.136953735351562500e+01 -2.563427209854125977e+00 -2.324916839599609375e+00 1.990475356578826904e-01 -6.377608180046081543e-01 -3.134746849536895752e-01
2.547000000000000000e+03 3.971495437622070312e+01 -1.821068954467773438e+01 -5.723089575767517090e-01 2.664287328720092773e+00 6.275935173034667969e-01 4.115888476371765137e-01
2.548000000000000000e+03 1.878680419921875000e+01 2.387624549865722656e+01 -3.667025268077850342e-02 -1.519311917945742607e-03 -1.145686954259872437e-02 1.244372036308050156e-02
2.549000000000000000e+03 3.491402053833007812e+01 6.066877841949462891e+00 -2.774178865365684032e-04 -1.408158277627080679e-04 -1.254701201105490327e-04 4.948354326188564301e-04
2.550000000000000000e+03 1.795331764221191406e+01 6.831327915191650391e+00 -5.037363371229730546e-05 -1.619697832211386412e-05 -1.997118488361593336e-05 -1.550714659970253706e-05
2.551000000000000000e+03 3.940743255615234375e+01 -1.520830345153808594e+01 -3.147011101245880127e-01 5.394464015960693359e+00 1.523928880691528320e+00 5.181427001953125000e-01
2.552000000000000000e+03 2.803633689880371094e+01 2.280732154846191406e+01 -7.316910475492477417e-02 -4.007617384195327759e-02 -3.397358208894729614e-02 3.964162990450859070e-02
2.553000000000000000e+03 1.700631713867187500e+01 8.124791145324707031e+00 -6.468274659710004926e-05 1.939781941473484039e-05 -1.358547797281062230e-05 -3.770115654333494604e-05
2.554000000000000000e+03 4.352486801147460938e+01 -1.234493637084960938e+01 2.531438350677490234e+00 -3.633547723293304443e-01 6.504250168800354004e-01 3.919908106327056885e-01
2.555000000000000000e+03 1.427881908416748047e+01 1.365407466888427734e+01 -1.807475200621411204e-04 6.465509068220853806e-04 1.397410233039408922e-04 1.151177493738941848e-04
2.556000000000000000e+03 2.716752624511718750e+01 -2.430916786193847656e+00 -1.862528085708618164e+00 -1.727410554885864258e-01 -6.105807423591613770e-01 -5.535199046134948730e-01
2.557000000000000000e+03 2.645292472839355469e+01 -3.313273191452026367e+00 -1.107998967170715332e+00 -1.331498920917510986e-01 -3.723446726799011230e-01 -8.623472452163696289e-01
2.558000000000000000e+03 3.270251464843750000e+01 1.607020187377929688e+01 -2.187696471810340881e-02 -1.550557557493448257e-02 -1.121476199477910995e-02 2.402799762785434723e-02
2.559000000000000000e+03 1.348231410980224609e+01 1.791935539245605469e+01 -2.811370650306344032e-04 6.330420146696269512e-04 1.055714819813147187e-04 3.237878554500639439e-04
2.560000000000000000e+03 2.349419975280761719e+01 2.450370025634765625e+01 -5.109572410583496094e-02 -1.736662536859512329e-02 -2.053870446979999542e-02 2.733829617500305176e-02
2.561000000000000000e+03 3.371805572509765625e+01 1.169141387939453125e+01 -2.051949501037597656e-03 -1.486979541368782520e-03 -1.061678747646510601e-03 2.984734717756509781e-03
2.562000000000000000e+03 3.331164932250976562e+01 1.091860485076904297e+01 -1.385820913128554821e-03 8.958862745203077793e-04 -1.469803974032402039e-04 4.209837352391332388e-04
2.563000000000000000e+03 3.373981475830078125e+01 1.131432247161865234e+01 -2.751756925135850906e-03 -5.639843875542283058e-04 -9.947223588824272156e-04 1.742664142511785030e-03
2.564000000000000000e+03 1.525211429595947266e+01 9.462948799133300781e+00 5.935911394772119820e-05 1.104377079172991216e-04 5.093904474051669240e-05 3.560371260391548276e-05
2.565000000000000000e+03 3.849381256103515625e+01 -1.531376552581787109e+01 -7.267910987138748169e-02 4.189167499542236328e+00 1.234946489334106445e+00 1.418126583099365234e+00
2.566000000000000000e+03 1.378794670104980469e+01 1.711679077148437500e+01 3.096969157923012972e-04 1.218414749018847942e-03 4.584334965329617262e-04 4.038925981149077415e-04
2.567000000000000000e+03 3.263821411132812500e+01 1.643933296203613281e+01 -2.379657328128814697e-02 -1.774220354855060577e-02 -1.246163249015808105e-02 2.703404054045677185e-02
2.568000000000000000e+03 1.312997913360595703e+01 1.809994506835937500e+01 -2.960344718303531408e-04 3.333751228637993336e-04 1.120219440053915605e-05 1.417148450855165720e-04
2.569000000000000000e+03 1.371379566192626953e+01 1.366159534454345703e+01 1.861569471657276154e-04 5.713832797482609749e-04 2.272620622534304857e-04 2.665361680556088686e-04
2.570000000000000000e+03 2.028392219543457031e+01 2.359426879882812500e+01 -4.830761253833770752e-02 -3.866860643029212952e-03 -1.565234176814556122e-02 1.379899308085441589e-02
2.571000000000000000e+03 3.474705886840820312e+01 7.482385158538818359e+00 -5.496756639331579208e-04 -3.863304737024009228e-04 -2.808018471114337444e-04 -6.953207193873822689e-04
2.572000000000000000e+03 3.318288040161132812e+01 1.210477828979492188e+01 -1.735612051561474800e-03 -1.491783186793327332e-03 -9.682185482233762741e-04 3.225048538297414780e-03
2.573000000000000000e+03 1.903313827514648438e+01 4.489949703216552734e+00 1.337938465439947322e-05 6.543200015585171059e-06 5.976775355520658195e-06 -3.746959237105329521e-06
2.574000000000000000e+03 1.899857521057128906e+01 5.781951904296875000e+00 2.063120882667135447e-05 1.471669656893936917e-05 1.060437170963268727e-05 4.849458946409868076e-06
2.575000000000000000e+03 3.737539291381835938e+01 8.518970489501953125e+00 -1.186276087537407875e-03 -8.608102798461914062e-04 -6.141259218566119671e-04 5.162891466170549393e-04
2.576000000000000000e+03 3.338233184814453125e+01 1.051898002624511719e+01 1.784990745363757014e-04 8.297454915009438992e-04 3.024733741767704487e-04 1.540494558867067099e-04
2.577000000000000000e+03 3.411188507080078125e+01 8.684341430664062500e+00 5.903019336983561516e-04 6.523490883409976959e-04 3.727953007910400629e-04 -9.012952796183526516e-04
2.578000000000000000e+03 3.320196533203125000e+01 1.294881153106689453e+01 -3.980196081101894379e-03 -3.869463922455906868e-03 -2.354898024350404739e-03 6.013736594468355179e-03
2.579000000000000000e+03 3.390589523315429688e+01 1.052587509155273438e+01 -1.665502320975065231e-03 3.558747121132910252e-04 -3.928882651962339878e-04 5.512005882337689400e-04
2.580000000000000000e+03 3.396580123901367188e+01 9.678339004516601562e+00 -8.851517341099679470e-04 3.338151727803051472e-04 -1.654009683988988400e-04 2.610328374430537224e-04
2.581000000000000000e+03 1.753792953491210938e+01 7.504346847534179688e+00 -5.438764492282643914e-05 -6.970660706429043785e-06 -1.840749246184714139e-05 -3.453797398833557963e-05
2.582000000000000000e+03 1.528172302246093750e+01 1.116792297363281250e+01 -8.164837345248088241e-05 1.982758403755724430e-04 3.498823934933170676e-05 -3.470125011517666280e-05
2.583000000000000000e+03 1.459651565551757812e+01 1.125926399230957031e+01 -7.170537719503045082e-05 2.203245239797979593e-04 4.458574403543025255e-05 3.166411624988541007e-05
2.584000000000000000e+03 3.243030166625976562e+01 1.724868774414062500e+01 -3.210294991731643677e-02 -2.057828195393085480e-02 -1.580436900258064270e-02 3.275409713387489319e-02
2.585000000000000000e+03 3.096884536743164062e+01 2.071393013000488281e+01 -7.703593373298645020e-02 -2.688483148813247681e-02 -3.117622807621955872e-02 3.525251895189285278e-02
2.586000000000000000e+03 2.793197250366210938e+01 2.374294662475585938e+01 -5.542286857962608337e-02 -3.467582538723945618e-02 -2.702960930764675140e-02 3.285994753241539001e-02
2.587000000000000000e+03 2.676651763916015625e+01 2.252119827270507812e+01 -9.224458038806915283e-02 -2.653504535555839539e-02 -3.563388809561729431e-02 4.179752990603446960e-02
2.588000000000000000e+03 1.698001670837402344e+01 2.299628257751464844e+01 -2.542785555124282837e-02 1.130819902755320072e-03 -7.289110682904720306e-03 4.976123571395874023e-03
2.589000000000000000e+03 1.821830558776855469e+01 2.295377731323242188e+01 -3.375826030969619751e-02 -2.888076996896415949e-04 -1.021412108093500137e-02 5.165675655007362366e-03
2.590000000000000000e+03 1.757318878173828125e+01 5.954780578613281250e+00 3.671782178571447730e-05 3.558053867891430855e-05 2.168950777559075505e-05 1.962242095032706857e-05
2.591000000000000000e+03 3.465296554565429688e+01 4.266057491302490234e+00 -9.140145266428589821e-04 -2.876781582017429173e-05 -2.828346914611756802e-04 -7.533360621891915798e-05
2.592000000000000000e+03 3.375119400024414062e+01 1.205938434600830078e+01 -5.324929486960172653e-03 -1.646918943151831627e-03 -2.091554459184408188e-03 3.868351224809885025e-03
2.593000000000000000e+03 3.381902694702148438e+01 1.243919658660888672e+01 -4.493834916502237320e-03 -2.526752417907118797e-03 -2.106176223605871201e-03 5.585442762821912766e-03
2.594000000000000000e+03 3.182103157043457031e+01 1.928231239318847656e+01 -6.010748445987701416e-02 -2.353649772703647614e-02 -2.509319409728050232e-02 4.093337059020996094e-02
2.595000000000000000e+03 3.145516395568847656e+01 1.837550544738769531e+01 -4.395636543631553650e-02 -3.764880821108818054e-02 -2.448155358433723450e-02 4.132804274559020996e-02
2.596000000000000000e+03 1.942816543579101562e+01 5.571714878082275391e+00 -1.272887311642989516e-05 -1.466287358198314905e-05 -8.217523827624972910e-06 -9.924450750986579806e-06
2.597000000000000000e+03 1.984722709655761719e+01 5.438829421997070312e+00 1.730910071273683570e-06 6.952151125005912036e-06 2.604918336146511137e-06 3.516395054248278029e-06
2.598000000000000000e+03 2.482259368896484375e+01 2.330352973937988281e+01 -7.574032247066497803e-02 -1.874479837715625763e-02 -2.834553644061088562e-02 3.181270137429237366e-02
2.599000000000000000e+03 2.551461410522460938e+01 2.349371910095214844e+01 -7.033834606409072876e-02 -2.326894365251064301e-02 -2.808218635618686676e-02 3.370722383260726929e-02
2.600000000000000000e+03 1.315062427520751953e+01 1.607679748535156250e+01 2.881711407098919153e-04 5.750213167630136013e-04 2.589577343314886093e-04 4.446977400220930576e-04
2.601000000000000000e+03 1.786879158020019531e+01 2.356564331054687500e+01 -3.000497259199619293e-02 -8.591606456320732832e-05 -9.027266874909400940e-03 8.637646213173866272e-03
2.602000000000000000e+03 1.979487037658691406e+01 2.393563652038574219e+01 -4.118080809712409973e-02 -3.873969428241252899e-03 -1.351643353700637817e-02 1.513709593564271927e-02
2.603000000000000000e+03 1.955715370178222656e+01 2.353470802307128906e+01 -4.242021963000297546e-02 -2.141560427844524384e-03 -1.336853392422199249e-02 1.150060817599296570e-02
2.604000000000000000e+03 3.466170120239257812e+01 1.373685932159423828e+01 -1.473437249660491943e-02 -1.540350844152271748e-03 -4.882416687905788422e-03 1.173865702003240585e-02
2.605000000000000000e+03 3.333960342407226562e+01 1.341791057586669922e+01 -7.901108823716640472e-03 -4.982275888323783875e-03 -3.865015227347612381e-03 8.548972196877002716e-03
2.606000000000000000e+03 3.254541015625000000e+01 1.683901214599609375e+01 -2.871883101761341095e-02 -1.825684867799282074e-02 -1.409270428121089935e-02 2.878020703792572021e-02
2.607000000000000000e+03 3.232259750366210938e+01 1.768369865417480469e+01 -3.805886209011077881e-02 -2.147116139531135559e-02 -1.785900630056858063e-02 3.407845273613929749e-02
2.608000000000000000e+03 3.438079071044921875e+01 7.761922836303710938e+00 9.190571727231144905e-04 3.675118205137550831e-04 3.859706921502947807e-04 -6.044777110219001770e-04
2.609000000000000000e+03 3.414050292968750000e+01 8.030723571777343750e+00 -2.351120201637968421e-04 4.794588894583284855e-04 7.330406515393406153e-05 -6.071598618291318417e-04
2.610000000000000000e+03 3.169580459594726562e+01 1.798776245117187500e+01 -3.906038776040077209e-02 -3.342404216527938843e-02 -2.174532972276210785e-02 3.767203167080879211e-02
2.611000000000000000e+03 1.456504344940185547e+01 2.154192161560058594e+01 -1.140202675014734268e-02 1.908553065732121468e-03 -2.848042175173759460e-03 4.171929613221436739e-04
2.612000000000000000e+03 1.511693859100341797e+01 2.132583999633789062e+01 -1.145747769623994827e-02 1.832724781706929207e-03 -2.887425944209098816e-03 -5.291196284815669060e-04
2.613000000000000000e+03 3.718609619140625000e+01 -1.731146049499511719e+01 -4.909592866897583008e-01 2.226677894592285156e+00 5.207155942916870117e-01 1.233192563056945801e+00
2.614000000000000000e+03 1.558986473083496094e+01 2.238542175292968750e+01 -1.744885742664337158e-02 1.696108374744653702e-03 -4.725824575871229172e-03 2.523918868973851204e-03
2.615000000000000000e+03 1.919982147216796875e+01 2.368131256103515625e+01 -3.826309368014335632e-02 -1.928203506395220757e-03 -1.205738913267850876e-02 1.145960390567779541e-02
2.616000000000000000e+03 1.859960937500000000e+01 2.334927749633789062e+01 -3.495817258954048157e-02 -3.961849724873900414e-04 -1.060630753636360168e-02 7.189971860498189926e-03
2.617000000000000000e+03 1.475241374969482422e+01 2.120574951171875000e+01 -1.017616782337427139e-02 1.877757138572633266e-03 -2.489523030817508698e-03 -9.097183356061577797e-04
2.618000000000000000e+03 2.159301185607910156e+01 2.322687721252441406e+01 -6.268103420734405518e-02 -9.081935510039329529e-03 -2.152889035642147064e-02 1.567658782005310059e-02
2.619000000000000000e+03 3.053547477722167969e+01 2.004468917846679688e+01 -8.045066148042678833e-02 -4.500894248485565186e-02 -3.763788193464279175e-02 5.020965635776519775e-02
2.620000000000000000e+03 1.628311920166015625e+01 8.145261764526367188e+00 -6.062021566322073340e-05 4.975339834345504642e-05 -3.260045787101262249e-06 -3.199818820576183498e-05
2.621000000000000000e+03 1.363112926483154297e+01 1.318301296234130859e+01 -1.026936879497952759e-04 4.102612729184329510e-04 9.227027476299554110e-05 2.712903078645467758e-04
2.622000000000000000e+03 1.315038967132568359e+01 1.873094367980957031e+01 -9.901301236823201180e-04 2.864985726773738861e-04 -2.110894420184195042e-04 -1.734170364215970039e-04
2.623000000000000000e+03 4.132922744750976562e+01 -1.190368652343750000e+01 4.269188880920410156e+00 1.888131856918334961e+00 1.847196221351623535e+00 1.847054839134216309e+00
2.624000000000000000e+03 4.216151809692382812e+01 -1.105197715759277344e+01 2.761398315429687500e+00 8.741536736488342285e-01 1.090665578842163086e+00 1.603019475936889648e+00
2.625000000000000000e+03 2.069931030273437500e+01 2.365362358093261719e+01 -5.011023208498954773e-02 -6.667969282716512680e-03 -1.703345961868762970e-02 1.630192063748836517e-02
2.626000000000000000e+03 4.394587707519531250e+01 -1.016209983825683594e+01 1.642941355705261230e+00 -3.254255950450897217e-01 3.952547311782836914e-01 1.432129025459289551e+00
2.627000000000000000e+03 3.097273445129394531e+01 1.985618591308593750e+01 -7.271846383810043335e-02 -3.495722264051437378e-02 -3.230270743370056152e-02 4.587962850928306580e-02
2.628000000000000000e+03 1.548653221130371094e+01 9.185733795166015625e+00 -8.739757322473451495e-05 9.823555592447519302e-05 3.251393536629620939e-06 -3.127632589894346893e-05
2.629000000000000000e+03 1.916826057434082031e+01 5.057609558105468750e+00 3.173682898705010302e-06 1.311451978835975751e-05 4.886460828856797889e-06 6.126591415522852913e-06
2.630000000000000000e+03 2.204447364807128906e+01 2.323647499084472656e+01 -6.619140505790710449e-02 -1.142281387001276016e-02 -2.328426577150821686e-02 1.651518978178501129e-02
2.631000000000000000e+03 2.212272644042968750e+01 2.378747367858886719e+01 -5.780678614974021912e-02 -1.216225232928991318e-02 -2.099071256816387177e-02 2.094750106334686279e-02
2.632000000000000000e+03 2.939032936096191406e+01 2.195455741882324219e+01 -8.068200945854187012e-02 -4.729741811752319336e-02 -3.839382901787757874e-02 3.557669371366500854e-02
2.633000000000000000e+03 2.814984703063964844e+01 2.201894569396972656e+01 -9.269220381975173950e-02 -4.618495702743530273e-02 -4.166314750909805298e-02 4.727223142981529236e-02
2.634000000000000000e+03 2.981127548217773438e+01 2.134115219116210938e+01 -8.766648918390274048e-02 -4.608497768640518188e-02 -4.012544080615043640e-02 3.714431077241897583e-02
2.635000000000000000e+03 1.382309532165527344e+01 2.124595069885253906e+01 -9.114023298025131226e-03 1.718214363791048527e-03 -2.218742622062563896e-03 -1.940046204254031181e-04
2.636000000000000000e+03 1.522372150421142578e+01 2.217464637756347656e+01 -1.558514963835477829e-02 2.198246074840426445e-03 -4.016071092337369919e-03 1.730215852148830891e-03
2.637000000000000000e+03 1.461555862426757812e+01 9.501128196716308594e+00 5.274999784887768328e-05 1.363441988360136747e-04 5.672825864166952670e-05 5.860588862560689449e-05
2.638000000000000000e+03 3.011254501342773438e+01 2.208470535278320312e+01 -7.158631831407546997e-02 -3.465633839368820190e-02 -3.187279403209686279e-02 2.653519250452518463e-02
2.639000000000000000e+03 3.527590179443359375e+01 4.710987567901611328e+00 -3.571406414266675711e-04 3.236515913158655167e-04 -1.004671867121942341e-05 -4.126091080252081156e-04
2.640000000000000000e+03 3.586729049682617188e+01 4.927345275878906250e+00 -1.034608576446771622e-04 -6.261693197302520275e-04 -2.188890503020957112e-04 2.890254545491188765e-04
2.641000000000000000e+03 3.068911933898925781e+01 2.108179092407226562e+01 -8.007887005805969238e-02 -3.114074096083641052e-02 -3.336588293313980103e-02 3.367551043629646301e-02
2.642000000000000000e+03 3.028413009643554688e+01 2.132302474975585938e+01 -8.011664450168609619e-02 -3.655596077442169189e-02 -3.500178083777427673e-02 3.243219479918479919e-02
2.643000000000000000e+03 1.698114585876464844e+01 2.362477874755859375e+01 -2.475663460791110992e-02 4.427527892403304577e-04 -7.294164970517158508e-03 8.462985046207904816e-03
2.644000000000000000e+03 1.532865905761718750e+01 2.275342178344726562e+01 -1.717293821275234222e-02 1.989822369068861008e-03 -4.554934799671173096e-03 3.408222692087292671e-03
2.645000000000000000e+03 3.510692596435546875e+01 3.787524223327636719e+00 -7.165207061916589737e-04 6.453968235291540623e-04 -2.133715679519809783e-05 -1.560174714541062713e-04
2.646000000000000000e+03 4.585017776489257812e+01 -1.301397800445556641e+01 1.298546671867370605e+00 -4.557872116565704346e-01 2.528278529644012451e-01 3.750970661640167236e-01
2.647000000000000000e+03 4.533570861816406250e+01 -1.304220104217529297e+01 1.462969422340393066e+00 -4.540359675884246826e-01 3.026800453662872314e-01 2.784373462200164795e-01
2.648000000000000000e+03 2.740113067626953125e+01 -3.219465494155883789e+00 -1.306925058364868164e+00 -9.175372123718261719e-02 -4.196036458015441895e-01 -6.840584278106689453e-01
2.649000000000000000e+03 4.624222564697265625e+01 -1.239351367950439453e+01 1.218253850936889648e+00 -5.079843401908874512e-01 2.130808234214782715e-01 6.659025549888610840e-01
2.650000000000000000e+03 1.371684265136718750e+01 2.009170532226562500e+01 -3.751633688807487488e-03 9.370601619593799114e-04 -8.443720871582627296e-04 -9.126188233494758606e-04
2.651000000000000000e+03 4.061830902099609375e+01 -1.796855735778808594e+01 -4.749366044998168945e-01 2.355971097946166992e+00 5.643103718757629395e-01 3.012533299624919891e-02
2.652000000000000000e+03 3.630422210693359375e+01 -3.029658555984497070e+00 -2.173272132873535156e+00 7.482159137725830078e-01 -4.275168478488922119e-01 4.013388156890869141e-01
2.653000000000000000e+03 4.144546127319335938e+01 -9.903647422790527344e+00 1.306236505508422852e+00 1.931636452674865723e+00 9.713619351387023926e-01 1.359674572944641113e+00
2.654000000000000000e+03 4.146684646606445312e+01 -1.074694347381591797e+01 2.186537027359008789e+00 2.072236776351928711e+00 1.277632117271423340e+00 1.600892901420593262e+00
2.655000000000000000e+03 1.836408805847167969e+01 4.410147190093994141e+00 -2.107407635776326060e-05 -1.045264161803061143e-05 -9.458015483687631786e-06 -1.121612967835972086e-06
2.656000000000000000e+03 1.902425575256347656e+01 3.920449018478393555e+00 -1.172647262137616053e-05 -1.106145646190270782e-05 -6.836378815933130682e-06 5.857988526258850470e-06
2.657000000000000000e+03 3.504194259643554688e+01 5.683687210083007812e+00 -1.050829421728849411e-03 -1.660127745708450675e-04 -3.650526632554829121e-04 -8.625530172139406204e-04
2.658000000000000000e+03 3.227388763427734375e+01 -3.716985940933227539e+00 -1.293050050735473633e+00 1.584793478250503540e-01 -3.403712213039398193e-01 -1.056738644838333130e-01
2.659000000000000000e+03 1.964888000488281250e+01 3.987696170806884766e+00 1.453588629374280572e-05 1.014364261209266260e-05 7.403858489851700142e-06 -5.953453182883094996e-06
2.660000000000000000e+03 1.566948604583740234e+01 4.179996490478515625e+00 -2.408110276519437321e-06 -7.259955964400433004e-06 -2.900419985962798819e-06 1.392205558659043163e-05
2.661000000000000000e+03 4.195248413085937500e+01 -2.009100914001464844e+01 -1.241193860769271851e-01 1.258854985237121582e+00 3.404206931591033936e-01 1.400937233120203018e-02
2.662000000000000000e+03 1.630346107482910156e+01 4.174811363220214844e+00 2.095849049510434270e-05 2.620463783387094736e-05 1.414893813489470631e-05 7.438658940372988582e-06
2.663000000000000000e+03 3.413361740112304688e+01 -3.814454793930053711e+00 -1.432793736457824707e+00 2.530783116817474365e-01 -3.539146184921264648e-01 1.928928196430206299e-01
2.664000000000000000e+03 3.505171585083007812e+01 -3.418656587600708008e+00 -1.816512942314147949e+00 4.438996613025665283e-01 -4.117839932441711426e-01 3.310278058052062988e-01
2.665000000000000000e+03 4.798935317993164062e+01 -1.180212306976318359e+01 6.589143276214599609e-01 -3.551942408084869385e-01 9.111601859331130981e-02 1.007443547248840332e+00
2.666000000000000000e+03 4.671998596191406250e+01 -1.220818233489990234e+01 1.062028765678405762e+00 -4.861184954643249512e-01 1.727730929851531982e-01 7.681642174720764160e-01
2.667000000000000000e+03 2.258911895751953125e+01 -3.390265703201293945e+00 -6.354268193244934082e-01 1.656209118664264679e-02 -1.856594234704971313e-01 -6.296508908271789551e-01
2.668000000000000000e+03 2.737063598632812500e+01 -5.218012332916259766e+00 1.744114980101585388e-02 1.631439924240112305e-01 5.417554080486297607e-02 -9.495770931243896484e-01
2.669000000000000000e+03 1.301905250549316406e+01 5.017706871032714844e+00 3.554767681634984910e-05 2.970930472656618804e-05 1.957709355338010937e-05 2.278651300002820790e-05
2.670000000000000000e+03 1.364109992980957031e+01 4.336245536804199219e+00 3.056518835364840925e-05 2.626008790684863925e-05 1.704758324194699526e-05 1.355597396468510851e-05
2.671000000000000000e+03 1.697397994995117188e+01 4.256485939025878906e+00 -2.391243106103502214e-05 -3.454351599430083297e-06 -8.210035048250574619e-06 3.860478045680793002e-06
2.672000000000000000e+03 3.854856109619140625e+01 -1.647781372070312500e+01 -7.794857025146484375e-01 3.666115283966064453e+00 8.659889101982116699e-01 1.053250789642333984e+00
2.673000000000000000e+03 1.009681510925292969e+01 4.540246486663818359e+00 2.963924816867802292e-05 -3.724528505699709058e-05 -2.281811021020985208e-06 2.850072633009403944e-05
2.674000000000000000e+03 1.502440166473388672e+01 4.235912322998046875e+00 1.785686799848917872e-05 2.986513209179975092e-05 1.431659984518773854e-05 3.763436097869998775e-06
2.675000000000000000e+03 1.434225082397460938e+01 4.286712646484375000e+00 -7.713020750088617206e-06 -4.539486724297603359e-07 -2.450090732963872142e-06 2.747078542597591877e-05
2.676000000000000000e+03 7.288648223876953125e+01 -2.074080848693847656e+01 2.387947752140462399e-04 -2.907665329985320568e-04 -1.559152588015422225e-05 5.144675742485560477e-05
2.677000000000000000e+03 1.219958209991455078e+01 4.446336746215820312e+00 4.996049392502754927e-05 1.124111986428033561e-05 1.836048431869130582e-05 1.626280391064938158e-05
2.678000000000000000e+03 1.148049354553222656e+01 4.479770660400390625e+00 2.202525365646579303e-06 -1.090028672479093075e-05 -2.609328475955408067e-06 3.390082929399795830e-05
2.679000000000000000e+03 1.165701961517333984e+01 -4.699725627899169922e+00 -7.761014997959136963e-02 -1.208273991942405701e-01 -5.953126400709152222e-02 -1.092444509267807007e-01
2.680000000000000000e+03 1.083241462707519531e+01 -4.863607406616210938e+00 -7.238344103097915649e-02 -1.071993857622146606e-01 -5.387484654784202576e-02 -7.885000854730606079e-02
2.681000000000000000e+03 9.411986351013183594e+00 4.589695453643798828e+00 7.844061474315822124e-05 -5.287270596454618499e-06 2.194600347138475627e-05 8.331060598720796406e-06
2.682000000000000000e+03 3.911048889160156250e+00 -5.961269855499267578e+00 -1.793515309691429138e-02 -1.742903259582817554e-03 -5.903416778892278671e-03 2.629302069544792175e-02
2.683000000000000000e+03 5.964391231536865234e+00 -5.537050724029541016e+00 -3.222747147083282471e-02 -3.589313849806785583e-02 -2.043618261814117432e-02 1.488433219492435455e-02
2.684000000000000000e+03 3.690544509887695312e+01 -2.937198638916015625e+00 -2.266796827316284180e+00 7.488129138946533203e-01 -4.553951621055603027e-01 4.915909767150878906e-01
2.685000000000000000e+03 1.437619972229003906e+01 -3.840433120727539062e+00 -1.214198172092437744e-01 -1.305980682373046875e-01 -7.560536265373229980e-02 -2.122342735528945923e-01
2.686000000000000000e+03 4.879074573516845703e+00 5.496054649353027344e+00 1.274756214115768671e-04 3.297968942206352949e-05 4.813659325009211898e-05 -1.203459978569298983e-04
2.687000000000000000e+03 5.859753608703613281e+00 4.632730484008789062e+00 7.626195292687043548e-05 -7.208158785942941904e-05 1.254108269677089993e-06 5.839195637236116454e-06
2.688000000000000000e+03 7.094223022460937500e+00 -4.919211864471435547e+00 -2.912669815123081207e-02 -4.121198505163192749e-02 -2.110160514712333679e-02 7.416700944304466248e-03
2.689000000000000000e+03 6.844651222229003906e+00 -4.196532726287841797e+00 -1.464589219540357590e-02 -2.791397087275981903e-02 -1.276795845478773117e-02 1.627174578607082367e-02
2.690000000000000000e+03 6.061790943145751953e+00 -4.411239624023437500e+00 -1.253417134284973145e-02 -2.405533008277416229e-02 -1.097685098648071289e-02 2.309759519994258881e-02
2.691000000000000000e+03 9.088709831237792969e+00 -4.094102382659912109e+00 -3.281856700778007507e-02 -5.609622597694396973e-02 -2.667443826794624329e-02 -2.247331663966178894e-02
2.692000000000000000e+03 9.953393936157226562e+00 -4.903872489929199219e+00 -6.253811717033386230e-02 -9.397477656602859497e-02 -4.695386812090873718e-02 -5.441449955105781555e-02
2.693000000000000000e+03 7.796903133392333984e+00 3.939307212829589844e+00 2.794619285850785673e-05 -4.203904609312303364e-05 -4.227855242788791656e-06 9.447353477298747748e-06
2.694000000000000000e+03 6.454961776733398438e+00 4.652365684509277344e+00 1.035701789078302681e-04 1.296758091484662145e-05 3.496132922009564936e-05 -2.563707676017656922e-05
2.695000000000000000e+03 1.292925739288330078e+01 -3.783924818038940430e+00 -8.528932929039001465e-02 -1.033914610743522644e-01 -5.660423636436462402e-02 -1.421756595373153687e-01
2.696000000000000000e+03 4.315476417541503906e+00 5.226044178009033203e+00 -7.113246829248964787e-05 -8.059039828367531300e-06 -2.375745134486351162e-05 -1.376400177832692862e-05
2.697000000000000000e+03 5.022716999053955078e+00 4.148833751678466797e+00 3.119298708043061197e-05 -1.630860606383066624e-05 4.465314304979983717e-06 2.033180317084770650e-05
2.698000000000000000e+03 8.021902084350585938e+00 -5.259991645812988281e+00 -4.754704609513282776e-02 -6.619869917631149292e-02 -3.412372618913650513e-02 -1.495340466499328613e-02
2.699000000000000000e+03 4.930927753448486328e+00 -5.474177837371826172e+00 -1.962441019713878632e-02 -1.591166667640209198e-02 -1.066082343459129333e-02 2.498055994510650635e-02
2.700000000000000000e+03 7.163505554199218750e+00 4.711990833282470703e+00 2.989065978908911347e-05 -5.886855433345772326e-05 -8.693368727108463645e-06 9.803674402064643800e-06
2.701000000000000000e+03 8.689727783203125000e+00 4.611946105957031250e+00 2.791716906358487904e-05 -4.630634430213831365e-05 -5.516752480616560206e-06 1.267876450583571568e-05
2.702000000000000000e+03 8.339786529541015625e+00 -4.738287925720214844e+00 -4.103754088282585144e-02 -5.938550457358360291e-02 -3.012691251933574677e-02 -1.540318783372640610e-02
2.703000000000000000e+03 7.937175273895263672e+00 4.648664951324462891e+00 7.318748248508200049e-05 -2.641533455971512012e-06 2.116378527716733515e-05 -9.724379196995869279e-06
2.704000000000000000e+03 1.787155532836914062e+01 -4.911061286926269531e+00 -1.838852018117904663e-01 -2.070008963346481323e-01 -1.172658279538154602e-01 -4.178918004035949707e-01
2.705000000000000000e+03 1.642533493041992188e+01 -3.871032476425170898e+00 -1.834067106246948242e-01 -1.529047936201095581e-01 -1.008934527635574341e-01 -3.134704828262329102e-01
2.706000000000000000e+03 1.856229400634765625e+01 -5.068847656250000000e+00 -1.943424344062805176e-01 -1.991330683231353760e-01 -1.180426478385925293e-01 -4.583827853202819824e-01
2.707000000000000000e+03 9.083880424499511719e+00 -4.840178489685058594e+00 -4.973511025309562683e-02 -6.893588602542877197e-02 -3.560129925608634949e-02 -2.780214883387088776e-02
2.708000000000000000e+03 3.519938659667968750e+01 4.237230777740478516e+00 1.095929881557822227e-03 9.671094449004158378e-05 3.577922470867633820e-04 7.054078014334663749e-05
2.709000000000000000e+03 3.559059524536132812e+01 3.998730182647705078e+00 2.153705099772196263e-05 -9.959365706890821457e-04 -2.923198626376688480e-04 9.456333646085113287e-05
2.710000000000000000e+03 3.800089263916015625e+01 -1.558006191253662109e+01 -2.064165920019149780e-01 3.394589185714721680e+00 9.564517736434936523e-01 1.508711576461791992e+00
2.711000000000000000e+03 3.396502304077148438e+01 -4.516270160675048828e+00 -8.905175328254699707e-01 3.055762648582458496e-01 -1.754823774099349976e-01 7.514919340610504150e-02
2.712000000000000000e+03 1.239024829864501953e+01 -4.538866996765136719e+00 -8.755230903625488281e-02 -1.217740103602409363e-01 -6.279789656400680542e-02 -1.335955262184143066e-01
2.713000000000000000e+03 1.301665878295898438e+01 -4.357808113098144531e+00 -9.079669415950775146e-02 -1.337067037820816040e-01 -6.735102087259292603e-02 -1.557724773883819580e-01
2.714000000000000000e+03 7.520371246337890625e+01 -1.247474002838134766e+01 -1.685780733823776245e-01 -4.225672408938407898e-02 -6.325043737888336182e-02 -1.676167845726013184e-01
2.715000000000000000e+03 1.703415679931640625e+01 -4.836262702941894531e+00 -1.710514724254608154e-01 -2.035168558359146118e-01 -1.123704984784126282e-01 -3.757334351539611816e-01
2.716000000000000000e+03 7.224358367919921875e+01 -1.145150375366210938e+01 -5.027534365653991699e-01 8.046652376651763916e-02 -1.266860663890838623e-01 -3.043037056922912598e-01
2.717000000000000000e+03 7.100318908691406250e+01 -1.158238506317138672e+01 -6.554690003395080566e-01 1.403227150440216064e-01 -1.545438915491104126e-01 -2.980243265628814697e-01
2.718000000000000000e+03 7.380045318603515625e+01 -1.113065624237060547e+01 -3.378759324550628662e-01 -1.878016814589500427e-02 -1.069968268275260925e-01 -3.217463195323944092e-01
2.719000000000000000e+03 3.923558807373046875e+01 -9.525280952453613281e+00 6.589836478233337402e-01 2.865850925445556641e+00 1.057450413703918457e+00 -6.046667098999023438e-01
2.720000000000000000e+03 1.545290279388427734e+01 -4.289166927337646484e+00 -1.473511457443237305e-01 -1.672565639019012451e-01 -9.438230842351913452e-02 -2.743445634841918945e-01
2.721000000000000000e+03 1.619015502929687500e+01 -4.592609405517578125e+00 -1.524830609560012817e-01 -1.930713802576065063e-01 -1.036663278937339783e-01 -3.206336498260498047e-01
2.722000000000000000e+03 2.382454490661621094e+01 -3.565227270126342773e+00 -7.352589368820190430e-01 8.007136173546314240e-03 -2.181755304336547852e-01 -7.820866107940673828e-01
2.723000000000000000e+03 2.468976020812988281e+01 -4.422829627990722656e+00 -4.300558269023895264e-01 -9.589590132236480713e-02 -1.577855199575424194e-01 -9.055716991424560547e-01
2.724000000000000000e+03 6.903506469726562500e+01 -1.153024291992187500e+01 -9.346286058425903320e-01 2.306745350360870361e-01 -2.111862152814865112e-01 -2.150214761495590210e-01
2.725000000000000000e+03 3.855617141723632812e+01 -9.634301185607910156e+00 8.963605165481567383e-01 2.543443918228149414e+00 1.031941294670104980e+00 -1.165526986122131348e+00
2.726000000000000000e+03 3.660345840454101562e+01 -9.634471893310546875e+00 1.472717761993408203e+00 8.128053545951843262e-01 6.856569051742553711e-01 -1.741417646408081055e+00
2.727000000000000000e+03 3.999972152709960938e+01 -1.005337429046630859e+01 9.342580437660217285e-01 3.454862594604492188e+00 1.316736221313476562e+00 2.246245443820953369e-01
2.728000000000000000e+03 3.855879974365234375e+01 -8.863156318664550781e+00 4.136239290237426758e-01 2.140024900436401367e+00 7.660946846008300781e-01 -9.286656975746154785e-01
2.729000000000000000e+03 2.293440628051757812e+01 -3.781970739364624023e+00 -5.956657528877258301e-01 -8.910991251468658447e-03 -1.813730150461196899e-01 -7.077960968017578125e-01
2.730000000000000000e+03 5.181046962738037109e+00 6.625365257263183594e+00 1.380390749545767903e-04 -4.579342567012645304e-05 2.767369369394145906e-05 -2.833365579135715961e-05
2.731000000000000000e+03 2.720921897888183594e+01 -6.632480621337890625e+00 1.124763011932373047e+00 8.226647973060607910e-02 3.621088564395904541e-01 -7.735075950622558594e-01
2.732000000000000000e+03 4.567423248291015625e+01 -7.675143241882324219e+00 -2.708576619625091553e-01 -7.814099192619323730e-01 -3.156802952289581299e-01 1.665188670158386230e+00
2.733000000000000000e+03 2.006175994873046875e+01 -4.273403644561767578e+00 -3.093670904636383057e-01 -1.260195523500442505e-01 -1.306159943342208862e-01 -5.125845670700073242e-01
2.734000000000000000e+03 1.946044349670410156e+01 -3.825238227844238281e+00 -3.168845474720001221e-01 -1.249212324619293213e-01 -1.325417309999465942e-01 -4.461466372013092041e-01
2.735000000000000000e+03 3.164068222045898438e+01 -7.111817836761474609e+00 1.536036252975463867e+00 7.648630142211914062e-01 6.902697682380676270e-01 -5.682518482208251953e-01
2.736000000000000000e+03 3.922186279296875000e+01 1.606628990173339844e+01 -4.998046159744262695e-02 2.252857945859432220e-02 -8.235565386712551117e-03 5.833801813423633575e-03
2.737000000000000000e+03 7.449629211425781250e+01 -2.099681282043457031e+01 9.432272781850770116e-05 -1.400048058712854981e-04 -1.370462359773227945e-05 -2.500155460438691080e-05
2.738000000000000000e+03 3.590908050537109375e+01 -8.152886390686035156e+00 9.738110303878784180e-01 5.141955018043518066e-01 4.464019536972045898e-01 -1.126090764999389648e+00
2.739000000000000000e+03 3.746981811523437500e+01 -2.173071861267089844e+00 -2.398692846298217773e+00 6.859422326087951660e-01 -5.138251185417175293e-01 6.605964899063110352e-01
2.740000000000000000e+03 2.919807243347167969e+01 -5.784671783447265625e+00 4.059422612190246582e-01 5.651027560234069824e-01 2.913134992122650146e-01 -6.851245164871215820e-01
2.741000000000000000e+03 1.682961273193359375e+01 -9.801821708679199219e+00 -1.775580942630767822e-01 -4.501144289970397949e-01 -1.883017569780349731e-01 -3.483169078826904297e-01
2.742000000000000000e+03 1.498120880126953125e+01 -9.470566749572753906e+00 -1.740620583295822144e-01 -4.302655458450317383e-01 -1.812982857227325439e-01 -2.624903023242950439e-01
2.743000000000000000e+03 2.176266098022460938e+01 -3.074544429779052734e+00 -6.215295791625976562e-01 2.931942604482173920e-02 -1.776630431413650513e-01 -5.128144025802612305e-01
2.744000000000000000e+03 5.152292633056640625e+01 -9.946518898010253906e+00 -2.439659386873245239e-01 4.353043437004089355e-01 5.740152671933174133e-02 1.408054351806640625e+00
2.745000000000000000e+03 4.974596023559570312e+00 3.228417968750000000e+01 1.368368684779852629e-04 -8.517553098499774933e-03 -2.514214720577001572e-03 5.716795101761817932e-03
2.746000000000000000e+03 3.125957870483398438e+01 -6.493433952331542969e+00 1.028420209884643555e+00 6.875390410423278809e-01 5.147877931594848633e-01 -3.816236853599548340e-01
2.747000000000000000e+03 4.051579952239990234e+00 1.826364707946777344e+01 -5.467056762427091599e-04 -1.836149895098060369e-04 -2.190961968153715134e-04 -1.399106840835884213e-04
2.748000000000000000e+03 4.286939239501953125e+01 -2.105869674682617188e+01 -3.556022047996520996e-02 8.701160550117492676e-01 2.503667473793029785e-01 9.394910186529159546e-03
2.749000000000000000e+03 7.578226470947265625e+01 -2.165135955810546875e+01 4.392032860778272152e-05 -9.995739674195647240e-05 -1.681112007645424455e-05 -9.629693522583693266e-05
2.750000000000000000e+03 7.627433776855468750e+01 -1.981835174560546875e+01 5.506116576725617051e-05 1.737512138788588345e-05 2.173088614654261619e-05 -1.392823323840275407e-04
2.751000000000000000e+03 4.321895217895507812e+01 -7.016626358032226562e+00 -8.454464077949523926e-01 -2.626577913761138916e-01 -3.324312567710876465e-01 1.327337384223937988e+00
2.752000000000000000e+03 6.577405548095703125e+01 6.452283859252929688e+00 6.340095996856689453e-01 2.221706628799438477e+00 8.567148447036743164e-01 3.903526440262794495e-02
2.753000000000000000e+03 3.783148193359375000e+01 1.157232952117919922e+01 -1.258925348520278931e-02 2.600742154754698277e-04 -3.698753891512751579e-03 3.345493460074067116e-04
2.754000000000000000e+03 2.238705062866210938e+01 -4.299711704254150391e+00 -4.107649326324462891e-01 -7.138260453939437866e-02 -1.446442604064941406e-01 -6.851378083229064941e-01
2.755000000000000000e+03 5.070464134216308594e+00 1.453345680236816406e+01 1.399279863107949495e-04 -2.623306063469499350e-04 -3.672078673844225705e-05 -1.434972218703478575e-04
2.756000000000000000e+03 5.459510803222656250e+00 1.617138862609863281e+01 9.449478966416791081e-05 -4.302159650251269341e-04 -1.007163591566495597e-04 -2.040836407104507089e-04
2.757000000000000000e+03 6.954530334472656250e+01 -1.073974514007568359e+01 -9.563447833061218262e-01 2.231882810592651367e-01 -2.199469506740570068e-01 -4.510898888111114502e-01
2.758000000000000000e+03 6.654351806640625000e+01 7.869380474090576172e+00 6.122632622718811035e-01 2.159166812896728516e+00 8.314290046691894531e-01 -3.251774609088897705e-02
2.759000000000000000e+03 2.518632316589355469e+01 -4.940924644470214844e+00 -1.729130744934082031e-01 -1.495474725961685181e-01 -9.673815965652465820e-02 -9.133847355842590332e-01
2.760000000000000000e+03 3.340581130981445312e+01 -4.337072849273681641e+00 -9.458746314048767090e-01 2.296704351902008057e-01 -2.148612588644027710e-01 1.913316175341606140e-02
2.761000000000000000e+03 1.286251449584960938e+01 -2.231577491760253906e+01 2.124897688627243042e-01 -2.203296273946762085e-01 -2.351955976337194443e-03 -2.535803914070129395e-01
2.762000000000000000e+03 4.418332576751708984e+00 1.560194301605224609e+01 -1.715718535706400871e-04 -1.996841892832890153e-04 -1.113768157665617764e-04 -3.422302252147346735e-04
2.763000000000000000e+03 3.954941940307617188e+01 -4.236241340637207031e+00 -2.475898981094360352e+00 6.284782886505126953e-01 -5.542262196540832520e-01 4.780272543430328369e-01
2.764000000000000000e+03 2.428328514099121094e+01 -6.798902511596679688e+00 3.573851585388183594e-01 -2.469402104616165161e-01 3.313348814845085144e-02 -6.290754675865173340e-01
2.765000000000000000e+03 2.548683738708496094e+01 -7.153550148010253906e+00 7.295262217521667480e-01 -2.120911926031112671e-01 1.552305072546005249e-01 -5.673454999923706055e-01
2.766000000000000000e+03 1.329372787475585938e+01 -1.196839332580566406e+01 -3.253761529922485352e-01 -4.533187747001647949e-01 -2.336084842681884766e-01 -2.076293826103210449e-01
2.767000000000000000e+03 1.417510318756103516e+01 -9.632322311401367188e+00 -1.888406127691268921e-01 -4.139739573001861572e-01 -1.808443665504455566e-01 -2.281536310911178589e-01
2.768000000000000000e+03 7.063240051269531250e+01 -2.301523017883300781e+01 -6.285978597588837147e-04 -3.030618827324360609e-04 -2.794979372993111610e-04 -1.179112223326228559e-04
2.769000000000000000e+03 5.211997222900390625e+01 -9.004419326782226562e+00 -3.453833162784576416e-01 7.670146226882934570e-01 1.264894008636474609e-01 1.439008235931396484e+00
2.770000000000000000e+03 5.563584899902343750e+01 -7.945271015167236328e+00 -2.602530419826507568e-01 1.150375247001647949e+00 2.670366764068603516e-01 8.187170028686523438e-01
2.771000000000000000e+03 5.149639606475830078e+00 1.186280441284179688e+01 2.102166909025982022e-04 -1.390831748722121119e-04 2.134005808329675347e-05 -2.322633663425222039e-04
2.772000000000000000e+03 3.923623561859130859e+00 1.087571239471435547e+01 2.083034050883725286e-04 5.524335392692591995e-06 6.414832023438066244e-05 -2.129880303982645273e-04
2.773000000000000000e+03 4.164219665527343750e+01 -5.237198829650878906e+00 -2.385936260223388672e+00 -2.054549753665924072e-01 -7.774173617362976074e-01 8.979771137237548828e-01
2.774000000000000000e+03 4.103718566894531250e+01 1.637328720092773438e+01 -5.586953833699226379e-02 2.045703865587711334e-02 -1.062375027686357498e-02 -6.434951908886432648e-03
2.775000000000000000e+03 4.871625900268554688e+01 -1.229910087585449219e+01 4.373224377632141113e-01 -1.855756640434265137e-01 7.552403211593627930e-02 8.871492147445678711e-01
2.776000000000000000e+03 7.452279663085937500e+01 -8.079814910888671875e+00 -2.138353139162063599e-01 -2.062317878007888794e-01 -1.260201334953308105e-01 -5.314074754714965820e-01
2.777000000000000000e+03 7.570979309082031250e+01 -6.927340984344482422e+00 -1.127812191843986511e-01 -3.891314268112182617e-01 -1.505737900733947754e-01 -5.152103304862976074e-01
2.778000000000000000e+03 7.552755737304687500e+01 6.692253112792968750e+00 1.303703337907791138e-01 -1.399190545082092285e+00 -3.806460499763488770e-01 -4.022971093654632568e-01
2.779000000000000000e+03 7.411174011230468750e+01 3.935887336730957031e+00 1.690835356712341309e-01 -8.071914315223693848e-01 -1.914323717355728149e-01 -5.961021184921264648e-01
2.780000000000000000e+03 5.169989395141601562e+01 -1.201100349426269531e+01 -3.542716503143310547e-01 2.490014135837554932e-01 -3.158107399940490723e-02 9.746810793876647949e-01
2.781000000000000000e+03 5.505544662475585938e+01 -9.816302299499511719e+00 -6.421811580657958984e-01 8.500072956085205078e-01 6.234784424304962158e-02 7.481561899185180664e-01
2.782000000000000000e+03 4.030131530761718750e+01 -6.187911987304687500e+00 -1.507478952407836914e+00 7.817357182502746582e-01 -2.177229523658752441e-01 2.734243869781494141e-01
2.783000000000000000e+03 4.707196235656738281e+00 8.886649131774902344e+00 7.848042150726541877e-05 -8.737266762182116508e-05 -2.667674607437220402e-06 -4.058559352415613830e-05
2.784000000000000000e+03 6.604081630706787109e+00 -1.220837211608886719e+01 -1.267949193716049194e-01 -1.347617954015731812e-01 -7.846701145172119141e-02 -1.268057674169540405e-01
2.785000000000000000e+03 3.769254302978515625e+01 6.485446453094482422e+00 2.283045556396245956e-03 3.132644342258572578e-04 7.788930088281631470e-04 9.938248695107176900e-05
2.786000000000000000e+03 1.170206165313720703e+01 -1.257760524749755859e+01 -2.959858477115631104e-01 -3.366651535034179688e-01 -1.897953003644943237e-01 -2.035418152809143066e-01
2.787000000000000000e+03 4.589397811889648438e+01 -8.635550498962402344e+00 3.996929228305816650e-01 -7.377011179924011230e-01 -1.014024615287780762e-01 1.697398424148559570e+00
2.788000000000000000e+03 6.135692119598388672e+00 2.928038024902343750e+01 -1.171632553450763226e-03 -5.368520040065050125e-03 -1.962045906111598015e-03 6.615425925701856613e-03
2.789000000000000000e+03 5.657344341278076172e+00 2.363240623474121094e+01 -1.767958048731088638e-03 -1.585156773217022419e-03 -1.005934434942901134e-03 2.454241039231419563e-03
2.790000000000000000e+03 1.987662506103515625e+01 -6.010127544403076172e+00 -1.348562389612197876e-01 -2.251187264919281006e-01 -1.079924926161766052e-01 -5.248590707778930664e-01
2.791000000000000000e+03 2.152329826354980469e+01 -7.563212394714355469e+00 7.783313095569610596e-02 -2.486252933740615845e-01 -5.123764649033546448e-02 -4.859475195407867432e-01
2.792000000000000000e+03 3.755151748657226562e+01 1.264523601531982422e+01 -1.960331015288829803e-02 3.338982816785573959e-03 -4.879298154264688492e-03 2.682995051145553589e-03
2.793000000000000000e+03 3.889818954467773438e+01 -2.243483352661132812e+01 2.667881846427917480e-01 1.809713721275329590e+00 6.229505538940429688e-01 4.476069808006286621e-01
2.794000000000000000e+03 6.075330734252929688e+01 9.945988059043884277e-01 8.060132861137390137e-01 2.300574302673339844e+00 9.319763183593750000e-01 1.024426698684692383e+00
2.795000000000000000e+03 3.899953460693359375e+01 1.376432037353515625e+01 -2.914933674037456512e-02 1.004517823457717896e-02 -5.731247831135988235e-03 -1.700029708445072174e-03
2.796000000000000000e+03 3.865693283081054688e+01 1.495318126678466797e+01 -3.730842098593711853e-02 1.614615693688392639e-02 -6.348678842186927795e-03 2.997052157297730446e-03
2.797000000000000000e+03 3.959951782226562500e+01 -2.338904190063476562e+01 2.263919264078140259e-01 1.508736371994018555e+00 5.205385088920593262e-01 2.335204780101776123e-01
2.798000000000000000e+03 7.606381225585937500e+01 -2.482271194458007812e+01 -4.429319524206221104e-04 -2.251142286695539951e-04 -2.004138514166697860e-04 2.115156530635431409e-04
2.799000000000000000e+03 7.461713409423828125e+01 -2.693827819824218750e+01 -1.292126835323870182e-03 -3.795737575273960829e-04 -5.015101633034646511e-04 6.959172897040843964e-04
2.800000000000000000e+03 7.410739135742187500e+01 1.503631019592285156e+01 2.749711275100708008e-01 -9.687621593475341797e-01 -2.081373035907745361e-01 9.035226702690124512e-02
2.801000000000000000e+03 7.546507263183593750e+01 1.643840789794921875e+01 1.632140278816223145e-01 -1.529848694801330566e+00 -4.099904000759124756e-01 1.837258785963058472e-01
2.802000000000000000e+03 7.365526580810546875e+01 -2.490052223205566406e+01 -8.709409157745540142e-04 -3.423023154027760029e-04 -3.639729693531990051e-04 2.008295414270833135e-04
2.803000000000000000e+03 7.554258728027343750e+01 -2.749074697494506836e-01 3.559637069702148438e-02 -9.452614784240722656e-01 -2.728995382785797119e-01 -6.335328817367553711e-01
2.804000000000000000e+03 4.734821701049804688e+01 -1.006292915344238281e+01 6.491777896881103516e-01 -5.658122301101684570e-01 2.500968053936958313e-02 1.488855600357055664e+00
2.805000000000000000e+03 4.921623992919921875e+01 -1.019178485870361328e+01 2.025436013936996460e-01 -1.655258536338806152e-01 1.110532227903604507e-02 1.504987239837646484e+00
2.806000000000000000e+03 7.632129669189453125e+01 -2.383830070495605469e+01 -5.481193511513993144e-05 -1.038537011481821537e-04 -4.759969306178390980e-05 -6.509138620458543301e-05
2.807000000000000000e+03 7.464562225341796875e+01 -2.446835899353027344e+01 -4.595618229359388351e-04 -2.462242846377193928e-04 -2.117358235409483314e-04 1.654285442782565951e-04
2.808000000000000000e+03 5.517559051513671875e+00 8.634246826171875000e+00 8.983183943200856447e-05 -3.734153142431750894e-05 1.574709131091367453e-05 -1.596238726051524282e-04
2.809000000000000000e+03 3.648773574829101562e+01 5.341938495635986328e+00 1.009755069389939308e-03 2.210218226537108421e-04 3.692330792546272278e-04 -6.695336196571588516e-04
2.810000000000000000e+03 4.207649230957031250e+01 -2.312014770507812500e+01 6.916569173336029053e-02 9.721683263778686523e-01 3.124001920223236084e-01 4.993486031889915466e-02
2.811000000000000000e+03 6.620297241210937500e+01 8.957252502441406250e+00 6.314834356307983398e-01 2.431763172149658203e+00 9.189739823341369629e-01 7.477699220180511475e-02
2.812000000000000000e+03 7.323707580566406250e+01 -2.382781791687011719e+01 -4.884608206339180470e-04 -2.364523097639903426e-04 -2.174739347537979484e-04 8.161986625054851174e-05
2.813000000000000000e+03 7.569870758056640625e+01 -3.277188873291015625e+01 -9.525604546070098877e-04 -2.556500956416130066e-03 -1.052718376740813255e-03 2.832566620782017708e-03
2.814000000000000000e+03 3.732364654541015625e+01 -1.253983020782470703e+01 3.191524744033813477e+00 1.641571998596191406e+00 1.449928998947143555e+00 -7.924758791923522949e-01
2.815000000000000000e+03 1.023330307006835938e+01 -1.956811141967773438e+01 -8.444317616522312164e-03 -3.315585553646087646e-01 -1.020008549094200134e-01 -3.518114984035491943e-01
2.816000000000000000e+03 4.183804512023925781e+00 2.090725326538085938e+01 -1.107581891119480133e-03 -5.035705398768186569e-04 -4.833457351196557283e-04 5.340508650988340378e-04
2.817000000000000000e+03 5.346060276031494141e+00 2.089448356628417969e+01 -9.365871082991361618e-04 -7.883937796577811241e-04 -5.174942780286073685e-04 6.749971071258187294e-04
2.818000000000000000e+03 4.133885192871093750e+01 -2.661005020141601562e+01 1.199757754802703857e-01 9.739085435867309570e-01 3.281652927398681641e-01 -8.697304129600524902e-02
2.819000000000000000e+03 4.264165878295898438e+01 -2.922556877136230469e+01 4.300372302532196045e-02 7.332513928413391113e-01 2.328765392303466797e-01 -1.587414294481277466e-01
2.820000000000000000e+03 6.479373931884765625e+01 1.002486419677734375e+01 5.955750346183776855e-01 3.367908239364624023e+00 1.189044952392578125e+00 2.599987685680389404e-01
2.821000000000000000e+03 6.904563903808593750e+01 -2.843128395080566406e+01 -6.181435193866491318e-03 9.058093419298529625e-04 -1.582687720656394958e-03 1.496913610026240349e-03
2.822000000000000000e+03 5.018144226074218750e+01 -1.051063060760498047e+01 -1.132935285568237305e-03 6.714747101068496704e-02 1.980436220765113831e-02 1.424114584922790527e+00
2.823000000000000000e+03 5.446603393554687500e+01 -7.386411666870117188e+00 -3.283703466877341270e-03 1.250342011451721191e+00 3.741174936294555664e-01 9.600960016250610352e-01
2.824000000000000000e+03 2.343231773376464844e+01 -7.144626140594482422e+00 2.788183689117431641e-01 -2.471689730882644653e-01 9.494815021753311157e-03 -5.589428544044494629e-01
2.825000000000000000e+03 2.245952987670898438e+01 -5.344630241394042969e+00 -1.658358722925186157e-01 -1.618861407041549683e-01 -9.831660240888595581e-02 -6.964291334152221680e-01
2.826000000000000000e+03 7.418343353271484375e+01 -1.019818592071533203e+01 -2.788385450839996338e-01 -7.568325847387313843e-02 -1.063565462827682495e-01 -3.809538483619689941e-01
2.827000000000000000e+03 5.474191188812255859e+00 1.292533302307128906e+01 8.896640792954713106e-05 -2.661836042534559965e-04 -5.316516035236418247e-05 -1.528267748653888702e-04
2.828000000000000000e+03 5.295858001708984375e+01 2.700881576538085938e+01 2.595742642879486084e-01 3.001027405261993408e-01 1.679031103849411011e-01 -4.119565486907958984e-01
2.829000000000000000e+03 7.419266510009765625e+01 2.032650375366210938e+01 1.677785962820053101e-01 -9.331569671630859375e-01 -2.296135127544403076e-01 4.478588700294494629e-01
2.830000000000000000e+03 7.522642517089843750e+01 2.291954421997070312e+01 6.167294457554817200e-02 -1.179399371147155762e+00 -3.353179395198822021e-01 4.993076920509338379e-01
2.831000000000000000e+03 5.913427352905273438e+00 -2.062505531311035156e+01 1.601377315819263458e-02 -3.272857666015625000e-01 -9.338159859180450439e-02 -2.724007964134216309e-01
2.832000000000000000e+03 6.218504905700683594e+00 -1.485917758941650391e+01 -1.120633855462074280e-01 -1.741167008876800537e-01 -8.585402369499206543e-02 -2.033600509166717529e-01
2.833000000000000000e+03 5.782568454742431641e+00 -1.372903251647949219e+01 -9.859390556812286377e-02 -1.424834579229354858e-01 -7.232321053743362427e-02 -1.579655408859252930e-01
2.834000000000000000e+03 4.491149139404296875e+01 2.170428848266601562e+01 -2.695670723915100098e-02 2.894245088100433350e-02 5.957231624051928520e-04 -4.339656326919794083e-03
2.835000000000000000e+03 7.425437164306640625e+01 9.484561920166015625e+00 2.232497185468673706e-01 -1.013988614082336426e+00 -2.372216582298278809e-01 -2.850293219089508057e-01
2.836000000000000000e+03 7.422515106201171875e+01 5.342296600341796875e+00 1.781754195690155029e-01 -8.897476196289062500e-01 -2.134716659784317017e-01 -5.126679539680480957e-01
2.837000000000000000e+03 5.131488800048828125e+00 -2.936592102050781250e+01 5.179824307560920715e-02 -5.139435529708862305e-01 -1.386435925960540771e-01 -1.182629838585853577e-01
2.838000000000000000e+03 4.668135643005371094e+00 -3.066525077819824219e+01 4.944232478737831116e-02 -5.561496019363403320e-01 -1.520121842622756958e-01 -9.543456882238388062e-02
2.839000000000000000e+03 6.041855621337890625e+01 -3.440221548080444336e+00 5.226032733917236328e-01 1.181257605552673340e+00 5.111582875251770020e-01 4.941656589508056641e-01
2.840000000000000000e+03 5.839751815795898438e+01 -7.976375579833984375e+00 -4.238450229167938232e-01 7.578698992729187012e-01 1.002074629068374634e-01 3.642619848251342773e-01
2.841000000000000000e+03 1.853548622131347656e+01 -8.662045478820800781e+00 -1.106098517775535583e-01 -3.258552551269531250e-01 -1.309395283460617065e-01 -4.218347966670989990e-01
2.842000000000000000e+03 7.573114013671875000e+01 2.860675430297851562e+01 -6.260744482278823853e-02 -9.499537944793701172e-01 -3.037683665752410889e-01 4.483909010887145996e-01
2.843000000000000000e+03 6.874409484863281250e+01 1.659688186645507812e+01 6.465725898742675781e-01 1.266870856285095215e+00 5.740330219268798828e-01 1.356983333826065063e-01
2.844000000000000000e+03 6.743405151367187500e+01 1.834568786621093750e+01 7.527962923049926758e-01 1.833673596382141113e+00 7.759409546852111816e-01 1.658283621072769165e-01
2.845000000000000000e+03 1.644011688232421875e+01 -3.049428749084472656e+01 2.237472683191299438e-01 7.686576992273330688e-02 9.018391370773315430e-02 -1.243212446570396423e-01
2.846000000000000000e+03 1.648950386047363281e+01 -9.046327590942382812e+00 -1.606901884078979492e-01 -4.188984334468841553e-01 -1.738765835762023926e-01 -3.559353351593017578e-01
2.847000000000000000e+03 1.015188217163085938e+01 -1.597463512420654297e+01 -2.051946222782135010e-01 -2.886876463890075684e-01 -1.481646895408630371e-01 -3.105461597442626953e-01
2.848000000000000000e+03 1.156026458740234375e+01 -1.679813957214355469e+01 -1.912324130535125732e-01 -3.583660125732421875e-01 -1.648795306682586670e-01 -3.404147922992706299e-01
2.849000000000000000e+03 4.139079666137695312e+01 2.185178375244140625e+01 -3.137149661779403687e-02 4.112184420228004456e-02 2.925103530287742615e-03 9.303594008088111877e-03
2.850000000000000000e+03 7.296826171875000000e+01 1.091759967803955078e+01 3.213025331497192383e-01 -4.829468727111816406e-01 -4.849330335855484009e-02 -2.107206881046295166e-01
2.851000000000000000e+03 7.427555847167968750e+01 8.105040550231933594e+00 2.154168039560317993e-01 -9.723223447799682617e-01 -2.270716577768325806e-01 -3.759209811687469482e-01
2.852000000000000000e+03 7.166610717773437500e+00 -1.435145187377929688e+01 -1.397259682416915894e-01 -1.783448755741119385e-01 -9.542125463485717773e-02 -2.039887160062789917e-01
2.853000000000000000e+03 2.458393859863281250e+01 -3.377144241333007812e+01 3.093426525592803955e-01 3.148526549339294434e-01 1.872586011886596680e-01 2.604690752923488617e-02
2.854000000000000000e+03 7.546091461181640625e+01 3.893249273300170898e+00 1.019350439310073853e-01 -1.230482101440429688e+00 -3.385640978813171387e-01 -5.261500477790832520e-01
2.855000000000000000e+03 7.596210479736328125e+01 -3.520829772949218750e+01 6.417785334633663297e-05 -4.136627539992332458e-03 -1.221734913997352123e-03 3.037639195099473000e-03
2.856000000000000000e+03 6.532614898681640625e+01 -3.268296813964843750e+01 -1.255252584815025330e-02 9.813801152631640434e-04 -3.471343778073787689e-03 1.355339959263801575e-02
2.857000000000000000e+03 4.611960411071777344e+00 -1.416540336608886719e+01 -6.853643059730529785e-02 -1.258343756198883057e-01 -5.831124261021614075e-02 -1.431001424789428711e-01
2.858000000000000000e+03 5.859644317626953125e+01 -5.434830665588378906e+00 3.171920180320739746e-01 1.114820122718811035e+00 4.296036660671234131e-01 5.474150776863098145e-01
2.859000000000000000e+03 7.551624298095703125e+01 1.363545894622802734e+01 1.826656907796859741e-01 -1.576010584831237793e+00 -4.180034697055816650e-01 2.253909828141331673e-03
2.860000000000000000e+03 6.782340240478515625e+01 -3.221376800537109375e+01 -7.417428772896528244e-03 5.297673051245510578e-04 -2.066298387944698334e-03 9.016779251396656036e-03
2.861000000000000000e+03 6.950120544433593750e+01 -3.220355606079101562e+01 -5.162436980754137039e-03 -8.077860111370682716e-04 -1.791066839359700680e-03 7.074842695146799088e-03
2.862000000000000000e+03 4.665617942810058594e+00 -2.060397529602050781e+01 8.495260030031204224e-03 -3.317103683948516846e-01 -9.696453064680099487e-02 -2.322216331958770752e-01
2.863000000000000000e+03 6.040396690368652344e+00 -2.186383056640625000e+01 3.607085347175598145e-02 -3.575747609138488770e-01 -9.645117074251174927e-02 -2.633219361305236816e-01
2.864000000000000000e+03 4.523074722290039062e+01 -2.945389747619628906e+01 1.903306925669312477e-03 3.140676617622375488e-01 9.479129314422607422e-02 -1.382115632295608521e-01
2.865000000000000000e+03 7.386901092529296875e+01 2.398279190063476562e+01 6.342592835426330566e-02 -6.423004269599914551e-01 -1.736623495817184448e-01 5.945662856101989746e-01
2.866000000000000000e+03 6.532837677001953125e+01 2.122578811645507812e+01 6.607584953308105469e-01 2.338998079299926758e+00 8.999269604682922363e-01 1.680107861757278442e-01
2.867000000000000000e+03 4.431523323059082031e+00 -3.289988708496093750e+01 2.637610957026481628e-02 -6.064844131469726562e-01 -1.740324944257736206e-01 -5.613242089748382568e-02
2.868000000000000000e+03 6.793476581573486328e+00 -3.131077766418457031e+01 6.825778633356094360e-02 -4.456023275852203369e-01 -1.132033616304397583e-01 -1.018833592534065247e-01
2.869000000000000000e+03 7.577871704101562500e+01 -2.796920013427734375e+01 -1.115520368330180645e-03 -6.078623118810355663e-04 -5.170147633180022240e-04 9.152975399047136307e-04
2.870000000000000000e+03 7.424184417724609375e+01 -3.051999092102050781e+01 -1.482412917539477348e-03 -1.114886370487511158e-03 -7.791898096911609173e-04 2.671701600775122643e-03
2.871000000000000000e+03 4.146326065063476562e+01 1.813003349304199219e+01 -6.142559275031089783e-02 3.183473274111747742e-02 -8.877257816493511200e-03 -2.493713283911347389e-03
2.872000000000000000e+03 7.290261840820312500e+01 -5.858426690101623535e-01 7.787535339593887329e-02 -3.673259317874908447e-01 -8.683516830205917358e-02 -7.806271910667419434e-01
2.873000000000000000e+03 1.110591220855712891e+01 -2.527685928344726562e+01 1.874939054250717163e-01 -2.545611262321472168e-01 -2.012016251683235168e-02 -2.088540494441986084e-01
2.874000000000000000e+03 1.249201774597167969e+01 -2.518418312072753906e+01 2.195486128330230713e-01 -1.660854667425155640e-01 1.603894494473934174e-02 -1.955367475748062134e-01
2.875000000000000000e+03 2.830676841735839844e+01 -2.360876560211181641e+00 -2.134114503860473633e+00 1.349801570177078247e-02 -6.361849308013916016e-01 -4.484367370605468750e-01
2.876000000000000000e+03 2.931773376464843750e+01 -2.655184507369995117e+00 -2.059208631515502930e+00 2.106269598007202148e-01 -5.545744895935058594e-01 -3.951342403888702393e-01
2.877000000000000000e+03 3.031852531433105469e+01 -2.675467491149902344e+00 -2.196563005447387695e+00 3.127531409263610840e-01 -5.651429295539855957e-01 -3.386397361755371094e-01
2.878000000000000000e+03 2.709826850891113281e+01 -3.402832508087158203e+00 -1.157020688056945801e+00 -6.397629529237747192e-02 -3.662990927696228027e-01 -7.899845242500305176e-01
2.879000000000000000e+03 1.475006008148193359e+01 1.019408130645751953e+01 6.400327401934191585e-05 1.710284996079280972e-04 7.050952990539371967e-05 4.806563083548098803e-05
2.880000000000000000e+03 4.106669235229492188e+01 -1.677592849731445312e+01 -3.258163332939147949e-01 2.392203569412231445e+00 6.199162006378173828e-01 -5.106978416442871094e-01
2.881000000000000000e+03 3.971305465698242188e+01 -1.713407325744628906e+01 -7.287542223930358887e-01 3.253618478775024414e+00 7.574592232704162598e-01 3.056600987911224365e-01
2.882000000000000000e+03 1.334152984619140625e+01 1.960404396057128906e+01 -2.433412242680788040e-03 5.396223277784883976e-04 -5.681369802914559841e-04 -7.466364186257123947e-04
2.883000000000000000e+03 1.696766662597656250e+01 6.169181346893310547e+00 3.960621688747778535e-05 3.988416938227601349e-05 2.384711478953249753e-05 1.716976112220436335e-05
2.884000000000000000e+03 1.740283203125000000e+01 6.657214164733886719e+00 4.459937190404161811e-05 4.381592225399799645e-05 2.652458715601824224e-05 1.751295712892897427e-05
2.885000000000000000e+03 1.728294372558593750e+01 6.985573291778564453e+00 -5.300655539031140506e-05 -5.579162007052218542e-06 -1.757571590133011341e-05 -2.376483462285250425e-05
2.886000000000000000e+03 1.562469291687011719e+01 8.924752235412597656e+00 3.788900357903912663e-05 1.189846516354009509e-04 4.706209801952354610e-05 4.452769280760549009e-05
2.887000000000000000e+03 1.945675849914550781e+01 2.422510528564453125e+01 -3.948420658707618713e-02 -3.781099570915102959e-03 -1.297959219664335251e-02 1.612423546612262726e-02
2.888000000000000000e+03 1.749151039123535156e+01 6.311555862426757812e+00 -3.748232120415195823e-05 -1.481976869399659336e-05 -1.569062624184880406e-05 -2.155409492843318731e-05
2.889000000000000000e+03 1.324158954620361328e+01 1.644635009765625000e+01 -1.334794214926660061e-04 6.165128434076905251e-04 1.449100236641243100e-04 4.630701732821762562e-04
2.890000000000000000e+03 4.491685485839843750e+01 -8.893054008483886719e+00 5.817344784736633301e-01 -6.454973816871643066e-01 -1.912887394428253174e-02 1.573028564453125000e+00
2.891000000000000000e+03 3.415420913696289062e+01 1.163515567779541016e+01 -4.531986080110073090e-03 -1.164462883025407791e-03 -1.708934665657579899e-03 3.421525470912456512e-03
2.892000000000000000e+03 1.237422466278076172e+01 1.702016448974609375e+01 -7.697830733377486467e-05 -1.650045305723324418e-04 -7.259485573740676045e-05 4.519529175013303757e-04
2.893000000000000000e+03 1.151697349548339844e+01 1.698721504211425781e+01 -1.977098727365955710e-04 -5.026715225540101528e-04 -2.101144200423732400e-04 3.423132584430277348e-04
2.894000000000000000e+03 3.308115768432617188e+01 1.607396697998046875e+01 -2.261413633823394775e-02 -1.297775842249393463e-02 -1.067756861448287964e-02 2.462612837553024292e-02
2.895000000000000000e+03 3.381222152709960938e+01 1.092970657348632812e+01 -1.089699682779610157e-03 -6.737105431966483593e-04 -5.290230619721114635e-04 1.507445238530635834e-03
2.896000000000000000e+03 1.867900657653808594e+01 5.259352207183837891e+00 -2.062980274786241353e-05 -1.687241820036433637e-05 -1.125066592067014426e-05 -6.277688044065143913e-06
2.897000000000000000e+03 1.801750755310058594e+01 6.040761947631835938e+00 -1.765980232448782772e-05 1.380735511702368967e-06 -4.883720066573005170e-06 3.763576614801422693e-06
2.898000000000000000e+03 4.013377380371093750e+01 -1.703851509094238281e+01 -6.658985018730163574e-01 3.069493055343627930e+00 7.210783958435058594e-01 -1.275158673524856567e-02
2.899000000000000000e+03 3.276451110839843750e+01 1.515369319915771484e+01 -1.291122753173112869e-02 -1.274510938674211502e-02 -7.696900982409715652e-03 1.674327626824378967e-02
2.900000000000000000e+03 3.426049423217773438e+01 1.192940425872802734e+01 -3.824341343715786934e-03 -1.765253720805048943e-03 -1.676878542639315128e-03 3.802270861342549324e-03
2.901000000000000000e+03 1.282446479797363281e+01 1.664696693420410156e+01 1.120490924222394824e-04 2.469350874889642000e-04 1.076952612493187189e-04 3.425281611271202564e-04
2.902000000000000000e+03 1.492099761962890625e+01 9.127458572387695312e+00 -6.443671009037643671e-05 9.823658183449879289e-05 1.013996097753988579e-05 2.372118615312501788e-05
2.903000000000000000e+03 4.255423355102539062e+01 -1.210090255737304688e+01 3.355182647705078125e+00 3.149900212883949280e-02 1.016004562377929688e+00 7.244453430175781250e-01
2.904000000000000000e+03 1.527400398254394531e+01 8.905637741088867188e+00 -4.577189247356727719e-05 7.568082946818321943e-05 8.972681825980544090e-06 3.912458123522810638e-05
2.905000000000000000e+03 3.452350616455078125e+01 1.006705188751220703e+01 -2.017319668084383011e-03 -6.329891766654327512e-05 -6.241855444386601448e-04 5.592532688751816750e-04
2.906000000000000000e+03 3.398130798339843750e+01 1.330883598327636719e+01 -8.837542496621608734e-03 -3.497094614431262016e-03 -3.700391156598925591e-03 9.219503961503505707e-03
2.907000000000000000e+03 1.336647224426269531e+01 1.417430305480957031e+01 1.169544848380610347e-04 5.376128829084336758e-04 1.963702234206721187e-04 3.198105259798467159e-04
2.908000000000000000e+03 3.432149124145507812e+01 9.088562011718750000e+00 -8.400573278777301311e-04 -3.891908854711800814e-04 -3.687744610942900181e-04 -1.188692040159367025e-04
2.909000000000000000e+03 1.284325790405273438e+01 1.281025314331054688e+01 -2.999514981638640165e-05 1.993612386286258698e-04 5.080982737126760185e-05 3.479543956927955151e-04
2.910000000000000000e+03 3.515171813964843750e+01 9.458502769470214844e+00 -1.598613918758928776e-03 -4.915958852507174015e-04 -6.270629237405955791e-04 2.144257887266576290e-04
2.911000000000000000e+03 3.396849822998046875e+01 1.009908008575439453e+01 -4.158720184932462871e-05 -3.090331156272441149e-04 -1.051860890584066510e-04 3.974371429649181664e-05
2.912000000000000000e+03 3.322778701782226562e+01 1.499937438964843750e+01 -1.630195230245590210e-02 -9.039328433573246002e-03 -7.602383848279714584e-03 1.746409386396408081e-02
2.913000000000000000e+03 1.353067874908447266e+01 1.555245876312255859e+01 2.029197785304859281e-04 8.511656196787953377e-04 3.162256034556776285e-04 3.277162613812834024e-04
2.914000000000000000e+03 1.316690921783447266e+01 1.525059127807617188e+01 3.301298420410603285e-04 4.480866482481360435e-04 2.334649470867589116e-04 4.734822432510554790e-04
2.915000000000000000e+03 3.302931213378906250e+01 1.698375129699707031e+01 -3.222880139946937561e-02 -1.307891588658094406e-02 -1.359231490641832352e-02 3.098399378359317780e-02
2.916000000000000000e+03 1.488484001159667969e+01 1.087433338165283203e+01 6.046664930181577802e-05 2.308667899342253804e-04 8.740003249840810895e-05 5.715102088288404047e-05
2.917000000000000000e+03 3.389131164550781250e+01 1.285298919677734375e+01 -8.343746885657310486e-03 -2.955340780317783356e-03 -3.389726160094141960e-03 7.418513298034667969e-03
2.918000000000000000e+03 3.367180633544921875e+01 1.442346191406250000e+01 -1.561118569225072861e-02 -5.537727847695350647e-03 -6.344674155116081238e-03 1.513810362666845322e-02
2.919000000000000000e+03 3.580848312377929688e+01 6.831214427947998047e+00 -8.559885900467634201e-04 -7.182076224125921726e-04 -4.722588637378066778e-04 -2.466720470692962408e-04
2.920000000000000000e+03 2.021768188476562500e+01 2.414736557006835938e+01 -4.274010658264160156e-02 -6.419298239052295685e-03 -1.474782172590494156e-02 1.837625354528427124e-02
2.921000000000000000e+03 2.257839012145996094e+01 2.368463897705078125e+01 -6.033762916922569275e-02 -1.300591416656970978e-02 -2.200306393206119537e-02 2.114753238856792450e-02
2.922000000000000000e+03 1.825885772705078125e+01 5.511833190917968750e+00 1.111223446059739217e-05 1.530959161755163223e-05 7.926548278192058206e-06 2.363926250836811960e-05
2.923000000000000000e+03 2.751050567626953125e+01 2.308580589294433594e+01 -7.195268571376800537e-02 -3.539054095745086670e-02 -3.220297023653984070e-02 3.976869210600852966e-02
2.924000000000000000e+03 2.633460044860839844e+01 2.371122169494628906e+01 -6.443417072296142578e-02 -2.868998609483242035e-02 -2.793724648654460907e-02 3.601702675223350525e-02
2.925000000000000000e+03 1.318660926818847656e+01 1.377109336853027344e+01 6.218386261025443673e-06 3.086219658143818378e-04 9.445210889680311084e-05 3.952379047404974699e-04
2.926000000000000000e+03 3.289051055908203125e+01 1.739175415039062500e+01 -3.644253686070442200e-02 -1.293442584574222565e-02 -1.481308881193399429e-02 3.075376339256763458e-02
2.927000000000000000e+03 3.459364700317382812e+01 1.321942996978759766e+01 -1.308768149465322495e-02 -1.137643354013562202e-03 -4.267597105354070663e-03 9.041638113558292389e-03
2.928000000000000000e+03 3.443501663208007812e+01 1.227920436859130859e+01 -8.584218099713325500e-03 -1.877537695690989494e-03 -3.138526575639843941e-03 5.744433496147394180e-03
2.929000000000000000e+03 3.410126876831054688e+01 1.381612777709960938e+01 -1.397658605128526688e-02 -3.046043682843446732e-03 -5.106789059937000275e-03 1.200369838625192642e-02
2.930000000000000000e+03 1.593500614166259766e+01 8.382849693298339844e+00 2.658426637935917825e-05 6.062756074243225157e-05 2.616354868223425001e-05 3.824961095233447850e-05
2.931000000000000000e+03 3.503619384765625000e+01 7.887720584869384766e+00 8.347088587470352650e-04 2.954793490062002093e-05 2.592770324554294348e-04 -3.874545800499618053e-04
2.932000000000000000e+03 4.423475265502929688e+01 -1.272723770141601562e+01 2.032243490219116211e+00 -4.453390538692474365e-01 4.760713279247283936e-01 2.371857762336730957e-01
2.933000000000000000e+03 3.184353637695312500e+01 2.002997970581054688e+01 -6.858310103416442871e-02 -1.770418696105480194e-02 -2.588618546724319458e-02 3.778669238090515137e-02
2.934000000000000000e+03 1.648088645935058594e+01 2.285213470458984375e+01 -2.261186763644218445e-02 8.578094420954585075e-04 -6.526217330247163773e-03 4.593879450112581253e-03
2.935000000000000000e+03 3.833967971801757812e+01 -1.592938327789306641e+01 -5.561930537223815918e-01 3.783597946166992188e+00 9.682214856147766113e-01 1.347468495368957520e+00
2.936000000000000000e+03 4.013139724731445312e+01 -1.664897155761718750e+01 -6.297405958175659180e-01 3.348306894302368164e+00 8.155698776245117188e-01 -1.075310409069061279e-01
2.937000000000000000e+03 3.223153305053710938e+01 1.870423698425292969e+01 -5.166229978203773499e-02 -1.900165714323520660e-02 -2.119918726384639740e-02 3.823532164096832275e-02
2.938000000000000000e+03 3.223777008056640625e+01 1.816900634765625000e+01 -4.455941915512084961e-02 -2.201338857412338257e-02 -1.997184194624423981e-02 3.825605660676956177e-02
2.939000000000000000e+03 3.575478363037109375e+01 8.204937934875488281e+00 6.008924683555960655e-04 -7.655179360881447792e-04 -4.938764323014765978e-05 -4.138567892368882895e-04
2.940000000000000000e+03 3.434499359130859375e+01 8.247707366943359375e+00 2.865550632122904062e-04 9.344424470327794552e-04 3.662992385216057301e-04 -8.566400501877069473e-04
2.941000000000000000e+03 1.966008567810058594e+01 4.512190341949462891e+00 -1.090064597519813105e-05 8.250223686445679050e-07 -3.022686996700940654e-06 -1.990241344174137339e-06
2.942000000000000000e+03 1.438183116912841797e+01 2.196412658691406250e+01 -1.263142656534910202e-02 2.156419213861227036e-03 -3.142502158880233765e-03 9.924679761752486229e-04
2.943000000000000000e+03 1.376855182647705078e+01 1.407027530670166016e+01 -1.242456200998276472e-04 6.136873271316289902e-04 1.468325062887743115e-04 2.552479272708296776e-04
2.944000000000000000e+03 1.267281150817871094e+01 1.396207809448242188e+01 1.858822943177074194e-04 2.568266354501247406e-04 1.328126818407326937e-04 3.034733235836029053e-04
2.945000000000000000e+03 1.299082469940185547e+01 1.909358787536621094e+01 -1.497250166721642017e-03 2.879843814298510551e-04 -3.627797414083033800e-04 -5.007666186429560184e-04
2.946000000000000000e+03 4.339881515502929688e+01 -8.189376831054687500e+00 8.656557649374008179e-02 -6.310553103685379028e-02 7.038012146949768066e-03 1.493975281715393066e+00
2.947000000000000000e+03 4.241284942626953125e+01 -1.120764923095703125e+01 2.783227205276489258e+00 6.279739737510681152e-01 1.023360371589660645e+00 1.426445841789245605e+00
2.948000000000000000e+03 2.161310005187988281e+01 2.374342727661132812e+01 -5.468305200338363647e-02 -1.115541439503431320e-02 -1.975153945386409760e-02 1.931772753596305847e-02
2.949000000000000000e+03 1.485504817962646484e+01 2.207346343994140625e+01 -1.369507238268852234e-02 1.960891298949718475e-03 -3.520254278555512428e-03 1.495865290053188801e-03
2.950000000000000000e+03 1.264279842376708984e+01 1.621392440795898438e+01 -7.632265624124556780e-05 5.769902782049030066e-05 -5.587089617620222270e-06 5.046426667831838131e-04
2.951000000000000000e+03 1.249073219299316406e+01 1.779455757141113281e+01 -2.128904161509126425e-04 -5.353625238058157265e-05 -7.992800237843766809e-05 5.011486064177006483e-05
2.952000000000000000e+03 1.375357627868652344e+01 2.186990928649902344e+01 -1.005899161100387573e-02 1.646804506890475750e-03 -2.523656003177165985e-03 1.031407387927174568e-03
2.953000000000000000e+03 1.433761405944824219e+01 9.886279106140136719e+00 -9.902050805976614356e-05 1.409512478858232498e-04 1.257922394870547578e-05 6.897115235915407538e-05
2.954000000000000000e+03 3.514090728759765625e+01 5.126769542694091797e+00 -1.409902324667200446e-04 -4.062220687046647072e-04 -1.641636918066069484e-04 5.248961970210075378e-04
2.955000000000000000e+03 3.141624069213867188e+01 2.091899299621582031e+01 -7.269641757011413574e-02 -1.914724335074424744e-02 -2.755309827625751495e-02 3.213762864470481873e-02
2.956000000000000000e+03 1.391263675689697266e+01 1.127377986907958984e+01 -4.191546031506732106e-05 2.266922674607485533e-04 5.543304359889589250e-05 1.279370189877226949e-04
2.957000000000000000e+03 1.421479988098144531e+01 1.093866157531738281e+01 4.359950980870053172e-05 2.472617779858410358e-04 8.725838415557518601e-05 9.274472540710121393e-05
2.958000000000000000e+03 2.113413047790527344e+01 2.420375633239746094e+01 -4.675653204321861267e-02 -1.011637505143880844e-02 -1.706187240779399872e-02 2.056340686976909637e-02
2.959000000000000000e+03 2.114029121398925781e+01 2.369705390930175781e+01 -5.317648872733116150e-02 -7.993773557245731354e-03 -1.835107803344726562e-02 1.770511083304882050e-02
2.960000000000000000e+03 3.868601989746093750e+01 -2.041814804077148438e+01 -6.197254359722137451e-02 2.088583946228027344e+00 6.079834699630737305e-01 6.971835494041442871e-01
2.961000000000000000e+03 4.105715942382812500e+01 -1.836773490905761719e+01 -3.532817959785461426e-01 1.968685030937194824e+00 4.846209585666656494e-01 -2.921164035797119141e-02
2.962000000000000000e+03 4.155383682250976562e+01 -1.866191291809082031e+01 -2.426025867462158203e-01 1.635361313819885254e+00 4.178276360034942627e-01 -7.014667987823486328e-02
2.963000000000000000e+03 4.176762008666992188e+01 -1.024074840545654297e+01 1.670736670494079590e+00 1.577920198440551758e+00 9.745970368385314941e-01 1.523434638977050781e+00
2.964000000000000000e+03 1.601238441467285156e+01 2.261284637451171875e+01 -1.957734860479831696e-02 1.721881912089884281e-03 -5.356640089303255081e-03 3.052000189200043678e-03
2.965000000000000000e+03 1.464718341827392578e+01 2.273498916625976562e+01 -1.489971112459897995e-02 2.128936350345611572e-03 -3.831232432276010513e-03 3.067226381972432137e-03
2.966000000000000000e+03 2.263610458374023438e+01 2.460915756225585938e+01 -4.825523123145103455e-02 -1.488104742020368576e-02 -1.894088461995124817e-02 2.487044036388397217e-02
2.967000000000000000e+03 2.211091041564941406e+01 2.433849525451660156e+01 -5.003203824162483215e-02 -1.434976141899824142e-02 -1.931453868746757507e-02 2.380728349089622498e-02
2.968000000000000000e+03 3.271752548217773438e+01 1.994630813598632812e+01 -6.312800943851470947e-02 -6.339350715279579163e-03 -2.084020711481571198e-02 3.388945758342742920e-02
2.969000000000000000e+03 2.994031143188476562e+01 2.332895660400390625e+01 -5.165994167327880859e-02 -2.805206365883350372e-02 -2.391360141336917877e-02 2.269753627479076385e-02
2.970000000000000000e+03 2.896233177185058594e+01 2.225325393676757812e+01 -7.734722644090652466e-02 -4.723399505019187927e-02 -3.737436607480049133e-02 3.667630255222320557e-02
2.971000000000000000e+03 4.525327301025390625e+01 -1.260030269622802734e+01 1.587284684181213379e+00 -5.116583704948425293e-01 3.226878941059112549e-01 4.374220967292785645e-01
2.972000000000000000e+03 2.589855575561523438e+01 2.361874771118164062e+01 -6.899969279766082764e-02 -2.338737994432449341e-02 -2.771612256765365601e-02 3.490144014358520508e-02
2.973000000000000000e+03 3.009141540527343750e+01 -4.407225131988525391e+00 -8.238918781280517578e-01 4.720339477062225342e-01 -1.055573895573616028e-01 -4.841218292713165283e-01
2.974000000000000000e+03 3.155678939819335938e+01 -3.054720878601074219e+00 -1.945869088172912598e+00 1.905405670404434204e-01 -5.265985727310180664e-01 -3.017865121364593506e-01
2.975000000000000000e+03 4.715264511108398438e+01 -1.194730949401855469e+01 9.131232500076293945e-01 -4.520573019981384277e-01 1.383197903633117676e-01 9.029540419578552246e-01
2.976000000000000000e+03 4.646694946289062500e+01 -1.168193912506103516e+01 1.134505987167358398e+00 -5.610784888267517090e-01 1.720282435417175293e-01 9.552645087242126465e-01
2.977000000000000000e+03 3.280214309692382812e+01 1.822083854675292969e+01 -4.755629226565361023e-02 -1.153417304158210754e-02 -1.772714033722877502e-02 3.492973744869232178e-02
2.978000000000000000e+03 3.284206390380859375e+01 1.933628654479980469e+01 -5.706690251827239990e-02 -6.410032045096158981e-03 -1.904308050870895386e-02 3.420362621545791626e-02
2.979000000000000000e+03 1.323367500305175781e+01 1.216045570373535156e+01 -5.233805495663546026e-05 2.360137150390073657e-04 5.510269693331792951e-05 2.762276562862098217e-04
2.980000000000000000e+03 1.380700778961181641e+01 1.196520233154296875e+01 4.144487320445477962e-05 2.916236117016524076e-04 9.992054401664063334e-05 1.211799899465404451e-04
2.981000000000000000e+03 2.983840179443359375e+01 2.174630165100097656e+01 -8.114711195230484009e-02 -4.303296282887458801e-02 -3.725402057170867920e-02 3.322204574942588806e-02
2.982000000000000000e+03 1.534616279602050781e+01 2.346169662475585938e+01 -1.857369579374790192e-02 1.670802943408489227e-03 -5.070867482572793961e-03 6.019285414367914200e-03
2.983000000000000000e+03 1.689283370971679688e+01 6.526386737823486328e+00 -4.340265149949118495e-05 -6.413759365386795253e-06 -1.494492335041286424e-05 -1.214889562106691301e-05
2.984000000000000000e+03 3.103335189819335938e+01 2.244427299499511719e+01 -6.121448799967765808e-02 -2.256331779062747955e-02 -2.513334155082702637e-02 2.210664004087448120e-02
2.985000000000000000e+03 3.584143829345703125e+01 8.798928260803222656e+00 -1.287246472202241421e-03 -8.371144067496061325e-04 -6.373082287609577179e-04 1.656327222008258104e-04
2.986000000000000000e+03 3.032158470153808594e+01 2.172650909423828125e+01 -7.554505765438079834e-02 -3.395993635058403015e-02 -3.285149857401847839e-02 2.881845459342002869e-02
2.987000000000000000e+03 4.210303115844726562e+01 -2.211277770996093750e+01 7.750537246465682983e-03 1.032841205596923828e+00 3.121775090694427490e-01 7.411988079547882080e-02
2.988000000000000000e+03 1.282600688934326172e+01 2.071520614624023438e+01 -5.616225302219390869e-03 8.822763338685035706e-04 -1.420184737071394920e-03 -4.357561410870403051e-04
2.989000000000000000e+03 4.757321929931640625e+01 -1.241454219818115234e+01 7.886003851890563965e-01 -3.600977063179016113e-01 1.285508126020431519e-01 7.774423956871032715e-01
2.990000000000000000e+03 3.794557952880859375e+01 -1.808449172973632812e+01 -4.961484670639038086e-01 2.574563741683959961e+00 6.235246062278747559e-01 1.121823310852050781e+00
2.991000000000000000e+03 3.857157135009765625e+01 -1.784639358520507812e+01 -6.668815016746520996e-01 2.961069583892822266e+00 6.882563829421997070e-01 9.078661799430847168e-01
2.992000000000000000e+03 4.208072280883789062e+01 -1.044543361663818359e+01 1.964177846908569336e+00 1.139646887779235840e+00 9.311473965644836426e-01 1.566081285476684570e+00
2.993000000000000000e+03 1.774037933349609375e+01 4.792037487030029297e+00 6.251904778764583170e-06 -3.825642124866135418e-06 7.278788416442694142e-07 2.189683254982810467e-05
2.994000000000000000e+03 1.767298889160156250e+01 4.322982311248779297e+00 1.785293898137751967e-05 2.013698576774913818e-05 1.139697724283905700e-05 -5.408837751019746065e-06
2.995000000000000000e+03 2.844989776611328125e+01 2.337549018859863281e+01 -5.971264839172363281e-02 -3.849755227565765381e-02 -2.946306020021438599e-02 3.320115804672241211e-02
2.996000000000000000e+03 3.565908432006835938e+01 -3.624570846557617188e+00 -1.798162579536437988e+00 6.379752755165100098e-01 -3.480561971664428711e-01 3.057884573936462402e-01
2.997000000000000000e+03 3.701346969604492188e+01 -3.616377353668212891e+00 -2.075621366500854492e+00 8.625511527061462402e-01 -3.639210462570190430e-01 3.326568901538848877e-01
2.998000000000000000e+03 1.609000587463378906e+01 5.052715778350830078e+00 6.218485214048996568e-05 1.885423989733681083e-05 2.431172833894379437e-05 8.435487870883662254e-06
2.999000000000000000e+03 1.683013725280761719e+01 6.855464935302734375e+00 4.666573659051209688e-05 4.304193134885281324e-05 2.691230110940523446e-05 1.632164639886468649e-05
3.000000000000000000e+03 1.571309757232666016e+01 2.306402587890625000e+01 -1.993047259747982025e-02 1.578103867359459400e-03 -5.505710840225219727e-03 5.243924912065267563e-03
3.001000000000000000e+03 2.063725662231445312e+01 4.179760456085205078e+00 1.314789096795720980e-05 5.802853593195322901e-06 5.685223186446819454e-06 1.331295061390846968e-05
3.002000000000000000e+03 1.513920116424560547e+01 4.834194660186767578e+00 -1.005455942504340783e-05 9.099436283577233553e-06 -2.865368173843307886e-07 2.613805190776474774e-05
3.003000000000000000e+03 1.684551239013671875e+01 4.767177104949951172e+00 5.003912156098522246e-05 1.231578517035814002e-05 1.870647247415035963e-05 2.292106955792405643e-06
3.004000000000000000e+03 3.498700332641601562e+01 -2.721805095672607422e+00 -2.224066734313964844e+00 4.789966046810150146e-01 -5.235210061073303223e-01 3.124229609966278076e-01
3.005000000000000000e+03 3.480279159545898438e+01 -4.032435417175292969e+00 -1.408198952674865723e+00 4.386750757694244385e-01 -2.908571660518646240e-01 2.032499462366104126e-01
3.006000000000000000e+03 1.154242134094238281e+01 5.169504165649414062e+00 8.214174886234104633e-05 -4.199164322926662862e-06 2.338277590752113611e-05 1.791347676771692932e-05
3.007000000000000000e+03 1.443134498596191406e+01 4.886012554168701172e+00 2.963401493616402149e-05 2.875268364732619375e-05 1.751600939314812422e-05 1.209456240758299828e-05
3.008000000000000000e+03 2.373176765441894531e+01 -4.562882423400878906e+00 -3.776999413967132568e-01 -9.136869758367538452e-02 -1.407205909490585327e-01 -8.233185410499572754e-01
3.009000000000000000e+03 2.424531173706054688e+01 -3.955763816833496094e+00 -6.066818237304687500e-01 -4.977462068200111389e-02 -1.969369351863861084e-01 -8.443534374237060547e-01
3.010000000000000000e+03 3.196306228637695312e+01 -6.223403930664062500e+00 5.187600851058959961e-01 5.496286153793334961e-01 3.205166161060333252e-01 -2.953410148620605469e-01
3.011000000000000000e+03 3.226084899902343750e+01 -7.465680599212646484e+00 1.542186975479125977e+00 5.537453889846801758e-01 6.287797093391418457e-01 -5.405772328376770020e-01
3.012000000000000000e+03 2.181820678710937500e+01 -4.918097019195556641e+00 -2.542655169963836670e-01 -1.331762969493865967e-01 -1.162325441837310791e-01 -6.582440137863159180e-01
3.013000000000000000e+03 3.042114067077636719e+01 -5.728489398956298828e+00 3.311695456504821777e-01 8.231388330459594727e-01 3.462924957275390625e-01 -5.434724688529968262e-01
3.014000000000000000e+03 2.431371116638183594e+01 2.364359474182128906e+01 -6.801667064428329468e-02 -1.787143573164939880e-02 -2.576643228530883789e-02 2.996980771422386169e-02
3.015000000000000000e+03 1.228143501281738281e+01 5.110343456268310547e+00 7.439000455633504316e-06 -1.555836206534877419e-05 -2.435808710288256407e-06 5.576746480073779821e-05
3.016000000000000000e+03 2.446501922607421875e+01 2.320755767822265625e+01 -7.633738219738006592e-02 -1.488421857357025146e-02 -2.736648172140121460e-02 2.880801633000373840e-02
3.017000000000000000e+03 3.824500274658203125e+01 -1.887709236145019531e+01 -4.115376174449920654e-01 2.543826341629028320e+00 6.396866440773010254e-01 8.994501233100891113e-01
3.018000000000000000e+03 3.594382095336914062e+01 5.886106967926025391e+00 -8.064160938374698162e-04 -3.324129211250692606e-04 -3.416487015783786774e-04 3.616903850343078375e-04
3.019000000000000000e+03 1.113767337799072266e+01 -5.598817825317382812e+00 -8.579234033823013306e-02 -1.371576935052871704e-01 -6.688500940799713135e-02 -9.331160783767700195e-02
3.020000000000000000e+03 7.478501892089843750e+01 -1.143282985687255859e+01 -2.234027832746505737e-01 -5.173473432660102844e-02 -8.254125714302062988e-02 -2.464060932397842407e-01
3.021000000000000000e+03 7.563173675537109375e+01 -9.479601860046386719e+00 -1.670185923576354980e-01 -1.886410564184188843e-01 -1.066978946328163147e-01 -3.625731468200683594e-01
3.022000000000000000e+03 5.539089679718017578e+00 5.458560943603515625e+00 7.855049625504761934e-05 -7.584188278997316957e-05 8.125842327899590600e-07 3.111081969109363854e-05
3.023000000000000000e+03 6.461570739746093750e+00 -5.135479927062988281e+00 -3.161092847585678101e-02 -3.610013052821159363e-02 -2.031331695616245270e-02 1.394421979784965515e-02
3.024000000000000000e+03 1.024797725677490234e+01 5.252947330474853516e+00 4.321579399402253330e-05 -8.888504453352652490e-06 1.029818668030202389e-05 2.954749106720555574e-05
3.025000000000000000e+03 8.816415786743164062e+00 5.302263259887695312e+00 9.696478809928521514e-05 -1.362789407721720636e-05 2.500106893421616405e-05 1.600059840711764991e-05
3.026000000000000000e+03 2.576175117492675781e+01 -5.288966655731201172e+00 2.844167686998844147e-02 -1.297991573810577393e-01 -3.040724433958530426e-02 -9.392185807228088379e-01
3.027000000000000000e+03 4.635404109954833984e+00 6.039444923400878906e+00 -4.723290476249530911e-05 -1.479202546761371195e-05 -1.860747943283058703e-05 -2.562201552791520953e-05
3.028000000000000000e+03 4.736503601074218750e+00 4.933633804321289062e+00 3.694452607305720448e-05 -4.452897428564028814e-06 9.747488547873217613e-06 4.263995288056321442e-05
3.029000000000000000e+03 7.065019226074218750e+01 -9.353918075561523438e+00 -6.756730079650878906e-01 1.270144432783126831e-01 -1.645975708961486816e-01 -5.836110711097717285e-01
3.030000000000000000e+03 8.657072067260742188e+00 -6.436372280120849609e+00 -7.961716502904891968e-02 -1.027655750513076782e-01 -5.471482500433921814e-02 -4.162855073809623718e-02
3.031000000000000000e+03 8.434095382690429688e+00 -5.787003517150878906e+00 -6.354667246341705322e-02 -7.548295706510543823e-02 -4.170889034867286682e-02 -2.467325702309608459e-02
3.032000000000000000e+03 1.500865650177001953e+01 -4.905128479003906250e+00 -1.267423182725906372e-01 -1.908128410577774048e-01 -9.526655077934265137e-02 -2.645147144794464111e-01
3.033000000000000000e+03 1.533532047271728516e+01 -6.037815093994140625e+00 -1.200004592537879944e-01 -2.559881210327148438e-01 -1.127965748310089111e-01 -2.952569425106048584e-01
3.034000000000000000e+03 1.266884136199951172e+01 -5.217562198638916016e+00 -9.599436819553375244e-02 -1.621330976486206055e-01 -7.743824273347854614e-02 -1.569475680589675903e-01
3.035000000000000000e+03 2.281776618957519531e+01 -4.694040298461914062e+00 -3.526476323604583740e-01 -9.846736490726470947e-02 -1.353344917297363281e-01 -7.363969087600708008e-01
3.036000000000000000e+03 1.824338340759277344e+01 -6.676323890686035156e+00 -1.048663854598999023e-01 -2.896317243576049805e-01 -1.183494403958320618e-01 -4.472156763076782227e-01
3.037000000000000000e+03 1.962186813354492188e+01 -4.891016483306884766e+00 -2.316823005676269531e-01 -1.726093292236328125e-01 -1.212874874472618103e-01 -5.143847465515136719e-01
3.038000000000000000e+03 4.003724670410156250e+01 -7.156893730163574219e+00 -8.591194152832031250e-01 1.242284893989562988e+00 1.149496287107467651e-01 9.301522374153137207e-02
3.039000000000000000e+03 4.180255126953125000e+01 -7.573744773864746094e+00 -4.633750319480895996e-01 6.458826661109924316e-01 5.475228279829025269e-02 9.403697252273559570e-01
3.040000000000000000e+03 3.688731384277343750e+01 6.987781047821044922e+00 -9.247713023796677589e-04 -1.195998047478497028e-03 -6.362308049574494362e-04 7.793097756803035736e-05
3.041000000000000000e+03 3.554838180541992188e+01 7.660266399383544922e+00 -5.708726821467280388e-04 -1.196069060824811459e-03 -5.300825578160583973e-04 -5.461742402985692024e-04
3.042000000000000000e+03 2.807780456542968750e+01 -6.216994762420654297e+00 6.550597548484802246e-01 4.258671700954437256e-01 3.242780864238739014e-01 -8.643370270729064941e-01
3.043000000000000000e+03 3.907762527465820312e+01 -7.121760368347167969e+00 -7.622311711311340332e-01 1.350927472114562988e+00 1.766088902950286865e-01 -2.747440636157989502e-01
3.044000000000000000e+03 1.808121109008789062e+01 -5.573071002960205078e+00 -1.491823941469192505e-01 -2.356702089309692383e-01 -1.154557764530181885e-01 -4.390223622322082520e-01
3.045000000000000000e+03 1.918906974792480469e+01 -5.494019031524658203e+00 -1.712675392627716064e-01 -2.122051268815994263e-01 -1.150417998433113098e-01 -4.897245466709136963e-01
3.046000000000000000e+03 3.780640792846679688e+01 -9.782778739929199219e+00 1.212667465209960938e+00 2.033575534820556641e+00 9.738729000091552734e-01 -1.584364295005798340e+00
3.047000000000000000e+03 3.700079727172851562e+01 -8.893066406250000000e+00 9.410569071769714355e-01 1.124999165534973145e+00 6.198168396949768066e-01 -1.425071001052856445e+00
3.048000000000000000e+03 3.840797042846679688e+01 -1.685970687866210938e+01 -7.237316370010375977e-01 3.345759153366088867e+00 7.866082787513732910e-01 1.184895992279052734e+00
3.049000000000000000e+03 3.711817169189453125e+01 5.854401111602783203e+00 -8.756555616855621338e-04 -5.852354224771261215e-04 -4.382673068903386593e-04 8.973089861683547497e-04
3.050000000000000000e+03 4.264994049072265625e+01 -7.903842449188232422e+00 -1.219025477766990662e-01 2.131336778402328491e-01 2.736933901906013489e-02 1.304425597190856934e+00
3.051000000000000000e+03 4.060256958007812500e+01 -1.015685749053955078e+01 1.192135334014892578e+00 3.078406095504760742e+00 1.281162500381469727e+00 8.843047618865966797e-01
3.052000000000000000e+03 4.100765228271484375e+01 -9.499399185180664062e+00 7.705762982368469238e-01 2.164397001266479492e+00 8.804919719696044922e-01 9.395612478256225586e-01
3.053000000000000000e+03 2.132956123352050781e+01 -4.196112155914306641e+00 -3.841094076633453369e-01 -8.364110440015792847e-02 -1.403251588344573975e-01 -5.819436311721801758e-01
3.054000000000000000e+03 3.110437774658203125e+01 -5.752576828002929688e+00 2.275073230266571045e-01 6.803912520408630371e-01 2.723695635795593262e-01 -3.541872501373291016e-01
3.055000000000000000e+03 3.778374862670898438e+01 -8.905977249145507812e+00 7.155178189277648926e-01 1.646750807762145996e+00 7.086805701255798340e-01 -1.322439432144165039e+00
3.056000000000000000e+03 7.321907806396484375e+01 -9.916542053222656250e+00 -4.051710665225982666e-01 -1.358743477612733841e-02 -1.256275475025177002e-01 -4.555061757564544678e-01
3.057000000000000000e+03 5.081750869750976562e+01 -1.184111118316650391e+01 -1.258715540170669556e-01 1.292626112699508667e-01 1.017319038510322571e-03 1.065359711647033691e+00
3.058000000000000000e+03 7.130750274658203125e+01 -9.857158660888671875e+00 -5.517749786376953125e-01 8.645986020565032959e-02 -1.395945399999618530e-01 -5.273820757865905762e-01
3.059000000000000000e+03 3.676696395874023438e+01 -1.514727115631103516e+01 6.632769107818603516e-02 1.269635796546936035e+00 4.007890522480010986e-01 1.463585853576660156e+00
3.060000000000000000e+03 6.729862976074218750e+01 -7.388860702514648438e+00 -5.796645283699035645e-01 1.094868555665016174e-01 -1.410533040761947632e-01 -7.750420570373535156e-01
3.061000000000000000e+03 6.646589660644531250e+01 -8.278853416442871094e+00 -6.857336759567260742e-01 1.579991914331912994e-02 -2.009801268577575684e-01 -7.156860232353210449e-01
3.062000000000000000e+03 2.755135917663574219e+01 -6.000796318054199219e+00 6.332367062568664551e-01 2.507808804512023926e-01 2.652052938938140869e-01 -9.762772321701049805e-01
3.063000000000000000e+03 2.707362174987792969e+01 -5.685708045959472656e+00 3.913291096687316895e-01 8.393322676420211792e-02 1.425787061452865601e-01 -9.359682202339172363e-01
3.064000000000000000e+03 2.625193214416503906e+01 -5.648806095123291016e+00 2.761721611022949219e-01 -8.053112030029296875e-02 5.869231000542640686e-02 -9.166408181190490723e-01
3.065000000000000000e+03 4.263106536865234375e+01 -1.955051803588867188e+01 -8.683907985687255859e-02 9.830374717712402344e-01 2.688595056533813477e-01 -6.646074354648590088e-02
3.066000000000000000e+03 7.283917236328125000e+01 -1.076592922210693359e+01 -3.927104175090789795e-01 2.291187457740306854e-02 -1.109395623207092285e-01 -3.553777933120727539e-01
3.067000000000000000e+03 6.108827114105224609e+00 1.751989173889160156e+01 -2.132431109203025699e-04 -5.851175519637763500e-04 -2.395082119619473815e-04 -1.235909294337034225e-04
3.068000000000000000e+03 3.645113372802734375e+01 6.393092632293701172e+00 1.975317252799868584e-03 -4.392098344396799803e-04 4.608322051353752613e-04 -2.925371809396892786e-04
3.069000000000000000e+03 5.971434593200683594e+00 1.386456680297851562e+01 1.601110998308286071e-04 -3.836695686914026737e-04 -6.706754356855526567e-05 -2.863329136744141579e-04
3.070000000000000000e+03 1.613200569152832031e+01 -8.324364662170410156e+00 -1.271409839391708374e-01 -3.819944858551025391e-01 -1.527406424283981323e-01 -3.291052579879760742e-01
3.071000000000000000e+03 1.388445568084716797e+01 -8.839070320129394531e+00 -1.591341346502304077e-01 -3.652711808681488037e-01 -1.573216021060943604e-01 -2.157774269580841064e-01
3.072000000000000000e+03 4.156570434570312500e+01 -2.054611015319824219e+01 -1.208169311285018921e-01 1.362108826637268066e+00 3.723875880241394043e-01 1.071254312992095947e-01
3.073000000000000000e+03 1.874566268920898438e+01 -7.755733966827392578e+00 -8.943994343280792236e-02 -3.100476264953613281e-01 -1.198462694883346558e-01 -4.456197619438171387e-01
3.074000000000000000e+03 3.867174911499023438e+01 -3.734949827194213867e+00 -2.419663667678833008e+00 8.205466866493225098e-01 -4.797350764274597168e-01 4.700250625610351562e-01
3.075000000000000000e+03 3.805153274536132812e+01 -2.897743940353393555e+00 -2.426008701324462891e+00 7.650718092918395996e-01 -4.982810914516448975e-01 5.523449182510375977e-01
3.076000000000000000e+03 6.939345550537109375e+01 -9.461611747741699219e+00 -8.369175195693969727e-01 1.683724671602249146e-01 -2.005635201930999756e-01 -6.076043248176574707e-01
3.077000000000000000e+03 6.124332809448242188e+01 -3.917629003524780273e+00 3.617462515830993652e-01 1.021740674972534180e+00 4.150460958480834961e-01 2.801227569580078125e-01
3.078000000000000000e+03 5.051525497436523438e+01 -9.480778694152832031e+00 -1.297627091407775879e-01 2.536964714527130127e-01 3.718012571334838867e-02 1.585355043411254883e+00
3.079000000000000000e+03 1.077698516845703125e+01 4.496640682220458984e+00 6.233280146261677146e-05 1.066671188709733542e-06 1.901984251162502915e-05 2.723454053921159357e-05
3.080000000000000000e+03 5.508715629577636719e+00 2.224312973022460938e+01 -2.142796292901039124e-03 -9.291353053413331509e-04 -9.215794852934777737e-04 1.405310817062854767e-03
3.081000000000000000e+03 5.777266979217529297e+00 2.504684066772460938e+01 -2.775613218545913696e-03 -2.032275311648845673e-03 -1.442366512492299080e-03 3.315974958240985870e-03
3.082000000000000000e+03 3.732529830932617188e+01 9.398026466369628906e+00 -9.275313932448625565e-04 -2.540735062211751938e-03 -1.040479983203113079e-03 2.439308445900678635e-04
3.083000000000000000e+03 3.583192443847656250e+01 9.422449111938476562e+00 -6.657449994236230850e-04 -2.089392859488725662e-03 -8.265413343906402588e-04 1.039429553202353418e-04
3.084000000000000000e+03 5.303362655639648438e+01 -9.807606697082519531e+00 -4.566911160945892334e-01 8.055898547172546387e-01 1.046696305274963379e-01 1.165626764297485352e+00
3.085000000000000000e+03 7.531900024414062500e+01 -2.075170707702636719e+01 -3.493203985271975398e-05 -1.904064120026305318e-04 -6.760154064977541566e-05 -1.782572799129411578e-04
3.086000000000000000e+03 3.703852081298828125e+01 -8.130474090576171875e+00 4.230048060417175293e-01 1.099494576454162598e+00 4.567497968673706055e-01 -1.121034145355224609e+00
3.087000000000000000e+03 3.725122070312500000e+01 1.206345939636230469e+01 -1.281054131686687469e-02 2.815318992361426353e-03 -2.998566720634698868e-03 1.381704467348754406e-03
3.088000000000000000e+03 3.818865966796875000e+01 1.424467945098876953e+01 -3.318711370229721069e-02 1.008012890815734863e-02 -6.932095158845186234e-03 5.376147571951150894e-03
3.089000000000000000e+03 4.604396820068359375e+01 -1.189521026611328125e+01 1.313034415245056152e+00 -5.834482312202453613e-01 2.188758552074432373e-01 8.249907493591308594e-01
3.090000000000000000e+03 5.249981689453125000e+01 -1.185929012298583984e+01 -5.162923932075500488e-01 3.603637218475341797e-01 -4.677859321236610413e-02 9.193058013916015625e-01
3.091000000000000000e+03 3.539831924438476562e+01 -7.612565517425537109e+00 7.306675910949707031e-01 4.456139504909515381e-01 3.528844416141510010e-01 -8.872506618499755859e-01
3.092000000000000000e+03 3.385074615478515625e+01 -6.233953952789306641e+00 3.310146033763885498e-01 3.230162262916564941e-01 1.962092518806457520e-01 -2.901405394077301025e-01
3.093000000000000000e+03 4.769075870513916016e+00 -6.950688362121582031e+00 -3.538251668214797974e-02 -2.467331662774085999e-02 -1.801674999296665192e-02 1.149110402911901474e-02
3.094000000000000000e+03 1.116886138916015625e+01 -2.048796463012695312e+01 6.731735169887542725e-02 -3.241056501865386963e-01 -7.703648507595062256e-02 -3.250165581703186035e-01
3.095000000000000000e+03 5.860484600067138672e+00 -7.766827583312988281e+00 -6.278837472200393677e-02 -5.780430883169174194e-02 -3.617780655622482300e-02 -1.250571757555007935e-02
3.096000000000000000e+03 3.562850952148437500e+01 1.166752529144287109e+01 -9.371380321681499481e-03 -1.246894476935267448e-03 -3.185482462868094444e-03 3.934537526220083237e-03
3.097000000000000000e+03 3.735160064697265625e+01 1.113657379150390625e+01 -7.510100491344928741e-03 1.152211450971662998e-03 -1.907366677187383175e-03 -4.638950049411505461e-04
3.098000000000000000e+03 5.986451339721679688e+01 -5.733264923095703125e+00 5.924126133322715759e-02 8.970403075218200684e-01 2.868844866752624512e-01 3.712939321994781494e-01
3.099000000000000000e+03 7.478509521484375000e+01 -2.203974342346191406e+01 -1.769355731084942818e-04 -2.762343210633844137e-04 -1.359509624307975173e-04 -1.136256250902079046e-04
3.100000000000000000e+03 7.450415802001953125e+01 -2.924250125885009766e+00 -2.578365430235862732e-02 -5.535693764686584473e-01 -1.738059073686599731e-01 -7.260341048240661621e-01
3.101000000000000000e+03 7.439600372314453125e+01 -1.644065618515014648e+00 1.336937118321657181e-02 -6.090703010559082031e-01 -1.787102818489074707e-01 -7.326452136039733887e-01
3.102000000000000000e+03 3.752617263793945312e+01 -2.794416666030883789e+00 -2.371157646179199219e+00 8.138040304183959961e-01 -4.672060906887054443e-01 5.364074110984802246e-01
3.103000000000000000e+03 5.951580524444580078e+00 1.529586410522460938e+01 -1.361415343126282096e-04 -4.300514701753854752e-04 -1.698578998912125826e-04 -3.069143567699939013e-04
3.104000000000000000e+03 6.362235069274902344e+00 1.662762069702148438e+01 -4.149081069044768810e-04 -6.194272427819669247e-04 -3.103006165474653244e-04 -1.731095107970759273e-04
3.105000000000000000e+03 5.107603073120117188e+00 -1.011942195892333984e+01 -7.194381207227706909e-02 -6.642691045999526978e-02 -4.151121526956558228e-02 -4.931373149156570435e-02
3.106000000000000000e+03 5.483562946319580078e+00 -1.253155231475830078e+01 -9.527837485074996948e-02 -1.135898008942604065e-01 -6.266045570373535156e-02 -1.192340776324272156e-01
3.107000000000000000e+03 7.351737499237060547e+00 5.478037357330322266e+00 6.731826579198241234e-05 -1.959470500878524035e-05 1.431706732546444982e-05 -3.820695565082132816e-05
3.108000000000000000e+03 4.008753585815429688e+01 1.610577964782714844e+01 -4.984962567687034607e-02 1.854711212217807770e-02 -9.390754625201225281e-03 3.101429610978811979e-04
3.109000000000000000e+03 4.127779388427734375e+01 -2.210101699829101562e+01 1.492919307202100754e-02 1.283781409263610840e+00 3.896131813526153564e-01 1.421614140272140503e-01
3.110000000000000000e+03 4.832073211669921875e+00 9.766166687011718750e+00 1.661421410972252488e-04 -2.348189445910975337e-05 4.279807399143464863e-05 -1.801366743165999651e-04
3.111000000000000000e+03 3.930278539657592773e+00 8.824743270874023438e+00 1.925551623571664095e-04 2.117782423738390207e-05 6.411990034393966198e-05 -1.132875622715801001e-04
3.112000000000000000e+03 3.759948730468750000e+01 -5.973992347717285156e+00 -1.107126593589782715e+00 1.031637907028198242e+00 -2.264660410583019257e-02 -2.724401950836181641e-01
3.113000000000000000e+03 3.948637008666992188e+01 -2.181830406188964844e+01 1.065840050578117371e-01 1.707386612892150879e+00 5.441911816596984863e-01 4.096923470497131348e-01
3.114000000000000000e+03 6.879785919189453125e+01 -1.024180507659912109e+01 -8.813343048095703125e-01 1.544733196496963501e-01 -2.180582880973815918e-01 -5.767769217491149902e-01
3.115000000000000000e+03 1.869851875305175781e+01 -6.056512355804443359e+00 -1.355237364768981934e-01 -2.479463070631027222e-01 -1.150410100817680359e-01 -4.731141328811645508e-01
3.116000000000000000e+03 6.599495410919189453e+00 2.236237144470214844e+01 -2.021870808675885201e-03 -1.219354453496634960e-03 -9.723675902932882309e-04 1.742150983773171902e-03
3.117000000000000000e+03 5.394545364379882812e+01 -9.553826332092285156e+00 -5.021571516990661621e-01 9.018092155456542969e-01 1.198956146836280823e-01 9.665743708610534668e-01
3.118000000000000000e+03 5.628528213500976562e+01 -9.246727943420410156e+00 -6.276314258575439453e-01 8.585129976272583008e-01 6.926447153091430664e-02 5.664526224136352539e-01
3.119000000000000000e+03 3.640081024169921875e+01 -8.619291305541992188e+00 1.024083256721496582e+00 6.642935872077941895e-01 5.065130591392517090e-01 -1.343925952911376953e+00
3.120000000000000000e+03 3.664327621459960938e+01 -7.512282371520996094e+00 1.829530000686645508e-01 9.110490679740905762e-01 3.282006382942199707e-01 -9.192909598350524902e-01
3.121000000000000000e+03 6.698007202148437500e+01 1.022759532928466797e+01 6.021833419799804688e-01 2.194924354553222656e+00 8.391323089599609375e-01 -1.739985868334770203e-02
3.122000000000000000e+03 6.700274658203125000e+01 1.130604076385498047e+01 5.851155519485473633e-01 2.355083465576171875e+00 8.820596933364868164e-01 -5.510393064469099045e-03
3.123000000000000000e+03 7.154118347167968750e+01 -2.586050796508789062e+01 -1.907270168885588646e-03 -1.874509325716644526e-04 -6.284163100644946098e-04 2.167450293200090528e-04
3.124000000000000000e+03 1.442200183868408203e+01 -1.039336299896240234e+01 -2.336121499538421631e-01 -4.664435982704162598e-01 -2.100167274475097656e-01 -2.287018001079559326e-01
3.125000000000000000e+03 1.343700027465820312e+01 -6.995432853698730469e+00 -1.244731098413467407e-01 -2.604269087314605713e-01 -1.154700070619583130e-01 -2.036303579807281494e-01
3.126000000000000000e+03 9.736240386962890625e+00 -1.138744163513183594e+01 -2.062631398439407349e-01 -2.162638306617736816e-01 -1.267580986022949219e-01 -1.383353173732757568e-01
3.127000000000000000e+03 6.410338592529296875e+01 -7.085252285003662109e+00 -4.379240870475769043e-01 1.023576855659484863e-01 -1.006699204444885254e-01 -3.908156156539916992e-01
3.128000000000000000e+03 9.214421272277832031e+00 -1.883473396301269531e+01 -4.956510663032531738e-02 -3.040061295032501221e-01 -1.060713753104209900e-01 -3.451226949691772461e-01
3.129000000000000000e+03 8.500907897949218750e+00 -1.974905204772949219e+01 -5.246555432677268982e-03 -3.115098476409912109e-01 -9.502691775560379028e-02 -3.369533121585845947e-01
3.130000000000000000e+03 4.951329708099365234e+00 1.078477096557617188e+01 7.532017480116337538e-05 -1.371624966850504279e-04 -1.855269874795340002e-05 -1.062641822500154376e-04
3.131000000000000000e+03 6.834137916564941406e+00 1.338006114959716797e+01 1.247012114617973566e-04 -3.957163717132061720e-04 -8.130454807542264462e-05 -4.042333966935984790e-05
3.132000000000000000e+03 7.444387054443359375e+01 -9.198294639587402344e+00 -2.755614221096038818e-01 -1.304813623428344727e-01 -1.218128353357315063e-01 -4.629382491111755371e-01
3.133000000000000000e+03 7.381202697753906250e+01 -2.743566322326660156e+01 -1.582888537086546421e-03 -4.683348524849861860e-04 -6.153670256026089191e-04 1.108646392822265625e-03
3.134000000000000000e+03 9.562633514404296875e+00 -1.507024097442626953e+01 -2.161838859319686890e-01 -2.538871169090270996e-01 -1.410212963819503784e-01 -2.703166902065277100e-01
3.135000000000000000e+03 4.223871231079101562e+01 -9.920988082885742188e+00 1.458140730857849121e+00 1.026080489158630371e+00 7.452663779258728027e-01 1.542560815811157227e+00
3.136000000000000000e+03 7.444910430908203125e+01 -6.818950176239013672e+00 -1.915837377309799194e-01 -2.789161801338195801e-01 -1.411499828100204468e-01 -6.191743612289428711e-01
3.137000000000000000e+03 4.407813644409179688e+01 -2.914900970458984375e+01 2.574417926371097565e-02 4.879575371742248535e-01 1.541105210781097412e-01 -1.395393759012222290e-01
3.138000000000000000e+03 6.803860473632812500e+01 -9.687760353088378906e+00 -1.034631013870239258e+00 1.441211700439453125e-01 -2.671529352664947510e-01 -6.052973270416259766e-01
3.139000000000000000e+03 6.869876861572265625e+01 -8.844038963317871094e+00 -7.583515048027038574e-01 1.296808123588562012e-01 -1.886012107133865356e-01 -7.688616514205932617e-01
3.140000000000000000e+03 7.423355102539062500e+01 -2.345485496520996094e+01 -3.985602525062859058e-04 -3.680772497318685055e-04 -2.299912594025954604e-04 1.457955841033253819e-05
3.141000000000000000e+03 7.549663543701171875e+01 -2.402704048156738281e+01 -3.441692970227450132e-04 -3.182302461937069893e-04 -1.987198629649356008e-04 4.063510277774184942e-05
3.142000000000000000e+03 5.122286796569824219e+00 1.961617660522460938e+01 -1.071777543984353542e-03 -5.611754604615271091e-04 -4.898859187960624695e-04 2.795362088363617659e-04
3.143000000000000000e+03 5.672349929809570312e+01 -8.529031753540039062e+00 -5.519549846649169922e-01 9.186310768127441406e-01 1.100028231739997864e-01 5.466681122779846191e-01
3.144000000000000000e+03 7.451238250732421875e+01 -4.194508075714111328e+00 -8.446132391691207886e-02 -4.684720933437347412e-01 -1.658800244331359863e-01 -7.065546512603759766e-01
3.145000000000000000e+03 4.593527984619140625e+01 2.252400779724121094e+01 8.274371735751628876e-03 2.806279994547367096e-02 1.090115122497081757e-02 -1.503277849406003952e-02
3.146000000000000000e+03 6.090122604370117188e+01 -8.099308013916015625e-01 7.550753951072692871e-01 1.755603909492492676e+00 7.532038092613220215e-01 7.353188991546630859e-01
3.147000000000000000e+03 7.317182159423828125e+01 -2.647861289978027344e+01 -1.592703978531062603e-03 -2.975898096337914467e-04 -5.670881364494562149e-04 6.830139318481087685e-04
3.148000000000000000e+03 7.223108673095703125e+01 -2.712921524047851562e+01 -2.510244026780128479e-03 1.894433262350503355e-05 -7.473899167962372303e-04 1.120682572945952415e-03
3.149000000000000000e+03 3.934283447265625000e+01 -2.567650032043457031e+01 2.458120733499526978e-01 1.397478461265563965e+00 4.929871857166290283e-01 6.260140240192413330e-02
3.150000000000000000e+03 6.510306549072265625e+01 8.719133377075195312e+00 6.090145707130432129e-01 3.033978700637817383e+00 1.092898011207580566e+00 2.360662370920181274e-01
3.151000000000000000e+03 4.020689010620117188e+01 -2.741350173950195312e+01 1.525715738534927368e-01 1.145262479782104492e+00 3.893502056598663330e-01 -7.304504513740539551e-02
3.152000000000000000e+03 3.914886236190795898e+00 3.470152664184570312e+01 1.110308920033276081e-03 -1.043710485100746155e-02 -2.798038767650723457e-03 4.331802483648061752e-03
3.153000000000000000e+03 7.546685791015625000e+01 1.778687095642089844e+01 1.447986364364624023e-01 -1.507050991058349609e+00 -4.086757302284240723e-01 2.740941941738128662e-01
3.154000000000000000e+03 4.061513519287109375e+01 -2.531684684753417969e+01 1.854670494794845581e-01 1.211588501930236816e+00 4.191166758537292480e-01 3.341088816523551941e-02
3.155000000000000000e+03 1.893086242675781250e+01 -7.020157337188720703e+00 -9.560751169919967651e-02 -2.799757122993469238e-01 -1.126749664545059204e-01 -4.670305252075195312e-01
3.156000000000000000e+03 1.581244087219238281e+01 -5.310209751129150391e+00 -1.378647238016128540e-01 -2.262594997882843018e-01 -1.092372685670852661e-01 -3.150681853294372559e-01
3.157000000000000000e+03 7.272104263305664062e+00 -2.326360321044921875e+01 7.678522914648056030e-02 -3.684771358966827393e-01 -8.750757575035095215e-02 -2.625817954540252686e-01
3.158000000000000000e+03 6.687161254882812500e+01 1.463266658782958984e+01 7.129246592521667480e-01 2.421111106872558594e+00 9.402107000350952148e-01 -6.074932217597961426e-02
3.159000000000000000e+03 6.884954071044921875e+01 1.457299232482910156e+01 6.589884161949157715e-01 1.408143281936645508e+00 6.201395392417907715e-01 1.243599876761436462e-02
3.160000000000000000e+03 7.434230041503906250e+01 1.218183898925781250e+01 2.508217692375183105e-01 -1.047127008438110352e+00 -2.388915568590164185e-01 -1.065305098891258240e-01
3.161000000000000000e+03 6.398975849151611328e+00 -1.847811317443847656e+01 -4.339122399687767029e-02 -2.708608508110046387e-01 -9.427562355995178223e-02 -2.829368412494659424e-01
3.162000000000000000e+03 7.546094512939453125e+01 2.039108276367187500e+01 1.257970184087753296e-01 -1.378663897514343262e+00 -3.758600652217864990e-01 3.934300839900970459e-01
3.163000000000000000e+03 4.681357574462890625e+01 -9.532887458801269531e+00 6.436209678649902344e-01 -6.309828758239746094e-01 3.791432594880461693e-03 1.571488618850708008e+00
3.164000000000000000e+03 7.411120605468750000e+01 2.500594615936279297e+00 1.320607215166091919e-01 -7.534877061843872070e-01 -1.864280998706817627e-01 -6.546350717544555664e-01
3.165000000000000000e+03 7.416844940185546875e+01 -2.595286560058593750e+01 -8.452227921225130558e-04 -4.001016204711049795e-04 -3.735973150469362736e-04 5.155788967385888100e-04
3.166000000000000000e+03 7.466371154785156250e+01 -2.791390991210937500e+01 -1.016116701066493988e-03 -5.431585013866424561e-04 -4.677825490944087505e-04 1.201624516397714615e-03
3.167000000000000000e+03 6.747048187255859375e+01 2.011283874511718750e+01 6.174812316894531250e-01 1.609000921249389648e+00 6.679446101188659668e-01 3.546463549137115479e-01
3.168000000000000000e+03 9.929100036621093750e+00 -2.364990234375000000e+01 1.461570709943771362e-01 -3.129547536373138428e-01 -5.003931000828742981e-02 -2.613516449928283691e-01
3.169000000000000000e+03 5.190030097961425781e+00 -2.611671257019042969e+01 5.569911375641822815e-02 -4.623067378997802734e-01 -1.219822913408279419e-01 -1.748880296945571899e-01
3.170000000000000000e+03 5.521599197387695312e+01 2.815381622314453125e+01 1.642634272575378418e-01 6.189067363739013672e-01 2.349510490894317627e-01 -5.522762537002563477e-01
3.171000000000000000e+03 7.407619476318359375e+01 2.806450843811035156e+01 -9.084173291921615601e-02 -6.062380075454711914e-01 -2.091239243745803833e-01 5.278027057647705078e-01
3.172000000000000000e+03 1.109402370452880859e+01 -1.170328426361083984e+01 -2.509386241436004639e-01 -2.812145948410034180e-01 -1.596459746360778809e-01 -1.635130196809768677e-01
3.173000000000000000e+03 6.576229858398437500e+01 3.645124197006225586e+00 5.986064672470092773e-01 1.760932683944702148e+00 7.078617811203002930e-01 -7.845483720302581787e-02
3.174000000000000000e+03 6.506494140625000000e+01 4.850226402282714844e+00 6.411843299865722656e-01 2.163275957107543945e+00 8.413380980491638184e-01 1.178351938724517822e-01
3.175000000000000000e+03 5.385709381103515625e+01 -1.055970287322998047e+01 -6.491445302963256836e-01 6.263653039932250977e-01 -6.833766121417284012e-03 8.742641210556030273e-01
3.176000000000000000e+03 1.286045646667480469e+01 -2.625623893737792969e+01 2.109242230653762817e-01 -1.365600228309631348e-01 2.230926230549812317e-02 -1.736252009868621826e-01
3.177000000000000000e+03 5.256262779235839844e+00 -1.131397247314453125e+01 -8.451796323060989380e-02 -8.753468096256256104e-02 -5.161579325795173645e-02 -8.060372620820999146e-02
3.178000000000000000e+03 4.986346721649169922e+00 -8.984570503234863281e+00 -5.900627002120018005e-02 -5.043556168675422668e-02 -3.283254802227020264e-02 -2.445474267005920410e-02
3.179000000000000000e+03 6.593231201171875000e+00 1.463461875915527344e+01 1.542905520182102919e-04 -4.948906134814023972e-04 -1.021800126181915402e-04 -4.432424975675530732e-05
3.180000000000000000e+03 5.065458774566650391e+00 1.840404510498046875e+01 -2.423181576887145638e-04 -4.458183248061686754e-04 -2.064409491140395403e-04 -3.841335637844167650e-05
3.181000000000000000e+03 5.050244903564453125e+01 2.897198486328125000e+01 1.295018494129180908e-01 2.681420445442199707e-01 1.192931681871414185e-01 -2.764197289943695068e-01
3.182000000000000000e+03 5.138852310180664062e+01 2.690448570251464844e+01 2.116752415895462036e-01 1.854711323976516724e-01 1.191439107060432434e-01 -2.903109788894653320e-01
3.183000000000000000e+03 6.140634536743164062e+01 2.347877502441406250e+01 2.106202691793441772e-01 2.423153162002563477e+00 7.901320457458496094e-01 -5.134639143943786621e-01
3.184000000000000000e+03 6.195369338989257812e+01 2.684829902648925781e+01 -1.892582029104232788e-01 1.725236773490905762e+00 4.607935845851898193e-01 -2.998759746551513672e-01
3.185000000000000000e+03 7.321243286132812500e+01 -5.183650493621826172e+00 -1.626012325286865234e-01 -2.599282860755920410e-01 -1.267588585615158081e-01 -7.501884698867797852e-01
3.186000000000000000e+03 7.413450622558593750e+01 1.069225788116455078e+00 9.313265234231948853e-02 -6.987023949623107910e-01 -1.816709190607070923e-01 -6.982200741767883301e-01
3.187000000000000000e+03 7.234423828125000000e+01 4.201037287712097168e-01 1.268040090799331665e-01 -2.789436578750610352e-01 -4.564189165830612183e-02 -7.720234394073486328e-01
3.188000000000000000e+03 7.272595977783203125e+01 -3.093133163452148438e+01 -2.288341987878084183e-03 -1.245247083716094494e-03 -1.060076756402850151e-03 3.406674368306994438e-03
3.189000000000000000e+03 7.344802093505859375e+01 -3.267510223388671875e+01 -1.507637789472937584e-03 -2.044762019068002701e-03 -1.065719989128410816e-03 4.135067574679851532e-03
3.190000000000000000e+03 5.525812911987304688e+01 -8.848214149475097656e+00 -4.750232696533203125e-01 1.004326701164245605e+00 1.587910503149032593e-01 7.575008869171142578e-01
3.191000000000000000e+03 1.332023715972900391e+01 -2.792621803283691406e+01 2.096001207828521729e-01 -9.873136132955551147e-02 3.326062858104705811e-02 -1.467388570308685303e-01
3.192000000000000000e+03 7.191156005859375000e+01 -3.348762130737304688e+01 -1.539497869089245796e-03 -2.515843836590647697e-03 -1.216602511703968048e-03 5.498192273080348969e-03
3.193000000000000000e+03 7.413188171386718750e+01 -3.644450759887695312e+01 1.836285111494362354e-03 -5.337873008102178574e-03 -1.050476334057748318e-03 4.472425207495689392e-03
3.194000000000000000e+03 6.792044067382812500e+01 1.358045101165771484e+01 6.756782531738281250e-01 1.839953422546386719e+00 7.546895146369934082e-01 -3.220024332404136658e-02
3.195000000000000000e+03 3.796319198608398438e+01 -2.618647003173828125e+01 3.573361933231353760e-01 1.686044692993164062e+00 6.130142807960510254e-01 1.681409627199172974e-01
3.196000000000000000e+03 2.888315773010253906e+01 -5.162042617797851562e+00 -5.182601884007453918e-02 4.040860533714294434e-01 1.056780070066452026e-01 -7.403066754341125488e-01
3.197000000000000000e+03 2.814061737060546875e+01 -2.821066856384277344e+00 -1.740963220596313477e+00 1.611305586993694305e-02 -5.174550414085388184e-01 -5.395398736000061035e-01
3.198000000000000000e+03 2.979688262939453125e+01 -3.739782333374023438e+00 -1.303044199943542480e+00 3.472608029842376709e-01 -2.867350280284881592e-01 -4.858466088771820068e-01
3.199000000000000000e+03 2.736850166320800781e+01 -2.907856702804565430e+00 -1.552695870399475098e+00 -9.160931408405303955e-02 -4.932915568351745605e-01 -6.399793624877929688e-01
3.200000000000000000e+03 4.292757415771484375e+01 -1.165384674072265625e+01 2.867613315582275391e+00 -5.737664923071861267e-02 8.430709838867187500e-01 9.661583900451660156e-01
3.201000000000000000e+03 4.429402542114257812e+01 -1.213421630859375000e+01 2.052902698516845703e+00 -5.010060071945190430e-01 4.655690193176269531e-01 5.551739335060119629e-01
3.202000000000000000e+03 2.675671386718750000e+01 -3.698230981826782227e+00 -8.943999409675598145e-01 -7.043971866369247437e-02 -2.894518971443176270e-01 -8.456215858459472656e-01
3.203000000000000000e+03 3.963190078735351562e+01 -1.587570381164550781e+01 -7.116535902023315430e-01 4.397449016571044922e+00 1.105738639831542969e+00 1.647349298000335693e-01
3.204000000000000000e+03 1.308483505249023438e+01 1.567158222198486328e+01 -5.005433558835648000e-05 3.926703648176044226e-04 1.027848120429553092e-04 4.500123031903058290e-04
3.205000000000000000e+03 2.641555976867675781e+01 -4.095749378204345703e+00 -6.354039907455444336e-01 -7.819840312004089355e-02 -2.140807211399078369e-01 -9.410728216171264648e-01
3.206000000000000000e+03 2.765573310852050781e+01 -3.490473747253417969e+00 -1.167295336723327637e+00 1.368811912834644318e-02 -3.460821509361267090e-01 -7.282073497772216797e-01
3.207000000000000000e+03 3.308143615722656250e+01 1.652505302429199219e+01 -2.938235364854335785e-02 -1.105081476271152496e-02 -1.212995033711194992e-02 2.681432664394378662e-02
3.208000000000000000e+03 1.273285675048828125e+01 1.739808845520019531e+01 -1.259678829228505492e-04 1.622483105165883899e-04 1.088412500394042581e-05 1.542515528853982687e-04
3.209000000000000000e+03 1.796553421020507812e+01 5.150809288024902344e+00 -2.430285894661210477e-05 1.220155627379426733e-05 -3.630390665421145968e-06 -2.976168252644129097e-05
3.210000000000000000e+03 1.302505493164062500e+01 1.330655956268310547e+01 1.740128500387072563e-04 3.162506036460399628e-04 1.470790302846580744e-04 2.877896768040955067e-04
3.211000000000000000e+03 4.451202774047851562e+01 -1.241879940032958984e+01 1.947233200073242188e+00 -5.131103396415710449e-01 4.302368760108947754e-01 4.337845742702484131e-01
3.212000000000000000e+03 3.000286674499511719e+01 -3.328596115112304688e+00 -1.689187407493591309e+00 3.424845039844512939e-01 -4.040108919143676758e-01 -4.249435067176818848e-01
3.213000000000000000e+03 1.969054412841796875e+01 2.480617904663085938e+01 -3.499407321214675903e-02 -6.483708973973989487e-03 -1.244333386421203613e-02 1.999036595225334167e-02
3.214000000000000000e+03 3.491596221923828125e+01 1.115561485290527344e+01 -3.182339947670698166e-03 -2.069053472951054573e-03 -1.575418049469590187e-03 2.729919273406267166e-03
3.215000000000000000e+03 3.427166748046875000e+01 1.098733520507812500e+01 -2.434698631986975670e-03 -6.556796142831444740e-04 -9.271134622395038605e-04 9.410496568307280540e-04
3.216000000000000000e+03 3.340187454223632812e+01 1.553608131408691406e+01 -1.961714588105678558e-02 -9.716122411191463470e-03 -8.799980394542217255e-03 2.116782404482364655e-02
3.217000000000000000e+03 3.388400650024414062e+01 1.549586391448974609e+01 -2.446945197880268097e-02 -4.418110009282827377e-03 -8.666268549859523773e-03 2.111067995429039001e-02
3.218000000000000000e+03 3.310818862915039062e+01 1.447062110900878906e+01 -1.068835705518722534e-02 -9.063147008419036865e-03 -5.925451405346393585e-03 1.388692948967218399e-02
3.219000000000000000e+03 1.716122436523437500e+01 5.378252983093261719e+00 4.543407703749835491e-05 1.370400423184037209e-05 1.774142401700373739e-05 1.394465380144538358e-05
3.220000000000000000e+03 1.782951545715332031e+01 5.693658351898193359e+00 -1.382406571792671457e-05 -1.927801804413320497e-06 -4.725560302176745608e-06 -2.585305446700658649e-05
3.221000000000000000e+03 3.501629257202148438e+01 1.063561534881591797e+01 -3.755029756575822830e-03 -2.625523484311997890e-04 -1.205274718813598156e-03 1.220186823047697544e-03
3.222000000000000000e+03 3.609274673461914062e+01 1.139825820922851562e+01 -6.864768918603658676e-03 -7.887993706390261650e-04 -2.296070568263530731e-03 3.104839473962783813e-03
3.223000000000000000e+03 3.354181671142578125e+01 1.656741523742675781e+01 -2.995281480252742767e-02 -8.765549398958683014e-03 -1.161550916731357574e-02 2.775423228740692139e-02
3.224000000000000000e+03 3.298389053344726562e+01 1.561883544921875000e+01 -1.974382065236568451e-02 -1.192179601639509201e-02 -9.499684907495975494e-03 2.130625210702419281e-02
3.225000000000000000e+03 3.512129974365234375e+01 1.005200386047363281e+01 -1.417867373675107956e-03 -1.842272002249956131e-03 -9.780417894944548607e-04 7.399116293527185917e-04
3.226000000000000000e+03 3.653995513916015625e+01 9.389381408691406250e+00 -2.551328623667359352e-03 -3.619832277763634920e-04 -8.739935001358389854e-04 1.878163311630487442e-04
3.227000000000000000e+03 3.444322967529296875e+01 1.057516860961914062e+01 -1.482103602029383183e-03 -1.602562377229332924e-03 -9.253998287022113800e-04 1.534333568997681141e-03
3.228000000000000000e+03 3.871376419067382812e+01 -1.610770797729492188e+01 -6.425448656082153320e-01 3.879669904708862305e+00 9.711375236511230469e-01 1.068529129028320312e+00
3.229000000000000000e+03 3.973711013793945312e+01 -1.659372901916503906e+01 -7.719132900238037109e-01 3.660245418548583984e+00 8.664996623992919922e-01 1.401647925376892090e-01
3.230000000000000000e+03 1.448518943786621094e+01 1.057168483734130859e+01 -9.981319453800097108e-05 1.816226722439751029e-04 2.454284367559012026e-05 6.649141141679137945e-05
3.231000000000000000e+03 4.258294296264648438e+01 -1.167051410675048828e+01 3.187342405319213867e+00 1.887833178043365479e-01 1.012837648391723633e+00 1.113439917564392090e+00
3.232000000000000000e+03 1.712598800659179688e+01 7.300773143768310547e+00 5.062231139163486660e-05 3.618120899773202837e-05 2.604105611681006849e-05 3.175532401655800641e-05
3.233000000000000000e+03 1.661797904968261719e+01 7.868426322937011719e+00 4.537437416729517281e-05 3.753135752049274743e-05 2.487171877874061465e-05 3.791096969507634640e-05
3.234000000000000000e+03 1.825940513610839844e+01 4.873319625854492188e+00 4.429622640600427985e-05 1.885925667011179030e-05 1.894664455903694034e-05 5.592848992819199339e-06
3.235000000000000000e+03 3.454330444335937500e+01 1.273375225067138672e+01 -8.363459259271621704e-03 -1.964174443855881691e-03 -3.098290180787444115e-03 7.157811429351568222e-03
3.236000000000000000e+03 3.351052093505859375e+01 1.704454231262207031e+01 -3.774132207036018372e-02 -5.167545285075902939e-03 -1.287266053259372711e-02 2.890863455832004547e-02
3.237000000000000000e+03 3.519546127319335938e+01 8.356620788574218750e+00 -4.181500407867133617e-04 -1.019446877762675285e-03 -4.312790697440505028e-04 -3.468198119662702084e-04
3.238000000000000000e+03 3.523360443115234375e+01 7.184662818908691406e+00 1.499538077041506767e-03 -3.005313046742230654e-04 3.597020404413342476e-04 -3.936228749807924032e-04
3.239000000000000000e+03 1.324481391906738281e+01 2.105895614624023438e+01 -7.248363457620143890e-03 9.721927344799041748e-04 -1.882851240225136280e-03 1.343018375337123871e-04
3.240000000000000000e+03 1.292705821990966797e+01 1.948075103759765625e+01 -2.588505856692790985e-03 4.079238715348765254e-05 -7.643140270374715328e-04 -4.934751777909696102e-04
3.241000000000000000e+03 3.337553024291992188e+01 1.819048881530761719e+01 -4.570387303829193115e-02 -4.470316227525472641e-03 -1.505225710570812225e-02 3.343845903873443604e-02
3.242000000000000000e+03 3.279074096679687500e+01 1.777101707458496094e+01 -4.130418598651885986e-02 -1.382488850504159927e-02 -1.653872244060039520e-02 3.530250862240791321e-02
3.243000000000000000e+03 1.205608844757080078e+01 1.581112003326416016e+01 -4.408185486681759357e-05 -1.664177107159048319e-04 -6.314986967481672764e-05 4.702300648204982281e-04
3.244000000000000000e+03 2.073189926147460938e+01 2.479734992980957031e+01 -3.926341608166694641e-02 -9.922188706696033478e-03 -1.475568115711212158e-02 2.216786704957485199e-02
3.245000000000000000e+03 1.283364772796630859e+01 1.842635345458984375e+01 -7.382319308817386627e-04 -1.684086164459586143e-04 -2.719921758398413658e-04 -1.399052998749539256e-04
3.246000000000000000e+03 1.239505195617675781e+01 1.468975925445556641e+01 2.673472627066075802e-04 1.461793581256642938e-04 1.240579877048730850e-04 3.147049283143132925e-04
3.247000000000000000e+03 1.258139896392822266e+01 1.571919536590576172e+01 3.340736438985913992e-04 1.689217024249956012e-04 1.508986024418845773e-04 3.936098655685782433e-04
3.248000000000000000e+03 2.707297325134277344e+01 -4.001425743103027344e+00 -7.430824637413024902e-01 2.701075747609138489e-03 -2.221144139766693115e-01 -8.832716345787048340e-01
3.249000000000000000e+03 2.667154121398925781e+01 -6.177147865295410156e+00 6.144702434539794922e-01 -4.275263845920562744e-02 1.715152710676193237e-01 -8.897839188575744629e-01
3.250000000000000000e+03 4.265693664550781250e+01 -1.092094421386718750e+01 2.421391725540161133e+00 4.308340251445770264e-01 8.556677103042602539e-01 1.404480338096618652e+00
3.251000000000000000e+03 4.295633697509765625e+01 -1.127326297760009766e+01 2.756715536117553711e+00 1.046751514077186584e-01 8.584172129631042480e-01 1.224450230598449707e+00
3.252000000000000000e+03 1.315707492828369141e+01 2.036176300048828125e+01 -4.938408266752958298e-03 5.177994025871157646e-04 -1.326182624325156212e-03 -4.823196504730731249e-04
3.253000000000000000e+03 1.256029510498046875e+01 1.943501281738281250e+01 -2.186793135479092598e-03 6.662338273599743843e-05 -6.360508850775659084e-04 -6.193731096573174000e-04
3.254000000000000000e+03 1.425691032409667969e+01 2.243768310546875000e+01 -1.334317680448293686e-02 1.934357685968279839e-03 -3.422645851969718933e-03 2.738767070695757866e-03
3.255000000000000000e+03 2.552639198303222656e+01 2.450711250305175781e+01 -5.400815233588218689e-02 -2.451268956065177917e-02 -2.355625294148921967e-02 3.316909447312355042e-02
3.256000000000000000e+03 2.522586250305175781e+01 2.386523437500000000e+01 -6.279111653566360474e-02 -2.233968861401081085e-02 -2.553923986852169037e-02 3.254542499780654907e-02
3.257000000000000000e+03 3.464103317260742188e+01 8.075642585754394531e+00 -1.329839724348857999e-04 -9.489622898399829865e-04 -3.245838743168860674e-04 -6.451111985370516777e-04
3.258000000000000000e+03 3.228499603271484375e+01 1.922958946228027344e+01 -5.729265883564949036e-02 -1.639625616371631622e-02 -2.210667356848716736e-02 3.781025111675262451e-02
3.259000000000000000e+03 3.235437774658203125e+01 2.044290161132812500e+01 -6.373734027147293091e-02 -8.131068199872970581e-03 -2.156052365899085999e-02 3.072508797049522400e-02
3.260000000000000000e+03 3.192078208923339844e+01 -3.938873052597045898e+00 -1.199610233306884766e+00 2.363907694816589355e-01 -2.889658510684967041e-01 -2.369544506072998047e-01
3.261000000000000000e+03 1.380298805236816406e+01 2.239566993713378906e+01 -1.269682962447404861e-02 1.973903272300958633e-03 -3.216877812519669533e-03 2.424246864393353462e-03
3.262000000000000000e+03 3.190719795227050781e+01 2.083547782897949219e+01 -6.959854811429977417e-02 -1.170554570853710175e-02 -2.439122833311557770e-02 3.003816679120063782e-02
3.263000000000000000e+03 1.223935127258300781e+01 1.295316982269287109e+01 2.205151249654591084e-04 7.557516073575243354e-05 8.882708789315074682e-05 2.634105330798774958e-04
3.264000000000000000e+03 2.413203430175781250e+01 2.411779212951660156e+01 -6.067764014005661011e-02 -1.737419515848159790e-02 -2.341555058956146240e-02 2.764762565493583679e-02
3.265000000000000000e+03 2.368639183044433594e+01 2.391325950622558594e+01 -6.332276016473770142e-02 -1.671657897531986237e-02 -2.401180192828178406e-02 2.722009643912315369e-02
3.266000000000000000e+03 1.242812061309814453e+01 1.823496055603027344e+01 -1.008123741485178471e-03 -2.198062575189396739e-04 -3.683789982460439205e-04 1.132110774051398039e-04
3.267000000000000000e+03 1.351990985870361328e+01 1.152614116668701172e+01 -2.441917422402184457e-05 2.074970980174839497e-04 5.492337731993757188e-05 2.245249052066355944e-04
3.268000000000000000e+03 3.980677795410156250e+01 -1.767950630187988281e+01 -6.586976051330566406e-01 2.836718559265136719e+00 6.534062623977661133e-01 3.135773539543151855e-01
3.269000000000000000e+03 2.894679260253906250e+01 2.306637954711914062e+01 -6.160760298371315002e-02 -3.980121761560440063e-02 -3.042264655232429504e-02 3.156796097755432129e-02
3.270000000000000000e+03 3.962481307983398438e+01 -1.961417770385742188e+01 -2.599053382873535156e-01 2.112711429595947266e+00 5.558418035507202148e-01 5.004746317863464355e-01
3.271000000000000000e+03 2.160007858276367188e+01 2.424154090881347656e+01 -4.945199564099311829e-02 -1.123346574604511261e-02 -1.820563897490501404e-02 2.164153754711151123e-02
3.272000000000000000e+03 2.020578765869140625e+01 2.480780982971191406e+01 -3.874989598989486694e-02 -7.366784382611513138e-03 -1.383500453084707260e-02 2.048218809068202972e-02
3.273000000000000000e+03 1.383223247528076172e+01 1.063682842254638672e+01 -9.428722114535048604e-05 1.664650771999731660e-04 2.165335718018468469e-05 1.499543577665463090e-04
3.274000000000000000e+03 2.666995620727539062e+01 -5.290225505828857422e+00 8.032054454088211060e-02 -2.528083324432373047e-02 1.651191338896751404e-02 -9.587484002113342285e-01
3.275000000000000000e+03 1.497667789459228516e+01 2.244073677062988281e+01 -1.593340188264846802e-02 2.049501053988933563e-03 -4.165170248597860336e-03 2.689122688025236130e-03
3.276000000000000000e+03 1.814157867431640625e+01 2.448402023315429688e+01 -2.997163683176040649e-02 -1.764771412126719952e-03 -9.520921856164932251e-03 1.380490325391292572e-02
3.277000000000000000e+03 2.187179946899414062e+01 2.530819702148437500e+01 -3.662455081939697266e-02 -1.509744767099618912e-02 -1.551659964025020599e-02 2.627944573760032654e-02
3.278000000000000000e+03 4.530920410156250000e+01 -1.009148597717285156e+01 1.202642440795898438e+00 -6.501219868659973145e-01 1.657561212778091431e-01 1.390197038650512695e+00
3.279000000000000000e+03 3.866567993164062500e+01 -1.572739982604980469e+01 -5.396004319190979004e-01 4.132790565490722656e+00 1.077957034111022949e+00 1.142972588539123535e+00
3.280000000000000000e+03 4.561592864990234375e+01 -1.205181789398193359e+01 1.500993132591247559e+00 -5.761008262634277344e-01 2.774676978588104248e-01 7.201768755912780762e-01
3.281000000000000000e+03 4.575065231323242188e+01 -1.251516151428222656e+01 1.381197094917297363e+00 -5.138596892356872559e-01 2.602012455463409424e-01 5.344212055206298828e-01
3.282000000000000000e+03 3.616925430297851562e+01 7.367400646209716797e+00 1.465908717364072800e-03 -4.678564146161079407e-04 2.994156675413250923e-04 -8.206918573705479503e-05
3.283000000000000000e+03 1.264173984527587891e+01 1.229362106323242188e+01 1.721485314192250371e-04 1.401760819135233760e-04 9.369738108944147825e-05 2.262102789245545864e-04
3.284000000000000000e+03 1.361446857452392578e+01 1.095939445495605469e+01 6.553785351570695639e-05 1.857954921433702111e-04 7.539999933214858174e-05 1.377869193674996495e-04
3.285000000000000000e+03 2.139786148071289062e+01 2.514705085754394531e+01 -3.709156066179275513e-02 -1.274403277784585953e-02 -1.495067775249481201e-02 2.456522546708583832e-02
3.286000000000000000e+03 3.153772544860839844e+01 -3.896101951599121094e+00 -1.250221610069274902e+00 3.024333715438842773e-01 -2.843364775180816650e-01 -2.929915785789489746e-01
3.287000000000000000e+03 4.481170272827148438e+01 -1.259212112426757812e+01 1.760158538818359375e+00 -5.060821175575256348e-01 3.762229084968566895e-01 3.793432116508483887e-01
3.288000000000000000e+03 4.514923477172851562e+01 -9.546240806579589844e+00 9.599975347518920898e-01 -6.352394819259643555e-01 9.742742031812667847e-02 1.554196000099182129e+00
3.289000000000000000e+03 3.550502014160156250e+01 -4.279052734375000000e+00 -1.408998250961303711e+00 5.863394141197204590e-01 -2.467976361513137817e-01 1.663070768117904663e-01
3.290000000000000000e+03 3.806527709960937500e+01 -3.733202457427978516e+00 -2.200234174728393555e+00 8.635811805725097656e-01 -4.009958803653717041e-01 3.486933708190917969e-01
3.291000000000000000e+03 1.305511760711669922e+01 2.207053565979003906e+01 -9.915129281580448151e-03 1.260391552932560444e-03 -2.596421167254447937e-03 1.813866547308862209e-03
3.292000000000000000e+03 3.120334243774414062e+01 2.147038841247558594e+01 -7.089114189147949219e-02 -2.037637680768966675e-02 -2.738025411963462830e-02 2.709322236478328705e-02
3.293000000000000000e+03 2.815379142761230469e+01 2.475693511962890625e+01 -3.797999024391174316e-02 -2.882578782737255096e-02 -2.004173211753368378e-02 2.718404121696949005e-02
3.294000000000000000e+03 2.751397895812988281e+01 2.432082557678222656e+01 -5.052414536476135254e-02 -3.178218752145767212e-02 -2.469190023839473724e-02 3.314373642206192017e-02
3.295000000000000000e+03 1.611231422424316406e+01 2.341850280761718750e+01 -2.135020866990089417e-02 1.467471825890243053e-03 -5.964821204543113708e-03 6.326690316200256348e-03
3.296000000000000000e+03 4.244303894042968750e+01 -1.062146759033203125e+01 2.259831666946411133e+00 7.877359986305236816e-01 9.142702817916870117e-01 1.569900512695312500e+00
3.297000000000000000e+03 3.319455718994140625e+01 -5.440425872802734375e+00 -1.389245986938476562e-01 3.219236135482788086e-01 5.489970371127128601e-02 -1.674856245517730713e-01
3.298000000000000000e+03 3.215182495117187500e+01 -4.448241233825683594e+00 -7.773054242134094238e-01 2.867457866668701172e-01 -1.471678912639617920e-01 -1.505113095045089722e-01
3.299000000000000000e+03 2.978025245666503906e+01 2.241736602783203125e+01 -6.805288791656494141e-02 -3.593200445175170898e-02 -3.119546733796596527e-02 2.743121050298213959e-02
3.300000000000000000e+03 1.899308967590332031e+01 2.444469261169433594e+01 -3.352262452244758606e-02 -3.153279656544327736e-03 -1.100277155637741089e-02 1.560332812368869781e-02
3.301000000000000000e+03 2.476072883605957031e+01 2.386204528808593750e+01 -6.371800601482391357e-02 -1.885920949280261993e-02 -2.477316558361053467e-02 3.087568096816539764e-02
3.302000000000000000e+03 1.574907398223876953e+01 4.702897071838378906e+00 -6.123484126874245703e-06 2.189862061641179025e-05 4.732540674012852833e-06 8.353708835784345865e-06
3.303000000000000000e+03 1.626985168457031250e+01 4.644237995147705078e+00 -3.199847924406640232e-05 9.812395546759944409e-06 -6.655825472989818081e-06 1.174452904706413392e-06
3.304000000000000000e+03 2.462777519226074219e+01 -5.587193965911865234e+00 3.694222867488861084e-02 -1.786161363124847412e-01 -4.250217229127883911e-02 -8.453563451766967773e-01
3.305000000000000000e+03 4.518346405029296875e+01 -1.215265464782714844e+01 1.666944503784179688e+00 -5.632735490798950195e-01 3.311012685298919678e-01 6.221902370452880859e-01
3.306000000000000000e+03 3.881789779663085938e+01 -1.675479698181152344e+01 -7.424885034561157227e-01 3.491219997406005859e+00 8.246194124221801758e-01 8.560463190078735352e-01
3.307000000000000000e+03 3.931147003173828125e+01 -1.876401710510253906e+01 -5.235860943794250488e-01 2.534924745559692383e+00 6.034015417098999023e-01 5.859274864196777344e-01
3.308000000000000000e+03 3.082476234436035156e+01 2.194531440734863281e+01 -6.963068991899490356e-02 -2.472366392612457275e-02 -2.830630540847778320e-02 2.613941021263599396e-02
3.309000000000000000e+03 4.095245361328125000e+01 -7.258419513702392578e+00 -8.183866739273071289e-01 9.839459061622619629e-01 4.966775700449943542e-02 5.807687044143676758e-01
3.310000000000000000e+03 3.143213462829589844e+01 2.334615325927734375e+01 -4.953572526574134827e-02 -1.356607768684625626e-02 -1.893054135143756866e-02 1.819433085620403290e-02
3.311000000000000000e+03 1.382404708862304688e+01 5.524962425231933594e+00 4.394354982650838792e-05 2.975286770379170775e-05 2.210892489529214799e-05 2.234699604741763324e-05
3.312000000000000000e+03 1.238280582427978516e+01 5.769553184509277344e+00 3.405363531783223152e-05 3.423326415941119194e-05 2.048606802418362349e-05 3.505497079459019005e-05
3.313000000000000000e+03 1.072341918945312500e+01 5.761796951293945312e+00 1.397250307491049170e-04 -6.814027528889710084e-06 3.987329910160042346e-05 3.357445530127733946e-05
3.314000000000000000e+03 1.520510864257812500e+01 5.436319351196289062e+00 2.994963870150968432e-05 4.181888289167545736e-05 2.153055720555130392e-05 4.938467554893577471e-07
3.315000000000000000e+03 3.458382415771484375e+01 -4.770488739013671875e+00 -8.472895622253417969e-01 3.851425647735595703e-01 -1.386440992355346680e-01 3.700779378414154053e-02
3.316000000000000000e+03 9.834763526916503906e+00 -6.711529731750488281e+00 -9.631937742233276367e-02 -1.380972862243652344e-01 -7.032500207424163818e-02 -6.914404034614562988e-02
3.317000000000000000e+03 9.572373390197753906e+00 5.353621959686279297e+00 1.324230288446415216e-05 -4.538664143183268607e-05 -9.643301382311619818e-06 3.184033994330093265e-05
3.318000000000000000e+03 7.066981315612792969e+00 6.513216018676757812e+00 3.525563079165294766e-05 -3.553285932866856456e-05 -8.316955302234418923e-08 -5.312639041221700609e-05
3.319000000000000000e+03 2.943551254272460938e+01 2.367153739929199219e+01 -4.921821877360343933e-02 -3.086016327142715454e-02 -2.402351424098014832e-02 2.499515004456043243e-02
3.320000000000000000e+03 3.969668960571289062e+01 -2.037948417663574219e+01 -1.624543517827987671e-01 2.000591278076171875e+00 5.514410734176635742e-01 4.480895698070526123e-01
3.321000000000000000e+03 1.535606193542480469e+01 2.424399375915527344e+01 -1.864324696362018585e-02 8.852828759700059891e-04 -5.327389575541019440e-03 8.895602077245712280e-03
3.322000000000000000e+03 2.415756988525390625e+01 -5.028247356414794922e+00 -2.147119790315628052e-01 -1.427428424358367920e-01 -1.072364449501037598e-01 -8.387354612350463867e-01
3.323000000000000000e+03 2.780592346191406250e+01 -5.427899837493896484e+00 1.105815321207046509e-01 2.612284719944000244e-01 1.115429997444152832e-01 -8.690021038055419922e-01
3.324000000000000000e+03 2.873592758178710938e+01 -5.702584266662597656e+00 2.366237044334411621e-01 4.927057921886444092e-01 2.187988460063934326e-01 -8.417403101921081543e-01
3.325000000000000000e+03 1.960149383544921875e+01 -7.060995101928710938e+00 -8.006085455417633057e-02 -2.710327804088592529e-01 -1.053280904889106750e-01 -4.829175174236297607e-01
3.326000000000000000e+03 4.137150573730468750e+01 -1.925202178955078125e+01 -2.306015044450759888e-01 1.621305465698242188e+00 4.172111749649047852e-01 2.920676954090595245e-02
3.327000000000000000e+03 2.985770416259765625e+01 -5.487300872802734375e+00 1.767185330390930176e-01 7.122868895530700684e-01 2.667016088962554932e-01 -6.275402307510375977e-01
3.328000000000000000e+03 7.079897308349609375e+01 -1.049849414825439453e+01 -7.272009849548339844e-01 1.593739539384841919e-01 -1.703480929136276245e-01 -4.552586972713470459e-01
3.329000000000000000e+03 7.002087402343750000e+01 -8.773612022399902344e+00 -6.222758889198303223e-01 1.112695336341857910e-01 -1.533019095659255981e-01 -7.192537784576416016e-01
3.330000000000000000e+03 2.890627861022949219e+01 2.392214775085449219e+01 -4.801717400550842285e-02 -3.446664288640022278e-02 -2.474514581263065338e-02 2.578670717775821686e-02
3.331000000000000000e+03 2.888702392578125000e+01 2.489673805236816406e+01 -3.229084238409996033e-02 -2.925200574100017548e-02 -1.846285350620746613e-02 2.289558947086334229e-02
3.332000000000000000e+03 1.664683914184570312e+01 5.223539829254150391e+00 -4.978993092663586140e-05 1.281257937080226839e-05 -1.109320601244689897e-05 3.001748154929373413e-06
3.333000000000000000e+03 3.810100555419921875e+01 -1.630978202819824219e+01 -5.456715226173400879e-01 3.306063890457153320e+00 8.281177282333374023e-01 1.396476626396179199e+00
3.334000000000000000e+03 3.763441085815429688e+01 -3.366849422454833984e+00 -2.279649496078491211e+00 8.398685455322265625e-01 -4.319342672824859619e-01 4.592716395854949951e-01
3.335000000000000000e+03 8.843044281005859375e+00 5.920237541198730469e+00 1.860916381701827049e-05 -7.479977648472413421e-05 -1.685718234512023628e-05 1.665412310103420168e-05
3.336000000000000000e+03 3.183254241943359375e+01 -5.529644966125488281e+00 1.056872606277465820e-01 4.602992534637451172e-01 1.697959601879119873e-01 -2.353350520133972168e-01
3.337000000000000000e+03 3.253146362304687500e+01 -5.422314167022705078e+00 -8.121167123317718506e-02 3.764808177947998047e-01 8.858074247837066650e-02 -1.750340163707733154e-01
3.338000000000000000e+03 3.106126213073730469e+01 -5.051392555236816406e+00 -2.633488476276397705e-01 5.378737449645996094e-01 8.235746622085571289e-02 -3.577750623226165771e-01
3.339000000000000000e+03 5.447495937347412109e+00 -6.006274700164794922e+00 -3.321738913655281067e-02 -2.906727977097034454e-02 -1.868540048599243164e-02 1.548436935991048813e-02
3.340000000000000000e+03 1.050294780731201172e+01 -6.121340274810791016e+00 -9.381452202796936035e-02 -1.355790942907333374e-01 -6.881808489561080933e-02 -8.311221003532409668e-02
3.341000000000000000e+03 3.789048767089843750e+01 -7.973031044006347656e+00 3.315275907516479492e-02 1.390510320663452148e+00 4.270989298820495605e-01 -8.826972842216491699e-01
3.342000000000000000e+03 3.918640136718750000e+01 -8.889220237731933594e+00 2.575310468673706055e-01 2.267606496810913086e+00 7.575412988662719727e-01 -5.410305857658386230e-01
3.343000000000000000e+03 3.991567611694335938e+01 -9.368429183959960938e+00 4.779524803161621094e-01 2.737411975860595703e+00 9.646093845367431641e-01 8.751582354307174683e-02
3.344000000000000000e+03 5.899732112884521484e+00 6.192107200622558594e+00 2.212608524132519960e-05 -7.764389010844752192e-06 4.308508778194664046e-06 -8.095122757367789745e-05
3.345000000000000000e+03 2.070449447631835938e+01 -4.713250160217285156e+00 -2.958818376064300537e-01 -1.289396882057189941e-01 -1.274464577436447144e-01 -5.724480748176574707e-01
3.346000000000000000e+03 2.573162460327148438e+01 -5.984292507171630859e+00 3.309715986251831055e-01 -1.629620939493179321e-01 5.040284618735313416e-02 -8.398712873458862305e-01
3.347000000000000000e+03 4.058967208862304688e+01 -8.990379333496093750e+00 3.215272426605224609e-01 2.243960618972778320e+00 7.696463465690612793e-01 5.532111525535583496e-01
3.348000000000000000e+03 3.940972137451171875e+01 -8.292648315429687500e+00 -1.728770285844802856e-01 1.864643096923828125e+00 5.075297951698303223e-01 -2.881901264190673828e-01
3.349000000000000000e+03 1.716338729858398438e+01 2.423103141784667969e+01 -2.621543407440185547e-02 -3.708701988216489553e-04 -7.975891232490539551e-03 1.156162843108177185e-02
3.350000000000000000e+03 1.765701484680175781e+01 2.420797920227050781e+01 -2.795896492898464203e-02 -9.778594831004738808e-04 -8.681046776473522186e-03 1.191295031458139420e-02
3.351000000000000000e+03 7.202057647705078125e+01 -1.031147193908691406e+01 -5.502197742462158203e-01 7.686843723058700562e-02 -1.420053988695144653e-01 -4.531514644622802734e-01
3.352000000000000000e+03 4.194751358032226562e+01 -2.123755455017089844e+01 -5.664096027612686157e-02 1.178392767906188965e+00 3.365255296230316162e-01 8.119548112154006958e-02
3.353000000000000000e+03 6.647980690002441406e+00 -5.857647895812988281e+00 -4.530706256628036499e-02 -4.917343333363533020e-02 -2.834414876997470856e-02 1.667640521191060543e-03
3.354000000000000000e+03 8.990178108215332031e+00 -7.184455394744873047e+00 -9.994608163833618164e-02 -1.234224513173103333e-01 -6.701055914163589478e-02 -5.281262472271919250e-02
3.355000000000000000e+03 2.133330345153808594e+01 -6.440348148345947266e+00 -5.020383372902870178e-02 -2.268698364496231079e-01 -8.312210440635681152e-02 -5.744149088859558105e-01
3.356000000000000000e+03 2.031885910034179688e+01 -5.366503715515136719e+00 -1.722574084997177124e-01 -1.938488930463790894e-01 -1.098318919539451599e-01 -5.500549674034118652e-01
3.357000000000000000e+03 3.883084487915039062e+01 1.778180122375488281e+01 -5.459309369325637817e-02 2.587086707353591919e-02 -8.616668172180652618e-03 1.369705330580472946e-02
3.358000000000000000e+03 3.958615112304687500e+01 1.692253684997558594e+01 -5.085464194416999817e-02 2.527018822729587555e-02 -7.675336208194494247e-03 3.471630159765481949e-03
3.359000000000000000e+03 4.736371517181396484e+00 -6.126937389373779297e+00 -2.889034338295459747e-02 -1.872698217630386353e-02 -1.428519748151302338e-02 2.006817795336246490e-02
3.360000000000000000e+03 6.625268936157226562e+00 5.792892456054687500e+00 1.104404072975739837e-04 -5.925564983044750988e-05 1.535542651254218072e-05 7.445977416864479892e-07
3.361000000000000000e+03 1.618380928039550781e+01 -6.478047370910644531e+00 -1.204017102718353271e-01 -2.981311678886413574e-01 -1.255598664283752441e-01 -3.436915874481201172e-01
3.362000000000000000e+03 1.381955051422119141e+01 -5.217086315155029297e+00 -1.085808649659156799e-01 -1.849285066127777100e-01 -8.805280923843383789e-02 -2.092737108469009399e-01
3.363000000000000000e+03 2.603854370117187500e+01 2.415136528015136719e+01 -5.670315772294998169e-02 -2.650909870862960815e-02 -2.496367692947387695e-02 3.362035378813743591e-02
3.364000000000000000e+03 2.454366683959960938e+01 2.439134025573730469e+01 -5.553069710731506348e-02 -2.160463854670524597e-02 -2.314060181379318237e-02 3.170600160956382751e-02
3.365000000000000000e+03 3.423209762573242188e+01 1.436284065246582031e+01 -1.647050306200981140e-02 -3.382965223863720894e-03 -5.956040695309638977e-03 1.471810601651668549e-02
3.366000000000000000e+03 1.928548431396484375e+01 -6.491662979125976562e+00 -9.628114849328994751e-02 -2.612652182579040527e-01 -1.072639152407646179e-01 -4.892244040966033936e-01
3.367000000000000000e+03 8.201237678527832031e+00 1.676677513122558594e+01 -1.447687973268330097e-04 -8.769884589128196239e-04 -3.065271885134279728e-04 7.195291254902258515e-05
3.368000000000000000e+03 6.003825664520263672e+00 1.851145935058593750e+01 -8.908453164622187614e-04 -7.111379527486860752e-04 -4.805949865840375423e-04 1.008338367682881653e-04
3.369000000000000000e+03 6.211149597167968750e+01 -5.467129230499267578e+00 -1.093409117311239243e-02 6.067434549331665039e-01 1.787427961826324463e-01 2.103359904140233994e-03
3.370000000000000000e+03 6.305902862548828125e+01 -7.711099147796630859e+00 -5.213227272033691406e-01 1.118666455149650574e-01 -1.228368207812309265e-01 -2.468467354774475098e-01
3.371000000000000000e+03 6.064684867858886719e+00 1.955678367614746094e+01 -8.253115229308605194e-04 -6.545379874296486378e-04 -4.439548647496849298e-04 2.032385964412242174e-04
3.372000000000000000e+03 6.612447261810302734e+00 -6.680304050445556641e+00 -5.626692622900009155e-02 -5.785117670893669128e-02 -3.423542901873588562e-02 -3.906810190528631210e-03
3.373000000000000000e+03 7.032699584960937500e+01 -6.078916072845458984e+00 -3.318793773651123047e-01 4.073114320635795593e-02 -8.734446763992309570e-02 -8.245863318443298340e-01
3.374000000000000000e+03 6.812847900390625000e+01 -6.563467979431152344e+00 -3.810229599475860596e-01 1.299362927675247192e-01 -7.532600313425064087e-02 -7.902407050132751465e-01
3.375000000000000000e+03 3.492836380004882812e+01 -5.848048686981201172e+00 -1.999031305313110352e-01 4.329598248004913330e-01 6.991700828075408936e-02 -2.446371912956237793e-01
3.376000000000000000e+03 5.798696517944335938e+00 9.611538887023925781e+00 1.010777414194308221e-04 -1.656508829910308123e-04 -1.937194065249059349e-05 -2.372878225287422538e-05
3.377000000000000000e+03 3.642533111572265625e+01 7.982145309448242188e+00 -6.687660352326929569e-04 -1.491022179834544659e-03 -6.479364819824695587e-04 3.805947926593944430e-05
3.378000000000000000e+03 7.174851989746093750e+01 -1.036280870437622070e+00 7.700271904468536377e-02 -1.347778886556625366e-01 -1.733255013823509216e-02 -8.071764111518859863e-01
3.379000000000000000e+03 7.334662628173828125e+01 -4.040452480316162109e+00 -8.983298391103744507e-02 -3.324005603790283203e-01 -1.266700625419616699e-01 -7.759298086166381836e-01
3.380000000000000000e+03 1.031630802154541016e+01 -1.222514533996582031e+01 -2.449563592672348022e-01 -2.558534741401672363e-01 -1.502429395914077759e-01 -1.732778549194335938e-01
3.381000000000000000e+03 6.507444000244140625e+01 -6.369846820831298828e+00 -2.836666703224182129e-01 1.723596304655075073e-01 -3.339210897684097290e-02 -5.308427810668945312e-01
3.382000000000000000e+03 7.912714004516601562e+00 -6.296083450317382812e+00 -6.790943443775177002e-02 -8.229579031467437744e-02 -4.506156593561172485e-02 -2.128438465297222137e-02
3.383000000000000000e+03 7.212323760986328125e+01 -2.414925384521484375e+01 -8.664873312227427959e-04 -3.687306889332830906e-04 -3.705653944052755833e-04 4.944744796375744045e-05
3.384000000000000000e+03 3.280486297607421875e+01 -6.609958648681640625e+00 7.527555823326110840e-01 4.081632792949676514e-01 3.482756614685058594e-01 -3.898475468158721924e-01
3.385000000000000000e+03 2.397195053100585938e+01 -6.078258037567138672e+00 1.630419492721557617e-01 -2.226347923278808594e-01 -1.787785440683364868e-02 -7.477455735206604004e-01
3.386000000000000000e+03 2.505463981628417969e+01 -6.329307556152343750e+00 4.030413925647735596e-01 -2.253908663988113403e-01 5.329515412449836731e-02 -7.677718400955200195e-01
3.387000000000000000e+03 3.655421066284179688e+01 8.666535377502441406e+00 1.843186910264194012e-04 -1.685195253230631351e-03 -4.502629453781992197e-04 -3.328825987409800291e-04
3.388000000000000000e+03 7.692074298858642578e+00 6.172098159790039062e+00 1.155814607045613229e-04 -7.942027878016233444e-05 1.084835548681439832e-05 3.057051799260079861e-05
3.389000000000000000e+03 6.408485412597656250e+00 6.927547454833984375e+00 1.501449587522074580e-04 -8.257871377281844616e-05 2.026987203862518072e-05 -6.690910140605410561e-06
3.390000000000000000e+03 1.327935409545898438e+01 -4.825292587280273438e+00 -1.066251322627067566e-01 -1.581116616725921631e-01 -7.942103594541549683e-02 -1.803102195262908936e-01
3.391000000000000000e+03 1.399055385589599609e+01 -6.293658733367919922e+00 -1.104329228401184082e-01 -2.439118623733520508e-01 -1.063034385442733765e-01 -2.237210720777511597e-01
3.392000000000000000e+03 4.570085906982421875e+01 -1.076911640167236328e+01 1.294908404350280762e+00 -6.347920894622802734e-01 1.980349123477935791e-01 1.204514861106872559e+00
3.393000000000000000e+03 8.202480316162109375e+00 -1.247326946258544922e+01 -1.758310794830322266e-01 -1.777572780847549438e-01 -1.060765087604522705e-01 -1.552534401416778564e-01
3.394000000000000000e+03 6.243921756744384766e+00 -9.920660972595214844e+00 -9.401638805866241455e-02 -9.492097795009613037e-02 -5.668120831251144409e-02 -5.849548801779747009e-02
3.395000000000000000e+03 6.686459350585937500e+01 6.868136405944824219e+00 6.235643029212951660e-01 1.903856039047241211e+00 7.582260966300964355e-01 -7.575908303260803223e-02
3.396000000000000000e+03 3.708911514282226562e+01 1.020690345764160156e+01 -4.412725567817687988e-03 3.816356183961033821e-04 -1.209327019751071930e-03 -6.535081192851066589e-04
3.397000000000000000e+03 4.460409164428710938e+01 -9.888204574584960938e+00 1.293980956077575684e+00 -5.771170258522033691e-01 2.150591760873794556e-01 1.464882254600524902e+00
3.398000000000000000e+03 1.258830451965332031e+01 -6.532612323760986328e+00 -1.079228520393371582e-01 -2.180018573999404907e-01 -9.777741134166717529e-02 -1.627959609031677246e-01
3.399000000000000000e+03 1.424705505371093750e+01 -7.388119697570800781e+00 -1.151326298713684082e-01 -3.120759725570678711e-01 -1.281625777482986450e-01 -2.388170361518859863e-01
3.400000000000000000e+03 6.538819885253906250e+01 -1.967034041881561279e-01 3.745855391025543213e-01 1.124760270118713379e+00 4.498037397861480713e-01 -2.328718155622482300e-01
3.401000000000000000e+03 6.258837127685546875e+01 1.066887974739074707e+00 6.746991276741027832e-01 1.965688824653625488e+00 7.921164035797119141e-01 5.248617529869079590e-01
3.402000000000000000e+03 3.886827850341796875e+01 -1.944787979125976562e+01 -2.981916368007659912e-01 2.375689983367919922e+00 6.232495307922363281e-01 7.595183849334716797e-01
3.403000000000000000e+03 3.630856323242187500e+01 -3.678417205810546875e+00 -1.874311089515686035e+00 7.271011471748352051e-01 -3.441630005836486816e-01 3.076002299785614014e-01
3.404000000000000000e+03 3.451134490966796875e+01 1.163566684722900391e+01 -4.784760996699333191e-03 -1.886780490167438984e-03 -2.001462504267692566e-03 4.039433784782886505e-03
3.405000000000000000e+03 3.533613204956054688e+01 1.128623962402343750e+01 -5.138878710567951202e-03 -2.575345861259847879e-04 -1.618923968635499477e-03 1.975103979930281639e-03
3.406000000000000000e+03 6.156517028808593750e+00 1.160632419586181641e+01 1.164267596323043108e-04 -2.617934078443795443e-04 -4.360999446362257004e-05 -7.965572876855731010e-05
3.407000000000000000e+03 4.740715026855468750e+01 -1.151206779479980469e+01 8.544792532920837402e-01 -4.691134691238403320e-01 1.156097427010536194e-01 1.054822683334350586e+00
3.408000000000000000e+03 6.751105785369873047e+00 1.587918472290039062e+01 1.135203128797002137e-04 -6.476346752606332302e-04 -1.602343108970671892e-04 -9.096926078200340271e-05
3.409000000000000000e+03 2.200825500488281250e+01 -3.752012014389038086e+00 -5.220496654510498047e-01 -2.104560285806655884e-02 -1.629285812377929688e-01 -6.219633221626281738e-01
3.410000000000000000e+03 2.238109207153320312e+01 -6.285109519958496094e+00 1.244156528264284134e-02 -2.155869901180267334e-01 -6.094362586736679077e-02 -6.404304504394531250e-01
3.411000000000000000e+03 4.063919830322265625e+01 -2.181304931640625000e+01 2.684714086353778839e-02 1.443834185600280762e+00 4.412043988704681396e-01 2.315934449434280396e-01
3.412000000000000000e+03 6.916938781738281250e+01 1.814199256896972656e+01 6.280005574226379395e-01 1.032859325408935547e+00 4.982579648494720459e-01 2.838548719882965088e-01
3.413000000000000000e+03 1.204320430755615234e+01 -9.902967453002929688e+00 -2.014272958040237427e-01 -3.139468729496002197e-01 -1.546122580766677856e-01 -1.492705494165420532e-01
3.414000000000000000e+03 1.255898284912109375e+01 -1.058678054809570312e+01 -2.496602237224578857e-01 -3.608242571353912354e-01 -1.831453442573547363e-01 -1.670465171337127686e-01
3.415000000000000000e+03 4.405530929565429688e+01 -7.525633811950683594e+00 -2.718683183193206787e-01 -4.812286198139190674e-01 -2.259290814399719238e-01 1.569848537445068359e+00
3.416000000000000000e+03 6.455101013183593750e+00 1.253158092498779297e+01 2.484598662704229355e-04 -3.171073913108557463e-04 -2.059425969491712749e-05 -1.710788201307877898e-04
3.417000000000000000e+03 7.344231414794921875e+01 -8.038693428039550781e+00 -3.099406063556671143e-01 -1.238563135266304016e-01 -1.301390826702117920e-01 -6.033277511596679688e-01
3.418000000000000000e+03 1.754710578918457031e+01 -8.261844635009765625e+00 -1.181068271398544312e-01 -3.704065978527069092e-01 -1.465540230274200439e-01 -4.059374332427978516e-01
3.419000000000000000e+03 2.110729217529296875e+01 -5.440108776092529297e+00 -1.743576675653457642e-01 -1.780168116092681885e-01 -1.057123467326164246e-01 -6.014137268066406250e-01
3.420000000000000000e+03 4.594808578491210938e+01 -9.429650306701660156e+00 7.104350328445434570e-01 -6.794511675834655762e-01 9.295146912336349487e-03 1.566934823989868164e+00
3.421000000000000000e+03 5.930756568908691406e+00 2.784755516052246094e+01 -2.390088513493537903e-03 -4.047889728099107742e-03 -1.931393402628600597e-03 5.369635764509439468e-03
3.422000000000000000e+03 4.691539382934570312e+01 -1.149245548248291016e+01 1.000785589218139648e+00 -5.338625907897949219e-01 1.400769054889678955e-01 1.021145224571228027e+00
3.423000000000000000e+03 4.819906997680664062e+01 -9.975461006164550781e+00 4.049553573131561279e-01 -3.901896774768829346e-01 4.429705906659364700e-03 1.535279154777526855e+00
3.424000000000000000e+03 7.295682525634765625e+01 1.210553646087646484e+00 1.261019110679626465e-01 -4.315462112426757812e-01 -9.163329750299453735e-02 -7.360629439353942871e-01
3.425000000000000000e+03 9.523722648620605469e+00 -1.272607898712158203e+01 -2.217973470687866211e-01 -2.243925631046295166e-01 -1.338569819927215576e-01 -1.794455796480178833e-01
3.426000000000000000e+03 9.066349029541015625e+00 -1.408280944824218750e+01 -2.162098884582519531e-01 -2.213375866413116455e-01 -1.312642395496368408e-01 -2.245121896266937256e-01
3.427000000000000000e+03 3.810982894897460938e+01 -7.029108047485351562e+00 -5.945068001747131348e-01 1.231247305870056152e+00 1.910221576690673828e-01 -5.643975138664245605e-01
3.428000000000000000e+03 7.308451843261718750e+01 -2.835321998596191406e+01 -1.986513379961252213e-03 -4.275765386410057545e-04 -7.242269348353147507e-04 1.742330496199429035e-03
3.429000000000000000e+03 7.694464111328125000e+01 -3.526242065429687500e+01 2.308564871782436967e-04 -4.101731348782777786e-03 -1.161262392997741699e-03 2.214363543316721916e-03
3.430000000000000000e+03 7.701734161376953125e+01 -3.299549102783203125e+01 -6.279527588048949838e-05 -2.637607045471668243e-03 -8.101206622086465359e-04 2.062401501461863518e-03
3.431000000000000000e+03 1.475353717803955078e+01 -8.699752807617187500e+00 -1.479477286338806152e-01 -3.941920399665832520e-01 -1.626419275999069214e-01 -2.661995887756347656e-01
3.432000000000000000e+03 1.570992374420166016e+01 -7.215324878692626953e+00 -1.170432567596435547e-01 -3.245742321014404297e-01 -1.324852406978607178e-01 -3.110795617103576660e-01
3.433000000000000000e+03 8.410911560058593750e+00 3.496162414550781250e+01 3.198933089151978493e-03 -1.104112807661294937e-02 -2.352658659219741821e-03 8.580464869737625122e-03
3.434000000000000000e+03 3.933631896972656250e+01 -6.151908874511718750e+00 -1.453209042549133301e+00 9.823774695396423340e-01 -1.412494480609893799e-01 -4.088103026151657104e-02
3.435000000000000000e+03 3.861563873291015625e+01 -5.209946632385253906e+00 -1.803263425827026367e+00 9.416034817695617676e-01 -2.584979832172393799e-01 8.816352486610412598e-02
3.436000000000000000e+03 9.940117835998535156e+00 -1.790490722656250000e+01 -1.086729541420936584e-01 -3.148888349533081055e-01 -1.270685344934463501e-01 -3.496862053871154785e-01
3.437000000000000000e+03 7.676606750488281250e+01 2.049413681030273438e+01 6.170647963881492615e-02 -1.887628316879272461e+00 -5.477765798568725586e-01 3.206453323364257812e-01
3.438000000000000000e+03 5.972663879394531250e+01 -9.139401435852050781e+00 -8.390127420425415039e-01 4.679620862007141113e-01 -1.113151982426643372e-01 1.585387140512466431e-01
3.439000000000000000e+03 7.125182342529296875e+01 -2.779240608215332031e+01 -3.174390178173780441e-03 -1.822572630771901459e-05 -9.577847667969763279e-04 1.256585353985428810e-03
3.440000000000000000e+03 7.259342956542968750e+01 -2.535127258300781250e+01 -1.173393451608717442e-03 -2.340491773793473840e-04 -4.222327843308448792e-04 3.505387285258620977e-04
3.441000000000000000e+03 6.105620956420898438e+01 -5.797400474548339844e+00 1.298719365149736404e-02 6.879931688308715820e-01 2.102940976619720459e-01 1.802771240472793579e-01
3.442000000000000000e+03 7.024297332763671875e+01 -3.441361999511718750e+01 -9.505709749646484852e-04 -3.136452753096818924e-03 -1.226107124239206314e-03 8.171866647899150848e-03
3.443000000000000000e+03 7.267504119873046875e+01 1.648711967468261719e+01 3.538570404052734375e-01 -4.096850156784057617e-01 -1.674839295446872711e-02 2.148037254810333252e-01
3.444000000000000000e+03 3.860318374633789062e+01 -2.413249588012695312e+01 3.670120239257812500e-01 1.706028223037719727e+00 6.219120621681213379e-01 2.643894851207733154e-01
3.445000000000000000e+03 6.783113098144531250e+01 1.557805347442626953e+01 7.425698637962341309e-01 1.806789994239807129e+00 7.648079395294189453e-01 1.393181644380092621e-02
3.446000000000000000e+03 6.728347015380859375e+01 1.246106910705566406e+01 6.302686333656311035e-01 2.202860355377197266e+00 8.499386906623840332e-01 -7.722087204456329346e-02
3.447000000000000000e+03 9.629727363586425781e+00 -2.510929679870605469e+01 1.500358283519744873e-01 -3.160925507545471191e-01 -4.981701448559761047e-02 -2.344206869602203369e-01
3.448000000000000000e+03 6.180995178222656250e+01 -1.615995049476623535e+00 5.881489515304565430e-01 1.378089427947998047e+00 5.898715257644653320e-01 4.098575413227081299e-01
3.449000000000000000e+03 6.601152038574218750e+01 1.272772312164306641e+01 6.030613183975219727e-01 3.013901472091674805e+00 1.085088849067687988e+00 4.162816330790519714e-02
3.450000000000000000e+03 5.854292297363281250e+01 -6.719835281372070312e+00 -1.236439496278762817e-01 9.638682007789611816e-01 2.520672678947448730e-01 5.111636519432067871e-01
3.451000000000000000e+03 4.392567825317382812e+01 2.406081008911132812e+01 2.074776962399482727e-02 4.912531375885009766e-02 2.096192538738250732e-02 -1.694519445300102234e-02
3.452000000000000000e+03 3.492978334426879883e+00 -2.477149581909179688e+01 2.709008567035198212e-02 -4.848531186580657959e-01 -1.373289078474044800e-01 -1.551347225904464722e-01
3.453000000000000000e+03 8.064175605773925781e+00 -1.421647167205810547e+01 -1.751619428396224976e-01 -1.976146847009658813e-01 -1.118329912424087524e-01 -2.191465198993682861e-01
3.454000000000000000e+03 7.239975738525390625e+01 1.414949131011962891e+01 3.690361380577087402e-01 -2.802890837192535400e-01 2.662411518394947052e-02 2.307956106960773468e-02
3.455000000000000000e+03 7.310684967041015625e+01 1.327546691894531250e+01 3.504220247268676758e-01 -5.508502721786499023e-01 -6.012847274541854858e-02 -3.561631962656974792e-02
3.456000000000000000e+03 6.916407775878906250e+01 2.528779029846191406e+01 -8.210659958422183990e-03 7.729832530021667480e-01 2.294317781925201416e-01 5.855607390403747559e-01
3.457000000000000000e+03 6.701319122314453125e+01 2.193377876281738281e+01 4.125853776931762695e-01 1.667459964752197266e+00 6.240136027336120605e-01 3.959541916847229004e-01
3.458000000000000000e+03 3.955588150024414062e+01 2.079319190979003906e+01 -4.159818962216377258e-02 3.910208120942115784e-02 -7.488325936719775200e-04 1.203072816133499146e-02
3.459000000000000000e+03 6.769711303710937500e+01 8.173613548278808594e+00 5.585638284683227539e-01 1.621824502944946289e+00 6.541165113449096680e-01 -1.466436684131622314e-01
3.460000000000000000e+03 6.782627868652343750e+01 1.027494335174560547e+01 5.743756294250488281e-01 1.854319572448730469e+00 7.286085486412048340e-01 -1.193663999438285828e-01
3.461000000000000000e+03 2.823138999938964844e+01 -4.002421855926513672e+00 -8.542371988296508789e-01 1.577182412147521973e-01 -2.089556902647018433e-01 -7.316101789474487305e-01
3.462000000000000000e+03 4.266098403930664062e+01 -1.127625083923339844e+01 2.794650077819824219e+00 2.220585495233535767e-01 9.050126075744628906e-01 1.278077602386474609e+00
3.463000000000000000e+03 4.323377227783203125e+01 -1.201559925079345703e+01 2.732356548309326172e+00 -2.756712138652801514e-01 7.370055913925170898e-01 6.472964286804199219e-01
3.464000000000000000e+03 3.046374130249023438e+01 -3.121029853820800781e+00 -1.842093825340270996e+00 3.285339474678039551e-01 -4.540679752826690674e-01 -3.795844912528991699e-01
3.465000000000000000e+03 3.441043853759765625e+01 1.549643039703369141e+01 -2.445375174283981323e-02 -2.863122150301933289e-03 -8.195062167942523956e-03 2.037961035966873169e-02
3.466000000000000000e+03 2.865777587890625000e+01 -3.131216764450073242e+00 -1.636737108230590820e+00 1.693185865879058838e-01 -4.402255415916442871e-01 -5.461977124214172363e-01
3.467000000000000000e+03 2.910344696044921875e+01 -3.586122035980224609e+00 -1.357385754585266113e+00 2.961949408054351807e-01 -3.183572292327880859e-01 -5.807395577430725098e-01
3.468000000000000000e+03 1.707566070556640625e+01 5.782389640808105469e+00 -3.918267611879855394e-05 -4.719378921436145902e-06 -1.317061651207040995e-05 -6.602708708669524640e-06
3.469000000000000000e+03 2.937715911865234375e+01 -3.045031070709228516e+00 -1.804419040679931641e+00 2.614248394966125488e-01 -4.628982841968536377e-01 -4.615843892097473145e-01
3.470000000000000000e+03 4.328569793701171875e+01 -1.162089061737060547e+01 2.636270046234130859e+00 -2.199648022651672363e-01 7.248915433883666992e-01 9.032669067382812500e-01
3.471000000000000000e+03 3.559202575683593750e+01 1.072376155853271484e+01 -4.257293883711099625e-03 -2.103120787069201469e-03 -1.908124424517154694e-03 2.082791412249207497e-03
3.472000000000000000e+03 3.350549697875976562e+01 1.605858230590820312e+01 -2.737582288682460785e-02 -7.126650307327508926e-03 -1.035074144601821899e-02 2.423444017767906189e-02
3.473000000000000000e+03 3.991101837158203125e+01 -1.612355041503906250e+01 -6.669177412986755371e-01 3.914981126785278320e+00 9.744190573692321777e-01 -6.913059949874877930e-02
3.474000000000000000e+03 1.454062461853027344e+01 8.770005226135253906e+00 6.553930143127217889e-05 9.711832535685971379e-05 4.879728658124804497e-05 6.957967707421630621e-05
3.475000000000000000e+03 1.554346084594726562e+01 8.097998619079589844e+00 -7.689365156693384051e-05 4.960031947121024132e-05 -8.187999810616020113e-06 -5.379461072152480483e-06
3.476000000000000000e+03 3.520190811157226562e+01 1.318616008758544922e+01 -1.429294515401124954e-02 -6.398427067324519157e-04 -4.479836206883192062e-03 9.313895367085933685e-03
3.477000000000000000e+03 3.639802932739257812e+01 1.010752296447753906e+01 -2.529979683458805084e-03 -2.448302460834383965e-03 -1.493484713137149811e-03 1.048240228556096554e-03
3.478000000000000000e+03 2.826518630981445312e+01 -5.589224338531494141e+00 3.278752267360687256e-01 3.431745767593383789e-01 2.013149410486221313e-01 -8.698412179946899414e-01
3.479000000000000000e+03 1.214740848541259766e+01 1.627744102478027344e+01 2.618281287141144276e-04 -6.650196883128955960e-05 5.859784505446441472e-05 3.688161377795040607e-04
3.480000000000000000e+03 3.918445587158203125e+01 -1.609047317504882812e+01 -7.695931196212768555e-01 4.117473125457763672e+00 1.004364013671875000e+00 6.005439162254333496e-01
3.481000000000000000e+03 1.254575157165527344e+01 1.521400547027587891e+01 -5.052788037573918700e-05 1.332351675955578685e-04 2.481218689354136586e-05 5.282277707010507584e-04
3.482000000000000000e+03 1.212221050262451172e+01 1.416667270660400391e+01 6.737457442795857787e-05 -2.227041659352835268e-05 1.353124662273330614e-05 4.915932659059762955e-04
3.483000000000000000e+03 1.378282928466796875e+01 8.825476646423339844e+00 8.632345998194068670e-05 9.066604252438992262e-05 5.309685002430342138e-05 7.692276994930580258e-05
3.484000000000000000e+03 3.532369995117187500e+01 1.419096946716308594e+01 -2.035195380449295044e-02 1.721410546451807022e-03 -5.589162930846214294e-03 1.264837011694908142e-02
3.485000000000000000e+03 1.193190670013427734e+01 1.534252071380615234e+01 2.804797550197690725e-04 -5.993054583086632192e-05 6.616475729970261455e-05 2.972913498524576426e-04
3.486000000000000000e+03 1.927452468872070312e+01 2.497756004333496094e+01 -3.220828995108604431e-02 -5.882195197045803070e-03 -1.142714638262987137e-02 1.954085566103458405e-02
3.487000000000000000e+03 1.099601936340332031e+01 1.731884384155273438e+01 -4.562497779261320829e-04 -5.421524983830749989e-04 -2.995207032654434443e-04 -4.514750798989553005e-06
3.488000000000000000e+03 1.676178550720214844e+01 7.148208618164062500e+00 -5.284907456371001899e-05 7.022964837233303115e-06 -1.374783278151880950e-05 -2.194622720708139241e-05
3.489000000000000000e+03 1.588972091674804688e+01 5.501807212829589844e+00 -4.153444388066418469e-05 7.162574320318526588e-07 -1.224545576405944303e-05 1.320133924309629947e-05
3.490000000000000000e+03 3.397436904907226562e+01 1.714511489868164062e+01 -3.910659626126289368e-02 -2.043845597654581070e-03 -1.234513334929943085e-02 3.007994592189788818e-02
3.491000000000000000e+03 2.912044906616210938e+01 -4.112705707550048828e+00 -9.205119609832763672e-01 3.234042227268218994e-01 -1.791323125362396240e-01 -6.230179071426391602e-01
3.492000000000000000e+03 3.080275154113769531e+01 -3.197931528091430664e+00 -1.822471380233764648e+00 3.132682144641876221e-01 -4.527609646320343018e-01 -3.378771543502807617e-01
3.493000000000000000e+03 1.392858982086181641e+01 9.571911811828613281e+00 7.760846347082406282e-05 1.195321819977834821e-04 5.914219218539074063e-05 9.771846816875040531e-05
3.494000000000000000e+03 1.407079124450683594e+01 1.026775074005126953e+01 8.123213774524629116e-05 1.617689122213050723e-04 7.290031498996540904e-05 8.543798321625217795e-05
3.495000000000000000e+03 1.245033454895019531e+01 1.346825218200683594e+01 3.147435927530750632e-05 8.351798896910622716e-05 3.449770520091988146e-05 4.312859091442078352e-04
3.496000000000000000e+03 1.202985858917236328e+01 1.240779113769531250e+01 9.999906978919170797e-06 2.557814877945929766e-05 1.067341690941248089e-05 3.484966582618653774e-04
3.497000000000000000e+03 3.478603744506835938e+01 1.429613208770751953e+01 -2.029259502887725830e-02 -3.529374080244451761e-04 -6.193660199642181396e-03 1.462077908217906952e-02
3.498000000000000000e+03 3.686735916137695312e+01 1.297020912170410156e+01 -1.770054548978805542e-02 4.130012355744838715e-03 -4.071159753948450089e-03 4.768551792949438095e-03
3.499000000000000000e+03 4.398212432861328125e+01 -1.243759727478027344e+01 2.243359327316284180e+00 -4.504552781581878662e-01 5.378711819648742676e-01 3.631474375724792480e-01
3.500000000000000000e+03 4.479986572265625000e+01 -1.223890590667724609e+01 1.803767085075378418e+00 -5.399531126022338867e-01 3.791441917419433594e-01 5.658602714538574219e-01
3.501000000000000000e+03 3.394287872314453125e+01 1.796797943115234375e+01 -4.863237589597702026e-02 1.871374552138149738e-03 -1.402830053120851517e-02 3.149622678756713867e-02
3.502000000000000000e+03 3.321030807495117188e+01 1.769105911254882812e+01 -4.386501759290695190e-02 -6.838852539658546448e-03 -1.521116122603416443e-02 3.284329548478126526e-02
3.503000000000000000e+03 1.187427711486816406e+01 1.364760780334472656e+01 2.535507082939147949e-04 -1.455241454095812514e-05 7.169949094532057643e-05 2.680548059288412333e-04
3.504000000000000000e+03 4.303969955444335938e+01 -1.089190101623535156e+01 2.317101240158081055e+00 1.123643144965171814e-01 7.288396954536437988e-01 1.330125451087951660e+00
3.505000000000000000e+03 2.680263328552246094e+01 -4.365966796875000000e+00 -5.152006745338439941e-01 -2.790411701425909996e-03 -1.553973257541656494e-01 -9.048603177070617676e-01
3.506000000000000000e+03 3.519365310668945312e+01 8.884533882141113281e+00 9.283014514949172735e-05 -1.390698947943747044e-03 -3.893606481142342091e-04 -3.063119947910308838e-04
3.507000000000000000e+03 3.223986434936523438e+01 2.132076644897460938e+01 -6.499857455492019653e-02 -7.279314100742340088e-03 -2.168336696922779083e-02 2.572407200932502747e-02
3.508000000000000000e+03 1.270670700073242188e+01 1.976134681701660156e+01 -3.340891795232892036e-03 -2.097302967740688473e-05 -1.008559484034776688e-03 -3.608521656133234501e-04
3.509000000000000000e+03 1.567712879180908203e+01 2.381223487854003906e+01 -2.075759135186672211e-02 1.206686021760106087e-03 -5.865271668881177902e-03 8.278076536953449249e-03
3.510000000000000000e+03 1.641080665588378906e+01 2.394279479980468750e+01 -2.298768423497676849e-02 1.878592593129724264e-04 -6.839947775006294250e-03 9.516485035419464111e-03
3.511000000000000000e+03 1.271162414550781250e+01 2.153646850585937500e+01 -7.562369108200073242e-03 1.086819800548255444e-03 -1.942664850503206253e-03 4.821792826987802982e-04
3.512000000000000000e+03 1.302606868743896484e+01 1.167782497406005859e+01 1.208084504469297826e-04 1.751218369463458657e-04 8.877908112481236458e-05 1.657943794270977378e-04
3.513000000000000000e+03 1.331840610504150391e+01 1.114577102661132812e+01 7.740446017123758793e-05 1.893379230750724673e-04 8.002271351870149374e-05 1.179825776489451528e-04
3.514000000000000000e+03 2.195750427246093750e+01 2.482134437561035156e+01 -4.398867860436439514e-02 -1.361726503819227219e-02 -1.728178374469280243e-02 2.416848018765449524e-02
3.515000000000000000e+03 1.175886440277099609e+01 1.486223697662353516e+01 6.105857755756005645e-05 -1.998890220420435071e-04 -4.164913116255775094e-05 4.954663454554975033e-04
3.516000000000000000e+03 8.601316452026367188e+00 6.384112834930419922e+00 1.652863720664754510e-04 -8.101310959318652749e-05 2.528197910578455776e-05 4.769760562339797616e-05
3.517000000000000000e+03 1.155338191986083984e+01 5.890620708465576172e+00 -5.132377509653451853e-07 -3.897478018188849092e-05 -1.184640495921485126e-05 7.719523273408412933e-05
3.518000000000000000e+03 2.960636138916015625e+01 -5.990969181060791016e+00 5.167344212532043457e-01 7.045171856880187988e-01 3.663754761219024658e-01 -7.304362058639526367e-01
3.519000000000000000e+03 1.629374885559082031e+01 7.578793525695800781e+00 -3.927100260625593364e-05 3.979143366450443864e-05 1.561295448482269421e-07 -2.789680002024397254e-05
3.520000000000000000e+03 2.799374771118164062e+01 -4.914714813232421875e+00 -1.907048076391220093e-01 2.345554381608963013e-01 1.315518748015165329e-02 -8.754149079322814941e-01
3.521000000000000000e+03 1.328445339202880859e+01 1.079356098175048828e+01 -1.092289821826852858e-04 1.350892707705497742e-04 7.758084393572062254e-06 2.358531055506318808e-04
3.522000000000000000e+03 3.982993698120117188e+01 -1.904138565063476562e+01 -3.842673897743225098e-01 2.308435201644897461e+00 5.772503614425659180e-01 4.617175757884979248e-01
3.523000000000000000e+03 4.372159194946289062e+01 -1.113235473632812500e+01 2.201628446578979492e+00 -3.237413167953491211e-01 5.633661746978759766e-01 1.118248581886291504e+00
3.524000000000000000e+03 4.311852264404296875e+01 -8.875296592712402344e+00 6.940717697143554688e-01 1.391855627298355103e-01 2.499772012233734131e-01 1.484761834144592285e+00
3.525000000000000000e+03 2.207387161254882812e+01 2.595395660400390625e+01 -3.173881396651268005e-02 -1.643641851842403412e-02 -1.445257011801004410e-02 2.744854800403118134e-02
3.526000000000000000e+03 2.949649810791015625e+01 2.442004585266113281e+01 -3.883076831698417664e-02 -2.929012849926948547e-02 -2.043626829981803894e-02 2.253731526434421539e-02
3.527000000000000000e+03 4.618655395507812500e+01 -1.114428329467773438e+01 1.210352897644042969e+00 -6.282575726509094238e-01 1.746286004781723022e-01 1.101467609405517578e+00
3.528000000000000000e+03 2.687563896179199219e+01 2.395376777648925781e+01 -5.738838389515876770e-02 -3.038177080452442169e-02 -2.633104659616947174e-02 3.533503785729408264e-02
3.529000000000000000e+03 2.094275283813476562e+01 2.547305107116699219e+01 -3.481741249561309814e-02 -1.161038875579833984e-02 -1.392834074795246124e-02 2.475463226437568665e-02
3.530000000000000000e+03 2.232285308837890625e+01 2.507221412658691406e+01 -4.141161218285560608e-02 -1.610483229160308838e-02 -1.725493371486663818e-02 2.656308375298976898e-02
3.531000000000000000e+03 1.329553318023681641e+01 2.261629867553710938e+01 -1.117670908570289612e-02 1.572336186654865742e-03 -2.881312044337391853e-03 2.532488899305462837e-03
3.532000000000000000e+03 2.024403953552246094e+01 2.560027694702148438e+01 -3.074102848768234253e-02 -1.012795884162187576e-02 -1.226069591939449310e-02 2.411510981619358063e-02
3.533000000000000000e+03 4.581488037109375000e+01 -1.147211360931396484e+01 1.382947325706481934e+00 -6.188543438911437988e-01 2.292278707027435303e-01 9.825084209442138672e-01
3.534000000000000000e+03 4.405885696411132812e+01 -9.195771217346191406e+00 8.227970004081726074e-01 -3.781481385231018066e-01 1.333946585655212402e-01 1.542381405830383301e+00
3.535000000000000000e+03 3.999267959594726562e+01 -7.926165580749511719e+00 -4.191173315048217773e-01 1.642233729362487793e+00 3.669349253177642822e-01 4.442815482616424561e-02
3.536000000000000000e+03 3.182565307617187500e+01 2.180050849914550781e+01 -6.493149697780609131e-02 -1.125787943601608276e-02 -2.285681292414665222e-02 2.459645271301269531e-02
3.537000000000000000e+03 2.317641830444335938e+01 2.506882095336914062e+01 -4.388840124011039734e-02 -1.889271289110183716e-02 -1.883433386683464050e-02 2.824876271188259125e-02
3.538000000000000000e+03 1.390214538574218750e+01 2.346432113647460938e+01 -1.374420896172523499e-02 1.446371315978467464e-03 -3.689351258799433708e-03 4.826980642974376678e-03
3.539000000000000000e+03 1.499777126312255859e+01 2.310738372802734375e+01 -1.746748201549053192e-02 1.768358051776885986e-03 -4.709736909717321396e-03 5.083246156573295593e-03
3.540000000000000000e+03 3.889292144775390625e+01 -1.717955780029296875e+01 -7.966036796569824219e-01 3.402515649795532227e+00 7.817736268043518066e-01 8.210339546203613281e-01
3.541000000000000000e+03 1.312744903564453125e+01 2.345026969909667969e+01 -1.197473704814910889e-02 1.179623068310320377e-03 -3.238534089177846909e-03 4.456206224858760834e-03
3.542000000000000000e+03 2.610335922241210938e+01 -4.638419151306152344e+00 -3.293808102607727051e-01 -8.684267848730087280e-02 -1.248670443892478943e-01 -9.384381175041198730e-01
3.543000000000000000e+03 1.312691688537597656e+01 5.607615947723388672e+00 -3.848637788905762136e-06 5.205225079407682642e-06 4.069761700975504937e-07 4.056225225212983787e-05
3.544000000000000000e+03 1.373327732086181641e+01 4.941548824310302734e+00 -9.451068763155490160e-06 2.177436499550822191e-06 -2.182089929192443378e-06 3.405724055483005941e-05
3.545000000000000000e+03 3.423110198974609375e+01 -5.495219230651855469e+00 -3.254250586032867432e-01 3.678403496742248535e-01 1.272458489984273911e-02 -8.962416648864746094e-02
3.546000000000000000e+03 3.368549346923828125e+01 -5.147524833679199219e+00 -4.266493320465087891e-01 3.200279772281646729e-01 -3.198640421032905579e-02 -7.204229384660720825e-02
3.547000000000000000e+03 1.593863201141357422e+01 6.872099399566650391e+00 1.347155102848773822e-05 4.303669993532821536e-05 1.695247556199319661e-05 -1.653605977480765432e-05
3.548000000000000000e+03 3.553194808959960938e+01 -6.383275032043457031e+00 -1.392398923635482788e-01 5.624002218246459961e-01 1.269481033086776733e-01 -4.344731271266937256e-01
3.549000000000000000e+03 3.661157989501953125e+01 -6.424157142639160156e+00 -4.188750982284545898e-01 8.263795375823974609e-01 1.222513318061828613e-01 -5.111369490623474121e-01
3.550000000000000000e+03 3.906712341308593750e+01 -1.754319000244140625e+01 -7.076785564422607422e-01 3.050331830978393555e+00 7.027959823608398438e-01 6.918352842330932617e-01
3.551000000000000000e+03 4.744983291625976562e+01 -1.085588741302490234e+01 7.336554527282714844e-01 -4.935913085937500000e-01 7.201923429965972900e-02 1.271579504013061523e+00
3.552000000000000000e+03 4.072455596923828125e+01 -1.893195152282714844e+01 -3.268662095069885254e-01 1.991675257682800293e+00 4.994427263736724854e-01 1.593015789985656738e-01
3.553000000000000000e+03 1.263293552398681641e+01 6.351981163024902344e+00 4.064509630552493036e-05 2.609943476272746921e-05 2.002335895667783916e-05 6.135011062724515796e-05
3.554000000000000000e+03 3.164151763916015625e+01 -4.834489822387695312e+00 -5.333397388458251953e-01 4.318405985832214355e-01 -3.044973500072956085e-02 -2.565953433513641357e-01
3.555000000000000000e+03 1.282300090789794922e+01 -8.838155746459960938e+00 -1.668173819780349731e-01 -3.262065351009368896e-01 -1.479071825742721558e-01 -1.688227951526641846e-01
3.556000000000000000e+03 1.295330715179443359e+01 -7.839510917663574219e+00 -1.312408745288848877e-01 -2.853796482086181641e-01 -1.249861568212509155e-01 -1.761193722486495972e-01
3.557000000000000000e+03 4.236847686767578125e+01 -8.789987564086914062e+00 5.366122722625732422e-01 6.728762388229370117e-01 3.628465533256530762e-01 1.331258893013000488e+00
3.558000000000000000e+03 4.164952850341796875e+01 -8.926128387451171875e+00 4.186677038669586182e-01 1.266485929489135742e+00 5.055460929870605469e-01 1.116652011871337891e+00
3.559000000000000000e+03 1.185158920288085938e+01 1.735046005249023438e+01 -1.831601985031738877e-04 -3.977744199801236391e-04 -1.742803870001807809e-04 4.434997390490025282e-05
3.560000000000000000e+03 8.111476898193359375e+00 6.752902507781982422e+00 2.629192022141069174e-05 -4.166315193288028240e-05 -4.611369149642996490e-06 -4.296166662243194878e-05
3.561000000000000000e+03 3.530832672119140625e+01 -5.057184219360351562e+00 -8.788545131683349609e-01 5.498473644256591797e-01 -9.870214015245437622e-02 -2.503196895122528076e-02
3.562000000000000000e+03 4.030258178710937500e+01 -1.749341201782226562e+01 -5.970428586006164551e-01 2.792672634124755859e+00 6.586889028549194336e-01 3.765357658267021179e-02
3.563000000000000000e+03 3.053116607666015625e+01 2.234218978881835938e+01 -6.653794646263122559e-02 -2.929884381592273712e-02 -2.875103615224361420e-02 2.271580323576927185e-02
3.564000000000000000e+03 4.383282089233398438e+01 -8.625007629394531250e+00 4.992451071739196777e-01 -2.890181243419647217e-01 6.306809186935424805e-02 1.538122057914733887e+00
3.565000000000000000e+03 4.065449905395507812e+01 -7.994078636169433594e+00 -3.453583121299743652e-01 1.437991976737976074e+00 3.277900815010070801e-01 4.693436622619628906e-01
3.566000000000000000e+03 2.789802932739257812e+01 2.549244689941406250e+01 -2.918045222759246826e-02 -2.822556160390377045e-02 -1.722180470824241638e-02 2.587966993451118469e-02
3.567000000000000000e+03 3.167152404785156250e+01 2.253026962280273438e+01 -5.747377127408981323e-02 -1.043960452079772949e-02 -2.037401311099529266e-02 2.011016197502613068e-02
3.568000000000000000e+03 1.036106109619140625e+01 6.424311637878417969e+00 -3.102568734902888536e-05 -4.069305578013882041e-05 -2.151562330254819244e-05 7.196045771706849337e-05
3.569000000000000000e+03 1.481456089019775391e+01 -6.758603572845458984e+00 -1.222159713506698608e-01 -2.898184061050415039e-01 -1.236103102564811707e-01 -2.724079787731170654e-01
3.570000000000000000e+03 1.661933326721191406e+01 -7.730176925659179688e+00 -1.188134774565696716e-01 -3.735464513301849365e-01 -1.477079838514328003e-01 -3.623030483722686768e-01
3.571000000000000000e+03 2.355577468872070312e+01 -5.592197418212890625e+00 -5.433912947773933411e-02 -1.776398718357086182e-01 -6.959370523691177368e-02 -7.809745669364929199e-01
3.572000000000000000e+03 2.316103553771972656e+01 -5.135679721832275391e+00 -1.852402538061141968e-01 -1.477482169866561890e-01 -9.989654272794723511e-02 -7.528485655784606934e-01
3.573000000000000000e+03 7.341605377197265625e+01 -9.020608901977539062e+00 -3.199616372585296631e-01 -8.102870732545852661e-02 -1.202971041202545166e-01 -5.217748880386352539e-01
3.574000000000000000e+03 3.281256103515625000e+01 1.873796844482421875e+01 -5.065029859542846680e-02 -9.979628026485443115e-03 -1.818897761404514313e-02 3.592867031693458557e-02
3.575000000000000000e+03 3.338359069824218750e+01 1.873138999938964844e+01 -5.245581641793251038e-02 -1.531915389932692051e-03 -1.619631983339786530e-02 3.256483003497123718e-02
3.576000000000000000e+03 3.287305450439453125e+01 2.096092414855957031e+01 -6.374029815196990967e-02 -1.812933332985267043e-04 -1.917647756636142731e-02 2.682008035480976105e-02
3.577000000000000000e+03 3.073852539062500000e+01 2.369722175598144531e+01 -4.555293917655944824e-02 -2.098145894706249237e-02 -1.996031962335109711e-02 1.888814568519592285e-02
3.578000000000000000e+03 1.584775161743164062e+01 2.430033493041992188e+01 -1.934956200420856476e-02 3.757404338102787733e-04 -5.692146252840757370e-03 9.465472772717475891e-03
3.579000000000000000e+03 1.462925243377685547e+01 2.347710037231445312e+01 -1.601343043148517609e-02 1.772226067259907722e-03 -4.272361751645803452e-03 5.436940584331750870e-03
3.580000000000000000e+03 1.638189125061035156e+01 6.455523490905761719e+00 3.853865564451552927e-05 4.056028774357400835e-05 2.372968265262898058e-05 8.686240107635967433e-06
3.581000000000000000e+03 1.203641414642333984e+01 1.911936759948730469e+01 -1.713088830001652241e-03 -1.703364687273278832e-04 -5.650275852531194687e-04 -3.505579661577939987e-04
3.582000000000000000e+03 1.252709960937500000e+01 1.904162406921386719e+01 -1.917096320539712906e-03 -3.848166088573634624e-04 -6.905738846398890018e-04 -1.795467396732419729e-04
3.583000000000000000e+03 3.264966964721679688e+01 -4.779608249664306641e+00 -5.637295842170715332e-01 2.985206842422485352e-01 -7.956267148256301880e-02 -1.224123835563659668e-01
3.584000000000000000e+03 7.083981990814208984e+00 2.148997879028320312e+01 -2.477608621120452881e-03 -8.147132466547191143e-04 -9.876965777948498726e-04 1.028667087666690350e-03
3.585000000000000000e+03 3.258950805664062500e+01 -6.060213565826416016e+00 4.218075871467590332e-01 3.529718518257141113e-01 2.324338257312774658e-01 -2.187185734510421753e-01
3.586000000000000000e+03 3.319759368896484375e+01 -6.087821483612060547e+00 2.987102270126342773e-01 3.550347983837127686e-01 1.961235105991363525e-01 -1.979325264692306519e-01
3.587000000000000000e+03 3.249598693847656250e+01 -4.030908107757568359e+00 -1.113729834556579590e+00 1.527033597230911255e-01 -2.883079648017883301e-01 -1.320881098508834839e-01
3.588000000000000000e+03 8.427006721496582031e+00 1.279282093048095703e+01 1.120761808124370873e-04 -3.804259758908301592e-04 -8.050494216149672866e-05 7.915259629953652620e-05
3.589000000000000000e+03 7.281342315673828125e+01 -6.054208278656005859e+00 -2.145187556743621826e-01 -1.747177541255950928e-01 -1.167709529399871826e-01 -7.570233345031738281e-01
3.590000000000000000e+03 2.407054901123046875e+01 2.465334129333496094e+01 -4.953428357839584351e-02 -2.071803249418735504e-02 -2.107569575309753418e-02 3.004202246665954590e-02
3.591000000000000000e+03 1.750552368164062500e+01 -6.169691562652587891e+00 -1.310976445674896240e-01 -2.720283865928649902e-01 -1.209378093481063843e-01 -4.159049391746520996e-01
3.592000000000000000e+03 2.295107269287109375e+01 2.411991882324218750e+01 -5.660564452409744263e-02 -1.560675632208585739e-02 -2.166371978819370270e-02 2.492818981409072876e-02
3.593000000000000000e+03 3.442588424682617188e+01 -6.518371582031250000e+00 3.411009907722473145e-01 3.482028841972351074e-01 2.067911624908447266e-01 -3.945815265178680420e-01
3.594000000000000000e+03 3.713690567016601562e+01 1.368768978118896484e+01 -2.556402981281280518e-02 6.235572043806314468e-03 -5.798537284135818481e-03 6.418486591428518295e-03
3.595000000000000000e+03 6.121279716491699219e+00 -8.793952941894531250e+00 -8.161001652479171753e-02 -7.822205871343612671e-02 -4.794962331652641296e-02 -3.597629070281982422e-02
3.596000000000000000e+03 3.841929244995117188e+01 -6.096272468566894531e+00 -1.264626860618591309e+00 1.110904693603515625e+00 -4.611666500568389893e-02 -1.828330457210540771e-01
3.597000000000000000e+03 2.720488739013671875e+01 2.512958526611328125e+01 -3.817947581410408020e-02 -2.787083014845848083e-02 -1.981509104371070862e-02 2.880726754665374756e-02
3.598000000000000000e+03 5.720565795898437500e+00 7.378965377807617188e+00 1.926677941810339689e-05 -2.161181691917590797e-05 -7.035113185338559560e-07 -9.586006490280851722e-05
3.599000000000000000e+03 7.178284645080566406e+00 1.699769592285156250e+01 -1.770901726558804512e-04 -7.162449765019118786e-04 -2.680005563888698816e-04 -8.502096170559525490e-05
3.600000000000000000e+03 6.883381366729736328e+00 1.859738731384277344e+01 -7.339671137742698193e-04 -6.864396855235099792e-04 -4.261220456101000309e-04 3.702281173900701106e-05
3.601000000000000000e+03 5.692755222320556641e+00 -6.817062854766845703e+00 -4.755400866270065308e-02 -4.240691661834716797e-02 -2.698827721178531647e-02 2.875246107578277588e-03
3.602000000000000000e+03 8.294555664062500000e+00 1.001086330413818359e+01 2.140298165613785386e-04 -2.387534623267129064e-04 -7.417093002004548907e-06 5.561690340982750058e-05
3.603000000000000000e+03 4.124275970458984375e+01 -8.380026817321777344e+00 5.004200339317321777e-02 1.292433023452758789e+00 4.027425050735473633e-01 8.950353264808654785e-01
3.604000000000000000e+03 3.739383316040039062e+01 1.457108688354492188e+01 -3.086102195084095001e-02 1.001480687409639359e-02 -6.253864616155624390e-03 8.031887933611869812e-03
3.605000000000000000e+03 1.450495815277099609e+01 5.475813865661621094e+00 -2.211422724940348417e-05 9.309658707934431732e-06 -3.841370926238596439e-06 3.722749170265160501e-05
3.606000000000000000e+03 1.389676666259765625e+01 6.097353458404541016e+00 -3.847117841360159218e-05 2.282129389641340822e-05 -4.694965355156455189e-06 4.707122934632934630e-05
3.607000000000000000e+03 7.122840404510498047e+00 2.781231117248535156e+01 -2.348660957068204880e-03 -4.078804515302181244e-03 -1.928239711560308933e-03 6.655238568782806396e-03
3.608000000000000000e+03 1.662441444396972656e+01 2.460192489624023438e+01 -2.268846333026885986e-02 -4.087420529685914516e-04 -6.929161492735147476e-03 1.204612571746110916e-02
3.609000000000000000e+03 4.277408981323242188e+01 -1.004210758209228516e+01 1.592668652534484863e+00 5.008379220962524414e-01 6.280519962310791016e-01 1.494972944259643555e+00
3.610000000000000000e+03 3.619094467163085938e+01 1.080283355712890625e+01 -6.149863824248313904e-03 1.501875522080808878e-04 -1.799902878701686859e-03 5.715878214687108994e-04
3.611000000000000000e+03 3.598247909545898438e+01 1.253099632263183594e+01 -1.263552438467741013e-02 8.629570947960019112e-04 -3.531770082190632820e-03 5.748650990426540375e-03
3.612000000000000000e+03 4.054075241088867188e+01 -2.009505271911621094e+01 -1.973637193441390991e-01 1.751346349716186523e+00 4.661947786808013916e-01 2.508466541767120361e-01
3.613000000000000000e+03 3.787668991088867188e+01 -4.392199993133544922e+00 -1.978403687477111816e+00 9.275428652763366699e-01 -3.152582347393035889e-01 2.283369302749633789e-01
3.614000000000000000e+03 3.726129150390625000e+01 -6.797558784484863281e+00 -4.228038489818572998e-01 1.025068879127502441e+00 1.806795150041580200e-01 -5.867173671722412109e-01
3.615000000000000000e+03 4.024027252197265625e+01 -8.467574119567871094e+00 -7.484355941414833069e-03 1.982679605484008789e+00 5.925585627555847168e-01 2.105770558118820190e-01
3.616000000000000000e+03 4.664773178100585938e+01 -1.021585655212402344e+01 9.004727005958557129e-01 -6.276643276214599609e-01 8.184251934289932251e-02 1.390207409858703613e+00
3.617000000000000000e+03 3.831449127197265625e+01 1.590934562683105469e+01 -4.246697574853897095e-02 1.573486439883708954e-02 -8.019633591175079346e-03 9.202037006616592407e-03
3.618000000000000000e+03 3.658647537231445312e+01 1.541625976562500000e+01 -3.369592130184173584e-02 8.728412911295890808e-03 -7.490252610296010971e-03 1.500616688281297684e-02
3.619000000000000000e+03 6.940240478515625000e+01 -8.098054885864257812e+00 -5.966247916221618652e-01 1.015617251396179199e-01 -1.485189199447631836e-01 -7.347220182418823242e-01
3.620000000000000000e+03 7.549513816833496094e+00 7.146928310394287109e+00 1.705833710730075836e-04 -9.886077896226197481e-05 2.151677654183004051e-05 3.300283060525543988e-05
3.621000000000000000e+03 1.321505928039550781e+01 -5.821249485015869141e+00 -1.120903715491294861e-01 -2.000819742679595947e-01 -9.365170449018478394e-02 -1.867426782846450806e-01
3.622000000000000000e+03 6.945894241333007812e+00 7.606012344360351562e+00 3.438306521275080740e-05 -6.458045390900224447e-05 -9.059216608875431120e-06 -6.280168599914759398e-05
3.623000000000000000e+03 3.624434661865234375e+01 -4.379069805145263672e+00 -1.539592623710632324e+00 7.552888989448547363e-01 -2.352911233901977539e-01 1.536492705345153809e-01
3.624000000000000000e+03 3.619631958007812500e+01 -5.907808303833007812e+00 -5.901173949241638184e-01 6.950773596763610840e-01 3.148799762129783630e-02 -3.145411312580108643e-01
3.625000000000000000e+03 7.496673583984375000e+00 1.635011672973632812e+01 -3.838805423583835363e-04 -6.810682825744152069e-04 -3.194846503902226686e-04 -1.514319155830889940e-04
3.626000000000000000e+03 3.612872695922851562e+01 -5.161800384521484375e+00 -1.006905913352966309e+00 7.109364867210388184e-01 -8.879083395004272461e-02 -7.240343093872070312e-02
3.627000000000000000e+03 6.726831912994384766e+00 9.573472976684570312e+00 2.481380361132323742e-04 -1.286361220991238952e-04 3.585057129384949803e-05 -1.041082359733991325e-04
3.628000000000000000e+03 7.635463237762451172e+00 1.030203819274902344e+01 1.991960598388686776e-04 -1.822398480726405978e-04 5.086865257908357307e-06 -4.955254553351551294e-05
3.629000000000000000e+03 6.662593841552734375e+01 -6.544125556945800781e+00 -3.632903695106506348e-01 1.491181105375289917e-01 -6.425167620182037354e-02 -7.113015651702880859e-01
3.630000000000000000e+03 1.285558128356933594e+01 -9.805801391601562500e+00 -2.026757448911666870e-01 -3.585720062255859375e-01 -1.683743298053741455e-01 -1.682741940021514893e-01
3.631000000000000000e+03 6.902336883544921875e+01 1.264437675476074219e+01 5.928620100021362305e-01 1.282248020172119141e+00 5.625329613685607910e-01 -8.013470470905303955e-02
3.632000000000000000e+03 5.950197982788085938e+01 -7.965772628784179688e+00 -5.974880456924438477e-01 6.385607123374938965e-01 1.232180837541818619e-02 2.901173532009124756e-01
3.633000000000000000e+03 1.542535209655761719e+01 -7.912826538085937500e+00 -1.264531016349792480e-01 -3.649066686630249023e-01 -1.474079340696334839e-01 -3.039159476757049561e-01
3.634000000000000000e+03 8.416350364685058594e+00 -1.117737483978271484e+01 -1.690434217453002930e-01 -1.690760254859924316e-01 -1.014358326792716980e-01 -1.190673783421516418e-01
3.635000000000000000e+03 9.595503807067871094e+00 -7.959757328033447266e+00 -1.221602931618690491e-01 -1.624052226543426514e-01 -8.536965399980545044e-02 -7.676953077316284180e-02
3.636000000000000000e+03 1.005250549316406250e+01 -1.363203239440917969e+01 -2.600394785404205322e-01 -2.582677304744720459e-01 -1.554921567440032959e-01 -2.168897241353988647e-01
3.637000000000000000e+03 5.963608551025390625e+01 -6.903069496154785156e+00 -1.570989340543746948e-01 7.358343601226806641e-01 1.736206263303756714e-01 2.877204418182373047e-01
3.638000000000000000e+03 7.144164276123046875e+01 -2.496037721633911133e+00 6.604643538594245911e-03 -7.973542809486389160e-02 -2.193923480808734894e-02 -8.275886774063110352e-01
3.639000000000000000e+03 7.218602752685546875e+01 -3.823308229446411133e+00 -1.069837063550949097e-01 -1.891979426145553589e-01 -8.885449916124343872e-02 -8.171302676200866699e-01
3.640000000000000000e+03 1.464699459075927734e+01 -7.954909324645996094e+00 -1.383894830942153931e-01 -3.420333564281463623e-01 -1.441268473863601685e-01 -2.597294151782989502e-01
3.641000000000000000e+03 7.409962463378906250e+01 1.911917495727539062e+01 2.023534327745437622e-01 -9.499239325523376465e-01 -2.242711484432220459e-01 3.822433352470397949e-01
3.642000000000000000e+03 6.087775421142578125e+01 -8.744523048400878906e+00 -9.078056216239929199e-01 3.480603098869323730e-01 -1.679235845804214478e-01 5.790175870060920715e-02
3.643000000000000000e+03 8.612023353576660156e+00 -1.573583316802978516e+01 -1.632931232452392578e-01 -2.336807399988174438e-01 -1.190921589732170105e-01 -2.755880951881408691e-01
3.644000000000000000e+03 6.933836364746093750e+01 5.625458717346191406e+00 4.628774523735046387e-01 7.972139120101928711e-01 3.780274093151092529e-01 -4.184468090534210205e-01
3.645000000000000000e+03 8.967185974121093750e+00 -1.191635894775390625e+01 -1.967206150293350220e-01 -1.960292160511016846e-01 -1.178249493241310120e-01 -1.464677900075912476e-01
3.646000000000000000e+03 7.092973327636718750e+01 1.792007255554199219e+01 4.614064395427703857e-01 3.411520719528198242e-01 2.407675534486770630e-01 3.043611943721771240e-01
3.647000000000000000e+03 7.048760414123535156e+00 -1.747577285766601562e+01 -7.747250050306320190e-02 -2.488228529691696167e-01 -9.788860380649566650e-02 -2.827403545379638672e-01
3.648000000000000000e+03 7.250130462646484375e+01 -8.938196182250976562e+00 -4.413988590240478516e-01 1.071143080480396748e-03 -1.320983171463012695e-01 -5.898551940917968750e-01
3.649000000000000000e+03 7.242411804199218750e+01 -8.089693069458007812e+00 -3.582291901111602783e-01 -5.170083791017532349e-02 -1.229790076613426208e-01 -6.477696299552917480e-01
3.650000000000000000e+03 7.430858612060546875e+01 -2.906928634643554688e+01 -1.882084412500262260e-03 -8.398346835747361183e-04 -8.165757171809673309e-04 1.755922799929976463e-03
3.651000000000000000e+03 7.387489318847656250e+01 -2.249391365051269531e+01 -2.392494352534413338e-04 -1.792759285308420658e-04 -1.255576062249019742e-04 -3.255222691223025322e-05
3.652000000000000000e+03 7.298059082031250000e+01 -2.279632377624511719e+01 -4.217693931423127651e-04 -3.988942480646073818e-04 -2.461990807205438614e-04 -3.192538497387431562e-05
3.653000000000000000e+03 6.628807830810546875e+01 5.384511947631835938e+00 5.905124545097351074e-01 1.876001954078674316e+00 7.399543523788452148e-01 -8.123864233493804932e-02
3.654000000000000000e+03 6.392014312744140625e+01 -4.337476253509521484e+00 9.203154593706130981e-02 5.974062681198120117e-01 2.068313360214233398e-01 -2.353271692991256714e-01
3.655000000000000000e+03 6.354719924926757812e+01 -5.978899002075195312e+00 -1.557448059320449829e-01 3.561470508575439453e-01 6.012067198753356934e-02 -2.582283020019531250e-01
3.656000000000000000e+03 7.233186340332031250e+01 3.125330448150634766e+00 2.254176437854766846e-01 -2.844115793704986572e-01 -1.769818365573883057e-02 -6.567002534866333008e-01
3.657000000000000000e+03 7.294814300537109375e+01 2.347327947616577148e+00 1.696663945913314819e-01 -4.504949152469635010e-01 -8.424855023622512817e-02 -6.934658885002136230e-01
3.658000000000000000e+03 7.494003295898437500e+00 -1.911460876464843750e+01 -2.882706560194492340e-02 -2.923542261123657227e-01 -9.635438024997711182e-02 -3.150780200958251953e-01
3.659000000000000000e+03 7.599191665649414062e+00 -1.175534057617187500e+01 -1.555997729301452637e-01 -1.531604528427124023e-01 -9.262806922197341919e-02 -1.273988336324691772e-01
3.660000000000000000e+03 6.292932987213134766e+00 8.165006637573242188e+00 1.996732462430372834e-04 -1.167585578514263034e-04 2.487440724507905543e-05 -2.098330878652632236e-05
3.661000000000000000e+03 7.121932220458984375e+01 1.350484788417816162e-02 1.367323547601699829e-01 -1.160492654889822006e-02 3.753823041915893555e-02 -7.667763829231262207e-01
3.662000000000000000e+03 7.073621368408203125e+01 -1.587835311889648438e+00 5.944420024752616882e-02 4.006805643439292908e-02 2.985367737710475922e-02 -8.024400472640991211e-01
3.663000000000000000e+03 6.354291152954101562e+01 9.093986451625823975e-02 5.093023777008056641e-01 1.542759776115417480e+00 6.156186461448669434e-01 1.584143638610839844e-01
3.664000000000000000e+03 7.235410308837890625e+01 -7.193903446197509766e+00 -3.483662903308868408e-01 -5.722542852163314819e-02 -1.216775178909301758e-01 -7.176143527030944824e-01
3.665000000000000000e+03 4.175900650024414062e+01 2.023071098327636719e+01 -5.040975660085678101e-02 4.265038296580314636e-02 -2.327811438590288162e-03 4.130099900066852570e-03
3.666000000000000000e+03 6.264593887329101562e+01 -7.628813385963439941e-01 5.765739083290100098e-01 1.499508142471313477e+00 6.228246092796325684e-01 3.335556387901306152e-01
3.667000000000000000e+03 3.804775238037109375e+01 1.879227066040039062e+01 -5.015253275632858276e-02 3.032458573579788208e-02 -5.948383826762437820e-03 1.480500400066375732e-02
3.668000000000000000e+03 3.444012069702148438e+01 1.752195549011230469e+01 -4.154361039400100708e-02 4.544040653854608536e-03 -1.109987031668424606e-02 2.673461101949214935e-02
3.669000000000000000e+03 1.128533267974853516e+01 -1.034826850891113281e+01 -2.128616422414779663e-01 -2.684933245182037354e-01 -1.444064825773239136e-01 -1.374250203371047974e-01
3.670000000000000000e+03 7.741006851196289062e+00 3.073433876037597656e+01 -7.811936666257679462e-04 -6.740345619618892670e-03 -2.256461884826421738e-03 8.560401387512683868e-03
3.671000000000000000e+03 7.394161701202392578e+00 2.918917274475097656e+01 -2.597169950604438782e-03 -5.249405279755592346e-03 -2.353972522541880608e-03 7.421396207064390182e-03
3.672000000000000000e+03 7.233515930175781250e+01 -2.857090950012207031e+00 -3.397010266780853271e-02 -2.317236512899398804e-01 -7.970812916755676270e-02 -8.323845267295837402e-01
3.673000000000000000e+03 4.243626022338867188e+01 2.463182258605957031e+01 1.599976606667041779e-02 5.547139421105384827e-02 2.144134789705276489e-02 -1.444580033421516418e-02
3.674000000000000000e+03 4.178524780273437500e+01 2.321254539489746094e+01 -1.078665256500244141e-02 4.900985956192016602e-02 1.146696228533983231e-02 1.201306353323161602e-03
3.675000000000000000e+03 4.795434570312500000e+01 2.188989067077636719e+01 -4.334633704274892807e-03 1.800359692424535751e-03 -7.602822151966392994e-04 -3.020282275974750519e-02
3.676000000000000000e+03 4.725139617919921875e+01 2.649343299865722656e+01 1.107018515467643738e-01 8.935938030481338501e-02 6.001836806535720825e-02 -1.110254451632499695e-01
3.677000000000000000e+03 1.210643482208251953e+01 -2.746505928039550781e+01 1.947916746139526367e-01 -1.783121228218078613e-01 4.943862557411193848e-03 -1.562287509441375732e-01
3.678000000000000000e+03 8.880644798278808594e+00 -2.825013732910156250e+01 1.263498067855834961e-01 -3.427819609642028809e-01 -6.492964923381805420e-02 -1.575129330158233643e-01
3.679000000000000000e+03 6.985368347167968750e+01 2.417905998229980469e+01 8.238203823566436768e-02 5.837108492851257324e-01 1.998278647661209106e-01 6.033709645271301270e-01
3.680000000000000000e+03 6.560194396972656250e+01 2.499874687194824219e+01 -8.518799394369125366e-02 1.716682910919189453e+00 4.894484579563140869e-01 2.631316781044006348e-01
3.681000000000000000e+03 8.569407463073730469e+00 -2.347671508789062500e+01 1.132713183760643005e-01 -3.457462489604949951e-01 -6.974247843027114868e-02 -2.729288339614868164e-01
3.682000000000000000e+03 6.253601455688476562e+01 -6.542780876159667969e+00 -2.525627911090850830e-01 3.773049712181091309e-01 3.742265701293945312e-02 -9.869790077209472656e-02
3.683000000000000000e+03 6.970257568359375000e+01 9.809460639953613281e+00 4.936224818229675293e-01 8.286546468734741211e-01 3.966831266880035400e-01 -2.291552871465682983e-01
3.684000000000000000e+03 6.918881225585937500e+01 1.093417358398437500e+01 5.239591598510742188e-01 1.098495721817016602e+00 4.867364466190338135e-01 -1.582052558660507202e-01
3.685000000000000000e+03 6.986828613281250000e+01 1.560892200469970703e+01 6.181449890136718750e-01 8.356220722198486328e-01 4.361301064491271973e-01 1.086077392101287842e-01
3.686000000000000000e+03 6.962041473388671875e+01 -2.727753639221191406e+01 -3.618267364799976349e-03 3.386193711776286364e-04 -9.838944533839821815e-04 3.390458587091416121e-04
3.687000000000000000e+03 7.062447357177734375e+01 -2.983761024475097656e+01 -4.400394391268491745e-03 -6.003492308082059026e-05 -1.338128815405070782e-03 3.336054505780339241e-03
3.688000000000000000e+03 3.880651855468750000e+01 1.969473075866699219e+01 -5.592593550682067871e-02 3.415185585618019104e-02 -6.532223895192146301e-03 1.738274283707141876e-02
3.689000000000000000e+03 7.676999568939208984e+00 -2.631160354614257812e+01 1.062174737453460693e-01 -3.865737617015838623e-01 -8.410688489675521851e-02 -1.991491913795471191e-01
3.690000000000000000e+03 7.298124694824218750e+01 5.469792366027832031e+00 2.454317212104797363e-01 -4.920792877674102783e-01 -7.399427145719528198e-02 -5.375713109970092773e-01
3.691000000000000000e+03 7.305331420898437500e+01 6.768932819366455078e+00 2.443101108074188232e-01 -5.245450735092163086e-01 -8.407048881053924561e-02 -4.543417394161224365e-01
3.692000000000000000e+03 4.657786178588867188e+01 2.451702880859375000e+01 7.249814271926879883e-02 4.501265287399291992e-02 3.525323793292045593e-02 -4.927312210202217102e-02
3.693000000000000000e+03 4.915507507324218750e+01 2.265377044677734375e+01 4.187962785363197327e-02 -8.558109402656555176e-04 1.230714563280344009e-02 -4.574392735958099365e-02
3.694000000000000000e+03 7.179474639892578125e+01 2.497312164306640625e+01 -2.974093367811292410e-04 7.285384461283683777e-03 2.096392447128891945e-03 6.253014206886291504e-01
3.695000000000000000e+03 1.780383682250976562e+01 -3.198609161376953125e+01 2.030693441629409790e-01 1.120104789733886719e-01 9.452395141124725342e-02 -1.118639037013053894e-01
3.696000000000000000e+03 4.789158630371093750e+01 2.507948303222656250e+01 1.145933195948600769e-01 5.894361436367034912e-02 5.206108093261718750e-02 -9.552615880966186523e-02
3.697000000000000000e+03 4.834418106079101562e+01 2.383348846435546875e+01 9.673818200826644897e-02 2.022256329655647278e-02 3.508822247385978699e-02 -6.284340471029281616e-02
3.698000000000000000e+03 2.948110389709472656e+01 -3.440410375595092773e+00 -1.486210823059082031e+00 3.211125135421752930e-01 -3.495295047760009766e-01 -4.892720580101013184e-01
3.699000000000000000e+03 2.834667015075683594e+01 -3.035810470581054688e+00 -1.591073989868164062e+00 9.788184612989425659e-02 -4.479576349258422852e-01 -5.901843309402465820e-01
3.700000000000000000e+03 2.949417304992675781e+01 -4.779061317443847656e+00 -4.109672307968139648e-01 4.858244359493255615e-01 2.245716191828250885e-02 -6.544600725173950195e-01
3.701000000000000000e+03 1.638674354553222656e+01 6.814541339874267578e+00 -3.572883724700659513e-05 1.287254508497426286e-05 -6.856887466710759327e-06 1.176612840936286375e-05
3.702000000000000000e+03 4.456165695190429688e+01 -1.052964401245117188e+01 1.627437710762023926e+00 -5.868549942970275879e-01 3.121748268604278564e-01 1.262895107269287109e+00
3.703000000000000000e+03 4.547172164916992188e+01 -1.163902854919433594e+01 1.549433231353759766e+00 -6.094832420349121094e-01 2.819849848747253418e-01 8.687518835067749023e-01
3.704000000000000000e+03 3.619309997558593750e+01 1.319943237304687500e+01 -1.934774033725261688e-02 2.394848968833684921e-03 -5.085867829620838165e-03 7.426040712743997574e-03
3.705000000000000000e+03 1.246402072906494141e+01 1.176451015472412109e+01 -3.100140384049154818e-05 9.135797881754115224e-05 1.810697176551911980e-05 2.906631270889192820e-04
3.706000000000000000e+03 1.276513004302978516e+01 2.298720550537109375e+01 -1.112319994717836380e-02 1.099894521757960320e-03 -3.006991697475314140e-03 3.723945003002882004e-03
3.707000000000000000e+03 1.240899753570556641e+01 2.246487045288085938e+01 -9.078027680516242981e-03 1.092384220100939274e-03 -2.395693212747573853e-03 2.262507332488894463e-03
3.708000000000000000e+03 1.362346363067626953e+01 9.973114967346191406e+00 -1.144859052146784961e-04 1.503914681961759925e-04 1.077166689356090501e-05 1.126315983128733933e-04
3.709000000000000000e+03 1.530533790588378906e+01 8.503113746643066406e+00 5.499506005435250700e-05 1.080465372069738805e-04 4.891247954219579697e-05 2.502277129678986967e-05
3.710000000000000000e+03 1.455969047546386719e+01 6.075079917907714844e+00 3.438165367697365582e-05 4.363618791103363037e-05 2.340535320399794728e-05 5.011541816202225164e-06
3.711000000000000000e+03 1.421946239471435547e+01 9.170016288757324219e+00 -9.121754555962979794e-05 9.877244156086817384e-05 2.266468072775751352e-06 5.701112240785732865e-05
3.712000000000000000e+03 3.100532913208007812e+01 -4.136864662170410156e+00 -1.064254879951477051e+00 3.745492100715637207e-01 -2.069116979837417603e-01 -3.663815557956695557e-01
3.713000000000000000e+03 3.051018905639648438e+01 -5.062064647674560547e+00 -3.404504656791687012e-01 5.955165028572082520e-01 7.651980966329574585e-02 -4.047014713287353516e-01
3.714000000000000000e+03 3.518587112426757812e+01 1.366763591766357422e+01 -1.810584403574466705e-02 2.577635750640183687e-04 -5.354424007236957550e-03 1.121912896633148193e-02
3.715000000000000000e+03 3.586971664428710938e+01 1.404429721832275391e+01 -2.354852296411991119e-02 3.465449204668402672e-03 -6.024921778589487076e-03 1.204432733356952667e-02
3.716000000000000000e+03 1.140284824371337891e+01 1.253718948364257812e+01 2.505704760551452637e-04 -9.155120642390102148e-05 4.770578379975631833e-05 2.109367051161825657e-04
3.717000000000000000e+03 2.736571884155273438e+01 -3.723310947418212891e+00 -9.623157382011413574e-01 -1.128815580159425735e-03 -2.890333533287048340e-01 -7.719993591308593750e-01
3.718000000000000000e+03 1.116842555999755859e+01 1.504768085479736328e+01 2.277504681842401624e-04 -2.900999388657510281e-04 -1.870483720267657191e-05 2.062719286186620593e-04
3.719000000000000000e+03 1.136921501159667969e+01 1.550956153869628906e+01 3.562265192158520222e-05 -4.422665515448898077e-04 -1.219931727973744273e-04 4.551028832793235779e-04
3.720000000000000000e+03 1.643047523498535156e+01 7.128682613372802734e+00 1.270270786335458979e-05 4.310385702410712838e-05 1.674196937528904527e-05 -1.219955447595566511e-05
3.721000000000000000e+03 1.590458393096923828e+01 7.798212528228759766e+00 2.931374729087110609e-05 4.187513695796951652e-05 2.135666545655112714e-05 4.598438317771069705e-05
3.722000000000000000e+03 3.396189117431640625e+01 1.604521179199218750e+01 -2.661084383726119995e-02 -5.356593988835811615e-03 -9.590231813490390778e-03 2.391942963004112244e-02
3.723000000000000000e+03 2.757862281799316406e+01 -4.773657321929931641e+00 -3.079982697963714600e-01 1.469110846519470215e-01 -4.832615330815315247e-02 -8.815807104110717773e-01
3.724000000000000000e+03 2.843046760559082031e+01 -5.041844844818115234e+00 -2.314445823431015015e-01 3.486489951610565186e-01 3.516132384538650513e-02 -8.043367862701416016e-01
3.725000000000000000e+03 3.340694427490234375e+01 1.928102874755859375e+01 -5.486714467406272888e-02 7.123939576558768749e-04 -1.624642498791217804e-02 3.340485319495201111e-02
3.726000000000000000e+03 3.450788497924804688e+01 1.123598861694335938e+01 -4.954890348017215729e-03 -1.034100889228284359e-03 -1.796697382815182209e-03 2.588252536952495575e-03
3.727000000000000000e+03 3.117166137695312500e+01 -3.202054500579833984e+00 -1.779342651367187500e+00 2.786583900451660156e-01 -4.502052962779998779e-01 -3.350484073162078857e-01
3.728000000000000000e+03 3.035230445861816406e+01 -3.499742984771728516e+00 -1.577025294303894043e+00 3.425821363925933838e-01 -3.703329563140869141e-01 -3.770400881767272949e-01
3.729000000000000000e+03 1.127639675140380859e+01 1.383626174926757812e+01 9.708698053145781159e-05 -2.115058596245944500e-04 -3.432566154515370727e-05 4.258681146893650293e-04
3.730000000000000000e+03 3.934438323974609375e+01 -1.790817070007324219e+01 -6.780661344528198242e-01 2.939536333084106445e+00 6.784410476684570312e-01 5.413393378257751465e-01
3.731000000000000000e+03 1.641913414001464844e+01 6.061760425567626953e+00 -3.881625889334827662e-05 2.047272573690861464e-06 -1.103069553209934384e-05 -1.332320607616566122e-06
3.732000000000000000e+03 1.197022724151611328e+01 1.776065444946289062e+01 -8.038789383135735989e-04 -4.462865472305566072e-04 -3.750496543943881989e-04 2.897304657381027937e-04
3.733000000000000000e+03 1.123597908020019531e+01 1.658474540710449219e+01 -9.262224193662405014e-05 -3.628690610639750957e-04 -1.366473879897966981e-04 1.400207111146301031e-04
3.734000000000000000e+03 4.368362045288085938e+01 -1.162972354888916016e+01 2.395484685897827148e+00 -3.776323795318603516e-01 6.053556799888610840e-01 8.392869234085083008e-01
3.735000000000000000e+03 4.325713348388671875e+01 -1.040831184387207031e+01 1.911295056343078613e+00 1.487622782588005066e-02 5.778513550758361816e-01 1.411010384559631348e+00
3.736000000000000000e+03 1.318748569488525391e+01 9.041784286499023438e+00 1.225256855832412839e-04 6.451158697018399835e-05 5.611118467641063035e-05 7.337917486438527703e-05
3.737000000000000000e+03 1.163677692413330078e+01 1.311040782928466797e+01 6.227674748515710235e-05 -8.291485573863610625e-05 -6.191432021296350285e-06 4.000143089797347784e-04
3.738000000000000000e+03 4.379114151000976562e+01 -1.215497970581054688e+01 2.391804695129394531e+00 -4.120846986770629883e-01 5.939159989356994629e-01 5.141093730926513672e-01
3.739000000000000000e+03 3.416896057128906250e+01 1.942191505432128906e+01 -5.196027457714080811e-02 8.553547784686088562e-03 -1.302201766520738602e-02 3.042129240930080414e-02
3.740000000000000000e+03 1.232942390441894531e+01 2.105831527709960938e+01 -6.310918834060430527e-03 4.274126258678734303e-04 -1.765051856637001038e-03 5.435175844468176365e-04
3.741000000000000000e+03 3.133909225463867188e+01 -4.344664573669433594e+00 -9.153814911842346191e-01 3.622068762779235840e-01 -1.659523844718933105e-01 -2.952831685543060303e-01
3.742000000000000000e+03 3.113970375061035156e+01 -3.700048446655273438e+00 -1.444293975830078125e+00 3.163825273513793945e-01 -3.383734524250030518e-01 -3.215714097023010254e-01
3.743000000000000000e+03 4.592392349243164062e+01 -1.014667224884033203e+01 1.082738041877746582e+00 -6.731950640678405762e-01 1.228628829121589661e-01 1.405385136604309082e+00
3.744000000000000000e+03 1.187224388122558594e+01 2.009456062316894531e+01 -3.817728487774729729e-03 -1.738625869620591402e-04 -1.197477336972951889e-03 1.473329848522553220e-05
3.745000000000000000e+03 1.190068435668945312e+01 1.822785949707031250e+01 -6.515929708257317543e-04 -3.370479098521173000e-04 -2.965922758448868990e-04 -1.712935045361518860e-04
3.746000000000000000e+03 1.244462776184082031e+01 1.863325881958007812e+01 -9.435396059416234493e-04 -9.848318586591631174e-05 -3.126068331766873598e-04 -2.054055948974564672e-04
3.747000000000000000e+03 1.166256332397460938e+01 2.135462760925292969e+01 -5.599406547844409943e-03 3.080030146520584822e-04 -1.587421051226556301e-03 6.494788685813546181e-04
3.748000000000000000e+03 1.252879142761230469e+01 2.033839225769042969e+01 -4.587230738252401352e-03 7.497150363633409142e-05 -1.353677827864885330e-03 -9.347357990918681026e-05
3.749000000000000000e+03 1.092748165130615234e+01 1.456113624572753906e+01 1.067893972503952682e-04 -3.755891229957342148e-04 -8.063991845119744539e-05 4.193295026198029518e-04
3.750000000000000000e+03 2.935770988464355469e+01 -5.297040462493896484e+00 -3.548962995409965515e-02 5.391795635223388672e-01 1.511069834232330322e-01 -7.492999434471130371e-01
3.751000000000000000e+03 1.184571075439453125e+01 1.182640647888183594e+01 2.168588835047557950e-04 -1.445803945898660459e-06 6.462392775574699044e-05 2.065613225568085909e-04
3.752000000000000000e+03 3.564137268066406250e+01 1.581347084045410156e+01 -3.329765424132347107e-02 5.508162081241607666e-03 -8.336847648024559021e-03 1.956973783671855927e-02
3.753000000000000000e+03 3.058350181579589844e+01 2.475286483764648438e+01 -3.347268700599670410e-02 -1.701045408844947815e-02 -1.514494232833385468e-02 1.619301922619342804e-02
3.754000000000000000e+03 2.432567596435546875e+01 2.537737274169921875e+01 -4.070267081260681152e-02 -2.240141667425632477e-02 -1.893122680485248566e-02 3.022651560604572296e-02
3.755000000000000000e+03 1.837946510314941406e+01 2.541845321655273438e+01 -2.705543860793113708e-02 -4.356334917247295380e-03 -9.423531591892242432e-03 1.871041581034660339e-02
3.756000000000000000e+03 2.260937690734863281e+01 2.674383354187011719e+01 -2.378054521977901459e-02 -1.815008372068405151e-02 -1.257918868213891983e-02 2.765950746834278107e-02
3.757000000000000000e+03 2.128180122375488281e+01 2.629519844055175781e+01 -2.631675079464912415e-02 -1.467221975326538086e-02 -1.229669153690338135e-02 2.643215283751487732e-02
3.758000000000000000e+03 1.650490760803222656e+01 5.648816585540771484e+00 4.088879722985439003e-05 3.907924110535532236e-05 2.399041113676503301e-05 7.990616722963750362e-06
3.759000000000000000e+03 1.379009056091308594e+01 7.001275062561035156e+00 -4.637824895326048136e-05 4.026409078505821526e-05 -1.834247996157500893e-06 8.614828402642160654e-05
3.760000000000000000e+03 1.521209526062011719e+01 6.011431694030761719e+00 -2.667606895556673408e-05 1.558559779368806630e-05 -3.327141712361481041e-06 3.349179314682260156e-05
3.761000000000000000e+03 2.335351943969726562e+01 2.939424133300781250e+01 -2.024650573730468750e-03 -1.902050338685512543e-02 -6.313546095043420792e-03 2.703137882053852081e-02
3.762000000000000000e+03 4.201232147216796875e+01 -9.429091453552246094e+00 1.034781813621520996e+00 1.117056369781494141e+00 6.455514430999755859e-01 1.384030222892761230e+00
3.763000000000000000e+03 3.886565780639648438e+01 -1.835869026184082031e+01 -5.743375420570373535e-01 2.696852922439575195e+00 6.367546319961547852e-01 7.866652607917785645e-01
3.764000000000000000e+03 4.675705718994140625e+01 -1.090239524841308594e+01 1.004719376564025879e+00 -6.045228242874145508e-01 1.200589463114738464e-01 1.221866369247436523e+00
3.765000000000000000e+03 1.429887962341308594e+01 2.310860252380371094e+01 -1.516012847423553467e-02 1.796757453121244907e-03 -4.009011201560497284e-03 4.735143389552831650e-03
3.766000000000000000e+03 1.406521701812744141e+01 2.464073753356933594e+01 -1.495800912380218506e-02 3.628957492765039206e-04 -4.378533922135829926e-03 8.995813317596912384e-03
3.767000000000000000e+03 1.528693866729736328e+01 6.565791130065917969e+00 1.973386679310351610e-05 3.760804247576743364e-05 1.720257205306552351e-05 3.696745665138223558e-08
3.768000000000000000e+03 1.583353233337402344e+01 6.002011299133300781e+00 3.702985850395634770e-05 3.951152757508680224e-05 2.296241473231930286e-05 8.882219844963401556e-06
3.769000000000000000e+03 4.328936386108398438e+01 -9.502530097961425781e+00 1.164555072784423828e+00 1.081531271338462830e-01 3.818124532699584961e-01 1.504933595657348633e+00
3.770000000000000000e+03 3.434862899780273438e+01 1.493104839324951172e+01 -2.268510870635509491e-02 -1.937459572218358517e-03 -7.386770099401473999e-03 1.826876588165760040e-02
3.771000000000000000e+03 2.884421920776367188e+01 2.591176795959472656e+01 -2.340068481862545013e-02 -2.472353912889957428e-02 -1.443726662546396255e-02 2.073764614760875702e-02
3.772000000000000000e+03 2.495478057861328125e+01 2.496315574645996094e+01 -4.528627917170524597e-02 -2.250876463949680328e-02 -2.033851295709609985e-02 3.130344301462173462e-02
3.773000000000000000e+03 3.658168792724609375e+01 1.886653327941894531e+01 -4.906726256012916565e-02 2.342363074421882629e-02 -7.693090010434389114e-03 2.042888291180133820e-02
3.774000000000000000e+03 3.404430007934570312e+01 1.661531829833984375e+01 -3.621883317828178406e-02 -4.672553623095154762e-04 -1.100582629442214966e-02 2.606191672384738922e-02
3.775000000000000000e+03 4.026093673706054688e+01 -1.943632125854492188e+01 -3.091110289096832275e-01 2.055306673049926758e+00 5.238587260246276855e-01 2.887934446334838867e-01
3.776000000000000000e+03 1.349664115905761719e+01 2.382194900512695312e+01 -1.358688808977603912e-02 1.190823735669255257e-03 -3.718819236382842064e-03 6.265450734645128250e-03
3.777000000000000000e+03 1.158441543579101562e+01 6.592401027679443359e+00 5.824579056934453547e-05 3.500161983538419008e-05 2.797422166622709483e-05 2.924329783127177507e-05
3.778000000000000000e+03 3.247830200195312500e+01 2.263625526428222656e+01 -5.164653435349464417e-02 -2.291493583470582962e-03 -1.618140935897827148e-02 1.915385201573371887e-02
3.779000000000000000e+03 3.524636077880859375e+01 1.262232685089111328e+01 -1.266079023480415344e-02 -8.185418118955567479e-05 -3.822793485596776009e-03 6.628646049648523331e-03
3.780000000000000000e+03 4.411952590942382812e+01 -9.725884437561035156e+00 1.232052683830261230e+00 -3.760562837123870850e-01 2.567989230155944824e-01 1.494607210159301758e+00
3.781000000000000000e+03 4.360759735107421875e+01 -9.934534072875976562e+00 1.450784802436828613e+00 -1.191063001751899719e-01 3.995035588741302490e-01 1.476838350296020508e+00
3.782000000000000000e+03 1.198894500732421875e+01 -7.383870124816894531e+00 -1.295589953660964966e-01 -2.351297885179519653e-01 -1.094066351652145386e-01 -1.395309567451477051e-01
3.783000000000000000e+03 1.388437175750732422e+01 -8.029442787170410156e+00 -1.397104859352111816e-01 -3.355771899223327637e-01 -1.425863057374954224e-01 -2.207136154174804688e-01
3.784000000000000000e+03 1.206246757507324219e+01 2.057204437255859375e+01 -4.459574818611145020e-03 2.883918932639062405e-04 -1.251354813575744629e-03 -1.677631516940891743e-04
3.785000000000000000e+03 1.422325992584228516e+01 2.385355758666992188e+01 -1.569190062582492828e-02 1.187048968859016895e-03 -4.351455718278884888e-03 7.027601823210716248e-03
3.786000000000000000e+03 8.055960655212402344e+00 7.691952705383300781e+00 2.985070022987201810e-05 -7.769339572405442595e-05 -1.435280955774942413e-05 -2.656106698850635439e-05
3.787000000000000000e+03 7.525890350341796875e+00 8.170071601867675781e+00 2.358065976295620203e-04 -1.421447232132777572e-04 2.809856414387468249e-05 1.640901973587460816e-05
3.788000000000000000e+03 1.695085334777832031e+01 2.518642234802246094e+01 -2.403116412460803986e-02 -1.392153091728687286e-03 -7.626994978636503220e-03 1.489592716097831726e-02
3.789000000000000000e+03 1.172285938262939453e+01 -9.013299942016601562e+00 -1.712568551301956177e-01 -2.665939033031463623e-01 -1.313552260398864746e-01 -1.329987943172454834e-01
3.790000000000000000e+03 6.984819412231445312e+00 8.761646270751953125e+00 -1.384885399602353573e-05 -9.203050285577774048e-05 -3.176380778313614428e-05 -2.724301521084271371e-05
3.791000000000000000e+03 7.644596576690673828e+00 9.102602005004882812e+00 2.894251083489507437e-04 -1.843568752519786358e-04 3.152047065668739378e-05 -5.133828744874335825e-05
3.792000000000000000e+03 3.740481567382812500e+01 1.558551788330078125e+01 -3.942221775650978088e-02 1.610183902084827423e-02 -6.996113806962966919e-03 1.126886717975139618e-02
3.793000000000000000e+03 3.384621429443359375e+01 1.894550514221191406e+01 -5.415146797895431519e-02 4.469663370400667191e-03 -1.490454189479351044e-02 3.119546733796596527e-02
3.794000000000000000e+03 7.887665271759033203e+00 1.579643726348876953e+01 1.095616680686362088e-04 -7.507818518206477165e-04 -1.923660602187737823e-04 1.019435239868471399e-05
3.795000000000000000e+03 1.008208751678466797e+01 1.701752281188964844e+01 -2.247449738206341863e-04 -6.686840788461267948e-04 -2.680287288967519999e-04 -4.603797788149677217e-05
3.796000000000000000e+03 1.169859218597412109e+01 1.636155128479003906e+01 -3.154993100906722248e-05 -4.675105737987905741e-04 -1.497181510785594583e-04 3.904864424839615822e-04
3.797000000000000000e+03 1.143284130096435547e+01 1.768317794799804688e+01 -3.898625727742910385e-04 -6.387226167134940624e-04 -3.085755452048033476e-04 1.190736948046833277e-04
3.798000000000000000e+03 3.341550445556640625e+01 2.245098304748535156e+01 -5.237233638763427734e-02 8.699947036802768707e-03 -1.310171745717525482e-02 1.802888326346874237e-02
3.799000000000000000e+03 7.122327423095703125e+01 -8.746124267578125000e+00 -5.023449659347534180e-01 5.317436158657073975e-02 -1.347511857748031616e-01 -6.579797863960266113e-01
3.800000000000000000e+03 3.373331832885742188e+01 1.977685546875000000e+01 -5.757884308695793152e-02 4.692568909376859665e-03 -1.586588285863399506e-02 3.003603778779506683e-02
3.801000000000000000e+03 3.428886413574218750e+01 1.997654342651367188e+01 -5.605844408273696899e-02 1.211490109562873840e-02 -1.318306289613246918e-02 2.686030231416225433e-02
3.802000000000000000e+03 3.023004531860351562e+01 2.623860931396484375e+01 -1.706886850297451019e-02 -1.664704084396362305e-02 -1.011477317661046982e-02 1.694842986762523651e-02
3.803000000000000000e+03 7.807744979858398438e+00 1.476283073425292969e+01 1.448041293770074844e-04 -6.021755980327725410e-04 -1.372114347759634256e-04 5.664254058501683176e-05
3.804000000000000000e+03 7.242321491241455078e+00 1.526887321472167969e+01 -9.569830581312999129e-05 -5.831617163494229317e-04 -2.036580117419362068e-04 -2.229691017419099808e-04
3.805000000000000000e+03 7.197214603424072266e+00 -8.364836692810058594e+00 -9.317880868911743164e-02 -9.618005901575088501e-02 -5.680765956640243530e-02 -3.930243104696273804e-02
3.806000000000000000e+03 1.267950439453125000e+01 7.200565814971923828e+00 8.163247548509389162e-05 5.380516813602298498e-05 4.063129381393082440e-05 6.692571332678198814e-05
3.807000000000000000e+03 1.325551605224609375e+01 6.140827178955078125e+00 4.287214687792584300e-05 1.724918547552078962e-05 1.803640043362975121e-05 2.675058749446179718e-05
3.808000000000000000e+03 4.489068603515625000e+01 -1.025218582153320312e+01 1.388042092323303223e+00 -6.315194368362426758e-01 2.269567698240280151e-01 1.374848961830139160e+00
3.809000000000000000e+03 6.347406387329101562e+01 -1.704935193061828613e+00 4.089674651622772217e-01 1.143058776855468750e+00 4.656078815460205078e-01 2.364431507885456085e-02
3.810000000000000000e+03 8.606423377990722656e+00 1.806489753723144531e+01 -1.117948209866881371e-03 -9.499768493697047234e-04 -6.203775410540401936e-04 1.356766151729971170e-04
3.811000000000000000e+03 2.626609039306640625e+01 2.627981376647949219e+01 -2.507359348237514496e-02 -2.506612986326217651e-02 -1.504191663116216660e-02 2.778083458542823792e-02
3.812000000000000000e+03 2.031624412536621094e+01 2.657403564453125000e+01 -2.468313649296760559e-02 -1.144501287490129471e-02 -1.083844527602195740e-02 2.512765303254127502e-02
3.813000000000000000e+03 1.858798599243164062e+01 2.614031600952148438e+01 -2.267336286604404449e-02 -6.230395287275314331e-03 -8.671127259731292725e-03 2.112478390336036682e-02
3.814000000000000000e+03 7.840788364410400391e+00 -9.167737007141113281e+00 -1.171688511967658997e-01 -1.267363876104354858e-01 -7.317157089710235596e-02 -6.586475670337677002e-02
3.815000000000000000e+03 1.888078498840332031e+01 2.526443290710449219e+01 -2.943204902112483978e-02 -4.958255216479301453e-03 -1.031709089875221252e-02 1.903188414871692657e-02
3.816000000000000000e+03 1.784521675109863281e+01 2.519387817382812500e+01 -2.539156936109066010e-02 -3.493374213576316833e-03 -8.665483444929122925e-03 1.712762750685214996e-02
3.817000000000000000e+03 7.801537513732910156e+00 1.794932556152343750e+01 -6.139582255855202675e-04 -7.256835815496742725e-04 -4.018925537820905447e-04 -3.828426997642964125e-05
3.818000000000000000e+03 7.714491844177246094e+00 1.944853019714355469e+01 -1.446643262170255184e-03 -7.035123417153954506e-04 -6.450466462410986423e-04 3.456415433902293444e-04
3.819000000000000000e+03 6.568717193603515625e+01 -3.014166116714477539e+00 1.592709124088287354e-01 6.223798990249633789e-01 2.344952523708343506e-01 -4.443180263042449951e-01
3.820000000000000000e+03 6.439537048339843750e+01 -9.425271749496459961e-01 4.221009612083435059e-01 1.149044990539550781e+00 4.713437855243682861e-01 -8.568126708269119263e-02
3.821000000000000000e+03 7.114297485351562500e+01 -5.751773834228515625e+00 -2.411570399999618530e-01 -3.918961063027381897e-02 -8.410399407148361206e-02 -8.164636492729187012e-01
3.822000000000000000e+03 7.207030487060546875e+01 -4.835917472839355469e+00 -1.496692150831222534e-01 -1.417824327945709229e-01 -8.743549138307571411e-02 -8.246958851814270020e-01
3.823000000000000000e+03 7.991733074188232422e+00 2.658559417724609375e+01 -3.663723357021808624e-03 -2.921028295531868935e-03 -1.975425519049167633e-03 6.373997777700424194e-03
3.824000000000000000e+03 7.395957469940185547e+00 1.222006797790527344e+01 1.191441333503462374e-04 -3.514356794767081738e-04 -6.968746311031281948e-05 -3.813616331171942875e-06
3.825000000000000000e+03 4.819060516357421875e+01 -1.096522140502929688e+01 5.529128909111022949e-01 -3.490642309188842773e-01 6.115459278225898743e-02 1.249204158782958984e+00
3.826000000000000000e+03 3.731821060180664062e+01 1.803033828735351562e+01 -5.270097404718399048e-02 2.356062270700931549e-02 -8.742105215787887573e-03 2.040182240307331085e-02
3.827000000000000000e+03 3.453566360473632812e+01 1.652045631408691406e+01 -3.355445340275764465e-02 1.291985972784459591e-03 -9.678740054368972778e-03 2.387727424502372742e-02
3.828000000000000000e+03 6.741907501220703125e+01 6.025182723999023438e+00 5.326768159866333008e-01 1.475797414779663086e+00 6.025422811508178711e-01 -2.276423275470733643e-01
3.829000000000000000e+03 6.857375335693359375e+01 8.767241477966308594e+00 5.687008500099182129e-01 1.308182477951049805e+00 5.630649924278259277e-01 -2.326612770557403564e-01
3.830000000000000000e+03 7.199889373779296875e+01 -5.697731018066406250e+00 -2.277855426073074341e-01 -1.104551628232002258e-01 -1.014722138643264771e-01 -7.961358428001403809e-01
3.831000000000000000e+03 1.117107200622558594e+01 -8.134393692016601562e+00 -1.391841173171997070e-01 -2.263865768909454346e-01 -1.096712052822113037e-01 -1.177168264985084534e-01
3.832000000000000000e+03 1.118866729736328125e+01 -6.761520862579345703e+00 -1.083259955048561096e-01 -1.813554614782333374e-01 -8.690443634986877441e-02 -1.080176085233688354e-01
3.833000000000000000e+03 6.877960205078125000e+01 9.654343605041503906e+00 5.386682152748107910e-01 1.272862672805786133e+00 5.434592962265014648e-01 -2.093663215637207031e-01
3.834000000000000000e+03 1.703712272644042969e+01 -6.960127830505371094e+00 -1.089040040969848633e-01 -3.221027553081512451e-01 -1.293020248413085938e-01 -3.898955285549163818e-01
3.835000000000000000e+03 7.146278381347656250e+01 -8.030620574951171875e+00 -4.784786701202392578e-01 3.431031107902526855e-02 -1.332505047321319580e-01 -6.892207264900207520e-01
3.836000000000000000e+03 7.080224609375000000e+01 2.413959741592407227e+00 2.723329365253448486e-01 1.455717682838439941e-01 1.253714114427566528e-01 -6.725057959556579590e-01
3.837000000000000000e+03 6.304229354858398438e+01 -4.952928066253662109e+00 1.552698574960231781e-02 5.798690319061279297e-01 1.786188036203384399e-01 -1.304305940866470337e-01
3.838000000000000000e+03 6.598755645751953125e+01 -5.626504421234130859e+00 -2.381066381931304932e-01 2.375083118677139282e-01 -1.794980635168030858e-04 -6.343654990196228027e-01
3.839000000000000000e+03 6.572839355468750000e+01 -7.377669811248779297e+00 -5.638678669929504395e-01 4.378733783960342407e-02 -1.560241580009460449e-01 -6.616783142089843750e-01
3.840000000000000000e+03 6.913195133209228516e+00 -1.580456161499023438e+01 -1.150360703468322754e-01 -2.033970206975936890e-01 -9.552992880344390869e-02 -2.433924078941345215e-01
3.841000000000000000e+03 8.734238624572753906e+00 -1.315184688568115234e+01 -2.080701738595962524e-01 -2.040078192949295044e-01 -1.236234009265899658e-01 -1.855736225843429565e-01
3.842000000000000000e+03 3.490831756591796875e+01 1.807835006713867188e+01 -5.019120126962661743e-02 1.061225775629281998e-02 -1.187368296086788177e-02 2.823986299335956573e-02
3.843000000000000000e+03 1.050722217559814453e+01 -1.085983848571777344e+01 -2.168888151645660400e-01 -2.479099929332733154e-01 -1.394396424293518066e-01 -1.389099210500717163e-01
3.844000000000000000e+03 9.349704742431640625e+00 -9.282504081726074219e+00 -1.479569822549819946e-01 -1.776119172573089600e-01 -9.767066687345504761e-02 -9.286727011203765869e-02
3.845000000000000000e+03 7.194840240478515625e+01 1.304781317710876465e+00 1.840092986822128296e-01 -1.557263880968093872e-01 8.484876714646816254e-03 -7.388447523117065430e-01
3.846000000000000000e+03 7.011818695068359375e+01 -4.267925322055816650e-01 1.571698933839797974e-01 1.715064346790313721e-01 9.860289841890335083e-02 -7.526126503944396973e-01
3.847000000000000000e+03 6.551117706298828125e+01 1.724680781364440918e+00 4.742793142795562744e-01 1.452494502067565918e+00 5.780321359634399414e-01 -1.342831701040267944e-01
3.848000000000000000e+03 8.115089416503906250e+00 2.348371315002441406e+01 -4.209389910101890564e-03 -1.088603981770575047e-03 -1.589398249052464962e-03 3.222141182050108910e-03
3.849000000000000000e+03 7.160894775390625000e+01 4.513005733489990234e+00 3.107919991016387939e-01 -1.689605787396430969e-02 8.816878497600555420e-02 -5.878277420997619629e-01
3.850000000000000000e+03 7.412483215332031250e+00 2.284140586853027344e+01 -3.421559697017073631e-03 -1.052304869517683983e-03 -1.342159346677362919e-03 2.305819420143961906e-03
3.851000000000000000e+03 4.255090713500976562e+01 2.213917541503906250e+01 -2.105256542563438416e-02 4.800184816122055054e-02 8.084785193204879761e-03 2.256049541756510735e-03
3.852000000000000000e+03 7.181091308593750000e+01 -9.233760833740234375e+00 -5.255675315856933594e-01 5.031500011682510376e-02 -1.425757557153701782e-01 -5.654745697975158691e-01
3.853000000000000000e+03 7.071851348876953125e+01 1.438165092468261719e+01 5.004093647003173828e-01 4.647576808929443359e-01 2.895500957965850830e-01 3.880773857235908508e-02
3.854000000000000000e+03 7.002095794677734375e+01 2.183567810058593750e+01 3.167982399463653564e-01 6.323028206825256348e-01 2.847303152084350586e-01 5.477616190910339355e-01
3.855000000000000000e+03 7.428869724273681641e+00 -2.197971725463867188e+01 6.086061149835586548e-02 -3.478725850582122803e-01 -8.610358834266662598e-02 -2.899790406227111816e-01
3.856000000000000000e+03 8.773512840270996094e+00 -2.223660278320312500e+01 8.602339774370193481e-02 -3.353693485260009766e-01 -7.480379194021224976e-02 -2.990874946117401123e-01
3.857000000000000000e+03 6.912974548339843750e+01 -3.013179969787597656e+01 -6.711955182254314423e-03 1.232731854543089867e-03 -1.643766998313367367e-03 4.013819620013237000e-03
3.858000000000000000e+03 6.142860412597656250e+01 -7.019923686981201172e+00 -3.441976904869079590e-01 4.680584669113159180e-01 3.715822845697402954e-02 3.546985611319541931e-02
3.859000000000000000e+03 8.594179153442382812e+00 2.896166610717773438e+01 -2.583157969638705254e-03 -5.045915488153696060e-03 -2.288721967488527298e-03 8.641549386084079742e-03
3.860000000000000000e+03 6.637967681884765625e+01 2.360785675048828125e+01 2.200088649988174438e-01 1.692674517631530762e+00 5.738050341606140137e-01 4.039784967899322510e-01
3.861000000000000000e+03 4.574439620971679688e+01 2.728215026855468750e+01 9.406810998916625977e-02 9.334574639797210693e-02 5.622415617108345032e-02 -9.204325824975967407e-02
3.862000000000000000e+03 6.176621627807617188e+01 -4.550858974456787109e+00 1.908266097307205200e-01 7.977057099342346191e-01 2.965596914291381836e-01 1.320438683032989502e-01
3.863000000000000000e+03 7.076363372802734375e+01 1.246395206451416016e+01 5.025249123573303223e-01 4.750221073627471924e-01 2.932641208171844482e-01 -9.924840927124023438e-02
3.864000000000000000e+03 7.834340095520019531e+00 -2.077144050598144531e+01 3.303638473153114319e-02 -3.262688815593719482e-01 -8.796975016593933105e-02 -3.133610785007476807e-01
3.865000000000000000e+03 6.855853080749511719e+00 -2.010468101501464844e+01 5.189034156501293182e-03 -3.153308629989624023e-01 -9.304255247116088867e-02 -3.005383312702178955e-01
3.866000000000000000e+03 1.074733734130859375e+01 3.127395248413085938e+01 -1.629440463148057461e-03 -7.896616123616695404e-03 -2.857816871255636215e-03 1.196796167641878128e-02
3.867000000000000000e+03 3.838028717041015625e+01 2.152229690551757812e+01 -4.289293661713600159e-02 3.938864171504974365e-02 -1.051287865266203880e-03 1.652796752750873566e-02
3.868000000000000000e+03 8.147454261779785156e+00 -1.817358398437500000e+01 -7.422986626625061035e-02 -2.790873944759368896e-01 -1.059951782226562500e-01 -3.229825198650360107e-01
3.869000000000000000e+03 7.813056945800781250e+00 -1.658124732971191406e+01 -1.127574369311332703e-01 -2.403250336647033691e-01 -1.059247404336929321e-01 -2.822235524654388428e-01
3.870000000000000000e+03 6.661278533935546875e+01 2.464364290237426758e+00 4.661014378070831299e-01 1.283613204956054688e+00 5.249143838882446289e-01 -2.888377308845520020e-01
3.871000000000000000e+03 2.824535179138183594e+01 -3.607720375061035156e+00 -1.236801743507385254e+00 1.468556225299835205e-01 -3.269838392734527588e-01 -6.702731847763061523e-01
3.872000000000000000e+03 4.464285659790039062e+01 -1.189007949829101562e+01 1.900943517684936523e+00 -5.673030614852905273e-01 4.000921249389648438e-01 6.912705898284912109e-01
3.873000000000000000e+03 4.442797088623046875e+01 -1.150804805755615234e+01 1.983376383781433105e+00 -5.338305234909057617e-01 4.348637759685516357e-01 8.983137607574462891e-01
3.874000000000000000e+03 3.494679260253906250e+01 1.491865158081054688e+01 -2.349974960088729858e-02 6.310385651886463165e-04 -6.860612891614437103e-03 1.661050692200660706e-02
3.875000000000000000e+03 2.961192321777343750e+01 -4.234383583068847656e+00 -9.450011253356933594e-01 4.652234613895416260e-01 -1.439332962036132812e-01 -5.961375832557678223e-01
3.876000000000000000e+03 1.353815269470214844e+01 9.267272949218750000e+00 -8.125001477310433984e-05 9.426526230527088046e-05 3.904575351043604314e-06 8.718970639165490866e-05
3.877000000000000000e+03 4.374832916259765625e+01 -1.060845375061035156e+01 1.909414649009704590e+00 -2.774292528629302979e-01 4.895956218242645264e-01 1.296022176742553711e+00
3.878000000000000000e+03 1.033853244781494141e+01 1.479729270935058594e+01 2.091842034133151174e-04 -4.588244482874870300e-04 -7.489207200706005096e-05 1.036637404467910528e-04
3.879000000000000000e+03 9.833784103393554688e+00 1.230037117004394531e+01 1.683414011495187879e-04 -3.051386447623372078e-04 -4.103917308384552598e-05 2.143992169294506311e-04
3.880000000000000000e+03 3.589815902709960938e+01 1.520812129974365234e+01 -3.087021037936210632e-02 8.117243647575378418e-03 -6.825889926403760910e-03 1.525296363979578018e-02
3.881000000000000000e+03 4.020652389526367188e+01 -1.849810791015625000e+01 -4.963870644569396973e-01 2.407665252685546875e+00 5.733834505081176758e-01 2.591936886310577393e-01
3.882000000000000000e+03 1.288749122619628906e+01 1.121194934844970703e+01 -5.794428216177038848e-05 1.117742940550670028e-04 1.614900247659534216e-05 2.566897019278258085e-04
3.883000000000000000e+03 2.865231895446777344e+01 -4.062634944915771484e+00 -9.370138645172119141e-01 2.723571062088012695e-01 -1.993970274925231934e-01 -6.874430775642395020e-01
3.884000000000000000e+03 3.574690246582031250e+01 1.006756114959716797e+01 -3.246025415137410164e-03 -3.781031991820782423e-04 -1.087238662876188755e-03 3.661744412966072559e-04
3.885000000000000000e+03 3.441569519042968750e+01 1.602413749694824219e+01 -3.217647597193717957e-02 8.452191832475364208e-04 -9.399376809597015381e-03 2.307040058076381683e-02
3.886000000000000000e+03 1.153967761993408203e+01 1.595341682434082031e+01 1.238997065229341388e-04 -2.218014706159010530e-04 -2.937053068308159709e-05 2.380911028012633324e-04
3.887000000000000000e+03 1.061553192138671875e+01 1.526087570190429688e+01 8.043515845201909542e-05 -5.657959845848381519e-04 -1.456082391086965799e-04 4.074928001500666142e-04
3.888000000000000000e+03 3.054768562316894531e+01 -4.518682956695556641e+00 -7.141944766044616699e-01 5.008230805397033691e-01 -6.401141732931137085e-02 -4.748252630233764648e-01
3.889000000000000000e+03 3.432733917236328125e+01 1.852330398559570312e+01 -4.768122732639312744e-02 6.506752688437700272e-03 -1.235234178602695465e-02 2.918797358870506287e-02
3.890000000000000000e+03 3.363032150268554688e+01 1.748294830322265625e+01 -3.861241787672042847e-02 -4.843384493142366409e-03 -1.303674001246690750e-02 3.007544949650764465e-02
3.891000000000000000e+03 1.245304393768310547e+01 1.022422409057617188e+01 1.781174942152574658e-04 5.757945473305881023e-05 7.070908759487792850e-05 1.299626455875113606e-04
3.892000000000000000e+03 1.297956562042236328e+01 6.783079147338867188e+00 -2.287057577632367611e-05 1.325642460869858041e-05 -2.884245532186469063e-06 4.334313052822835743e-05
3.893000000000000000e+03 1.325113105773925781e+01 8.034537315368652344e+00 6.656774348812177777e-05 6.853916420368477702e-05 4.053207157994620502e-05 3.679667497635819018e-05
3.894000000000000000e+03 1.197450733184814453e+01 1.667791748046875000e+01 -1.329988881479948759e-04 -1.621850387891754508e-04 -8.855517808115109801e-05 1.825108192861080170e-04
3.895000000000000000e+03 1.118373394012451172e+01 1.190893077850341797e+01 4.961534068570472300e-05 -1.069709251169115305e-04 -1.720667569315992296e-05 3.053599502891302109e-04
3.896000000000000000e+03 2.698342323303222656e+01 -4.975597381591796875e+00 -1.118821203708648682e-01 5.364482104778289795e-02 -1.747118867933750153e-02 -9.625067710876464844e-01
3.897000000000000000e+03 1.038580799102783203e+01 1.349524784088134766e+01 1.353140978608280420e-04 -3.330066683702170849e-04 -5.930777115281671286e-05 3.267764404881745577e-04
3.898000000000000000e+03 2.999358367919921875e+01 -4.936122417449951172e+00 -3.818497657775878906e-01 6.420554518699645996e-01 7.806171476840972900e-02 -6.008265614509582520e-01
3.899000000000000000e+03 3.097637367248535156e+01 -4.537093162536621094e+00 -7.991182208061218262e-01 4.724638462066650391e-01 -9.799630939960479736e-02 -3.657309114933013916e-01
3.900000000000000000e+03 1.186449527740478516e+01 2.289144515991210938e+01 -8.992953225970268250e-03 3.845101164188235998e-04 -2.582532819360494614e-03 3.308399580419063568e-03
3.901000000000000000e+03 1.269416809082031250e+01 2.393651008605957031e+01 -1.170816551893949509e-02 6.252128514461219311e-04 -3.324885852634906769e-03 5.990896839648485184e-03
3.902000000000000000e+03 1.066111946105957031e+01 1.404425144195556641e+01 2.704139042180031538e-04 -3.311400068923830986e-04 -1.821783007471822202e-05 1.745518093230202794e-04
3.903000000000000000e+03 1.102159214019775391e+01 1.328890705108642578e+01 2.710538101382553577e-04 -1.987726718652993441e-04 2.168434548366349190e-05 2.071174094453454018e-04
3.904000000000000000e+03 1.198271369934082031e+01 2.193714332580566406e+01 -7.672115229070186615e-03 4.888654220849275589e-04 -2.154974965378642082e-03 1.913341577164828777e-03
3.905000000000000000e+03 1.182046318054199219e+01 7.162072658538818359e+00 6.409497291315346956e-05 2.701312268982292153e-06 2.003888403123710304e-05 1.094320177799090743e-04
3.906000000000000000e+03 1.585048675537109375e+01 6.461670875549316406e+00 -3.411416400922462344e-05 2.374806354055181146e-05 -3.109830686298664659e-06 2.179773764510173351e-05
3.907000000000000000e+03 9.842273712158203125e+00 2.154421806335449219e+01 -4.431677982211112976e-03 -3.446323971729725599e-04 -1.432893099263310432e-03 1.218652003444731236e-03
3.908000000000000000e+03 1.130415630340576172e+01 1.964152717590332031e+01 -2.968215383589267731e-03 -4.179688112344592810e-04 -1.015855232253670692e-03 -1.014941153698600829e-05
3.909000000000000000e+03 1.030597591400146484e+01 7.165642261505126953e+00 1.144401103374548256e-04 -4.798794179805554450e-05 1.993565092561766505e-05 2.041796324192546308e-05
3.910000000000000000e+03 1.093169498443603516e+01 6.881649017333984375e+00 9.593792492523789406e-05 -3.986010051448829472e-05 1.682334550423547626e-05 5.020727257942780852e-05
3.911000000000000000e+03 3.564602661132812500e+01 1.346794795989990234e+01 -1.726432144641876221e-02 2.641166793182492256e-03 -4.386946093291044235e-03 8.929579518735408783e-03
3.912000000000000000e+03 3.646860885620117188e+01 1.388392257690429688e+01 -2.350299991667270660e-02 5.744389723986387253e-03 -5.327582824975252151e-03 8.791759610176086426e-03
3.913000000000000000e+03 1.523047924041748047e+01 7.371638298034667969e+00 -7.375038694590330124e-05 2.476976806065067649e-05 -1.469418657507048920e-05 8.291426638606935740e-06
3.914000000000000000e+03 3.595675277709960938e+01 1.690408134460449219e+01 -4.303834587335586548e-02 1.160571631044149399e-02 -9.429789148271083832e-03 2.267790958285331726e-02
3.915000000000000000e+03 3.535570526123046875e+01 1.646450996398925781e+01 -3.717662021517753601e-02 8.543634787201881409e-03 -8.589895442128181458e-03 2.068760059773921967e-02
3.916000000000000000e+03 2.068735122680664062e+01 2.770090675354003906e+01 -1.492213644087314606e-02 -1.474062632769346237e-02 -8.898829109966754913e-03 2.718274295330047607e-02
3.917000000000000000e+03 4.494679260253906250e+01 -1.129570198059082031e+01 1.674649119377136230e+00 -6.133996844291687012e-01 3.183748424053192139e-01 9.922605156898498535e-01
3.918000000000000000e+03 4.545224761962890625e+01 -1.124108409881591797e+01 1.508538365364074707e+00 -6.390172839164733887e-01 2.608563303947448730e-01 1.040777444839477539e+00
3.919000000000000000e+03 1.383293724060058594e+01 7.465937614440917969e+00 2.889465758926235139e-05 8.859238732839003205e-05 3.524611383909359574e-05 1.642544157220982015e-05
3.920000000000000000e+03 1.599503612518310547e+01 2.504978179931640625e+01 -2.022716030478477478e-02 -9.853020310401916504e-04 -6.363738793879747391e-03 1.290564890950918198e-02
3.921000000000000000e+03 1.455918884277343750e+01 2.425592422485351562e+01 -1.582878455519676208e-02 1.000983524136245251e-03 -4.448340274393558502e-03 7.599741686135530472e-03
3.922000000000000000e+03 8.564642906188964844e+00 -9.871228218078613281e+00 -1.499610990285873413e-01 -1.586681753396987915e-01 -9.258878231048583984e-02 -8.946573734283447266e-02
3.923000000000000000e+03 1.045137310028076172e+01 -7.392480850219726562e+00 -1.199972629547119141e-01 -1.698823571205139160e-01 -8.696388453245162964e-02 -9.110873192548751831e-02
3.924000000000000000e+03 3.633988189697265625e+01 1.618002510070800781e+01 -3.920082747936248779e-02 1.392969582229852676e-02 -7.581339217722415924e-03 1.633528247475624084e-02
3.925000000000000000e+03 1.216322422027587891e+01 1.953364562988281250e+01 -2.856772625818848610e-03 -2.821152156684547663e-04 -9.416663087904453278e-04 -8.635903941467404366e-05
3.926000000000000000e+03 1.134263992309570312e+01 1.880019378662109375e+01 -1.422694767825305462e-03 -4.237478715367615223e-04 -5.539327976293861866e-04 -2.233972336398437619e-04
3.927000000000000000e+03 1.376952934265136719e+01 2.520659065246582031e+01 -1.387945562601089478e-02 -3.541501646395772696e-04 -4.270081408321857452e-03 9.658725932240486145e-03
3.928000000000000000e+03 1.093607902526855469e+01 2.140039062500000000e+01 -5.871276371181011200e-03 1.444032095605507493e-04 -1.718061976134777069e-03 9.878706187009811401e-04
3.929000000000000000e+03 3.509488677978515625e+01 2.072600936889648438e+01 -5.298036709427833557e-02 2.052807249128818512e-02 -9.735687635838985443e-03 2.280468679964542389e-02
3.930000000000000000e+03 3.709537887573242188e+01 1.656399536132812500e+01 -4.343099892139434814e-02 1.510301325470209122e-02 -8.498394861817359924e-03 1.736259274184703827e-02
3.931000000000000000e+03 3.661816024780273438e+01 1.741902732849121094e+01 -4.591305926442146301e-02 1.943641714751720428e-02 -7.942993193864822388e-03 1.774394325911998749e-02
3.932000000000000000e+03 1.127964782714843750e+01 1.820369529724121094e+01 -1.246137078851461411e-03 -6.843337905593216419e-04 -5.791412550024688244e-04 1.085463663912378252e-04
3.933000000000000000e+03 1.058262538909912109e+01 1.823137474060058594e+01 -8.591779042035341263e-04 -6.403261213563382626e-04 -4.498511843848973513e-04 -1.399063185090199113e-04
3.934000000000000000e+03 3.472441864013671875e+01 1.912672233581542969e+01 -5.537760630249977112e-02 1.339584309607744217e-02 -1.259452942758798599e-02 2.784226834774017334e-02
3.935000000000000000e+03 9.142235755920410156e+00 6.803705215454101562e+00 -1.352415210931212641e-06 -3.652651139418594539e-05 -1.136367791332304478e-05 -2.208754085586406291e-05
3.936000000000000000e+03 9.912272453308105469e+00 8.219987869262695312e+00 8.499342220602557063e-05 -3.898272916558198631e-05 1.380320736643625423e-05 3.124005525023676455e-05
3.937000000000000000e+03 1.495880699157714844e+01 2.469942855834960938e+01 -1.777763478457927704e-02 1.250163186341524124e-04 -5.295785143971443176e-03 1.036807056516408920e-02
3.938000000000000000e+03 3.209425354003906250e+01 2.493039512634277344e+01 -2.864070236682891846e-02 -3.384944982826709747e-03 -9.607694111764431000e-03 1.291117724031209946e-02
3.939000000000000000e+03 7.658861637115478516e+00 1.303235912322998047e+01 2.825743285939097404e-04 -4.521630762610584497e-04 -5.087662430014461279e-05 -1.004436708171851933e-04
3.940000000000000000e+03 1.076514720916748047e+01 1.270317554473876953e+01 1.119250591727904975e-04 -2.165611804230138659e-04 -3.139083491987548769e-05 3.284333797637373209e-04
3.941000000000000000e+03 6.749314117431640625e+01 -5.739645004272460938e+00 -3.010981380939483643e-01 1.945818513631820679e-01 -3.195488452911376953e-02 -7.597391009330749512e-01
3.942000000000000000e+03 1.963237190246582031e+01 2.542601203918457031e+01 -3.109824843704700470e-02 -7.398354820907115936e-03 -1.154898107051849365e-02 2.165572904050350189e-02
3.943000000000000000e+03 3.317633819580078125e+01 2.167078781127929688e+01 -5.683907866477966309e-02 2.143295947462320328e-03 -1.640873402357101440e-02 2.157679386436939240e-02
3.944000000000000000e+03 7.079825592041015625e+01 -6.883651256561279297e+00 -3.754754960536956787e-01 1.070087775588035583e-02 -1.094323843717575073e-01 -7.643578052520751953e-01
3.945000000000000000e+03 7.093798065185546875e+01 -4.735939025878906250e+00 -1.753007322549819946e-01 -1.820609346032142639e-02 -5.805204808712005615e-02 -8.330748677253723145e-01
3.946000000000000000e+03 6.988630676269531250e+01 -5.081459522247314453e+00 -1.913089752197265625e-01 6.385704129934310913e-02 -3.823557868599891663e-02 -8.341493606567382812e-01
3.947000000000000000e+03 8.625380516052246094e+00 2.161242294311523438e+01 -3.379213158041238785e-03 -7.113675819709897041e-04 -1.227174303494393826e-03 1.229071873240172863e-03
3.948000000000000000e+03 6.251890945434570312e+01 -4.018881797790527344e+00 2.303103208541870117e-01 8.151479363441467285e-01 3.136374652385711670e-01 3.754564374685287476e-02
3.949000000000000000e+03 8.722274780273437500e+00 -8.521626472473144531e+00 -1.232136189937591553e-01 -1.414058953523635864e-01 -7.938585430383682251e-02 -6.620912998914718628e-02
3.950000000000000000e+03 1.126864624023437500e+01 7.525087356567382812e+00 3.740380634553730488e-05 -1.356681059405673295e-05 7.151098998292582110e-06 5.293231515679508448e-05
3.951000000000000000e+03 9.130102157592773438e+00 9.098472595214843750e+00 2.285175141878426075e-04 -9.081281314138323069e-05 4.131141031393781304e-05 1.732913187879603356e-05
3.952000000000000000e+03 8.584545135498046875e+00 7.262207031250000000e+00 1.557235227664932609e-04 -8.602931484347209334e-05 2.090826274070423096e-05 8.298624015878885984e-05
3.953000000000000000e+03 1.781325912475585938e+01 2.676918983459472656e+01 -1.936335489153862000e-02 -6.505013443529605865e-03 -7.760510314255952835e-03 2.106187120079994202e-02
3.954000000000000000e+03 1.856307029724121094e+01 2.850707054138183594e+01 -9.360003285109996796e-03 -1.134847104549407959e-02 -6.212542299181222916e-03 2.399400062859058380e-02
3.955000000000000000e+03 6.448435974121093750e+01 -5.340049266815185547e+00 -1.215334311127662659e-01 3.624918460845947266e-01 7.228752225637435913e-02 -3.983119130134582520e-01
3.956000000000000000e+03 1.071321868896484375e+01 1.958421516418457031e+01 -2.295111538842320442e-03 -4.765111661981791258e-04 -8.314868318848311901e-04 -4.129591161472490057e-06
3.957000000000000000e+03 7.972939491271972656e+00 2.214349365234375000e+01 -3.382647642865777016e-03 -1.026121317408978939e-03 -1.322630676440894604e-03 2.077807206660509109e-03
3.958000000000000000e+03 8.492832183837890625e+00 1.951930236816406250e+01 -2.065477659925818443e-03 -8.902714471332728863e-04 -8.867247379384934902e-04 3.369724145159125328e-04
3.959000000000000000e+03 2.478339004516601562e+01 2.636800193786621094e+01 -2.641221880912780762e-02 -2.374716289341449738e-02 -1.504781469702720642e-02 2.818628214299678802e-02
3.960000000000000000e+03 2.390200996398925781e+01 2.657045364379882812e+01 -2.629599161446094513e-02 -2.148757129907608032e-02 -1.433506887406110764e-02 2.856230363249778748e-02
3.961000000000000000e+03 3.546240997314453125e+01 1.754454612731933594e+01 -4.372087866067886353e-02 1.231805421411991119e-02 -9.420847520232200623e-03 2.279602549970149994e-02
3.962000000000000000e+03 8.326337814331054688e+00 1.530328178405761719e+01 -3.807013854384422302e-05 -6.744772545062005520e-04 -2.137642150046303868e-04 -1.134623526013456285e-04
3.963000000000000000e+03 9.016508102416992188e+00 3.038918113708496094e+01 -2.176309935748577118e-03 -6.658993661403656006e-03 -2.650591079145669937e-03 9.593137539923191071e-03
3.964000000000000000e+03 1.010964679718017578e+01 1.291218948364257812e+01 2.662457700353115797e-04 -3.045388148166239262e-04 -1.148791398009052500e-05 1.395347935613244772e-04
3.965000000000000000e+03 8.825798034667968750e+00 1.572831535339355469e+01 9.713386680232360959e-05 -7.240297854878008366e-04 -1.880687777884304523e-04 9.478797437623143196e-05
3.966000000000000000e+03 6.927613067626953125e+01 6.985141277313232422e+00 4.763545393943786621e-01 9.089658260345458984e-01 4.155961275100708008e-01 -3.417709171772003174e-01
3.967000000000000000e+03 7.057736206054687500e+01 4.715183258056640625e+00 3.658550977706909180e-01 3.161250352859497070e-01 2.045940458774566650e-01 -5.581156611442565918e-01
3.968000000000000000e+03 3.696427154541015625e+01 -5.128038406372070312e+00 -1.344087600708007812e+00 9.025707244873046875e-01 -1.324550807476043701e-01 -7.278548926115036011e-02
3.969000000000000000e+03 6.910330200195312500e+01 -9.850205779075622559e-01 1.504989415407180786e-01 3.415724635124206543e-01 1.476214230060577393e-01 -7.140133976936340332e-01
3.970000000000000000e+03 6.642127990722656250e+01 5.453456044197082520e-01 3.888802826404571533e-01 1.025259733200073242e+00 4.242419898509979248e-01 -3.552328348159790039e-01
3.971000000000000000e+03 7.015584564208984375e+01 -7.455223560333251953e+00 -4.848784506320953369e-01 7.711469382047653198e-02 -1.223291233181953430e-01 -7.937045693397521973e-01
3.972000000000000000e+03 9.395820617675781250e+00 2.335789680480957031e+01 -5.587950814515352249e-03 -7.321762968786060810e-04 -1.896038069389760494e-03 3.577454714104533195e-03
3.973000000000000000e+03 7.469272613525390625e+00 2.425968170166015625e+01 -3.627013647928833961e-03 -1.562713645398616791e-03 -1.556918257847428322e-03 3.287481842562556267e-03
3.974000000000000000e+03 1.529948425292968750e+01 2.533754920959472656e+01 -1.669999584555625916e-02 -7.965742843225598335e-04 -5.248971283435821533e-03 1.227565947920084000e-02
3.975000000000000000e+03 7.222658157348632812e+00 -1.087066459655761719e+01 -1.271183341741561890e-01 -1.302557736635208130e-01 -7.721223682165145874e-02 -9.604628384113311768e-02
3.976000000000000000e+03 9.168072700500488281e+00 -1.061313343048095703e+01 -1.803278625011444092e-01 -1.893119812011718750e-01 -1.108919531106948853e-01 -1.154180467128753662e-01
3.977000000000000000e+03 1.077164936065673828e+01 -9.516624450683593750e+00 -1.745408922433853149e-01 -2.361816614866256714e-01 -1.232167631387710571e-01 -1.205603107810020447e-01
3.978000000000000000e+03 2.817681312561035156e+01 2.723524856567382812e+01 -1.233869139105081558e-02 -2.174262888729572296e-02 -1.022439636290073395e-02 2.144529111683368683e-02
3.979000000000000000e+03 7.176980590820312500e+01 5.636166572570800781e+00 3.094839751720428467e-01 -6.595487147569656372e-02 7.305873185396194458e-02 -5.333703756332397461e-01
3.980000000000000000e+03 2.545507431030273438e+01 2.573424911499023438e+01 -3.224184736609458923e-02 -2.521588280797004700e-02 -1.723731867969036102e-02 3.037495352327823639e-02
3.981000000000000000e+03 7.125511932373046875e+01 3.484502553939819336e+00 2.844158709049224854e-01 8.005906641483306885e-02 1.093424782156944275e-01 -6.265328526496887207e-01
3.982000000000000000e+03 6.979138183593750000e+01 -2.051379919052124023e+00 6.115661934018135071e-02 1.444564759731292725e-01 6.168393045663833618e-02 -7.945386171340942383e-01
3.983000000000000000e+03 8.556663513183593750e+00 1.625646781921386719e+01 -3.798131947405636311e-04 -7.280464051291346550e-04 -3.323578857816755772e-04 -2.562422196206171066e-05
3.984000000000000000e+03 8.608562469482421875e+00 1.733272743225097656e+01 -4.442978533916175365e-04 -7.079719216562807560e-04 -3.456809499766677618e-04 -1.039429771481081843e-04
3.985000000000000000e+03 8.516672134399414062e+00 9.169328689575195312e+00 2.391158923273906112e-04 -2.558819251134991646e-04 -5.029810836276737973e-06 4.698202610597945750e-05
3.986000000000000000e+03 8.817200660705566406e+00 2.635705184936523438e+01 -5.363611504435539246e-03 -2.563260728493332863e-03 -2.378061646595597267e-03 6.809770129621028900e-03
3.987000000000000000e+03 8.100783348083496094e+00 2.568025398254394531e+01 -4.736555740237236023e-03 -1.994950231164693832e-03 -2.019451698288321495e-03 5.024918355047702789e-03
3.988000000000000000e+03 7.772623062133789062e+00 -1.505923843383789062e+01 -1.558798998594284058e-01 -2.065865099430084229e-01 -1.087399199604988098e-01 -2.404294013977050781e-01
3.989000000000000000e+03 7.267256927490234375e+01 1.929283142089843750e+01 2.897780537605285645e-01 -3.472173810005187988e-01 -1.723179593682289124e-02 4.128466248512268066e-01
3.990000000000000000e+03 7.281440734863281250e+01 1.515543460845947266e+01 3.961372673511505127e-01 -4.354870021343231201e-01 -1.180491410195827484e-02 1.036355271935462952e-01
3.991000000000000000e+03 6.967204284667968750e+01 4.559342861175537109e+00 3.997045159339904785e-01 5.951154232025146484e-01 2.984459996223449707e-01 -4.997926950454711914e-01
3.992000000000000000e+03 7.303034973144531250e+01 2.064349365234375000e+01 2.213196307420730591e-01 -4.674823880195617676e-01 -7.384882867336273193e-02 4.831046760082244873e-01
3.993000000000000000e+03 3.498689270019531250e+01 1.984074592590332031e+01 -5.176129564642906189e-02 1.606770977377891541e-02 -1.070807594805955887e-02 2.729506045579910278e-02
3.994000000000000000e+03 3.536602401733398438e+01 1.871651077270507812e+01 -4.831831157207489014e-02 1.507802866399288177e-02 -9.972085244953632355e-03 2.519582025706768036e-02
3.995000000000000000e+03 7.096689605712890625e+01 2.342326927185058594e+01 1.247364953160285950e-01 2.841821908950805664e-01 1.226756051182746887e-01 6.358811259269714355e-01
3.996000000000000000e+03 6.954737091064453125e+01 -6.649510383605957031e+00 -3.776321709156036377e-01 7.822782546281814575e-02 -8.982130140066146851e-02 -8.068706393241882324e-01
3.997000000000000000e+03 7.067499542236328125e+01 -8.195169448852539062e+00 -5.183685421943664551e-01 6.257122009992599487e-02 -1.367391943931579590e-01 -6.970160007476806641e-01
3.998000000000000000e+03 7.080813407897949219e+00 -2.449354553222656250e+01 9.092870354652404785e-02 -3.822948336601257324e-01 -8.740983903408050537e-02 -2.376484572887420654e-01
3.999000000000000000e+03 9.288317680358886719e+00 2.739758110046386719e+01 -4.458637442439794540e-03 -3.431926714256405830e-03 -2.367169363424181938e-03 8.118373341858386993e-03
4.000000000000000000e+03 6.618182373046875000e+01 -1.354460954666137695e+00 2.774439752101898193e-01 7.764139771461486816e-01 3.161574006080627441e-01 -4.310210645198822021e-01
4.001000000000000000e+03 7.175735473632812500e+01 1.146653079986572266e+01 4.063605666160583496e-01 1.198316831141710281e-02 1.255031228065490723e-01 -1.568689197301864624e-01
4.002000000000000000e+03 3.887818527221679688e+01 2.477324295043945312e+01 -9.698161855340003967e-03 4.646077007055282593e-02 1.102878246456384659e-02 3.575549460947513580e-03
4.003000000000000000e+03 3.855517578125000000e+01 2.298954772949218750e+01 -2.468306757509708405e-02 3.883688524365425110e-02 4.246145486831665039e-03 1.160211674869060516e-02
4.004000000000000000e+03 6.433383178710937500e+01 2.216383171081542969e+01 5.829690694808959961e-01 2.632810354232788086e+00 9.647338390350341797e-01 -3.161966800689697266e-02
4.005000000000000000e+03 6.496807098388671875e+01 2.354652404785156250e+01 1.944676190614700317e-01 2.107831001281738281e+00 6.906895637512207031e-01 2.363451719284057617e-01
4.006000000000000000e+03 1.199646854400634766e+01 3.082299613952636719e+01 -1.468062517233192921e-03 -7.915250025689601898e-03 -2.814993727952241898e-03 1.315036043524742126e-02
4.007000000000000000e+03 1.253223228454589844e+01 3.234514999389648438e+01 5.702894995920360088e-04 -1.023161690682172775e-02 -2.898398321121931076e-03 1.374179963022470474e-02
4.008000000000000000e+03 6.750539398193359375e+01 1.296405434608459473e+00 3.604485094547271729e-01 8.873994350433349609e-01 3.743543922901153564e-01 -4.637243747711181641e-01
4.009000000000000000e+03 6.866635894775390625e+01 2.058817386627197266e+00 3.435508608818054199e-01 6.590389609336853027e-01 3.007769584655761719e-01 -5.629118084907531738e-01
4.010000000000000000e+03 2.763244628906250000e+01 -4.017826080322265625e+00 -8.305371999740600586e-01 9.161413460969924927e-02 -2.216769158840179443e-01 -8.179485797882080078e-01
4.011000000000000000e+03 2.856304359436035156e+01 -4.541749477386474609e+00 -5.128358006477355957e-01 2.760794758796691895e-01 -7.102690637111663818e-02 -7.570072412490844727e-01
4.012000000000000000e+03 2.737924766540527344e+01 -4.247105598449707031e+00 -6.221045255661010742e-01 6.762026250362396240e-02 -1.663452833890914917e-01 -8.412196636199951172e-01
4.013000000000000000e+03 2.791986846923828125e+01 -3.792994260787963867e+00 -1.001604318618774414e+00 7.923739403486251831e-02 -2.767100632190704346e-01 -7.123069763183593750e-01
4.014000000000000000e+03 2.811802673339843750e+01 -4.434999465942382812e+00 -6.228981018066406250e-01 2.169128507375717163e-01 -1.217955723404884338e-01 -7.828240394592285156e-01
4.015000000000000000e+03 4.518825149536132812e+01 -1.055019474029541016e+01 1.422790408134460449e+00 -6.646028161048889160e-01 2.274562716484069824e-01 1.267844915390014648e+00
4.016000000000000000e+03 1.436555194854736328e+01 8.062179565429687500e+00 4.904675733996555209e-05 1.056949622579850256e-04 4.642251587938517332e-05 4.653828000300563872e-05
4.017000000000000000e+03 1.328801631927490234e+01 8.603234291076660156e+00 -7.114090840332210064e-05 4.481110590859316289e-05 -7.898941476014442742e-06 1.417729508830234408e-04
4.018000000000000000e+03 1.207159137725830078e+01 9.500239372253417969e+00 1.823467464419081807e-04 1.841423909354489297e-05 6.022829620633274317e-05 1.043181255226954818e-04
4.019000000000000000e+03 1.322482204437255859e+01 9.648832321166992188e+00 1.052530642482452095e-04 4.992879985366016626e-05 4.655455995816737413e-05 1.614383654668927193e-04
4.020000000000000000e+03 1.235611724853515625e+01 1.123183345794677734e+01 1.728219649521633983e-04 8.509598410455510020e-05 7.737538544461131096e-05 1.681991852819919586e-04
4.021000000000000000e+03 1.135834980010986328e+01 2.018343544006347656e+01 -3.327353158965706825e-03 -1.089984070858918130e-04 -1.030905521474778652e-03 8.982350152564322343e-08
4.022000000000000000e+03 1.507315063476562500e+01 7.852705955505371094e+00 7.279224519152194262e-05 7.618599920533597469e-05 4.469347186386585236e-05 3.703951733768917620e-05
4.023000000000000000e+03 1.459118652343750000e+01 7.651207923889160156e+00 -8.613305544713512063e-05 5.013668123865500093e-05 -1.079891171684721485e-05 3.936088251066394150e-05
4.024000000000000000e+03 8.844423294067382812e+00 1.489704799652099609e+01 9.909141226671636105e-05 -6.116218864917755127e-04 -1.537591451779007912e-04 1.886924874270334840e-04
4.025000000000000000e+03 1.173356533050537109e+01 1.121559810638427734e+01 -7.208383067336399108e-06 -2.887317168642766774e-05 -1.082446578948292881e-05 2.579661377239972353e-04
4.026000000000000000e+03 9.309993743896484375e+00 1.823572158813476562e+01 -9.107395890168845654e-04 -7.466527167707681656e-04 -4.972176975570619106e-04 1.635552143852692097e-05
4.027000000000000000e+03 1.102894210815429688e+01 1.614836311340332031e+01 -4.550869925878942013e-05 -6.833550287410616875e-04 -2.186591300414875150e-04 3.766973386518657207e-04
4.028000000000000000e+03 3.499328613281250000e+01 1.556703376770019531e+01 -3.071268089115619659e-02 4.144031088799238205e-03 -7.970594801008701324e-03 1.963937096297740936e-02
4.029000000000000000e+03 3.548845672607421875e+01 1.477953815460205078e+01 -2.678867429494857788e-02 2.951841335743665695e-03 -7.151050027459859848e-03 1.682064868509769440e-02
4.030000000000000000e+03 9.730594635009765625e+00 1.373674488067626953e+01 2.658765006344765425e-04 -4.405377840157598257e-04 -5.239838719717226923e-05 8.306415111292153597e-05
4.031000000000000000e+03 1.607564163208007812e+01 7.244298934936523438e+00 3.564500048014451750e-06 1.902084113680757582e-05 6.775602287234505638e-06 3.959968671551905572e-05
4.032000000000000000e+03 1.567293643951416016e+01 7.407963275909423828e+00 -9.891808076645247638e-06 7.804283086443319917e-05 2.044530629063956439e-05 -2.055466575257014483e-05
4.033000000000000000e+03 2.901817131042480469e+01 -4.646230697631835938e+00 -5.381358265876770020e-01 4.118557274341583252e-01 -3.788403049111366272e-02 -7.311376929283142090e-01
4.034000000000000000e+03 1.003881835937500000e+01 1.428662109375000000e+01 1.309172366745769978e-04 -4.728395433630794287e-04 -1.025766905513592064e-04 3.124715003650635481e-04
4.035000000000000000e+03 8.426265716552734375e+00 1.434968471527099609e+01 1.801952021196484566e-04 -5.900455289520323277e-04 -1.229550980497151613e-04 -9.149545076070353389e-05
4.036000000000000000e+03 3.073325538635253906e+01 -3.613631010055541992e+00 -1.477788805961608887e+00 3.491831421852111816e-01 -3.385817110538482666e-01 -3.761942684650421143e-01
4.037000000000000000e+03 8.126273155212402344e+00 8.655855178833007812e+00 2.516557833587285131e-05 -8.299746696138754487e-05 -1.734956640575546771e-05 5.732816134695895016e-06
4.038000000000000000e+03 9.013751029968261719e+00 7.786486148834228516e+00 1.029156264849007130e-04 -8.858867659000679851e-05 4.298085059417644516e-06 -3.139061664114706218e-05
4.039000000000000000e+03 1.475854396820068359e+01 7.222653388977050781e+00 5.255503492662683129e-05 7.087055564625188708e-05 3.702767935465089977e-05 2.696055344131309539e-05
4.040000000000000000e+03 3.492341613769531250e+01 1.701584625244140625e+01 -4.216207191348075867e-02 6.148607935756444931e-03 -1.080403942614793777e-02 2.655779011547565460e-02
4.041000000000000000e+03 1.335497570037841797e+01 6.983371734619140625e+00 1.005391895887441933e-04 2.401010533503722399e-05 3.736478902283124626e-05 2.029908864642493427e-05
4.042000000000000000e+03 1.136480617523193359e+01 2.246909523010253906e+01 -7.632303982973098755e-03 4.998937365598976612e-04 -2.139722928404808044e-03 2.177526941522955894e-03
4.043000000000000000e+03 1.256653690338134766e+01 9.500749588012695312e+00 2.221875911345705390e-05 -6.113358267612056807e-06 4.831620117329293862e-06 2.303547516930848360e-04
4.044000000000000000e+03 1.385146236419677734e+01 6.588320732116699219e+00 9.373131615575402975e-05 2.424183549010194838e-05 3.539194585755467415e-05 1.763047112035565078e-05
4.045000000000000000e+03 1.431588459014892578e+01 7.319825172424316406e+00 3.558106618584133685e-05 6.312999630608828738e-06 1.256821906281402335e-05 3.634867243818007410e-05
4.046000000000000000e+03 2.176853942871093750e+01 2.727398681640625000e+01 -2.110869437456130981e-02 -1.661411486566066742e-02 -1.131684333086013794e-02 2.822779677808284760e-02
4.047000000000000000e+03 1.021707820892333984e+01 -8.720808982849121094e+00 -1.508128196001052856e-01 -1.956843137741088867e-01 -1.039491444826126099e-01 -9.608460217714309692e-02
4.048000000000000000e+03 9.619588851928710938e+00 7.433358192443847656e+00 1.129896045313216746e-04 -8.568687917431816459e-05 8.190817425202112645e-06 1.050681530614383519e-04
4.049000000000000000e+03 3.602034378051757812e+01 1.814818954467773438e+01 -5.167609453201293945e-02 1.798095926642417908e-02 -1.010854076594114304e-02 2.491116710007190704e-02
4.050000000000000000e+03 9.939390182495117188e+00 -1.005569362640380859e+01 -1.799001097679138184e-01 -2.068175971508026123e-01 -1.160153076052665710e-01 -1.104306653141975403e-01
4.051000000000000000e+03 1.224271488189697266e+01 2.453408050537109375e+01 -1.037657074630260468e-02 1.055674438248388469e-04 -3.081300994381308556e-03 6.388032343238592148e-03
4.052000000000000000e+03 1.465889644622802734e+01 2.557781410217285156e+01 -1.491822209209203720e-02 -1.207677065394818783e-03 -4.837770015001296997e-03 1.158823352307081223e-02
4.053000000000000000e+03 9.352895736694335938e+00 1.589312553405761719e+01 -3.063056792598217726e-04 -6.736703799106180668e-04 -2.939928090199828148e-04 1.826061052270233631e-04
4.054000000000000000e+03 1.084257125854492188e+01 1.570375061035156250e+01 8.592021185904741287e-05 -3.829918277915567160e-04 -8.912148769013583660e-05 1.140876775025390089e-04
4.055000000000000000e+03 3.600009155273437500e+01 1.464616680145263672e+01 -2.692115493118762970e-02 5.823990330100059509e-03 -6.329149473458528519e-03 1.288844272494316101e-02
4.056000000000000000e+03 3.662915420532226562e+01 1.463344955444335938e+01 -3.013937361538410187e-02 8.559518493711948395e-03 -6.473956629633903503e-03 1.172869745641946793e-02
4.057000000000000000e+03 1.224194049835205078e+01 2.343702507019042969e+01 -9.911567904055118561e-03 7.839139434508979321e-04 -2.738296287134289742e-03 4.163321107625961304e-03
4.058000000000000000e+03 1.728109359741210938e+01 2.584259033203125000e+01 -1.993535645306110382e-02 -3.719144267961382866e-03 -7.096350193023681641e-03 1.690128445625305176e-02
4.059000000000000000e+03 9.887497901916503906e+00 1.593272304534912109e+01 2.131095388904213905e-04 -6.932923570275306702e-04 -1.440548367099836469e-04 5.834650073666125536e-05
4.060000000000000000e+03 1.235114288330078125e+01 1.071243381500244141e+01 -5.876671639271080494e-05 2.743564255069941282e-05 -9.399322152603417635e-06 2.416844945400953293e-04
4.061000000000000000e+03 1.285772037506103516e+01 1.075902462005615234e+01 1.414894359186291695e-04 1.372457772959023714e-04 8.362056541955098510e-05 9.541926556266844273e-05
4.062000000000000000e+03 8.019035339355468750e+00 1.373070240020751953e+01 1.330083468928933144e-04 -4.743101890198886395e-04 -1.023905497277155519e-04 7.436307350872084498e-05
4.063000000000000000e+03 8.224590301513671875e+00 1.211089897155761719e+01 3.417488187551498413e-04 -3.350343031343072653e-04 2.014358415181050077e-06 3.338981696288101375e-05
4.064000000000000000e+03 9.252428054809570312e+00 1.959925460815429688e+01 -1.900983741506934166e-03 -6.779755931347608566e-04 -7.736877887509763241e-04 2.537739637773483992e-04
4.065000000000000000e+03 8.574622154235839844e+00 8.185000419616699219e+00 1.971772289834916592e-04 -9.617342584533616900e-05 3.030113839486148208e-05 2.615127232274971902e-05
4.066000000000000000e+03 1.440215969085693359e+01 2.504764175415039062e+01 -1.498575601726770401e-02 -7.892465509939938784e-05 -4.519403912127017975e-03 1.034326385706663132e-02
4.067000000000000000e+03 1.322315883636474609e+01 2.429182624816894531e+01 -1.312234159559011459e-02 7.188529125414788723e-04 -3.721046727150678635e-03 6.552793551236391068e-03
4.068000000000000000e+03 8.873951911926269531e+00 2.402770614624023438e+01 -5.125460680574178696e-03 -1.102069625630974770e-03 -1.868259161710739136e-03 3.700895234942436218e-03
4.069000000000000000e+03 6.623912811279296875e+01 -3.980975151062011719e+00 -1.883642934262752533e-02 4.145919084548950195e-01 1.187266483902931213e-01 -5.936535000801086426e-01
4.070000000000000000e+03 6.479457855224609375e+01 -3.672177553176879883e+00 1.015560925006866455e-01 6.091656088829040527e-01 2.132165133953094482e-01 -3.608151972293853760e-01
4.071000000000000000e+03 8.887784957885742188e+00 1.198989391326904297e+01 1.984524860745295882e-04 -3.524503263179212809e-04 -4.619935134542174637e-05 1.078233326552435756e-04
4.072000000000000000e+03 7.969871997833251953e+00 1.098986816406250000e+01 1.951045705936849117e-04 -2.596572448965162039e-04 -1.936579792527481914e-05 6.287236465141177177e-05
4.073000000000000000e+03 8.471377372741699219e+00 1.152338600158691406e+01 1.187882953672669828e-04 -2.860143431462347507e-04 -5.016781506128609180e-05 -1.914702443173155189e-05
4.074000000000000000e+03 3.577683639526367188e+01 1.948072624206542969e+01 -5.594909191131591797e-02 2.226626500487327576e-02 -1.010484807193279266e-02 2.463789470493793488e-02
4.075000000000000000e+03 6.912584304809570312e+00 1.946200752258300781e+01 -1.430261298082768917e-03 -9.652263252064585686e-04 -7.186462753452360630e-04 4.274059319868683815e-04
4.076000000000000000e+03 7.158062744140625000e+01 9.197551727294921875e+00 4.099141657352447510e-01 6.989933550357818604e-02 1.439440548419952393e-01 -2.905015051364898682e-01
4.077000000000000000e+03 6.961911010742187500e+01 8.460393905639648438e+00 5.135565996170043945e-01 8.706079721450805664e-01 4.152493774890899658e-01 -2.899641394615173340e-01
4.078000000000000000e+03 1.172029018402099609e+01 8.038855552673339844e+00 1.113331454689614475e-04 1.686441919446224347e-06 3.390587517060339451e-05 1.315254339715465903e-04
4.079000000000000000e+03 1.061226654052734375e+01 7.887922763824462891e+00 7.406040094792842865e-05 -5.298402174958027899e-05 6.322914487100206316e-06 1.106381678255274892e-04
4.080000000000000000e+03 8.020211219787597656e+00 9.496980667114257812e+00 7.695490785408765078e-05 -8.962349238572642207e-05 -3.800573949774843641e-06 1.136967239290243015e-05
4.081000000000000000e+03 3.363028335571289062e+01 2.493073844909667969e+01 -2.569785155355930328e-02 1.348532643169164658e-02 -3.663757350295782089e-03 8.953317999839782715e-03
4.082000000000000000e+03 3.362905883789062500e+01 2.349983406066894531e+01 -3.943839669227600098e-02 1.000250596553087234e-02 -8.830767124891281128e-03 1.462149526923894882e-02
4.083000000000000000e+03 1.880272102355957031e+01 2.747719764709472656e+01 -1.594014838337898254e-02 -9.734812192618846893e-03 -7.702488452196121216e-03 2.324792556464672089e-02
4.084000000000000000e+03 1.672068023681640625e+01 2.765237617492675781e+01 -1.271857973188161850e-02 -6.525045260787010193e-03 -5.773087497800588608e-03 1.957806572318077087e-02
4.085000000000000000e+03 1.432515144348144531e+01 2.659650611877441406e+01 -1.350359525531530380e-02 -2.490170532837510109e-03 -4.798129666596651077e-03 1.391994953155517578e-02
4.086000000000000000e+03 2.453722000122070312e+01 2.855403709411621094e+01 -5.842475686222314835e-03 -2.224119380116462708e-02 -8.425100706517696381e-03 2.638830989599227905e-02
4.087000000000000000e+03 9.373093605041503906e+00 2.515226554870605469e+01 -6.185068283230066299e-03 -1.435660058632493019e-03 -2.286218339577317238e-03 5.525320768356323242e-03
4.088000000000000000e+03 6.988509368896484375e+01 -3.158901214599609375e+00 -2.920627966523170471e-02 1.030332446098327637e-01 2.214808762073516846e-02 -8.126198649406433105e-01
4.089000000000000000e+03 3.877592086791992188e+01 -8.031888008117675781e+00 -2.172838449478149414e-01 1.695563554763793945e+00 4.434839189052581787e-01 -5.746975541114807129e-01
4.090000000000000000e+03 6.897384643554687500e+01 -5.792953491210937500e+00 -3.134047985076904297e-01 1.333307772874832153e-01 -5.402220413088798523e-02 -8.247390985488891602e-01
4.091000000000000000e+03 3.734098815917968750e+01 2.166922187805175781e+01 -4.171268269419670105e-02 3.311393409967422485e-02 -2.579624764621257782e-03 1.836632564663887024e-02
4.092000000000000000e+03 2.346289253234863281e+01 2.752293968200683594e+01 -1.831522956490516663e-02 -2.131528593599796295e-02 -1.188915502279996872e-02 2.977065369486808777e-02
4.093000000000000000e+03 7.060968780517578125e+01 6.923325061798095703e+00 4.029619991779327393e-01 3.881597518920898438e-01 2.373365312814712524e-01 -4.412322938442230225e-01
4.094000000000000000e+03 6.537936401367187500e+01 -4.657873153686523438e+00 -3.084932640194892883e-02 4.054977893829345703e-01 1.123945415019989014e-01 -4.949770867824554443e-01
4.095000000000000000e+03 9.583433151245117188e+00 2.596345710754394531e+01 -5.692044273018836975e-03 -1.964912516996264458e-03 -2.297087106853723526e-03 6.432326976209878922e-03
4.096000000000000000e+03 6.876023864746093750e+01 3.954636812210083008e+00 4.198415875434875488e-01 8.244460225105285645e-01 3.732862770557403564e-01 -4.578185975551605225e-01
4.097000000000000000e+03 7.029170989990234375e+01 3.867280960083007812e+00 3.299304544925689697e-01 3.474909365177154541e-01 2.032264173030853271e-01 -5.789120793342590332e-01
4.098000000000000000e+03 6.418401336669921875e+01 -2.683776378631591797e+00 2.922737896442413330e-01 8.563193082809448242e-01 3.445779383182525635e-01 -1.685503721237182617e-01
4.099000000000000000e+03 6.511533355712890625e+01 -1.991369485855102539e+00 2.671548426151275635e-01 8.496382236480712891e-01 3.350379168987274170e-01 -3.044431805610656738e-01
4.100000000000000000e+03 6.663607788085937500e+01 -2.466982603073120117e+00 1.301654130220413208e-01 5.781913995742797852e-01 2.125070542097091675e-01 -5.558264851570129395e-01
4.101000000000000000e+03 6.685830688476562500e+01 -4.885256767272949219e+00 -1.241667121648788452e-01 2.787598371505737305e-01 4.637794196605682373e-02 -6.784945130348205566e-01
4.102000000000000000e+03 7.154438018798828125e+01 1.335979938507080078e+01 4.580570757389068604e-01 9.244854748249053955e-02 1.651516854763031006e-01 -2.823974750936031342e-02
4.103000000000000000e+03 6.384217071533203125e+01 2.086658287048339844e+01 7.555533051490783691e-01 3.267307758331298828e+00 1.206858277320861816e+00 -2.058038264513015747e-01
4.104000000000000000e+03 7.290019989013671875e+01 9.510540962219238281e+00 3.245305120944976807e-01 -4.362307488918304443e-01 -3.351007029414176941e-02 -2.972641289234161377e-01
4.105000000000000000e+03 4.109841156005859375e+01 2.541234207153320312e+01 9.878095239400863647e-03 6.272552907466888428e-02 2.178108692169189453e-02 -8.164606057107448578e-03
4.106000000000000000e+03 2.558204078674316406e+01 3.018524360656738281e+01 6.675561424344778061e-03 -1.797707378864288330e-02 -3.390453755855560303e-03 2.267499268054962158e-02
4.107000000000000000e+03 6.835420227050781250e+01 -4.946938037872314453e+00 -1.743450611829757690e-01 1.911569833755493164e-01 5.043576937168836594e-03 -7.901578545570373535e-01
4.108000000000000000e+03 9.761730194091796875e+00 2.859557342529296875e+01 -4.489676095545291901e-03 -4.729370120912790298e-03 -2.765713958069682121e-03 9.603167884051799774e-03
4.109000000000000000e+03 6.416630554199218750e+01 2.562433433532714844e+01 -1.331963539123535156e-01 1.798850178718566895e+00 4.996961653232574463e-01 1.289257258176803589e-01
4.110000000000000000e+03 7.324736785888671875e+01 1.217027378082275391e+01 3.095698356628417969e-01 -6.141104698181152344e-01 -9.136218577623367310e-02 -1.178264170885086060e-01
4.111000000000000000e+03 6.028781414031982422e+00 -2.443325042724609375e+01 6.011820584535598755e-02 -4.160258173942565918e-01 -1.067722812294960022e-01 -2.213927954435348511e-01
4.112000000000000000e+03 1.157618713378906250e+01 9.294207572937011719e+00 -4.691836147685535252e-05 -1.625812728889286518e-05 -1.895294735732022673e-05 1.041162468027323484e-04
4.113000000000000000e+03 1.214886760711669922e+01 8.429269790649414062e+00 -1.050185164785943925e-05 1.950125260918866843e-05 2.699820470297709107e-06 6.159803888294845819e-05
4.114000000000000000e+03 1.296094799041748047e+01 9.327218055725097656e+00 -5.833625255036167800e-05 1.409697579219937325e-04 2.479005343047901988e-05 4.564120172290131450e-05
4.115000000000000000e+03 1.278501987457275391e+01 9.907002449035644531e+00 -5.102127943246159703e-06 1.133514451794326305e-04 3.247479617130011320e-05 4.693683877121657133e-05
4.116000000000000000e+03 1.128785800933837891e+01 2.317799377441406250e+01 -7.479150779545307159e-03 1.692887162789702415e-04 -2.192958723753690720e-03 3.408852964639663696e-03
4.117000000000000000e+03 1.548671722412109375e+01 7.019139289855957031e+00 1.738027640385553241e-05 3.738997475011274219e-05 1.643107498239260167e-05 6.242925155675038695e-05
4.118000000000000000e+03 9.758145332336425781e+00 9.483561515808105469e+00 5.035467620473355055e-05 -1.417534222127869725e-04 -2.741962634900119156e-05 9.572087583364918828e-05
4.119000000000000000e+03 1.226251506805419922e+01 7.632734298706054688e+00 -3.073172592849005014e-06 6.900845619384199381e-06 1.148301862485823222e-06 3.290425956947728992e-05
4.120000000000000000e+03 1.323979282379150391e+01 7.451924800872802734e+00 -6.053603283362463117e-05 1.745906592987012118e-05 -1.292309025302529335e-05 9.616256284061819315e-05
4.121000000000000000e+03 1.336779499053955078e+01 6.586855411529541016e+00 -3.033846587641164660e-05 3.542622289387509227e-05 1.526327764622692484e-06 8.588656783103942871e-05
4.122000000000000000e+03 1.418795871734619141e+01 6.853662490844726562e+00 -2.208188379881903529e-05 5.351280196919105947e-05 9.429275451111607254e-06 3.656555054476484656e-05
4.123000000000000000e+03 1.050845623016357422e+01 1.206471252441406250e+01 2.327916445210576057e-04 -1.768860383890569210e-04 1.677168256719596684e-05 1.439168700017035007e-04
4.124000000000000000e+03 1.251865959167480469e+01 9.097248077392578125e+00 4.560502202366478741e-05 9.830971976043656468e-05 4.317442289902828634e-05 1.539934828542754985e-06
4.125000000000000000e+03 1.241519165039062500e+01 8.766608238220214844e+00 1.121474269893951714e-04 -2.743338336586020887e-05 2.541421417845413089e-05 1.674563682172447443e-04
4.126000000000000000e+03 9.960083961486816406e+00 1.894034576416015625e+01 -1.485689543187618256e-03 -6.354170618578791618e-04 -6.363319698721170425e-04 -2.768488047877326608e-05
4.127000000000000000e+03 1.181970500946044922e+01 8.825938224792480469e+00 1.444917434128001332e-04 1.551442073832731694e-05 4.800184615305624902e-05 1.464586093788966537e-04
4.128000000000000000e+03 1.067295265197753906e+01 1.890611457824707031e+01 -1.991772791370749474e-03 -7.453245925717055798e-04 -8.211292442865669727e-04 1.185043220175430179e-04
4.129000000000000000e+03 1.075829315185546875e+01 2.023388862609863281e+01 -3.799211233854293823e-03 -4.151633766014128923e-04 -1.264312420971691608e-03 3.146800445392727852e-04
4.130000000000000000e+03 9.426184654235839844e+00 1.457031154632568359e+01 1.933375169755890965e-04 -5.530396010726690292e-04 -1.079106223187409341e-04 -1.059659211932739709e-06
4.131000000000000000e+03 8.729412078857421875e+00 1.342431354522705078e+01 2.797299530357122421e-04 -4.880463820882141590e-04 -6.249493162613362074e-05 -7.680587259528692812e-06
4.132000000000000000e+03 9.203082084655761719e+00 8.415281295776367188e+00 5.896845686947926879e-05 -1.485809189034625888e-04 -2.688373933779075742e-05 1.121256573242135346e-04
4.133000000000000000e+03 1.075406551361083984e+01 9.452252388000488281e+00 -3.665845724754035473e-07 -5.489920295076444745e-05 -1.657973734836559743e-05 9.962252079276368022e-05
4.134000000000000000e+03 1.175650882720947266e+01 1.061093807220458984e+01 2.145046018995344639e-04 9.268364919989835471e-06 6.713189213769510388e-05 1.440875057596713305e-04
4.135000000000000000e+03 3.612049102783203125e+01 2.043998336791992188e+01 -4.805239289999008179e-02 2.498994581401348114e-02 -6.918734405189752579e-03 2.271665632724761963e-02
4.136000000000000000e+03 9.072354316711425781e+00 1.401691627502441406e+01 1.324757176917046309e-04 -4.933762247674167156e-04 -1.082701419363729656e-04 1.966065610758960247e-04
4.137000000000000000e+03 1.100083923339843750e+01 1.118879699707031250e+01 2.435182395856827497e-04 -8.817220805212855339e-05 4.660381091525778174e-05 1.555809576530009508e-04
4.138000000000000000e+03 1.023332023620605469e+01 1.134133434295654297e+01 1.471842842875048518e-04 -2.063975116470828652e-04 -1.776397039066068828e-05 2.284977235831320286e-04
4.139000000000000000e+03 1.890492630004882812e+01 2.970925331115722656e+01 -5.351821426302194595e-03 -1.339473761618137360e-02 -5.623967852443456650e-03 2.375127933919429779e-02
4.140000000000000000e+03 1.738669967651367188e+01 2.885465621948242188e+01 -9.176360443234443665e-03 -1.004252489656209946e-02 -5.765665788203477859e-03 2.192199416458606720e-02
4.141000000000000000e+03 9.264515876770019531e+00 1.648511123657226562e+01 5.508164031198248267e-05 -7.749822689220309258e-04 -2.159701980417594314e-04 -7.928350532893091440e-05
4.142000000000000000e+03 1.036876010894775391e+01 1.759927749633789062e+01 -8.087714086286723614e-04 -8.082793792709708214e-04 -4.851152480114251375e-04 2.041483530774712563e-04
4.143000000000000000e+03 9.228955268859863281e+00 1.538454532623291016e+01 1.264154998352751136e-04 -6.736060604453086853e-04 -1.641571725485846400e-04 -7.411176193272694945e-05
4.144000000000000000e+03 9.926132202148437500e+00 1.646253585815429688e+01 -3.769450413528829813e-04 -8.336235769093036652e-04 -3.631705767475068569e-04 2.628156798891723156e-04
4.145000000000000000e+03 1.345413112640380859e+01 2.645083427429199219e+01 -1.142044179141521454e-02 -2.240646397694945335e-03 -4.098326433449983597e-03 1.219463627785444260e-02
4.146000000000000000e+03 1.510096931457519531e+01 2.606684684753417969e+01 -1.530129741877317429e-02 -1.586822210811078548e-03 -5.066436249762773514e-03 1.313657499849796295e-02
4.147000000000000000e+03 9.120954513549804688e+00 1.108549785614013672e+01 2.089667686959728599e-04 -2.398045908194035292e-04 -9.251345545635558665e-06 1.584265992278233171e-04
4.148000000000000000e+03 9.770155906677246094e+00 1.509924030303955078e+01 9.350793698104098439e-05 -6.234938045963644981e-04 -1.589957537362352014e-04 2.969164925161749125e-04
4.149000000000000000e+03 1.012038612365722656e+01 1.552329921722412109e+01 -3.473612378002144396e-05 -5.122376023791730404e-04 -1.640921254875138402e-04 1.021191201289184391e-05
4.150000000000000000e+03 1.168578338623046875e+01 2.390161514282226562e+01 -9.514986537396907806e-03 -8.705160325916949660e-06 -2.857107436284422874e-03 5.326563492417335510e-03
4.151000000000000000e+03 1.069980621337890625e+01 1.682182693481445312e+01 -2.947479661088436842e-04 -7.946218829602003098e-04 -3.268109576310962439e-04 2.863751433324068785e-04
4.152000000000000000e+03 8.671460151672363281e+00 1.054449176788330078e+01 1.596818910911679268e-04 -2.149265928892418742e-04 -1.657340908423066139e-05 1.505052296124631539e-06
4.153000000000000000e+03 1.090757083892822266e+01 2.082161712646484375e+01 -4.068118520081043243e-03 -1.680820714682340622e-04 -1.270860200747847557e-03 5.119310226291418076e-04
4.154000000000000000e+03 9.265062332153320312e+00 2.035977363586425781e+01 -3.158395411446690559e-03 -7.246296736411750317e-04 -1.164907589554786682e-03 6.697190110571682453e-04
4.155000000000000000e+03 7.749049663543701172e+00 2.016062736511230469e+01 -2.190031576901674271e-03 -8.637855062261223793e-04 -9.161451016552746296e-04 5.539364647120237350e-04
4.156000000000000000e+03 8.468957901000976562e+00 2.024561882019042969e+01 -2.077867509797215462e-03 -7.461155182681977749e-04 -8.471948676742613316e-04 6.109910318627953529e-04
4.157000000000000000e+03 9.120419502258300781e+00 2.108539009094238281e+01 -3.339204937219619751e-03 -6.298705702647566795e-04 -1.190722687169909477e-03 1.137543004006147385e-03
4.158000000000000000e+03 7.614166259765625000e+00 2.082117462158203125e+01 -2.125307219102978706e-03 -9.058333816938102245e-04 -9.093421977013349533e-04 1.030890503898262978e-03
4.159000000000000000e+03 1.440391349792480469e+01 2.938798713684082031e+01 -5.059601739048957825e-03 -7.300215773284435272e-03 -3.707945114001631737e-03 1.644083857536315918e-02
4.160000000000000000e+03 1.479527091979980469e+01 2.749511718750000000e+01 -1.072148792445659637e-02 -4.345444962382316589e-03 -4.520080052316188812e-03 1.582659967243671417e-02
4.161000000000000000e+03 9.308673858642578125e+00 2.218056678771972656e+01 -4.603116307407617569e-03 -6.201137439347803593e-04 -1.566969091072678566e-03 2.237671520560979843e-03
4.162000000000000000e+03 9.919899940490722656e+00 1.833242416381835938e+01 -1.385461655445396900e-03 -9.152325219474732876e-04 -6.902082241140305996e-04 1.809351379051804543e-04
4.163000000000000000e+03 9.686815261840820312e+00 1.780081558227539062e+01 -7.327799103222787380e-04 -7.720748544670641422e-04 -4.514564352575689554e-04 -1.168969829450361431e-04
4.164000000000000000e+03 1.150255298614501953e+01 2.074267005920410156e+01 -4.955514799803495407e-03 6.584283983102068305e-05 -1.466901623643934727e-03 4.156570939812809229e-04
4.165000000000000000e+03 1.060719108581542969e+01 2.348042488098144531e+01 -7.347587030380964279e-03 -3.505182394292205572e-04 -2.309431554749608040e-03 4.041732288897037506e-03
4.166000000000000000e+03 1.030767154693603516e+01 2.461413764953613281e+01 -7.528014946728944778e-03 -9.939728770405054092e-04 -2.556596416980028152e-03 5.709255114197731018e-03
4.167000000000000000e+03 7.428841400146484375e+01 1.083531761169433594e+01 2.276097238063812256e-01 -1.037083268165588379e+00 -2.428420782089233398e-01 -1.891302764415740967e-01
4.168000000000000000e+03 6.332381820678710938e+01 -3.374872446060180664e+00 2.410634905099868774e-01 8.290459513664245605e-01 3.210328519344329834e-01 -8.214618265628814697e-02
4.169000000000000000e+03 6.772871398925781250e+01 3.205205202102661133e+00 4.651195108890533447e-01 1.075850367546081543e+00 4.622909724712371826e-01 -3.931424915790557861e-01
4.170000000000000000e+03 6.963920593261718750e+01 2.964023113250732422e+00 3.399154841899871826e-01 4.797108471393585205e-01 2.458879053592681885e-01 -5.816255807876586914e-01
4.171000000000000000e+03 6.902398681640625000e+01 -2.564934968948364258e+00 3.145273029804229736e-02 2.503585815429687500e-01 8.454339206218719482e-02 -7.751801609992980957e-01
4.172000000000000000e+03 3.416433334350585938e+01 2.073092651367187500e+01 -5.510526522994041443e-02 1.092761009931564331e-02 -1.325329672545194626e-02 2.568212524056434631e-02
4.173000000000000000e+03 3.622920227050781250e+01 2.167785453796386719e+01 -4.494982957839965820e-02 3.009413927793502808e-02 -4.456707276403903961e-03 1.799736358225345612e-02
4.174000000000000000e+03 7.184096527099609375e+01 6.829720020294189453e+00 3.346448838710784912e-01 -1.041859164834022522e-01 6.913769245147705078e-02 -4.628184139728546143e-01
4.175000000000000000e+03 2.003131866455078125e+01 2.931665611267089844e+01 -4.617902450263500214e-03 -1.497657410800457001e-02 -5.878342781215906143e-03 2.526472881436347961e-02
4.176000000000000000e+03 1.784320640563964844e+01 3.002363395690917969e+01 -2.230692654848098755e-03 -1.280295569449663162e-02 -4.510094411671161652e-03 2.270237356424331665e-02
4.177000000000000000e+03 2.125106811523437500e+01 2.890680503845214844e+01 -6.806370802223682404e-03 -1.697866991162300110e-02 -7.135512307286262512e-03 2.707873471081256866e-02
4.178000000000000000e+03 1.142981815338134766e+01 2.945384788513183594e+01 -4.585433751344680786e-03 -5.985931027680635452e-03 -3.171409480273723602e-03 1.238494645804166794e-02
4.179000000000000000e+03 3.156236076354980469e+01 2.826124191284179688e+01 3.561439225450158119e-03 -1.110718818381428719e-03 7.352161337621510029e-04 1.005029957741498947e-02
4.180000000000000000e+03 6.703172302246093750e+01 -3.360039472579956055e+00 5.467057228088378906e-02 4.060796201229095459e-01 1.382250487804412842e-01 -6.327478885650634766e-01
4.181000000000000000e+03 6.478579044342041016e+00 -2.555693435668945312e+01 8.135736733675003052e-02 -4.163267314434051514e-01 -1.004908084869384766e-01 -2.027218937873840332e-01
4.182000000000000000e+03 7.188375854492187500e+01 8.038151741027832031e+00 3.185244798660278320e-01 -1.311294287443161011e-01 5.621851980686187744e-02 -3.879316151142120361e-01
4.183000000000000000e+03 3.187687492370605469e+01 2.650344085693359375e+01 -1.266524102538824081e-02 5.346150719560682774e-04 -3.639187663793563843e-03 9.896888397634029388e-03
4.184000000000000000e+03 6.948966979980468750e+01 8.163458108901977539e-01 2.493283599615097046e-01 3.818909823894500732e-01 1.893658041954040527e-01 -6.660360693931579590e-01
4.185000000000000000e+03 3.618338775634765625e+01 2.301864433288574219e+01 -3.406540304422378540e-02 2.695010416209697723e-02 -2.134590176865458488e-03 1.375022809952497482e-02
4.186000000000000000e+03 1.191997718811035156e+01 1.003534030914306641e+01 -7.275342795765027404e-05 1.666841308178845793e-05 -1.682550464465748519e-05 1.963389513548463583e-04
4.187000000000000000e+03 1.285653686523437500e+01 9.007768630981445312e+00 2.657780532899778336e-05 -1.540801349619869143e-05 3.350937504364992492e-06 2.257746964460238814e-04
4.188000000000000000e+03 1.218063735961914062e+01 9.055920600891113281e+00 -6.965526699787005782e-05 2.652117473189719021e-05 -1.294022695219609886e-05 1.286369515582919121e-04
4.189000000000000000e+03 1.280328083038330078e+01 8.614115715026855469e+00 2.046901499852538109e-05 1.007607061183080077e-04 3.636891415226273239e-05 1.634744512557517737e-05
4.190000000000000000e+03 1.138117599487304688e+01 8.529930114746093750e+00 -1.663065086177084595e-05 -4.621068364940583706e-05 -1.885240089904982597e-05 6.747917359462007880e-05
4.191000000000000000e+03 1.386563682556152344e+01 7.994960784912109375e+00 -4.443231773620937020e-06 7.127227490855148062e-06 8.051986810642119963e-07 1.014256704365834594e-04
4.192000000000000000e+03 9.352511405944824219e+00 1.717633438110351562e+01 -6.401430000551044941e-04 -9.081770549528300762e-04 -4.644960281439125538e-04 1.493092859163880348e-04
4.193000000000000000e+03 9.526314735412597656e+00 1.167395210266113281e+01 2.042673004325479269e-04 -2.450904285069555044e-04 -1.224693551193922758e-05 8.673622505739331245e-05
4.194000000000000000e+03 9.144146919250488281e+00 1.256447124481201172e+01 2.745181263890117407e-04 -3.588135878089815378e-04 -2.528863660700153559e-05 8.132866059895604849e-05
4.195000000000000000e+03 1.263310813903808594e+01 8.132312774658203125e+00 4.780800736625678837e-05 4.170371539657935500e-06 1.559351403557229787e-05 1.311608357354998589e-04
4.196000000000000000e+03 1.258316707611083984e+01 2.891825103759765625e+01 -5.108552519232034683e-03 -5.590035114437341690e-03 -3.209576243534684181e-03 1.330885663628578186e-02
4.197000000000000000e+03 9.251846313476562500e+00 1.889735603332519531e+01 -1.761277322657406330e-03 -9.067435748875141144e-04 -8.004062692634761333e-04 1.805940992198884487e-04
4.198000000000000000e+03 9.995990753173828125e+00 1.961660003662109375e+01 -2.603895729407668114e-03 -7.406505174003541470e-04 -1.003363868221640587e-03 3.225788823328912258e-04
4.199000000000000000e+03 8.822897911071777344e+00 9.632190704345703125e+00 5.890746615477837622e-05 -1.224419102072715759e-04 -1.906033321574795991e-05 3.384910814929753542e-05
4.200000000000000000e+03 1.084698104858398438e+01 8.531849861145019531e+00 8.382931264350190759e-05 -2.148462044715415686e-05 1.870340747700538486e-05 5.829208748764358461e-05
4.201000000000000000e+03 9.803333282470703125e+00 1.064147377014160156e+01 1.196364974020980299e-04 -1.654833176871761680e-04 -1.375404644932132214e-05 7.056498725432902575e-05
4.202000000000000000e+03 9.276947975158691406e+00 1.007563304901123047e+01 2.280750049976631999e-04 -1.826525985961779952e-04 1.362672355753602460e-05 1.236227690242230892e-04
4.203000000000000000e+03 1.061791706085205078e+01 2.208057975769042969e+01 -5.770749878138303757e-03 -1.867980317911133170e-04 -1.787264365702867508e-03 2.110852161422371864e-03
4.204000000000000000e+03 1.005812454223632812e+01 2.034863090515136719e+01 -3.079677000641822815e-03 -4.038148617837578058e-04 -1.045047538354992867e-03 4.177739901933819056e-04
4.205000000000000000e+03 1.035080432891845703e+01 1.005969238281250000e+01 2.287891693413257599e-04 -1.037819965858943760e-04 3.750215182662941515e-05 1.443085202481597662e-04
4.206000000000000000e+03 1.103981590270996094e+01 2.437692832946777344e+01 -7.973216474056243896e-03 -3.731835458893328905e-04 -2.503920113667845726e-03 5.344504956156015396e-03
4.207000000000000000e+03 1.166622734069824219e+01 2.521769714355468750e+01 -9.469029493629932404e-03 -8.837301284074783325e-04 -3.105828072875738144e-03 7.662824355065822601e-03
4.208000000000000000e+03 1.131508636474609375e+01 9.819282531738281250e+00 2.393633621977642179e-04 -5.756998143624514341e-05 5.453801713883876801e-05 1.469622511649504304e-04
4.209000000000000000e+03 9.984132766723632812e+00 2.391054344177246094e+01 -6.229159887880086899e-03 -6.720011588186025620e-04 -2.070348244160413742e-03 3.914086613804101944e-03
4.210000000000000000e+03 1.002688884735107422e+01 2.275753021240234375e+01 -5.880414973944425583e-03 -2.310223499080166221e-04 -1.833431189879775047e-03 2.364643616601824760e-03
4.211000000000000000e+03 8.708261489868164062e+00 2.279334259033203125e+01 -4.565566312521696091e-03 -6.938364822417497635e-04 -1.577820861712098122e-03 2.308278810232877731e-03
4.212000000000000000e+03 7.235506439208984375e+01 1.254277801513671875e+01 3.898676037788391113e-01 -2.208097130060195923e-01 5.071736872196197510e-02 -9.118793159723281860e-02
4.213000000000000000e+03 6.757518768310546875e+01 -2.592814922332763672e+00 9.455321729183197021e-02 4.488778412342071533e-01 1.630293130874633789e-01 -6.619637608528137207e-01
4.214000000000000000e+03 2.393889999389648438e+01 3.066574096679687500e+01 9.383281692862510681e-03 -1.899533905088901520e-02 -2.883617067709565163e-03 2.444263547658920288e-02
4.215000000000000000e+03 2.148399353027343750e+01 3.018171882629394531e+01 1.956730615347623825e-03 -1.804447174072265625e-02 -4.826322197914123535e-03 2.593163587152957916e-02
4.216000000000000000e+03 3.501559066772460938e+01 2.186800003051757812e+01 -4.696983471512794495e-02 1.826755329966545105e-02 -8.610684424638748169e-03 1.932625286281108856e-02
4.217000000000000000e+03 1.398761272430419922e+01 2.588956069946289062e+01 -1.286245323717594147e-02 -1.168213086202740669e-03 -4.209199920296669006e-03 1.082479301840066910e-02
4.218000000000000000e+03 1.554069042205810547e+01 2.854301643371582031e+01 -8.772254921495914459e-03 -7.167742587625980377e-03 -4.781999159604310989e-03 1.812718994915485382e-02
4.219000000000000000e+03 1.368436813354492188e+01 2.822761535644531250e+01 -8.499936200678348541e-03 -5.097670946270227432e-03 -4.079282283782958984e-03 1.472720876336097717e-02
4.220000000000000000e+03 6.768457794189453125e+01 -4.135100364685058594e+00 -9.086450189352035522e-02 3.023280203342437744e-01 6.343905627727508545e-02 -7.255932688713073730e-01
4.221000000000000000e+03 1.515512752532958984e+01 3.057652854919433594e+01 -2.336430130526423454e-03 -1.018700096756219864e-02 -3.757029306143522263e-03 1.779621839523315430e-02
4.222000000000000000e+03 6.817958068847656250e+01 -1.701232552528381348e+00 1.433753222227096558e-01 4.387082159519195557e-01 1.746250689029693604e-01 -6.751605272293090820e-01
4.223000000000000000e+03 3.537640762329101562e+01 2.634968376159667969e+01 -7.745563983917236328e-03 2.949243038892745972e-02 6.524059921503067017e-03 2.038663718849420547e-03
4.224000000000000000e+03 1.090204715728759766e+01 2.811815261840820312e+01 -5.226280074566602707e-03 -4.135448019951581955e-03 -2.808518474921584129e-03 1.048360392451286316e-02
4.225000000000000000e+03 1.695787239074707031e+01 3.065848731994628906e+01 -1.312325359322130680e-03 -1.252653729170560837e-02 -4.151659086346626282e-03 2.057787589728832245e-02
4.226000000000000000e+03 1.104909420013427734e+01 1.045011806488037109e+01 -2.913023490691557527e-05 -7.575004565296694636e-05 -3.146408562315627933e-05 1.992548495763912797e-04
4.227000000000000000e+03 1.025960445404052734e+01 8.916727066040039062e+00 1.714954705676063895e-04 -1.018818802549503744e-04 2.088407745759468526e-05 1.222027203766629100e-04
4.228000000000000000e+03 1.299083518981933594e+01 2.500906753540039062e+01 -1.184032205492258072e-02 -3.407735202927142382e-04 -3.654328873381018639e-03 8.636730723083019257e-03
4.229000000000000000e+03 1.034106063842773438e+01 2.101990127563476562e+01 -4.444171208888292313e-03 -3.817176620941609144e-04 -1.447766670025885105e-03 1.011532382108271122e-03
4.230000000000000000e+03 1.113178253173828125e+01 8.993247985839843750e+00 1.777399593265727162e-04 -5.109691846882924438e-05 3.799291152972728014e-05 1.740070583764463663e-04
4.231000000000000000e+03 1.036301326751708984e+01 1.589548683166503906e+01 -3.705984636326320469e-05 -7.766481721773743629e-04 -2.441124088363721967e-04 3.563564678188413382e-04
4.232000000000000000e+03 1.050123500823974609e+01 1.634070205688476562e+01 -3.602200013119727373e-05 -4.904628731310367584e-04 -1.579454547027125955e-04 4.636627272702753544e-05
4.233000000000000000e+03 3.398430633544921875e+01 2.172185707092285156e+01 -5.312824994325637817e-02 1.353891566395759583e-02 -1.187680009752511978e-02 1.982748694717884064e-02
4.234000000000000000e+03 8.517918586730957031e+00 1.879464721679687500e+01 -1.200253027491271496e-03 -7.361342431977391243e-04 -5.809161812067031860e-04 1.285566395381465554e-04
4.235000000000000000e+03 7.303936767578125000e+01 8.106640815734863281e+00 2.792054414749145508e-01 -4.954540133476257324e-01 -6.487457454204559326e-02 -3.891760110855102539e-01
4.236000000000000000e+03 1.292760086059570312e+01 2.727046203613281250e+01 -9.213798679411411285e-03 -3.003212856128811836e-03 -3.665103577077388763e-03 1.234305463731288910e-02
4.237000000000000000e+03 3.715293884277343750e+01 2.567665100097656250e+01 -5.275038536638021469e-03 3.669641166925430298e-02 9.426412172615528107e-03 2.094499533995985985e-03
4.238000000000000000e+03 3.511953353881835938e+01 2.470300674438476562e+01 -2.121838741004467010e-02 2.257111109793186188e-02 4.058169142808765173e-04 9.479566477239131927e-03
4.239000000000000000e+03 1.919301986694335938e+01 3.113364791870117188e+01 3.813816234469413757e-03 -1.594826392829418182e-02 -3.640334354713559151e-03 2.239706739783287048e-02
4.240000000000000000e+03 2.216515541076660156e+01 3.204162216186523438e+01 1.140580885112285614e-02 -1.844321936368942261e-02 -2.111222827807068825e-03 2.296777814626693726e-02
4.241000000000000000e+03 2.037266540527343750e+01 3.049732780456542969e+01 1.268053660169243813e-03 -1.694865152239799500e-02 -4.704179242253303528e-03 2.474236860871315002e-02
4.242000000000000000e+03 1.018351459503173828e+01 2.542347335815429688e+01 -6.737466435879468918e-03 -1.589863095432519913e-03 -2.498198766261339188e-03 6.516875699162483215e-03
4.243000000000000000e+03 1.104767322540283203e+01 2.610252761840820312e+01 -7.896658033132553101e-03 -1.683549024164676666e-03 -2.874062163755297661e-03 8.081115782260894775e-03
4.244000000000000000e+03 1.255925559997558594e+01 2.584662628173828125e+01 -1.050903368741273880e-02 -1.103673479519784451e-03 -3.483812091872096062e-03 9.123048745095729828e-03
4.245000000000000000e+03 1.604314231872558594e+01 3.171792411804199219e+01 2.018915954977273941e-03 -1.227240264415740967e-02 -3.076046006754040718e-03 1.847197674214839935e-02
4.246000000000000000e+03 1.792922019958496094e+01 3.128978157043457031e+01 1.664449577219784260e-03 -1.403663307428359985e-02 -3.711655037477612495e-03 2.078258246183395386e-02
4.247000000000000000e+03 1.719338798522949219e+01 3.266198348999023438e+01 5.206564441323280334e-03 -1.506245322525501251e-02 -2.956766635179519653e-03 2.023478411138057709e-02
4.248000000000000000e+03 3.559413528442382812e+01 2.837846946716308594e+01 1.225245185196399689e-02 3.378204628825187683e-02 1.381034962832927704e-02 -4.071709234267473221e-03
4.249000000000000000e+03 2.376459312438964844e+01 3.248629760742187500e+01 1.611407287418842316e-02 -1.737545430660247803e-02 -3.784140280913561583e-04 2.039041742682456970e-02
4.250000000000000000e+03 4.842369556427001953e+00 -2.464807319641113281e+01 4.570278525352478027e-02 -4.420808553695678711e-01 -1.189134195446968079e-01 -1.939762234687805176e-01
4.251000000000000000e+03 7.003821563720703125e+01 2.936170387268066406e+01 -2.456388324499130249e-01 3.672584891319274902e-01 3.648590296506881714e-02 5.305976271629333496e-01
4.252000000000000000e+03 9.387352943420410156e+00 -2.973484802246093750e+01 1.137299910187721252e-01 -3.227474093437194824e-01 -6.270522624254226685e-02 -1.316609978675842285e-01
4.253000000000000000e+03 2.117727518081665039e+00 -3.698778152465820312e+01 1.495124772191047668e-03 -8.003339171409606934e-01 -2.396516352891921997e-01 -7.061036769300699234e-03
4.254000000000000000e+03 7.727828216552734375e+01 3.631368255615234375e+01 -3.586177155375480652e-02 -7.916026711463928223e-01 -2.482393383979797363e-01 1.747614741325378418e-01
4.255000000000000000e+03 3.116882514953613281e+01 3.016711616516113281e+01 1.395965274423360825e-02 3.590674139559268951e-03 5.265098065137863159e-03 5.628696642816066742e-03
4.256000000000000000e+03 7.210462570190429688e+00 -2.803064727783203125e+01 8.854640275239944458e-02 -4.109630584716796875e-01 -9.672500193119049072e-02 -1.591754257678985596e-01
4.257000000000000000e+03 3.157458114624023438e+01 -3.409881973266601562e+01 1.128419563174247742e-01 9.292189478874206543e-01 3.126182854175567627e-01 2.685264348983764648e-01
4.258000000000000000e+03 1.315622806549072266e+01 -2.949312782287597656e+01 1.790764331817626953e-01 -1.162325516343116760e-01 1.885316520929336548e-02 -1.248565688729286194e-01
4.259000000000000000e+03 7.534352111816406250e+01 3.691754913330078125e+01 -8.037602156400680542e-02 -5.600982308387756348e-01 -1.921422779560089111e-01 1.880479454994201660e-01
4.260000000000000000e+03 4.320647048950195312e+01 2.944743347167968750e+01 5.627252534031867981e-02 1.191269755363464355e-01 5.261984840035438538e-02 -7.074105739593505859e-02
4.261000000000000000e+03 6.844580078125000000e+01 -3.550946044921875000e+01 1.972641795873641968e-03 -5.902783479541540146e-03 -1.179042505100369453e-03 1.007597241550683975e-02
4.262000000000000000e+03 6.593042373657226562e+00 -3.778516387939453125e+01 3.448887541890144348e-02 -4.797947406768798828e-01 -1.335917711257934570e-01 -4.031397402286529541e-02
4.263000000000000000e+03 4.699566841125488281e+00 -3.729471206665039062e+01 2.541365846991539001e-02 -6.368985176086425781e-01 -1.834454685449600220e-01 -4.690184071660041809e-02
4.264000000000000000e+03 1.807390403747558594e+01 3.407691574096679688e+01 1.250565145164728165e-02 -1.700842939317226410e-02 -1.350833335891366005e-03 1.690457016229629517e-02
4.265000000000000000e+03 6.128839874267578125e+01 3.031713294982910156e+01 -3.652167916297912598e-01 1.300317645072937012e+00 2.805302441120147705e-01 -2.350627928972244263e-01
4.266000000000000000e+03 7.061412811279296875e+01 2.736913681030273438e+01 -1.315746754407882690e-01 2.688760161399841309e-01 4.119040071964263916e-02 5.943461060523986816e-01
4.267000000000000000e+03 7.054856872558593750e+01 2.554929924011230469e+01 -3.861305117607116699e-02 3.067300617694854736e-01 8.043509721755981445e-02 6.416962742805480957e-01
4.268000000000000000e+03 7.603590393066406250e+01 2.719760131835937500e+01 -3.406141325831413269e-02 -1.123102784156799316e+00 -3.471492528915405273e-01 4.643236994743347168e-01
4.269000000000000000e+03 6.923062133789062500e+01 3.284500122070312500e+01 -3.346551060676574707e-01 4.221705794334411621e-01 2.625464461743831635e-02 3.622781634330749512e-01
4.270000000000000000e+03 6.849535369873046875e+01 3.048821067810058594e+01 -3.346514105796813965e-01 6.344848275184631348e-01 8.995001763105392456e-02 4.248487949371337891e-01
4.271000000000000000e+03 6.695312500000000000e+01 2.612509918212890625e+01 -1.310836076736450195e-01 1.339699625968933105e+00 3.625847995281219482e-01 4.049083590507507324e-01
4.272000000000000000e+03 6.886378479003906250e+01 -1.962950134277343750e+01 6.826246681157499552e-05 2.388001739745959640e-04 9.211878932546824217e-05 2.012645854847505689e-04
4.273000000000000000e+03 2.360071754455566406e+01 -4.138922393321990967e-01 -1.025395154953002930e+00 2.199000716209411621e-01 -2.416485100984573364e-01 -7.991922087967395782e-03
4.274000000000000000e+03 2.261570549011230469e+01 3.775774240493774414e+00 -1.177323974843602628e-05 -1.938120658451225609e-05 -9.346334081783425063e-06 -7.939663191791623831e-06
4.275000000000000000e+03 2.297763824462890625e+01 3.555296421051025391e+00 1.070972211891785264e-05 1.479232378187589347e-05 7.650613952137064189e-06 -3.427014689805218950e-06
4.276000000000000000e+03 3.814686965942382812e+01 4.348197460174560547e+00 7.084914250299334526e-04 -2.553867525421082973e-04 1.359313901048153639e-04 -4.848348544328473508e-05
4.277000000000000000e+03 2.269071769714355469e+01 3.228932619094848633e+00 -1.031646843330236152e-05 -1.387454449286451563e-05 -7.257303877850063145e-06 -4.633487151295412332e-06
4.278000000000000000e+03 3.060381126403808594e+01 -1.670850396156311035e+00 -2.950407028198242188e+00 2.956176102161407471e-01 -7.964368462562561035e-01 -1.797157526016235352e-01
4.279000000000000000e+03 3.042767524719238281e+01 -1.744427323341369629e+00 -2.867350101470947266e+00 2.913214266300201416e-01 -7.728085517883300781e-01 -1.985578984022140503e-01
4.280000000000000000e+03 3.073615074157714844e+01 -1.819689273834228516e+00 -2.878147125244140625e+00 3.204908668994903564e-01 -7.672969102859497070e-01 -2.280373275279998779e-01
4.281000000000000000e+03 2.934560012817382812e+01 -1.838310956954956055e+00 -2.676259994506835938e+00 1.372779905796051025e-01 -7.616946101188659668e-01 -2.871073782444000244e-01
4.282000000000000000e+03 2.886781501770019531e+01 -2.098126411437988281e+00 -2.444601058959960938e+00 9.542039781808853149e-02 -7.047542333602905273e-01 -3.625692129135131836e-01
4.283000000000000000e+03 2.906949996948242188e+01 -1.997831821441650391e+00 -2.530933380126953125e+00 1.101125925779342651e-01 -7.262462377548217773e-01 -3.234167397022247314e-01
4.284000000000000000e+03 2.153128623962402344e+01 4.785836696624755859e+00 -1.486667224526172504e-05 -2.372391099925152957e-05 -1.157717451860662550e-05 -1.042920757754473016e-05
4.285000000000000000e+03 3.446912765502929688e+01 -1.355399131774902344e+00 -3.088051557540893555e+00 4.090653359889984131e-01 -8.036958575248718262e-01 5.589609965682029724e-02
4.286000000000000000e+03 3.520473098754882812e+01 -1.234136581420898438e+00 -2.675234794616699219e+00 4.041205048561096191e-01 -6.813343167304992676e-01 -3.101439401507377625e-02
4.287000000000000000e+03 1.823364257812500000e+01 7.435989856719970703e+00 -4.521801020018756390e-05 -2.364051397307775915e-05 -2.065755688818171620e-05 -3.338989336043596268e-05
4.288000000000000000e+03 2.741634559631347656e+01 -2.385579347610473633e+00 -1.920178651809692383e+00 -1.596027016639709473e-01 -6.239343881607055664e-01 -5.148252248764038086e-01
4.289000000000000000e+03 3.321754074096679688e+01 1.863484740257263184e+00 -2.841121458914130926e-04 3.666297998279333115e-04 2.475529981893487275e-05 -2.234787389170378447e-04
4.290000000000000000e+03 3.314995193481445312e+01 2.173192501068115234e+00 7.802012260071933270e-04 -2.116654359269887209e-04 1.705607282929122448e-04 -2.107753607560880482e-05
4.291000000000000000e+03 3.479284286499023438e+01 2.055697441101074219e+00 -3.863061283482238650e-05 4.953905590809881687e-04 1.370279787806794047e-04 -7.256925891852006316e-05
4.292000000000000000e+03 4.275630116462707520e-01 -2.190586090087890625e+00 1.481764717027544975e-03 1.349655818194150925e-02 4.493496846407651901e-03 5.401475820690393448e-03
4.293000000000000000e+03 1.423754501342773438e+01 1.666774368286132812e+01 3.115620056632906199e-04 1.598936039954423904e-03 5.731494165956974030e-04 3.130506374873220921e-04
4.294000000000000000e+03 1.435246658325195312e+01 1.897320365905761719e+01 4.023424407932907343e-04 1.620579394511878490e-03 6.068765651434659958e-04 3.382396471351967193e-06
4.295000000000000000e+03 6.892592620849609375e+01 -1.895733451843261719e+01 2.387729728070553392e-05 1.109483637264929712e-04 4.044769957545213401e-05 5.680521280737593770e-05
4.296000000000000000e+03 4.363206481933593750e+01 -1.296546554565429688e+01 2.219869613647460938e+00 -3.094610869884490967e-01 5.731225609779357910e-01 9.739550761878490448e-03
4.297000000000000000e+03 4.301046371459960938e+01 -1.309139823913574219e+01 2.511471748352050781e+00 -1.613103598356246948e-01 7.050483822822570801e-01 -2.289030104875564575e-01
4.298000000000000000e+03 4.252386093139648438e+01 -1.276528167724609375e+01 3.165640830993652344e+00 -1.012598201632499695e-01 9.193142652511596680e-01 -3.694651648402214050e-02
4.299000000000000000e+03 4.224532699584960938e+01 -1.221007633209228516e+01 3.744742631912231445e+00 1.580152064561843872e-01 1.170827269554138184e+00 7.456708550453186035e-01
4.300000000000000000e+03 4.169387435913085938e+01 -1.215836238861083984e+01 4.471926212310791016e+00 7.097141742706298828e-01 1.554492115974426270e+00 1.204364538192749023e+00
4.301000000000000000e+03 4.165816116333007812e+01 -1.170121192932128906e+01 3.796185493469238281e+00 1.279574751853942871e+00 1.522728085517883301e+00 1.664375424385070801e+00
4.302000000000000000e+03 4.069509124755859375e+01 -1.592287254333496094e+01 -2.919389605522155762e-01 3.049731969833374023e+00 8.273379206657409668e-01 -7.673092484474182129e-01
4.303000000000000000e+03 4.018057632446289062e+01 -1.574420356750488281e+01 -5.135193467140197754e-01 4.073895454406738281e+00 1.068112850189208984e+00 -4.990766942501068115e-01
4.304000000000000000e+03 3.995808792114257812e+01 -1.500676822662353516e+01 -3.166419863700866699e-01 5.303603172302246094e+00 1.496088385581970215e+00 -4.965838193893432617e-01
4.305000000000000000e+03 3.979567337036132812e+01 -1.490731430053710938e+01 -2.334434390068054199e-01 5.675577163696289062e+00 1.632640123367309570e+00 -1.448311954736709595e-01
4.306000000000000000e+03 6.926766967773437500e+01 -1.846292686462402344e+01 5.015099668526090682e-05 1.541263191029429436e-04 6.128319364506751299e-05 9.773935744306072593e-05
4.307000000000000000e+03 2.030607795715332031e+01 2.258300590515136719e+01 -5.492208525538444519e-02 3.200926948920823634e-05 -1.646702177822589874e-02 3.128706710413098335e-03
4.308000000000000000e+03 2.481629753112792969e+01 2.230140113830566406e+01 -9.695531427860260010e-02 -1.225118432193994522e-02 -3.276195004582405090e-02 2.944598719477653503e-02
4.309000000000000000e+03 2.554032897949218750e+01 2.162260818481445312e+01 -1.189233884215354919e-01 -1.104365848004817963e-02 -3.899011388421058655e-02 3.311073780059814453e-02
4.310000000000000000e+03 2.630191040039062500e+01 2.258200454711914062e+01 -9.121640771627426147e-02 -2.297863923013210297e-02 -3.425851464271545410e-02 3.862101584672927856e-02
4.311000000000000000e+03 6.843083190917968750e+01 -1.883062553405761719e+01 -4.676341268350370228e-05 1.630395563552156091e-04 3.488284346531145275e-05 8.016275387490168214e-06
4.312000000000000000e+03 2.740908432006835938e+01 2.169241142272949219e+01 -1.151944398880004883e-01 -3.136311471462249756e-02 -4.396726563572883606e-02 5.206992104649543762e-02
4.313000000000000000e+03 3.343989562988281250e+01 1.012047958374023438e+01 -7.309823995456099510e-04 1.518685137853026390e-03 2.363108360441401601e-04 1.000161046249559149e-05
4.314000000000000000e+03 3.355658340454101562e+01 9.044441223144531250e+00 -1.010825217235833406e-04 1.222013961523771286e-03 3.362794232089072466e-04 -3.855983668472617865e-04
4.315000000000000000e+03 3.483303833007812500e+01 -2.358428478240966797e+00 -2.369795560836791992e+00 3.939209580421447754e-01 -5.927624106407165527e-01 3.553046286106109619e-01
4.316000000000000000e+03 3.499879455566406250e+01 -1.469225883483886719e+00 -2.843082904815673828e+00 4.808543026447296143e-01 -7.086685895919799805e-01 1.099200844764709473e-01
4.317000000000000000e+03 3.544532775878906250e+01 -1.438821554183959961e+00 -2.579147100448608398e+00 4.611331522464752197e-01 -6.354041695594787598e-01 1.050383150577545166e-01
4.318000000000000000e+03 3.525542831420898438e+01 -1.882822751998901367e+00 -2.580561637878417969e+00 5.251845121383666992e-01 -6.166131496429443359e-01 2.680607438087463379e-01
4.319000000000000000e+03 2.283493232727050781e+01 -1.777809739112854004e+00 -9.640388488769531250e-01 1.737783402204513550e-01 -2.370781451463699341e-01 -3.408957421779632568e-01
4.320000000000000000e+03 3.563814163208007812e+01 -1.916013836860656738e+00 -2.427611351013183594e+00 4.799225330352783203e-01 -5.843065977096557617e-01 3.299551010131835938e-01
4.321000000000000000e+03 2.229459762573242188e+01 3.436739206314086914e+00 6.732530437147943303e-06 2.610678711789660156e-05 9.851795766735449433e-06 7.120444479369325563e-06
4.322000000000000000e+03 1.613750267028808594e+01 -2.564168548583984375e+01 2.736125588417053223e-01 1.487404853105545044e-01 1.267059147357940674e-01 -2.141812145709991455e-01
4.323000000000000000e+03 3.317734527587890625e+01 -3.125165557861328125e+01 1.956341415643692017e-01 1.120261430740356445e+00 3.947686851024627686e-01 3.719595372676849365e-01
4.324000000000000000e+03 2.612875938415527344e+01 2.205441474914550781e+01 -1.055931001901626587e-01 -1.842791400849819183e-02 -3.720630332827568054e-02 3.799497336149215698e-02
4.325000000000000000e+03 2.679974365234375000e+01 -2.721287250518798828e+00 -1.548286557197570801e+00 -1.889815777540206909e-01 -5.211804509162902832e-01 -6.690574884414672852e-01
4.326000000000000000e+03 3.750011062622070312e+01 -1.523149490356445312e+01 1.781435310840606689e-01 2.883047580718994141e+00 9.183573722839355469e-01 1.455304503440856934e+00
4.327000000000000000e+03 7.241973114013671875e+01 3.550759124755859375e+01 -2.291841059923171997e-01 -1.018315553665161133e-01 -9.930469840764999390e-02 3.038119375705718994e-01
4.328000000000000000e+03 3.688706970214843750e+01 -1.197464561462402344e+01 2.510452270507812500e+00 9.872221946716308594e-01 1.049302339553833008e+00 -1.465451240539550781e+00
4.329000000000000000e+03 4.062983322143554688e+01 -1.633835983276367188e+01 -3.992492258548736572e-01 2.969595432281494141e+00 7.711038589477539062e-01 -5.074263811111450195e-01
4.330000000000000000e+03 2.265050315856933594e+01 -2.323533773422241211e+00 -8.602368831634521484e-01 1.278463304042816162e-01 -2.197171598672866821e-01 -4.483397603034973145e-01
4.331000000000000000e+03 1.341930103302001953e+01 -1.103703975677490234e+01 -2.703862190246582031e-01 -4.252589941024780273e-01 -2.086935639381408691e-01 -1.920280307531356812e-01
4.332000000000000000e+03 4.123363494873046875e+01 -1.642607116699218750e+01 -1.717511713504791260e-01 2.134752035140991211e+00 5.889002680778503418e-01 -6.270012855529785156e-01
4.333000000000000000e+03 3.094579505920410156e+01 -1.876295447349548340e+00 -3.023036479949951172e+00 3.376143872737884521e-01 -8.056266307830810547e-01 -2.540995478630065918e-01
4.334000000000000000e+03 3.529107284545898438e+01 -2.968223333358764648e+00 -2.153133630752563477e+00 5.488706231117248535e-01 -4.812789261341094971e-01 3.620059192180633545e-01
4.335000000000000000e+03 3.706132888793945312e+01 -1.012176799774169922e+01 1.611020207405090332e+00 1.328766465187072754e+00 8.819360136985778809e-01 -1.809260964393615723e+00
4.336000000000000000e+03 3.010843086242675781e+01 -2.422353982925415039e+00 -2.357424020767211914e+00 2.654983699321746826e-01 -6.275777220726013184e-01 -3.106395602226257324e-01
4.337000000000000000e+03 7.662637329101562500e+01 -3.610073089599609375e+01 6.230248254723846912e-05 -4.850362893193960190e-03 -1.436418155208230019e-03 2.691785572096705437e-03
4.338000000000000000e+03 4.789155483245849609e+00 -3.399950027465820312e+01 2.925552055239677429e-02 -5.892279744148254395e-01 -1.679917275905609131e-01 -5.141048133373260498e-02
4.339000000000000000e+03 4.391608715057373047e+00 -3.174618530273437500e+01 2.900143153965473175e-02 -6.023656129837036133e-01 -1.720092594623565674e-01 -7.051879167556762695e-02
4.340000000000000000e+03 2.861247444152832031e+01 -2.373789548873901367e+00 -2.196843147277832031e+00 7.682841271162033081e-02 -6.360043883323669434e-01 -4.295314848423004150e-01
4.341000000000000000e+03 2.836167144775390625e+01 -2.716960191726684570e+00 -1.900313973426818848e+00 7.903504371643066406e-02 -5.463836789131164551e-01 -4.976689815521240234e-01
4.342000000000000000e+03 2.897753334045410156e+01 -2.721634149551391602e+00 -1.975379705429077148e+00 1.634060144424438477e-01 -5.435920953750610352e-01 -4.510136842727661133e-01
4.343000000000000000e+03 9.443188667297363281e+00 -2.034737586975097656e+01 2.983446046710014343e-02 -3.192966282367706299e-01 -8.683865517377853394e-02 -3.413268029689788818e-01
4.344000000000000000e+03 6.282506942749023438e+01 2.269420433044433594e+01 5.366582870483398438e-01 2.575670003890991211e+00 9.336984753608703613e-01 -2.409398108720779419e-01
4.345000000000000000e+03 7.886797332763671875e+01 -1.961623001098632812e+01 -2.164614897992578335e-06 1.272875524591654539e-04 3.753687997232191265e-05 -1.017400209093466401e-04
4.346000000000000000e+03 3.907917404174804688e+01 -1.565160274505615234e+01 -5.724838972091674805e-01 4.653309345245361328e+00 1.224247694015502930e+00 8.563847541809082031e-01
4.347000000000000000e+03 2.096926498413085938e+01 4.173082828521728516e+00 2.631321513035800308e-05 -4.441461896931286901e-06 6.561525879078544676e-06 -1.754523691488429904e-05
4.348000000000000000e+03 2.071182250976562500e+01 2.313969039916992188e+01 -5.636576935648918152e-02 -3.663002746179699898e-03 -1.800863072276115417e-02 1.171914301812648773e-02
4.349000000000000000e+03 1.947206497192382812e+01 2.304395866394042969e+01 -4.309563711285591125e-02 -9.018900454975664616e-04 -1.319925859570503235e-02 6.413863971829414368e-03
4.350000000000000000e+03 4.108208084106445312e+01 -1.046500492095947266e+01 1.731008052825927734e+00 2.580785751342773438e+00 1.293538212776184082e+00 1.407076239585876465e+00
4.351000000000000000e+03 3.354159927368164062e+01 1.391035556793212891e+01 -9.907539933919906616e-03 -6.177646107971668243e-03 -4.825555719435214996e-03 1.161868777126073837e-02
4.352000000000000000e+03 1.389669513702392578e+01 1.785635185241699219e+01 3.310321189928799868e-04 1.255518291145563126e-03 4.759651201311498880e-04 4.078118072357028723e-04
4.353000000000000000e+03 3.553457498550415039e+00 -2.907104969024658203e+00 1.230262219905853271e-02 5.357095971703529358e-03 5.297915544360876083e-03 3.454254195094108582e-02
4.354000000000000000e+03 2.587335014343261719e+01 2.266975402832031250e+01 -8.957140147686004639e-02 -2.048766054213047028e-02 -3.301772102713584900e-02 3.597558289766311646e-02
4.355000000000000000e+03 2.562154388427734375e+01 2.297817802429199219e+01 -8.282087743282318115e-02 -1.920060254633426666e-02 -3.060644492506980896e-02 3.428974747657775879e-02
4.356000000000000000e+03 3.942659759521484375e+01 -2.963524436950683594e+01 6.620284914970397949e-02 1.155157685279846191e+00 3.664081394672393799e-01 -5.244778841733932495e-02
4.357000000000000000e+03 1.481944561004638672e+01 -2.914384651184082031e+01 2.039930373430252075e-01 -1.317664701491594315e-02 5.724491551518440247e-02 -1.355600655078887939e-01
4.358000000000000000e+03 2.327251052856445312e+01 -3.507069396972656250e+01 2.481746077537536621e-01 3.222005069255828857e-01 1.711125373840332031e-01 1.130627002567052841e-02
4.359000000000000000e+03 2.862920951843261719e+01 -6.319843292236328125e+00 9.567165374755859375e-01 5.003337860107421875e-01 4.371151030063629150e-01 -7.664864063262939453e-01
4.360000000000000000e+03 3.218388366699218750e+01 -6.823647022247314453e+00 1.094645857810974121e+00 4.141905307769775391e-01 4.526509344577789307e-01 -3.286344110965728760e-01
4.361000000000000000e+03 1.243755722045898438e+01 -1.204556274414062500e+01 -2.999812960624694824e-01 -3.612420558929443359e-01 -1.983670145273208618e-01 -1.869175285100936890e-01
4.362000000000000000e+03 3.511543273925781250e+01 -2.203998565673828125e+00 -2.417335033416748047e+00 4.870413839817047119e-01 -5.790880918502807617e-01 2.902298271656036377e-01
4.363000000000000000e+03 3.289644622802734375e+01 -4.204224586486816406e+00 -1.046693325042724609e+00 1.774178594350814819e-01 -2.607826292514801025e-01 8.027426898479461670e-03
4.364000000000000000e+03 1.624255371093750000e+01 3.426388549804687500e+01 1.037886086851358414e-02 -1.566459983587265015e-02 -1.585721271112561226e-03 1.522898860275745392e-02
4.365000000000000000e+03 6.399264144897460938e+01 -1.027431392669677734e+01 -1.443264842033386230e+00 -5.947818160057067871e-01 -6.114139556884765625e-01 -4.333868026733398438e-01
4.366000000000000000e+03 6.363436126708984375e+01 -8.969844818115234375e+00 -9.566196203231811523e-01 -2.266926616430282593e-01 -3.549937009811401367e-01 -2.923590242862701416e-01
4.367000000000000000e+03 3.948038482666015625e+01 -1.553437614440917969e+01 -5.670858025550842285e-01 4.836727619171142578e+00 1.280892491340637207e+00 3.046765625476837158e-01
4.368000000000000000e+03 3.015982246398925781e+01 -2.966659784317016602e+00 -1.938053250312805176e+00 2.884990572929382324e-01 -4.948662519454956055e-01 -3.768017590045928955e-01
4.369000000000000000e+03 2.969349098205566406e+01 -3.110113143920898438e+00 -1.782735943794250488e+00 2.860450148582458496e-01 -4.490072727203369141e-01 -4.242763817310333252e-01
4.370000000000000000e+03 3.926372528076171875e+01 -1.659998893737792969e+01 -7.734361886978149414e-01 3.735844135284423828e+00 8.887223601341247559e-01 5.736635327339172363e-01
4.371000000000000000e+03 6.244878768920898438e+01 -9.484109878540039062e+00 -1.200549125671386719e+00 -8.053023368120193481e-02 -3.843238055706024170e-01 -1.593180596828460693e-01
4.372000000000000000e+03 4.072608947753906250e+01 -1.711526298522949219e+01 -4.527881741523742676e-01 2.536515951156616211e+00 6.251183748245239258e-01 -2.697872519493103027e-01
4.373000000000000000e+03 1.377916240692138672e+01 -2.687279701232910156e+01 2.183875143527984619e-01 -7.736282795667648315e-02 4.230740666389465332e-02 -1.549242436885833740e-01
4.374000000000000000e+03 2.776128196716308594e+01 -2.833617210388183594e+00 -1.642408490180969238e+00 -2.493313699960708618e-02 -5.002024769783020020e-01 -5.746016502380371094e-01
4.375000000000000000e+03 2.773224639892578125e+01 -2.473408222198486328e+00 -1.958414673805236816e+00 -8.242212235927581787e-02 -6.122510433197021484e-01 -4.896351993083953857e-01
4.376000000000000000e+03 2.793764495849609375e+01 -2.614567995071411133e+00 -1.878214597702026367e+00 -4.093292355537414551e-02 -5.757442712783813477e-01 -5.306045413017272949e-01
4.377000000000000000e+03 2.902618026733398438e+01 -3.120297908782958984e+00 -1.689506769180297852e+00 1.890777200460433960e-01 -4.501287043094635010e-01 -4.827086627483367920e-01
4.378000000000000000e+03 1.727881622314453125e+01 -9.140564918518066406e+00 -1.474677324295043945e-01 -4.319320917129516602e-01 -1.738199442625045776e-01 -3.765768408775329590e-01
4.379000000000000000e+03 7.129360198974609375e+01 -1.247438526153564453e+01 -5.196810960769653320e-01 9.518134593963623047e-02 -1.273499280214309692e-01 -1.857531368732452393e-01
4.380000000000000000e+03 3.777926254272460938e+01 1.044244956970214844e+01 -6.027458701282739639e-03 -1.697397441603243351e-03 -2.317456761375069618e-03 5.744044319726526737e-04
4.381000000000000000e+03 4.328913497924804688e+01 -3.154707908630371094e+01 -5.314287263900041580e-03 6.063913106918334961e-01 1.803231090307235718e-01 -1.584252119064331055e-01
4.382000000000000000e+03 4.404129791259765625e+01 -1.181714916229248047e+01 2.231884717941284180e+00 -4.784984886646270752e-01 5.260158777236938477e-01 7.264614701271057129e-01
4.383000000000000000e+03 4.328167343139648438e+01 -1.119384574890136719e+01 2.449041128158569336e+00 -1.687424182891845703e-01 6.840896606445312500e-01 1.135495424270629883e+00
4.384000000000000000e+03 2.078206443786621094e+01 3.833053350448608398e+00 -3.127162563032470644e-05 -2.537209547881502658e-05 -1.699311724223662168e-05 1.332940064457943663e-05
4.385000000000000000e+03 2.325078392028808594e+01 2.364051055908203125e+01 -6.583196669816970825e-02 -1.321775652468204498e-02 -2.371491678059101105e-02 2.391689829528331757e-02
4.386000000000000000e+03 1.990190887451171875e+01 2.351425552368164062e+01 -4.592584818601608276e-02 -2.995951566845178604e-03 -1.467653922736644745e-02 1.249926444143056870e-02
4.387000000000000000e+03 1.391655349731445312e+01 1.893935012817382812e+01 -9.816334350034594536e-04 8.296383894048631191e-04 -4.559853550745174289e-05 -3.498587757349014282e-04
4.388000000000000000e+03 1.363857078552246094e+01 1.596250438690185547e+01 -1.020135168801061809e-04 8.423367980867624283e-04 2.220969909103587270e-04 4.356805293355137110e-04
4.389000000000000000e+03 7.565500640869140625e+01 3.004279708862304688e+01 -5.759148299694061279e-02 -8.517304658889770508e-01 -2.727965712547302246e-01 4.195238947868347168e-01
4.390000000000000000e+03 7.572156524658203125e+01 -1.975923347473144531e+01 5.050894469604827464e-05 -1.502211962360888720e-04 -2.991367546201217920e-05 -1.749354269122704864e-04
4.391000000000000000e+03 3.869423675537109375e+01 -4.401175022125244141e+00 -2.164914608001708984e+00 8.624863624572753906e-01 -3.907284438610076904e-01 2.627839744091033936e-01
4.392000000000000000e+03 3.053301429748535156e+01 -2.512263536453247070e+00 -2.348810911178588867e+00 2.878572940826416016e-01 -6.182860732078552246e-01 -3.173110783100128174e-01
4.393000000000000000e+03 3.107033538818359375e+01 -2.752284526824951172e+00 -2.241978168487548828e+00 2.646814584732055664e-01 -5.931890010833740234e-01 -3.261404931545257568e-01
4.394000000000000000e+03 3.792158889770507812e+01 -1.679377555847167969e+01 -6.884293556213378906e-01 3.013250350952148438e+00 6.974462866783142090e-01 1.261956572532653809e+00
4.395000000000000000e+03 4.468868255615234375e+01 -3.385130310058593750e+01 -5.254184827208518982e-03 4.772318601608276367e-01 1.415932923555374146e-01 -1.507132053375244141e-01
4.396000000000000000e+03 7.249903869628906250e+01 -2.146727561950683594e+01 -2.043196727754548192e-04 -1.795880089048296213e-04 -1.151723045040853322e-04 -4.554161569103598595e-05
4.397000000000000000e+03 1.788294792175292969e+01 -7.424926757812500000e+00 -1.084135025739669800e-01 -3.211458921432495117e-01 -1.288678199052810669e-01 -4.261268377304077148e-01
4.398000000000000000e+03 5.191589355468750000e+01 -1.125823211669921875e+01 -3.636981248855590820e-01 3.663832843303680420e-01 8.055543294176459312e-04 1.118628621101379395e+00
4.399000000000000000e+03 5.667454910278320312e+01 2.913057518005371094e+01 -7.356710266321897507e-03 8.917685151100158691e-01 2.653235495090484619e-01 -5.838454961776733398e-01
4.400000000000000000e+03 6.196939849853515625e+01 -8.246683120727539062e+00 -6.805482506752014160e-01 1.565085053443908691e-01 -1.572119146585464478e-01 -1.715568080544471741e-02
4.401000000000000000e+03 6.809929370880126953e+00 -2.974363899230957031e+01 7.877494394779205322e-02 -4.368875920772552490e-01 -1.074337959289550781e-01 -1.275200396776199341e-01
4.402000000000000000e+03 3.176294708251953125e+01 -3.502393722534179688e+00 -1.577335834503173828e+00 1.934184581041336060e-01 -4.151751995086669922e-01 -2.539674341678619385e-01
4.403000000000000000e+03 5.692583084106445312e+01 -1.042218112945556641e+01 -9.518364667892456055e-01 6.507875919342041016e-01 -9.031466394662857056e-02 3.460910618305206299e-01
4.404000000000000000e+03 5.606236648559570312e+01 -1.085789489746093750e+01 -9.819280505180358887e-01 5.944097042083740234e-01 -1.162554994225502014e-01 4.383530318737030029e-01
4.405000000000000000e+03 6.779221343994140625e+01 2.445938682556152344e+01 5.188322067260742188e-02 1.286890387535095215e+00 4.016321003437042236e-01 5.335469245910644531e-01
4.406000000000000000e+03 3.842989730834960938e+01 -1.732674217224121094e+01 -6.864240169525146484e-01 3.053790569305419922e+00 7.102099657058715820e-01 1.024233579635620117e+00
4.407000000000000000e+03 2.796662330627441406e+01 -3.019933938980102539e+00 -1.618181586265563965e+00 -6.074016913771629333e-03 -4.872766733169555664e-01 -6.034939885139465332e-01
4.408000000000000000e+03 4.354632949829101562e+01 -1.202064704895019531e+01 2.564821720123291016e+00 -3.645804822444915771e-01 6.600723862648010254e-01 6.035699248313903809e-01
4.409000000000000000e+03 2.760495948791503906e+01 -3.049387931823730469e+00 -1.497289657592773438e+00 -2.539412863552570343e-02 -4.568051099777221680e-01 -6.680975556373596191e-01
4.410000000000000000e+03 2.783698272705078125e+01 -3.239625930786132812e+00 -1.395880103111267090e+00 4.192382469773292542e-02 -4.061869084835052490e-01 -6.517664194107055664e-01
4.411000000000000000e+03 3.062385749816894531e+01 -4.050044536590576172e+00 -1.184475183486938477e+00 4.059096872806549072e-01 -2.335696518421173096e-01 -3.836402297019958496e-01
4.412000000000000000e+03 2.866139411926269531e+01 -3.586432456970214844e+00 -1.245681643486022949e+00 1.839503496885299683e-01 -3.185194134712219238e-01 -6.149080991744995117e-01
4.413000000000000000e+03 3.021438217163085938e+01 -3.927472352981567383e+00 -1.213439583778381348e+00 4.332214891910552979e-01 -2.340654432773590088e-01 -4.725772738456726074e-01
4.414000000000000000e+03 4.135942077636718750e+01 -3.174426460266113281e+01 -6.990057416260242462e-03 8.254725337028503418e-01 2.455447465181350708e-01 -1.323709189891815186e-01
4.415000000000000000e+03 3.695579147338867188e+01 1.163547992706298828e+01 -1.209642831236124039e-02 -1.946498741745017469e-05 -3.634768072515726089e-03 2.276041544973850250e-03
4.416000000000000000e+03 3.680519866943359375e+01 1.088782215118408203e+01 -6.714072078466415405e-03 -1.498467405326664448e-03 -2.463761949911713600e-03 1.853661495260894299e-03
4.417000000000000000e+03 1.834212684631347656e+01 2.385150337219238281e+01 -3.286367282271385193e-02 -1.233286340720951557e-03 -1.022908836603164673e-02 1.125144865363836288e-02
4.418000000000000000e+03 2.771194076538085938e+01 -4.366621494293212891e+00 -5.538300275802612305e-01 1.151530444622039795e-01 -1.316030919551849365e-01 -8.291943073272705078e-01
4.419000000000000000e+03 2.718639945983886719e+01 -4.589893817901611328e+00 -3.639082312583923340e-01 7.180560380220413208e-02 -8.763078600168228149e-02 -9.073797464370727539e-01
4.420000000000000000e+03 7.594992065429687500e+01 -3.681534576416015625e+01 9.842024883255362511e-04 -5.354325287044048309e-03 -1.311036874540150166e-03 2.725634956732392311e-03
4.421000000000000000e+03 3.704822158813476562e+01 -4.362873077392578125e+00 -1.722435712814331055e+00 8.604105710983276367e-01 -2.586075365543365479e-01 1.771290451288223267e-01
4.422000000000000000e+03 3.777532577514648438e+01 -5.171409130096435547e+00 -1.559470534324645996e+00 9.876196384429931641e-01 -1.715552806854248047e-01 -9.991911239922046661e-03
4.423000000000000000e+03 3.688476943969726562e+01 -5.830349922180175781e+00 -9.299409389495849609e-01 9.064784049987792969e-01 -7.038771174848079681e-03 -2.612828314304351807e-01
4.424000000000000000e+03 6.589884185791015625e+01 1.140790176391601562e+01 5.710895657539367676e-01 2.862541675567626953e+00 1.030089378356933594e+00 6.941238790750503540e-02
4.425000000000000000e+03 3.905088806152343750e+01 -3.313019943237304688e+01 -3.620247170329093933e-02 1.023337244987487793e+00 2.961404621601104736e-01 -4.913576692342758179e-02
4.426000000000000000e+03 9.625494003295898438e+00 3.195946502685546875e+01 3.772438212763518095e-04 -8.529108949005603790e-03 -2.445559483021497726e-03 1.044469419866800308e-02
4.427000000000000000e+03 3.477202987670898438e+01 5.059329032897949219e+00 -1.078269327990710735e-03 5.590022192336618900e-04 -1.557801297167316079e-04 -2.268166863359510899e-04
4.428000000000000000e+03 2.658247947692871094e+01 -4.820082664489746094e+00 -1.775211840867996216e-01 -2.812109887599945068e-02 -6.169268488883972168e-02 -9.421916604042053223e-01
4.429000000000000000e+03 7.307566070556640625e+01 2.912499046325683594e+01 -1.174383908510208130e-01 -2.754853963851928711e-01 -1.178771331906318665e-01 5.472561120986938477e-01
4.430000000000000000e+03 3.415513992309570312e+01 1.131171703338623047e+01 -2.957877935841679573e-03 -1.092981314286589622e-03 -1.215257681906223297e-03 2.664027968421578407e-03
4.431000000000000000e+03 1.324030780792236328e+01 1.680634498596191406e+01 3.547773812897503376e-04 4.781828029081225395e-04 2.498880494385957718e-04 4.095393524039536715e-04
4.432000000000000000e+03 1.293799400329589844e+01 1.775249290466308594e+01 -2.768456179182976484e-04 -1.474854361731559038e-04 -1.272993104066699743e-04 3.751887707039713860e-04
4.433000000000000000e+03 3.237103271484375000e+01 1.593830299377441406e+01 -1.667517423629760742e-02 -1.966401934623718262e-02 -1.090175751596689224e-02 2.193701267242431641e-02
4.434000000000000000e+03 5.247768783569335938e+01 2.551798629760742188e+01 2.978188991546630859e-01 1.426089704036712646e-01 1.321283578872680664e-01 -3.193104565143585205e-01
4.435000000000000000e+03 4.425307464599609375e+01 -1.107971668243408203e+01 1.937472343444824219e+00 -4.946693778038024902e-01 4.328408837318420410e-01 1.054673314094543457e+00
4.436000000000000000e+03 3.321487426757812500e+01 -4.901590824127197266e+00 -5.351002812385559082e-01 2.791906297206878662e-01 -7.677289843559265137e-02 -2.169369533658027649e-02
4.437000000000000000e+03 3.971425247192382812e+01 -8.772721290588378906e+00 9.102703630924224854e-02 2.256261825561523438e+00 7.041866779327392578e-01 -7.681192457675933838e-02
4.438000000000000000e+03 8.966630935668945312e+00 -2.117648506164550781e+01 7.240415364503860474e-02 -3.325750529766082764e-01 -7.805126905441284180e-02 -3.214140236377716064e-01
4.439000000000000000e+03 7.322726440429687500e+01 -2.189268875122070312e+01 7.009294495219364762e-05 -3.281991230323910713e-04 -7.743185415165498853e-05 -1.689788405201397836e-05
4.440000000000000000e+03 1.624964332580566406e+01 2.963856124877929688e+01 -4.655127879232168198e-03 -9.421416558325290680e-03 -4.222963005304336548e-03 1.967604830861091614e-02
4.441000000000000000e+03 6.830545806884765625e+01 2.861094284057617188e+01 -2.705173492431640625e-01 8.340629339218139648e-01 1.690636575222015381e-01 4.736239612102508545e-01
4.442000000000000000e+03 6.043309402465820312e+01 -7.580126285552978516e+00 -4.171011745929718018e-01 5.317602157592773438e-01 3.439771756529808044e-02 1.875276714563369751e-01
4.443000000000000000e+03 5.586096763610839844e+00 -3.303147888183593750e+01 4.221908748149871826e-02 -5.327783823013305664e-01 -1.471678018569946289e-01 -7.418475300073623657e-02
4.444000000000000000e+03 3.486417007446289062e+01 5.354700088500976562e+00 1.858555013313889503e-03 -3.654805186670273542e-04 4.479223280213773251e-04 -2.134928508894518018e-04
4.445000000000000000e+03 3.477518463134765625e+01 8.430682182312011719e+00 -5.505698572960682213e-05 1.520773075753822923e-04 2.910609873651992530e-05 -7.828893139958381653e-04
4.446000000000000000e+03 3.446605682373046875e+01 8.542332649230957031e+00 1.318347494816407561e-04 -1.030736370012164116e-03 -2.696705050766468048e-04 6.832031795056536794e-05
4.447000000000000000e+03 3.928691482543945312e+01 -1.712607955932617188e+01 -7.455896139144897461e-01 3.244184732437133789e+00 7.495785355567932129e-01 4.935974180698394775e-01
4.448000000000000000e+03 2.812885284423828125e+01 -3.261210918426513672e+00 -1.406402111053466797e+00 6.078645959496498108e-02 -4.036847054958343506e-01 -6.033692359924316406e-01
4.449000000000000000e+03 7.171512603759765625e+01 3.036132049560546875e+01 -2.041223496198654175e-01 3.862280026078224182e-02 -4.964986443519592285e-02 4.963673055171966553e-01
4.450000000000000000e+03 3.943300628662109375e+01 -3.131963920593261719e+01 -3.291217610239982605e-02 1.071358680725097656e+00 3.115339577198028564e-01 -9.339644759893417358e-02
4.451000000000000000e+03 7.020304870605468750e+01 -2.834814071655273438e+01 -4.794800188392400742e-03 8.756903116591274738e-04 -1.175732933916151524e-03 2.029425231739878654e-03
4.452000000000000000e+03 5.678475856781005859e+00 4.015767097473144531e+00 4.799764792551286519e-05 1.307716229348443449e-05 1.832244379329495132e-05 -4.943965905113145709e-05
4.453000000000000000e+03 1.295649719238281250e+01 1.444486999511718750e+01 1.341931492788717151e-04 2.370002621319144964e-04 1.113580219680443406e-04 4.976271302439272404e-04
4.454000000000000000e+03 2.068390846252441406e+01 2.419596862792968750e+01 -4.566902294754981995e-02 -7.212806958705186844e-03 -1.586454920470714569e-02 1.930615492165088654e-02
4.455000000000000000e+03 3.508447647094726562e+01 1.205128192901611328e+01 -6.939505692571401596e-03 -8.165989420376718044e-04 -2.326831454411149025e-03 4.736077040433883667e-03
4.456000000000000000e+03 4.119377517700195312e+01 -2.144906044006347656e+01 -3.673477470874786377e-02 1.378148913383483887e+00 4.024242460727691650e-01 1.853838711977005005e-01
4.457000000000000000e+03 4.719057464599609375e+01 2.318422126770019531e+01 3.916400298476219177e-02 2.165069989860057831e-02 1.824441179633140564e-02 -3.140942007303237915e-02
4.458000000000000000e+03 4.505860519409179688e+01 -1.173185062408447266e+01 1.720967531204223633e+00 -5.941905975341796875e-01 3.380330801010131836e-01 8.117179274559020996e-01
4.459000000000000000e+03 4.419313049316406250e+01 -1.065702247619628906e+01 1.801741123199462891e+00 -4.268358647823333740e-01 4.124715626239776611e-01 1.260959982872009277e+00
4.460000000000000000e+03 4.431269836425781250e+01 -1.029177665710449219e+01 1.616436719894409180e+00 -4.337002635002136230e-01 3.548209369182586670e-01 1.373849153518676758e+00
4.461000000000000000e+03 1.152773666381835938e+01 1.435889816284179688e+01 2.722973586060106754e-04 -1.477467594668269157e-04 3.736518556252121925e-05 2.622504835017025471e-04
4.462000000000000000e+03 3.653090286254882812e+01 1.188125228881835938e+01 -1.037881150841712952e-02 5.861536483280360699e-04 -2.937797224149107933e-03 3.611909458413720131e-03
4.463000000000000000e+03 3.658206558227539062e+01 1.142638206481933594e+01 -8.705066516995429993e-03 6.836539250798523426e-04 -2.406423678621649742e-03 5.566891049966216087e-04
4.464000000000000000e+03 2.654389190673828125e+01 2.472203445434570312e+01 -4.684228077530860901e-02 -3.003659285604953766e-02 -2.306366153061389923e-02 3.249694406986236572e-02
4.465000000000000000e+03 1.858650779724121094e+01 2.480737876892089844e+01 -3.026508539915084839e-02 -3.802340477705001831e-03 -1.022022776305675507e-02 1.650148071348667145e-02
4.466000000000000000e+03 7.895540237426757812e+00 -1.325128173828125000e+01 -1.774898022413253784e-01 -1.770295053720474243e-01 -1.063557937741279602e-01 -1.775985658168792725e-01
4.467000000000000000e+03 1.357712459564208984e+01 2.306951904296875000e+01 -1.333576161414384842e-02 1.667834934778511524e-03 -3.500377992168068886e-03 4.324177745729684830e-03
4.468000000000000000e+03 1.231647109985351562e+01 1.994189262390136719e+01 -3.354041138663887978e-03 2.142848825315013528e-04 -9.419269044883549213e-04 -5.704743671230971813e-04
4.469000000000000000e+03 1.496990680694580078e+01 2.385938835144042969e+01 -1.777456142008304596e-02 1.064747106283903122e-03 -5.012944340705871582e-03 7.782948203384876251e-03
4.470000000000000000e+03 1.961297607421875000e+01 2.819075584411621094e+01 -1.297477632761001587e-02 -1.306538283824920654e-02 -7.812047842890024185e-03 2.616253867745399475e-02
4.471000000000000000e+03 2.726113128662109375e+01 2.616868209838867188e+01 -2.334439195692539215e-02 -2.612072788178920746e-02 -1.483953651040792465e-02 2.655129134654998779e-02
4.472000000000000000e+03 1.758848953247070312e+01 5.349602699279785156e+00 1.812654227251186967e-05 3.632341076809098013e-06 6.527664936584187672e-06 9.873385351966135204e-06
4.473000000000000000e+03 7.716828346252441406e+00 -4.724335193634033203e+00 -3.165532276034355164e-02 -4.857662320137023926e-02 -2.406958490610122681e-02 2.568438940215855837e-04
4.474000000000000000e+03 1.659438133239746094e+01 7.378905296325683594e+00 3.381955684744752944e-05 3.569058389985002577e-05 2.085304186039138585e-05 4.005431401310488582e-05
4.475000000000000000e+03 4.127972412109375000e+01 -1.992396354675292969e+01 -1.988052129745483398e-01 1.611527323722839355e+00 4.238166213035583496e-01 1.113234683871269226e-01
4.476000000000000000e+03 7.161411285400390625e+01 -1.194810295104980469e+01 -4.860534071922302246e-01 9.855341166257858276e-02 -1.162500008940696716e-01 -2.266676723957061768e-01
4.477000000000000000e+03 4.477626419067382812e+01 -1.087984275817871094e+01 1.627831339836120605e+00 -5.963062047958374023e-01 3.094575405120849609e-01 1.151465177536010742e+00
4.478000000000000000e+03 3.485578536987304688e+01 1.613667488098144531e+01 -3.341538086533546448e-02 2.016406040638685226e-03 -9.419692680239677429e-03 2.343274280428886414e-02
4.479000000000000000e+03 1.606932258605957031e+01 8.696340560913085938e+00 5.363848686101846397e-05 9.413165389560163021e-05 4.433104186318814754e-05 -1.453151344321668148e-05
4.480000000000000000e+03 3.665065765380859375e+01 1.237564849853515625e+01 -1.608841307461261749e-02 1.733400509692728519e-03 -4.306504037231206894e-03 3.840607590973377228e-03
4.481000000000000000e+03 1.424173164367675781e+01 -4.563529491424560547e+00 -1.198145300149917603e-01 -1.632194072008132935e-01 -8.491017669439315796e-02 -2.209479808807373047e-01
4.482000000000000000e+03 1.453456306457519531e+01 -5.617381095886230469e+00 -1.196134090423583984e-01 -2.229888141155242920e-01 -1.027806699275970459e-01 -2.490720897912979126e-01
4.483000000000000000e+03 7.239241123199462891e+00 -9.980697631835937500e+00 -1.198138967156410217e-01 -1.178041249513626099e-01 -7.128540426492691040e-02 -7.170172035694122314e-02
4.484000000000000000e+03 1.740651321411132812e+01 2.474983215332031250e+01 -2.494755014777183533e-02 -1.145558082498610020e-03 -7.827932946383953094e-03 1.360925938934087753e-02
4.485000000000000000e+03 1.201153850555419922e+01 2.775431632995605469e+01 -7.827472873032093048e-03 -3.732132026925683022e-03 -3.467881586402654648e-03 1.167997345328330994e-02
4.486000000000000000e+03 1.174979782104492188e+01 1.965351486206054688e+01 -2.711181994527578354e-03 -8.715016156202182174e-05 -8.394996402785181999e-04 -4.329152579884976149e-04
4.487000000000000000e+03 7.240885925292968750e+01 -9.650145530700683594e+00 -4.303947389125823975e-01 1.468394696712493896e-02 -1.247132420539855957e-01 -4.905714392662048340e-01
4.488000000000000000e+03 7.147819519042968750e+01 -7.252602577209472656e+00 -3.572214245796203613e-01 -2.113929577171802521e-02 -1.135082170367240906e-01 -7.480542063713073730e-01
4.489000000000000000e+03 2.846814918518066406e+01 2.427377700805664062e+01 -4.812501370906829834e-02 -3.264570236206054688e-02 -2.423121407628059387e-02 2.817559428513050079e-02
4.490000000000000000e+03 7.170149230957031250e+01 1.503662109375000000e+01 4.849766492843627930e-01 5.562217906117439270e-02 1.621796488761901855e-01 9.317675232887268066e-02
4.491000000000000000e+03 2.246235466003417969e+01 2.835025787353515625e+01 -8.476989343762397766e-03 -1.934350840747356415e-02 -8.346149697899818420e-03 2.826461009681224823e-02
4.492000000000000000e+03 3.492360305786132812e+01 1.159631347656250000e+01 -7.641187403351068497e-03 -8.541917195543646812e-04 -2.548613818362355232e-03 3.358154324814677238e-03
4.493000000000000000e+03 3.601729965209960938e+01 1.192087841033935547e+01 -1.099036820232868195e-02 7.335520931519567966e-04 -3.077044850215315819e-03 2.621702617034316063e-03
4.494000000000000000e+03 1.570859527587890625e+01 8.629105567932128906e+00 -3.573815411073155701e-05 1.718766725389286876e-06 -1.020581657940056175e-05 2.164204175869599567e-07
4.495000000000000000e+03 7.337335205078125000e+01 -2.902091979980468750e+00 -3.989957645535469055e-02 -3.799579441547393799e-01 -1.259572505950927734e-01 -7.859050631523132324e-01
4.496000000000000000e+03 6.178742885589599609e+00 5.170940399169921875e+00 -1.673030237725470215e-05 1.249996557817212306e-06 -4.644091859518084675e-06 -5.664678610628470778e-05
4.497000000000000000e+03 1.732875633239746094e+01 5.005136489868164062e+00 -4.276910840417258441e-05 6.371826657414203510e-06 -1.091918420570436865e-05 -4.416250703798141330e-06
4.498000000000000000e+03 2.116625976562500000e+01 2.470420646667480469e+01 -4.270680993795394897e-02 -1.026932522654533386e-02 -1.589284092187881470e-02 2.306389994919300079e-02
4.499000000000000000e+03 4.203903198242187500e+01 -1.947945976257324219e+01 -1.514292955398559570e-01 1.278798222541809082e+00 3.382106721401214600e-01 -2.669555880129337311e-02
4.500000000000000000e+03 2.368115997314453125e+01 2.568999862670898438e+01 -3.585355356335639954e-02 -2.105372771620750427e-02 -1.707218401134014130e-02 2.895060181617736816e-02
4.501000000000000000e+03 6.765182018280029297e+00 -7.505867958068847656e+00 -7.334768027067184448e-02 -7.650953531265258789e-02 -4.495716467499732971e-02 -2.174816094338893890e-02
4.502000000000000000e+03 7.448833942413330078e+00 -6.984539031982421875e+00 -7.514470815658569336e-02 -8.260516077280044556e-02 -4.732495918869972229e-02 -2.282846346497535706e-02
4.503000000000000000e+03 1.483173465728759766e+01 8.323966979980468750e+00 -8.082731801550835371e-05 5.205307752476073802e-05 -8.632271601527463645e-06 1.937677734531462193e-05
4.504000000000000000e+03 1.409238338470458984e+01 8.439925193786621094e+00 -7.110596197890117764e-05 8.591122605139389634e-05 4.441579221747815609e-06 2.611387935758102685e-05
4.505000000000000000e+03 2.317527008056640625e+01 2.615679550170898438e+01 -2.978671528398990631e-02 -1.978354714810848236e-02 -1.487107854336500168e-02 2.846777439117431641e-02
4.506000000000000000e+03 1.192706775665283203e+01 1.868784141540527344e+01 -1.601874362677335739e-03 -5.188153591006994247e-04 -6.362068816088140011e-04 -8.068348688539117575e-05
4.507000000000000000e+03 7.139981079101562500e+01 -6.544915676116943359e+00 -3.359757959842681885e-01 -2.200280688703060150e-02 -1.073935851454734802e-01 -7.825850844383239746e-01
4.508000000000000000e+03 6.850479888916015625e+01 1.047796535491943359e+01 5.673643350601196289e-01 1.391669988632202148e+00 5.877102613449096680e-01 -1.274802088737487793e-01
4.509000000000000000e+03 2.155125999450683594e+01 2.470891189575195312e+01 -4.418574273586273193e-02 -1.301246695220470428e-02 -1.715946197509765625e-02 2.420330606400966644e-02
4.510000000000000000e+03 7.081130218505859375e+01 8.212195396423339844e+00 4.322910904884338379e-01 3.650186359882354736e-01 2.391929179430007935e-01 -3.598698973655700684e-01
4.511000000000000000e+03 3.216675949096679688e+01 1.965657043457031250e+01 -6.204488500952720642e-02 -1.530880387872457504e-02 -2.320610545575618744e-02 3.651851415634155273e-02
4.512000000000000000e+03 3.727363204956054688e+01 2.308572959899902344e+01 -2.866261266171932220e-02 3.765259310603141785e-02 2.696994459256529808e-03 1.168794557452201843e-02
4.513000000000000000e+03 9.364318847656250000e+00 -6.122051239013671875e+00 -8.378404378890991211e-02 -1.110657751560211182e-01 -5.845494568347930908e-02 -5.095416307449340820e-02
4.514000000000000000e+03 9.114461898803710938e+00 -5.540054321289062500e+00 -6.296203285455703735e-02 -8.761692047119140625e-02 -4.517368599772453308e-02 -3.763114288449287415e-02
4.515000000000000000e+03 3.027647781372070312e+01 2.280402565002441406e+01 -6.119082495570182800e-02 -2.859727106988430023e-02 -2.693642862141132355e-02 2.294929884374141693e-02
4.516000000000000000e+03 1.291664028167724609e+01 1.031297969818115234e+01 -6.557997403433546424e-05 5.911982225370593369e-05 -1.938046807481441647e-06 2.643849875312298536e-04
4.517000000000000000e+03 1.155317783355712891e+01 1.927016448974609375e+01 -2.320005791261792183e-03 -5.476103979162871838e-04 -8.602848392911255360e-04 8.172118396032601595e-05
4.518000000000000000e+03 3.085668182373046875e+01 2.304364585876464844e+01 -5.542481318116188049e-02 -2.291171438992023468e-02 -2.350095845758914948e-02 1.819948852062225342e-02
4.519000000000000000e+03 9.590057373046875000e+00 2.443606758117675781e+01 -5.671482998877763748e-03 -1.290877698920667171e-03 -2.088708104565739632e-03 4.904879722744226456e-03
4.520000000000000000e+03 3.337476348876953125e+01 2.038024711608886719e+01 -5.837864056229591370e-02 4.260344430804252625e-03 -1.623548939824104309e-02 2.796445786952972412e-02
4.521000000000000000e+03 6.839523792266845703e+00 1.048426342010498047e+01 1.099713190342299640e-04 -2.249777171527966857e-04 -3.450191798037849367e-05 -6.778150691388873383e-06
4.522000000000000000e+03 1.468296432495117188e+01 6.679828166961669922e+00 -2.817370477714575827e-05 3.702590765897184610e-05 2.655661546668852679e-06 4.587705552694387734e-05
4.523000000000000000e+03 7.724701404571533203e+00 1.869075012207031250e+01 -1.286202459596097469e-03 -9.511818061582744122e-04 -6.712152971886098385e-04 2.047066227532923222e-04
4.524000000000000000e+03 6.722253322601318359e+00 2.341662979125976562e+01 -3.212303388863801956e-03 -1.328082638792693615e-03 -1.362115843221545219e-03 2.739215036854147911e-03
4.525000000000000000e+03 9.541270256042480469e+00 6.151774883270263672e+00 1.555766793899238110e-04 -2.766300349321682006e-05 3.837410258711315691e-05 2.323553962924052030e-05
4.526000000000000000e+03 3.365373611450195312e+01 1.576640963554382324e+00 -4.717295814771205187e-04 -1.064050320565002039e-05 -1.447110262233763933e-04 -2.116428076988086104e-04
4.527000000000000000e+03 3.496414566040039062e+01 5.133104324340820312e-01 6.027775270922575146e-06 -2.648738882271572948e-05 -6.137883701740065590e-06 -5.684110510628670454e-05
4.528000000000000000e+03 3.455622100830078125e+01 1.531800985336303711e+00 3.247742133680731058e-04 3.892585227731615305e-04 2.142098237527534366e-04 -8.149909263011068106e-05
4.529000000000000000e+03 3.492177963256835938e+01 7.063324451446533203e-01 2.434806447126902640e-05 2.869471500162035227e-04 9.338856762042269111e-05 4.785710552823729813e-05
4.530000000000000000e+03 3.478488922119140625e+01 1.781563878059387207e+00 1.939671346917748451e-04 3.780784900300204754e-04 1.716136903269216418e-04 1.837458985392004251e-04
4.531000000000000000e+03 3.458167266845703125e+01 1.753330111503601074e+00 -2.911991905421018600e-04 -2.523653965909034014e-04 -1.630693732295185328e-04 2.422006218694150448e-04
4.532000000000000000e+03 3.462108230590820312e+01 1.320459365844726562e+00 2.006790600717067719e-04 3.354386135470122099e-04 1.608353049959987402e-04 -1.527474232716485858e-04
4.533000000000000000e+03 3.486197280883789062e+01 1.055792212486267090e+00 9.957662405213341117e-05 -7.894304872024804354e-05 6.190071871969848871e-06 5.575543618761003017e-04
4.534000000000000000e+03 3.320969009399414062e+01 1.529959678649902344e+00 4.350026138126850128e-04 1.224377629114314914e-04 1.672321086516603827e-04 -1.415285223629325628e-04
4.535000000000000000e+03 3.334902191162109375e+01 1.622598052024841309e+00 -9.605543891666457057e-05 4.250700555985531537e-07 -2.868910996767226607e-05 1.788225199561566114e-04
4.536000000000000000e+03 3.350032043457031250e+01 1.674203872680664062e+00 -1.767331850714981556e-04 6.504503544420003891e-04 1.421151537215337157e-04 -7.744382310193032026e-05
4.537000000000000000e+03 3.483629989624023438e+01 1.236152768135070801e+00 -4.239300033077597618e-04 -1.258676784345880151e-04 -1.649392943363636732e-04 -4.696472606156021357e-04
4.538000000000000000e+03 3.479904937744140625e+01 1.588803052902221680e+00 -4.052426957059651613e-04 -1.698169508017599583e-04 -1.725178881315514445e-04 6.918651342857629061e-05
4.539000000000000000e+03 3.483137130737304688e+01 1.411675333976745605e+00 3.707507567014545202e-04 -8.891860488802194595e-05 8.454964699922129512e-05 5.521244747797027230e-05
4.540000000000000000e+03 3.490541458129882812e+01 8.838708996772766113e-01 -2.282314526382833719e-04 -1.923148811329156160e-04 -1.261638972209766507e-04 -3.454068792052567005e-04
4.541000000000000000e+03 3.373072814941406250e+01 1.148025155067443848e+00 -3.040713199879974127e-04 -2.027810260187834501e-04 -1.520557125331833959e-04 1.058141569956205785e-04
4.542000000000000000e+03 3.400005722045898438e+01 1.656924128532409668e+00 2.503717259969562292e-04 2.940711565315723419e-04 1.633328647585585713e-04 -2.131444052793085575e-04
4.543000000000000000e+03 3.350587081909179688e+01 1.435347199440002441e+00 4.034047306049615145e-04 8.722901111468672752e-05 1.471901196055114269e-04 -2.347377740079537034e-04
4.544000000000000000e+03 3.422412490844726562e+01 1.719584941864013672e+00 -1.342655450571328402e-04 -2.285806549480184913e-04 -1.088538629119284451e-04 7.311389199458062649e-04
4.545000000000000000e+03 3.407532882690429688e+01 5.203839540481567383e-01 -2.201576717197895050e-04 -3.341040064697153866e-05 -7.607042061863467097e-05 7.040548371151089668e-05
4.546000000000000000e+03 3.442555618286132812e+01 6.639856696128845215e-01 -3.396575630176812410e-04 -2.509186742827296257e-04 -1.771728711901232600e-04 -4.047913535032421350e-05
4.547000000000000000e+03 3.364273452758789062e+01 1.700774073600769043e+00 2.866167051251977682e-05 -2.610045485198497772e-04 -6.970286631258204579e-05 1.952958155015949160e-05
4.548000000000000000e+03 3.433422088623046875e+01 1.559625267982482910e+00 -3.450569347478449345e-04 -8.330951095558702946e-04 -3.534456191118806601e-04 3.024714824277907610e-04
4.549000000000000000e+03 3.474470520019531250e+01 5.020679235458374023e-01 4.826348958886228502e-05 2.701013872865587473e-04 9.550945833325386047e-05 4.296667975722812116e-05
4.550000000000000000e+03 3.438750457763671875e+01 1.119982838630676270e+00 -4.638583923224359751e-04 -2.475407964084297419e-04 -2.134197566192597151e-04 1.074410756700672209e-04
4.551000000000000000e+03 3.410485458374023438e+01 1.378117084503173828e+00 2.399071527179330587e-04 4.257883992977440357e-04 1.997086656047031283e-04 -1.540104130981490016e-04
4.552000000000000000e+03 3.466735839843750000e+01 9.404675364494323730e-01 6.373480428010225296e-04 2.386427076999098063e-04 2.627972280606627464e-04 1.060446229530498385e-04
4.553000000000000000e+03 3.411146926879882812e+01 8.511812090873718262e-01 5.180640728212893009e-04 2.366376429563388228e-04 2.264105278300121427e-04 -5.120135938341263682e-06
4.554000000000000000e+03 3.379204177856445312e+01 1.664782166481018066e+00 -6.009135395288467407e-04 -6.503566401079297066e-04 -3.753810597117990255e-04 2.079287951346486807e-04
4.555000000000000000e+03 3.455142974853515625e+01 4.722054898738861084e-01 8.165826147887855768e-05 -5.995461251586675644e-04 -1.553663605591282248e-04 1.329312653979286551e-04
4.556000000000000000e+03 3.465433502197265625e+01 7.233890891075134277e-01 -2.714692673180252314e-04 -1.859295298345386982e-04 -1.372196420561522245e-04 -1.146603390225209296e-04
4.557000000000000000e+03 3.435990142822265625e+01 4.721285998821258545e-01 7.277923577930778265e-05 4.191249900031834841e-04 1.475712779210880399e-04 -3.130399563815444708e-04
4.558000000000000000e+03 3.439619827270507812e+01 1.747237682342529297e+00 6.439733551815152168e-04 3.900686278939247131e-04 3.102125774603337049e-04 -6.625730893574655056e-04
4.559000000000000000e+03 3.355002593994140625e+01 -1.336139678955078125e+00 -2.815176725387573242e+00 -4.398898184299468994e-01 -9.765200018882751465e-01 2.122666090726852417e-01
4.560000000000000000e+03 3.387998962402343750e+01 -1.357542157173156738e+00 -3.541717052459716797e+00 -3.284639213234186172e-03 -1.063500523567199707e+00 1.272005587816238403e-01
4.561000000000000000e+03 3.400633621215820312e+01 -1.437711238861083984e+00 -3.291314125061035156e+00 1.832557320594787598e-01 -9.324175715446472168e-01 3.724003136157989502e-01
4.562000000000000000e+03 3.359782409667968750e+01 -1.530442714691162109e+00 -2.886665105819702148e+00 -4.489543437957763672e-01 -1.000685811042785645e+00 5.559632182121276855e-01
4.563000000000000000e+03 3.337884902954101562e+01 -1.355730533599853516e+00 -4.106837749481201172e+00 -9.865340590476989746e-01 -1.528011441230773926e+00 -2.376607805490493774e-01
4.564000000000000000e+03 3.318160629272460938e+01 -1.385946512222290039e+00 -3.523329257965087891e+00 -7.007179856300354004e-01 -1.267214179039001465e+00 1.136650800704956055e+00
4.565000000000000000e+03 3.272080612182617188e+01 -1.474612951278686523e+00 -3.609026908874511719e+00 -9.905174374580383301e-01 -1.379863381385803223e+00 -5.851674675941467285e-01
4.566000000000000000e+03 3.291108322143554688e+01 -1.866258263587951660e+00 -2.648818016052246094e+00 -6.674388051033020020e-01 -9.948770403861999512e-01 2.850365266203880310e-02
4.567000000000000000e+03 3.251934814453125000e+01 -1.439323782920837402e+00 -3.729763269424438477e+00 -4.496536254882812500e-01 -1.253825068473815918e+00 -5.114001035690307617e-01
4.568000000000000000e+03 3.221598434448242188e+01 -1.447337150573730469e+00 -3.432430982589721680e+00 -2.060542404651641846e-01 -1.091545581817626953e+00 -5.102605819702148438e-01
4.569000000000000000e+03 3.226885986328125000e+01 -1.600857377052307129e+00 -3.543734788894653320e+00 -3.317741751670837402e-01 -1.162652730941772461e+00 -5.645965337753295898e-01
4.570000000000000000e+03 3.204936599731445312e+01 -1.485772848129272461e+00 -3.430688142776489258e+00 -9.368413686752319336e-02 -1.057311654090881348e+00 -4.655569493770599365e-01
4.571000000000000000e+03 3.211537170410156250e+01 -1.726776599884033203e+00 -3.268673181533813477e+00 -1.114801317453384399e-01 -1.014045953750610352e+00 -5.907596349716186523e-01
4.572000000000000000e+03 3.182605171203613281e+01 -1.507937312126159668e+00 -3.162742376327514648e+00 2.165846377611160278e-01 -8.838473558425903320e-01 -2.484703660011291504e-01
4.573000000000000000e+03 3.372217178344726562e+01 -1.337684988975524902e+00 -4.027895927429199219e+00 -4.810415208339691162e-03 -1.209811925888061523e+00 3.551376163959503174e-01
4.574000000000000000e+03 3.351655578613281250e+01 -1.788771152496337891e+00 -3.062480211257934570e+00 -4.059821367263793945e-01 -1.040538668632507324e+00 2.341133952140808105e-01
4.575000000000000000e+03 3.296868133544921875e+01 -1.440663218498229980e+00 -2.451226711273193359e+00 -1.492279648780822754e+00 -1.183051943778991699e+00 1.987972110509872437e-01
4.576000000000000000e+03 3.250159835815429688e+01 -1.746093511581420898e+00 -3.275598049163818359e+00 -6.273837089538574219e-01 -1.170894503593444824e+00 -5.122432708740234375e-01
4.577000000000000000e+03 3.236406326293945312e+01 -1.501782178878784180e+00 -3.459783077239990234e+00 -4.198264777660369873e-01 -1.163882851600646973e+00 -6.101299524307250977e-01
4.578000000000000000e+03 3.312557220458984375e+01 -1.569985032081604004e+00 -3.583982706069946289e+00 -9.757936596870422363e-01 -1.367932915687561035e+00 -2.336799055337905884e-01
4.579000000000000000e+03 3.236862182617187500e+01 -1.424049139022827148e+00 -3.796424627304077148e+00 -4.559560716152191162e-01 -1.275714159011840820e+00 -4.840974509716033936e-01
4.580000000000000000e+03 3.340180206298828125e+01 -1.497046351432800293e+00 -3.887560844421386719e+00 -4.633415341377258301e-01 -1.305270671844482422e+00 6.658051609992980957e-01
4.581000000000000000e+03 3.482025527954101562e+01 2.317851334810256958e-01 -2.388398170471191406e+00 -1.289265323430299759e-02 -7.203872799873352051e-01 -3.443351686000823975e-01
4.582000000000000000e+03 3.502776718139648438e+01 -3.995346128940582275e-01 -2.459977865219116211e+00 1.188604012131690979e-01 -7.023352384567260742e-01 -4.051715135574340820e-01
4.583000000000000000e+03 3.520851898193359375e+01 -9.952967762947082520e-01 -2.628070592880249023e+00 3.591049909591674805e-01 -6.806896924972534180e-01 -5.499930679798126221e-02
4.584000000000000000e+03 3.487051010131835938e+01 -9.423822760581970215e-01 -2.732929229736328125e+00 3.315920829772949219e-01 -7.204011082649230957e-01 -2.281116843223571777e-01
4.585000000000000000e+03 3.501298904418945312e+01 2.663194239139556885e-01 -2.561218023300170898e+00 -1.173983886837959290e-01 -8.035848736763000488e-01 -3.765428960323333740e-01
4.586000000000000000e+03 3.488112640380859375e+01 -1.439139619469642639e-02 -2.367364645004272461e+00 -8.891242742538452148e-02 -7.368831634521484375e-01 -4.392223954200744629e-01
4.587000000000000000e+03 3.504684829711914062e+01 -1.377833038568496704e-01 -2.340084552764892578e+00 1.015647873282432556e-02 -6.989784240722656250e-01 -3.530837297439575195e-01
4.588000000000000000e+03 3.448436355590820312e+01 -4.451995790004730225e-01 -2.577441453933715820e+00 2.194728404283523560e-01 -7.073906064033508301e-01 -7.025966644287109375e-01
4.589000000000000000e+03 3.444835281372070312e+01 1.789149492979049683e-01 -2.195412158966064453e+00 1.254191994667053223e-02 -6.548610329627990723e-01 -3.026504218578338623e-01
4.590000000000000000e+03 3.445236587524414062e+01 -9.279549121856689453e-01 -3.156542301177978516e+00 3.726485073566436768e-01 -8.351681232452392578e-01 -3.134206533432006836e-01
4.591000000000000000e+03 3.472159957885742188e+01 -4.574835002422332764e-01 -2.540788888931274414e+00 1.360087245702743530e-01 -7.214340567588806152e-01 -5.128104686737060547e-01
4.592000000000000000e+03 3.504224777221679688e+01 -9.963615536689758301e-01 -2.678411960601806641e+00 3.405579328536987305e-01 -7.013561725616455078e-01 -1.043198555707931519e-01
4.593000000000000000e+03 3.508397293090820312e+01 -6.545739173889160156e-01 -2.567511081695556641e+00 2.049403488636016846e-01 -7.087712287902832031e-01 -2.643707394599914551e-01
4.594000000000000000e+03 3.463124084472656250e+01 1.983687281608581543e-01 -2.287358522415161133e+00 -1.001737862825393677e-01 -7.162597179412841797e-01 -2.927120029926300049e-01
4.595000000000000000e+03 3.448096847534179688e+01 -8.303236216306686401e-02 -1.968533873558044434e+00 -5.773057416081428528e-02 -6.078793406486511230e-01 -6.049731373786926270e-01
4.596000000000000000e+03 3.466226196289062500e+01 -9.147076010704040527e-01 -2.923078536987304688e+00 3.800452053546905518e-01 -7.629100084304809570e-01 -3.025816977024078369e-01
4.597000000000000000e+03 3.429238891601562500e+01 1.145092993974685669e-01 -1.939504623413085938e+00 4.006294161081314087e-02 -5.698325037956237793e-01 -4.094883501529693604e-01
4.598000000000000000e+03 3.505037689208984375e+01 5.978215858340263367e-02 -2.321895360946655273e+00 -7.696100324392318726e-02 -7.196569442749023438e-01 -3.816886842250823975e-01
4.599000000000000000e+03 3.517032241821289062e+01 -8.236765265464782715e-01 -2.567712545394897461e+00 3.131535351276397705e-01 -6.763677000999450684e-01 -1.303583085536956787e-01
4.600000000000000000e+03 3.469303894042968750e+01 -8.869820088148117065e-02 -2.218247175216674805e+00 -1.761525124311447144e-02 -6.707587242126464844e-01 -5.425650477409362793e-01
4.601000000000000000e+03 3.400199890136718750e+01 -1.481593251228332520e-01 -1.915946483612060547e+00 1.023258790373802185e-01 -5.440862178802490234e-01 -8.331584334373474121e-01
4.602000000000000000e+03 3.396210098266601562e+01 -1.021292924880981445e+00 -3.815430641174316406e+00 3.030270338058471680e-01 -1.053721070289611816e+00 -6.123409047722816467e-02
4.603000000000000000e+03 3.408905029296875000e+01 9.776008874177932739e-02 -1.609584331512451172e+00 1.097015738487243652e-01 -4.499648213386535645e-01 -5.541577339172363281e-01
4.604000000000000000e+03 3.364619064331054688e+01 1.042624264955520630e-01 -5.291467905044555664e-01 -1.470772176980972290e-01 -2.028671950101852417e-01 -3.833166658878326416e-01
4.605000000000000000e+03 3.314983367919921875e+01 -7.385936975479125977e-01 -8.130784988403320312e+00 -1.913070201873779297e+00 -3.013156652450561523e+00 -6.894906759262084961e-01
4.606000000000000000e+03 3.311226272583007812e+01 4.197925329208374023e-02 1.013860583305358887e+00 1.053630560636520386e-01 3.357670903205871582e-01 -2.597158551216125488e-01
4.607000000000000000e+03 3.293719100952148438e+01 -1.020196080207824707e-02 2.792330682277679443e-01 -6.551700234413146973e-01 -1.127810925245285034e-01 6.236547231674194336e-01
4.608000000000000000e+03 3.265475845336914062e+01 -1.659001111984252930e-01 2.281240671873092651e-01 8.952203989028930664e-01 3.370033502578735352e-01 -4.641107618808746338e-01
4.609000000000000000e+03 3.276617813110351562e+01 -5.367523804306983948e-02 -4.851924479007720947e-01 -4.438781738281250000e-02 -1.588740795850753784e-01 6.932130455970764160e-01
4.610000000000000000e+03 3.156710624694824219e+01 -1.139999270439147949e+00 -3.624260187149047852e+00 4.877467155456542969e-01 -9.409540295600891113e-01 -2.901170589029788971e-02
4.611000000000000000e+03 3.131309318542480469e+01 -1.084291040897369385e-01 -2.060141563415527344e+00 -5.697399377822875977e-02 -6.351346373558044434e-01 -2.464274913072586060e-01
4.612000000000000000e+03 3.112607002258300781e+01 -1.395439654588699341e-01 -2.707992553710937500e+00 -2.393452376127243042e-01 -8.842013478279113770e-01 1.484545916318893433e-01
4.613000000000000000e+03 3.097275543212890625e+01 -1.923964768648147583e-01 -2.735123157501220703e+00 2.481400817632675171e-01 -7.460948824882507324e-01 -2.739499807357788086e-01
4.614000000000000000e+03 3.189393234252929688e+01 -1.208927392959594727e+00 -3.619023084640502930e+00 5.218906998634338379e-01 -9.291396737098693848e-01 -2.039054185152053833e-01
4.615000000000000000e+03 3.421673583984375000e+01 -9.602398872375488281e-01 -3.321063995361328125e+00 4.669770300388336182e-01 -8.562260866165161133e-01 -4.685290753841400146e-01
4.616000000000000000e+03 3.332613754272460938e+01 -1.090211391448974609e+00 -3.630859613418579102e+00 -6.491304039955139160e-01 -1.283997058868408203e+00 7.789709568023681641e-01
4.617000000000000000e+03 3.293823623657226562e+01 -8.090336322784423828e-01 -7.830359935760498047e+00 -3.195522308349609375e+00 -3.307764530181884766e+00 2.251210063695907593e-01
4.618000000000000000e+03 3.271237182617187500e+01 -1.201809287071228027e+00 -4.086934566497802734e+00 -7.351063489913940430e-01 -1.446612238883972168e+00 -6.774694323539733887e-01
4.619000000000000000e+03 3.169081687927246094e+01 -5.910111069679260254e-01 -3.341168403625488281e+00 6.154315471649169922e-01 -8.177210688591003418e-01 2.573820650577545166e-01
4.620000000000000000e+03 3.331299209594726562e+01 -2.003788948059082031e-01 -1.767722606658935547e+00 -3.179445862770080566e-01 -6.257001757621765137e-01 -1.117734313011169434e+00
4.621000000000000000e+03 3.383176803588867188e+01 -6.687225103378295898e-01 -3.332467079162597656e+00 3.436929881572723389e-01 -8.966322541236877441e-01 -1.100707530975341797e+00
4.622000000000000000e+03 3.385493087768554688e+01 1.196751296520233154e-01 -9.904382228851318359e-01 -1.492413431406021118e-01 -3.419038653373718262e-01 -5.197339653968811035e-01
4.623000000000000000e+03 3.342586898803710938e+01 -5.869226902723312378e-02 -6.898975968360900879e-01 -3.043983876705169678e-01 -2.982887923717498779e-01 -7.818443179130554199e-01
4.624000000000000000e+03 3.086922454833984375e+01 -3.279412388801574707e-01 -3.291678190231323242e+00 -1.613809317350387573e-01 -1.035917758941650391e+00 6.607540696859359741e-02
4.625000000000000000e+03 3.162461662292480469e+01 -1.862830966711044312e-01 -1.525984406471252441e+00 2.188382744789123535e-01 -3.921438455581665039e-01 3.888582587242126465e-01
4.626000000000000000e+03 3.416860198974609375e+01 -5.028523802757263184e-01 -2.846492767333984375e+00 1.946420222520828247e-01 -7.955552339553833008e-01 -7.261914014816284180e-01
4.627000000000000000e+03 3.360907745361328125e+01 -8.425797224044799805e-01 -5.163348197937011719e+00 9.873065352439880371e-02 -1.519385337829589844e+00 -4.576855897903442383e-01
4.628000000000000000e+03 3.276919937133789062e+01 -8.749681711196899414e-01 -4.835932254791259766e+00 -9.020959138870239258e-01 -1.721408486366271973e+00 -2.084830254316329956e-01
4.629000000000000000e+03 3.195477485656738281e+01 -3.696976304054260254e-01 -3.291807889938354492e+00 3.309971988201141357e-01 -8.882431983947753906e-01 1.062717795372009277e+00
4.630000000000000000e+03 3.252721786499023438e+01 -1.251863598823547363e+00 -4.019057750701904297e+00 -7.462848424911499023e-01 -1.429602742195129395e+00 -4.034615159034729004e-01
4.631000000000000000e+03 3.239929962158203125e+01 -9.122696518898010254e-01 -4.461801052093505859e+00 1.506282836198806763e-01 -1.293351769447326660e+00 -3.607323765754699707e-01
4.632000000000000000e+03 3.327270507812500000e+01 9.752890467643737793e-02 4.686769545078277588e-01 -1.430231928825378418e-01 9.769612550735473633e-02 -9.756693989038467407e-02
4.633000000000000000e+03 3.181629562377929688e+01 -2.469906955957412720e-02 -1.231863617897033691e+00 2.111383974552154541e-01 -3.062175512313842773e-01 8.581560105085372925e-02
4.634000000000000000e+03 3.197904205322265625e+01 -2.844978496432304382e-02 -9.215337038040161133e-01 -2.435747236013412476e-01 -3.495325148105621338e-01 -6.496296823024749756e-02
4.635000000000000000e+03 3.235213851928710938e+01 -1.281953215599060059e+00 -3.856733083724975586e+00 -1.503546833992004395e-01 -1.202126264572143555e+00 -5.773293375968933105e-01
4.636000000000000000e+03 3.244567871093750000e+01 -7.290428280830383301e-01 -4.472095012664794922e+00 -3.446013033390045166e-01 -1.445008873939514160e+00 8.121378719806671143e-02
4.637000000000000000e+03 3.355311584472656250e+01 -1.092567682266235352e+00 -4.597965240478515625e+00 -2.894226610660552979e-01 -1.466216444969177246e+00 4.106768667697906494e-01
4.638000000000000000e+03 3.296784591674804688e+01 -4.096782803535461426e-01 -5.011028051376342773e-01 -1.761178255081176758e+00 -6.786842942237854004e-01 -7.875355482101440430e-01
4.639000000000000000e+03 3.131776237487792969e+01 -6.395704746246337891e-01 -3.109387636184692383e+00 4.369135797023773193e-01 -8.017422556877136230e-01 2.039797157049179077e-01
4.640000000000000000e+03 3.368114471435546875e+01 -1.669717580080032349e-01 -1.676541447639465332e+00 -1.217472329735755920e-01 -5.394865870475769043e-01 -1.050023317337036133e+00
4.641000000000000000e+03 3.358239364624023438e+01 -4.102739095687866211e-01 -2.846863031387329102e+00 -1.633471399545669556e-01 -9.030630588531494141e-01 -9.131097197532653809e-01
4.642000000000000000e+03 3.337776565551757812e+01 -6.060455441474914551e-01 -3.595831155776977539e+00 -1.388522237539291382e-01 -1.120404958724975586e+00 -1.419759988784790039e+00
4.643000000000000000e+03 3.123846626281738281e+01 -3.502001464366912842e-01 -3.241297721862792969e+00 1.016427204012870789e-01 -9.418964982032775879e-01 5.023602023720741272e-02
4.644000000000000000e+03 3.214323425292968750e+01 -7.637282460927963257e-02 -7.013005763292312622e-02 6.421544551849365234e-01 1.716073304414749146e-01 6.402264833450317383e-01
4.645000000000000000e+03 3.233746719360351562e+01 -2.876764535903930664e-01 -2.157909870147705078e+00 -2.394883632659912109e-01 -7.192194461822509766e-01 1.086046457290649414e+00
4.646000000000000000e+03 3.215012741088867188e+01 -8.154843449592590332e-01 -4.391792774200439453e+00 1.974312663078308105e-01 -1.258308410644531250e+00 2.461240738630294800e-01
4.647000000000000000e+03 3.147759437561035156e+01 -6.211524456739425659e-02 -2.128820180892944336e+00 2.652354538440704346e-01 -5.590754151344299316e-01 -2.223096340894699097e-01
4.648000000000000000e+03 3.163834381103515625e+01 -3.776077926158905029e-02 -1.781820774078369141e+00 -1.857825815677642822e-01 -5.902810096740722656e-01 8.096846193075180054e-02
4.649000000000000000e+03 3.183118247985839844e+01 -1.824834942817687988e-01 -1.404669523239135742e+00 -1.128658205270767212e-01 -4.552606046199798584e-01 3.995014429092407227e-01
4.650000000000000000e+03 3.344159317016601562e+01 1.166179478168487549e-01 -9.230094961822032928e-03 -3.986316174268722534e-02 -1.472797710448503494e-02 -3.047896027565002441e-01
4.651000000000000000e+03 3.375662612915039062e+01 -1.085907697677612305e+00 -3.694653511047363281e+00 1.993319690227508545e-01 -1.048596501350402832e+00 1.524423062801361084e-01
4.652000000000000000e+03 3.311204147338867188e+01 -1.131238102912902832e+00 -3.648995399475097656e+00 -2.046754837036132812e+00 -1.708725094795227051e+00 1.023350805044174194e-01
4.653000000000000000e+03 3.291574096679687500e+01 -1.168885946273803711e+00 -4.872346401214599609e+00 -2.339511394500732422e+00 -2.163557291030883789e+00 -5.886425375938415527e-01
4.654000000000000000e+03 3.215005874633789062e+01 -1.031110167503356934e+00 -3.909754514694213867e+00 2.684213519096374512e-01 -1.092399954795837402e+00 -1.830966174602508545e-01
4.655000000000000000e+03 3.214545440673828125e+01 -1.263760447502136230e+00 -3.879399776458740234e+00 -2.085051238536834717e-01 -1.226371526718139648e+00 -3.430061638355255127e-01
4.656000000000000000e+03 3.192040824890136719e+01 -8.839121460914611816e-01 -3.976250171661376953e+00 3.834660947322845459e-01 -1.077835202217102051e+00 7.039450109004974365e-02
4.657000000000000000e+03 3.315047454833984375e+01 -3.186087310314178467e-01 -2.036107063293457031e+00 -1.239731550216674805e+00 -9.827515482902526855e-01 -9.059476256370544434e-01
4.658000000000000000e+03 3.148613548278808594e+01 -3.122936487197875977e-01 -3.055873870849609375e+00 4.245413243770599365e-01 -7.893997430801391602e-01 5.397974252700805664e-01
4.659000000000000000e+03 3.237022781372070312e+01 -1.101313352584838867e+00 -4.192193984985351562e+00 -4.189524054527282715e-01 -1.383343935012817383e+00 -4.606986343860626221e-01
4.660000000000000000e+03 3.256470108032226562e+01 -6.016697287559509277e-01 -5.341153621673583984e+00 -8.959925174713134766e-01 -1.871143817901611328e+00 3.608495891094207764e-01
4.661000000000000000e+03 3.260083007812500000e+01 -9.403727054595947266e-01 -4.895644187927246094e+00 -1.146457076072692871e+00 -1.812630414962768555e+00 -2.102840989828109741e-01
4.662000000000000000e+03 3.262161254882812500e+01 -4.030735492706298828e-01 -3.225716114044189453e+00 -1.369560718536376953e+00 -1.378583073616027832e+00 1.267743945121765137e+00
4.663000000000000000e+03 3.219610214233398438e+01 -5.578918457031250000e-01 -3.910169839859008789e+00 5.723939538002014160e-01 -1.001332759857177734e+00 1.729132384061813354e-01
4.664000000000000000e+03 3.048606872558593750e+01 2.310402989387512207e-01 -8.821766641631256789e-06 -2.080228114209603518e-05 -8.887213880370836705e-06 1.000671727524604648e-05
4.665000000000000000e+03 3.067443084716796875e+01 8.053497970104217529e-02 2.052058789558941498e-06 1.292608089897839818e-06 1.003400029730983078e-06 1.051396611728705466e-05
4.666000000000000000e+03 3.083256912231445312e+01 7.534402608871459961e-02 -1.027377220452763140e-05 1.943483221111819148e-05 2.748317683654022403e-06 3.016778464370872825e-06
4.667000000000000000e+03 3.146447753906250000e+01 1.434350162744522095e-01 2.346509063499979675e-06 4.460672755612904439e-07 8.377729159292357508e-07 -1.778092268978070933e-06
4.668000000000000000e+03 3.169309043884277344e+01 2.968901693820953369e-01 -2.957222022814676166e-06 5.767622610619582701e-07 -7.141379114727897104e-07 1.233240482179098763e-06
4.669000000000000000e+03 3.156153106689453125e+01 5.812429189682006836e-01 1.140287963607988786e-06 3.079243469983339310e-06 1.265859395971347112e-06 -1.771627239577355795e-06
4.670000000000000000e+03 3.117042160034179688e+01 1.019975543022155762e-01 -2.024873310801922344e-06 6.196482445375295356e-06 1.251482785846746992e-06 1.060540057551406790e-06
4.671000000000000000e+03 3.075090408325195312e+01 3.309426605701446533e-01 1.480831201661203522e-06 1.701571818557567894e-05 5.548964963963953778e-06 -7.781301974318921566e-06
4.672000000000000000e+03 3.095979499816894531e+01 2.792930305004119873e-01 1.680291461525484920e-05 1.115362351811199915e-06 5.375482942326925695e-06 -1.408924731549632270e-06
4.673000000000000000e+03 3.131006622314453125e+01 2.190151810646057129e-01 9.493348443356808275e-06 7.695689987485820893e-07 3.078875124629121274e-06 -1.366724063700530678e-06
4.674000000000000000e+03 3.163131332397460938e+01 1.642359793186187744e-01 -1.459662541947182035e-07 -3.163276915074675344e-06 -9.927729252012795769e-07 2.312796823389362544e-06
4.675000000000000000e+03 3.180051803588867188e+01 1.577325165271759033e-01 -4.433576918927428778e-07 1.247355953637452330e-06 2.411994728390709497e-07 3.122767964214290259e-07
4.676000000000000000e+03 3.122459983825683594e+01 4.408085644245147705e-01 -3.861263394355773926e-06 -4.936379809805657715e-06 -2.639292915773694403e-06 3.723855570569867268e-06
4.677000000000000000e+03 3.100239944458007812e+01 9.454712271690368652e-02 -1.084921586880227551e-05 -1.424326910637319088e-05 -7.527745765401050448e-06 -9.436729669687338173e-06
4.678000000000000000e+03 3.131899452209472656e+01 9.043892472982406616e-02 -4.034010999021120369e-06 -3.117443156952504069e-06 -2.145436155842617154e-06 -1.751355739543214440e-06
4.679000000000000000e+03 3.191551780700683594e+01 2.150069624185562134e-01 2.014801196992266341e-07 1.748566432979714591e-06 5.850139359608874656e-07 -1.287047666664875578e-06
4.680000000000000000e+03 3.196529197692871094e+01 3.894459009170532227e-01 -1.746890063714090502e-07 -1.874576241789327469e-06 -6.147795943434175570e-07 7.942759339130134322e-07
4.681000000000000000e+03 3.252656173706054688e+01 1.474916934967041016e+00 2.252774138469249010e-04 -2.376201300648972392e-04 -3.702817366502131335e-06 -4.625632936949841678e-05
4.682000000000000000e+03 3.277453613281250000e+01 3.826866447925567627e-01 2.065589433186687529e-05 -2.195513661717996001e-05 -3.897730493918061256e-07 1.433214129065163434e-05
4.683000000000000000e+03 3.231996536254882812e+01 1.288083195686340332e+00 1.084036266547627747e-04 1.553096371935680509e-04 7.911397551652044058e-05 -7.785861816955730319e-05
4.684000000000000000e+03 3.247399902343750000e+01 7.846297025680541992e-01 7.696815737290307879e-05 1.212921197293326259e-04 5.947808313067071140e-05 -7.819350139470770955e-05
4.685000000000000000e+03 3.306614303588867188e+01 1.100092530250549316e+00 -3.870075452141463757e-04 -1.326775236520916224e-04 -1.559055235702544451e-04 -4.282800364308059216e-05
4.686000000000000000e+03 3.320626068115234375e+01 3.682013154029846191e-01 7.621780696354107931e-06 1.345620057691121474e-05 6.323394245555391535e-06 -4.221749259158968925e-05
4.687000000000000000e+03 3.299676895141601562e+01 7.458893656730651855e-01 2.428857260383665562e-04 -8.395887562073767185e-06 7.034694863250479102e-05 -4.035370875499211252e-05
4.688000000000000000e+03 3.355887222290039062e+01 3.570089340209960938e-01 -1.661696442170068622e-04 2.339615311939269304e-04 2.033756209129933268e-05 -1.905186763906385750e-05
4.689000000000000000e+03 3.384705734252929688e+01 4.833906590938568115e-01 -9.295267955167219043e-05 -1.430429256288334727e-04 -7.079868373693898320e-05 5.564747334574349225e-05
4.690000000000000000e+03 3.371740341186523438e+01 4.005685746669769287e-01 -1.009179541142657399e-04 4.942916802974650636e-06 -2.879251223930623382e-05 -1.059681890183128417e-04
4.691000000000000000e+03 3.209313583374023438e+01 9.748304486274719238e-01 -1.024200100800953805e-04 -4.840442852582782507e-05 -4.524733230937272310e-05 6.357476377161219716e-05
4.692000000000000000e+03 3.339539337158203125e+01 3.439426422119140625e-01 -1.203132997034117579e-04 -2.034512144746258855e-04 -9.712935570860281587e-05 1.309621875407174230e-04
4.693000000000000000e+03 3.342350387573242188e+01 8.909338712692260742e-01 2.218739100499078631e-04 2.145832986570894718e-04 1.309371582465246320e-04 -1.629923353902995586e-04
4.694000000000000000e+03 3.273265075683593750e+01 7.511296272277832031e-01 2.752341242739930749e-05 -9.821129060583189130e-05 -2.120636418112553656e-05 -5.988129851175472140e-05
4.695000000000000000e+03 3.299393081665039062e+01 3.836881220340728760e-01 -5.508038157131522894e-05 4.731903027277439833e-05 -2.328405798834864981e-06 2.411882087471894920e-05
4.696000000000000000e+03 3.326683044433593750e+01 6.439960002899169922e-01 4.510542112257098779e-06 -1.894611777970567346e-04 -5.548519038711674511e-05 1.705873874016106129e-04
4.697000000000000000e+03 3.272225189208984375e+01 1.501854300498962402e+00 -1.518630742793902755e-04 -2.768527338048443198e-06 -4.638948303181678057e-05 2.037298690993338823e-04
4.698000000000000000e+03 3.258716964721679688e+01 1.023952603340148926e+00 -2.329682174604386091e-04 -4.125374107388779521e-05 -8.226658974308520555e-05 6.284317350946366787e-05
4.699000000000000000e+03 3.220250701904296875e+01 4.758601486682891846e-01 5.759315899922512472e-05 1.972625432244967669e-05 2.319582381460350007e-05 -3.308575469418428838e-05
4.700000000000000000e+03 3.345799636840820312e+01 5.111693739891052246e-01 5.160997170605696738e-05 1.447812974220141768e-04 5.891738328500650823e-05 -4.299125976103823632e-06
4.701000000000000000e+03 3.253543472290039062e+01 3.972842991352081299e-01 -2.262380439788103104e-05 -2.610525370982941240e-05 -1.461871761421207339e-05 2.160802614525891840e-05
4.702000000000000000e+03 3.273504638671875000e+01 1.226690053939819336e+00 2.255735453218221664e-04 1.632207568036392331e-04 1.166382935480214655e-04 -5.672370389220304787e-05
4.703000000000000000e+03 3.299623489379882812e+01 1.477275013923645020e+00 5.053765562479384243e-05 -1.536862546345219016e-04 -3.094457861152477562e-05 1.820842298911884427e-04
4.704000000000000000e+03 3.361579895019531250e+01 6.195395588874816895e-01 2.284825313836336136e-04 1.837088639149442315e-04 1.236574171343818307e-04 8.227369107771664858e-05
4.705000000000000000e+03 2.781990051269531250e+01 -2.360724806785583496e-01 -2.911774674430489540e-03 1.921374350786209106e-03 -2.971201320178806782e-04 -2.562667359597980976e-04
4.706000000000000000e+03 2.646029090881347656e+01 7.749882936477661133e-01 -3.867632523179054260e-02 6.191783025860786438e-02 6.972450762987136841e-03 -9.671197831630706787e-02
4.707000000000000000e+03 2.671755599975585938e+01 8.129853606224060059e-01 4.382558632642030716e-03 9.320387244224548340e-02 2.927592955529689789e-02 -9.321735054254531860e-02
4.708000000000000000e+03 2.685140991210937500e+01 5.993382930755615234e-01 -6.749009341001510620e-02 1.049463301897048950e-01 1.123687066137790680e-02 -5.568098649382591248e-02
4.709000000000000000e+03 2.615445137023925781e+01 6.092628836631774902e-01 -1.388247907161712646e-01 -5.905614420771598816e-02 -5.936428159475326538e-02 -5.236884951591491699e-02
4.710000000000000000e+03 2.578784370422363281e+01 5.081817507743835449e-01 -2.418055683374404907e-01 -2.240869998931884766e-01 -1.397677659988403320e-01 7.974264025688171387e-02
4.711000000000000000e+03 2.515849876403808594e+01 3.271711468696594238e-01 -5.077073574066162109e-01 -1.955564469099044800e-01 -2.109791487455368042e-01 2.965272068977355957e-01
4.712000000000000000e+03 2.528490638732910156e+01 -1.167485713958740234e+00 -2.090696811676025391e+00 7.524692267179489136e-02 -6.046350002288818359e-01 -2.678727805614471436e-01
4.713000000000000000e+03 2.597053718566894531e+01 -1.693393230438232422e+00 -2.041009664535522461e+00 -3.969749808311462402e-01 -7.313953638076782227e-01 -5.526584386825561523e-01
4.714000000000000000e+03 2.837369155883789062e+01 -1.667419314384460449e+00 -2.732354879379272461e+00 -9.548152796924114227e-03 -8.225708603858947754e-01 -3.485976755619049072e-01
4.715000000000000000e+03 2.616794013977050781e+01 -1.584699869155883789e+00 -2.229021310806274414e+00 -4.249990284442901611e-01 -7.962061166763305664e-01 -4.821348488330841064e-01
4.716000000000000000e+03 2.545707130432128906e+01 -1.382107138633728027e+00 -2.118541717529296875e+00 -1.090228371322154999e-02 -6.388332247734069824e-01 -4.388757050037384033e-01
4.717000000000000000e+03 2.507384490966796875e+01 -2.928588986396789551e-01 -1.324031949043273926e+00 -4.793066065758466721e-03 -3.986474871635437012e-01 3.626274466514587402e-01
4.718000000000000000e+03 2.553544807434082031e+01 3.138064444065093994e-01 -3.941453993320465088e-01 -2.965706884860992432e-01 -2.072148323059082031e-01 2.264623790979385376e-01
4.719000000000000000e+03 2.596484184265136719e+01 5.645281076431274414e-01 -1.696618050336837769e-01 -1.481002122163772583e-01 -9.532860666513442993e-02 -2.340876264497637749e-03
4.720000000000000000e+03 2.878841018676757812e+01 -7.704266905784606934e-02 -4.228950274409726262e-05 6.181566859595477581e-04 1.727601629681885242e-04 -2.082369428535457700e-05
4.721000000000000000e+03 2.790844726562500000e+01 2.747163772583007812e-01 1.379247638396918774e-03 5.637252237647771835e-03 2.104949904605746269e-03 -1.428054238203912973e-04
4.722000000000000000e+03 2.716904640197753906e+01 -9.880415350198745728e-02 1.250755041837692261e-02 4.311568662524223328e-02 1.668697036802768707e-02 4.881643503904342651e-02
4.723000000000000000e+03 2.750106239318847656e+01 6.892876625061035156e-01 5.950993858277797699e-03 1.544736698269844055e-02 6.419508252292871475e-03 -1.177288778126239777e-02
4.724000000000000000e+03 2.659551811218261719e+01 9.028003811836242676e-01 4.694439470767974854e-02 9.251009672880172729e-02 4.183634743094444275e-02 -1.041094437241554260e-01
4.725000000000000000e+03 2.561998748779296875e+01 4.662799537181854248e-01 -3.033899664878845215e-01 -2.309761494398117065e-01 -1.603098362684249878e-01 1.383764892816543579e-01
4.726000000000000000e+03 2.546137046813964844e+01 4.314995408058166504e-01 -3.748249113559722900e-01 -2.392340600490570068e-01 -1.842176914215087891e-01 1.990259885787963867e-01
4.727000000000000000e+03 2.541918945312500000e+01 2.043535113334655762e-01 -6.155010461807250977e-01 -2.521899342536926270e-01 -2.603073120117187500e-01 3.020612895488739014e-01
4.728000000000000000e+03 2.514461708068847656e+01 1.484151929616928101e-01 -6.852172017097473145e-01 -1.315017789602279663e-01 -2.450156956911087036e-01 2.482973784208297729e-01
4.729000000000000000e+03 3.124060249328613281e+01 -1.303454041481018066e+00 -3.357445716857910156e+00 3.922197818756103516e-01 -8.895677328109741211e-01 -1.051155626773834229e-01
4.730000000000000000e+03 3.089070892333984375e+01 -1.371482610702514648e+00 -3.162778615951538086e+00 3.091289103031158447e-01 -8.560949563980102539e-01 -1.007226631045341492e-01
4.731000000000000000e+03 3.008119964599609375e+01 -2.816029489040374756e-01 -3.549659967422485352e+00 -6.514538079500198364e-03 -1.066852331161499023e+00 -3.040623068809509277e-01
4.732000000000000000e+03 2.892089462280273438e+01 -1.029202699661254883e+00 -3.260436296463012695e+00 -1.831110334023833275e-03 -9.786801934242248535e-01 -3.126404583454132080e-01
4.733000000000000000e+03 2.867807006835937500e+01 -7.479233145713806152e-01 -3.475462436676025391e+00 -2.567790448665618896e-02 -1.050342082977294922e+00 -3.429354429244995117e-01
4.734000000000000000e+03 2.775576591491699219e+01 -1.722179293632507324e+00 -2.599930763244628906e+00 -9.814767539501190186e-02 -8.094235062599182129e-01 -3.735887408256530762e-01
4.735000000000000000e+03 2.707432937622070312e+01 -1.548220634460449219e+00 -2.621794700622558594e+00 -2.836258709430694580e-01 -8.716261982917785645e-01 -2.963855564594268799e-01
4.736000000000000000e+03 3.027514839172363281e+01 -2.667401432991027832e-01 -3.463271856307983398e+00 2.852814737707376480e-03 -1.038125753402709961e+00 -2.703563570976257324e-01
4.737000000000000000e+03 2.954090499877929688e+01 -1.550057530403137207e+00 -2.899999618530273438e+00 1.471151858568191528e-01 -8.258653283119201660e-01 -2.608514428138732910e-01
4.738000000000000000e+03 2.804059028625488281e+01 -4.530044198036193848e-01 -3.793882369995117188e+00 -3.792554885149002075e-02 -1.149542450904846191e+00 -3.816105127334594727e-01
4.739000000000000000e+03 2.824248123168945312e+01 -4.449058473110198975e-01 -3.785062551498413086e+00 -4.082058742642402649e-02 -1.147764921188354492e+00 -3.819813430309295654e-01
4.740000000000000000e+03 2.719761276245117188e+01 -9.446302652359008789e-01 -3.441359281539916992e+00 -1.149799972772598267e-01 -1.066901803016662598e+00 -2.545920014381408691e-01
4.741000000000000000e+03 2.722833442687988281e+01 -7.250214219093322754e-01 -3.707631111145019531e+00 -7.273873686790466309e-02 -1.134110927581787109e+00 -2.886796891689300537e-01
4.742000000000000000e+03 2.723756790161132812e+01 -5.151501893997192383e-01 -3.883847475051879883e+00 -3.538881987333297729e-02 -1.175770878791809082e+00 -3.700872957706451416e-01
4.743000000000000000e+03 2.515667152404785156e+01 -8.476480245590209961e-01 -1.818440318107604980e+00 1.581821739673614502e-01 -4.980774521827697754e-01 -1.238216236233711243e-01
4.744000000000000000e+03 2.675755500793457031e+01 -1.431399822235107422e+00 -2.616453647613525391e+00 -3.928976655006408691e-01 -9.028053879737854004e-01 -2.394202351570129395e-01
4.745000000000000000e+03 2.721723747253417969e+01 -3.033818006515502930e-01 3.912179544568061829e-02 1.019739639014005661e-02 1.479575783014297485e-02 2.442731522023677826e-02
4.746000000000000000e+03 2.635912895202636719e+01 5.831415057182312012e-01 -1.251033842563629150e-01 2.965398132801055908e-02 -2.863482199609279633e-02 -7.954410463571548462e-02
4.747000000000000000e+03 2.528482055664062500e+01 2.188069820404052734e-01 -6.291879415512084961e-01 -2.194994240999221802e-01 -2.546062171459197998e-01 2.980152070522308350e-01
4.748000000000000000e+03 2.822923660278320312e+01 -1.914909631013870239e-01 -1.293543959036469460e-03 -1.705258728179614991e-05 -3.931789833586663008e-04 -4.397407174110412598e-04
4.749000000000000000e+03 2.966212654113769531e+01 4.668440297245979309e-02 -2.927889363490976393e-05 -5.111955033498816192e-05 -2.411953391856513917e-05 -1.433123088645515963e-05
4.750000000000000000e+03 3.001603126525878906e+01 2.810606360435485840e-01 9.351305152449640445e-07 4.700310819316655397e-05 1.438147137378109619e-05 -1.140231915996992029e-06
4.751000000000000000e+03 3.014229011535644531e+01 3.720963746309280396e-02 8.485261787427589297e-06 1.261317493117530830e-06 2.923973625001963228e-06 -1.537535536044742912e-05
4.752000000000000000e+03 2.529310226440429688e+01 8.253997564315795898e-02 -7.222164869308471680e-01 -2.148754447698593140e-01 -2.811275720596313477e-01 3.218260109424591064e-01
4.753000000000000000e+03 2.677220344543457031e+01 4.099597036838531494e-01 -1.218865811824798584e-01 1.266513615846633911e-01 1.429434749297797680e-03 -3.278301656246185303e-02
4.754000000000000000e+03 2.790239715576171875e+01 5.528707504272460938e-01 -1.191077171824872494e-03 3.709862707182765007e-03 7.556356722488999367e-04 -7.971412269398570061e-04
4.755000000000000000e+03 2.709368515014648438e+01 9.841948002576828003e-02 -3.716972470283508301e-02 8.907485753297805786e-02 1.557154022157192230e-02 4.042028635740280151e-02
4.756000000000000000e+03 2.739620018005371094e+01 -4.905321821570396423e-02 3.995762206614017487e-03 2.566288411617279053e-02 8.897593244910240173e-03 2.461480349302291870e-02
4.757000000000000000e+03 2.778038978576660156e+01 -2.680426090955734253e-02 3.321576165035367012e-03 1.403822563588619232e-03 1.417619641870260239e-03 8.768468396738171577e-04
4.758000000000000000e+03 2.504582786560058594e+01 -6.777805089950561523e-01 -1.582358598709106445e+00 1.272433996200561523e-01 -4.365345537662506104e-01 1.222553774714469910e-01
4.759000000000000000e+03 2.517080116271972656e+01 -5.117816478013992310e-02 -1.050954103469848633e+00 -6.305292993783950806e-02 -3.342021107673645020e-01 3.143803775310516357e-01
4.760000000000000000e+03 2.726543045043945312e+01 4.595450162887573242e-01 -2.443559095263481140e-02 6.332575529813766479e-02 1.166704855859279633e-02 -1.760074310004711151e-02
4.761000000000000000e+03 2.696632385253906250e+01 2.802588045597076416e-01 -8.668838441371917725e-02 1.184314861893653870e-01 9.522930718958377838e-03 1.002369821071624756e-02
4.762000000000000000e+03 2.656919479370117188e+01 -1.512916088104248047e+00 -2.461313486099243164e+00 -4.407549202442169189e-01 -8.706205487251281738e-01 -2.931298315525054932e-01
4.763000000000000000e+03 2.524217987060546875e+01 -1.495204806327819824e+00 -1.901759147644042969e+00 5.990564450621604919e-02 -5.525560379028320312e-01 -4.811885654926300049e-01
4.764000000000000000e+03 2.580084037780761719e+01 -1.548887729644775391e+00 -2.110621929168701172e+00 -3.234122693538665771e-01 -7.302103042602539062e-01 -5.210376381874084473e-01
4.765000000000000000e+03 2.591897010803222656e+01 -1.845341563224792480e+00 -1.829650044441223145e+00 -3.210889101028442383e-01 -6.452217102050781250e-01 -6.317421793937683105e-01
4.766000000000000000e+03 2.644226455688476562e+01 -1.709385395050048828e+00 -2.194915771484375000e+00 -3.931088149547576904e-01 -7.764073610305786133e-01 -4.173031449317932129e-01
4.767000000000000000e+03 2.816950225830078125e+01 -1.683254241943359375e+00 -2.699152946472167969e+00 -4.837311431765556335e-02 -8.242578506469726562e-01 -3.562999963760375977e-01
4.768000000000000000e+03 2.744405555725097656e+01 -7.266522645950317383e-01 -3.643843889236450195e+00 -5.775273218750953674e-02 -1.110478997230529785e+00 -3.288831114768981934e-01
4.769000000000000000e+03 2.512719154357910156e+01 -7.094663977622985840e-01 -1.747614026069641113e+00 1.160979047417640686e-01 -4.894548356533050537e-01 1.409206837415695190e-01
4.770000000000000000e+03 2.637152290344238281e+01 -1.564704656600952148e+00 -2.257743120193481445e+00 -4.210408926010131836e-01 -8.036351799964904785e-01 -3.902024328708648682e-01
4.771000000000000000e+03 2.559491157531738281e+01 -1.626361131668090820e+00 -1.894429802894592285e+00 -1.114513725042343140e-01 -6.017643809318542480e-01 -4.948307871818542480e-01
4.772000000000000000e+03 2.519227409362792969e+01 -9.742129445075988770e-01 -2.053412675857543945e+00 1.512246876955032349e-01 -5.706563591957092285e-01 -1.702522784471511841e-01
4.773000000000000000e+03 2.694959831237792969e+01 -1.828551173210144043e+00 -2.286386489868164062e+00 -3.200342357158660889e-01 -7.819262742996215820e-01 -4.007696807384490967e-01
4.774000000000000000e+03 3.071470832824707031e+01 -7.099655270576477051e-01 -3.308685541152954102e+00 1.974238753318786621e-01 -9.333784580230712891e-01 -2.753895893692970276e-02
4.775000000000000000e+03 2.735287666320800781e+01 -1.777114272117614746e+00 -2.449693918228149414e+00 -2.193708270788192749e-01 -8.007194399833679199e-01 -3.740872740745544434e-01
4.776000000000000000e+03 2.755428123474121094e+01 -1.753542184829711914e+00 -2.567034721374511719e+00 -1.491590440273284912e-01 -8.148581385612487793e-01 -3.656781613826751709e-01
4.777000000000000000e+03 3.135067749023437500e+01 -1.199893712997436523e+00 -3.382993936538696289e+00 3.354075551033020020e-01 -9.142758846282958984e-01 4.930267110466957092e-02
4.778000000000000000e+03 3.106115722656250000e+01 -9.513271450996398926e-01 -3.227142810821533203e+00 2.377732992172241211e-01 -8.968108296394348145e-01 1.167535260319709778e-01
4.779000000000000000e+03 3.107223701477050781e+01 -1.337526679039001465e+00 -3.218428134918212891e+00 3.254419863224029541e-01 -8.678958415985107422e-01 -5.532169342041015625e-02
4.780000000000000000e+03 2.715109252929687500e+01 -1.798541426658630371e+00 -2.404906749725341797e+00 -2.485965192317962646e-01 -7.960509657859802246e-01 -3.828466534614562988e-01
4.781000000000000000e+03 2.674503326416015625e+01 -1.859190106391906738e+00 -2.186938047409057617e+00 -3.248672783374786377e-01 -7.535415887832641602e-01 -4.429993629455566406e-01
4.782000000000000000e+03 2.906841278076171875e+01 -3.854454159736633301e-01 -3.751930952072143555e+00 -3.595665469765663147e-02 -1.136366248130798340e+00 -3.712031841278076172e-01
4.783000000000000000e+03 2.910834693908691406e+01 -1.358438611030578613e+00 -3.000350952148437500e+00 5.808814987540245056e-02 -8.826788067817687988e-01 -2.928457558155059814e-01
4.784000000000000000e+03 2.915472984313964844e+01 -1.597915291786193848e+00 -2.809261322021484375e+00 8.066847175359725952e-02 -8.185778856277465820e-01 -3.057061433792114258e-01
4.785000000000000000e+03 2.968448257446289062e+01 -3.178385496139526367e-01 -3.661619663238525391e+00 -1.527538150548934937e-02 -1.103068470954895020e+00 -3.452022075653076172e-01
4.786000000000000000e+03 2.865559959411621094e+01 -4.283179044723510742e-01 -3.775425195693969727e+00 -3.179784119129180908e-02 -1.142166972160339355e+00 -3.820966184139251709e-01
4.787000000000000000e+03 2.826641464233398438e+01 2.519997358322143555e-01 1.611518790014088154e-03 -2.008158480748534203e-03 -1.189918839372694492e-04 -1.329297374468296766e-04
4.788000000000000000e+03 2.842575073242187500e+01 -1.913074105978012085e-01 -2.288744726683944464e-04 2.505638694856315851e-04 6.506815680040745065e-06 -8.194873807951807976e-04
4.789000000000000000e+03 2.944804954528808594e+01 -8.972559869289398193e-02 -4.395121504785493016e-05 -5.865159255336038768e-05 -3.078084046137519181e-05 -2.944654806924518198e-05
4.790000000000000000e+03 3.029812240600585938e+01 1.053279787302017212e-01 1.050199716701172292e-05 -1.565279853821266443e-05 -1.545240593259222806e-06 -1.037924084812402725e-05
4.791000000000000000e+03 2.950048637390136719e+01 3.034934401512145996e-01 -2.700005643418990076e-05 -1.172175143437925726e-05 -1.161654199677286670e-05 -2.799992944346740842e-05
4.792000000000000000e+03 2.944606971740722656e+01 7.450585067272186279e-02 5.439546293928287923e-05 8.463327685603871942e-05 4.170862302999012172e-05 4.027246541227214038e-05
4.793000000000000000e+03 2.802137947082519531e+01 -2.082492411136627197e-01 -2.170695224776864052e-03 -8.170141954906284809e-04 -8.963127620518207550e-04 -9.868706110864877701e-04
4.794000000000000000e+03 2.904725456237792969e+01 -2.856845781207084656e-02 1.424655783921480179e-05 -2.159303403459489346e-04 -6.050513184163719416e-05 -6.500689050881192088e-05
4.795000000000000000e+03 3.051279258728027344e+01 -1.431428551673889160e+00 -3.052931308746337891e+00 2.855285704135894775e-01 -8.302208185195922852e-01 -1.311714202165603638e-01
4.796000000000000000e+03 2.844971275329589844e+01 -7.393308877944946289e-01 -3.515886306762695312e+00 -2.999718300998210907e-02 -1.063765048980712891e+00 -3.504841327667236328e-01
4.797000000000000000e+03 2.844795036315917969e+01 -4.390898346900939941e-01 -3.779182434082031250e+00 -4.152831807732582092e-02 -1.146213293075561523e+00 -3.847427368164062500e-01
4.798000000000000000e+03 2.784181976318359375e+01 -6.897981166839599609e-01 -3.611657142639160156e+00 -3.870087489485740662e-02 -1.095107436180114746e+00 -3.570439517498016357e-01
4.799000000000000000e+03 2.784101295471191406e+01 -4.653589725494384766e-01 -3.805841445922851562e+00 -3.972160071134567261e-02 -1.153668880462646484e+00 -3.818413913249969482e-01
4.800000000000000000e+03 2.764116668701171875e+01 -4.829903542995452881e-01 -3.819632768630981445e+00 -3.867319971323013306e-02 -1.157491803169250488e+00 -3.816301524639129639e-01
4.801000000000000000e+03 2.927213668823242188e+01 -3.567369878292083740e-01 -3.730891942977905273e+00 -2.355622500181198120e-02 -1.126334428787231445e+00 -3.631204068660736084e-01
4.802000000000000000e+03 2.882881164550781250e+01 -1.215668559074401855e+00 -3.069632768630981445e+00 2.019523456692695618e-02 -9.148312807083129883e-01 -3.084360361099243164e-01
4.803000000000000000e+03 2.858909034729003906e+01 1.528998911380767822e-01 -3.462800523266196251e-04 -6.230174330994486809e-04 -2.907892630901187658e-04 4.733171081170439720e-04
4.804000000000000000e+03 2.688063049316406250e+01 7.684969902038574219e-01 -1.152354106307029724e-02 9.374036639928817749e-02 2.466504648327827454e-02 -8.508569002151489258e-02
4.805000000000000000e+03 2.871318817138671875e+01 3.976906836032867432e-01 8.304438961204141378e-05 3.431999066378921270e-04 1.278732815990224481e-04 -1.858107134466990829e-04
4.806000000000000000e+03 2.493860626220703125e+01 -9.964184761047363281e-01 -1.773470282554626465e+00 2.213729619979858398e-01 -4.656291902065277100e-01 -1.137798950076103210e-01
4.807000000000000000e+03 2.857298660278320312e+01 -1.650406837463378906e+00 -2.737373828887939453e+00 1.508654467761516571e-02 -8.166862130165100098e-01 -3.300053179264068604e-01
4.808000000000000000e+03 2.875557708740234375e+01 -1.394296050071716309e+00 -2.949053287506103516e+00 1.750612631440162659e-02 -8.794641494750976562e-01 -3.168496489524841309e-01
4.809000000000000000e+03 2.694132995605468750e+01 -1.321903228759765625e+00 -2.889514923095703125e+00 -2.865456342697143555e-01 -9.528182148933410645e-01 -2.115566432476043701e-01
4.810000000000000000e+03 2.973933601379394531e+01 -1.530803084373474121e+00 -2.930988550186157227e+00 1.700698584318161011e-01 -8.282756209373474121e-01 -2.249951064586639404e-01
4.811000000000000000e+03 3.013170623779296875e+01 -1.486040472984313965e+00 -2.984903573989868164e+00 2.232154458761215210e-01 -8.285064697265625000e-01 -1.587055623531341553e-01
4.812000000000000000e+03 2.962875556945800781e+01 -1.063020944595336914e+00 -3.173654556274414062e+00 8.578701317310333252e-02 -9.263602495193481445e-01 -2.162930071353912354e-01
4.813000000000000000e+03 3.039701271057128906e+01 -1.152016401290893555e+00 -3.174916982650756836e+00 2.281540185213088989e-01 -8.840289115905761719e-01 -9.621946513652801514e-02
4.814000000000000000e+03 2.796207809448242188e+01 -1.698634266853332520e+00 -2.665374040603637695e+00 -6.616170704364776611e-02 -8.194607496261596680e-01 -3.593662977218627930e-01
4.815000000000000000e+03 3.057217597961425781e+01 -1.112314343452453613e+00 -3.210546493530273438e+00 2.585573792457580566e-01 -8.855966925621032715e-01 -9.200686961412429810e-02
4.816000000000000000e+03 2.993740844726562500e+01 -1.510368824005126953e+00 -2.957076311111450195e+00 1.968890726566314697e-01 -8.280561566352844238e-01 -1.960624009370803833e-01
4.817000000000000000e+03 2.947127151489257812e+01 -1.292900323867797852e+00 -3.039073944091796875e+00 9.897276759147644043e-02 -8.820303678512573242e-01 -2.474838197231292725e-01
4.818000000000000000e+03 2.892973709106445312e+01 -1.382635354995727539e+00 -2.962644338607788086e+00 4.180229082703590393e-02 -8.762526512145996094e-01 -3.086150288581848145e-01
4.819000000000000000e+03 2.927618789672851562e+01 -6.425587832927703857e-02 5.096665336168371141e-05 1.517308701295405626e-04 6.080925595597364008e-05 1.012428474496118724e-04
4.820000000000000000e+03 2.765856552124023438e+01 1.621758788824081421e-01 -7.474280428141355515e-04 1.552959997206926346e-02 4.434651695191860199e-03 2.922267653048038483e-03
4.821000000000000000e+03 2.976152038574218750e+01 -6.182944774627685547e-01 -3.439736843109130859e+00 2.340920642018318176e-02 -1.024898290634155273e+00 -2.486906945705413818e-01
4.822000000000000000e+03 2.947806930541992188e+01 -3.339114189147949219e-01 -3.700999259948730469e+00 -3.791781514883041382e-02 -1.121675133705139160e+00 -3.516786992549896240e-01
4.823000000000000000e+03 3.009435653686523438e+01 -9.150875210762023926e-01 -3.254645347595214844e+00 1.215291172266006470e-01 -9.399349093437194824e-01 -1.403495073318481445e-01
4.824000000000000000e+03 2.856544685363769531e+01 -1.390156388282775879e+00 -2.967647314071655273e+00 -4.207256715744733810e-03 -8.915563821792602539e-01 -3.324126303195953369e-01
4.825000000000000000e+03 3.034239959716796875e+01 -5.648652315139770508e-01 -3.310117483139038086e+00 8.547937870025634766e-02 -9.673914313316345215e-01 -1.359466016292572021e-01
4.826000000000000000e+03 2.734449577331542969e+01 -1.325474739074707031e+00 -2.974660396575927734e+00 -1.669630557298660278e-01 -9.424870610237121582e-01 -2.860629260540008545e-01
4.827000000000000000e+03 2.710558700561523438e+01 -1.159500002861022949e+00 -3.141204118728637695e+00 -2.072839587926864624e-01 -1.004546403884887695e+00 -2.009329497814178467e-01
4.828000000000000000e+03 2.664535522460937500e+01 6.655923128128051758e-01 -8.396749943494796753e-02 1.037328094244003296e-01 5.929594393819570541e-03 -8.156085759401321411e-02
4.829000000000000000e+03 2.739227104187011719e+01 2.043175101280212402e-01 -1.230134163051843643e-02 4.114804044365882874e-02 8.654009550809860229e-03 1.048724539577960968e-02
4.830000000000000000e+03 2.934688377380371094e+01 -1.574162364006042480e+00 -2.838783740997314453e+00 1.113824620842933655e-01 -8.182203769683837891e-01 -2.748383581638336182e-01
4.831000000000000000e+03 3.032261085510253906e+01 -1.459050178527832031e+00 -3.018645763397216797e+00 2.469381093978881836e-01 -8.315123319625854492e-01 -1.453174501657485962e-01
4.832000000000000000e+03 2.978258132934570312e+01 -8.587885499000549316e-01 -3.306921482086181641e+00 6.060013547539710999e-02 -9.738963842391967773e-01 -2.177057862281799316e-01
4.833000000000000000e+03 2.852941322326660156e+01 -1.134404420852661133e+00 -3.175292015075683594e+00 -1.256128679960966110e-02 -9.563559889793395996e-01 -3.304724991321563721e-01
4.834000000000000000e+03 2.913703918457031250e+01 -1.132955670356750488e+00 -3.164970636367797852e+00 4.673022404313087463e-02 -9.354721307754516602e-01 -2.864972949028015137e-01
4.835000000000000000e+03 2.891152954101562500e+01 -7.358937859535217285e-01 -3.465106248855590820e+00 -1.698007434606552124e-02 -1.044625878334045410e+00 -3.379470705986022949e-01
4.836000000000000000e+03 2.925645446777343750e+01 -9.566388726234436035e-01 -3.283856153488159180e+00 1.355803851038217545e-02 -9.810894727706909180e-01 -2.843457758426666260e-01
4.837000000000000000e+03 2.933537292480468750e+01 -6.373291015625000000e-01 -3.499361753463745117e+00 -1.329184789210557938e-02 -1.053796052932739258e+00 -3.100461363792419434e-01
4.838000000000000000e+03 2.800453186035156250e+01 -9.263651967048645020e-01 -3.400714635848999023e+00 -4.935810714960098267e-02 -1.035021901130676270e+00 -3.558939397335052490e-01
4.839000000000000000e+03 2.729001426696777344e+01 -1.531453728675842285e+00 -2.739495515823364258e+00 -2.147050052881240845e-01 -8.862602114677429199e-01 -2.924879789352416992e-01
4.840000000000000000e+03 2.997507095336914062e+01 -6.148938536643981934e-01 -3.389707326889038086e+00 4.862639307975769043e-02 -1.002324223518371582e+00 -2.170117050409317017e-01
4.841000000000000000e+03 2.745512580871582031e+01 -9.636750221252441406e-01 -3.410492420196533203e+00 -9.128569066524505615e-02 -1.050533413887023926e+00 -2.820667922496795654e-01
4.842000000000000000e+03 2.823396110534667969e+01 -7.079256176948547363e-01 -3.566256761550903320e+00 -4.097467288374900818e-02 -1.082169413566589355e+00 -3.655073940753936768e-01
4.843000000000000000e+03 2.755640602111816406e+01 -1.198829770088195801e+00 -3.111166715621948242e+00 -1.168050616979598999e-01 -9.683915376663208008e-01 -2.917767465114593506e-01
4.844000000000000000e+03 2.944159126281738281e+01 -1.064152121543884277e+00 -3.186313390731811523e+00 7.299458235502243042e-02 -9.339956641197204590e-01 -2.409130781888961792e-01
4.845000000000000000e+03 2.815221786499023438e+01 -1.422696471214294434e+00 -2.930180788040161133e+00 -4.178983345627784729e-02 -8.915911912918090820e-01 -3.350690007209777832e-01
4.846000000000000000e+03 3.059735870361328125e+01 -7.972539067268371582e-01 -3.313226938247680664e+00 2.243617773056030273e-01 -9.266595244407653809e-01 -7.840453088283538818e-02
4.847000000000000000e+03 2.995605850219726562e+01 -5.597616545855998993e-03 -2.776405744953081012e-05 3.321891563246026635e-05 1.636457000131485984e-06 -1.936485932674258947e-05
4.848000000000000000e+03 2.979190826416015625e+01 -6.038608029484748840e-02 -2.794658757920842618e-05 -4.447064566193148494e-05 -2.172517088183667511e-05 3.878828647430054843e-05
4.849000000000000000e+03 2.962926292419433594e+01 -8.498704433441162109e-02 -1.398928702656121459e-06 4.275441460777074099e-05 1.240664551005465910e-05 -2.070384289254434407e-05
4.850000000000000000e+03 2.978279876708984375e+01 1.970997005701065063e-01 5.008989319321699440e-05 -8.585368050262331963e-06 1.245135808858321980e-05 3.057130379602313042e-05
4.851000000000000000e+03 3.070292282104492188e+01 -1.402674555778503418e+00 -3.091659307479858398e+00 2.790439426898956299e-01 -8.437845706939697266e-01 -9.308642894029617310e-02
4.852000000000000000e+03 3.090387916564941406e+01 -1.005632758140563965e+00 -3.261416196823120117e+00 2.686340808868408203e-01 -8.978346586227416992e-01 -2.647282369434833527e-02
4.853000000000000000e+03 3.022185134887695312e+01 -1.190913677215576172e+00 -3.128459692001342773e+00 2.098804563283920288e-01 -8.755737543106079102e-01 -1.293690204620361328e-01
4.854000000000000000e+03 2.859870910644531250e+01 -1.620338261127471924e-01 8.871205500327050686e-05 -9.652273147366940975e-04 -2.629545924719423056e-04 3.885974001605063677e-04
4.855000000000000000e+03 2.798626136779785156e+01 2.405132167041301727e-02 1.693337457254528999e-03 1.394498161971569061e-03 9.263506508432328701e-04 8.212400134652853012e-04
4.856000000000000000e+03 2.760408020019531250e+01 -4.810364171862602234e-02 1.380600966513156891e-03 1.590920798480510712e-02 5.186942871659994125e-03 7.322183344513177872e-03
4.857000000000000000e+03 2.762227249145507812e+01 -2.580721676349639893e-01 4.788962251041084528e-04 3.004378871992230415e-03 1.044982578605413437e-03 4.019196610897779465e-03
4.858000000000000000e+03 2.742092132568359375e+01 -2.755425572395324707e-01 1.284272968769073486e-02 7.792622782289981842e-03 6.190605461597442627e-03 1.185246743261814117e-02
4.859000000000000000e+03 3.004961967468261719e+01 -1.233764171600341797e+00 -3.104170322418212891e+00 1.669485718011856079e-01 -8.811665177345275879e-01 -1.586692333221435547e-01
4.860000000000000000e+03 2.987006568908691406e+01 -1.269569873809814453e+00 -3.079731941223144531e+00 1.521926075220108032e-01 -8.782618045806884766e-01 -1.887789666652679443e-01
4.861000000000000000e+03 2.967793273925781250e+01 -1.289007782936096191e+00 -3.056876897811889648e+00 1.263406574726104736e-01 -8.791608810424804688e-01 -2.198404073715209961e-01
4.862000000000000000e+03 2.928291893005371094e+01 -1.328910589218139648e+00 -3.036280393600463867e+00 6.792444735765457153e-02 -8.905068039894104004e-01 -2.776950597763061523e-01
4.863000000000000000e+03 2.896192741394042969e+01 -1.619267821311950684e+00 -2.799718856811523438e+00 6.072612851858139038e-02 -8.216978311538696289e-01 -3.147208988666534424e-01
4.864000000000000000e+03 2.876846885681152344e+01 -1.636580586433410645e+00 -2.778283834457397461e+00 2.707868441939353943e-02 -8.253615498542785645e-01 -3.263124525547027588e-01
4.865000000000000000e+03 2.836238670349121094e+01 -1.414757847785949707e+00 -2.942481279373168945e+00 -2.424499392509460449e-02 -8.900179266929626465e-01 -3.391706049442291260e-01
4.866000000000000000e+03 2.792315673828125000e+01 -1.418533086776733398e+00 -2.909606456756591797e+00 -7.844483107328414917e-02 -8.964154124259948730e-01 -3.349713683128356934e-01
4.867000000000000000e+03 2.775188255310058594e+01 -1.074229359626770020e+00 -3.260370254516601562e+00 -7.316993176937103271e-02 -1.000062108039855957e+00 -3.290868699550628662e-01
4.868000000000000000e+03 2.768674468994140625e+01 -1.447214603424072266e+00 -2.874721050262451172e+00 -1.068119034171104431e-01 -8.944598436355590820e-01 -3.318212032318115234e-01
4.869000000000000000e+03 2.744003677368164062e+01 -5.022587180137634277e-01 -3.843773603439331055e+00 -4.605873674154281616e-02 -1.166949748992919922e+00 -3.746451139450073242e-01
4.870000000000000000e+03 2.764735794067382812e+01 -7.030430436134338379e-01 -3.626844644546508789e+00 -4.606335610151290894e-02 -1.101872444152832031e+00 -3.463976383209228516e-01
4.871000000000000000e+03 2.803458213806152344e+01 -6.944524645805358887e-01 -3.594262361526489258e+00 -4.320169985294342041e-02 -1.091239213943481445e+00 -3.621313869953155518e-01
4.872000000000000000e+03 2.716103935241699219e+01 8.718845844268798828e-01 4.843351989984512329e-02 3.981608524918556213e-02 2.647488191723823547e-02 -4.838618263602256775e-02
4.873000000000000000e+03 2.656223297119140625e+01 4.945255815982818604e-01 -1.391869485378265381e-01 9.713442623615264893e-02 -1.261575799435377121e-02 -6.882593780755996704e-02
4.874000000000000000e+03 2.686352920532226562e+01 -1.615345478057861328e+00 -2.495195150375366211e+00 -3.338046669960021973e-01 -8.486999273300170898e-01 -3.084093332290649414e-01
4.875000000000000000e+03 2.653672027587890625e+01 -1.884754896163940430e+00 -2.036132812500000000e+00 -3.918292820453643799e-01 -7.283886671066284180e-01 -4.807269275188446045e-01
4.876000000000000000e+03 2.632029342651367188e+01 -1.903447628021240234e+00 -1.971846222877502441e+00 -2.964937090873718262e-01 -6.805019974708557129e-01 -5.470297932624816895e-01
4.877000000000000000e+03 2.542119216918945312e+01 2.913774251937866211e-01 -4.953268170356750488e-01 -2.389287054538726807e-01 -2.202766537666320801e-01 2.634797096252441406e-01
4.878000000000000000e+03 2.530577659606933594e+01 3.775547146797180176e-01 -4.508434832096099854e-01 -1.943856030702590942e-01 -1.935687214136123657e-01 2.433802485466003418e-01
4.879000000000000000e+03 2.673913955688476562e+01 9.652376174926757812e-01 9.914488345384597778e-02 9.872847050428390503e-02 5.936200544238090515e-02 -1.162991523742675781e-01
4.880000000000000000e+03 2.691065597534179688e+01 9.572267532348632812e-01 1.013835892081260681e-01 6.706030666828155518e-02 5.053316801786422729e-02 -9.431841224431991577e-02
4.881000000000000000e+03 2.502824020385742188e+01 2.314311861991882324e-01 -6.167165040969848633e-01 -1.129523366689682007e-01 -2.189006507396697998e-01 2.361493259668350220e-01
4.882000000000000000e+03 2.507358169555664062e+01 -5.470762252807617188e-01 -1.501895427703857422e+00 7.527488470077514648e-02 -4.279861748218536377e-01 1.885737180709838867e-01
4.883000000000000000e+03 2.704986381530761719e+01 6.634962558746337891e-01 -2.760791219770908356e-02 8.619596809148788452e-02 1.757641695439815521e-02 -5.865364521741867065e-02
4.884000000000000000e+03 2.487689590454101562e+01 -1.669925600290298462e-01 -1.072153091430664062e+00 2.851259335875511169e-02 -3.130921721458435059e-01 2.680360376834869385e-01
4.885000000000000000e+03 2.913160896301269531e+01 -6.978766322135925293e-01 -3.477949142456054688e+00 -1.466664252802729607e-03 -1.043824791908264160e+00 -3.213661313056945801e-01
4.886000000000000000e+03 2.886347579956054688e+01 -4.104328453540802002e-01 -3.766012430191040039e+00 -3.479054197669029236e-02 -1.140240907669067383e+00 -3.749669790267944336e-01
4.887000000000000000e+03 2.954154586791992188e+01 -6.111316680908203125e-01 -3.490339517593383789e+00 5.735238082706928253e-03 -1.045381307601928711e+00 -2.905702292919158936e-01
4.888000000000000000e+03 2.988592720031738281e+01 -3.011800348758697510e-01 -3.616837739944458008e+00 -2.233656123280525208e-02 -1.091752290725708008e+00 -3.229258954524993896e-01
4.889000000000000000e+03 3.047628402709960938e+01 -2.706106901168823242e-01 -3.341555356979370117e+00 4.853049665689468384e-02 -9.879074692726135254e-01 -2.164602577686309814e-01
4.890000000000000000e+03 2.831880378723144531e+01 4.833793938159942627e-01 -9.247483685612678528e-04 -1.716763130389153957e-03 -7.924534147605299950e-04 1.195296877995133400e-03
4.891000000000000000e+03 2.911303520202636719e+01 3.305088281631469727e-01 -7.435232873831409961e-06 -4.812103725271299481e-05 -1.666688149271067232e-05 4.020775304525159299e-05
4.892000000000000000e+03 2.596808815002441406e+01 -1.566657185554504395e+00 -2.131614208221435547e+00 -3.839703202247619629e-01 -7.546753883361816406e-01 -5.583295822143554688e-01
4.893000000000000000e+03 2.621855926513671875e+01 -1.727860927581787109e+00 -2.013165235519409180e+00 -3.429433405399322510e-01 -7.068325281143188477e-01 -5.236504077911376953e-01
4.894000000000000000e+03 2.665574264526367188e+01 -1.670958757400512695e+00 -2.296338558197021484e+00 -4.028196036815643311e-01 -8.097474575042724609e-01 -3.677364885807037354e-01
4.895000000000000000e+03 2.846273994445800781e+01 -2.514259889721870422e-02 7.420407491736114025e-04 -1.151078962720930576e-03 -1.227114407811313868e-04 -4.848574462812393904e-04
4.896000000000000000e+03 2.823483848571777344e+01 2.807835116982460022e-02 7.940544746816158295e-04 1.175247743958607316e-04 2.734737645369023085e-04 -1.565502141602337360e-03
4.897000000000000000e+03 2.766182136535644531e+01 -9.075917005538940430e-01 -3.410516738891601562e+00 -5.679416283965110779e-02 -1.040193319320678711e+00 -3.231806457042694092e-01
4.898000000000000000e+03 3.074271583557128906e+01 -1.065460920333862305e+00 -3.222034692764282227e+00 2.513117790222167969e-01 -8.912168741226196289e-01 -3.582724928855895996e-02
4.899000000000000000e+03 3.027247810363769531e+01 -8.734555840492248535e-01 -3.255858421325683594e+00 1.617724448442459106e-01 -9.282258152961730957e-01 -1.106553450226783752e-01
4.900000000000000000e+03 2.492745590209960938e+01 -6.808144450187683105e-01 -1.553543448448181152e+00 2.045616209506988525e-01 -4.046945571899414062e-01 1.144501194357872009e-02
4.901000000000000000e+03 2.994399070739746094e+01 -9.906327724456787109e-01 -3.219346761703491211e+00 1.280135363340377808e-01 -9.273999929428100586e-01 -1.702294498682022095e-01
4.902000000000000000e+03 2.980185317993164062e+01 -1.050683498382568359e+00 -3.185083150863647461e+00 1.074889749288558960e-01 -9.232782721519470215e-01 -1.886076331138610840e-01
4.903000000000000000e+03 2.816070175170898438e+01 -1.180420279502868652e+00 -3.122249364852905273e+00 -4.512654989957809448e-02 -9.502127766609191895e-01 -3.399666547775268555e-01
4.904000000000000000e+03 2.835287284851074219e+01 -1.187522649765014648e+00 -3.118179321289062500e+00 -2.548971958458423615e-02 -9.431007504463195801e-01 -3.300258517265319824e-01
4.905000000000000000e+03 2.819769477844238281e+01 -9.494147300720214844e-01 -3.367424488067626953e+00 -3.287950530648231506e-02 -1.020091176033020020e+00 -3.440540432929992676e-01
4.906000000000000000e+03 2.871496963500976562e+01 -1.038137078285217285e+00 -3.263074398040771484e+00 -1.301822811365127563e-02 -9.828277826309204102e-01 -3.374238312244415283e-01
4.907000000000000000e+03 3.079138374328613281e+01 -5.324212312698364258e-01 -3.234989166259765625e+00 1.770347803831100464e-01 -9.173862934112548828e-01 -9.814392030239105225e-02
4.908000000000000000e+03 2.940887069702148438e+01 -8.685036301612854004e-01 -3.349842786788940430e+00 2.599918656051158905e-02 -9.971531033515930176e-01 -2.773821949958801270e-01
4.909000000000000000e+03 3.016384696960449219e+01 -5.854021906852722168e-01 -3.358365535736083984e+00 5.643306672573089600e-02 -9.905797243118286133e-01 -1.741991341114044189e-01
4.910000000000000000e+03 3.051674270629882812e+01 -5.657013654708862305e-01 -3.244281291961669922e+00 1.517513990402221680e-01 -9.277589917182922363e-01 -4.952190816402435303e-02
4.911000000000000000e+03 2.748492050170898438e+01 -1.515446901321411133e+00 -2.769458532333374023e+00 -1.523853093385696411e-01 -8.765531778335571289e-01 -3.315235376358032227e-01
4.912000000000000000e+03 3.044175529479980469e+01 -8.363916277885437012e-01 -3.274847030639648438e+00 1.933367550373077393e-01 -9.244530797004699707e-01 -5.935793742537498474e-02
4.913000000000000000e+03 2.958901405334472656e+01 -8.487625122070312500e-01 -3.342159509658813477e+00 4.398575425148010254e-02 -9.894521236419677734e-01 -2.470079362392425537e-01
4.914000000000000000e+03 2.782859802246093750e+01 -8.955772519111633301e-01 -3.420728683471679688e+00 -5.484176427125930786e-02 -1.042671084403991699e+00 -3.441910743713378906e-01
4.915000000000000000e+03 2.839513969421386719e+01 -9.859659671783447266e-01 -3.316863775253295898e+00 -3.282485157251358032e-02 -1.004906654357910156e+00 -3.556299805641174316e-01
4.916000000000000000e+03 2.794436264038085938e+01 -1.159523010253906250e+00 -3.166865348815917969e+00 -5.942960456013679504e-02 -9.678884744644165039e-01 -3.205960690975189209e-01
4.917000000000000000e+03 2.647685241699218750e+01 9.727759361267089844e-01 7.586545497179031372e-02 6.955976039171218872e-02 4.362756386399269104e-02 -1.252286881208419800e-01
4.918000000000000000e+03 2.610982894897460938e+01 9.217603206634521484e-01 -6.562029942870140076e-03 -1.080940477550029755e-02 -5.211430601775646210e-03 -6.844093650579452515e-02
4.919000000000000000e+03 2.501363372802734375e+01 4.009114503860473633e-01 -4.696512222290039062e-01 -1.919499337673187256e-01 -1.984803378582000732e-01 2.476483881473541260e-01
4.920000000000000000e+03 2.524869537353515625e+01 6.084479093551635742e-01 -3.068082630634307861e-01 -1.597911715507507324e-01 -1.399798244237899780e-01 1.764940321445465088e-01
4.921000000000000000e+03 2.596435928344726562e+01 7.445604801177978516e-01 -1.188024356961250305e-01 -9.746195375919342041e-02 -6.487931311130523682e-02 -1.261591911315917969e-02
4.922000000000000000e+03 2.529867744445800781e+01 5.080273151397705078e-01 -3.755369186401367188e-01 -1.945689171552658081e-01 -1.710317432880401611e-01 2.286117970943450928e-01
4.923000000000000000e+03 2.514510345458984375e+01 4.417403340339660645e-01 -4.698069691658020020e-01 -1.530634015798568726e-01 -1.868611127138137817e-01 2.411310523748397827e-01
4.924000000000000000e+03 2.574004173278808594e+01 8.379517197608947754e-01 -1.218304634094238281e-01 -1.387680321931838989e-01 -7.817954570055007935e-02 1.048760395497083664e-02
4.925000000000000000e+03 2.540418624877929688e+01 6.995720267295837402e-01 -2.156068980693817139e-01 -1.672233492136001587e-01 -1.148490756750106812e-01 1.682661473751068115e-01
4.926000000000000000e+03 2.562668418884277344e+01 6.353848576545715332e-01 -2.104265987873077393e-01 -2.097975611686706543e-01 -1.260672509670257568e-01 1.023560240864753723e-01
4.927000000000000000e+03 2.546116828918457031e+01 5.738193392753601074e-01 -2.923761308193206787e-01 -1.785427778959274292e-01 -1.412756741046905518e-01 1.496484875679016113e-01
4.928000000000000000e+03 2.579438400268554688e+01 6.921237111091613770e-01 -1.279387474060058594e-01 -1.452608406543731689e-01 -8.195988088846206665e-02 2.611015364527702332e-02
4.929000000000000000e+03 2.630865478515625000e+01 9.588830471038818359e-01 4.281114041805267334e-02 4.845021292567253113e-02 2.737840637564659119e-02 -1.091754138469696045e-01
4.930000000000000000e+03 2.633842658996582031e+01 8.784570097923278809e-01 -1.227216608822345734e-02 4.500430449843406677e-02 9.819641709327697754e-03 -9.872056543827056885e-02
4.931000000000000000e+03 2.510928726196289062e+01 5.076749920845031738e-01 -4.418394267559051514e-01 -1.576608270406723022e-01 -1.798500716686248779e-01 2.499620318412780762e-01
4.932000000000000000e+03 2.614974594116210938e+01 8.036559820175170898e-01 -3.703499212861061096e-02 -1.810415275394916534e-02 -1.654174365103244781e-02 -7.231906801462173462e-02
4.933000000000000000e+03 2.591700744628906250e+01 8.839657902717590332e-01 -2.448453195393085480e-02 -7.615757733583450317e-02 -3.019263409078121185e-02 -3.599298000335693359e-02
4.934000000000000000e+03 2.556867980957031250e+01 7.764952182769775391e-01 -1.641108989715576172e-01 -1.181896626949310303e-01 -8.469016849994659424e-02 7.754248380661010742e-02
4.935000000000000000e+03 3.925119400024414062e+01 3.659583628177642822e-01 -3.835724890232086182e-01 -6.236594170331954956e-02 -1.337815225124359131e-01 2.766087949275970459e-01
4.936000000000000000e+03 3.926422500610351562e+01 -6.637467443943023682e-02 -8.701084256172180176e-01 -1.111599728465080261e-01 -2.943805158138275146e-01 5.867860317230224609e-01
4.937000000000000000e+03 3.853815841674804688e+01 8.006714582443237305e-01 -4.095439910888671875e-01 -6.940764375030994415e-03 -1.249454244971275330e-01 6.125067174434661865e-02
4.938000000000000000e+03 3.856700515747070312e+01 2.940661311149597168e-01 -8.502765297889709473e-01 5.813739821314811707e-02 -2.376417368650436401e-01 3.223403692245483398e-01
4.939000000000000000e+03 3.863258743286132812e+01 -1.873374730348587036e-01 -1.222590565681457520e+00 1.252003610134124756e-01 -3.292170763015747070e-01 5.590396523475646973e-01
4.940000000000000000e+03 3.940476989746093750e+01 9.400728940963745117e-01 -5.266758427023887634e-02 1.542930677533149719e-02 -1.117148343473672867e-02 3.794449940323829651e-02
4.941000000000000000e+03 4.009798812866210938e+01 4.773842692375183105e-01 1.156697720289230347e-01 2.372274920344352722e-02 4.181775450706481934e-02 -8.470621705055236816e-02
4.942000000000000000e+03 3.978098297119140625e+01 1.255261451005935669e-01 -2.758192121982574463e-01 -3.341190516948699951e-01 -1.829814761877059937e-01 3.502832353115081787e-01
4.943000000000000000e+03 2.643321990966796875e+01 -4.614933729171752930e-01 1.148367047309875488e+00 8.305191993713378906e-02 3.694257140159606934e-01 3.202148675918579102e-01
4.944000000000000000e+03 2.662815284729003906e+01 -4.212739467620849609e-01 4.348860085010528564e-01 3.935818746685981750e-02 1.422732621431350708e-01 1.361892819404602051e-01
4.945000000000000000e+03 2.682308387756347656e+01 -3.810544908046722412e-01 1.983914673328399658e-01 2.066840045154094696e-02 6.571795791387557983e-02 7.456725835800170898e-02
4.946000000000000000e+03 2.701801681518554688e+01 -3.408350646495819092e-01 9.141090512275695801e-02 1.644984446465969086e-02 3.235822543501853943e-02 4.341917484998703003e-02
4.947000000000000000e+03 2.641584777832031250e+01 -4.056465029716491699e-01 6.047219038009643555e-01 1.918628215789794922e-01 2.389754205942153931e-01 4.441177546977996826e-01
4.948000000000000000e+03 2.659919929504394531e+01 -3.281958401203155518e-01 2.678840756416320801e-01 1.600675731897354126e-01 1.283854991197586060e-01 2.513411045074462891e-01
4.949000000000000000e+03 2.678255081176757812e+01 -2.507451474666595459e-01 1.059702709317207336e-01 7.697231322526931763e-02 5.488277599215507507e-02 1.460869610309600830e-01
4.950000000000000000e+03 2.696590232849121094e+01 -1.732944548130035400e-01 3.663787990808486938e-02 6.843126565217971802e-02 3.152074292302131653e-02 8.817405253648757935e-02
4.951000000000000000e+03 2.638792037963867188e+01 -3.542579412460327148e-01 2.319744378328323364e-01 2.742142975330352783e-01 1.518566161394119263e-01 4.273017942905426025e-01
4.952000000000000000e+03 2.655265426635742188e+01 -2.425482273101806641e-01 3.987208008766174316e-02 2.269344031810760498e-01 8.004194498062133789e-02 2.333158850669860840e-01
4.953000000000000000e+03 2.671738815307617188e+01 -1.308384984731674194e-01 -2.206672914326190948e-02 1.599330455064773560e-01 4.135989770293235779e-02 1.597793698310852051e-01
4.954000000000000000e+03 2.688212394714355469e+01 -1.912877708673477173e-02 -4.775999113917350769e-02 1.172904744744300842e-01 2.085914462804794312e-02 9.005074948072433472e-02
4.955000000000000000e+03 2.635051155090332031e+01 -3.092997670173645020e-01 -6.816253811120986938e-02 2.992197871208190918e-01 6.931717693805694580e-02 3.204760253429412842e-01
4.956000000000000000e+03 2.649030685424804688e+01 -1.676179021596908569e-01 -1.222306415438652039e-01 2.326405942440032959e-01 3.312298655509948730e-02 1.673151254653930664e-01
4.957000000000000000e+03 2.663010215759277344e+01 -2.593605220317840576e-02 -1.463606208562850952e-01 1.872667670249938965e-01 1.227184385061264038e-02 1.051968261599540710e-01
4.958000000000000000e+03 2.676989746093750000e+01 1.157457977533340454e-01 -1.293119043111801147e-01 1.568761765956878662e-01 8.269282989203929901e-03 5.744457989931106567e-02
4.959000000000000000e+03 2.630505752563476562e+01 -2.724972069263458252e-01 -2.504106163978576660e-01 2.303541898727416992e-01 -6.016925908625125885e-03 1.661400198936462402e-01
4.960000000000000000e+03 2.641454887390136719e+01 -1.062803491950035095e-01 -2.381757646799087524e-01 1.661851555109024048e-01 -2.159718237817287445e-02 8.383289724588394165e-02
4.961000000000000000e+03 2.652403831481933594e+01 5.993652343750000000e-02 -2.222711294889450073e-01 1.636774688959121704e-01 -1.757810078561306000e-02 3.720802441239356995e-02
4.962000000000000000e+03 2.663352775573730469e+01 2.261533886194229126e-01 -1.845227181911468506e-01 1.426924765110015869e-01 -1.254907529801130295e-02 1.873507164418697357e-03
4.963000000000000000e+03 2.625329971313476562e+01 -2.452626526355743408e-01 -3.351401090621948242e-01 3.359784930944442749e-02 -9.046267718076705933e-02 3.862611949443817139e-02
4.964000000000000000e+03 2.632828330993652344e+01 -6.088940799236297607e-02 -2.897681891918182373e-01 5.722639337182044983e-02 -6.976254284381866455e-02 1.147501729428768158e-02
4.965000000000000000e+03 2.640326881408691406e+01 1.234838366508483887e-01 -2.675603032112121582e-01 6.922636181116104126e-02 -5.950018763542175293e-02 -1.540584489703178406e-02
4.966000000000000000e+03 2.647825241088867188e+01 3.078570663928985596e-01 -2.041550874710083008e-01 9.209895133972167969e-02 -3.361684083938598633e-02 -4.629918560385704041e-02
4.967000000000000000e+03 2.619722366333007812e+01 -2.286412119865417480e-01 -3.191587328910827637e-01 -2.220786660909652710e-01 -1.623712182044982910e-01 -1.957151480019092560e-02
4.968000000000000000e+03 2.623482513427734375e+01 -3.318699449300765991e-02 -3.277003169059753418e-01 -1.128883585333824158e-01 -1.321766078472137451e-01 -7.383223157376050949e-03
4.969000000000000000e+03 2.627242660522460938e+01 1.622672230005264282e-01 -2.672597765922546387e-01 -4.342093318700790405e-02 -9.320421516895294189e-02 -4.226782172918319702e-02
4.970000000000000000e+03 2.631002807617187500e+01 3.577214479446411133e-01 -2.252844870090484619e-01 -1.591425575315952301e-02 -7.235962152481079102e-02 -5.741447582840919495e-02
4.971000000000000000e+03 2.613898468017578125e+01 -2.232707291841506958e-01 -3.184791505336761475e-01 -5.146401524543762207e-01 -2.499358057975769043e-01 4.610034078359603882e-02
4.972000000000000000e+03 2.613776016235351562e+01 -2.423619106411933899e-02 -3.254804909229278564e-01 -2.776627540588378906e-01 -1.809429675340652466e-01 2.075286954641342163e-02
4.973000000000000000e+03 2.613653564453125000e+01 1.747983545064926147e-01 -2.956745326519012451e-01 -1.885225325822830200e-01 -1.452591270208358765e-01 -1.008677762001752853e-02
4.974000000000000000e+03 2.613531112670898438e+01 3.738328814506530762e-01 -2.165928333997726440e-01 -1.139047145843505859e-01 -9.914926439523696899e-02 -3.441453725099563599e-02
4.975000000000000000e+03 2.608081626892089844e+01 -2.293573021888732910e-01 -3.242805898189544678e-01 -7.394411563873291016e-01 -3.191165328025817871e-01 2.070885747671127319e-01
4.976000000000000000e+03 2.604081344604492188e+01 -3.438049182295799255e-02 -3.863115608692169189e-01 -4.377272129058837891e-01 -2.472116351127624512e-01 1.167302578687667847e-01
4.977000000000000000e+03 2.600080871582031250e+01 1.605963259935379028e-01 -3.122499287128448486e-01 -3.041871786117553711e-01 -1.849311292171478271e-01 5.940464511513710022e-02
4.978000000000000000e+03 2.596080589294433594e+01 3.555731475353240967e-01 -2.572426795959472656e-01 -2.266551852226257324e-01 -1.451693624258041382e-01 4.149979352951049805e-02
4.979000000000000000e+03 2.602495002746582031e+01 -2.466673702001571655e-01 -4.682224094867706299e-01 -8.746813535690307617e-01 -4.028711318969726562e-01 4.357004761695861816e-01
4.980000000000000000e+03 2.594770240783691406e+01 -6.323059648275375366e-02 -4.574670195579528809e-01 -5.376967787742614746e-01 -2.985491454601287842e-01 2.468677461147308350e-01
4.981000000000000000e+03 2.587045478820800781e+01 1.202061772346496582e-01 -4.124207198619842529e-01 -3.930073678493499756e-01 -2.416284233331680298e-01 1.745252609252929688e-01
4.982000000000000000e+03 2.579320716857910156e+01 3.036429584026336670e-01 -3.107255995273590088e-01 -3.004743456840515137e-01 -1.833599805831909180e-01 1.269187778234481812e-01
4.983000000000000000e+03 2.597352981567382812e+01 -2.745366394519805908e-01 -6.825846433639526367e-01 -8.799965977668762207e-01 -4.687743484973907471e-01 6.652683615684509277e-01
4.984000000000000000e+03 2.586200332641601562e+01 -1.096793785691261292e-01 -6.374866366386413574e-01 -5.763050913810729980e-01 -3.641375303268432617e-01 3.923518955707550049e-01
4.985000000000000000e+03 2.575047492980957031e+01 5.517788231372833252e-02 -5.275250673294067383e-01 -4.306935667991638184e-01 -2.874656021595001221e-01 2.951739430427551270e-01
4.986000000000000000e+03 2.563894844055175781e+01 2.200351357460021973e-01 -4.674681127071380615e-01 -3.242907226085662842e-01 -2.375276535749435425e-01 2.387931793928146362e-01
4.987000000000000000e+03 2.592853164672851562e+01 -3.118956089019775391e-01 -1.013979792594909668e+00 -7.915639281272888184e-01 -5.416631102561950684e-01 8.309809565544128418e-01
4.988000000000000000e+03 2.578700256347656250e+01 -1.719443351030349731e-01 -8.525824546813964844e-01 -5.488695502281188965e-01 -4.204356074333190918e-01 5.317474007606506348e-01
4.989000000000000000e+03 2.564547729492187500e+01 -3.199306875467300415e-02 -7.490494847297668457e-01 -3.986307680606842041e-01 -3.443040847778320312e-01 3.950472772121429443e-01
4.990000000000000000e+03 2.550395011901855469e+01 1.079582050442695618e-01 -6.236166357994079590e-01 -3.166240155696868896e-01 -2.820721864700317383e-01 3.321056067943572998e-01
4.991000000000000000e+03 2.589167785644531250e+01 -3.573106229305267334e-01 -1.387548089027404785e+00 -6.451942920684814453e-01 -6.098226904869079590e-01 9.072880148887634277e-01
4.992000000000000000e+03 2.572558212280273438e+01 -2.476360350847244263e-01 -1.121922850608825684e+00 -4.673519432544708252e-01 -4.767824411392211914e-01 6.221847534179687500e-01
4.993000000000000000e+03 2.555948638916015625e+01 -1.379614472389221191e-01 -1.013898611068725586e+00 -3.257896006107330322e-01 -4.019064605236053467e-01 4.840207695960998535e-01
4.994000000000000000e+03 2.539339256286621094e+01 -2.828685194253921509e-02 -8.868313431739807129e-01 -2.235092967748641968e-01 -3.331021964550018311e-01 3.624196946620941162e-01
4.995000000000000000e+03 2.586438560485839844e+01 -4.090388715267181396e-01 -1.743070006370544434e+00 -4.866540729999542236e-01 -6.689172387123107910e-01 8.940244317054748535e-01
4.996000000000000000e+03 2.568009567260742188e+01 -3.338497877120971680e-01 -1.432253003120422363e+00 -3.647691905498504639e-01 -5.391066670417785645e-01 6.508030295372009277e-01
4.997000000000000000e+03 2.549580574035644531e+01 -2.586606740951538086e-01 -1.278251409530639648e+00 -2.173543423414230347e-01 -4.486817121505737305e-01 5.209255814552307129e-01
4.998000000000000000e+03 2.531151580810546875e+01 -1.834715753793716431e-01 -1.227603912353515625e+00 -1.180863603949546814e-01 -4.037070870399475098e-01 4.143007993698120117e-01
4.999000000000000000e+03 2.584770202636718750e+01 -4.650952517986297607e-01 -2.071094751358032227e+00 -3.819875717163085938e-01 -7.359247207641601562e-01 8.017122149467468262e-01
5.000000000000000000e+03 2.565229034423828125e+01 -4.272770583629608154e-01 -1.728357791900634766e+00 -2.390892505645751953e-01 -5.902341008186340332e-01 6.221092343330383301e-01
5.001000000000000000e+03 2.545687675476074219e+01 -3.894588649272918701e-01 -1.561191082000732422e+00 -1.223952397704124451e-01 -5.050759315490722656e-01 4.881438016891479492e-01
5.002000000000000000e+03 2.526146507263183594e+01 -3.516406714916229248e-01 -1.451656579971313477e+00 -3.626613691449165344e-02 -4.463768303394317627e-01 4.299193024635314941e-01
5.003000000000000000e+03 2.584226799011230469e+01 -5.233285427093505859e-01 -2.328170776367187500e+00 -3.077519536018371582e-01 -7.907767891883850098e-01 6.844966411590576172e-01
5.004000000000000000e+03 2.564323234558105469e+01 -5.243325233459472656e-01 -2.018046140670776367e+00 -1.494230628013610840e-01 -6.502407789230346680e-01 5.226085782051086426e-01
5.005000000000000000e+03 2.544419670104980469e+01 -5.253365635871887207e-01 -1.807212114334106445e+00 -3.263653442263603210e-02 -5.519546270370483398e-01 4.015749692916870117e-01
5.006000000000000000e+03 2.524516105651855469e+01 -5.263405442237854004e-01 -1.620296478271484375e+00 1.880616135895252228e-02 -4.804471135139465332e-01 3.148648738861083984e-01
5.007000000000000000e+03 2.584828948974609375e+01 -5.815040469169616699e-01 -2.545794248580932617e+00 -3.009307980537414551e-01 -8.540175557136535645e-01 5.538498163223266602e-01
5.008000000000000000e+03 2.565326881408691406e+01 -6.212916970252990723e-01 -2.261277914047241211e+00 -7.358729094266891479e-02 -7.004595994949340820e-01 3.868509232997894287e-01
5.009000000000000000e+03 2.545824813842773438e+01 -6.610794067382812500e-01 -2.027330398559570312e+00 4.927263595163822174e-03 -6.067209243774414062e-01 2.460447102785110474e-01
5.010000000000000000e+03 2.526322746276855469e+01 -7.008671164512634277e-01 -1.807130336761474609e+00 9.077174216508865356e-02 -5.149075984954833984e-01 1.294769644737243652e-01
5.011000000000000000e+03 2.586553764343261719e+01 -6.373892426490783691e-01 -2.731014013290405273e+00 -3.051971495151519775e-01 -9.108633399009704590e-01 4.357903599739074707e-01
5.012000000000000000e+03 2.568201637268066406e+01 -7.144337892532348633e-01 -2.454989671707153320e+00 -6.496405601501464844e-02 -7.559860944747924805e-01 2.173389941453933716e-01
5.013000000000000000e+03 2.549849319458007812e+01 -7.914782762527465820e-01 -2.204804658889770508e+00 2.672793716192245483e-02 -6.534230113029479980e-01 7.015942782163619995e-02
5.014000000000000000e+03 2.531497192382812500e+01 -8.685227036476135254e-01 -2.041562080383300781e+00 1.089637950062751770e-01 -5.797795057296752930e-01 -6.164065748453140259e-02
5.015000000000000000e+03 2.589335060119628906e+01 -6.888395547866821289e-01 -2.889647245407104492e+00 -3.261907100677490234e-01 -9.647513628005981445e-01 3.137474954128265381e-01
5.016000000000000000e+03 2.572836875915527344e+01 -8.001842498779296875e-01 -2.600586175918579102e+00 -1.078585982322692871e-01 -8.125334382057189941e-01 5.633326247334480286e-02
5.017000000000000000e+03 2.556338882446289062e+01 -9.115288853645324707e-01 -2.340913772583007812e+00 3.030112711712718010e-03 -7.013651132583618164e-01 -1.167971491813659668e-01
5.018000000000000000e+03 2.539840888977050781e+01 -1.022873520851135254e+00 -2.192950725555419922e+00 6.534530967473983765e-02 -6.382816433906555176e-01 -1.910605579614639282e-01
5.019000000000000000e+03 2.593066024780273438e+01 -7.338804602622985840e-01 -3.064349412918090820e+00 -3.898958861827850342e-01 -1.036273598670959473e+00 2.050918489694595337e-01
5.020000000000000000e+03 2.579055213928222656e+01 -8.752524256706237793e-01 -2.658534765243530273e+00 -1.857143193483352661e-01 -8.532747030258178711e-01 -1.088272407650947571e-01
5.021000000000000000e+03 2.565044403076171875e+01 -1.016624450683593750e+00 -2.452773809432983398e+00 -7.952333241701126099e-02 -7.596891522407531738e-01 -2.285085022449493408e-01
5.022000000000000000e+03 2.551033592224121094e+01 -1.157996416091918945e+00 -2.241903781890869141e+00 -1.171833835542201996e-02 -6.760866641998291016e-01 -3.553173840045928955e-01
5.023000000000000000e+03 2.597603416442871094e+01 -7.707836031913757324e-01 -3.128727674484252930e+00 -4.461663365364074707e-01 -1.072468161582946777e+00 6.824347376823425293e-02
5.024000000000000000e+03 2.586617469787597656e+01 -9.367576241493225098e-01 -2.754687309265136719e+00 -3.297048211097717285e-01 -9.253176450729370117e-01 -1.986545324325561523e-01
5.025000000000000000e+03 2.575631713867187500e+01 -1.102731585502624512e+00 -2.428592205047607422e+00 -2.020470350980758667e-01 -7.891917824745178223e-01 -3.408881723880767822e-01
5.026000000000000000e+03 2.564645767211914062e+01 -1.268705606460571289e+00 -2.315585136413574219e+00 -9.717796742916107178e-02 -7.238289117813110352e-01 -3.961599171161651611e-01
5.027000000000000000e+03 2.602773094177246094e+01 -7.981326580047607422e-01 -3.271629571914672852e+00 -5.978507995605468750e-01 -1.160844087600708008e+00 -2.356754615902900696e-02
5.028000000000000000e+03 2.595233917236328125e+01 -9.823395013809204102e-01 -2.701446294784545898e+00 -4.591568112373352051e-01 -9.481809139251708984e-01 -2.607843875885009766e-01
5.029000000000000000e+03 2.587694549560546875e+01 -1.166546225547790527e+00 -2.515721797943115234e+00 -3.557646870613098145e-01 -8.614459633827209473e-01 -3.751822710037231445e-01
5.030000000000000000e+03 2.580155181884765625e+01 -1.350752949714660645e+00 -2.184675693511962891e+00 -2.691726982593536377e-01 -7.361544966697692871e-01 -4.311448335647583008e-01
5.031000000000000000e+03 2.608376884460449219e+01 -8.148782849311828613e-01 -3.215404987335205078e+00 -7.354419827461242676e-01 -1.185254096984863281e+00 -7.657266408205032349e-02
5.032000000000000000e+03 2.604573440551757812e+01 -1.010248780250549316e+00 -2.809771776199340820e+00 -6.224443316459655762e-01 -1.029664874076843262e+00 -2.502419948577880859e-01
5.033000000000000000e+03 2.600769996643066406e+01 -1.205619215965270996e+00 -2.445225477218627930e+00 -4.735751450061798096e-01 -8.756402134895324707e-01 -3.608729541301727295e-01
5.034000000000000000e+03 2.596966552734375000e+01 -1.400989651679992676e+00 -2.280352830886840820e+00 -4.477038979530334473e-01 -8.184170126914978027e-01 -4.844481050968170166e-01
5.035000000000000000e+03 2.614199638366699219e+01 -8.203776478767395020e-01 -3.307190895080566406e+00 -9.365654587745666504e-01 -1.273126959800720215e+00 -5.710215866565704346e-02
5.036000000000000000e+03 2.614278030395507812e+01 -1.019414424896240234e+00 -2.791842222213745117e+00 -7.025753855705261230e-01 -1.048325300216674805e+00 -1.734763681888580322e-01
5.037000000000000000e+03 2.614356422424316406e+01 -1.218451261520385742e+00 -2.564460039138793945e+00 -6.010583043098449707e-01 -9.496555328369140625e-01 -3.233462870121002197e-01
5.038000000000000000e+03 2.614434814453125000e+01 -1.417487978935241699e+00 -2.312258481979370117e+00 -4.748692810535430908e-01 -8.361383080482482910e-01 -4.354290664196014404e-01
5.039000000000000000e+03 2.620017814636230469e+01 -8.144198656082153320e-01 -3.299453496932983398e+00 -1.034949421882629395e+00 -1.300320863723754883e+00 7.184392958879470825e-02
5.040000000000000000e+03 2.623974990844726562e+01 -1.009484767913818359e+00 -2.955123901367187500e+00 -7.804230451583862305e-01 -1.120664119720458984e+00 -8.198533952236175537e-02
5.041000000000000000e+03 2.627932167053222656e+01 -1.204549789428710938e+00 -2.632095098495483398e+00 -6.083823442459106445e-01 -9.721432328224182129e-01 -2.289618998765945435e-01
5.042000000000000000e+03 2.631889343261718750e+01 -1.399614572525024414e+00 -2.464610099792480469e+00 -5.194871425628662109e-01 -8.952291607856750488e-01 -3.390402197837829590e-01
5.043000000000000000e+03 2.625608253479003906e+01 -7.972335815429687500e-01 -3.481033563613891602e+00 -1.090572834014892578e+00 -1.371481895446777344e+00 2.343174517154693604e-01
5.044000000000000000e+03 2.633292388916015625e+01 -9.808409214019775391e-01 -3.086621284484863281e+00 -7.306037545204162598e-01 -1.145167469978332520e+00 3.897241130471229553e-02
5.045000000000000000e+03 2.640976524353027344e+01 -1.164448261260986328e+00 -2.849199533462524414e+00 -6.044871807098388672e-01 -1.036105990409851074e+00 -1.326949745416641235e-01
5.046000000000000000e+03 2.648660659790039062e+01 -1.348055601119995117e+00 -2.585652589797973633e+00 -4.868369698524475098e-01 -9.217468500137329102e-01 -2.356766760349273682e-01
5.047000000000000000e+03 2.630756378173828125e+01 -7.694782018661499023e-01 -3.700136661529541016e+00 -9.639798402786254883e-01 -1.399235010147094727e+00 4.164123833179473877e-01
5.048000000000000000e+03 2.641872596740722656e+01 -9.345819354057312012e-01 -3.352659702301025391e+00 -6.552498936653137207e-01 -1.202372908592224121e+00 1.175458878278732300e-01
5.049000000000000000e+03 2.652988815307617188e+01 -1.099685668945312500e+00 -3.044446945190429688e+00 -5.084714889526367188e-01 -1.065875530242919922e+00 -4.124329984188079834e-02
5.050000000000000000e+03 2.664105033874511719e+01 -1.264789462089538574e+00 -2.843828201293945312e+00 -4.467767477035522461e-01 -9.871814846992492676e-01 -1.626702696084976196e-01
5.051000000000000000e+03 2.635264587402343750e+01 -7.322189211845397949e-01 -4.074830055236816406e+00 -7.539745569229125977e-01 -1.448641419410705566e+00 5.039799809455871582e-01
5.052000000000000000e+03 2.649386215209960938e+01 -8.724831342697143555e-01 -3.601604223251342773e+00 -4.897910654544830322e-01 -1.227418541908264160e+00 1.552857160568237305e-01
5.053000000000000000e+03 2.663508033752441406e+01 -1.012747406959533691e+00 -3.324087381362915039e+00 -4.061566889286041260e-01 -1.119073152542114258e+00 -7.055040448904037476e-03
5.054000000000000000e+03 2.677629661560058594e+01 -1.153011679649353027e+00 -3.092174053192138672e+00 -3.518387675285339355e-01 -1.033203840255737305e+00 -1.191230565309524536e-01
5.055000000000000000e+03 2.638959884643554688e+01 -6.868855953216552734e-01 -4.452348709106445312e+00 -4.370340704917907715e-01 -1.466814875602722168e+00 4.681887328624725342e-01
5.056000000000000000e+03 2.655545234680175781e+01 -7.969276309013366699e-01 -3.891482591629028320e+00 -3.312061131000518799e-01 -1.266806602478027344e+00 1.024446263909339905e-01
5.057000000000000000e+03 2.672130393981933594e+01 -9.069696068763732910e-01 -3.561148881912231445e+00 -2.762985229492187500e-01 -1.151234269142150879e+00 -2.152127958834171295e-02
5.058000000000000000e+03 2.688715744018554688e+01 -1.017011642456054688e+00 -3.385446786880493164e+00 -2.387819886207580566e-01 -1.087268590927124023e+00 -1.243750080466270447e-01
5.059000000000000000e+03 2.641700553894042969e+01 -6.352178454399108887e-01 -4.795938968658447266e+00 -1.513178050518035889e-01 -1.484176993370056152e+00 2.610641419887542725e-01
5.060000000000000000e+03 2.660112953186035156e+01 -7.108147740364074707e-01 -4.117677688598632812e+00 -1.795664876699447632e-01 -1.289173245429992676e+00 -9.686918929219245911e-03
5.061000000000000000e+03 2.678525352478027344e+01 -7.864116430282592773e-01 -3.801405906677246094e+00 -1.653038710355758667e-01 -1.190012931823730469e+00 -1.115667968988418579e-01
5.062000000000000000e+03 2.696937561035156250e+01 -8.620085120201110840e-01 -3.596431732177734375e+00 -1.406574100255966187e-01 -1.121126770973205566e+00 -1.598936170339584351e-01
5.063000000000000000e+03 2.643381309509277344e+01 -5.791985392570495605e-01 -4.996855735778808594e+00 4.277810081839561462e-02 -1.486223340034484863e+00 -8.274885267019271851e-02
5.064000000000000000e+03 2.662914276123046875e+01 -6.174492239952087402e-01 -4.249746799468994141e+00 -9.819101542234420776e-02 -1.304381370544433594e+00 -1.726871728897094727e-01
5.065000000000000000e+03 2.682447052001953125e+01 -6.556999087333679199e-01 -4.001003742218017578e+00 -8.610790967941284180e-02 -1.226133465766906738e+00 -2.066586017608642578e-01
5.066000000000000000e+03 2.701979827880859375e+01 -6.939505934715270996e-01 -3.806986331939697266e+00 -4.614241421222686768e-02 -1.155938625335693359e+00 -2.797253131866455078e-01
5.067000000000000000e+03 2.643937683105468750e+01 -5.209773778915405273e-01 -4.900356769561767578e+00 6.674849241971969604e-02 -1.450082421302795410e+00 -4.322398900985717773e-01
5.068000000000000000e+03 2.663841629028320312e+01 -5.204139947891235352e-01 -4.392671585083007812e+00 -9.687345474958419800e-02 -1.346863508224487305e+00 -3.153596520423889160e-01
5.069000000000000000e+03 2.683745193481445312e+01 -5.198506116867065430e-01 -4.088393211364746094e+00 -5.229638423770666122e-03 -1.228086829185485840e+00 -3.699526488780975342e-01
5.070000000000000000e+03 2.703648948669433594e+01 -5.192871689796447754e-01 -3.963397026062011719e+00 -5.523329973220825195e-02 -1.205589056015014648e+00 -3.529252111911773682e-01
5.071000000000000000e+03 3.784771728515625000e+01 1.573838591575622559e-01 -1.300625324249267578e+00 1.693533807992935181e-01 -3.393815755844116211e-01 2.506037652492523193e-01
5.072000000000000000e+03 3.725452804565429688e+01 -4.614862799644470215e-01 -1.886037230491638184e+00 3.288197815418243408e-01 -4.671652317047119141e-01 3.390264809131622314e-01
5.073000000000000000e+03 3.576796340942382812e+01 -2.034789621829986572e-01 -2.174609661102294922e+00 3.409979492425918579e-02 -6.421529650688171387e-01 -1.723033189773559570e-01
5.074000000000000000e+03 3.773318862915039062e+01 6.399024128913879395e-01 -9.777892231941223145e-01 6.462550163269042969e-02 -2.739491164684295654e-01 -1.437309570610523224e-02
5.075000000000000000e+03 3.793711853027343750e+01 -3.290801048278808594e-01 -1.604812145233154297e+00 2.604683935642242432e-01 -4.033031165599822998e-01 4.899216592311859131e-01
5.076000000000000000e+03 3.579476928710937500e+01 1.557014137506484985e-01 -2.257429599761962891e+00 1.324329432100057602e-02 -6.732558608055114746e-01 -2.875254452228546143e-01
5.077000000000000000e+03 3.544619369506835938e+01 -5.567274093627929688e-01 -2.409967899322509766e+00 2.144458591938018799e-01 -6.586566567420959473e-01 -1.543240994215011597e-01
5.078000000000000000e+03 3.542301177978515625e+01 -3.483869433403015137e-01 -2.295977354049682617e+00 7.683331519365310669e-02 -6.657431721687316895e-01 -1.632538437843322754e-01
5.079000000000000000e+03 3.557382965087890625e+01 -9.237620830535888672e-01 -2.461777448654174805e+00 3.069124817848205566e-01 -6.464595198631286621e-01 -2.799158170819282532e-02
5.080000000000000000e+03 3.620565032958984375e+01 -5.708550214767456055e-01 -2.217729806900024414e+00 2.566942870616912842e-01 -5.883106589317321777e-01 1.148524507880210876e-01
5.081000000000000000e+03 3.543449020385742188e+01 -7.468969821929931641e-01 -2.534247159957885742e+00 2.834101021289825439e-01 -6.752511262893676758e-01 -1.232496351003646851e-01
5.082000000000000000e+03 3.575466537475585938e+01 -7.140525579452514648e-01 -2.394891023635864258e+00 2.858525514602661133e-01 -6.327115297317504883e-01 -4.220473766326904297e-02
5.083000000000000000e+03 3.536248397827148438e+01 8.274657279253005981e-02 -2.370210170745849609e+00 -1.226086169481277466e-02 -7.147413492202758789e-01 -2.898634970188140869e-01
5.084000000000000000e+03 3.537422180175781250e+01 -1.330137997865676880e-01 -2.361396789550781250e+00 1.525603886693716049e-02 -7.038422226905822754e-01 -3.241443037986755371e-01
5.085000000000000000e+03 3.720196914672851562e+01 2.339655533432960510e-02 -1.637259125709533691e+00 1.422684192657470703e-01 -4.484972059726715088e-01 1.789059340953826904e-01
5.086000000000000000e+03 3.633927154541015625e+01 3.176230490207672119e-01 -2.011863231658935547e+00 1.419506687670946121e-02 -5.993004441261291504e-01 -2.145566195249557495e-01
5.087000000000000000e+03 3.702178573608398438e+01 4.951345026493072510e-01 -1.516966223716735840e+00 -1.381195988506078720e-02 -4.592334628105163574e-01 -1.091607436537742615e-01
5.088000000000000000e+03 3.670540237426757812e+01 -2.419523298740386963e-01 -1.921403408050537109e+00 1.723562330007553101e-01 -5.247141718864440918e-01 1.416515558958053589e-01
5.089000000000000000e+03 3.540359497070312500e+01 3.248628079891204834e-01 -2.381074666976928711e+00 -5.250671133399009705e-02 -7.300744056701660156e-01 -3.829376399517059326e-01
5.090000000000000000e+03 2.680468750000000000e+01 1.088164567947387695e+00 1.626382172107696533e-01 7.274665683507919312e-02 7.061546295881271362e-02 -1.004186049103736877e-01
5.091000000000000000e+03 3.282873153686523438e+01 1.759412050247192383e+00 -1.458150472899433225e-05 2.901378611568361521e-04 8.266690565505996346e-05 3.879404903273098171e-05
5.092000000000000000e+03 3.256165695190429688e+01 1.791955471038818359e+00 -3.225483524147421122e-04 -3.625455719884485006e-04 -2.055281802313402295e-04 1.406828378094360232e-04
5.093000000000000000e+03 3.268337631225585938e+01 1.737726449966430664e+00 2.575889520812779665e-04 -2.955090312752872705e-04 -1.137602885137312114e-05 1.229092140420107171e-05
5.094000000000000000e+03 3.273002243041992188e+01 1.890288829803466797e+00 -9.488633950240910053e-04 -1.703525485936552286e-04 -3.357647801749408245e-04 2.981942670885473490e-04
5.095000000000000000e+03 3.914461517333984375e+01 2.359752893447875977e+00 -6.337215891107916832e-04 2.939533151220530272e-04 -1.019304836518131196e-04 1.516289103165036067e-06
5.096000000000000000e+03 3.842591857910156250e+01 1.450954198837280273e+00 -1.283744350075721741e-04 -2.919989055953919888e-04 -1.261120050912722945e-04 1.550350134493783116e-04
5.097000000000000000e+03 3.827068328857421875e+01 2.174587726593017578e+00 1.172158736153505743e-04 1.133266414399258792e-04 6.916275015100836754e-05 -9.953716471500229090e-06
5.098000000000000000e+03 3.930421447753906250e+01 1.637129545211791992e+00 6.454743561334908009e-04 4.821883921977132559e-04 3.382988215889781713e-04 -4.686327592935413122e-04
5.099000000000000000e+03 3.970756530761718750e+01 2.307757139205932617e+00 -7.381509640254080296e-04 -1.059046015143394470e-03 -5.391591112129390240e-04 3.189250710420310497e-04
5.100000000000000000e+03 3.532656478881835938e+01 1.218266010284423828e+00 -1.014197943732142448e-03 1.779530284693464637e-04 -2.508734760340303183e-04 -1.277909268537769094e-05
5.101000000000000000e+03 3.516021347045898438e+01 1.843163371086120605e+00 -5.868413718417286873e-04 -1.170682589872740209e-04 -2.111728972522541881e-04 -1.960132649401202798e-04
5.102000000000000000e+03 3.509786987304687500e+01 1.261741042137145996e+00 2.853577898349612951e-04 1.551375316921621561e-04 1.321486051892861724e-04 4.791282699443399906e-04
5.103000000000000000e+03 3.551464080810546875e+01 1.057103157043457031e+00 4.337321734055876732e-04 3.166601818520575762e-04 2.251177065772935748e-04 -5.062533309683203697e-04
5.104000000000000000e+03 3.518862915039062500e+01 9.300561547279357910e-01 -3.097739681834354997e-05 -1.232061767950654030e-04 -4.625507062883116305e-05 2.418356452835723758e-04
5.105000000000000000e+03 3.561892700195312500e+01 7.942531704902648926e-01 3.923996700905263424e-04 2.121168654412031174e-04 1.813549606595188379e-04 -7.252010254887863994e-05
5.106000000000000000e+03 3.683752059936523438e+01 1.132660150527954102e+00 6.770164327463135123e-05 -1.223638682859018445e-04 -1.639866786717902869e-05 1.546354615129530430e-04
5.107000000000000000e+03 3.744252777099609375e+01 2.003676176071166992e+00 5.784740642411634326e-05 -1.757520367391407490e-04 -3.537138763931579888e-05 1.682641159277409315e-04
5.108000000000000000e+03 3.758993148803710938e+01 1.278456091880798340e+00 3.027481034223455936e-05 2.907380403485149145e-04 9.630385466152802110e-05 -8.774093294050544500e-05
5.109000000000000000e+03 3.510199737548828125e+01 1.635613560676574707e+00 2.573491947259753942e-04 -1.294769172091037035e-04 3.836168616544455290e-05 -4.719641219708137214e-05
5.110000000000000000e+03 3.585155868530273438e+01 1.316713333129882812e+00 -1.098085078410804272e-03 -1.844082871684804559e-04 -3.847480111289769411e-04 4.506183540797792375e-05
5.111000000000000000e+03 3.670141983032226562e+01 1.860043287277221680e+00 -1.779193407855927944e-04 4.105027983314357698e-05 -4.106071719434112310e-05 -2.578162238933146000e-04
5.112000000000000000e+03 3.535565185546875000e+01 5.763555169105529785e-01 -3.333813510835170746e-04 -2.248119562864303589e-05 -1.067587654688395560e-04 6.603959627682343125e-05
5.113000000000000000e+03 3.511064147949218750e+01 1.445441007614135742e+00 -2.665081701707094908e-04 -2.893601777032017708e-04 -1.667605101829394698e-04 -9.623622463550418615e-05
5.114000000000000000e+03 3.613363647460937500e+01 9.247913360595703125e-01 1.553043985040858388e-04 -5.645673081744462252e-05 2.965429848700296134e-05 -6.421352009056136012e-05
5.115000000000000000e+03 3.546948623657226562e+01 1.730145692825317383e+00 2.835120903910137713e-05 1.928961719386279583e-04 6.637421029154211283e-05 -1.110885477828560397e-05
5.116000000000000000e+03 3.545494842529296875e+01 1.439249277114868164e+00 4.870168922934681177e-04 4.926767433062195778e-04 2.939080877695232630e-04 3.637592599261552095e-04
5.117000000000000000e+03 3.598669815063476562e+01 1.795895457267761230e+00 6.651831790804862976e-04 -9.099613816943019629e-05 1.722561137285083532e-04 1.206325032399035990e-04
5.118000000000000000e+03 3.523711776733398438e+01 7.485983967781066895e-01 1.290872169192880392e-04 -2.173509856220334768e-04 -2.647913242981303483e-05 7.193961937446147203e-05
5.119000000000000000e+03 3.512268447875976562e+01 1.098272919654846191e+00 1.844185899244621396e-04 -2.959807352453935891e-05 4.644615546567365527e-05 -5.865466082468628883e-04
5.120000000000000000e+03 7.138031005859375000e+01 -1.674990081787109375e+01 1.721631269901990891e-04 1.033943681250093505e-05 5.475076977745629847e-05 4.194294888293370605e-05
5.121000000000000000e+03 7.211955261230468750e+01 -1.671120262145996094e+01 2.441366959828883410e-04 -2.412281901342794299e-05 6.600416236324235797e-05 2.890449650294613093e-05
5.122000000000000000e+03 7.071197509765625000e+01 -1.752739334106445312e+01 9.033371316036209464e-05 -1.519463785371044651e-05 2.254172250104602426e-05 1.132808174588717520e-04
5.123000000000000000e+03 7.287363433837890625e+01 -1.741421890258789062e+01 2.496198285371065140e-04 -2.876015059882774949e-05 6.625790410907939076e-05 3.937017754651606083e-05
5.124000000000000000e+03 7.215311431884765625e+01 -1.745045852661132812e+01 1.412406127201393247e-04 -2.016789767367299646e-05 3.632181324064731598e-05 5.702102498617023230e-05
5.125000000000000000e+03 7.143251037597656250e+01 -1.748818206787109375e+01 1.972754107555374503e-04 -1.040286861098138615e-05 5.606176637229509652e-05 6.647381815128028393e-05
5.126000000000000000e+03 7.285870361328125000e+01 -1.667398834228515625e+01 2.388067077845335007e-04 1.311821688432246447e-05 7.557747449027374387e-05 1.138350398832699284e-05
5.127000000000000000e+03 7.064115142822265625e+01 -1.679008674621582031e+01 1.312332897214218974e-04 3.613296939874999225e-06 4.045397508889436722e-05 3.512743205646984279e-05
5.128000000000000000e+03 7.509190368652343750e+01 -1.672233772277832031e+01 2.573679958004504442e-04 1.989362135645933449e-05 8.317848551087081432e-05 -1.197531128127593547e-05
5.129000000000000000e+03 7.507875823974609375e+01 -1.746236038208007812e+01 1.596098300069570541e-04 -4.187212834949605167e-05 3.532131086103618145e-05 -7.798614387866109610e-05
5.130000000000000000e+03 7.583750152587890625e+01 -1.675157546997070312e+01 2.015378267969936132e-04 -3.975241997977718711e-05 4.853562131756916642e-05 -3.863549864036031067e-05
5.131000000000000000e+03 7.360292816162109375e+01 -1.740974807739257812e+01 1.709253992885351181e-04 -3.171151911374181509e-05 4.176416405243799090e-05 -1.636949491512496024e-05
5.132000000000000000e+03 7.434651947021484375e+01 -1.669533538818359375e+01 2.554357924964278936e-04 -8.164297469193115830e-06 7.418145105475559831e-05 -2.594028592284303159e-05
5.133000000000000000e+03 7.581685638427734375e+01 -1.749131965637207031e+01 1.779076701495796442e-04 2.423743535473477095e-05 6.064353146939538419e-05 -4.625467772711999714e-05
5.134000000000000000e+03 7.434088134765625000e+01 -1.743563652038574219e+01 2.399460063315927982e-04 -1.166496986115816981e-05 6.848431075923144817e-05 7.899654519860632718e-06
5.135000000000000000e+03 7.360105895996093750e+01 -1.666916847229003906e+01 2.759541966952383518e-04 -2.040430081251543015e-05 7.666496821912005544e-05 6.862678674224298447e-06
5.136000000000000000e+03 7.968632507324218750e+01 -1.742419242858886719e+01 5.281383710098452866e-05 4.716921466751955450e-05 2.999491516675334424e-05 8.534903827239759266e-06
5.137000000000000000e+03 7.850669860839843750e+01 -1.755505180358886719e+01 5.849720400874502957e-05 4.264069139026105404e-05 3.034136898349970579e-05 -5.917782254982739687e-05
5.138000000000000000e+03 7.652082824707031250e+01 -1.751028823852539062e+01 1.092771708499640226e-04 -3.867656050715595484e-05 2.118018164765089750e-05 -8.136111136991530657e-05
5.139000000000000000e+03 7.873721313476562500e+01 -1.681438636779785156e+01 1.158577561000129208e-05 -4.410632300277939066e-06 2.152542947442270815e-06 -8.005750714801251888e-06
5.140000000000000000e+03 7.785486602783203125e+01 -1.753419113159179688e+01 3.799630940193310380e-05 -4.664667812903644517e-06 9.999492249335162342e-06 -5.684413918061181903e-05
5.141000000000000000e+03 7.802648925781250000e+01 -1.679383087158203125e+01 6.103323175921104848e-05 3.170650961692444980e-05 2.782192314043641090e-05 -2.360268626944161952e-05
5.142000000000000000e+03 7.718931579589843750e+01 -1.751985740661621094e+01 1.210792106576263905e-04 3.559916513040661812e-05 4.700351564679294825e-05 -8.368588169105350971e-05
5.143000000000000000e+03 7.657466888427734375e+01 -1.677053260803222656e+01 1.674986269790679216e-04 4.786755744135007262e-05 6.460985605372115970e-05 -2.642097206262405962e-05
5.144000000000000000e+03 7.909966278076171875e+01 -1.758989524841308594e+01 2.768018930510152131e-05 -1.270544726139632985e-05 4.492422704061027616e-06 -1.235618583450559527e-05
5.145000000000000000e+03 7.938906860351562500e+01 -1.684892654418945312e+01 -3.089173333137296140e-05 -2.003187364607583731e-05 -1.527708263893146068e-05 -3.945099888369441032e-05
5.146000000000000000e+03 7.730204772949218750e+01 -1.677979850769042969e+01 9.264219988835975528e-05 -3.902575190295465291e-05 1.608493403182365000e-05 -3.075003041885793209e-05
5.147000000000000000e+03 7.943219757080078125e+01 -1.525699043273925781e+01 -2.425525337457656860e-03 4.898509359918534756e-04 -5.807023262605071068e-04 3.753953846171498299e-03
5.148000000000000000e+03 7.838642120361328125e+01 -1.516350746154785156e+01 -1.154836616478860378e-03 -7.777716964483261108e-03 -2.679766155779361725e-03 -3.817867400357499719e-05
5.149000000000000000e+03 7.780564117431640625e+01 -1.512424659729003906e+01 -1.395661011338233948e-02 -2.204448729753494263e-02 -1.080032903701066971e-02 -1.212281920015811920e-02
5.150000000000000000e+03 7.662574768066406250e+01 -1.525570678710937500e+01 -3.848646953701972961e-02 -1.724830456078052521e-02 -1.672043278813362122e-02 -2.317118644714355469e-02
5.151000000000000000e+03 7.725820159912109375e+01 -1.518011665344238281e+01 -2.127563767135143280e-02 5.436026258394122124e-04 -6.219610571861267090e-03 -1.669828221201896667e-02
5.152000000000000000e+03 7.888636779785156250e+01 -1.611222648620605469e+01 6.350703071802854538e-03 -5.949889775365591049e-03 1.202439452754333615e-04 2.764658303931355476e-03
5.153000000000000000e+03 7.888313293457031250e+01 -1.558502388000488281e+01 5.595878697931766510e-03 3.334171604365110397e-03 2.679015044122934341e-03 5.090702325105667114e-03
5.154000000000000000e+03 7.663484954833984375e+01 -1.599727630615234375e+01 -2.645683707669377327e-04 5.602673161774873734e-03 1.601431402377784252e-03 -6.621616892516613007e-03
5.155000000000000000e+03 7.962244415283203125e+01 -1.590537452697753906e+01 1.484948443248867989e-03 5.432118196040391922e-03 2.075120108202099800e-03 2.688606502488255501e-03
5.156000000000000000e+03 7.827157592773437500e+01 -1.562149429321289062e+01 -1.924390438944101334e-03 -5.410884507000446320e-03 -2.200582530349493027e-03 4.241799004375934601e-03
5.157000000000000000e+03 7.741748809814453125e+01 -1.606798362731933594e+01 1.055167801678180695e-02 -8.578976616263389587e-03 5.918103852309286594e-04 -4.881917964667081833e-03
5.158000000000000000e+03 7.816462707519531250e+01 -1.613920974731445312e+01 1.525234803557395935e-02 5.002615507692098618e-03 6.076489109545946121e-03 2.661574864760041237e-03
5.159000000000000000e+03 7.763186645507812500e+01 -1.553283691406250000e+01 -1.042872015386819839e-02 -7.452478632330894470e-03 -5.364359822124242783e-03 -6.528676487505435944e-03
5.160000000000000000e+03 7.896445465087890625e+01 -1.517584800720214844e+01 -6.249845027923583984e-03 4.533045925199985504e-03 -5.150396609678864479e-04 7.150885183364152908e-03
5.161000000000000000e+03 7.435244750976562500e+01 -1.591604232788085938e+01 -7.656088471412658691e-02 -1.194360293447971344e-02 -2.655134722590446472e-02 -1.361007057130336761e-02
5.162000000000000000e+03 7.588006591796875000e+01 -1.523305606842041016e+01 -5.776116251945495605e-02 3.932440187782049179e-03 -1.614861749112606049e-02 -3.119129128754138947e-02
5.163000000000000000e+03 7.359722137451171875e+01 -1.514822292327880859e+01 -1.477817147970199585e-01 -3.838607575744390488e-03 -4.548609629273414612e-02 -4.243411868810653687e-02
5.164000000000000000e+03 7.510590362548828125e+01 -1.594404602050781250e+01 -4.583167657256126404e-02 1.079009938985109329e-02 -1.051247399300336838e-02 -1.192466169595718384e-02
5.165000000000000000e+03 7.359909057617187500e+01 -1.588880252838134766e+01 -1.098818108439445496e-01 1.283905189484357834e-02 -2.911282703280448914e-02 -1.423369161784648895e-02
5.166000000000000000e+03 7.435808563232421875e+01 -1.517574119567871094e+01 -1.162811815738677979e-01 7.020927965641021729e-03 -3.277807682752609253e-02 -4.450969398021697998e-02
5.167000000000000000e+03 7.585942077636718750e+01 -1.597279930114746094e+01 -2.054508961737155914e-02 -1.010813564062118530e-02 -9.195967577397823334e-03 -1.173831894993782043e-02
5.168000000000000000e+03 7.511904144287109375e+01 -1.520402336120605469e+01 -8.567875623703002930e-02 -1.131076924502849579e-02 -2.909685671329498291e-02 -4.000201448798179626e-02
5.169000000000000000e+03 7.132652282714843750e+01 -1.597409629821777344e+01 -1.319764554500579834e-01 -1.172507554292678833e-02 -4.311046004295349121e-02 6.264100084081292152e-04
5.170000000000000000e+03 7.056670379638671875e+01 -1.601350212097167969e+01 -1.050027757883071899e-01 2.798478491604328156e-02 -2.310539782047271729e-02 1.214806362986564636e-02
5.171000000000000000e+03 7.208541107177734375e+01 -1.593443489074707031e+01 -1.381898075342178345e-01 1.742091402411460876e-02 -3.623066842555999756e-02 -7.930799387395381927e-03
5.172000000000000000e+03 7.284317016601562500e+01 -1.589438438415527344e+01 -1.340931057929992676e-01 -1.230384875088930130e-02 -4.391908645629882812e-02 -1.254324521869421005e-02
5.173000000000000000e+03 7.282823944091796875e+01 -1.515415287017822266e+01 -1.712944507598876953e-01 1.508868485689163208e-02 -4.686173051595687866e-02 -3.353718295693397522e-02
5.174000000000000000e+03 7.049587249755859375e+01 -1.527619743347167969e+01 -2.031064033508300781e-01 3.223377466201782227e-02 -5.126178637146949768e-02 3.101550973951816559e-02
5.175000000000000000e+03 7.127433013916015625e+01 -1.523581504821777344e+01 -2.014990597963333130e-01 2.567029371857643127e-02 -5.274863168597221375e-02 3.036692738533020020e-03
5.176000000000000000e+03 7.205184173583984375e+01 -1.519517898559570312e+01 -1.962326616048812866e-01 7.938854396343231201e-03 -5.648814514279365540e-02 -1.739301718771457672e-02
5.177000000000000000e+03 6.817024993896484375e+01 -1.550610160827636719e+01 -9.908825904130935669e-02 -6.856245547533035278e-02 -5.029521510004997253e-02 1.011775210499763489e-01
5.178000000000000000e+03 6.846852111816406250e+01 -1.537384891510009766e+01 -1.226167678833007812e-01 -4.471977800130844116e-02 -5.020096525549888611e-02 8.072938770055770874e-02
5.179000000000000000e+03 6.969725036621093750e+01 -1.535203933715820312e+01 -1.951994597911834717e-01 -2.063243417069315910e-03 -5.917881056666374207e-02 3.822889924049377441e-02
5.180000000000000000e+03 6.900823211669921875e+01 -1.536187553405761719e+01 -7.141142338514328003e-02 -1.692418474704027176e-03 -2.193115092813968658e-02 7.834216207265853882e-02
5.181000000000000000e+03 6.970433807373046875e+01 -1.610097312927246094e+01 -4.650355875492095947e-02 -1.104721147567033768e-02 -1.726523041725158691e-02 2.486835420131683350e-02
5.182000000000000000e+03 6.807101440429687500e+01 -1.580119132995605469e+01 7.764509320259094238e-02 6.660716980695724487e-02 4.327568039298057556e-02 -2.245661057531833649e-02
5.183000000000000000e+03 6.868652343750000000e+01 -1.567752170562744141e+01 -3.422426432371139526e-02 -2.584596909582614899e-02 -1.802107132971286774e-02 1.041999533772468567e-01
5.184000000000000000e+03 6.877530670166015625e+01 -1.623340034484863281e+01 -1.817905902862548828e-02 -2.181377634406089783e-02 -1.199785061180591583e-02 -1.704453304409980774e-02
5.185000000000000000e+03 6.846734619140625000e+01 -1.765766716003417969e+01 1.301693646382773295e-05 1.722130764392204583e-05 9.071473868971224874e-06 1.354903361061587930e-05
5.186000000000000000e+03 6.902794647216796875e+01 -1.774423980712890625e+01 6.401060545613290742e-06 4.930929935653693974e-05 1.671310747042298317e-05 3.528307934175245464e-05
5.187000000000000000e+03 6.989218139648437500e+01 -1.761616897583007812e+01 9.252376185031607747e-05 4.671304122894071043e-05 4.177103983238339424e-05 8.727104432182386518e-05
5.188000000000000000e+03 6.980416870117187500e+01 -1.688065528869628906e+01 4.220865230308845639e-05 1.547059696349606384e-06 1.312671338382642716e-05 3.695263148983940482e-05
5.189000000000000000e+03 6.892420196533203125e+01 -1.701133537292480469e+01 1.462446471123257652e-05 2.315407618880271912e-05 1.133356181526323780e-05 1.084094492398435250e-05
5.190000000000000000e+03 1.639982223510742188e+01 -2.317397296428680420e-01 -2.403832525014877319e-01 -1.144662220031023026e-02 -7.554896175861358643e-02 -6.301891803741455078e-02
5.191000000000000000e+03 1.798723983764648438e+01 -8.314419388771057129e-01 -3.987486362457275391e-01 -4.409004002809524536e-02 -1.328516006469726562e-01 -1.812373846769332886e-01
5.192000000000000000e+03 1.645354080200195312e+01 -9.699125885963439941e-01 -2.430379688739776611e-01 -3.572525456547737122e-02 -8.362896740436553955e-02 -1.419427841901779175e-01
5.193000000000000000e+03 1.875374794006347656e+01 -7.599936723709106445e-01 -4.697169363498687744e-01 -4.925937950611114502e-02 -1.556928902864456177e-01 -1.938402652740478516e-01
5.194000000000000000e+03 1.790756225585937500e+01 -9.563824534416198730e-02 -4.260323643684387207e-01 -1.305811107158660889e-02 -1.317271441221237183e-01 -9.056551009416580200e-02
5.195000000000000000e+03 1.866109085083007812e+01 -2.537456899881362915e-02 -5.389454960823059082e-01 -2.847799658775329590e-02 -1.702270358800888062e-01 -1.120411455631256104e-01
5.196000000000000000e+03 1.715376663208007812e+01 -1.644264459609985352e-01 -3.278103470802307129e-01 -1.550329755991697311e-02 -1.029940992593765259e-01 -7.699352502822875977e-02
5.197000000000000000e+03 1.722046470642089844e+01 -9.014146924018859863e-01 -3.195698559284210205e-01 -3.553824499249458313e-02 -1.065324321389198303e-01 -1.588106900453567505e-01
5.198000000000000000e+03 1.941230964660644531e+01 7.625918835401535034e-02 -6.241993308067321777e-01 -3.025957383215427399e-02 -1.963376551866531372e-01 -1.362146288156509399e-01
5.199000000000000000e+03 2.090952491760253906e+01 3.449267148971557617e-01 -7.069975733757019043e-01 -1.616584137082099915e-02 -2.169490158557891846e-01 -1.380456238985061646e-01
5.200000000000000000e+03 1.952174568176269531e+01 -6.559218764305114746e-01 -5.437182784080505371e-01 -4.716911539435386658e-02 -1.772662252187728882e-01 -1.907099187374114990e-01
5.201000000000000000e+03 2.106011390686035156e+01 -3.798714280128479004e-01 -6.759020686149597168e-01 -2.783376490697264671e-03 -2.036056220531463623e-01 -1.663209944963455200e-01
5.202000000000000000e+03 2.183077621459960938e+01 -2.417316585779190063e-01 -7.108071446418762207e-01 4.334377124905586243e-02 -2.002390027046203613e-01 -1.137953996658325195e-01
5.203000000000000000e+03 2.165959548950195312e+01 4.794237911701202393e-01 -7.152909040451049805e-01 -1.477057021111249924e-02 -2.190184444189071655e-01 -1.222928836941719055e-01
5.204000000000000000e+03 2.016033744812011719e+01 2.105962187051773071e-01 -6.706758737564086914e-01 -2.685788832604885101e-02 -2.092601209878921509e-01 -1.437069326639175415e-01
5.205000000000000000e+03 2.029035186767578125e+01 -5.178933739662170410e-01 -6.204378008842468262e-01 -2.402343787252902985e-02 -1.933383643627166748e-01 -1.844430118799209595e-01
5.206000000000000000e+03 2.655191993713378906e+01 1.211927890777587891e+00 2.281438410282135010e-01 8.842932432889938354e-02 9.497194737195968628e-02 -1.496305912733078003e-01
5.207000000000000000e+03 2.642835426330566406e+01 1.133576512336730957e+00 1.231181994080543518e-01 7.062396407127380371e-02 5.812264978885650635e-02 -1.202428862452507019e-01
5.208000000000000000e+03 2.606766891479492188e+01 1.098246335983276367e+00 9.078477323055267334e-02 2.667346969246864319e-02 3.523747250437736511e-02 -8.267574012279510498e-02
5.209000000000000000e+03 2.582571220397949219e+01 1.493316173553466797e+00 2.278143614530563354e-01 3.352065756916999817e-02 7.840050756931304932e-02 -1.038681864738464355e-01
5.210000000000000000e+03 2.501582145690917969e+01 5.861303806304931641e-01 -3.971552848815917969e-01 -1.774995476007461548e-01 -1.723964512348175049e-01 2.353061735630035400e-01
5.211000000000000000e+03 2.419348907470703125e+01 1.309267878532409668e+00 -4.550790041685104370e-02 3.491711989045143127e-02 -3.177233738824725151e-03 8.954936265945434570e-02
5.212000000000000000e+03 2.509922599792480469e+01 7.193784713745117188e-01 -3.715058267116546631e-01 -1.268270015716552734e-01 -1.494998484849929810e-01 1.762302517890930176e-01
5.213000000000000000e+03 2.335133743286132812e+01 9.742200970649719238e-01 -3.013102114200592041e-01 4.873272404074668884e-02 -7.577324658632278442e-02 3.149525448679924011e-02
5.214000000000000000e+03 2.246587944030761719e+01 6.890802979469299316e-01 -5.752797126770019531e-01 2.803098969161510468e-02 -1.641746163368225098e-01 -6.648556143045425415e-02
5.215000000000000000e+03 2.265129470825195312e+01 -3.019443526864051819e-02 -7.610840797424316406e-01 1.313939988613128662e-01 -1.889070272445678711e-01 -3.075484186410903931e-02
5.216000000000000000e+03 2.354462623596191406e+01 2.551128566265106201e-01 -7.288789749145507812e-01 1.475926041603088379e-01 -1.743859052658081055e-01 8.488049358129501343e-02
5.217000000000000000e+03 2.584380340576171875e+01 1.124831318855285645e+00 6.262695044279098511e-02 -4.582729563117027283e-02 5.039896816015243530e-03 -2.881724201142787933e-02
5.218000000000000000e+03 2.487414550781250000e+01 4.951079189777374268e-01 -4.685253202915191650e-01 -1.403928548097610474e-01 -1.826754510402679443e-01 2.556964159011840820e-01
5.219000000000000000e+03 2.494935035705566406e+01 1.589968442916870117e+00 1.375715136528015137e-01 -3.701749816536903381e-02 3.016620315611362457e-02 4.066250473260879517e-02
5.220000000000000000e+03 2.549102401733398438e+01 1.621851563453674316e+00 1.575454473495483398e-01 -2.421579696238040924e-02 3.999889269471168518e-02 -4.469148814678192139e-02
5.221000000000000000e+03 2.559309387207031250e+01 1.118039727210998535e+00 5.187741667032241821e-02 -8.692165464162826538e-02 -1.051327120512723923e-02 1.471836119890213013e-02
5.222000000000000000e+03 2.540032577514648438e+01 1.009757041931152344e+00 -2.110684104263782501e-02 -1.182497665286064148e-01 -4.180698096752166748e-02 3.973288461565971375e-02
5.223000000000000000e+03 2.625621414184570312e+01 1.101973772048950195e+00 1.197857484221458435e-01 4.313206300139427185e-02 4.887534305453300476e-02 -1.126257330179214478e-01
5.224000000000000000e+03 2.504071807861328125e+01 1.115116357803344727e+00 -3.210975602269172668e-02 -1.072694361209869385e-01 -4.181375727057456970e-02 5.900604650378227234e-02
5.225000000000000000e+03 2.523330116271972656e+01 8.552555441856384277e-01 -2.103702574968338013e-01 -1.342276185750961304e-01 -1.033793613314628601e-01 8.735750615596771240e-02
5.226000000000000000e+03 2.457161521911621094e+01 8.719542026519775391e-01 -3.132745027542114258e-01 -7.646638900041580200e-03 -9.627634286880493164e-02 1.170348152518272400e-01
5.227000000000000000e+03 2.627415084838867188e+01 1.360334515571594238e+00 2.902259230613708496e-01 7.741653174161911011e-02 1.102927327156066895e-01 -1.538574993610382080e-01
5.228000000000000000e+03 2.609403038024902344e+01 1.311385989189147949e+00 2.243176996707916260e-01 5.561197921633720398e-02 8.397890627384185791e-02 -1.220134198665618896e-01
5.229000000000000000e+03 2.439571952819824219e+01 4.309497177600860596e-01 -5.790355801582336426e-01 5.200545489788055420e-02 -1.581090390682220459e-01 1.608026474714279175e-01
5.230000000000000000e+03 2.488675880432128906e+01 6.897756457328796387e-01 -4.141777455806732178e-01 -1.335670202970504761e-01 -1.643234193325042725e-01 2.202216088771820068e-01
5.231000000000000000e+03 2.337566375732421875e+01 2.629750251770019531e+00 -6.178299827297450975e-06 -1.154940855485619977e-05 -5.318312560120830312e-06 2.981676061608595774e-07
5.232000000000000000e+03 2.201377296447753906e+01 2.125266075134277344e+00 -2.050449438684154302e-06 -1.502358281868509948e-05 -5.122209586261305958e-06 3.622767280830885284e-06
5.233000000000000000e+03 2.225197982788085938e+01 1.423350930213928223e+00 1.200195214323684922e-07 1.248232456418918446e-05 3.780703309530508704e-06 -2.580354021120001562e-06
5.234000000000000000e+03 2.309097290039062500e+01 1.672813296318054199e+00 -1.176058049168204889e-06 -8.744523256609681994e-06 -2.976174528157571331e-06 1.237525907527015079e-06
5.235000000000000000e+03 2.428779029846191406e+01 2.625434398651123047e+00 -9.108814992941915989e-06 1.305111027249949984e-06 -2.341111212444957346e-06 1.236689854522410315e-06
5.236000000000000000e+03 2.478089141845703125e+01 2.056442260742187500e+00 -2.324773504369659349e-06 -2.777533609332749620e-06 -1.530692088635987602e-06 -1.706855641714355443e-06
5.237000000000000000e+03 2.395736885070800781e+01 2.308834791183471680e+00 1.001458440441638231e-05 3.249428573326440528e-06 3.979203938797581941e-06 -1.662636037735865102e-07
5.238000000000000000e+03 2.392651367187500000e+01 2.926619052886962891e+00 -1.298234906244033482e-06 1.856519702414516360e-06 1.674854388511448633e-07 -2.516268523322651163e-06
5.239000000000000000e+03 2.456351280212402344e+01 2.352871417999267578e+00 8.548419828002806753e-06 5.868646013595935074e-08 2.582131855888292193e-06 4.258477929397486150e-06
5.240000000000000000e+03 2.273927497863769531e+01 2.339991807937622070e+00 2.732800794547074474e-06 1.258564861927879974e-05 4.595534846885129809e-06 -3.427529691180097871e-06
5.241000000000000000e+03 2.395885276794433594e+01 1.871361255645751953e+00 -2.176330553993466310e-06 5.552799848373979330e-06 1.012940742839418817e-06 -3.997269857336505083e-07
5.242000000000000000e+03 2.075237083435058594e+01 1.106616377830505371e+00 6.642769108111679088e-07 1.733468343445565552e-05 5.399688234319910407e-06 -4.532719231065129861e-06
5.243000000000000000e+03 2.060178184509277344e+01 1.831414580345153809e+00 -3.280513283243635669e-06 -1.598670314706396312e-05 -5.780164883617544547e-06 2.872171307899407111e-06
5.244000000000000000e+03 2.130817413330078125e+01 1.960395336151123047e+00 1.291431203753745649e-06 1.398405674990499392e-05 4.582646397466305643e-06 -4.186586465948494151e-06
5.245000000000000000e+03 1.918785858154296875e+01 1.579434752464294434e+00 -5.039119059802033007e-06 -1.806085492717102170e-05 -6.929992196091916412e-06 1.613831841495994013e-06
5.246000000000000000e+03 1.989505195617675781e+01 1.704050064086914062e+00 2.718392806855263188e-06 1.630819133424665779e-05 5.707975105906371027e-06 -4.761378022521967068e-06
5.247000000000000000e+03 1.929729461669921875e+01 8.472537398338317871e-01 -9.120174127019708976e-07 1.899219751066993922e-05 5.424054052127758041e-06 -3.665495114546502009e-06
5.248000000000000000e+03 2.147934150695800781e+01 1.239288687705993652e+00 -1.591877094142546412e-06 -1.690491080807987601e-05 -5.549036814045393839e-06 3.624989176387316547e-06
5.249000000000000000e+03 2.002506446838378906e+01 9.755603671073913574e-01 -3.325905026940745302e-06 -1.832312591432128102e-05 -6.494709396065445617e-06 2.833468897733837366e-06
5.250000000000000000e+03 1.701650238037109375e+01 1.350294589996337891e+00 2.199901928179315291e-06 2.172920540033373982e-05 7.178732175816548988e-06 -1.828784206736600026e-06
5.251000000000000000e+03 1.708320045471191406e+01 6.133062839508056641e-01 -5.350606443244032562e-06 -2.242223308712709695e-05 -8.331851859111338854e-06 1.901279460980731528e-06
5.252000000000000000e+03 1.634315681457519531e+01 5.465459823608398438e-01 -2.169912932004081085e-06 2.413209404039662331e-05 6.588654287043027580e-06 -1.626561925149871968e-06
5.253000000000000000e+03 1.782329559326171875e+01 6.808430552482604980e-01 -2.706628492887830362e-06 2.149246029148343951e-05 5.635749857901828364e-06 -3.010513410117710009e-06
5.254000000000000000e+03 1.847070503234863281e+01 1.483781576156616211e+00 1.334121748186589684e-06 1.884098492155317217e-05 6.052531716704834253e-06 -3.551980853444547392e-06
5.255000000000000000e+03 1.856336212158203125e+01 7.491624951362609863e-01 -4.400842044560704380e-06 -2.026792390097398311e-05 -7.400629783660406247e-06 1.844448320298397448e-06
5.256000000000000000e+03 1.628943824768066406e+01 1.284718871116638184e+00 -4.243561761541059241e-06 -2.079533624055329710e-05 -7.511669537052512169e-06 3.233199549868004397e-06
5.257000000000000000e+03 1.774361801147460938e+01 1.416646718978881836e+00 -4.503780019149417058e-06 -1.907438672787975520e-05 -7.073450433381367475e-06 1.941092705237679183e-06
5.258000000000000000e+03 1.408120155334472656e+01 1.187072157859802246e+00 9.924340702127665281e-06 2.536580723244696856e-05 1.058704401657450944e-05 2.791812448776909150e-06
5.259000000000000000e+03 1.410851097106933594e+01 4.475762248039245605e-01 1.300614258070709184e-06 -2.638438127178233117e-05 -7.525130058638751507e-06 3.522084853102569468e-06
5.260000000000000000e+03 1.336430931091308594e+01 4.183164834976196289e-01 7.998030014277901500e-06 2.734297413553576916e-05 1.060230079019675031e-05 8.341074249074154068e-07
5.261000000000000000e+03 1.485382461547851562e+01 4.748390913009643555e-01 8.699272484591347165e-07 2.636212229845114052e-05 8.169614375219680369e-06 -4.979027607987518422e-07
5.262000000000000000e+03 1.555697250366210938e+01 1.239178419113159180e+00 3.978016593464417383e-06 2.386344021942932159e-05 8.352437362191267312e-06 5.597462404693942517e-07
5.263000000000000000e+03 1.560021686553955078e+01 5.002670884132385254e-01 -3.427461706451140344e-06 -2.477848647686187178e-05 -8.461784091196022928e-06 2.317649659744347446e-06
5.264000000000000000e+03 1.334496879577636719e+01 1.158104777336120605e+00 4.862572495767381042e-06 -2.386061714787501842e-05 -5.699413577531231567e-06 8.663869266456458718e-06
5.265000000000000000e+03 1.481854820251464844e+01 1.214042663574218750e+00 -7.538342572388501139e-08 -2.176001726184040308e-05 -6.550620128109585494e-06 6.229000064195133746e-06
5.266000000000000000e+03 1.111325168609619141e+01 1.138490676879882812e+00 2.687856795091647655e-05 2.516449058020953089e-05 1.561291719553992152e-05 3.560263621693593450e-06
5.267000000000000000e+03 1.186833381652832031e+01 4.020517766475677490e-01 1.716076440061442554e-05 2.756142021098639816e-05 1.341665483778342605e-05 1.046220063471992034e-06
5.268000000000000000e+03 1.037295722961425781e+01 3.924405574798583984e-01 2.650374335644301027e-05 2.776483597699552774e-05 1.628057361813262105e-05 1.035889681588741951e-06
5.269000000000000000e+03 1.260390949249267578e+01 1.143149375915527344e+00 1.726213122310582548e-05 2.541823414503596723e-05 1.280410924664465711e-05 4.144514150539180264e-06
5.270000000000000000e+03 1.261756992340087891e+01 4.032067656517028809e-01 9.468667485634796321e-06 -2.734933696046937257e-05 -5.364201115298783407e-06 3.725842589119565673e-06
5.271000000000000000e+03 1.036947441101074219e+01 1.132432341575622559e+00 1.946815609699115157e-05 -2.649233829288277775e-05 -2.107254431393812411e-06 8.577601875003892928e-06
5.272000000000000000e+03 1.185806560516357422e+01 1.142010807991027832e+00 1.301223983318777755e-05 -2.545445386203937232e-05 -3.732664254130213521e-06 9.944043085852172226e-06
5.273000000000000000e+03 1.112012767791748047e+01 3.985152244567871094e-01 1.854690890468191355e-05 -2.782904994091950357e-05 -2.784642447295482270e-06 3.674560502986423671e-06
5.274000000000000000e+03 8.771651268005371094e+00 3.881228864192962646e-01 3.256935451645404100e-05 2.531622158130630851e-05 1.736567173793446273e-05 5.406980108091374859e-07
5.275000000000000000e+03 8.818146705627441406e+00 1.128122925758361816e+00 2.283887442899867892e-05 -2.447613951517269015e-05 -4.911794917461520527e-07 4.592584900819929317e-06
5.276000000000000000e+03 7.953170776367187500e+00 3.921383917331695557e-01 2.764276905509177595e-05 -2.541502544772811234e-05 6.683233664261933882e-07 -1.151400965682114474e-06
5.277000000000000000e+03 6.319846630096435547e+00 3.892590403556823730e-01 2.061490522464737296e-05 -2.429506821499671787e-05 -1.104048692468495574e-06 -5.251364655123325065e-06
5.278000000000000000e+03 5.502897262573242188e+00 3.910058438777923584e-01 2.324422894162125885e-05 2.393435170233715326e-05 1.415357473888434470e-05 1.770776179910171777e-06
5.279000000000000000e+03 4.685476779937744141e+00 3.909447193145751953e-01 8.103736945486161858e-06 -2.465425677655730397e-05 -4.965156222169753164e-06 -8.361415893887169659e-06
5.280000000000000000e+03 3.050973415374755859e+00 3.907458484172821045e-01 2.716212065934087150e-06 -1.929671816469635814e-05 -4.974151579517638311e-06 -2.869448053388623521e-06
5.281000000000000000e+03 2.234469175338745117e+00 3.876248300075531006e-01 -1.065747437678510323e-05 5.857845735590672120e-06 -1.439888706045167055e-06 -1.210302343679359183e-05
5.282000000000000000e+03 2.538473606109619141e+00 1.127624869346618652e+00 2.279697218909859657e-05 -1.273781253985362127e-05 3.017748213096638210e-06 1.352584877167828381e-05
5.283000000000000000e+03 1.768125653266906738e+00 1.127171397209167480e+00 -1.403211263095727190e-05 1.655305277381557971e-05 7.562821906503813807e-07 -3.266407293267548084e-05
5.284000000000000000e+03 1.067988038063049316e+00 1.148616075515747070e+00 3.704320624819956720e-05 -3.275387280154973269e-05 1.286799374611291569e-06 2.464768476784229279e-05
5.285000000000000000e+03 6.996063590049743652e-01 4.086160361766815186e-01 -7.135380292311310768e-05 -5.339768540579825640e-05 -3.742544504348188639e-05 -6.121744809206575155e-05
5.286000000000000000e+03 3.732481598854064941e-01 9.636608362197875977e-01 6.932322139618918300e-05 4.239175905240699649e-05 3.351449413457885385e-05 3.367046519997529685e-05
5.287000000000000000e+03 3.322789192199707031e+00 1.130745887756347656e+00 2.903657332353759557e-06 1.164120567409554496e-05 4.363459083833731711e-06 -1.610345134395174682e-05
5.288000000000000000e+03 3.868146419525146484e+00 3.889868557453155518e-01 1.104293460230110213e-05 2.441640936012845486e-05 1.063780382537515834e-05 2.806652901199413463e-06
5.289000000000000000e+03 5.678146839141845703e+00 1.131005883216857910e+00 1.401763438479974866e-05 -1.785630956874229014e-05 -1.151602646132232621e-06 -6.127511824161047116e-06
5.290000000000000000e+03 7.247090816497802734e+00 1.132560849189758301e+00 2.027837217610795051e-05 -2.238212073280010372e-05 -6.311245215329108760e-07 -1.317102373832312878e-06
5.291000000000000000e+03 7.136218547821044922e+00 3.925608992576599121e-01 3.150244447169825435e-05 2.391657471889629960e-05 1.662570502958260477e-05 5.640470703838218469e-07
5.292000000000000000e+03 8.031854629516601562e+00 1.132138371467590332e+00 3.712930629262700677e-05 1.964984767255373299e-05 1.703374618955422193e-05 -3.455949354247422889e-06
5.293000000000000000e+03 9.590107917785644531e+00 3.879971206188201904e-01 2.593173485365696251e-05 -2.627427056722808629e-05 -1.027611418180640612e-07 1.892926434265973512e-06
5.294000000000000000e+03 9.604414939880371094e+00 1.127997159957885742e+00 3.385177478776313365e-05 2.174664768972434103e-05 1.667952710704412311e-05 8.983759016700787470e-07
5.295000000000000000e+03 6.462907791137695312e+00 1.129258990287780762e+00 3.539326280588284135e-05 1.727168091747444123e-05 1.579948366270400584e-05 -6.565850071638124064e-06
5.296000000000000000e+03 4.892915248870849609e+00 1.130944728851318359e+00 2.698074240470305085e-05 1.387248630635440350e-05 1.225596861331723630e-05 -9.266474080504849553e-06
5.297000000000000000e+03 4.107773303985595703e+00 1.128986835479736328e+00 9.198050975101068616e-06 -1.070362486643716693e-05 -4.516722071912226966e-07 -3.526328100633691065e-06
5.298000000000000000e+03 1.431932568550109863e+00 3.871713578701019287e-01 9.242448868462815881e-06 1.693224839982576668e-05 7.852408998587634414e-06 2.302290886291302741e-05
5.299000000000000000e+03 1.338494110107421875e+01 -3.624081611633300781e-01 3.250971063971519470e-02 -3.399221226572990417e-03 8.733146823942661285e-03 -2.092114277184009552e-02
5.300000000000000000e+03 1.492772197723388672e+01 -1.047161340713500977e+00 -1.162259429693222046e-01 -2.459510043263435364e-02 -4.224631562829017639e-02 -1.006804332137107849e-01
5.301000000000000000e+03 1.340428161621093750e+01 -1.102196455001831055e+00 -2.038899436593055725e-02 -1.656577177345752716e-02 -1.108642946928739548e-02 -6.335411965847015381e-02
5.302000000000000000e+03 1.489244556427001953e+01 -3.079577088356018066e-01 -7.869164645671844482e-02 -5.436488892883062363e-03 -2.523844130337238312e-02 -3.664594143629074097e-02
5.303000000000000000e+03 1.568929195404052734e+01 -1.018365263938903809e+00 -1.754432618618011475e-01 -2.928330935537815094e-02 -6.141797453165054321e-02 -1.216354146599769592e-01
5.304000000000000000e+03 1.564604759216308594e+01 -2.794539332389831543e-01 -1.557142436504364014e-01 -1.009561773389577866e-02 -4.974295943975448608e-02 -4.896803945302963257e-02
5.305000000000000000e+03 1.413872909545898438e+01 -3.356079757213592529e-01 -1.719465851783752441e-02 -5.486425478011369705e-03 -6.804325617849826813e-03 -2.806686609983444214e-02
5.306000000000000000e+03 1.416603755950927734e+01 -1.075103878974914551e+00 -6.338842958211898804e-02 -1.911739446222782135e-02 -2.475174702703952789e-02 -8.010530471801757812e-02
5.307000000000000000e+03 1.037684440612792969e+01 -3.884835243225097656e-01 1.265307813882827759e-01 -1.499684760347008705e-03 3.750932961702346802e-02 -2.904628869146108627e-03
5.308000000000000000e+03 1.189073276519775391e+01 -1.121461629867553711e+00 4.148266837000846863e-02 -1.113412622362375259e-02 9.104561991989612579e-03 -3.317173942923545837e-02
5.309000000000000000e+03 1.038032817840576172e+01 -1.128475308418273926e+00 7.391628623008728027e-02 -7.687504868954420090e-03 1.986863277852535248e-02 -1.189073733985424042e-02
5.310000000000000000e+03 1.264584636688232422e+01 -1.117530822753906250e+00 1.400061696767807007e-02 -1.276840735226869583e-02 3.696628846228122711e-04 -4.692928493022918701e-02
5.311000000000000000e+03 1.188046455383300781e+01 -3.815026283264160156e-01 9.777553379535675049e-02 -2.114351373165845871e-03 2.869835495948791504e-02 -1.043625362217426300e-02
5.312000000000000000e+03 1.263218593597412109e+01 -3.775882422924041748e-01 7.088600099086761475e-02 -2.914003562182188034e-03 2.039160020649433136e-02 -1.544354110956192017e-02
5.313000000000000000e+03 1.112868118286132812e+01 -3.851337432861328125e-01 1.159266158938407898e-01 -1.979219960048794746e-03 3.418422117829322815e-02 -6.435778923332691193e-03
5.314000000000000000e+03 1.113555717468261719e+01 -1.125109195709228516e+00 6.073391437530517578e-02 -8.677325211465358734e-03 1.561697665601968765e-02 -2.126478403806686401e-02
5.315000000000000000e+03 9.624593734741210938e+00 -1.131355285644531250e+00 8.135688304901123047e-02 -5.922762211412191391e-03 2.263023704290390015e-02 -3.269414417445659637e-03
5.316000000000000000e+03 9.636611938476562500e+00 -3.913553059101104736e-01 1.305126696825027466e-01 -1.134215621277689934e-03 3.881353512406349182e-02 -3.638692433014512062e-04
5.317000000000000000e+03 8.908035278320312500e+00 -3.932945430278778076e-01 1.290635019540786743e-01 -1.255440292879939079e-03 3.834241628646850586e-02 1.984076807275414467e-03
5.318000000000000000e+03 8.179648399353027344e+00 -3.947979807853698730e-01 1.236102879047393799e-01 -8.184533799067139626e-04 3.683755174279212952e-02 3.940463531762361526e-03
5.319000000000000000e+03 7.451354026794433594e+00 -3.965992927551269531e-01 1.147399917244911194e-01 -9.000491118058562279e-04 3.415198251605033875e-02 5.626118741929531097e-03
5.320000000000000000e+03 6.723036766052246094e+00 -3.981454968452453613e-01 1.031864061951637268e-01 -3.314255445729941130e-04 3.085649572312831879e-02 6.821255199611186981e-03
5.321000000000000000e+03 5.994731426239013672e+00 -3.993945717811584473e-01 8.974219858646392822e-02 -5.182344466447830200e-04 2.676718868315219879e-02 7.646696642041206360e-03
5.322000000000000000e+03 5.266466140747070312e+00 -4.014726877212524414e-01 7.501607388257980347e-02 2.910805596911814064e-05 2.251355536282062531e-02 8.176126517355442047e-03
5.323000000000000000e+03 4.538172721862792969e+00 -4.045463800430297852e-01 5.966817960143089294e-02 -2.787071280181407928e-04 1.781684160232543945e-02 8.385971188545227051e-03
5.324000000000000000e+03 3.810027122497558594e+00 -4.076895117759704590e-01 4.420718923211097717e-02 5.647111684083938599e-04 1.343157049268484116e-02 8.318166248500347137e-03
5.325000000000000000e+03 3.082192897796630859e+00 -4.105251729488372803e-01 2.945801243185997009e-02 2.492444182280451059e-04 8.912176825106143951e-03 7.520034909248352051e-03
5.326000000000000000e+03 2.355662584304809570e+00 -4.111475944519042969e-01 1.646550931036472321e-02 1.695667742751538754e-03 5.448353011161088943e-03 6.215552333742380142e-03
5.327000000000000000e+03 1.642585277557373047e+00 -4.047921001911163330e-01 6.633976940065622330e-03 1.283956109546124935e-03 2.375379903241991997e-03 3.375625470653176308e-03
5.328000000000000000e+03 6.508445143699645996e-01 -1.120625138282775879e+00 2.058581914752721786e-03 2.718843519687652588e-03 1.433227676898241043e-03 2.709631342440843582e-03
5.329000000000000000e+03 8.868407249450683594e+00 -1.133294582366943359e+00 8.428309112787246704e-02 -5.420119501650333405e-03 2.365889213979244232e-02 3.285305341705679893e-03
5.330000000000000000e+03 8.112410545349121094e+00 -1.134797930717468262e+00 8.323512971401214600e-02 -4.346800968050956726e-03 2.366649731993675232e-02 9.341490454971790314e-03
5.331000000000000000e+03 7.356505870819091797e+00 -1.136599302291870117e+00 7.889492809772491455e-02 -3.352748695760965347e-03 2.266265451908111572e-02 1.375239808112382889e-02
5.332000000000000000e+03 6.600578308105468750e+00 -1.138145565986633301e+00 7.211247086524963379e-02 -2.310400828719139099e-03 2.094062045216560364e-02 1.747791469097137451e-02
5.333000000000000000e+03 5.844663143157958984e+00 -1.139394640922546387e+00 6.336025893688201904e-02 -1.260272576473653316e-03 1.862999610602855682e-02 1.953897625207901001e-02
5.334000000000000000e+03 5.088787555694580078e+00 -1.141472697257995605e+00 5.358546599745750427e-02 -7.362487376667559147e-04 1.585476472973823547e-02 2.103624679148197174e-02
5.335000000000000000e+03 4.332883834838867188e+00 -1.144546389579772949e+00 4.307725280523300171e-02 4.121023521292954683e-04 1.304680574685335159e-02 2.122699469327926636e-02
5.336000000000000000e+03 3.577128171920776367e+00 -1.147689461708068848e+00 3.279395028948783875e-02 7.133241742849349976e-04 1.005218271166086197e-02 2.111604064702987671e-02
5.337000000000000000e+03 2.821683883666992188e+00 -1.150525212287902832e+00 2.196689136326313019e-02 3.394698724150657654e-03 7.608477491885423660e-03 1.944239623844623566e-02
5.338000000000000000e+03 2.067543268203735352e+00 -1.151147603988647461e+00 1.258315425366163254e-02 6.117559503763914108e-03 5.610214080661535263e-03 1.468047033995389938e-02
5.339000000000000000e+03 1.326855897903442383e+00 -1.144792079925537109e+00 5.896079819649457932e-03 5.847363267093896866e-03 3.523032879456877708e-03 8.130850270390510559e-03
5.340000000000000000e+03 9.941840171813964844e-01 -3.806251585483551025e-01 1.516247750259935856e-03 7.763057365082204342e-04 6.877660634927451611e-04 1.215299824252724648e-03
5.341000000000000000e+03 3.480942845344543457e-01 -5.610816478729248047e-01 7.421031477861106396e-05 2.825912670232355595e-04 1.070404759957455099e-04 1.439536281395703554e-04
5.342000000000000000e+03 2.623828697204589844e+01 -5.017127990722656250e-01 2.166262149810791016e+00 -5.158245190978050232e-02 6.344038844108581543e-01 2.181162834167480469e-01
5.343000000000000000e+03 2.623249626159667969e+01 -4.830971956253051758e-01 2.017844438552856445e+00 -1.584677547216415405e-01 5.578129887580871582e-01 3.385857939720153809e-01
5.344000000000000000e+03 2.622318840026855469e+01 -4.659676551818847656e-01 1.672928929328918457e+00 -2.477940171957015991e-01 4.275404810905456543e-01 5.253772139549255371e-01
5.345000000000000000e+03 2.621071815490722656e+01 -4.509815871715545654e-01 1.262659192085266113e+00 -3.628070950508117676e-01 2.699556350708007812e-01 6.598262190818786621e-01
5.346000000000000000e+03 2.619556617736816406e+01 -4.387140870094299316e-01 8.269670605659484863e-01 -5.348136425018310547e-01 8.764602988958358765e-02 7.562561631202697754e-01
5.347000000000000000e+03 2.617831420898437500e+01 -4.296358823776245117e-01 4.185827076435089111e-01 -7.374420166015625000e-01 -9.565778821706771851e-02 8.339381814002990723e-01
5.348000000000000000e+03 2.615962219238281250e+01 -4.240954220294952393e-01 3.235535230487585068e-03 -9.804973602294921875e-01 -2.931785285472869873e-01 9.428616166114807129e-01
5.349000000000000000e+03 2.614020919799804688e+01 -4.223052561283111572e-01 -3.793879449367523193e-01 -1.176627755165100098e+00 -4.668047130107879639e-01 1.073274970054626465e+00
5.350000000000000000e+03 2.612081909179687500e+01 -4.243341088294982910e-01 -8.271336555480957031e-01 -1.316977262496948242e+00 -6.432332992553710938e-01 1.233298301696777344e+00
5.351000000000000000e+03 2.610219764709472656e+01 -4.301041364669799805e-01 -1.264773368835449219e+00 -1.339598059654235840e+00 -7.813114523887634277e-01 1.373968243598937988e+00
5.352000000000000000e+03 2.608505821228027344e+01 -4.393938779830932617e-01 -1.761672019958496094e+00 -1.270179271697998047e+00 -9.095553755760192871e-01 1.456979870796203613e+00
5.353000000000000000e+03 2.607005882263183594e+01 -4.518468976020812988e-01 -2.214900255203247070e+00 -1.113830327987670898e+00 -9.986191987991333008e-01 1.454069495201110840e+00
5.354000000000000000e+03 2.605777359008789062e+01 -4.669852256774902344e-01 -2.602627038955688477e+00 -9.358218312263488770e-01 -1.061534643173217773e+00 1.352058172225952148e+00
5.355000000000000000e+03 2.604867744445800781e+01 -4.842279851436614990e-01 -2.892922639846801758e+00 -7.905203700065612793e-01 -1.105032920837402344e+00 1.168312430381774902e+00
5.356000000000000000e+03 2.604311561584472656e+01 -5.029134154319763184e-01 -3.038635969161987305e+00 -6.865196228027343750e-01 -1.117546677589416504e+00 9.621894955635070801e-01
5.357000000000000000e+03 2.604130363464355469e+01 -5.223245024681091309e-01 -3.085732936859130859e+00 -6.731425523757934570e-01 -1.127662658691406250e+00 7.656668424606323242e-01
5.358000000000000000e+03 2.604331207275390625e+01 -5.417163372039794922e-01 -3.054008007049560547e+00 -6.915345191955566406e-01 -1.123662829399108887e+00 6.327379941940307617e-01
5.359000000000000000e+03 2.604906082153320312e+01 -5.603447556495666504e-01 -3.013331174850463867e+00 -7.564671635627746582e-01 -1.130939483642578125e+00 5.639305710792541504e-01
5.360000000000000000e+03 2.605833053588867188e+01 -5.774948596954345703e-01 -3.016226291656494141e+00 -8.348058462142944336e-01 -1.155309677124023438e+00 5.586516857147216797e-01
5.361000000000000000e+03 2.607076835632324219e+01 -5.925084948539733887e-01 -3.047490119934082031e+00 -8.934378623962402344e-01 -1.182278394699096680e+00 5.743573904037475586e-01
5.362000000000000000e+03 2.608589172363281250e+01 -6.048095226287841797e-01 -3.222900629043579102e+00 -1.018225193023681641e+00 -1.272337794303894043e+00 6.304180026054382324e-01
5.363000000000000000e+03 2.610312461853027344e+01 -6.139258742332458496e-01 -3.334973096847534180e+00 -1.114061594009399414e+00 -1.334710359573364258e+00 6.751845479011535645e-01
5.364000000000000000e+03 2.612180519104003906e+01 -6.195077300071716309e-01 -3.659564256668090820e+00 -1.299925208091735840e+00 -1.487846851348876953e+00 7.555325031280517578e-01
5.365000000000000000e+03 2.614121246337890625e+01 -6.213409304618835449e-01 -3.882636785507202148e+00 -1.427668452262878418e+00 -1.593091607093811035e+00 8.797221183776855469e-01
5.366000000000000000e+03 2.616060638427734375e+01 -6.193549633026123047e-01 -4.323635578155517578e+00 -1.573728561401367188e+00 -1.769209265708923340e+00 1.013725996017456055e+00
5.367000000000000000e+03 2.617924118041992188e+01 -6.136261820793151855e-01 -4.752964496612548828e+00 -1.571637153625488281e+00 -1.897380471229553223e+00 1.179826855659484863e+00
5.368000000000000000e+03 2.619640159606933594e+01 -6.043744087219238281e-01 -5.350427627563476562e+00 -1.498347163200378418e+00 -2.054632425308227539e+00 1.275442004203796387e+00
5.369000000000000000e+03 2.621142959594726562e+01 -5.919546484947204590e-01 -5.947211742401123047e+00 -1.259573459625244141e+00 -2.162035465240478516e+00 1.283111214637756348e+00
5.370000000000000000e+03 2.622374725341796875e+01 -5.768435597419738770e-01 -6.569902420043945312e+00 -9.725233316421508789e-01 -2.262727737426757812e+00 1.121394276618957520e+00
5.371000000000000000e+03 2.623288345336914062e+01 -5.596209764480590820e-01 -7.078296184539794922e+00 -6.374073028564453125e-01 -2.314711093902587891e+00 7.941785454750061035e-01
5.372000000000000000e+03 2.623848533630371094e+01 -5.409478545188903809e-01 -7.399372577667236328e+00 -3.508552014827728271e-01 -2.325068235397338867e+00 3.209674060344696045e-01
5.373000000000000000e+03 2.624034118652343750e+01 -5.215408205986022949e-01 -7.497235298156738281e+00 -1.658398658037185669e-01 -2.298922538757324219e+00 -3.220677077770233154e-01
5.374000000000000000e+03 4.026090240478515625e+01 -1.321293735504150391e+01 1.378516387939453125e+01 1.961822986602783203e+00 4.724095821380615234e+00 -3.837442636489868164e+00
5.375000000000000000e+03 4.026854705810546875e+01 -1.319503307342529297e+01 1.836833000183105469e+01 7.980867028236389160e-01 5.749925136566162109e+00 -2.212686231359839439e-03
5.376000000000000000e+03 4.027256011962890625e+01 -1.317598342895507812e+01 2.062490844726562500e+01 2.298384666442871094e+00 6.876987934112548828e+00 2.853331565856933594e+00
5.377000000000000000e+03 4.027278900146484375e+01 -1.315651607513427734e+01 2.162056350708007812e+01 4.573470592498779297e+00 7.858210086822509766e+00 5.679707050323486328e+00
5.378000000000000000e+03 4.026922225952148438e+01 -1.313737773895263672e+01 2.160598945617675781e+01 7.792375564575195312e+00 8.819509506225585938e+00 7.961804866790771484e+00
5.379000000000000000e+03 4.026199722290039062e+01 -1.311929893493652344e+01 2.054055976867675781e+01 1.138802433013916016e+01 9.578575134277343750e+00 9.616775512695312500e+00
5.380000000000000000e+03 4.025139236450195312e+01 -1.310297298431396484e+01 1.889792823791503906e+01 1.533403778076171875e+01 1.026959037780761719e+01 1.031462287902832031e+01
5.381000000000000000e+03 4.023781204223632812e+01 -1.308902454376220703e+01 1.684505462646484375e+01 1.897947883605957031e+01 1.074736022949218750e+01 1.003961372375488281e+01
5.382000000000000000e+03 4.022177505493164062e+01 -1.307798576354980469e+01 1.499674224853515625e+01 2.214691734313964844e+01 1.114309787750244141e+01 8.769262313842773438e+00
5.383000000000000000e+03 4.020389938354492188e+01 -1.307028102874755859e+01 1.348361206054687500e+01 2.430913162231445312e+01 1.133782291412353516e+01 6.824379920959472656e+00
5.384000000000000000e+03 4.018486022949218750e+01 -1.306620407104492188e+01 1.289819622039794922e+01 2.553691673278808594e+01 1.153053379058837891e+01 4.449039459228515625e+00
5.385000000000000000e+03 4.016539382934570312e+01 -1.306591129302978516e+01 1.279027462005615234e+01 2.557478141784667969e+01 1.150951671600341797e+01 2.045135736465454102e+00
5.386000000000000000e+03 4.014624404907226562e+01 -1.306941318511962891e+01 1.360981941223144531e+01 2.485826492309570312e+01 1.154042530059814453e+01 1.010156422853469849e-01
5.387000000000000000e+03 4.012814331054687500e+01 -1.307657718658447266e+01 1.510104656219482422e+01 2.339246749877929688e+01 1.154805469512939453e+01 -1.455140709877014160e+00
5.388000000000000000e+03 4.011178207397460938e+01 -1.308712768554687500e+01 1.643619728088378906e+01 2.156592559814453125e+01 1.140063667297363281e+01 -2.272836208343505859e+00
5.389000000000000000e+03 4.009778594970703125e+01 -1.310066127777099609e+01 1.839451217651367188e+01 1.991200256347656250e+01 1.149195384979248047e+01 -2.267389059066772461e+00
5.390000000000000000e+03 4.008669662475585938e+01 -1.311666107177734375e+01 2.001245498657226562e+01 1.820169639587402344e+01 1.146424484252929688e+01 -1.659226536750793457e+00
5.391000000000000000e+03 4.007892990112304688e+01 -1.313451385498046875e+01 2.122934532165527344e+01 1.685763549804687500e+01 1.142609405517578125e+01 -4.955384433269500732e-01
5.392000000000000000e+03 4.007479095458984375e+01 -1.315353679656982422e+01 2.213388252258300781e+01 1.647440338134765625e+01 1.158248519897460938e+01 1.171672582626342773e+00
5.393000000000000000e+03 4.007443237304687500e+01 -1.317300128936767578e+01 2.219868850708007812e+01 1.638762092590332031e+01 1.157589244842529297e+01 3.183244466781616211e+00
5.394000000000000000e+03 4.007787322998046875e+01 -1.319216346740722656e+01 2.155385017395019531e+01 1.722406196594238281e+01 1.163337326049804688e+01 5.066116333007812500e+00
5.395000000000000000e+03 4.008497619628906250e+01 -1.321028995513916016e+01 2.002510833740234375e+01 1.886808204650878906e+01 1.166795730590820312e+01 6.745550632476806641e+00
5.396000000000000000e+03 4.009547042846679688e+01 -1.322668647766113281e+01 1.774988174438476562e+01 2.095230484008789062e+01 1.161065578460693359e+01 7.795166969299316406e+00
5.397000000000000000e+03 4.010895919799804688e+01 -1.324072551727294922e+01 1.487223625183105469e+01 2.338257026672363281e+01 1.147644233703613281e+01 7.997092723846435547e+00
5.398000000000000000e+03 4.012491989135742188e+01 -1.325187015533447266e+01 1.189542579650878906e+01 2.561658477783203125e+01 1.125360298156738281e+01 7.209728717803955078e+00
5.399000000000000000e+03 4.014274597167968750e+01 -1.325969409942626953e+01 8.932675361633300781e+00 2.734582328796386719e+01 1.088354969024658203e+01 5.408324241638183594e+00
5.400000000000000000e+03 4.016175460815429688e+01 -1.326389884948730469e+01 6.543027400970458984e+00 2.804740905761718750e+01 1.037713050842285156e+01 2.934183120727539062e+00
5.401000000000000000e+03 4.018122100830078125e+01 -1.326432132720947266e+01 4.927771568298339844e+00 2.758385848999023438e+01 9.753489494323730469e+00 -1.071784049272537231e-01
5.402000000000000000e+03 4.020039367675781250e+01 -1.326094627380371094e+01 4.072802543640136719e+00 2.577060508728027344e+01 8.953022003173828125e+00 -3.083595514297485352e+00
5.403000000000000000e+03 4.021854400634765625e+01 -1.325390338897705078e+01 4.287600040435791016e+00 2.258437919616699219e+01 8.061594009399414062e+00 -5.886514663696289062e+00
5.404000000000000000e+03 4.023497390747070312e+01 -1.324346256256103516e+01 5.171204090118408203e+00 1.835778617858886719e+01 7.058696746826171875e+00 -7.874067306518554688e+00
5.405000000000000000e+03 4.024905776977539062e+01 -1.323002147674560547e+01 8.551594734191894531e+00 1.138635158538818359e+01 5.981383800506591797e+00 -8.918949127197265625e+00
