# el_label, x, y, sXX, sYY, sZZ, sXY
1.000000000000000000e+00 2.647685241699218750e+01 9.727759361267089844e-01 -5.852585792541503906e+00 -4.010840654373168945e-01 -1.876100897789001465e+00 1.333009958267211914e+00
2.000000000000000000e+00 2.610982894897460938e+01 9.217603206634521484e-01 -4.122339725494384766e+00 4.395338892936706543e-01 -1.104841828346252441e+00 2.181210517883300781e-01
3.000000000000000000e+00 2.501363372802734375e+01 4.009114503860473633e-01 -1.900019049644470215e+00 9.386600255966186523e-01 -2.884077131748199463e-01 -9.835770130157470703e-01
4.000000000000000000e+00 2.524869537353515625e+01 6.084479689598083496e-01 -2.282027721405029297e+00 9.966493844985961914e-01 -3.856135010719299316e-01 -8.629267215728759766e-01
5.000000000000000000e+00 2.596435928344726562e+01 7.445605397224426270e-01 -3.655914306640625000e+00 1.051740765571594238e+00 -7.812520861625671387e-01 -4.470885694026947021e-01
6.000000000000000000e+00 2.529867744445800781e+01 5.080273747444152832e-01 -2.208382368087768555e+00 1.015673041343688965e+00 -3.578128218650817871e-01 -1.048244118690490723e+00
7.000000000000000000e+00 2.514510345458984375e+01 4.417403936386108398e-01 -1.877881169319152832e+00 9.314997196197509766e-01 -2.839144468307495117e-01 -9.859748482704162598e-01
8.000000000000000000e+00 2.574004173278808594e+01 8.379517793655395508e-01 -3.311251640319824219e+00 1.045226931571960449e+00 -6.798074245452880859e-01 -4.283666014671325684e-01
9.000000000000000000e+00 2.540418624877929688e+01 6.995720267295837402e-01 -2.736564874649047852e+00 1.115333318710327148e+00 -4.863694608211517334e-01 -8.027251958847045898e-01
1.000000000000000000e+01 2.562668418884277344e+01 6.353849172592163086e-01 -2.802743434906005859e+00 1.159333467483520508e+00 -4.930230081081390381e-01 -7.482036948204040527e-01
1.100000000000000000e+01 2.546116828918457031e+01 5.738193988800048828e-01 -2.441535711288452148e+00 1.265342473983764648e+00 -3.528579473495483398e-01 -8.725399374961853027e-01
1.200000000000000000e+01 2.579438400268554688e+01 6.921237707138061523e-01 -3.123599052429199219e+00 1.263256192207336426e+00 -5.581028461456298828e-01 -5.659896731376647949e-01
1.300000000000000000e+01 2.630865478515625000e+01 9.588830471038818359e-01 -4.731094360351562500e+00 2.245104610919952393e-01 -1.351975083351135254e+00 1.114802718162536621e+00
1.400000000000000000e+01 2.633842658996582031e+01 8.784570097923278809e-01 -4.578326225280761719e+00 1.929247081279754639e-01 -1.315620422363281250e+00 6.317701339721679688e-01
1.500000000000000000e+01 2.510928726196289062e+01 5.076750516891479492e-01 -2.050637722015380859e+00 9.139389395713806152e-01 -3.410096466541290283e-01 -1.045140862464904785e+00
1.600000000000000000e+01 2.614974594116210938e+01 8.036559820175170898e-01 -4.137179374694824219e+00 8.149741291999816895e-01 -9.966616034507751465e-01 2.932399511337280273e-01
1.700000000000000000e+01 2.591700744628906250e+01 8.839657902717590332e-01 -3.768549680709838867e+00 1.034235835075378418e+00 -8.202941417694091797e-01 -1.779914833605289459e-03
1.800000000000000000e+01 2.556867980957031250e+01 7.764952778816223145e-01 -3.013862371444702148e+00 1.152525544166564941e+00 -5.584011077880859375e-01 -6.156733632087707520e-01
1.900000000000000000e+01 3.926446914672851562e+01 -6.654529273509979248e-02 -7.762143611907958984e-01 -1.135379225015640259e-01 -2.669256925582885742e-01 5.259581804275512695e-01
2.000000000000000000e+01 3.853829193115234375e+01 8.005984425544738770e-01 -3.665860891342163086e-01 2.105793450027704239e-03 -1.093440875411033630e-01 5.785512551665306091e-02
2.100000000000000000e+01 3.856721115112304688e+01 2.939395308494567871e-01 -7.753738164901733398e-01 4.061581194400787354e-02 -2.204273939132690430e-01 2.993750870227813721e-01
2.200000000000000000e+01 3.863265991210937500e+01 -1.873910427093505859e-01 -1.098417758941650391e+00 9.177069365978240967e-02 -3.019941151142120361e-01 5.168757438659667969e-01
2.300000000000000000e+01 3.940502929687500000e+01 9.399264454841613770e-01 -4.453429207205772400e-02 5.052450578659772873e-03 -1.184455305337905884e-02 3.408692404627799988e-02
2.400000000000000000e+01 4.009811019897460938e+01 4.773108363151550293e-01 8.298682421445846558e-02 1.798256300389766693e-02 3.029081597924232483e-02 -6.175772473216056824e-02
2.500000000000000000e+01 3.978128051757812500e+01 1.253356635570526123e-01 -2.463093847036361694e-01 -2.835012078285217285e-01 -1.589431762695312500e-01 2.929717004299163818e-01
2.600000000000000000e+01 3.925169372558593750e+01 3.656412959098815918e-01 -3.539283573627471924e-01 -5.267414823174476624e-02 -1.219807565212249756e-01 2.423149794340133667e-01
2.700000000000000000e+01 2.643321990966796875e+01 -4.614933729171752930e-01 1.669877290725708008e+00 -9.624783992767333984e-01 2.122196555137634277e-01 -6.028635427355766296e-02
2.800000000000000000e+01 2.662815284729003906e+01 -4.212739467620849609e-01 2.473650693893432617e+00 7.445026040077209473e-01 9.654459953308105469e-01 1.833968460559844971e-01
2.900000000000000000e+01 2.682308387756347656e+01 -3.810544908046722412e-01 3.146011114120483398e+00 -4.969759583473205566e-01 7.947105169296264648e-01 5.791224166750907898e-02
3.000000000000000000e+01 2.701801681518554688e+01 -3.408350646495819092e-01 3.588493824005126953e+00 2.311626672744750977e-01 1.145896911621093750e+00 3.060052394866943359e-01
3.100000000000000000e+01 2.641584777832031250e+01 -4.056465029716491699e-01 2.382735729217529297e+00 -4.873779788613319397e-02 7.001993656158447266e-01 3.154159784317016602e-01
3.200000000000000000e+01 2.659919929504394531e+01 -3.281958401203155518e-01 2.220651865005493164e+00 -1.943668276071548462e-01 6.078855395317077637e-01 -2.410604059696197510e-01
3.300000000000000000e+01 2.678255081176757812e+01 -2.507451474666595459e-01 1.777191281318664551e+00 3.121587038040161133e-01 6.268050074577331543e-01 -1.776749640703201294e-01
3.400000000000000000e+01 2.696590232849121094e+01 -1.732944548130035400e-01 1.866487264633178711e+00 -5.980049967765808105e-01 3.805446624755859375e-01 -7.291648387908935547e-01
3.500000000000000000e+01 2.638792037963867188e+01 -3.542579412460327148e-01 2.677896738052368164e+00 4.015582799911499023e-01 9.238365292549133301e-01 3.725488781929016113e-01
3.600000000000000000e+01 2.655265426635742188e+01 -2.425482273101806641e-01 1.333556175231933594e+00 2.459252439439296722e-02 4.074445962905883789e-01 1.067520454525947571e-01
3.700000000000000000e+01 2.671738815307617188e+01 -1.308384984731674194e-01 1.359916567802429199e+00 2.025256603956222534e-01 4.687326550483703613e-01 -6.985909342765808105e-01
3.800000000000000000e+01 2.688212394714355469e+01 -1.912877708673477173e-02 -6.377434134483337402e-01 4.028214514255523682e-02 -1.792383790016174316e-01 -3.704788088798522949e-01
3.900000000000000000e+01 2.635051155090332031e+01 -3.092997670173645020e-01 1.373411893844604492e+00 6.661555767059326172e-01 6.118702292442321777e-01 9.211713075637817383e-01
4.000000000000000000e+01 2.649030685424804688e+01 -1.676179021596908569e-01 1.692453622817993164e+00 5.805895924568176270e-01 6.819129586219787598e-01 -2.724931836128234863e-01
4.100000000000000000e+01 2.663010215759277344e+01 -2.593605220317840576e-02 -6.465448737144470215e-01 3.037076592445373535e-01 -1.028511598706245422e-01 -1.645643562078475952e-01
4.200000000000000000e+01 2.676989746093750000e+01 1.157457977533340454e-01 -7.339870929718017578e-02 3.082817792892456055e-01 7.046491652727127075e-02 -6.706108450889587402e-01
4.300000000000000000e+01 2.630505752563476562e+01 -2.724972069263458252e-01 2.099170207977294922e+00 1.629398584365844727e+00 1.118570566177368164e+00 6.590530872344970703e-01
4.400000000000000000e+01 2.641454887390136719e+01 -1.062803491950035095e-01 -2.405349463224411011e-01 8.459914922714233398e-01 1.816369593143463135e-01 2.146182954311370850e-02
4.500000000000000000e+01 2.652403831481933594e+01 5.993652343750000000e-02 9.899107366800308228e-02 6.359440088272094727e-01 2.204805314540863037e-01 -3.578580021858215332e-01
4.600000000000000000e+01 2.663352775573730469e+01 2.261533886194229126e-01 -2.686825990676879883e+00 5.263904929161071777e-01 -6.481306552886962891e-01 -6.372340321540832520e-01
4.700000000000000000e+01 2.625329971313476562e+01 -2.452626526355743408e-01 2.864516675472259521e-01 2.063854694366455078e+00 7.050918936729431152e-01 4.659774005413055420e-01
4.800000000000000000e+01 2.632828330993652344e+01 -6.088940799236297607e-02 4.752239286899566650e-01 1.439731597900390625e+00 5.744866728782653809e-01 -2.873021550476551056e-02
4.900000000000000000e+01 2.640326881408691406e+01 1.234838366508483887e-01 -1.708596229553222656e+00 9.177911281585693359e-01 -2.372415363788604736e-01 -5.601465702056884766e-01
5.000000000000000000e+01 2.647825241088867188e+01 3.078570663928985596e-01 -2.227626085281372070e+00 8.834244608879089355e-01 -4.032604992389678955e-01 -2.349102348089218140e-01
5.100000000000000000e+01 2.619722366333007812e+01 -2.286412119865417480e-01 8.766368627548217773e-01 2.781303405761718750e+00 1.097382068634033203e+00 2.964781820774078369e-01
5.200000000000000000e+01 2.623482513427734375e+01 -3.318699449300765991e-02 -8.654341101646423340e-01 1.621673464775085449e+00 2.268718183040618896e-01 -4.290103018283843994e-01
5.300000000000000000e+01 2.627242660522460938e+01 1.622672230005264282e-01 -1.280205249786376953e+00 1.509152173995971680e+00 6.868410110473632812e-02 -4.150192141532897949e-01
5.400000000000000000e+01 2.631002807617187500e+01 3.577214479446411133e-01 -3.038723707199096680e+00 9.546676874160766602e-01 -6.252167820930480957e-01 -5.872125625610351562e-01
5.500000000000000000e+01 2.613898468017578125e+01 -2.232707291841506958e-01 -2.666721865534782410e-02 2.830929517745971680e+00 8.412786722183227539e-01 -3.900552988052368164e-01
5.600000000000000000e+01 2.613776016235351562e+01 -2.423619106411933899e-02 -4.481232464313507080e-01 2.189901351928710938e+00 5.225334763526916504e-01 -4.385584592819213867e-01
5.700000000000000000e+01 2.613653564453125000e+01 1.747983545064926147e-01 -1.998396873474121094e+00 1.492477536201477051e+00 -1.517757773399353027e-01 -8.312877416610717773e-01
5.800000000000000000e+01 2.613531112670898438e+01 3.738328814506530762e-01 -2.487166643142700195e+00 1.562957882881164551e+00 -2.772626280784606934e-01 -5.149522423744201660e-01
5.900000000000000000e+01 2.608081626892089844e+01 -2.293573021888732910e-01 4.651644527912139893e-01 3.216347694396972656e+00 1.104453682899475098e+00 -5.619407296180725098e-01
6.000000000000000000e+01 2.604081344604492188e+01 -3.438049182295799255e-02 -9.271761178970336914e-01 2.044043302536010742e+00 3.350601494312286377e-01 -9.652189612388610840e-01
6.100000000000000000e+01 2.600080871582031250e+01 1.605963259935379028e-01 -1.531115651130676270e+00 1.940607428550720215e+00 1.228475198149681091e-01 -8.216956853866577148e-01
6.200000000000000000e+01 2.596080589294433594e+01 3.555731475353240967e-01 -2.570724248886108398e+00 1.379047632217407227e+00 -3.575030267238616943e-01 -9.193202853202819824e-01
6.300000000000000000e+01 2.602495002746582031e+01 -2.466673702001571655e-01 3.506315350532531738e-01 2.837837934494018555e+00 9.565408229827880859e-01 -1.091592788696289062e+00
6.400000000000000000e+01 2.594770240783691406e+01 -6.323059648275375366e-02 -5.116783976554870605e-01 2.348703145980834961e+00 5.511074662208557129e-01 -1.040902495384216309e+00
6.500000000000000000e+01 2.587045478820800781e+01 1.202061772346496582e-01 -1.496541142463684082e+00 1.624408841133117676e+00 3.836030513048171997e-02 -1.196884989738464355e+00
6.600000000000000000e+01 2.579320716857910156e+01 3.036429584026336670e-01 -2.043639421463012695e+00 1.663163661956787109e+00 -1.141427606344223022e-01 -9.997996687889099121e-01
6.700000000000000000e+01 2.597352981567382812e+01 -2.745366394519805908e-01 7.836967110633850098e-01 2.935383558273315430e+00 1.115724086761474609e+00 -1.152537107467651367e+00
6.800000000000000000e+01 2.586200332641601562e+01 -1.096793785691261292e-01 -3.605207800865173340e-01 1.933066844940185547e+00 4.717638194561004639e-01 -1.339506626129150391e+00
6.900000000000000000e+01 2.575047492980957031e+01 5.517788231372833252e-02 -1.004082083702087402e+00 1.773232579231262207e+00 2.307451367378234863e-01 -1.270617961883544922e+00
7.000000000000000000e+01 2.563894844055175781e+01 2.200351357460021973e-01 -1.659798741340637207e+00 1.281245350837707520e+00 -1.135660335421562195e-01 -1.223765730857849121e+00
7.100000000000000000e+01 2.592853164672851562e+01 -3.118956089019775391e-01 1.015698909759521484e+00 2.465747594833374023e+00 1.044433951377868652e+00 -1.277089715003967285e+00
7.200000000000000000e+01 2.578700256347656250e+01 -1.719443351030349731e-01 8.504903316497802734e-02 1.948440074920654297e+00 6.100467443466186523e-01 -1.359312653541564941e+00
7.300000000000000000e+01 2.564547729492187500e+01 -3.199306875467300415e-02 -6.422457098960876465e-01 1.357768893241882324e+00 2.146569639444351196e-01 -1.363534808158874512e+00
7.400000000000000000e+01 2.550395011901855469e+01 1.079582050442695618e-01 -1.092282772064208984e+00 1.288291931152343750e+00 5.880274251103401184e-02 -1.315182447433471680e+00
7.500000000000000000e+01 2.589167785644531250e+01 -3.573106229305267334e-01 1.379457235336303711e+00 2.401415109634399414e+00 1.134261727333068848e+00 -1.182018637657165527e+00
7.600000000000000000e+01 2.572558212280273438e+01 -2.476360350847244263e-01 3.865683972835540771e-01 1.553914904594421387e+00 5.821449756622314453e-01 -1.303635358810424805e+00
7.700000000000000000e+01 2.555948638916015625e+01 -1.379614472389221191e-01 -1.573705971240997314e-01 1.285867214202880859e+00 3.385489881038665771e-01 -1.337198853492736816e+00
7.800000000000000000e+01 2.539339256286621094e+01 -2.828685194253921509e-02 -6.607910990715026855e-01 9.671233296394348145e-01 9.189967066049575806e-02 -1.259324073791503906e+00
7.900000000000000000e+01 2.586438560485839844e+01 -4.090388715267181396e-01 1.567188382148742676e+00 2.074637889862060547e+00 1.092547893524169922e+00 -1.022639989852905273e+00
8.000000000000000000e+01 2.568009567260742188e+01 -3.338497877120971680e-01 7.680410742759704590e-01 1.471921801567077637e+00 6.719888448715209961e-01 -1.112245440483093262e+00
8.100000000000000000e+01 2.549580574035644531e+01 -2.586606740951538086e-01 9.352233260869979858e-02 1.026441931724548340e+00 3.359892666339874268e-01 -1.172104954719543457e+00
8.200000000000000000e+01 2.531151580810546875e+01 -1.834715753793716431e-01 -1.784476637840270996e-01 8.247365951538085938e-01 1.938866823911666870e-01 -1.179752707481384277e+00
8.300000000000000000e+01 2.584770202636718750e+01 -4.650952517986297607e-01 1.769879579544067383e+00 2.046401500701904297e+00 1.144884347915649414e+00 -7.588932514190673828e-01
8.400000000000000000e+01 2.565229034423828125e+01 -4.272770583629608154e-01 9.223539233207702637e-01 1.269795179367065430e+00 6.576447486877441406e-01 -8.609479069709777832e-01
8.500000000000000000e+01 2.545687675476074219e+01 -3.894588649272918701e-01 4.103555083274841309e-01 9.856032729148864746e-01 4.187876284122467041e-01 -8.888478279113769531e-01
8.600000000000000000e+01 2.526146507263183594e+01 -3.516406714916229248e-01 -9.819106012582778931e-02 6.994963884353637695e-01 1.803915947675704956e-01 -9.841728210449218750e-01
8.700000000000000000e+01 2.584226799011230469e+01 -5.233285427093505859e-01 1.784035682678222656e+00 1.958790183067321777e+00 1.122847795486450195e+00 -4.634318351745605469e-01
8.800000000000000000e+01 2.564323234558105469e+01 -5.243325233459472656e-01 1.024202227592468262e+00 1.318058967590332031e+00 7.026783823966979980e-01 -5.479999780654907227e-01
8.900000000000000000e+01 2.544419670104980469e+01 -5.253365635871887207e-01 5.046294331550598145e-01 9.116286039352416992e-01 4.248774349689483643e-01 -6.194735765457153320e-01
9.000000000000000000e+01 2.524516105651855469e+01 -5.263405442237854004e-01 1.065598577260971069e-01 7.201032042503356934e-01 2.479989230632781982e-01 -5.885916948318481445e-01
9.100000000000000000e+01 2.584828948974609375e+01 -5.815040469169616699e-01 1.697197794914245605e+00 2.061784267425537109e+00 1.127694606781005859e+00 -1.584941446781158447e-01
9.200000000000000000e+01 2.565326881408691406e+01 -6.212916970252990723e-01 9.518492817878723145e-01 1.406664490699768066e+00 7.075541615486145020e-01 -2.732867002487182617e-01
9.300000000000000000e+01 2.545824813842773438e+01 -6.610794067382812500e-01 5.012369751930236816e-01 1.004990100860595703e+00 4.518681168556213379e-01 -3.272870182991027832e-01
9.400000000000000000e+01 2.526322746276855469e+01 -7.008671164512634277e-01 2.559951543807983398e-01 7.258289456367492676e-01 2.945472300052642822e-01 -3.582102656364440918e-01
9.500000000000000000e+01 2.586553764343261719e+01 -6.373892426490783691e-01 1.479779481887817383e+00 2.280157566070556641e+00 1.127981066703796387e+00 7.781209051609039307e-02
9.600000000000000000e+01 2.568201637268066406e+01 -7.144337892532348633e-01 7.493866086006164551e-01 1.588149547576904297e+00 7.012608647346496582e-01 -3.618265688419342041e-02
9.700000000000000000e+01 2.549849319458007812e+01 -7.914782762527465820e-01 3.919428288936614990e-01 1.193412899971008301e+00 4.756067395210266113e-01 -1.523322016000747681e-01
9.800000000000000000e+01 2.531497192382812500e+01 -8.685227036476135254e-01 1.643421351909637451e-01 8.565065264701843262e-01 3.062545955181121826e-01 -2.041912227869033813e-01
9.900000000000000000e+01 2.589335060119628906e+01 -6.888395547866821289e-01 1.097483396530151367e+00 2.543616294860839844e+00 1.092329978942871094e+00 2.467349916696548462e-01
1.000000000000000000e+02 2.572836875915527344e+01 -8.001842498779296875e-01 5.009886622428894043e-01 1.869144201278686523e+00 7.110398411750793457e-01 4.374038428068161011e-02
1.010000000000000000e+02 2.556338882446289062e+01 -9.115288853645324707e-01 1.332846730947494507e-01 1.408899426460266113e+00 4.626552164554595947e-01 -2.635571174323558807e-02
1.020000000000000000e+02 2.539840888977050781e+01 -1.022873520851135254e+00 -3.463758528232574463e-02 1.132206797599792480e+00 3.292707502841949463e-01 -1.752669513225555420e-01
1.030000000000000000e+02 2.593066024780273438e+01 -7.338804602622985840e-01 7.365822196006774902e-01 2.892665624618530273e+00 1.088774323463439941e+00 2.287267744541168213e-01
1.040000000000000000e+02 2.579055213928222656e+01 -8.752524256706237793e-01 1.155318766832351685e-01 2.125836372375488281e+00 6.724104881286621094e-01 4.211132228374481201e-02
1.050000000000000000e+02 2.565044403076171875e+01 -1.016624450683593750e+00 -8.762504160404205322e-02 1.662554740905761719e+00 4.724788963794708252e-01 -8.659423142671585083e-02
1.060000000000000000e+02 2.551033592224121094e+01 -1.157996416091918945e+00 -3.566434383392333984e-01 1.383573889732360840e+00 3.080791234970092773e-01 -1.207284703850746155e-01
1.070000000000000000e+02 2.597603416442871094e+01 -7.707836031913757324e-01 2.522450089454650879e-01 3.171056985855102539e+00 1.026990532875061035e+00 8.249825984239578247e-02
1.080000000000000000e+02 2.586617469787597656e+01 -9.367576241493225098e-01 -1.420980393886566162e-01 2.367017507553100586e+00 6.674758195877075195e-01 -1.276365518569946289e-01
1.090000000000000000e+02 2.575631713867187500e+01 -1.102731585502624512e+00 -4.393283724784851074e-01 1.870989441871643066e+00 4.294983148574829102e-01 -2.220819145441055298e-01
1.100000000000000000e+02 2.564645767211914062e+01 -1.268705606460571289e+00 -4.711040556430816650e-01 1.514876842498779297e+00 3.131318390369415283e-01 -2.470565587282180786e-01
1.110000000000000000e+02 2.602773094177246094e+01 -7.981326580047607422e-01 -3.946737200021743774e-02 3.375194311141967773e+00 1.000718116760253906e+00 -2.260615527629852295e-01
1.120000000000000000e+02 2.595233917236328125e+01 -9.823395013809204102e-01 -4.648576378822326660e-01 2.484152793884277344e+00 6.057885885238647461e-01 -3.903513848781585693e-01
1.130000000000000000e+02 2.587694549560546875e+01 -1.166546225547790527e+00 -6.026335954666137695e-01 2.004238843917846680e+00 4.204815626144409180e-01 -4.453043341636657715e-01
1.140000000000000000e+02 2.580155181884765625e+01 -1.350752949714660645e+00 -7.353601455688476562e-01 1.605835676193237305e+00 2.611426413059234619e-01 -5.389844179153442383e-01
1.150000000000000000e+02 2.608376884460449219e+01 -8.148782849311828613e-01 -3.106512427330017090e-01 3.384643554687500000e+00 9.221976399421691895e-01 -6.375601887702941895e-01
1.160000000000000000e+02 2.604573440551757812e+01 -1.010248780250549316e+00 -5.844768285751342773e-01 2.487169981002807617e+00 5.708079338073730469e-01 -7.021101713180541992e-01
1.170000000000000000e+02 2.600769996643066406e+01 -1.205619215965270996e+00 -7.709246277809143066e-01 1.974476695060729980e+00 3.610656261444091797e-01 -7.391688227653503418e-01
1.180000000000000000e+02 2.596966552734375000e+01 -1.400989651679992676e+00 -8.800974488258361816e-01 1.708023071289062500e+00 2.483776807785034180e-01 -7.727066278457641602e-01
1.190000000000000000e+02 2.614199638366699219e+01 -8.203776478767395020e-01 -3.566084802150726318e-01 3.210459709167480469e+00 8.561553955078125000e-01 -1.059034943580627441e+00
1.200000000000000000e+02 2.614278030395507812e+01 -1.019414424896240234e+00 -6.402047276496887207e-01 2.297354459762573242e+00 4.971449077129364014e-01 -1.024828433990478516e+00
1.210000000000000000e+02 2.614356422424316406e+01 -1.218451261520385742e+00 -8.021580576896667480e-01 1.855494618415832520e+00 3.160009682178497314e-01 -1.006879091262817383e+00
1.220000000000000000e+02 2.614434814453125000e+01 -1.417487978935241699e+00 -9.017767310142517090e-01 1.568300962448120117e+00 1.999572813510894775e-01 -9.657607078552246094e-01
1.230000000000000000e+02 2.620017814636230469e+01 -8.144198656082153320e-01 -2.725237309932708740e-01 2.814386367797851562e+00 7.625588178634643555e-01 -1.424901962280273438e+00
1.240000000000000000e+02 2.623974990844726562e+01 -1.009484767913818359e+00 -5.673512816429138184e-01 1.979755640029907227e+00 4.237213134765625000e-01 -1.278029322624206543e+00
1.250000000000000000e+02 2.627932167053222656e+01 -1.204549789428710938e+00 -7.504471540451049805e-01 1.572878718376159668e+00 2.467294633388519287e-01 -1.197427630424499512e+00
1.260000000000000000e+02 2.631889343261718750e+01 -1.399614572525024414e+00 -8.364816308021545410e-01 1.307838916778564453e+00 1.414071768522262573e-01 -1.156316518783569336e+00
1.270000000000000000e+02 2.625608253479003906e+01 -7.972335815429687500e-01 -6.914671510457992554e-02 2.257375717163085938e+00 6.564687490463256836e-01 -1.650472164154052734e+00
1.280000000000000000e+02 2.633292388916015625e+01 -9.808409214019775391e-01 -4.298087358474731445e-01 1.541690945625305176e+00 3.335646688938140869e-01 -1.402652621269226074e+00
1.290000000000000000e+02 2.640976524353027344e+01 -1.164448261260986328e+00 -6.389060020446777344e-01 1.197836637496948242e+00 1.676791906356811523e-01 -1.297221660614013672e+00
1.300000000000000000e+02 2.648660659790039062e+01 -1.348055601119995117e+00 -7.620636820793151855e-01 9.877563714981079102e-01 6.770780682563781738e-02 -1.239019155502319336e+00
1.310000000000000000e+02 2.630756378173828125e+01 -7.694782018661499023e-01 1.715464144945144653e-01 1.613562226295471191e+00 5.355325937271118164e-01 -1.676650524139404297e+00
1.320000000000000000e+02 2.641872596740722656e+01 -9.345819354057312012e-01 -2.830232679843902588e-01 1.041879415512084961e+00 2.276568412780761719e-01 -1.380573511123657227e+00
1.330000000000000000e+02 2.652988815307617188e+01 -1.099685668945312500e+00 -5.375367999076843262e-01 8.031146526336669922e-01 7.967335730791091919e-02 -1.254718422889709473e+00
1.340000000000000000e+02 2.664105033874511719e+01 -1.264789462089538574e+00 -6.994828581809997559e-01 6.375979781150817871e-01 -1.856546476483345032e-02 -1.214426279067993164e+00
1.350000000000000000e+02 2.635264587402343750e+01 -7.322189211845397949e-01 3.431965112686157227e-01 9.548470377922058105e-01 3.894130587577819824e-01 -1.497147917747497559e+00
1.360000000000000000e+02 2.649386215209960938e+01 -8.724831342697143555e-01 -1.976885050535202026e-01 5.782030224800109863e-01 1.141543611884117126e-01 -1.199863910675048828e+00
1.370000000000000000e+02 2.663508033752441406e+01 -1.012747406959533691e+00 -4.995167553424835205e-01 4.193445146083831787e-01 -2.405167371034622192e-02 -1.086459159851074219e+00
1.380000000000000000e+02 2.677629661560058594e+01 -1.153011679649353027e+00 -7.087048292160034180e-01 3.616933524608612061e-01 -1.041034311056137085e-01 -1.060148835182189941e+00
1.390000000000000000e+02 2.638959884643554688e+01 -6.868855953216552734e-01 3.799172639846801758e-01 3.947086632251739502e-01 2.323877811431884766e-01 -1.130682468414306641e+00
1.400000000000000000e+02 2.655545234680175781e+01 -7.969276309013366699e-01 -2.740198969841003418e-01 1.896314322948455811e-01 -2.531653642654418945e-02 -8.923927545547485352e-01
1.410000000000000000e+02 2.672130393981933594e+01 -9.069696068763732910e-01 -5.728584527969360352e-01 1.597555428743362427e-01 -1.239308714866638184e-01 -8.368291258811950684e-01
1.420000000000000000e+02 2.688715744018554688e+01 -1.017011642456054688e+00 -7.921983599662780762e-01 1.228711605072021484e-01 -2.007981538772583008e-01 -8.175541162490844727e-01
1.430000000000000000e+02 2.641700553894042969e+01 -6.352178454399108887e-01 1.149220094084739685e-01 -2.685619704425334930e-02 2.641974389553070068e-02 -6.617524623870849609e-01
1.440000000000000000e+02 2.660112953186035156e+01 -7.108147740364074707e-01 -4.973710477352142334e-01 -2.507669292390346527e-02 -1.567343324422836304e-01 -5.277435779571533203e-01
1.450000000000000000e+02 2.678525352478027344e+01 -7.864116430282592773e-01 -8.393882513046264648e-01 9.505826048552989960e-03 -2.489647269248962402e-01 -5.504845976829528809e-01
1.460000000000000000e+02 2.696937561035156250e+01 -8.620085120201110840e-01 -9.713797569274902344e-01 2.770344726741313934e-02 -2.831028699874877930e-01 -6.058032512664794922e-01
1.470000000000000000e+02 2.643381309509277344e+01 -5.791985392570495605e-01 -4.268026351928710938e-01 -2.366285026073455811e-01 -1.990293413400650024e-01 -1.308960914611816406e-01
1.480000000000000000e+02 2.662914276123046875e+01 -6.174492239952087402e-01 -1.034174442291259766e+00 -4.897679015994071960e-02 -3.249453604221343994e-01 -2.467025518417358398e-01
1.490000000000000000e+02 2.682447052001953125e+01 -6.556999087333679199e-01 -1.105052590370178223e+00 -1.943991519510746002e-03 -3.320989906787872314e-01 -3.731323778629302979e-01
1.500000000000000000e+02 2.701979827880859375e+01 -6.939505934715270996e-01 -1.303712606430053711e+00 -6.119991838932037354e-02 -4.094737470149993896e-01 -3.591302037239074707e-01
1.510000000000000000e+02 2.643937683105468750e+01 -5.209773778915405273e-01 -1.708738684654235840e+00 -1.806997209787368774e-01 -5.668315291404724121e-01 7.275956869125366211e-02
1.520000000000000000e+02 2.663841629028320312e+01 -5.204139947891235352e-01 -1.321746587753295898e+00 4.839455708861351013e-02 -3.820056021213531494e-01 -2.238041907548904419e-01
1.530000000000000000e+02 2.683745193481445312e+01 -5.198506116867065430e-01 -1.523879528045654297e+00 -6.491606682538986206e-02 -4.766386747360229492e-01 -1.826806664466857910e-01
1.540000000000000000e+02 2.703648948669433594e+01 -5.192871689796447754e-01 -1.640795350074768066e+00 -1.297392137348651886e-02 -4.961307942867279053e-01 -2.287554144859313965e-01
1.550000000000000000e+02 3.784797286987304688e+01 1.577800065279006958e-01 -1.205263853073120117e+00 1.521006971597671509e-01 -3.159489631652832031e-01 2.540467083454132080e-01
1.560000000000000000e+02 3.670595550537109375e+01 -2.413122802972793579e-01 -1.856763482093811035e+00 1.544826179742813110e-01 -5.106842517852783203e-01 2.287237346172332764e-01
1.570000000000000000e+02 3.540361404418945312e+01 3.248861432075500488e-01 -2.610639572143554688e+00 -3.938953951001167297e-02 -7.950087189674377441e-01 -3.607784211635589600e-01
1.580000000000000000e+02 3.773334884643554688e+01 6.401655673980712891e-01 -9.022027254104614258e-01 4.864750057458877563e-02 -2.560665607452392578e-01 -3.887203056365251541e-03
1.590000000000000000e+02 3.793721008300781250e+01 -3.289470970630645752e-01 -1.477527856826782227e+00 2.049574553966522217e-01 -3.817711174488067627e-01 5.001646280288696289e-01
1.600000000000000000e+02 3.579490280151367188e+01 1.559113860130310059e-01 -2.372153043746948242e+00 2.810502983629703522e-02 -7.032144069671630859e-01 -2.087019234895706177e-01
1.610000000000000000e+02 3.544624710083007812e+01 -5.566863417625427246e-01 -2.334692955017089844e+00 1.270390748977661133e-01 -6.622961759567260742e-01 1.313086897134780884e-01
1.620000000000000000e+02 3.542308807373046875e+01 -3.483209311962127686e-01 -2.348540782928466797e+00 3.230014443397521973e-02 -6.948722004890441895e-01 5.827644467353820801e-02
1.630000000000000000e+02 3.557383728027343750e+01 -9.237594604492187500e-01 -2.255075931549072266e+00 1.780198365449905396e-01 -6.231168508529663086e-01 1.997584700584411621e-01
1.640000000000000000e+02 3.725485610961914062e+01 -4.610099196434020996e-01 -1.768640875816345215e+00 2.789619863033294678e-01 -4.469036757946014404e-01 4.143630266189575195e-01
1.650000000000000000e+02 3.620577239990234375e+01 -5.706934332847595215e-01 -2.112482309341430664e+00 1.919230222702026367e-01 -5.761677622795104980e-01 2.705416977405548096e-01
1.660000000000000000e+02 3.543450927734375000e+01 -7.468891739845275879e-01 -2.335094213485717773e+00 1.423523575067520142e-01 -6.578225493431091309e-01 1.742080003023147583e-01
1.670000000000000000e+02 3.575472640991210938e+01 -7.140088677406311035e-01 -2.269221067428588867e+00 1.967869699001312256e-01 -6.217302083969116211e-01 1.863687932491302490e-01
1.680000000000000000e+02 3.536253738403320312e+01 8.283081650733947754e-02 -2.655318975448608398e+00 1.373237557709217072e-02 -7.924759984016418457e-01 -1.411972343921661377e-01
1.690000000000000000e+02 3.537429428100585938e+01 -1.329227387905120850e-01 -2.552328348159790039e+00 8.273351006209850311e-03 -7.632164955139160156e-01 -1.360331326723098755e-01
1.700000000000000000e+02 3.720269775390625000e+01 2.430702373385429382e-02 -1.573549866676330566e+00 1.252344995737075806e-01 -4.344946146011352539e-01 2.134457230567932129e-01
1.710000000000000000e+02 3.633959197998046875e+01 3.179197609424591064e-01 -2.011627674102783203e+00 1.049669110216200352e-03 -6.031734347343444824e-01 -1.647450029850006104e-01
1.720000000000000000e+02 3.702218627929687500e+01 4.955686330795288086e-01 -1.433768272399902344e+00 -2.148906467482447624e-03 -4.307751655578613281e-01 -9.216666221618652344e-02
1.730000000000000000e+02 3.576815414428710938e+01 -2.032263129949569702e-01 -2.243484973907470703e+00 2.450510859489440918e-02 -6.656939387321472168e-01 -1.489274483174085617e-02
1.740000000000000000e+02 2.680468750000000000e+01 1.088164567947387695e+00 -7.391664505004882812e+00 -1.636325716972351074e+00 -2.708397150039672852e+00 2.747145414352416992e+00
1.750000000000000000e+02 3.126405525207519531e+01 -8.982459068298339844e+00 2.951845407485961914e+00 1.737178444862365723e+00 1.406707167625427246e+00 -2.060595035552978516e+00
1.760000000000000000e+02 3.235591125488281250e+01 -9.734186172485351562e+00 2.409668922424316406e+00 1.974478363990783691e+00 1.315244197845458984e+00 -2.140905380249023438e+00
1.770000000000000000e+02 3.382628250122070312e+01 -9.078023910522460938e+00 1.175094962120056152e+00 1.614320874214172363e+00 8.368247747421264648e-01 -1.100079536437988281e+00
1.780000000000000000e+02 3.166398048400878906e+01 -8.323050498962402344e+00 1.933334946632385254e+00 1.487509489059448242e+00 1.026253342628479004e+00 -1.345441818237304688e+00
1.790000000000000000e+02 3.703743743896484375e+01 -2.310830593109130859e+00 -2.108069419860839844e+00 5.853926539421081543e-01 -4.568030536174774170e-01 5.630979537963867188e-01
1.800000000000000000e+02 3.798070144653320312e+01 -8.813598155975341797e-01 -1.684661030769348145e+00 3.045544028282165527e-01 -4.140319824218750000e-01 6.230482459068298340e-01
1.810000000000000000e+02 3.654838180541992188e+01 -1.112277388572692871e+00 -2.004379034042358398e+00 3.311847150325775146e-01 -5.019582509994506836e-01 4.268538057804107666e-01
1.820000000000000000e+02 2.922215652465820312e+01 -7.769063472747802734e+00 1.454235553741455078e+00 4.088836610317230225e-01 5.589357614517211914e-01 -9.902934432029724121e-01
1.830000000000000000e+02 3.496647262573242188e+01 -8.776134490966796875e+00 9.003026485443115234e-01 1.071610450744628906e+00 5.915739536285400391e-01 -8.578425049781799316e-01
1.840000000000000000e+02 3.523870086669921875e+01 -1.501378345489501953e+01 2.682920098304748535e-01 2.177373915910720825e-01 1.458088159561157227e-01 -4.919922649860382080e-01
1.850000000000000000e+02 3.875444030761718750e+01 -1.496103191375732422e+01 1.335208296775817871e+00 8.746726512908935547e-01 6.629642844200134277e-01 -1.153951764106750488e+00
1.860000000000000000e+02 4.429011535644531250e+01 -2.192770957946777344e+01 4.365162849426269531e-01 6.295542716979980469e+00 2.019617557525634766e+00 5.226284265518188477e-01
1.870000000000000000e+02 4.308556365966796875e+01 -2.055980110168457031e+01 1.532819509506225586e+00 4.640381813049316406e+00 1.851960301399230957e+00 1.210612893104553223e+00
1.880000000000000000e+02 4.545643997192382812e+01 -1.924081993103027344e+01 1.563196539878845215e+00 9.956707954406738281e+00 3.455971479415893555e+00 2.333168983459472656e+00
1.890000000000000000e+02 4.618939590454101562e+01 -1.730599784851074219e+01 4.349594116210937500e+00 7.729288578033447266e+00 3.623664855957031250e+00 4.454147815704345703e+00
1.900000000000000000e+02 4.817904663085937500e+01 -1.553528594970703125e+01 7.120037555694580078e+00 3.263251781463623047e+00 3.114986658096313477e+00 3.540090799331665039e+00
1.910000000000000000e+02 4.902671813964843750e+01 -1.442944622039794922e+01 4.849436283111572266e+00 2.194866657257080078e+00 2.113291025161743164e+00 2.641855239868164062e+00
1.920000000000000000e+02 5.185749053955078125e+01 -1.361277103424072266e+01 2.765481710433959961e+00 6.812862157821655273e-01 1.034030437469482422e+00 2.102310657501220703e+00
1.930000000000000000e+02 5.425104141235351562e+01 -1.369380569458007812e+01 1.144602060317993164e+00 4.002934396266937256e-01 4.634686410427093506e-01 1.255677700042724609e+00
1.940000000000000000e+02 5.446430206298828125e+01 -9.885919570922851562e+00 -3.537857234477996826e-01 1.539672255516052246e+00 3.557659685611724854e-01 2.331603050231933594e+00
1.950000000000000000e+02 5.270807266235351562e+01 -4.805690765380859375e+00 2.197529375553131104e-01 1.841443777084350586e+00 6.183590292930603027e-01 1.533990979194641113e+00
1.960000000000000000e+02 5.361290740966796875e+01 -3.821865320205688477e+00 1.655060648918151855e+00 2.413131713867187500e+00 1.220457673072814941e+00 1.973474264144897461e+00
1.970000000000000000e+02 5.206904602050781250e+01 -5.944911003112792969e+00 -1.398219466209411621e+00 1.479394078254699707e+00 2.435240149497985840e-02 1.855848550796508789e+00
1.980000000000000000e+02 5.034815597534179688e+01 -6.784448623657226562e+00 -2.071028470993041992e+00 4.680250287055969238e-01 -4.809010624885559082e-01 2.430413722991943359e+00
1.990000000000000000e+02 4.918663024902343750e+01 -5.357917308807373047e+00 -5.413522720336914062e+00 -3.276523947715759277e-01 -1.722352623939514160e+00 1.078041672706604004e+00
2.000000000000000000e+02 4.902070617675781250e+01 -6.505528926849365234e+00 -2.808867692947387695e+00 -3.709219992160797119e-01 -9.539368748664855957e-01 1.730190396308898926e+00
2.010000000000000000e+02 4.642086410522460938e+01 -4.765804290771484375e+00 -5.612456798553466797e+00 -4.295467436313629150e-01 -1.812601089477539062e+00 1.571204423904418945e+00
2.020000000000000000e+02 4.505781936645507812e+01 -4.384191513061523438e+00 -5.375470638275146484e+00 -4.612627923488616943e-01 -1.751019954681396484e+00 1.519863247871398926e+00
2.030000000000000000e+02 4.185057830810546875e+01 -7.457084655761718750e+00 -1.424937963485717773e+00 2.315074354410171509e-01 -3.580291569232940674e-01 -3.908368051052093506e-01
2.040000000000000000e+02 4.426633834838867188e+01 -1.197099781036376953e+01 1.062347650527954102e+00 1.882318019866943359e+00 8.833997249603271484e-01 5.470387637615203857e-02
2.050000000000000000e+02 4.511610412597656250e+01 -1.281145095825195312e+01 1.445265412330627441e+00 2.406367301940917969e+00 1.155489802360534668e+00 2.795097231864929199e-01
2.060000000000000000e+02 4.433444213867187500e+01 -1.701177024841308594e+01 3.424572944641113281e+00 4.585656166076660156e+00 2.403068542480468750e+00 1.301077008247375488e+00
2.070000000000000000e+02 4.511708450317382812e+01 -1.805845451354980469e+01 3.419440746307373047e+00 7.846711635589599609e+00 3.379845619201660156e+00 2.623753309249877930e+00
2.080000000000000000e+02 3.489661026000976562e+01 -1.099202442169189453e+01 1.544685363769531250e+00 1.716218113899230957e+00 9.782710671424865723e-01 -1.462006568908691406e+00
2.090000000000000000e+02 3.467642593383789062e+01 -1.239471054077148438e+01 1.241871118545532227e+00 2.067327499389648438e+00 9.927595853805541992e-01 -1.485240817070007324e+00
2.100000000000000000e+02 3.659669876098632812e+01 -1.638881683349609375e+01 4.051727950572967529e-01 1.553200334310531616e-01 1.681478470563888550e-01 -6.958898305892944336e-01
2.110000000000000000e+02 4.136026382446289062e+01 -1.943185806274414062e+01 1.734812736511230469e+00 3.069935560226440430e+00 1.441424489021301270e+00 8.349508643150329590e-01
2.120000000000000000e+02 4.544038009643554688e+01 -2.334482574462890625e+01 3.325643241405487061e-01 6.941197395324707031e+00 2.182128429412841797e+00 -3.942645192146301270e-01
2.130000000000000000e+02 4.562088394165039062e+01 -2.476370048522949219e+01 5.899455547332763672e-01 5.639523506164550781e+00 1.868840694427490234e+00 -9.984185099601745605e-01
2.140000000000000000e+02 4.541851425170898438e+01 -2.192129516601562500e+01 1.699931472539901733e-01 7.185731410980224609e+00 2.206717491149902344e+00 2.163483202457427979e-01
2.150000000000000000e+02 3.558785629272460938e+01 -1.917585563659667969e+01 6.716234982013702393e-02 -1.211363434791564941e+00 -3.432603180408477783e-01 7.386508584022521973e-02
2.160000000000000000e+02 3.559676361083984375e+01 -2.057400512695312500e+01 1.727148331701755524e-02 -8.921666145324707031e-01 -2.624685466289520264e-01 1.737202405929565430e-01
2.170000000000000000e+02 3.952098083496093750e+01 -2.279103469848632812e+01 9.136475920677185059e-01 2.021487474441528320e+00 8.805405497550964355e-01 1.193095088005065918e+00
2.180000000000000000e+02 4.424582672119140625e+01 -2.482601356506347656e+01 5.910129547119140625e-01 4.492232322692871094e+00 1.524973511695861816e+00 2.158052027225494385e-01
2.190000000000000000e+02 4.709483337402343750e+01 -2.994263267517089844e+01 -1.352895796298980713e-01 1.951912283897399902e+00 5.449868440628051758e-01 -4.817576706409454346e-01
2.200000000000000000e+02 4.852150726318359375e+01 -2.881462669372558594e+01 5.003576874732971191e-01 7.698190808296203613e-01 3.810530304908752441e-01 -6.429371833801269531e-01
2.210000000000000000e+02 5.187657165527343750e+01 -3.233846282958984375e+01 -5.076838424429297447e-04 2.077394276857376099e-01 6.216952577233314514e-02 -2.258574217557907104e-01
2.220000000000000000e+02 5.579977035522460938e+01 -3.805470657348632812e+01 1.090940013527870178e-01 1.864915788173675537e-01 8.867567032575607300e-02 -3.370508551597595215e-02
2.230000000000000000e+02 5.694649124145507812e+01 -4.103825759887695312e+01 1.289838403463363647e-01 1.662932634353637695e-01 8.858313411474227905e-02 -5.378969945013523102e-03
2.240000000000000000e+02 6.137266921997070312e+01 -4.072236633300781250e+01 1.083195582032203674e-01 1.098876446485519409e-02 3.579249605536460876e-02 1.305288076400756836e-02
2.250000000000000000e+02 6.448751831054687500e+01 -3.923736953735351562e+01 6.292587518692016602e-02 -7.188792806118726730e-03 1.672112569212913513e-02 3.125656396150588989e-02
2.260000000000000000e+02 6.616976165771484375e+01 -3.682007980346679688e+01 2.013905905187129974e-02 -1.367071270942687988e-02 1.940504182130098343e-03 4.360818117856979370e-02
2.270000000000000000e+02 6.418750000000000000e+01 -3.497841644287109375e+01 -1.007587066851556301e-03 3.211231669411063194e-03 6.610933924093842506e-04 5.746800452470779419e-02
2.280000000000000000e+02 6.775783538818359375e+01 -3.077481269836425781e+01 -3.120510093867778778e-02 9.759772568941116333e-03 -6.433598697185516357e-03 2.079137414693832397e-02
2.290000000000000000e+02 6.626540374755859375e+01 -2.685974311828613281e+01 -2.858323790132999420e-02 -1.816493604565039277e-04 -8.629466407001018524e-03 -2.310956362634897232e-03
2.300000000000000000e+02 6.817358398437500000e+01 -2.186666870117187500e+01 -2.325128763914108276e-03 1.405180664733052254e-03 -2.759844064712524414e-04 1.475065015256404877e-03
2.310000000000000000e+02 6.848367309570312500e+01 -1.883067703247070312e+01 -8.239189046435058117e-04 1.892227563075721264e-03 3.204926033504307270e-04 1.362862996757030487e-03
2.320000000000000000e+02 7.409681701660156250e+01 -2.166459846496582031e+01 -1.409966265782713890e-03 -1.375531894154846668e-03 -8.356494945473968983e-04 5.587837076745927334e-04
2.330000000000000000e+02 7.956805419921875000e+01 -1.994924163818359375e+01 5.743980291299521923e-04 8.152534137479960918e-04 4.168954328633844852e-04 -3.403087612241506577e-04
2.340000000000000000e+02 7.901072692871093750e+01 -1.853027153015136719e+01 3.150734119117259979e-04 4.218009125906974077e-04 2.210623060818761587e-04 -4.613475466612726450e-04
2.350000000000000000e+02 7.750188446044921875e+01 -2.027948379516601562e+01 1.364870811812579632e-03 -1.359945890726521611e-04 3.686628770083189011e-04 -9.496172424405813217e-04
2.360000000000000000e+02 7.772707366943359375e+01 -1.838787841796875000e+01 7.152582402341067791e-04 1.600479117769282311e-05 2.193788968725129962e-04 -5.682687624357640743e-04
2.370000000000000000e+02 7.577983856201171875e+01 -1.823488044738769531e+01 2.226617361884564161e-04 -2.814095932990312576e-04 -1.762435385899152607e-05 -1.759756851242855191e-04
2.380000000000000000e+02 7.572415924072265625e+01 -1.897516250610351562e+01 3.609728009905666113e-04 1.924012394738383591e-05 1.140638778451830149e-04 -5.796193145215511322e-04
2.390000000000000000e+02 3.684186935424804688e+01 -2.190128517150878906e+01 3.911866247653961182e-01 5.866298675537109375e-01 2.933449447154998779e-01 8.373999595642089844e-01
2.400000000000000000e+02 4.058885574340820312e+01 -2.505196952819824219e+01 7.049858570098876953e-01 2.609721660614013672e+00 9.944122433662414551e-01 1.178664445877075195e+00
2.410000000000000000e+02 4.249736785888671875e+01 -3.016567611694335938e+01 -3.558405116200447083e-02 2.412701845169067383e+00 7.131353616714477539e-01 4.467051625251770020e-01
2.420000000000000000e+02 4.456373596191406250e+01 -3.522881698608398438e+01 -2.113069593906402588e-01 1.672744512557983398e+00 4.384312629699707031e-01 -5.275432392954826355e-02
2.430000000000000000e+02 4.768268966674804688e+01 -3.848693084716796875e+01 -1.066927313804626465e-01 1.144961714744567871e+00 3.114807009696960449e-01 -1.393602937459945679e-01
2.440000000000000000e+02 5.227030944824218750e+01 -4.120146560668945312e+01 5.583825334906578064e-02 5.492515563964843750e-01 1.815269440412521362e-01 -3.851743414998054504e-02
2.450000000000000000e+02 3.535077285766601562e+01 -2.329510116577148438e+01 4.511794447898864746e-01 4.801414906978607178e-01 2.793962955474853516e-01 6.151131391525268555e-01
2.460000000000000000e+02 3.430801773071289062e+01 -2.767617416381835938e+01 8.008669018745422363e-01 9.603662490844726562e-01 5.283699631690979004e-01 8.028220534324645996e-01
2.470000000000000000e+02 3.412575149536132812e+01 -2.955734825134277344e+01 7.982271313667297363e-01 1.004236340522766113e+00 5.407389998435974121e-01 6.865262389183044434e-01
2.480000000000000000e+02 3.285924530029296875e+01 -3.787184524536132812e+01 2.999684214591979980e-01 1.235906958580017090e+00 4.607626199722290039e-01 1.949808150529861450e-01
2.490000000000000000e+02 3.235047912597656250e+01 -4.088010406494140625e+01 2.244838923215866089e-01 1.246840476989746094e+00 4.413973093032836914e-01 5.394507199525833130e-02
2.500000000000000000e+02 3.684703445434570312e+01 -4.113269042968750000e+01 2.566527575254440308e-02 1.502396464347839355e+00 4.584185183048248291e-01 5.693101882934570312e-02
2.510000000000000000e+02 3.654583740234375000e+01 -3.852572631835937500e+01 7.371046394109725952e-02 1.496766090393066406e+00 4.711429476737976074e-01 1.856047958135604858e-01
2.520000000000000000e+02 3.722804260253906250e+01 -3.585084152221679688e+01 1.510588675737380981e-01 1.537205219268798828e+00 5.064792037010192871e-01 3.414119482040405273e-01
2.530000000000000000e+02 3.931812667846679688e+01 -3.188639831542968750e+01 1.776928752660751343e-01 1.841943979263305664e+00 6.058910489082336426e-01 6.145458817481994629e-01
2.540000000000000000e+02 4.009345626831054688e+01 -2.706622695922851562e+01 5.346351265907287598e-01 2.209077835083007812e+00 8.231139183044433594e-01 1.093679428100585938e+00
2.550000000000000000e+02 3.612522888183593750e+01 -2.867694854736328125e+01 7.156561613082885742e-01 1.253357648849487305e+00 5.907041430473327637e-01 8.965149521827697754e-01
2.560000000000000000e+02 6.100674867630004883e-01 -1.210607528686523438e+01 -6.095017772167921066e-03 6.646446138620376587e-02 1.811083219945430756e-02 -4.564742371439933777e-02
2.570000000000000000e+02 3.005083799362182617e+00 -1.070937347412109375e+01 -9.115124493837356567e-02 -4.042432084679603577e-02 -3.947266936302185059e-02 -1.281439363956451416e-01
2.580000000000000000e+02 8.589162826538085938e+00 -1.061868762969970703e+01 -4.694615006446838379e-01 -1.810202747583389282e-01 -1.951445341110229492e-01 -2.792312800884246826e-01
2.590000000000000000e+02 1.077239894866943359e+01 -1.158891296386718750e+01 -7.165535092353820801e-01 -2.950961589813232422e-01 -3.034949004650115967e-01 -4.170722067356109619e-01
2.600000000000000000e+02 1.634303092956542969e+01 -1.280413627624511719e+01 -1.762308359146118164e+00 -1.400523304939270020e+00 -9.488494992256164551e-01 -1.300137758255004883e+00
2.610000000000000000e+02 2.088927268981933594e+01 -6.570003509521484375e+00 -5.367684960365295410e-01 -3.948866426944732666e-01 -2.794965505599975586e-01 -6.678282618522644043e-01
2.620000000000000000e+02 2.411945724487304688e+01 -2.479492187500000000e+00 -5.442734360694885254e-01 1.476175189018249512e-01 -1.189967766404151917e-01 -5.116067528724670410e-01
2.630000000000000000e+02 2.436943817138671875e+01 -9.579862356185913086e-01 -2.950439751148223877e-01 6.532812118530273438e-02 -6.891475617885589600e-02 -4.823992848396301270e-01
2.640000000000000000e+02 2.439113426208496094e+01 -1.960736066102981567e-01 -8.574482798576354980e-01 9.694905579090118408e-02 -2.281497716903686523e-01 -7.916896939277648926e-01
2.650000000000000000e+02 3.143439769744873047e+00 -1.347487258911132812e+01 -9.080245345830917358e-02 -2.019957005977630615e-01 -8.783944696187973022e-02 -2.777339816093444824e-01
2.660000000000000000e+02 1.044866275787353516e+01 -1.483013725280761719e+01 -6.189664602279663086e-01 -3.267479836940765381e-01 -2.837143540382385254e-01 -7.436397075653076172e-01
2.670000000000000000e+02 1.353400611877441406e+01 -1.433486080169677734e+01 -9.054502248764038086e-01 -8.087243437767028809e-01 -5.142523646354675293e-01 -7.544991374015808105e-01
2.680000000000000000e+02 1.551492881774902344e+01 -1.386067104339599609e+01 -1.118603587150573730e+00 -1.663137435913085938e+00 -8.345223069190979004e-01 -1.243408679962158203e+00
2.690000000000000000e+02 1.936604690551757812e+01 -1.029222393035888672e+01 -1.264597415924072266e+00 -4.995440840721130371e-01 -5.292424559593200684e-01 -8.274697065353393555e-01
2.700000000000000000e+02 2.303965950012207031e+01 -9.479859352111816406e+00 -8.063533902168273926e-01 -1.521707326173782349e-01 -2.875572443008422852e-01 -4.735624492168426514e-01
2.710000000000000000e+02 2.581153488159179688e+01 -9.439557075500488281e+00 -6.487474441528320312e-01 -2.631940245628356934e-01 -2.735824286937713623e-01 -4.654209017753601074e-01
2.720000000000000000e+02 2.699995613098144531e+01 -8.781805992126464844e+00 -5.723825693130493164e-01 -2.932347655296325684e-01 -2.596851885318756104e-01 -3.634966909885406494e-01
2.730000000000000000e+02 2.748073005676269531e+01 -6.056876659393310547e+00 -5.888109095394611359e-03 4.036742448806762695e-02 1.034379471093416214e-02 -1.194696068763732910e+00
2.740000000000000000e+02 2.685447120666503906e+01 -2.165706157684326172e+00 -9.563126564025878906e-01 5.498941540718078613e-01 -1.219255551695823669e-01 -1.225820899009704590e+00
2.750000000000000000e+02 2.492398071289062500e+01 -1.971670985221862793e+00 -5.960620641708374023e-01 5.920885801315307617e-01 -1.192052150145173073e-03 -4.092131257057189941e-01
2.760000000000000000e+02 2.531672096252441406e+01 -2.543326377868652344e+00 -7.852962017059326172e-01 7.318406105041503906e-01 -1.603668369352817535e-02 -6.583708524703979492e-01
2.770000000000000000e+02 2.430492782592773438e+01 -1.762556552886962891e+00 -4.333507418632507324e-01 1.933196634054183960e-01 -7.200932502746582031e-02 -3.730015754699707031e-01
2.780000000000000000e+02 8.670900344848632812e+00 -1.710410118103027344e+01 -2.124348431825637817e-01 -3.925580978393554688e-01 -1.814978867769241333e-01 -8.268455862998962402e-01
2.790000000000000000e+02 1.294982433319091797e+01 -1.652293777465820312e+01 -4.873262345790863037e-01 -6.209465861320495605e-01 -3.324818313121795654e-01 -8.219054341316223145e-01
2.800000000000000000e+02 1.435223293304443359e+01 -1.651189422607421875e+01 -2.942523658275604248e-01 -1.164601206779479980e+00 -4.376561045646667480e-01 -5.279055237770080566e-01
2.810000000000000000e+02 1.473875808715820312e+01 -1.509807491302490234e+01 -7.101589441299438477e-01 -1.591995477676391602e+00 -6.906463503837585449e-01 -8.925604224205017090e-01
2.820000000000000000e+02 2.254592704772949219e+01 -2.943890762329101562e+01 1.457309246063232422e+00 5.759280323982238770e-01 6.099711656570434570e-01 -6.792761683464050293e-01
2.830000000000000000e+02 2.137352561950683594e+01 -2.861845207214355469e+01 1.280553340911865234e+00 7.213817834854125977e-01 6.005805730819702148e-01 -8.471581339836120605e-01
2.840000000000000000e+02 1.912695503234863281e+01 -2.679333496093750000e+01 1.043415427207946777e+00 8.611005544662475586e-01 5.713548064231872559e-01 -8.973880410194396973e-01
2.850000000000000000e+02 1.936244773864746094e+01 -3.190886116027832031e+01 6.284286379814147949e-01 6.253364086151123047e-01 3.761295080184936523e-01 -3.487949669361114502e-01
2.860000000000000000e+02 1.998875808715820312e+01 -3.692106246948242188e+01 3.185579478740692139e-01 6.072580218315124512e-01 2.777447998523712158e-01 -1.499709784984588623e-01
2.870000000000000000e+02 1.923429679870605469e+01 -3.972736358642578125e+01 2.187677174806594849e-01 5.555711984634399414e-01 2.323016673326492310e-01 -6.640396267175674438e-02
2.880000000000000000e+02 1.675491333007812500e+01 -4.116247558593750000e+01 1.290394663810729980e-01 3.278387784957885742e-01 1.370634734630584717e-01 -1.518271863460540771e-02
2.890000000000000000e+02 2.283269691467285156e+01 -4.081558227539062500e+01 2.799377441406250000e-01 7.445783615112304688e-01 3.073548376560211182e-01 -4.669485613703727722e-02
2.900000000000000000e+02 2.315316390991210938e+01 -3.761496734619140625e+01 3.724291920661926270e-01 7.673529386520385742e-01 3.419346511363983154e-01 -1.121291071176528931e-01
2.910000000000000000e+02 2.487281417846679688e+01 -3.004124069213867188e+01 1.447351217269897461e+00 2.398968636989593506e-01 5.061743855476379395e-01 -2.871946394443511963e-01
2.920000000000000000e+02 2.377198791503906250e+01 -3.081089401245117188e+01 1.243280887603759766e+00 5.133869051933288574e-01 5.270003080368041992e-01 -4.116589725017547607e-01
2.930000000000000000e+02 1.723947334289550781e+01 -2.956779289245605469e+01 6.751961708068847656e-01 5.551851987838745117e-01 3.691143989562988281e-01 -4.624637961387634277e-01
2.940000000000000000e+02 2.026487731933593750e+01 -2.771066093444824219e+01 1.111724615097045898e+00 7.759218811988830566e-01 5.662939548492431641e-01 -8.747125864028930664e-01
2.950000000000000000e+02 1.716231346130371094e+01 -2.466427230834960938e+01 9.163479804992675781e-01 1.016378521919250488e+00 5.798179507255554199e-01 -9.275482296943664551e-01
2.960000000000000000e+02 1.518483734130859375e+01 -2.266711425781250000e+01 7.668508291244506836e-01 9.398943781852722168e-01 5.120235681533813477e-01 -8.266556859016418457e-01
2.970000000000000000e+02 1.439690208435058594e+01 -2.146848678588867188e+01 5.984544754028320312e-01 7.985193133354187012e-01 4.190921485424041748e-01 -6.511940360069274902e-01
2.980000000000000000e+02 1.420484542846679688e+01 -1.920242500305175781e+01 1.270499825477600098e-01 1.419072151184082031e-01 8.068715780973434448e-02 -3.586213886737823486e-01
2.990000000000000000e+02 1.116687297821044922e+01 -1.876416587829589844e+01 7.294077891856431961e-03 -3.736100494861602783e-01 -1.098947897553443909e-01 -9.159409999847412109e-01
3.000000000000000000e+02 1.221995925903320312e+01 -2.139797401428222656e+01 6.226640343666076660e-01 -1.302643567323684692e-01 1.477199047803878784e-01 -7.859898805618286133e-01
3.010000000000000000e+02 1.021079444885253906e+01 -2.234038734436035156e+01 4.607650935649871826e-01 -4.382353127002716064e-01 6.758934818208217621e-03 -7.016034722328186035e-01
3.020000000000000000e+02 1.019686222076416016e+01 -2.100494194030761719e+01 3.774248659610748291e-01 -4.163216650485992432e-01 -1.166903693228960037e-02 -8.229161500930786133e-01
3.030000000000000000e+02 9.281348228454589844e+00 -2.678604698181152344e+01 3.740581870079040527e-01 -5.586711168289184570e-01 -5.538387969136238098e-02 -3.922031223773956299e-01
3.040000000000000000e+02 9.658727645874023438e+00 -2.929247856140136719e+01 3.122708499431610107e-01 -5.155298113822937012e-01 -6.097767874598503113e-02 -2.653918862342834473e-01
3.050000000000000000e+02 8.964633941650390625e+00 -3.282785415649414062e+01 1.735481768846511841e-01 -6.426084637641906738e-01 -1.407180875539779663e-01 -1.483037918806076050e-01
3.060000000000000000e+02 9.229825973510742188e+00 -3.543795776367187500e+01 1.137536391615867615e-01 -6.231433749198913574e-01 -1.528169065713882446e-01 -8.463943004608154297e-02
3.070000000000000000e+02 8.987776756286621094e+00 -3.821913909912109375e+01 5.395958572626113892e-02 -7.181627750396728516e-01 -1.992609500885009766e-01 -4.074383527040481567e-02
3.080000000000000000e+02 8.103937149047851562e+00 -4.107349014282226562e+01 1.686644926667213440e-02 -8.642456531524658203e-01 -2.542137503623962402e-01 -8.920148946344852448e-03
3.090000000000000000e+02 1.249444484710693359e+01 -4.116148376464843750e+01 6.652584671974182129e-02 -1.821295469999313354e-01 -3.468110784888267517e-02 -1.862239278852939606e-02
3.100000000000000000e+02 1.259370040893554688e+01 -3.822454071044921875e+01 1.003589406609535217e-01 -1.553684026002883911e-01 -1.650284044444561005e-02 -6.454011797904968262e-02
3.110000000000000000e+02 1.225021648406982422e+01 -3.512170028686523438e+01 1.781005114316940308e-01 -1.904186606407165527e-01 -3.695443039759993553e-03 -1.075749993324279785e-01
3.120000000000000000e+02 1.146573352813720703e+01 -3.230216979980468750e+01 2.561274170875549316e-01 -2.792640924453735352e-01 -6.941002327948808670e-03 -1.715229898691177368e-01
3.130000000000000000e+02 1.064760398864746094e+01 -2.741312980651855469e+01 4.360277056694030762e-01 -3.198904097080230713e-01 3.484118357300758362e-02 -3.666248321533203125e-01
3.140000000000000000e+02 1.140409851074218750e+01 -2.388955879211425781e+01 5.827102065086364746e-01 -2.468928545713424683e-01 1.007452011108398438e-01 -5.950921177864074707e-01
3.150000000000000000e+02 1.281915950775146484e+01 -2.379833793640136719e+01 6.297671794891357422e-01 5.073593556880950928e-02 2.041509300470352173e-01 -5.351495742797851562e-01
3.160000000000000000e+02 1.004986763000488281e+01 -2.380282211303710938e+01 4.660973250865936279e-01 -4.319602251052856445e-01 1.024112850427627563e-02 -5.836927890777587891e-01
3.170000000000000000e+02 1.431859207153320312e+01 -1.792308998107910156e+01 -6.987687945365905762e-02 -5.331053137779235840e-01 -1.808946430683135986e-01 -2.444305866956710815e-01
3.180000000000000000e+02 3.337601089477539062e+01 7.542644977569580078e+00 8.667712658643722534e-02 5.238873481750488281e+00 1.597665190696716309e+00 -5.673402547836303711e-01
3.190000000000000000e+02 3.588921737670898438e+01 2.361670494079589844e+00 -4.520909190177917480e-01 -6.302657723426818848e-01 -3.247070014476776123e-01 -1.665375351905822754e+00
3.200000000000000000e+02 3.656890487670898438e+01 2.550661802291870117e+00 -3.309980630874633789e-01 -8.091428875923156738e-01 -3.420422971248626709e-01 -1.694716572761535645e+00
3.210000000000000000e+02 3.459485626220703125e+01 9.188392639160156250e+00 7.867331057786941528e-02 2.842427015304565430e+00 8.763300776481628418e-01 -3.781842291355133057e-01
3.220000000000000000e+02 3.776232910156250000e+01 1.323384952545166016e+01 -1.215682774782180786e-01 -4.891818761825561523e-01 -1.832250505685806274e-01 7.205323874950408936e-02
3.230000000000000000e+02 3.656475448608398438e+01 1.882701110839843750e+01 3.117476776242256165e-02 3.561969399452209473e-01 1.162115186452865601e-01 3.107932806015014648e-01
3.240000000000000000e+02 3.559576797485351562e+01 2.032332801818847656e+01 1.140066795051097870e-02 5.712640285491943359e-01 1.747994124889373779e-01 2.848527133464813232e-01
3.250000000000000000e+02 3.637884902954101562e+01 2.428475189208984375e+01 -4.993223771452903748e-02 3.315843641757965088e-01 8.449564129114151001e-02 2.794121503829956055e-01
3.260000000000000000e+02 3.710585784912109375e+01 2.924033927917480469e+01 -5.673050507903099060e-02 2.097966670989990234e-01 4.591985046863555908e-02 1.876970976591110229e-01
3.270000000000000000e+02 3.609375762939453125e+01 3.117273330688476562e+01 -7.455767691135406494e-02 2.530876100063323975e-01 5.355897918343544006e-02 1.353205591440200806e-01
3.280000000000000000e+02 3.597611236572265625e+01 3.388314819335937500e+01 -6.233806163072586060e-02 2.362862825393676758e-01 5.218446999788284302e-02 9.700962901115417480e-02
3.290000000000000000e+02 3.638043594360351562e+01 3.711745071411132812e+01 -4.059598967432975769e-02 1.982583850622177124e-01 4.729871824383735657e-02 6.089384481310844421e-02
3.300000000000000000e+02 3.705308151245117188e+01 4.064586257934570312e+01 -2.740891464054584503e-02 1.847152262926101685e-01 4.719189181923866272e-02 1.496600080281496048e-02
3.310000000000000000e+02 3.251977539062500000e+01 4.093978881835937500e+01 -6.700021773576736450e-02 2.382117360830307007e-01 5.136345326900482178e-02 1.099865324795246124e-02
3.320000000000000000e+02 3.252179336547851562e+01 3.775820541381835938e+01 -7.388956844806671143e-02 2.538531422615051270e-01 5.398907512426376343e-02 2.701556310057640076e-02
3.330000000000000000e+02 3.241502380371093750e+01 3.455127334594726562e+01 -8.928850293159484863e-02 2.933955490589141846e-01 6.123211234807968140e-02 4.655383899807929993e-02
3.340000000000000000e+02 3.411421585083007812e+01 2.703742599487304688e+01 -1.098995506763458252e-01 4.544489979743957520e-01 1.033648326992988586e-01 1.583358943462371826e-01
3.350000000000000000e+02 3.253722381591796875e+01 2.195329093933105469e+01 5.666658282279968262e-03 9.544442892074584961e-01 2.880332767963409424e-01 4.832473397254943848e-02
3.360000000000000000e+02 3.281167984008789062e+01 2.047380065917968750e+01 8.007390052080154419e-02 1.118318557739257812e+00 3.595177233219146729e-01 1.180842518806457520e-02
3.370000000000000000e+02 3.087105751037597656e+01 1.724143218994140625e+01 3.901793658733367920e-01 2.397002220153808594e+00 8.361544609069824219e-01 -9.006077051162719727e-01
3.380000000000000000e+02 3.791595077514648438e+01 7.505888462066650391e+00 -5.550390481948852539e-01 -2.001203060150146484e+00 -7.668725848197937012e-01 -9.107099771499633789e-01
3.390000000000000000e+02 3.894386291503906250e+01 3.340643405914306641e+00 6.342027336359024048e-04 -1.499437808990478516e+00 -4.496410787105560303e-01 -6.871139407157897949e-01
3.400000000000000000e+02 3.955959320068359375e+01 3.548081159591674805e+00 -2.362680435180664062e-02 -1.780842661857604980e+00 -5.413408279418945312e-01 -9.298791736364364624e-02
3.410000000000000000e+02 3.726681518554687500e+01 2.760660648345947266e+00 -2.671250402927398682e-01 -8.892589211463928223e-01 -3.469151854515075684e-01 -1.572243809700012207e+00
3.420000000000000000e+02 3.883192062377929688e+01 7.040452957153320312e+00 -3.348995149135589600e-01 -3.768496513366699219e+00 -1.231018781661987305e+00 -7.008227109909057617e-01
3.430000000000000000e+02 3.932007980346679688e+01 8.076405525207519531e+00 -5.570587515830993652e-01 -4.684290409088134766e+00 -1.572404742240905762e+00 -1.061741590499877930e+00
3.440000000000000000e+02 3.980423736572265625e+01 9.332460403442382812e+00 -9.350921511650085449e-01 -4.434083461761474609e+00 -1.610752701759338379e+00 -1.613466620445251465e+00
3.450000000000000000e+02 4.050461959838867188e+01 1.050024223327636719e+01 -1.041883587837219238e+00 -3.534502029418945312e+00 -1.372915625572204590e+00 -1.879625439643859863e+00
3.460000000000000000e+02 4.037876510620117188e+01 1.207368183135986328e+01 -6.904560923576354980e-01 -2.459495067596435547e+00 -9.449853897094726562e-01 -1.083357453346252441e+00
3.470000000000000000e+02 3.957059478759765625e+01 1.878669357299804688e+01 -3.750937432050704956e-02 -4.814767837524414062e-01 -1.556958556175231934e-01 1.279892176389694214e-01
3.480000000000000000e+02 3.917933273315429688e+01 2.006752777099609375e+01 -1.070638466626405716e-02 -2.646877169609069824e-01 -8.261822909116744995e-02 2.040327787399291992e-01
3.490000000000000000e+02 3.931183624267578125e+01 2.570681381225585938e+01 -1.644016802310943604e-02 1.062374096363782883e-03 -4.613338038325309753e-03 2.250833064317703247e-01
3.500000000000000000e+02 3.939078903198242188e+01 3.300955963134765625e+01 -6.296836305409669876e-03 1.057859137654304504e-01 2.984672412276268005e-02 1.108528003096580505e-01
3.510000000000000000e+02 3.985218811035156250e+01 3.613307189941406250e+01 -3.728915704414248466e-03 1.333712488412857056e-01 3.889270126819610596e-02 6.042423099279403687e-02
3.520000000000000000e+02 4.064611053466796875e+01 3.937420272827148438e+01 1.069937832653522491e-02 1.334827542304992676e-01 4.325463995337486267e-02 2.163097262382507324e-02
3.530000000000000000e+02 4.318033981323242188e+01 4.098777008056640625e+01 8.922893553972244263e-03 1.506963223218917847e-01 4.788576439023017883e-02 5.857090000063180923e-03
3.540000000000000000e+02 4.089762878417968750e+01 1.312467670440673828e+01 -6.747903227806091309e-01 -2.111493825912475586e+00 -8.358852267265319824e-01 -9.481796026229858398e-01
3.550000000000000000e+02 4.137245178222656250e+01 1.529870796203613281e+01 -3.923627734184265137e-01 -1.463857531547546387e+00 -5.568661093711853027e-01 -5.815478563308715820e-01
3.560000000000000000e+02 4.341053009033203125e+01 1.710808181762695312e+01 -4.597994685173034668e-01 -1.130191087722778320e+00 -4.769971668720245361e-01 -6.095495223999023438e-01
3.570000000000000000e+02 4.229591751098632812e+01 1.962880706787109375e+01 -1.659638583660125732e-01 -7.305544614791870117e-01 -2.689554989337921143e-01 -1.372849047183990479e-01
3.580000000000000000e+02 4.290424346923828125e+01 2.457402038574218750e+01 -4.865256324410438538e-02 -3.500881791114807129e-01 -1.196222230792045593e-01 5.235711485147476196e-02
3.590000000000000000e+02 4.290979385375976562e+01 2.653984069824218750e+01 1.026460528373718262e-02 -2.430874407291412354e-01 -6.984685361385345459e-02 7.228969037532806396e-02
3.600000000000000000e+02 4.280114746093750000e+01 3.203433227539062500e+01 3.599535673856735229e-02 -7.902712561190128326e-03 8.427793160080909729e-03 4.970543831586837769e-02
3.610000000000000000e+02 4.319139480590820312e+01 3.512007522583007812e+01 3.153784573078155518e-02 6.549142301082611084e-02 2.910878136754035950e-02 1.362983975559473038e-02
3.620000000000000000e+02 4.362635803222656250e+01 3.806464004516601562e+01 1.712594181299209595e-02 1.320982575416564941e-01 4.476726055145263672e-02 8.970805793069303036e-04
3.630000000000000000e+02 4.501648330688476562e+01 1.621614646911621094e+01 -1.013739466667175293e+00 -9.620673060417175293e-01 -5.927420258522033691e-01 -9.658347964286804199e-01
3.640000000000000000e+02 4.606701660156250000e+01 1.705817794799804688e+01 -1.020304799079895020e+00 -8.568876385688781738e-01 -5.631577372550964355e-01 -8.786003589630126953e-01
3.650000000000000000e+02 4.769410705566406250e+01 2.011785507202148438e+01 -7.981644272804260254e-01 -5.661627650260925293e-01 -4.092981517314910889e-01 -5.318906903266906738e-01
3.660000000000000000e+02 4.441070175170898438e+01 2.411315345764160156e+01 -7.425195723772048950e-02 -4.333012104034423828e-01 -1.522659510374069214e-01 -3.395376726984977722e-02
3.670000000000000000e+02 4.565690994262695312e+01 2.840079689025878906e+01 3.333794325590133667e-02 -2.084158658981323242e-01 -5.252337455749511719e-02 -7.385212928056716919e-02
3.680000000000000000e+02 4.625316238403320312e+01 3.123439025878906250e+01 4.953045025467872620e-02 -7.763873785734176636e-02 -8.432486094534397125e-03 -9.162165224552154541e-02
3.690000000000000000e+02 4.656599044799804688e+01 3.433465194702148438e+01 3.539979085326194763e-02 6.959162652492523193e-02 3.149742633104324341e-02 -9.018038958311080933e-02
3.700000000000000000e+02 4.693269348144531250e+01 3.748350524902343750e+01 -5.072482745163142681e-04 1.660422980785369873e-01 4.966051504015922546e-02 -6.891997158527374268e-02
3.710000000000000000e+02 4.730935287475585938e+01 4.079524230957031250e+01 -2.256908826529979706e-02 2.292909175157546997e-01 6.201655045151710510e-02 -2.764118835330009460e-02
3.720000000000000000e+02 5.011615371704101562e+01 2.135648918151855469e+01 -7.542397975921630859e-01 -4.071846902370452881e-01 -3.484273254871368408e-01 -4.428320527076721191e-01
3.730000000000000000e+02 5.077031707763671875e+01 2.312571334838867188e+01 -4.281070530414581299e-01 -3.484534621238708496e-01 -2.329681664705276489e-01 -3.674792051315307617e-01
3.740000000000000000e+02 5.035742187500000000e+01 2.577701759338378906e+01 -9.294744580984115601e-02 -2.595849037170410156e-01 -1.057597026228904724e-01 -3.617701828479766846e-01
3.750000000000000000e+02 4.952474594116210938e+01 3.063356590270996094e+01 2.638211846351623535e-02 2.512681996449828148e-03 8.668440394103527069e-03 -2.644523084163665771e-01
3.760000000000000000e+02 4.982603836059570312e+01 3.361925506591796875e+01 -1.016937941312789917e-02 1.521860361099243164e-01 4.260499775409698486e-02 -2.128418087959289551e-01
3.770000000000000000e+02 5.091587829589843750e+01 3.960545349121093750e+01 -9.752093255519866943e-02 3.599027395248413086e-01 7.871453464031219482e-02 -7.561475038528442383e-02
3.780000000000000000e+02 5.337864303588867188e+01 4.108153915405273438e+01 -1.837290376424789429e-01 5.114992856979370117e-01 9.833107888698577881e-02 -5.551272630691528320e-02
3.790000000000000000e+02 5.194912338256835938e+01 2.058812522888183594e+01 -1.077242255210876465e+00 -1.924981027841567993e-01 -3.809221088886260986e-01 -4.264566898345947266e-01
3.800000000000000000e+02 5.388280868530273438e+01 2.329098320007324219e+01 -3.230739235877990723e-01 -1.471782773733139038e-01 -1.410756558179855347e-01 -3.948208689689636230e-01
3.810000000000000000e+02 5.249287033081054688e+01 3.014394569396972656e+01 -4.215116053819656372e-02 1.879701763391494751e-01 4.374570772051811218e-02 -4.407833218574523926e-01
3.820000000000000000e+02 5.299252700805664062e+01 3.284118652343750000e+01 -8.842729777097702026e-02 3.582570850849151611e-01 8.094893395900726318e-02 -3.747224211692810059e-01
3.830000000000000000e+02 5.355953216552734375e+01 3.565119552612304688e+01 -1.669891029596328735e-01 4.878792762756347656e-01 9.626704454421997070e-02 -2.618722617626190186e-01
3.840000000000000000e+02 5.404954528808593750e+01 3.836256408691406250e+01 -2.050775736570358276e-01 5.559550523757934570e-01 1.052632406353950500e-01 -1.725093871355056763e-01
3.850000000000000000e+02 5.457479476928710938e+01 2.153186416625976562e+01 -7.408680319786071777e-01 -7.230401039123535156e-02 -2.439516186714172363e-01 -3.369671702384948730e-01
3.860000000000000000e+02 5.900508499145507812e+01 2.670363998413085938e+01 -3.052395284175872803e-01 1.425964593887329102e+00 3.362175226211547852e-01 -8.929715752601623535e-01
3.870000000000000000e+02 5.600117874145507812e+01 3.184100532531738281e+01 -2.303876578807830811e-01 6.826493144035339355e-01 1.356784999370574951e-01 -4.986993670463562012e-01
3.880000000000000000e+02 5.690724945068359375e+01 3.466637802124023438e+01 -3.110117912292480469e-01 7.940443754196166992e-01 1.449097692966461182e-01 -3.568326532840728760e-01
3.890000000000000000e+02 5.775723648071289062e+01 3.776922225952148438e+01 -3.660025596618652344e-01 8.197634816169738770e-01 1.361282616853713989e-01 -1.825957596302032471e-01
3.900000000000000000e+02 5.784639739990234375e+01 4.094627761840820312e+01 -3.679200112819671631e-01 7.999159097671508789e-01 1.295987516641616821e-01 -4.888900741934776306e-02
3.910000000000000000e+02 5.907688522338867188e+01 2.193791770935058594e+01 1.026433587074279785e+00 8.977028131484985352e-01 5.772408843040466309e-01 -1.102969169616699219e+00
3.920000000000000000e+02 6.032740783691406250e+01 2.552321052551269531e+01 -3.690972626209259033e-01 1.887335419654846191e+00 4.554714262485504150e-01 -7.555765509605407715e-01
3.930000000000000000e+02 6.010149765014648438e+01 3.338750076293945312e+01 -4.756039679050445557e-01 1.122667551040649414e+00 1.941190659999847412e-01 -2.944404780864715576e-01
3.940000000000000000e+02 6.109628295898437500e+01 3.648592376708984375e+01 -4.835393428802490234e-01 1.041970849037170410e+00 1.675294637680053711e-01 -1.203536242246627808e-01
3.950000000000000000e+02 6.346480941772460938e+01 3.826785659790039062e+01 -4.876971542835235596e-01 9.793616533279418945e-01 1.474993526935577393e-01 -4.628917668014764786e-03
3.960000000000000000e+02 6.265735244750976562e+01 4.102949142456054688e+01 -4.654495120048522949e-01 9.353400468826293945e-01 1.409671604633331299e-01 -1.260267663747072220e-02
3.970000000000000000e+02 6.184840011596679688e+01 2.098810386657714844e+01 1.100798964500427246e+00 4.183898448944091797e+00 1.585409283638000488e+00 -1.324401617050170898e+00
3.980000000000000000e+02 6.403063201904296875e+01 1.689870834350585938e+01 8.993726372718811035e-01 5.477244377136230469e+00 1.912985086441040039e+00 -3.786833882331848145e-01
3.990000000000000000e+02 6.767295837402343750e+01 1.216825485229492188e+01 8.132938742637634277e-01 2.889436244964599609e+00 1.110818982124328613e+00 2.857398986816406250e-01
4.000000000000000000e+02 7.062464904785156250e+01 1.175640487670898438e+01 6.548753380775451660e-01 1.089859008789062500e+00 5.234202742576599121e-01 1.615235507488250732e-01
4.010000000000000000e+02 7.936020660400390625e+01 5.331352710723876953e+00 2.220759540796279907e-02 -3.211394786834716797e+00 -9.567561745643615723e-01 -7.426039874553680420e-02
4.020000000000000000e+02 7.933844757080078125e+01 6.730650424957275391e+00 -2.323311520740389824e-03 -3.374295711517333984e+00 -1.012985706329345703e+00 -5.395511910319328308e-02
4.030000000000000000e+02 7.809104156494140625e+01 5.284644603729248047e+00 3.774888068437576294e-02 -2.522213935852050781e+00 -7.453395128250122070e-01 -2.393391281366348267e-01
4.040000000000000000e+02 7.804714202880859375e+01 1.087876796722412109e+01 4.252142831683158875e-02 -2.794662714004516602e+00 -8.256424069404602051e-01 4.008832853287458420e-03
4.050000000000000000e+02 7.553787231445312500e+01 1.222707939147949219e+01 2.172847092151641846e-01 -1.412638902664184570e+00 -3.586062788963317871e-01 1.112134382128715515e-01
4.060000000000000000e+02 7.160922241210937500e+01 1.671477890014648438e+01 4.665082693099975586e-01 6.124622821807861328e-01 3.236911594867706299e-01 6.047089695930480957e-01
4.070000000000000000e+02 6.668012237548828125e+01 1.874951553344726562e+01 7.272634506225585938e-01 3.019469499588012695e+00 1.124019861221313477e+00 4.873333871364593506e-01
4.080000000000000000e+02 6.374087524414062500e+01 2.232092475891113281e+01 1.490835398435592651e-01 3.497390031814575195e+00 1.093942046165466309e+00 -9.457355737686157227e-02
4.090000000000000000e+02 6.187388992309570312e+01 1.940012931823730469e+01 1.471406459808349609e+00 5.755871295928955078e+00 2.168183326721191406e+00 -2.029166460037231445e+00
4.100000000000000000e+02 6.228155517578125000e+01 1.807715606689453125e+01 8.794488906860351562e-01 7.356405735015869141e+00 2.470756292343139648e+00 -1.527786374092102051e+00
4.110000000000000000e+02 6.269375228881835938e+01 1.358699607849121094e+01 3.182072937488555908e-01 7.277341365814208984e+00 2.278664588928222656e+00 2.888159453868865967e-01
4.120000000000000000e+02 6.272715759277343750e+01 1.512090587615966797e+01 2.808236479759216309e-01 7.181482315063476562e+00 2.238691806793212891e+00 -1.148467957973480225e-01
4.130000000000000000e+02 6.214057540893554688e+01 1.076290225982666016e+01 3.142633736133575439e-01 7.573413848876953125e+00 2.366303205490112305e+00 1.084643483161926270e+00
4.140000000000000000e+02 6.298291015625000000e+01 9.146938323974609375e+00 8.080173134803771973e-01 6.069667816162109375e+00 2.063305377960205078e+00 1.134005427360534668e+00
4.150000000000000000e+02 6.150323867797851562e+01 8.126037597656250000e+00 5.607851147651672363e-01 7.083853721618652344e+00 2.293391704559326172e+00 1.953076720237731934e+00
4.160000000000000000e+02 6.121277999877929688e+01 6.897072792053222656e+00 1.112964510917663574e+00 6.799793243408203125e+00 2.373827219009399414e+00 2.307551145553588867e+00
4.170000000000000000e+02 6.428643035888671875e+01 4.520318031311035156e+00 1.059190630912780762e+00 3.536258697509765625e+00 1.378634810447692871e+00 5.798320174217224121e-01
4.180000000000000000e+02 6.722953796386718750e+01 2.188987731933593750e+00 5.949576497077941895e-01 1.819583535194396973e+00 7.243623733520507812e-01 -2.539484202861785889e-01
4.190000000000000000e+02 7.329352569580078125e+01 -1.861695766448974609e+00 6.691275537014007568e-02 -2.971408367156982422e-01 -6.906842440366744995e-02 -8.478593230247497559e-01
4.200000000000000000e+02 7.559174346923828125e+01 -5.003216266632080078e+00 -6.525759398937225342e-02 -5.887029170989990234e-01 -1.961881518363952637e-01 -6.738573908805847168e-01
4.210000000000000000e+02 7.942852783203125000e+01 -9.977838516235351562e+00 -1.088582724332809448e-02 -2.879773378372192383e-01 -8.965895324945449829e-02 -6.422311067581176758e-02
4.220000000000000000e+02 7.940058135986328125e+01 -5.881055355072021484e+00 -2.362912055104970932e-03 -9.787686467170715332e-01 -2.943394780158996582e-01 -1.176856011152267456e-01
4.230000000000000000e+02 7.681488800048828125e+01 -4.702980041503906250e+00 -4.448615759611129761e-02 -8.075793981552124023e-01 -2.556196749210357666e-01 -5.595970749855041504e-01
4.240000000000000000e+02 7.798229980468750000e+01 -3.154042005538940430e+00 -7.817973382771015167e-03 -1.275932669639587402e+00 -3.851251900196075439e-01 -4.036986231803894043e-01
4.250000000000000000e+02 7.512251281738281250e+01 -1.443183898925781250e+00 5.099136382341384888e-02 -7.733668684959411621e-01 -2.167126536369323730e-01 -7.406368255615234375e-01
4.260000000000000000e+02 7.343520355224609375e+01 1.579021096229553223e+00 2.226427942514419556e-01 -3.814645707607269287e-01 -4.764653742313385010e-02 -7.164204716682434082e-01
4.270000000000000000e+02 6.600354766845703125e+01 6.545459747314453125e+00 9.336394667625427246e-01 3.188337802886962891e+00 1.236593127250671387e+00 2.800129055976867676e-01
4.280000000000000000e+02 6.605918121337890625e+01 1.019063663482666016e+01 8.761405348777770996e-01 3.773304462432861328e+00 1.394833445549011230e+00 3.896118402481079102e-01
4.290000000000000000e+02 6.259973144531250000e+01 8.024428367614746094e+00 9.430676102638244629e-01 6.259794235229492188e+00 2.160858392715454102e+00 1.579430341720581055e+00
4.300000000000000000e+02 6.046426773071289062e+01 4.911172866821289062e+00 1.851514577865600586e+00 5.683172702789306641e+00 2.260406255722045898e+00 2.734486818313598633e+00
4.310000000000000000e+02 5.963726806640625000e+01 3.857866764068603516e+00 1.829851150512695312e+00 4.393094062805175781e+00 1.866883516311645508e+00 2.777572870254516602e+00
4.320000000000000000e+02 6.351601028442382812e+01 1.842610120773315430e+00 7.911447286605834961e-01 3.063513040542602539e+00 1.156397342681884766e+00 5.915942192077636719e-01
4.330000000000000000e+02 6.879843139648437500e+01 -3.454920530319213867e+00 2.077429555356502533e-02 6.046308279037475586e-01 1.876215487718582153e-01 -7.365404367446899414e-01
4.340000000000000000e+02 7.131188201904296875e+01 -5.768305778503417969e+00 -2.444856911897659302e-01 1.431614905595779419e-01 -3.039726056158542633e-02 -8.505476117134094238e-01
4.350000000000000000e+02 7.602011108398437500e+01 -7.404373645782470703e+00 -1.135726124048233032e-01 -4.183931350708007812e-01 -1.595897227525711060e-01 -5.437590479850769043e-01
4.360000000000000000e+02 7.956855773925781250e+01 -1.312267589569091797e+01 -4.505454562604427338e-03 -3.486695140600204468e-02 -1.181172206997871399e-02 -1.677668653428554535e-02
4.370000000000000000e+02 7.944116973876953125e+01 -8.633975028991699219e+00 -1.704685273580253124e-03 -4.739721715450286865e-01 -1.427030563354492188e-01 -8.159990608692169189e-02
4.380000000000000000e+02 5.981404876708984375e+01 1.869582653045654297e+00 1.271589279174804688e+00 3.760960102081298828e+00 1.509764790534973145e+00 2.111571550369262695e+00
4.390000000000000000e+02 6.179784393310546875e+01 4.149163141846656799e-02 8.414837718009948730e-01 2.853368282318115234e+00 1.108455657958984375e+00 9.757451415061950684e-01
4.400000000000000000e+02 6.109936523437500000e+01 -2.596171140670776367e+00 5.587208271026611328e-01 2.278501749038696289e+00 8.511667847633361816e-01 8.701442480087280273e-01
4.410000000000000000e+02 6.035733032226562500e+01 -8.126151084899902344e+00 -6.761499643325805664e-01 1.199012160301208496e+00 1.568586379289627075e-01 8.418390750885009766e-01
4.420000000000000000e+02 6.141634368896484375e+01 -1.172693729400634766e+01 -1.957136511802673340e+00 3.456225395202636719e-01 -4.834541976451873779e-01 1.571756005287170410e-01
4.430000000000000000e+02 5.834036254882812500e+01 -1.422382545471191406e+01 -6.633303165435791016e-01 3.418745473027229309e-02 -1.887428611516952515e-01 6.958484649658203125e-02
4.440000000000000000e+02 6.089686203002929688e+01 -1.339704418182373047e+01 -1.303884506225585938e+00 -1.008228138089179993e-01 -4.214121997356414795e-01 -3.340754806995391846e-01
4.450000000000000000e+02 5.916235733032226562e+01 -1.269193172454833984e+01 -9.822197556495666504e-01 3.731565475463867188e-01 -1.827189624309539795e-01 2.892410755157470703e-01
4.460000000000000000e+02 6.327423095703125000e+01 -1.215822601318359375e+01 -3.211697340011596680e+00 -4.446059167385101318e-01 -1.096890926361083984e+00 -4.520595967769622803e-01
4.470000000000000000e+02 6.607398223876953125e+01 -1.127472972869873047e+01 -1.791559100151062012e+00 -1.227796729654073715e-02 -5.411511659622192383e-01 -4.824602901935577393e-01
4.480000000000000000e+02 6.537208557128906250e+01 -1.232042884826660156e+01 -2.847111463546752930e+00 -4.686756730079650879e-01 -9.947361350059509277e-01 4.733087420463562012e-01
4.490000000000000000e+02 6.555525970458984375e+01 -6.813652992248535156e+00 -3.779607713222503662e-01 5.425305962562561035e-01 4.937095567584037781e-02 -4.097337424755096436e-01
4.500000000000000000e+02 6.270689773559570312e+01 -2.606834888458251953e+00 4.254396855831146240e-01 1.955214023590087891e+00 7.141961455345153809e-01 4.852771162986755371e-01
4.510000000000000000e+02 6.449392700195312500e+01 9.524541497230529785e-01 7.056615948677062988e-01 2.443608999252319336e+00 9.447811245918273926e-01 2.804497182369232178e-01
4.520000000000000000e+02 5.997829437255859375e+01 -2.277499064803123474e-02 1.152782320976257324e+00 3.068871974945068359e+00 1.266496300697326660e+00 1.631932497024536133e+00
4.530000000000000000e+02 5.878704833984375000e+01 2.769939422607421875e+00 1.767581939697265625e+00 3.845675230026245117e+00 1.683977127075195312e+00 2.532010555267333984e+00
4.540000000000000000e+02 5.795204925537109375e+01 1.658296346664428711e+00 1.554907560348510742e+00 3.539938449859619141e+00 1.528453826904296875e+00 2.430681705474853516e+00
4.550000000000000000e+02 5.754698181152343750e+01 -3.162918090820312500e+00 9.159322977066040039e-01 2.660310745239257812e+00 1.072872877120971680e+00 1.519860744476318359e+00
4.560000000000000000e+02 5.647211837768554688e+01 -2.440017223358154297e+00 1.357985615730285645e+00 2.955503463745117188e+00 1.294046759605407715e+00 1.899981617927551270e+00
4.570000000000000000e+02 5.625363159179687500e+01 -7.768028259277343750e+00 -5.878000259399414062e-01 2.065451860427856445e+00 4.432955086231231689e-01 1.821437358856201172e+00
4.580000000000000000e+02 5.756400299072265625e+01 -1.192767620086669922e+01 -5.375626087188720703e-01 7.213200330734252930e-01 5.512722581624984741e-02 9.916837811470031738e-01
4.590000000000000000e+02 5.429166793823242188e+01 -1.474746894836425781e+01 1.357103347778320312e+00 1.309355795383453369e-01 4.464116692543029785e-01 5.094634890556335449e-01
4.600000000000000000e+02 4.246422195434570312e+01 -3.541628837585449219e+00 -4.608860015869140625e+00 -1.223735570907592773e+00 -1.749778747558593750e+00 1.863020062446594238e+00
4.610000000000000000e+02 4.136594009399414062e+01 -3.460299968719482422e+00 -3.471348047256469727e+00 -9.136545658111572266e-01 -1.315500736236572266e+00 1.301907181739807129e+00
4.620000000000000000e+02 4.007653808593750000e+01 -1.220033740997314453e+01 1.173321008682250977e+00 8.829416632652282715e-01 6.168788075447082520e-01 -1.301987051963806152e+00
4.630000000000000000e+02 3.865072631835937500e+01 -1.386588954925537109e+01 1.217351555824279785e+00 8.452169895172119141e-01 6.187705993652343750e-01 -1.447144985198974609e+00
4.640000000000000000e+02 4.017914199829101562e+01 -2.808297872543334961e+00 -2.896012783050537109e+00 1.004585530608892441e-02 -8.657900691032409668e-01 8.883669376373291016e-01
4.650000000000000000e+02 3.738338088989257812e+01 -1.532815098762512207e+00 -1.957517623901367188e+00 4.370014965534210205e-01 -4.561548531055450439e-01 6.138351559638977051e-01
4.660000000000000000e+02 3.721888351440429688e+01 -7.809214115142822266e+00 -2.015295028686523438e-01 6.678650975227355957e-01 1.399006843566894531e-01 -6.853690147399902344e-01
4.670000000000000000e+02 3.461425781250000000e+01 -7.741755962371826172e+00 3.906516432762145996e-01 1.206476926803588867e+00 4.791385531425476074e-01 -6.648512482643127441e-01
4.680000000000000000e+02 3.661045455932617188e+01 -8.674130439758300781e+00 3.498457670211791992e-01 8.045684099197387695e-01 3.463242352008819580e-01 -7.893872857093811035e-01
4.690000000000000000e+02 4.051651382446289062e+01 -5.956781506538391113e-01 -3.505054414272308350e-01 -9.184257984161376953e-01 -3.806793689727783203e-01 5.338723659515380859e-01
4.700000000000000000e+02 3.935003662109375000e+01 -7.643811702728271484e-01 -1.223651289939880371e+00 -5.362918972969055176e-02 -3.831841349601745605e-01 7.190846204757690430e-01
4.710000000000000000e+02 4.035002517700195312e+01 -1.445661664009094238e+00 -1.453636288642883301e+00 -8.640593886375427246e-01 -6.953086853027343750e-01 1.122456073760986328e+00
4.720000000000000000e+02 3.974054718017578125e+01 -2.069079637527465820e+00 -2.456263780593872070e+00 -8.924317359924316406e-02 -7.636520862579345703e-01 1.214850306510925293e+00
4.730000000000000000e+02 2.124761772155761719e+01 -1.799501419067382812e+00 -5.140796899795532227e-01 -4.012965857982635498e-01 -2.746128737926483154e-01 -6.442108750343322754e-01
4.740000000000000000e+02 2.117004585266113281e+01 -1.086514949798583984e+00 -6.762624382972717285e-01 -3.782058954238891602e-01 -3.163405060768127441e-01 -6.488748192787170410e-01
4.750000000000000000e+02 1.883743858337402344e+01 -1.480310320854187012e+00 -4.106592535972595215e-01 -2.092549353837966919e-01 -1.859742552042007446e-01 -4.554509520530700684e-01
4.760000000000000000e+02 1.418059253692626953e+01 -1.801051259040832520e+00 3.997535631060600281e-02 -6.369786709547042847e-02 -7.116753142327070236e-03 -1.224796250462532043e-01
4.770000000000000000e+02 1.113323974609375000e+01 -1.853618383407592773e+00 1.417183429002761841e-01 -2.787532657384872437e-02 3.415290638804435730e-02 2.376001561060547829e-03
4.780000000000000000e+02 7.316149234771728516e+00 -1.850885987281799316e+00 1.272926032543182373e-01 -5.420218687504529953e-03 3.656171634793281555e-02 6.085703521966934204e-02
4.790000000000000000e+02 5.804442405700683594e+00 -1.824282288551330566e+00 1.000935286283493042e-01 -1.611666404642164707e-03 2.954455837607383728e-02 6.716986000537872314e-02
4.800000000000000000e+02 5.670159459114074707e-01 -6.518086910247802734e+00 -2.417603274807333946e-03 1.771171241998672485e-01 5.240985378623008728e-02 1.438799500465393066e-02
4.810000000000000000e+02 1.703609585762023926e+00 -8.017771720886230469e+00 -2.096361480653285980e-02 1.054631322622299194e-01 2.534985542297363281e-02 3.156167920678853989e-03
4.820000000000000000e+02 5.767517089843750000e-01 -9.306704521179199219e+00 -4.213598556816577911e-03 1.946448087692260742e-01 5.712936073541641235e-02 -1.033510640263557434e-02
4.830000000000000000e+02 1.792189002037048340e+00 -1.072173690795898438e+01 -3.403374552726745605e-02 3.262138366699218750e-02 -4.237092507537454367e-04 -7.972076535224914551e-02
4.840000000000000000e+02 5.051527023315429688e+00 -1.835152864456176758e+00 8.261533826589584351e-02 1.011627027764916420e-03 2.508808858692646027e-02 6.740334630012512207e-02
4.850000000000000000e+02 4.194199144840240479e-01 -2.194516658782958984e+00 2.437843708321452141e-03 2.815601602196693420e-02 9.178157895803451538e-03 1.101537793874740601e-02
4.860000000000000000e+02 5.520531535148620605e-01 -3.621308088302612305e+00 4.684666637331247330e-03 8.027701824903488159e-02 2.548850700259208679e-02 2.203934639692306519e-02
4.870000000000000000e+02 1.868268489837646484e+00 -1.349318599700927734e+01 -3.448376432061195374e-02 -1.533498018980026245e-01 -5.635007098317146301e-02 -1.813856363296508789e-01
4.880000000000000000e+02 1.854782462120056152e+00 -1.628597640991210938e+01 -2.178482152521610260e-02 -4.414123594760894775e-01 -1.389591544866561890e-01 -2.591868340969085693e-01
4.890000000000000000e+02 1.869743704795837402e+00 -2.044305992126464844e+01 1.407797075808048248e-02 -9.748311042785644531e-01 -2.882259488105773926e-01 -2.749128937721252441e-01
4.900000000000000000e+02 7.279635071754455566e-01 -2.759302139282226562e+01 1.015684846788644791e-02 -1.905149340629577637e+00 -5.684977173805236816e-01 -4.651863873004913330e-02
4.910000000000000000e+02 2.167965173721313477e+00 -2.743825912475585938e+01 3.230507299304008484e-02 -1.608930945396423340e+00 -4.729877710342407227e-01 -1.477193981409072876e-01
4.920000000000000000e+02 7.156695723533630371e-01 -3.479954910278320312e+01 -9.190084412693977356e-03 -2.109365701675415039e+00 -6.355667710304260254e-01 -1.826102472841739655e-02
4.930000000000000000e+02 6.018295884132385254e-01 -3.604854202270507812e+01 2.758195810019969940e-02 -2.126993656158447266e+00 -6.298235654830932617e-01 6.961294449865818024e-03
4.940000000000000000e+02 1.286268353462219238e+00 -4.006719207763671875e+01 4.090245813131332397e-02 -1.954958558082580566e+00 -5.742168426513671875e-01 6.484521925449371338e-02
4.950000000000000000e+02 4.910058498382568359e+00 -4.027211380004882812e+01 -1.196674909442663193e-02 -1.433136940002441406e+00 -4.335311055183410645e-01 -6.744538247585296631e-02
4.960000000000000000e+02 6.118685245513916016e+00 -3.782453155517578125e+01 3.316384181380271912e-02 -1.123961329460144043e+00 -3.272392451763153076e-01 -4.912613332271575928e-02
4.970000000000000000e+02 7.663653492927551270e-01 -3.733960723876953125e+01 5.376060027629137039e-03 -2.078032255172729492e+00 -6.217968463897705078e-01 3.515712544322013855e-02
4.980000000000000000e+02 2.006880760192871094e+00 -4.162773895263671875e+01 -7.757806777954101562e-02 -1.922915220260620117e+00 -6.001480221748352051e-01 2.195500396192073822e-02
4.990000000000000000e+02 1.618428802490234375e+01 -3.843516921997070312e+01 1.665575951337814331e-01 2.386031597852706909e-01 1.215482205152511597e-01 -8.524819463491439819e-02
5.000000000000000000e+02 1.488837242126464844e+01 -3.393759536743164062e+01 2.842431664466857910e-01 1.449726521968841553e-01 1.287647485733032227e-01 -1.847950518131256104e-01
5.010000000000000000e+02 1.569310283660888672e+01 -3.043063545227050781e+01 5.175001621246337891e-01 3.212805688381195068e-01 2.516342103481292725e-01 -3.428730368614196777e-01
5.020000000000000000e+02 1.698287391662597656e+01 -2.815396118164062500e+01 7.113916277885437012e-01 6.380276083946228027e-01 4.048257768154144287e-01 -5.899754166603088379e-01
5.030000000000000000e+02 2.747449111938476562e+01 -4.079200363159179688e+01 3.253635168075561523e-01 1.009084939956665039e+00 4.003345370292663574e-01 1.919267326593399048e-02
5.040000000000000000e+02 2.671010780334472656e+01 -3.746290206909179688e+01 4.485616385936737061e-01 8.793266415596008301e-01 3.983664810657501221e-01 -9.704623371362686157e-03
5.050000000000000000e+02 3.222012329101562500e+01 -2.948539543151855469e+01 9.078047871589660645e-01 8.391983509063720703e-01 5.241009593009948730e-01 5.870644450187683105e-01
5.060000000000000000e+02 3.235585021972656250e+01 -2.719001388549804688e+01 8.128061294555664062e-01 8.546717762947082520e-01 5.002433657646179199e-01 7.904081344604492188e-01
5.070000000000000000e+02 2.822334289550781250e+01 -3.125477218627929688e+01 1.090281844139099121e+00 3.569085896015167236e-01 4.341571331024169922e-01 1.849854886531829834e-01
5.080000000000000000e+02 2.961801910400390625e+01 -3.603952026367187500e+01 5.065867304801940918e-01 9.674687981605529785e-01 4.422166645526885986e-01 1.302676051855087280e-01
5.090000000000000000e+02 2.936878395080566406e+01 -3.256466674804687500e+01 8.233815431594848633e-01 7.299091219902038574e-01 4.659872055053710938e-01 2.386728227138519287e-01
5.100000000000000000e+02 3.016088104248046875e+01 -2.895635414123535156e+01 1.254837155342102051e+00 5.538292527198791504e-01 5.425999164581298828e-01 6.196627616882324219e-01
5.110000000000000000e+02 3.337377166748046875e+01 -2.625237655639648438e+01 7.540933489799499512e-01 8.978934884071350098e-01 4.955960512161254883e-01 8.017619252204895020e-01
5.120000000000000000e+02 3.437410354614257812e+01 -2.538118934631347656e+01 7.042894959449768066e-01 8.707697391510009766e-01 4.725177586078643799e-01 7.799635529518127441e-01
5.130000000000000000e+02 3.951032257080078125e+01 -3.969543838500976562e+01 -6.948974728584289551e-02 1.575935244560241699e+00 4.519336521625518799e-01 9.654408693313598633e-02
5.140000000000000000e+02 4.051741027832031250e+01 -3.669864273071289062e+01 -8.466012030839920044e-02 1.704451799392700195e+00 4.859375059604644775e-01 2.183553725481033325e-01
5.150000000000000000e+02 4.166559600830078125e+01 -3.391742324829101562e+01 -1.029862761497497559e-01 1.920548319816589355e+00 5.452685952186584473e-01 3.026280999183654785e-01
5.160000000000000000e+02 4.051799392700195312e+01 -2.969469833374023438e+01 2.196832299232482910e-01 2.187736511230468750e+00 7.222259640693664551e-01 7.838551998138427734e-01
5.170000000000000000e+02 4.301821899414062500e+01 -4.089783477783203125e+01 -1.585304588079452515e-01 1.533461332321166992e+00 4.124792516231536865e-01 1.408574264496564865e-02
5.180000000000000000e+02 4.387898635864257812e+01 -3.787907791137695312e+01 -1.887402385473251343e-01 1.582472801208496094e+00 4.181197583675384521e-01 7.614769972860813141e-03
5.190000000000000000e+02 4.756087112426757812e+01 -4.117001342773437500e+01 -1.109504029154777527e-01 1.136245012283325195e+00 3.075883686542510986e-01 -4.595755040645599365e-02
5.200000000000000000e+02 6.797813415527343750e+01 -4.093576812744140625e+01 5.088167637586593628e-02 -2.479783073067665100e-02 7.825152948498725891e-03 1.406466588377952576e-02
5.210000000000000000e+02 6.881573486328125000e+01 -3.802947235107421875e+01 2.603607811033725739e-02 -1.378325186669826508e-02 3.675847779959440231e-03 3.174661844968795776e-02
5.220000000000000000e+02 6.734449768066406250e+01 -3.472222900390625000e+01 -4.134449642151594162e-03 -2.120373392244800925e-05 -1.246695988811552525e-03 4.066561162471771240e-02
5.230000000000000000e+02 7.146337890625000000e+01 -3.186801338195800781e+01 -1.362330280244350433e-02 1.329167396761476994e-03 -3.688240656629204750e-03 2.090469375252723694e-02
5.240000000000000000e+02 7.045568084716796875e+01 -2.651728630065917969e+01 -1.392511278390884399e-02 3.868924977723509073e-04 -4.061466082930564880e-03 4.214374348521232605e-03
5.250000000000000000e+02 6.913729858398437500e+01 -2.223480415344238281e+01 2.803012903314083815e-04 1.064212992787361145e-03 4.033542936667799950e-04 -9.721094393171370029e-04
5.260000000000000000e+02 7.216050720214843750e+01 -4.112734603881835938e+01 1.883397810161113739e-02 -2.455200999975204468e-02 -1.715409453026950359e-03 3.178610000759363174e-03
5.270000000000000000e+02 7.181290435791015625e+01 -3.835564422607421875e+01 2.001196332275867462e-02 -2.243804372847080231e-02 -7.278241682797670364e-04 2.071870490908622742e-02
5.280000000000000000e+02 7.302263641357421875e+01 -3.328433227539062500e+01 -5.166374612599611282e-03 -5.648690741509199142e-03 -3.244519699364900589e-03 2.089709974825382233e-02
5.290000000000000000e+02 7.385409545898437500e+01 -3.119492340087890625e+01 -7.254143711179494858e-03 -3.922029864042997360e-03 -3.352852072566747665e-03 1.536132209002971649e-02
5.300000000000000000e+02 7.393933868408203125e+01 -2.834062576293945312e+01 -8.421365171670913696e-03 -1.577464630827307701e-03 -2.999649150297045708e-03 8.987830020487308502e-03
5.310000000000000000e+02 7.604470062255859375e+01 -2.281235694885253906e+01 -1.744048553518950939e-03 -1.275321410503238440e-04 -5.614742403849959373e-04 5.047601880505681038e-04
5.320000000000000000e+02 7.473554992675781250e+01 -2.554527664184570312e+01 -4.620940890163183212e-03 2.240678441012278199e-04 -1.319061964750289917e-03 2.151744440197944641e-03
5.330000000000000000e+02 7.524155426025390625e+01 -4.047195053100585938e+01 7.011127192527055740e-03 -2.517913095653057098e-02 -5.450401455163955688e-03 8.230693638324737549e-03
5.340000000000000000e+02 7.423806762695312500e+01 -3.833185958862304688e+01 7.208141032606363297e-03 -2.090976759791374207e-02 -4.110487643629312515e-03 1.145099569112062454e-02
5.350000000000000000e+02 7.478410339355468750e+01 -3.667851638793945312e+01 6.852559745311737061e-03 -2.234427444636821747e-02 -4.647514782845973969e-03 1.457912195473909378e-02
5.360000000000000000e+02 7.796618652343750000e+01 -2.968280220031738281e+01 4.107962886337190866e-04 -6.714888382703065872e-03 -1.891227671876549721e-03 5.149831529706716537e-03
5.370000000000000000e+02 7.931201934814453125e+01 -2.822566986083984375e+01 1.645320327952504158e-03 -2.542031928896903992e-03 -2.690134861040860415e-04 1.259974786080420017e-03
5.380000000000000000e+02 7.807482910156250000e+01 -2.547794342041015625e+01 -2.205619821324944496e-03 -6.347484304569661617e-04 -8.521105046384036541e-04 1.364579191431403160e-03
5.390000000000000000e+02 7.935891723632812500e+01 -2.548816299438476562e+01 1.285170437768101692e-03 7.338635623455047607e-04 6.057102000340819359e-04 3.971371043007820845e-04
5.400000000000000000e+02 7.800875091552734375e+01 -4.167567443847656250e+01 2.023696200922131538e-03 -4.000468924641609192e-02 -1.139429770410060883e-02 5.902769626118242741e-04
5.410000000000000000e+02 7.875514221191406250e+01 -4.018320465087890625e+01 -7.354553672485053539e-04 -3.919878229498863220e-02 -1.198027096688747406e-02 1.582425204105675220e-03
5.420000000000000000e+02 7.927819824218750000e+01 -3.759228515625000000e+01 -3.218073397874832153e-04 -3.429817780852317810e-02 -1.038599573075771332e-02 1.909541315399110317e-03
5.430000000000000000e+02 7.763758850097656250e+01 -3.831568908691406250e+01 1.513297087512910366e-03 -3.187684342265129089e-02 -9.109064005315303802e-03 5.747265648096799850e-03
5.440000000000000000e+02 7.797689056396484375e+01 -3.484050750732421875e+01 2.175292233005166054e-03 -2.287405170500278473e-02 -6.209627725183963776e-03 8.668412454426288605e-03
5.450000000000000000e+02 7.938896179199218750e+01 -3.228605651855468750e+01 -2.242287388071417809e-03 -1.405912917107343674e-02 -4.890425130724906921e-03 2.358065452426671982e-03
5.460000000000000000e+02 7.434863281250000000e+01 -1.818686294555664062e+01 3.024451725650578737e-04 -1.722673187032341957e-04 3.905336052412167192e-05 -3.421115980017930269e-04
5.470000000000000000e+02 7.292469787597656250e+01 -1.817803001403808594e+01 -4.581193570629693568e-05 3.051072126254439354e-04 7.778857980156317353e-05 -3.129274118691682816e-04
5.480000000000000000e+02 6.954663085937500000e+01 -2.121075820922851562e+01 -1.612348831258714199e-03 -1.052032224833965302e-03 -7.993142935447394848e-04 1.048321952112019062e-03
5.490000000000000000e+02 7.231571960449218750e+01 -1.896561241149902344e+01 -8.898556116037070751e-04 3.750763135030865669e-04 -1.544337865198031068e-04 -9.878395940177142620e-05
5.500000000000000000e+02 6.880939483642578125e+01 -2.320865821838378906e+01 -5.084270145744085312e-03 -4.550921730697154999e-04 -1.661808579228818417e-03 -7.919808267615735531e-04
5.510000000000000000e+02 6.650188446044921875e+01 -2.476939773559570312e+01 -8.610922843217849731e-03 -4.353649448603391647e-03 -3.889371640980243683e-03 -7.748261123197153211e-05
5.520000000000000000e+02 6.549232482910156250e+01 -2.562708473205566406e+01 -8.281119167804718018e-03 2.338543767109513283e-03 -1.782772596925497055e-03 -9.546531364321708679e-03
5.530000000000000000e+02 6.451413726806640625e+01 -2.660832214355468750e+01 -2.700020186603069305e-02 -1.141767669469118118e-02 -1.152536366134881973e-02 -5.847468040883541107e-03
5.540000000000000000e+02 6.352227401733398438e+01 -2.765135765075683594e+01 -4.406414180994033813e-02 -2.311595249921083450e-03 -1.391272060573101044e-02 -2.511397562921047211e-02
5.550000000000000000e+02 6.109755325317382812e+01 -2.939079284667968750e+01 -1.423931717872619629e-01 -1.419645035639405251e-03 -4.314384236931800842e-02 -3.433012589812278748e-02
5.560000000000000000e+02 6.565455627441406250e+01 -3.048838424682617188e+01 -4.827510938048362732e-02 1.475206110626459122e-02 -1.005691476166248322e-02 1.837594434618949890e-02
5.570000000000000000e+02 6.433012390136718750e+01 -3.178318405151367188e+01 -5.774871632456779480e-02 1.218000333756208420e-02 -1.367061398923397064e-02 4.221623018383979797e-02
5.580000000000000000e+02 6.185977554321289062e+01 -3.116065406799316406e+01 -1.026309877634048462e-01 3.802524646744132042e-03 -2.964854054152965546e-02 3.671476244926452637e-02
5.590000000000000000e+02 6.227315521240234375e+01 -3.645839691162109375e+01 4.188140481710433960e-02 -5.038209259510040283e-03 1.105295959860086441e-02 5.350343137979507446e-02
5.600000000000000000e+02 5.947558975219726562e+01 -3.741262817382812500e+01 7.879915088415145874e-02 3.147634118795394897e-02 3.308264911174774170e-02 4.437506198883056641e-02
5.610000000000000000e+02 5.237267684936523438e+01 -3.057213401794433594e+01 -2.770785093307495117e-01 5.038342997431755066e-02 -6.800852715969085693e-02 -1.912024430930614471e-02
5.620000000000000000e+02 5.098956680297851562e+01 -3.007452774047851562e+01 -1.163029000163078308e-01 6.074554100632667542e-02 -1.666720770299434662e-02 -9.492986649274826050e-02
5.630000000000000000e+02 4.743438720703125000e+01 -2.810196685791015625e+01 6.681438684463500977e-01 1.943024873733520508e+00 7.833506464958190918e-01 -9.608384370803833008e-01
5.640000000000000000e+02 4.598967742919921875e+01 -2.613118934631347656e+01 5.555602312088012695e-01 3.837791204452514648e+00 1.318005442619323730e+00 -1.129427313804626465e+00
5.650000000000000000e+02 6.647475433349609375e+01 -1.305479526519775391e+01 -1.217708826065063477e+00 -1.964435875415802002e-01 -4.242457449436187744e-01 6.034031510353088379e-01
5.660000000000000000e+02 6.687162017822265625e+01 -8.723818778991699219e+00 -7.864922285079956055e-01 2.313923239707946777e-01 -1.665299832820892334e-01 -6.070771217346191406e-01
5.670000000000000000e+02 6.703763580322265625e+01 -7.194688320159912109e+00 -4.737712740898132324e-01 4.290863573551177979e-01 -1.340547576546669006e-02 -6.440630555152893066e-01
5.680000000000000000e+02 6.676099395751953125e+01 -3.899829864501953125e+00 3.939338028430938721e-02 9.353944659233093262e-01 2.924363613128662109e-01 -4.972181916236877441e-01
5.690000000000000000e+02 6.880664825439453125e+01 -1.305036926269531250e+01 -8.201895952224731445e-01 1.712354272603988647e-01 -1.946862488985061646e-01 4.565608501434326172e-02
5.700000000000000000e+02 6.919348144531250000e+01 -1.390850543975830078e+01 -5.795769691467285156e-01 1.102655977010726929e-01 -1.407934129238128662e-01 9.511540830135345459e-02
5.710000000000000000e+02 7.047635650634765625e+01 -1.459107494354248047e+01 -4.102708101272583008e-01 6.077162548899650574e-02 -1.048497557640075684e-01 2.263849414885044098e-02
5.720000000000000000e+02 7.201244354248046875e+01 -1.449094390869140625e+01 -3.360552489757537842e-01 4.115030169486999512e-02 -8.847147971391677856e-02 -5.633395165205001831e-02
5.730000000000000000e+02 7.434207916259765625e+01 -1.442797183990478516e+01 -2.149329781532287598e-01 -5.317652830854058266e-04 -6.463942676782608032e-02 -1.067961826920509338e-01
5.740000000000000000e+02 7.506257629394531250e+01 -1.123665237426757812e+01 -2.499130815267562866e-01 -8.393628895282745361e-02 -1.001548096537590027e-01 -3.455088138580322266e-01
5.750000000000000000e+02 7.239112854003906250e+01 -1.112783432006835938e+01 -4.940971732139587402e-01 1.142852604389190674e-01 -1.139435768127441406e-01 -3.941633403301239014e-01
5.760000000000000000e+02 7.147786712646484375e+01 -6.676053524017333984e+00 -2.932679951190948486e-01 1.246350258588790894e-01 -5.058988556265830994e-02 -8.285763263702392578e-01
5.770000000000000000e+02 7.512058258056640625e+01 -1.443366241455078125e+01 -1.660242229700088501e-01 -8.256613276898860931e-03 -5.228425189852714539e-02 -1.061974763870239258e-01
5.780000000000000000e+02 7.932800292968750000e+01 -1.689991235733032227e+00 -3.438514890149235725e-03 -1.875667333602905273e+00 -5.637317299842834473e-01 -1.411517262458801270e-01
5.790000000000000000e+02 7.934174346923828125e+01 -2.836565077304840088e-01 1.302894204854965210e-02 -2.180298089981079102e+00 -6.501807570457458496e-01 -1.315845251083374023e-01
5.800000000000000000e+02 7.576376342773437500e+01 2.549803495407104492e+00 1.147656962275505066e-01 -1.277303576469421387e+00 -3.487613499164581299e-01 -5.696570873260498047e-01
5.810000000000000000e+02 7.043758392333984375e+01 4.584962368011474609e+00 5.444948077201843262e-01 8.015376329421997070e-01 4.038097262382507324e-01 -4.198134541511535645e-01
5.820000000000000000e+02 6.791495513916015625e+01 1.032490730285644531e+01 8.232641220092773438e-01 2.599043369293212891e+00 1.026692271232604980e+00 1.978694051504135132e-01
5.830000000000000000e+02 6.441246795654296875e+01 1.540578079223632812e+01 7.234805226325988770e-01 5.444907665252685547e+00 1.850516438484191895e+00 -2.193687483668327332e-02
5.840000000000000000e+02 6.240732955932617188e+01 1.214572238922119141e+01 2.136998027563095093e-01 7.367192745208740234e+00 2.274267673492431641e+00 7.287411093711853027e-01
5.850000000000000000e+02 7.795960998535156250e+01 -1.732558488845825195e+00 1.160418055951595306e-02 -1.494088292121887207e+00 -4.447452127933502197e-01 -3.992710709571838379e-01
5.860000000000000000e+02 7.814064788818359375e+01 3.895097255706787109e+00 3.361148014664649963e-02 -2.392780780792236328e+00 -7.077507972717285156e-01 -2.701421678066253662e-01
5.870000000000000000e+02 7.576786041259765625e+01 5.001436710357666016e+00 1.313188672065734863e-01 -1.474759936332702637e+00 -4.030323326587677002e-01 -4.331019520759582520e-01
5.880000000000000000e+02 7.099675750732421875e+01 8.878399848937988281e+00 6.249687671661376953e-01 8.176542520523071289e-01 4.327869117259979248e-01 -9.662383049726486206e-02
5.890000000000000000e+02 6.850045013427734375e+01 1.322202396392822266e+01 8.160532116889953613e-01 2.387424468994140625e+00 9.610432982444763184e-01 3.016146123409271240e-01
5.900000000000000000e+02 6.252634048461914062e+01 1.664135551452636719e+01 4.574077427387237549e-01 7.432934284210205078e+00 2.367102622985839844e+00 -6.949257850646972656e-01
5.910000000000000000e+02 7.935147857666015625e+01 1.092384052276611328e+01 1.778118312358856201e-02 -3.611360311508178711e+00 -1.078073740005493164e+00 4.606265574693679810e-03
5.920000000000000000e+02 7.812430572509765625e+01 1.364852905273437500e+01 4.421791061758995056e-02 -2.770848035812377930e+00 -8.179889917373657227e-01 1.261623501777648926e-01
5.930000000000000000e+02 7.540986633300781250e+01 1.754037475585937500e+01 1.673021763563156128e-01 -1.082848072052001953e+00 -2.746637761592864990e-01 5.243058204650878906e-01
5.940000000000000000e+02 6.942768096923828125e+01 1.855800628662109375e+01 5.193182229995727539e-01 1.613325238227844238e+00 6.397930383682250977e-01 7.133820652961730957e-01
5.950000000000000000e+02 6.705027008056640625e+01 2.165778160095214844e+01 2.146152853965759277e-01 2.477985620498657227e+00 8.077802658081054688e-01 6.883952617645263672e-01
5.960000000000000000e+02 6.348585128784179688e+01 2.681561660766601562e+01 -5.911076664924621582e-01 2.189684629440307617e+00 4.795730710029602051e-01 -9.140659868717193604e-02
5.970000000000000000e+02 6.320067977905273438e+01 2.463555526733398438e+01 -4.634399414062500000e-01 2.763291597366333008e+00 6.899554729461669922e-01 -2.227497547864913940e-01
5.980000000000000000e+02 7.937766265869140625e+01 1.511804771423339844e+01 9.986006654798984528e-03 -3.410533428192138672e+00 -1.020164251327514648e+00 7.101266086101531982e-02
5.990000000000000000e+02 7.805718231201171875e+01 1.782412147521972656e+01 3.532069548964500427e-02 -2.350604772567749023e+00 -6.945852637290954590e-01 2.904481887817382812e-01
6.000000000000000000e+02 7.314778900146484375e+01 2.152815628051757812e+01 1.107244044542312622e-01 9.569386392831802368e-02 6.192548200488090515e-02 8.381128311157226562e-01
6.010000000000000000e+02 7.286135101318359375e+01 2.308215332031250000e+01 2.136372029781341553e-02 2.817763388156890869e-01 9.094201773405075073e-02 8.841450214385986328e-01
6.020000000000000000e+02 6.780679321289062500e+01 2.707457923889160156e+01 -4.434645175933837891e-01 1.615858078002929688e+00 3.517180681228637695e-01 6.044329404830932617e-01
6.030000000000000000e+02 6.308983993530273438e+01 2.946028518676757812e+01 -6.181980371475219727e-01 1.705311536788940430e+00 3.261340558528900146e-01 -1.487844735383987427e-01
6.040000000000000000e+02 6.561112213134765625e+01 2.931464767456054688e+01 -6.021186113357543945e-01 1.636824250221252441e+00 3.104116916656494141e-01 2.083706706762313843e-01
6.050000000000000000e+02 7.935677337646484375e+01 1.792055320739746094e+01 1.128391828387975693e-02 -3.029395580291748047e+00 -9.054334759712219238e-01 1.101773008704185486e-01
6.060000000000000000e+02 7.787667083740234375e+01 2.201749420166015625e+01 1.339964941143989563e-02 -1.676743626594543457e+00 -4.990032017230987549e-01 4.071307778358459473e-01
6.070000000000000000e+02 7.462563323974609375e+01 2.458450126647949219e+01 -3.186482191085815430e-02 -2.780942022800445557e-01 -9.298770129680633545e-02 7.730202674865722656e-01
6.080000000000000000e+02 7.172476196289062500e+01 2.678606986999511719e+01 -2.228370606899261475e-01 6.442786455154418945e-01 1.264324635267257690e-01 8.184812068939208984e-01
6.090000000000000000e+02 6.822560119628906250e+01 3.113775634765625000e+01 -5.202615261077880859e-01 1.208024263381958008e+00 2.063288241624832153e-01 4.380903840065002441e-01
6.100000000000000000e+02 6.398437118530273438e+01 3.554983139038085938e+01 -5.343216657638549805e-01 1.119333386421203613e+00 1.755035221576690674e-01 3.821394871920347214e-03
6.110000000000000000e+02 6.334077072143554688e+01 3.250816345214843750e+01 -5.814118385314941406e-01 1.359124183654785156e+00 2.333136796951293945e-01 -6.140445917844772339e-02
6.120000000000000000e+02 7.930158233642578125e+01 2.212196350097656250e+01 -2.061549457721412182e-04 -2.214890003204345703e+00 -6.645288467407226562e-01 1.478311568498611450e-01
6.130000000000000000e+02 7.782202911376953125e+01 2.340596771240234375e+01 -7.065063808113336563e-03 -1.440395355224609375e+00 -4.342381358146667480e-01 4.162908494472503662e-01
6.140000000000000000e+02 7.332087707519531250e+01 2.623076248168945312e+01 -1.485536247491836548e-01 2.387042194604873657e-01 2.704517729580402374e-02 7.738463878631591797e-01
6.150000000000000000e+02 7.198991394042968750e+01 3.024625968933105469e+01 -2.954576313495635986e-01 5.829441547393798828e-01 8.624596148729324341e-02 6.343719363212585449e-01
6.160000000000000000e+02 6.723640441894531250e+01 3.583834838867187500e+01 -4.896773099899291992e-01 9.936061501502990723e-01 1.511786580085754395e-01 1.742127537727355957e-01
6.170000000000000000e+02 7.926504516601562500e+01 2.491740989685058594e+01 -5.982405971735715866e-03 -1.628400325775146484e+00 -4.903148114681243896e-01 1.505983471870422363e-01
6.180000000000000000e+02 7.772244262695312500e+01 2.619730377197265625e+01 -2.535922639071941376e-02 -9.788838624954223633e-01 -3.012729287147521973e-01 4.061295688152313232e-01
6.190000000000000000e+02 7.391207122802734375e+01 3.151295852661132812e+01 -2.087423503398895264e-01 3.056340813636779785e-01 2.906751632690429688e-02 5.065329074859619141e-01
6.200000000000000000e+02 7.025749969482421875e+01 3.626109313964843750e+01 -3.613782823085784912e-01 7.411540150642395020e-01 1.139327287673950195e-01 2.733074128627777100e-01
6.210000000000000000e+02 6.719694519042968750e+01 3.867710113525390625e+01 -4.358575642108917236e-01 8.764824271202087402e-01 1.321874558925628662e-01 8.698136359453201294e-02
6.220000000000000000e+02 6.734981536865234375e+01 4.127423477172851562e+01 -4.279014468193054199e-01 8.446086049079895020e-01 1.250121444463729858e-01 3.232034295797348022e-02
6.230000000000000000e+02 7.922012329101562500e+01 2.911347579956054688e+01 -2.401472534984350204e-03 -8.428769111633300781e-01 -2.535835206508636475e-01 1.274265646934509277e-01
6.240000000000000000e+02 7.760450744628906250e+01 3.035284042358398438e+01 -3.786215186119079590e-02 -4.293657541275024414e-01 -1.401683688163757324e-01 3.193486928939819336e-01
6.250000000000000000e+02 7.395187377929687500e+01 3.462688446044921875e+01 -1.888586878776550293e-01 3.236899673938751221e-01 4.044938459992408752e-02 3.524538278579711914e-01
6.260000000000000000e+02 7.923259735107421875e+01 3.188980102539062500e+01 -1.142272911965847015e-02 -4.349293708801269531e-01 -1.339056342840194702e-01 9.736938774585723877e-02
6.270000000000000000e+02 7.774144744873046875e+01 3.312123489379882812e+01 -3.908919915556907654e-02 -1.536251604557037354e-01 -5.781430751085281372e-02 2.371169477701187134e-01
6.280000000000000000e+02 7.259828186035156250e+01 3.631424713134765625e+01 -2.600933015346527100e-01 5.117183327674865723e-01 7.548750936985015869e-02 2.987436950206756592e-01
6.290000000000000000e+02 7.178768920898437500e+01 4.123065948486328125e+01 -2.494481056928634644e-01 5.530266761779785156e-01 9.107357263565063477e-02 5.015700310468673706e-02
6.300000000000000000e+02 7.924774932861328125e+01 3.607330703735351562e+01 -1.017503160983324051e-02 -1.176610030233860016e-02 -6.582339759916067123e-03 5.404058843851089478e-02
6.310000000000000000e+02 7.649571228027343750e+01 3.714320755004882812e+01 -6.138831004500389099e-02 1.615566313266754150e-01 3.005049750208854675e-02 1.895926147699356079e-01
6.320000000000000000e+02 7.904110717773437500e+01 3.877064132690429688e+01 -7.355898153036832809e-03 1.625043302774429321e-01 4.654452949762344360e-02 4.412418976426124573e-02
6.330000000000000000e+02 7.796702575683593750e+01 4.165565109252929688e+01 -4.973534122109413147e-02 2.398987561464309692e-01 5.704902485013008118e-02 1.401350181549787521e-02
6.340000000000000000e+02 2.784691047668457031e+01 4.104402160644531250e+01 -7.626491785049438477e-02 2.476160973310470581e-01 5.140535533428192139e-02 -4.364854656159877777e-03
6.350000000000000000e+02 2.849754142761230469e+01 3.806118011474609375e+01 -8.081181347370147705e-02 2.627629935741424561e-01 5.458535254001617432e-02 -5.247163120657205582e-03
6.360000000000000000e+02 2.893235588073730469e+01 3.511606979370117188e+01 -8.929482847452163696e-02 2.950248718261718750e-01 6.171901151537895203e-02 -1.424973830580711365e-02
6.370000000000000000e+02 2.897731208801269531e+01 3.249866104125976562e+01 -9.352903068065643311e-02 3.348397910594940186e-01 7.239323109388351440e-02 -2.717599458992481232e-02
6.380000000000000000e+02 2.873217582702636719e+01 2.252579498291015625e+01 1.910541951656341553e-01 7.124058008193969727e-01 2.710379958152770996e-01 -3.680558502674102783e-01
6.390000000000000000e+02 2.588697242736816406e+01 2.153885269165039062e+01 2.917624413967132568e-01 5.402616783976554871e-02 1.037365868687629700e-01 -1.163628101348876953e-01
6.400000000000000000e+02 2.921174240112304688e+01 2.003768348693847656e+01 8.798340559005737305e-01 1.195403933525085449e+00 6.225714087486267090e-01 -9.222368001937866211e-01
6.410000000000000000e+02 3.019507217407226562e+01 1.872978019714355469e+01 5.361626148223876953e-01 1.740066528320312500e+00 6.828687787055969238e-01 -9.079021811485290527e-01
6.420000000000000000e+02 2.463272094726562500e+01 3.790118789672851562e+01 -6.122734025120735168e-02 2.245354354381561279e-01 4.899242520332336426e-02 -2.978566847741603851e-02
6.430000000000000000e+02 2.573035812377929688e+01 3.509321594238281250e+01 -6.495314836502075195e-02 2.531754374504089355e-01 5.646668374538421631e-02 -4.536953195929527283e-02
6.440000000000000000e+02 2.637168312072753906e+01 3.264762878417968750e+01 -6.688965857028961182e-02 2.864737510681152344e-01 6.587523221969604492e-02 -6.869791448116302490e-02
6.450000000000000000e+02 2.533753967285156250e+01 2.631967735290527344e+01 4.588937386870384216e-02 2.607195675373077393e-01 9.198268502950668335e-02 -1.811604052782058716e-01
6.460000000000000000e+02 2.510224533081054688e+01 2.172200965881347656e+01 2.111963778734207153e-01 2.932750992476940155e-02 7.215716689825057983e-02 -7.669272273778915405e-02
6.470000000000000000e+02 2.312578010559082031e+01 2.204093742370605469e+01 7.067503035068511963e-02 7.610058411955833435e-03 2.348552644252777100e-02 -2.363474480807781219e-02
6.480000000000000000e+02 2.549789428710937500e+01 2.163767623901367188e+01 2.511290013790130615e-01 3.914964571595191956e-02 8.708359301090240479e-02 -9.424330294132232666e-02
6.490000000000000000e+02 2.323220825195312500e+01 4.094003677368164062e+01 -5.508110299706459045e-02 2.032991200685501099e-01 4.446540400385856628e-02 -7.357617840170860291e-03
6.500000000000000000e+02 2.141464424133300781e+01 3.721353149414062500e+01 -3.767361119389533997e-02 1.758556365966796875e-01 4.145460948348045349e-02 -3.501116111874580383e-02
6.510000000000000000e+02 2.308514404296875000e+01 3.456172943115234375e+01 -3.758513554930686951e-02 2.050158083438873291e-01 5.022919923067092896e-02 -6.066505983471870422e-02
6.520000000000000000e+02 2.315608215332031250e+01 2.995487594604492188e+01 -1.179791288450360298e-03 1.917228251695632935e-01 5.716291069984436035e-02 -1.071494594216346741e-01
6.530000000000000000e+02 2.207840728759765625e+01 2.528174209594726562e+01 7.084494084119796753e-02 7.304735481739044189e-02 4.316768795251846313e-02 -1.013705208897590637e-01
6.540000000000000000e+02 1.991583251953125000e+01 2.199731063842773438e+01 -4.200623556971549988e-02 -1.005152123980224133e-03 -1.290341652929782867e-02 -1.159299723803997040e-02
6.550000000000000000e+02 2.273703193664550781e+01 2.210594558715820312e+01 5.328360199928283691e-02 4.964403342455625534e-03 1.747440174221992493e-02 -2.068362198770046234e-02
6.560000000000000000e+02 1.894973564147949219e+01 4.056885528564453125e+01 -2.610007114708423615e-02 1.392451077699661255e-01 3.394350782036781311e-02 -1.070261746644973755e-02
6.570000000000000000e+02 1.921117782592773438e+01 3.593947982788085938e+01 -1.585018634796142578e-02 1.409353166818618774e-01 3.752553835511207581e-02 -3.760882467031478882e-02
6.580000000000000000e+02 2.114805984497070312e+01 3.368956375122070312e+01 -1.868988387286663055e-02 1.620754152536392212e-01 4.301565885543823242e-02 -6.178356707096099854e-02
6.590000000000000000e+02 2.077493476867675781e+01 3.082434082031250000e+01 9.318899363279342651e-03 1.310111582279205322e-01 4.209901764988899231e-02 -7.752276211977005005e-02
6.600000000000000000e+02 1.965994262695312500e+01 2.618523406982421875e+01 4.677256196737289429e-02 4.186923429369926453e-02 2.659253962337970734e-02 -5.950378254055976868e-02
6.610000000000000000e+02 1.874749946594238281e+01 2.172844696044921875e+01 -5.717506632208824158e-02 -5.015688482671976089e-03 -1.865722611546516418e-02 -1.429987233132123947e-02
6.620000000000000000e+02 1.671947479248046875e+01 2.117664527893066406e+01 -5.286177992820739746e-02 -1.576594635844230652e-02 -2.058831788599491119e-02 -2.384783700108528137e-02
6.630000000000000000e+02 1.617798423767089844e+01 3.884700012207031250e+01 -1.301399897783994675e-02 9.998186677694320679e-02 2.609035931527614594e-02 -1.425862591713666916e-02
6.640000000000000000e+02 1.460505390167236328e+01 3.633757781982421875e+01 3.873346431646496058e-04 7.270590215921401978e-02 2.192797139286994934e-02 -1.970160566270351410e-02
6.650000000000000000e+02 1.501651096343994141e+01 3.312813186645507812e+01 1.054621394723653793e-02 6.188682466745376587e-02 2.172991260886192322e-02 -2.297022752463817596e-02
6.660000000000000000e+02 1.362394618988037109e+01 3.012132072448730469e+01 1.611578837037086487e-02 3.289972618222236633e-02 1.470465492457151413e-02 -1.251771766692399979e-02
6.670000000000000000e+02 1.604215621948242188e+01 2.577294158935546875e+01 1.761746034026145935e-02 1.448877155780792236e-02 9.631869383156299591e-03 -1.187242008745670319e-02
6.680000000000000000e+02 1.637349128723144531e+01 2.163514900207519531e+01 -3.893412649631500244e-02 -8.556460030376911163e-03 -1.424717530608177185e-02 -1.114387158304452896e-02
6.690000000000000000e+02 1.574907302856445312e+01 2.039383697509765625e+01 -2.900523878633975983e-02 -1.755279302597045898e-02 -1.396740972995758057e-02 -2.159592136740684509e-02
6.700000000000000000e+02 1.220671463012695312e+01 4.078245162963867188e+01 -3.579855198040604591e-03 6.163277477025985718e-02 1.741587556898593903e-02 -2.171291504055261612e-03
6.710000000000000000e+02 1.162919330596923828e+01 3.765604782104492188e+01 -1.250811619684100151e-03 5.148292332887649536e-02 1.506963372230529785e-02 -8.321580477058887482e-03
6.720000000000000000e+02 1.334450435638427734e+01 3.427786254882812500e+01 5.494598299264907837e-03 5.115055665373802185e-02 1.699354685842990875e-02 -1.559117622673511505e-02
6.730000000000000000e+02 1.078032207489013672e+01 3.076592826843261719e+01 1.056540757417678833e-02 2.101699449121952057e-02 9.474720805883407593e-03 -2.574721584096550941e-03
6.740000000000000000e+02 1.195599269866943359e+01 2.752792930603027344e+01 8.013466373085975647e-03 1.641438156366348267e-02 7.328354287892580032e-03 4.996554343961179256e-04
6.750000000000000000e+02 1.380569648742675781e+01 2.263809967041015625e+01 -1.405383553355932236e-02 6.409088615328073502e-03 -2.293423982337117195e-03 3.789344802498817444e-03
6.760000000000000000e+02 1.344534111022949219e+01 1.858993148803710938e+01 -7.665896322578191757e-03 -1.914890599437057972e-03 -2.874236088246107101e-03 -6.581034045666456223e-03
6.770000000000000000e+02 1.469629192352294922e+01 1.620031356811523438e+01 -4.640002152882516384e-04 1.622244017198681831e-04 -9.053273970494046807e-05 -1.880721247289329767e-04
6.780000000000000000e+02 1.409490203857421875e+01 1.079290866851806641e+01 -2.630500239320099354e-04 1.814572606235742569e-04 -2.447782389936037362e-05 7.936409929243382066e-06
6.790000000000000000e+02 1.136186504364013672e+01 5.145081520080566406e+00 -1.289862666453700513e-05 -6.742052937624976039e-05 -2.409574517514556646e-05 9.568220411892980337e-05
6.800000000000000000e+02 1.037683582305908203e+01 1.844832777976989746e+00 9.418702393304556608e-05 -5.364598837331868708e-05 1.216231066791806370e-05 3.668503995868377388e-05
6.810000000000000000e+02 1.407422637939453125e+01 1.869599580764770508e+00 6.137181480880826712e-05 4.729164720629341900e-05 3.259904042351990938e-05 3.765862493310123682e-05
6.820000000000000000e+02 1.334212207794189453e+01 1.851103901863098145e+00 5.056625741417519748e-05 -4.075240212841890752e-05 2.944156904050032608e-06 4.726383485831320286e-05
6.830000000000000000e+02 1.112136650085449219e+01 1.842967987060546875e+00 1.122280009440146387e-04 3.168161492794752121e-05 4.317288403399288654e-05 2.518388100725132972e-05
6.840000000000000000e+02 7.946488857269287109e+00 4.094007873535156250e+01 2.728472463786602020e-04 1.959071680903434753e-02 5.959069356322288513e-03 -2.016318467212840915e-04
6.850000000000000000e+02 8.493647575378417969e+00 3.788449096679687500e+01 2.128015505149960518e-03 2.353001944720745087e-02 7.697410415858030319e-03 -3.219028585590422153e-04
6.860000000000000000e+02 8.024562835693359375e+00 2.781117820739746094e+01 4.277015104889869690e-03 6.637042853981256485e-03 3.274217247962951660e-03 6.839314009994268417e-03
6.870000000000000000e+02 8.261099815368652344e+00 2.533703231811523438e+01 -1.295290654525160789e-03 6.095108110457658768e-03 1.439945306628942490e-03 8.115396834909915924e-03
6.880000000000000000e+02 7.106137275695800781e+00 2.104123306274414062e+01 -5.300029180943965912e-03 2.947214758023619652e-03 -7.058443152345716953e-04 5.253046285361051559e-03
6.890000000000000000e+02 8.987814903259277344e+00 1.337819862365722656e+01 -1.227555098012089729e-03 -1.062321898643858731e-04 -4.001361958216875792e-04 -9.809982293518260121e-05
6.900000000000000000e+02 7.635915756225585938e+00 9.984709739685058594e+00 -1.081236187019385397e-04 -1.116460116463713348e-04 -6.593088619410991669e-05 3.605236270232126117e-05
6.910000000000000000e+02 9.132919311523437500e+00 5.304741859436035156e+00 6.985510844970121980e-05 -7.155558705562725663e-05 -5.101427973386307713e-07 3.051390740438364446e-05
6.920000000000000000e+02 8.086860656738281250e+00 1.859386563301086426e+00 1.348524237982928753e-04 2.446848156978376210e-05 4.779627124662511051e-05 -2.694843897188547999e-05
6.930000000000000000e+02 6.550184249877929688e+00 1.875830769538879395e+00 1.290709915338084102e-04 2.759540620900224894e-05 4.699991768575273454e-05 -5.341485302778892219e-05
6.940000000000000000e+02 4.792184352874755859e+00 4.016418838500976562e+01 -2.354628813918679953e-04 -6.735637318342924118e-03 -2.091330010443925858e-03 2.445958321914076805e-03
6.950000000000000000e+02 5.890856742858886719e+00 3.772780227661132812e+01 2.554951934143900871e-03 5.088903475552797318e-03 2.293156692758202553e-03 1.476475154049694538e-03
6.960000000000000000e+02 5.475040435791015625e+00 3.312092971801757812e+01 2.805409952998161316e-03 -1.655347296036779881e-03 3.450187796261161566e-04 3.390546888113021851e-03
6.970000000000000000e+02 6.814250946044921875e+00 3.027399063110351562e+01 3.258241573348641396e-03 4.652672912925481796e-03 2.373274415731430054e-03 5.016806535422801971e-03
6.980000000000000000e+02 6.334142684936523438e+00 2.758924102783203125e+01 1.580794458277523518e-03 1.857799827121198177e-03 1.031578285619616508e-03 7.913624867796897888e-03
6.990000000000000000e+02 4.347017288208007812e+00 2.499130821228027344e+01 -9.857472032308578491e-04 -3.846762236207723618e-03 -1.449752831831574440e-03 7.201467175036668777e-03
7.000000000000000000e+02 6.098704338073730469e+00 2.098081016540527344e+01 -3.341651288792490959e-03 1.451431191526353359e-03 -5.670660757459700108e-04 5.378252360969781876e-03
7.010000000000000000e+02 5.289847373962402344e+00 1.726641273498535156e+01 -1.960332971066236496e-03 3.557265445124357939e-04 -4.813818959519267082e-04 2.042397158220410347e-03
7.020000000000000000e+02 5.077227592468261719e+00 1.443479061126708984e+01 -1.294420566409826279e-03 -9.164768562186509371e-05 -4.158204828854650259e-04 4.133302427362650633e-04
7.030000000000000000e+02 5.858942508697509766e+00 1.056318855285644531e+01 -3.362710413057357073e-04 -2.540684654377400875e-04 -1.771018578438088298e-04 1.018667899188585579e-04
7.040000000000000000e+02 5.191988945007324219e+00 7.671259880065917969e+00 -1.032127256621606648e-04 -6.674895848846063018e-05 -5.098850306239910424e-05 -2.664844796527177095e-04
7.050000000000000000e+02 4.244768142700195312e+00 1.927878856658935547e+00 4.651130439015105367e-05 -4.611411350197158754e-05 1.191573133496603987e-07 -3.420614302740432322e-05
7.060000000000000000e+02 2.711134672164916992e+00 2.010722398757934570e+00 3.229577123420313001e-05 -3.914562694262713194e-05 -2.054957349173491821e-06 -3.622315125539898872e-05
7.070000000000000000e+02 4.297525405883789062e+00 2.770518779754638672e+00 8.064119901973754168e-05 3.747350638150237501e-05 3.543441198416985571e-05 -9.158523607766255736e-05
7.080000000000000000e+02 1.988532900810241699e+00 4.160265731811523438e+01 -2.463469980284571648e-03 -2.630718983709812164e-02 -8.631197735667228699e-03 -6.919166189618408680e-04
7.090000000000000000e+02 1.857234477996826172e+00 3.788059234619140625e+01 6.850526551716029644e-04 -2.456958033144474030e-02 -7.165357936173677444e-03 -1.062896451912820339e-03
7.100000000000000000e+02 2.207406044006347656e+00 3.320522689819335938e+01 4.329380462877452374e-04 -1.993400789797306061e-02 -5.850321147590875626e-03 2.582988236099481583e-03
7.110000000000000000e+02 1.997298121452331543e+00 3.179310417175292969e+01 6.091113318689167500e-04 -2.068679966032505035e-02 -6.023306399583816528e-03 3.091538790613412857e-03
7.120000000000000000e+02 1.780715107917785645e+00 2.763832283020019531e+01 -3.398692351765930653e-04 -1.552480086684226990e-02 -4.759401082992553711e-03 3.902781289070844650e-03
7.130000000000000000e+02 1.810553193092346191e+00 2.487428283691406250e+01 -5.920396652072668076e-04 -1.053367927670478821e-02 -3.337715752422809601e-03 3.944854717701673508e-03
7.140000000000000000e+02 1.747028231620788574e+00 2.070681190490722656e+01 -1.740315929055213928e-05 -4.084717482328414917e-03 -1.230636262334883213e-03 2.587120747193694115e-03
7.150000000000000000e+02 1.784949421882629395e+00 1.792067146301269531e+01 -4.904527486360166222e-07 -1.506624976173043251e-03 -4.521346418187022209e-04 1.386195537634193897e-03
7.160000000000000000e+02 1.902868151664733887e+00 1.506019496917724609e+01 8.080266707111150026e-05 -2.464311255607753992e-04 -4.968853681930340827e-05 5.069315666332840919e-04
7.170000000000000000e+02 1.747116923332214355e+00 1.078169631958007812e+01 -3.242754319217056036e-04 2.419638622086495161e-04 -2.469346873112954199e-05 -1.902737494674511254e-05
7.180000000000000000e+02 1.897133231163024902e+00 7.899997234344482422e+00 -2.297633909620344639e-04 1.390267279930412769e-04 -2.722099816310219467e-05 -5.284970393404364586e-05
7.190000000000000000e+02 2.802407026290893555e+00 3.006154775619506836e+00 5.529336704057641327e-05 3.350502083776518703e-05 2.663951636350248009e-05 -7.726830517640337348e-05
7.200000000000000000e+02 4.318393468856811523e-01 3.568289041519165039e+00 -1.197968304040841758e-04 5.413379767560400069e-05 -1.969890945474617183e-05 9.397828762303106487e-06
7.210000000000000000e+02 1.625192451477050781e+01 3.131766557693481445e+00 -4.785048531630309299e-06 -1.036543471855111420e-05 -4.545144747680751607e-06 3.983803617302328348e-05
7.220000000000000000e+02 1.616184997558593750e+01 1.077219963073730469e+01 -1.817363045120146126e-05 2.560829452704638243e-04 7.137279317248612642e-05 -2.846813003998249769e-04
7.230000000000000000e+02 1.980004692077636719e+01 2.336376667022705078e+00 5.929589406150626019e-06 3.627448313636705279e-05 1.266122126253321767e-05 4.717655428976286203e-06
7.240000000000000000e+02 1.625513267517089844e+01 1.953131318092346191e+00 1.017488193610915914e-05 -3.135297447443008423e-05 -6.353427579597337171e-06 2.707716885197442025e-05
7.250000000000000000e+02 1.550057888031005859e+01 1.180767154693603516e+01 2.989174972753971815e-04 7.226297748275101185e-04 3.064641787204891443e-04 -1.328897196799516678e-04
7.260000000000000000e+02 1.425150680541992188e+01 1.313552379608154297e+01 -2.856479259207844734e-04 4.365024215076118708e-04 4.525635085883550346e-05 -1.004681107588112354e-04
7.270000000000000000e+02 1.479058074951171875e+01 1.415550136566162109e+01 3.927934158127754927e-04 9.716513450257480145e-04 4.093334136996418238e-04 -1.205096632475033402e-04
7.280000000000000000e+02 1.418443965911865234e+01 1.623587226867675781e+01 1.223062718054279685e-04 -7.997295469976961613e-04 -2.032269840128719807e-04 -8.721840567886829376e-04
7.290000000000000000e+02 1.472649002075195312e+01 1.859936714172363281e+01 -2.060733968392014503e-03 -8.942743763327598572e-03 -3.301043063402175903e-03 -3.185759065672755241e-03
7.300000000000000000e+02 1.485744857788085938e+01 1.943185424804687500e+01 -1.298134401440620422e-02 -1.795669272541999817e-02 -9.281410835683345795e-03 -1.199411787092685699e-02
7.310000000000000000e+02 5.377291870117187500e+01 -3.288275146484375000e+01 -2.852129749953746796e-02 1.317790597677230835e-01 3.097733110189437866e-02 -1.064230203628540039e-01
7.320000000000000000e+02 5.683841705322265625e+01 -3.063346290588378906e+01 -3.274725675582885742e-01 -3.409530222415924072e-02 -1.084703654050827026e-01 -1.792168244719505310e-03
7.330000000000000000e+02 5.829296493530273438e+01 -3.039855766296386719e+01 -2.547571957111358643e-01 -2.849544980563223362e-04 -7.651264220476150513e-02 -2.765715308487415314e-02
7.340000000000000000e+02 7.436696624755859375e+01 -2.626709461212158203e+00 2.343185711652040482e-03 -5.197900533676147461e-01 -1.552340537309646606e-01 -7.926881313323974609e-01
7.350000000000000000e+02 7.100069427490234375e+01 -4.339423656463623047e+00 -9.909232705831527710e-02 2.032822966575622559e-01 3.125698864459991455e-02 -8.673657178878784180e-01
7.360000000000000000e+02 5.996365737915039062e+01 -6.435311317443847656e+00 -2.923752367496490479e-01 1.645031452178955078e+00 4.057968854904174805e-01 9.664214253425598145e-01
7.370000000000000000e+02 6.015077209472656250e+01 -1.847050189971923828e+00 8.348509669303894043e-01 2.531069040298461914e+00 1.009775996208190918e+00 1.210150361061096191e+00
7.380000000000000000e+02 6.239077377319335938e+01 -4.002522468566894531e+00 1.852502524852752686e-01 1.644128799438476562e+00 5.488137006759643555e-01 4.638819098472595215e-01
7.390000000000000000e+02 5.722382354736328125e+01 -5.844411373138427734e+00 -1.285232007503509521e-01 2.244895458221435547e+00 6.349117159843444824e-01 1.439650654792785645e+00
7.400000000000000000e+02 5.358745574951171875e+01 -6.712408542633056641e+00 -8.384358286857604980e-01 2.418225526809692383e+00 4.739369153976440430e-01 2.265579938888549805e+00
7.410000000000000000e+02 4.936216354370117188e+01 -1.012648296356201172e+01 3.846269845962524414e-02 1.237486362457275391e+00 3.827847242355346680e-01 2.428973197937011719e+00
7.420000000000000000e+02 5.479452133178710938e+01 -1.121988677978515625e+01 4.312508180737495422e-02 1.153059601783752441e+00 3.588554263114929199e-01 2.016343593597412109e+00
7.430000000000000000e+02 4.765843200683593750e+01 -6.275867462158203125e+00 -3.691237211227416992e+00 -4.000414013862609863e-01 -1.227383613586425781e+00 1.147636651992797852e+00
7.440000000000000000e+02 4.663982391357421875e+01 -8.797173500061035156e+00 -9.229810237884521484e-01 6.142577528953552246e-01 -9.261697530746459961e-02 1.119342207908630371e+00
7.450000000000000000e+02 4.621577835083007812e+01 -1.539698505401611328e+01 4.066167354583740234e+00 4.558191299438476562e+00 2.587307691574096680e+00 2.065489768981933594e+00
7.460000000000000000e+02 4.781853485107421875e+01 -1.352451896667480469e+01 2.645648479461669922e+00 3.202561140060424805e+00 1.754462957382202148e+00 2.226530313491821289e+00
7.470000000000000000e+02 3.983454513549804688e+01 -5.856908798217773438e+00 -1.960492491722106934e+00 3.465799093246459961e-01 -4.841737747192382812e-01 -2.104190140962600708e-01
7.480000000000000000e+02 2.821124458312988281e+01 -8.267883300781250000e+00 6.798356771469116211e-01 -6.123029068112373352e-02 1.855816096067428589e-01 -3.948712050914764404e-01
7.490000000000000000e+02 2.387541961669921875e+01 -8.084361076354980469e+00 -6.130872964859008789e-01 -1.949442178010940552e-01 -2.424094676971435547e-01 -5.296474099159240723e-01
7.500000000000000000e+02 2.211620712280273438e+01 -1.098100471496582031e+01 -9.909383058547973633e-01 -9.330153465270996094e-02 -3.252719640731811523e-01 -3.557925224304199219e-01
7.510000000000000000e+02 1.891201019287109375e+01 -2.202900171279907227e+00 -3.792077302932739258e-01 -2.734542489051818848e-01 -1.957985907793045044e-01 -5.300558805465698242e-01
7.520000000000000000e+02 1.961753463745117188e+01 -1.372738242149353027e+00 -5.105944871902465820e-01 -2.456080764532089233e-01 -2.268607765436172485e-01 -5.213019847869873047e-01
7.530000000000000000e+02 1.572985744476318359e+01 -1.740908384323120117e+00 -7.298637926578521729e-02 -9.516564011573791504e-02 -5.044560879468917847e-02 -2.184053212404251099e-01
7.540000000000000000e+02 1.713508796691894531e+01 -5.710114002227783203e+00 -3.944985270500183105e-01 -4.788245260715484619e-01 -2.619969248771667480e-01 -5.293216705322265625e-01
7.550000000000000000e+02 2.020175361633300781e+01 -7.891296386718750000e+00 -6.775166988372802734e-01 -4.500402212142944336e-01 -3.382670879364013672e-01 -6.767783761024475098e-01
7.560000000000000000e+02 1.264797878265380859e+01 -1.841540813446044922e+00 1.079454794526100159e-01 -4.231818020343780518e-02 1.968818902969360352e-02 -4.959452524781227112e-02
7.570000000000000000e+02 1.394184780120849609e+01 -1.154966831207275391e+01 -9.969583153724670410e-01 -7.455937862396240234e-01 -5.227656364440917969e-01 -4.898566901683807373e-01
7.580000000000000000e+02 1.604702568054199219e+01 -9.013282775878906250e+00 -7.248085141181945801e-01 -7.602530121803283691e-01 -4.455184638500213623e-01 -4.846645891666412354e-01
7.590000000000000000e+02 1.037595748901367188e+01 -1.860136747360229492e+00 1.485590785741806030e-01 -1.877014897763729095e-02 3.893667832016944885e-02 2.245704084634780884e-02
7.600000000000000000e+02 9.844271659851074219e+00 -5.675012588500976562e+00 -2.366155236959457397e-01 -1.235491186380386353e-01 -1.080493927001953125e-01 -3.254094719886779785e-02
7.610000000000000000e+02 1.380195999145507812e+01 -9.235829353332519531e+00 -7.300299406051635742e-01 -5.607864260673522949e-01 -3.872449100017547607e-01 -3.269527852535247803e-01
7.620000000000000000e+02 8.846033096313476562e+00 -1.865687370300292969e+00 1.455157101154327393e-01 -1.111104805022478104e-02 4.032139852643013000e-02 4.761838912963867188e-02
7.630000000000000000e+02 5.862921237945556641e+00 -2.468864679336547852e+00 6.273870170116424561e-02 -4.721674602478742599e-03 1.740510761737823486e-02 7.612600177526473999e-02
7.640000000000000000e+02 3.955208539962768555e+00 -5.987826347351074219e+00 -5.441404506564140320e-02 1.543727796524763107e-02 -1.169303059577941895e-02 4.704954475164413452e-02
7.650000000000000000e+02 7.087369918823242188e+00 -1.024951934814453125e+01 -3.422315418720245361e-01 -1.343010216951370239e-01 -1.429597735404968262e-01 -2.222817391157150269e-01
7.660000000000000000e+02 6.304251194000244141e+00 -8.029476165771484375e+00 -2.087558805942535400e-01 -7.292794436216354370e-02 -8.450514823198318481e-02 -6.402656435966491699e-02
7.670000000000000000e+02 4.206757545471191406e+00 -1.065202426910400391e+01 -1.519336253404617310e-01 -8.120952546596527100e-02 -6.994294375181198120e-02 -1.671214699745178223e-01
7.680000000000000000e+02 4.221341133117675781e+00 -4.623107910156250000e+00 -1.764803193509578705e-02 1.247300114482641220e-02 -1.552509027533233166e-03 7.378867268562316895e-02
7.690000000000000000e+02 3.819316482543945312e+01 -1.053627300262451172e+01 8.284574747085571289e-01 5.196558833122253418e-01 4.044339954853057861e-01 -1.301139354705810547e+00
7.700000000000000000e+02 4.351711654663085938e+01 -1.100979900360107422e+01 3.851297795772552490e-01 1.207809925079345703e+00 4.778819084167480469e-01 -4.512079060077667236e-01
7.710000000000000000e+02 5.003830337524414062e+01 -1.170636463165283203e+01 1.147758603096008301e+00 1.538896560668945312e+00 8.059965372085571289e-01 2.647850751876831055e+00
7.720000000000000000e+02 5.071421432495117188e+01 -1.338913154602050781e+01 2.467368841171264648e+00 1.417105078697204590e+00 1.165342211723327637e+00 2.672604799270629883e+00
7.730000000000000000e+02 5.905006790161132812e+01 -1.000829029083251953e+01 -7.838022112846374512e-01 1.038409352302551270e+00 7.638216018676757812e-02 1.015596032142639160e+00
7.740000000000000000e+02 6.428623962402343750e+01 -1.134997272491455078e+01 -2.655672311782836914e+00 -6.909033060073852539e-01 -1.003972649574279785e+00 -9.274425357580184937e-02
7.750000000000000000e+02 5.975161361694335938e+01 -1.107883739471435547e+01 -1.213574647903442383e+00 7.163534760475158691e-01 -1.491663604974746704e-01 6.470568776130676270e-01
7.760000000000000000e+02 7.585652923583984375e+01 -6.228968620300292969e+00 -1.012172624468803406e-01 -5.083565115928649902e-01 -1.828721314668655396e-01 -6.201899051666259766e-01
7.770000000000000000e+02 2.759456062316894531e+01 -7.464758872985839844e+00 3.330262303352355957e-01 -1.951700299978256226e-01 4.135685786604881287e-02 -9.540023207664489746e-01
7.780000000000000000e+02 4.483194732666015625e+01 -5.754379272460937500e+00 -3.809034109115600586e+00 -2.840248644351959229e-01 -1.227917671203613281e+00 9.838221669197082520e-01
7.790000000000000000e+02 4.436836242675781250e+01 -1.356768321990966797e+01 2.000148773193359375e+00 2.609879493713378906e+00 1.383008480072021484e+00 2.203797847032546997e-01
7.800000000000000000e+02 6.697307586669921875e+01 -1.195412921905517578e+01 -1.961701393127441406e+00 2.087273299694061279e-01 -5.258921980857849121e-01 -4.588158428668975830e-02
7.810000000000000000e+02 7.009684753417968750e+01 -1.124866390228271484e+01 -9.206380844116210938e-01 2.754041850566864014e-01 -1.935701668262481689e-01 -3.768965303897857666e-01
7.820000000000000000e+02 4.770683288574218750e+01 -8.694365501403808594e+00 -1.036821842193603516e+00 5.711573958396911621e-01 -1.396993398666381836e-01 1.585213422775268555e+00
7.830000000000000000e+02 3.630415725708007812e+01 -1.370176219940185547e+01 1.042389392852783203e+00 7.744498252868652344e-01 5.450517535209655762e-01 -1.526683807373046875e+00
7.840000000000000000e+02 4.064566040039062500e+01 -1.830811309814453125e+01 1.680549383163452148e+00 2.247692108154296875e+00 1.178472399711608887e+00 2.689493596553802490e-01
7.850000000000000000e+02 3.940051651000976562e+01 -2.155418777465820312e+01 8.660886287689208984e-01 1.967541456222534180e+00 8.500890135765075684e-01 1.007177352905273438e+00
7.860000000000000000e+02 3.980225753784179688e+01 -2.390023040771484375e+01 8.023713827133178711e-01 2.242889165878295898e+00 9.135781526565551758e-01 1.251017808914184570e+00
7.870000000000000000e+02 3.717351531982421875e+01 -3.323463821411132812e+01 2.542006075382232666e-01 1.539785265922546387e+00 5.381957888603210449e-01 5.227078795433044434e-01
7.880000000000000000e+02 4.267727279663085938e+01 -2.811964225769042969e+01 2.224406898021697998e-01 2.847166061401367188e+00 9.208820462226867676e-01 6.614875197410583496e-01
7.890000000000000000e+02 4.456618499755859375e+01 -3.154679298400878906e+01 -2.533774673938751221e-01 2.216307640075683594e+00 5.888791084289550781e-01 1.746034435927867889e-02
7.900000000000000000e+02 5.175862503051757812e+01 -3.853247833251953125e+01 3.680526837706565857e-02 5.867283344268798828e-01 1.870600730180740356e-01 -1.283632069826126099e-01
7.910000000000000000e+02 4.597740173339843750e+00 -3.502456665039062500e+01 3.472581505775451660e-02 -1.407091021537780762e+00 -4.117095470428466797e-01 -4.935903102159500122e-02
7.920000000000000000e+02 3.010535717010498047e+00 -3.491233444213867188e+01 2.282398194074630737e-02 -1.713649988174438477e+00 -5.072478055953979492e-01 -2.151663042604923248e-02
7.930000000000000000e+02 6.651427745819091797e+00 -3.323618698120117188e+01 9.979262202978134155e-02 -1.018489718437194824e+00 -2.756091058254241943e-01 -1.056366562843322754e-01
7.940000000000000000e+02 4.410805702209472656e+00 -3.169350624084472656e+01 6.313769519329071045e-02 -1.369155526161193848e+00 -3.918053507804870605e-01 -1.094089895486831665e-01
7.950000000000000000e+02 2.468547105789184570e+00 -3.035531425476074219e+01 3.130488842725753784e-02 -1.692605733871459961e+00 -4.983902573585510254e-01 -8.404628932476043701e-02
7.960000000000000000e+02 2.182251167297363281e+01 -3.398334884643554688e+01 5.690097212791442871e-01 6.703374385833740234e-01 3.718041479587554932e-01 -2.596765458583831787e-01
7.970000000000000000e+02 2.025591468811035156e+01 -3.455143737792968750e+01 4.393635690212249756e-01 6.205157637596130371e-01 3.179638087749481201e-01 -2.218718081712722778e-01
7.980000000000000000e+02 3.460268020629882812e+01 -3.310555267333984375e+01 4.727416336536407471e-01 1.258830666542053223e+00 5.194717049598693848e-01 4.922249019145965576e-01
7.990000000000000000e+02 5.446307373046875000e+01 -3.527091979980468750e+01 5.836405232548713684e-02 1.762829422950744629e-01 7.039409875869750977e-02 -7.865855842828750610e-02
8.000000000000000000e+02 5.861644744873046875e+01 -3.237045669555664062e+01 -1.337184160947799683e-01 -2.013851515948772430e-02 -4.615707695484161377e-02 5.147093906998634338e-02
8.010000000000000000e+02 6.678849029541015625e+01 -3.190448760986328125e+01 -3.602248057723045349e-02 1.024983916431665421e-02 -7.731792051345109940e-03 3.273688256740570068e-02
8.020000000000000000e+02 7.146182250976562500e+01 -3.363446426391601562e+01 -7.217049598693847656e-03 -5.549569148570299149e-03 -3.829985624179244041e-03 2.668539248406887054e-02
8.030000000000000000e+02 7.560032653808593750e+01 -3.175640869140625000e+01 -2.945601940155029297e-03 -9.825685992836952209e-03 -3.831386333331465721e-03 1.220432762056589127e-02
8.040000000000000000e+02 1.127174758911132812e+01 -2.998506355285644531e+01 3.516876995563507080e-01 -3.034367561340332031e-01 1.447528693825006485e-02 -2.511364221572875977e-01
8.050000000000000000e+02 6.253547191619873047e+00 -3.138453483581542969e+01 1.306336522102355957e-01 -1.052784442901611328e+00 -2.766452431678771973e-01 -1.535093933343887329e-01
8.060000000000000000e+02 3.794787645339965820e+00 -2.866857528686523438e+01 8.381914347410202026e-02 -1.385475039482116699e+00 -3.904967606067657471e-01 -1.888461112976074219e-01
8.070000000000000000e+02 2.298917293548583984e+00 -2.888440704345703125e+01 3.771661594510078430e-02 -1.664719700813293457e+00 -4.881009161472320557e-01 -1.145482659339904785e-01
8.080000000000000000e+02 7.199532032012939453e+00 -2.917858314514160156e+01 2.063576728105545044e-01 -8.769353032112121582e-01 -2.011732906103134155e-01 -2.503039240837097168e-01
8.090000000000000000e+02 4.637503147125244141e+00 -2.280749511718750000e+01 1.120696440339088440e-01 -9.658055305480957031e-01 -2.561207711696624756e-01 -4.835547208786010742e-01
8.100000000000000000e+02 1.957916140556335449e+00 -2.320725440979003906e+01 2.718461491167545319e-02 -1.291218161582946777e+00 -3.792100846767425537e-01 -2.358623892068862915e-01
8.110000000000000000e+02 6.073925018310546875e+00 -2.399125862121582031e+01 2.025194168090820312e-01 -8.967270255088806152e-01 -2.082622796297073364e-01 -5.024633407592773438e-01
8.120000000000000000e+02 4.530082702636718750e+00 -2.144953918457031250e+01 8.001364767551422119e-02 -8.789337873458862305e-01 -2.396760284900665283e-01 -5.248392820358276367e-01
8.130000000000000000e+02 1.402968502044677734e+01 -2.422171211242675781e+01 6.611932516098022461e-01 4.023459553718566895e-01 3.190617561340332031e-01 -5.504217743873596191e-01
8.140000000000000000e+02 4.274924278259277344e+00 -1.888927459716796875e+01 -3.880885196849703789e-03 -6.633263826370239258e-01 -2.001621872186660767e-01 -5.553945302963256836e-01
8.150000000000000000e+02 4.276653289794921875e+00 -1.759018325805664062e+01 -4.677048325538635254e-02 -5.507283210754394531e-01 -1.792496442794799805e-01 -5.292918086051940918e-01
8.160000000000000000e+02 3.086846113204956055e+00 -1.626375007629394531e+01 -5.105444416403770447e-02 -4.459808766841888428e-01 -1.491106003522872925e-01 -3.883820772171020508e-01
8.170000000000000000e+02 9.285831451416015625e+00 -1.543663215637207031e+01 -4.278166294097900391e-01 -3.203138113021850586e-01 -2.244391292333602905e-01 -7.692188024520874023e-01
8.180000000000000000e+02 1.684713935852050781e+01 -1.161531925201416016e+01 -1.717491030693054199e+00 -1.098696351051330566e+00 -8.448562026023864746e-01 -9.338163137435913086e-01
8.190000000000000000e+02 1.252118396759033203e+01 -1.336503028869628906e+01 -9.581827521324157715e-01 -4.942387640476226807e-01 -4.357264637947082520e-01 -6.378250718116760254e-01
8.200000000000000000e+02 1.076281738281250000e+01 -1.316746807098388672e+01 -7.530941367149353027e-01 -3.095313608646392822e-01 -3.187876343727111816e-01 -5.725883245468139648e-01
8.210000000000000000e+02 4.390648841857910156e+00 -1.201537609100341797e+01 -1.801514774560928345e-01 -1.457773000001907349e-01 -9.777863323688507080e-02 -2.716268301010131836e-01
8.220000000000000000e+02 1.442164707183837891e+01 -1.061983203887939453e+01 -9.547333121299743652e-01 -7.106100916862487793e-01 -4.996030032634735107e-01 -4.388020038604736328e-01
8.230000000000000000e+02 3.288558959960937500e+01 1.032257461547851562e+01 2.200228571891784668e-01 4.606974601745605469e+00 1.448099255561828613e+00 -8.827524185180664062e-01
8.240000000000000000e+02 3.820720291137695312e+01 8.513709068298339844e+00 -6.925132870674133301e-01 -2.075289487838745117e+00 -8.303408622741699219e-01 -6.783733963966369629e-01
8.250000000000000000e+02 4.121194839477539062e+01 1.163476657867431641e+01 -1.209398388862609863e+00 -2.919116020202636719e+00 -1.238554358482360840e+00 -1.729788780212402344e+00
8.260000000000000000e+02 3.863248062133789062e+01 1.289277744293212891e+01 -2.208556979894638062e-01 -1.168719768524169922e+00 -4.168726503849029541e-01 -8.155402541160583496e-02
8.270000000000000000e+02 3.976314163208007812e+01 1.104717350006103516e+01 -6.605141162872314453e-01 -2.984728813171386719e+00 -1.093572854995727539e+00 -1.063672780990600586e+00
8.280000000000000000e+02 4.020671844482421875e+01 1.536857986450195312e+01 -1.954091787338256836e-01 -1.213832259178161621e+00 -4.227724373340606689e-01 -2.757302522659301758e-01
8.290000000000000000e+02 3.101530838012695312e+01 1.687287521362304688e+01 3.507746458053588867e-01 2.486293315887451172e+00 8.511204123497009277e-01 -8.565585613250732422e-01
8.300000000000000000e+02 3.787142562866210938e+01 1.725815582275390625e+01 1.103133894503116608e-02 -1.390512436628341675e-01 -3.840597346425056458e-02 2.374168634414672852e-01
8.310000000000000000e+02 4.826892471313476562e+01 1.871848487854003906e+01 -1.094675183296203613e+00 -6.039943695068359375e-01 -5.096008777618408203e-01 -7.489200830459594727e-01
8.320000000000000000e+02 3.133485603332519531e+01 1.947623825073242188e+01 2.950555682182312012e-01 1.491491079330444336e+00 5.359640121459960938e-01 -3.972632586956024170e-01
8.330000000000000000e+02 3.733122253417968750e+01 1.914298629760742188e+01 2.271277830004692078e-02 1.332699805498123169e-01 4.679482430219650269e-02 3.021237552165985107e-01
8.340000000000000000e+02 4.399372482299804688e+01 1.544596004486083984e+01 -1.058937788009643555e+00 -1.302010297775268555e+00 -7.082844376564025879e-01 -1.074758529663085938e+00
8.350000000000000000e+02 7.480351257324218750e+01 2.174326705932617188e+01 6.402030587196350098e-02 -5.195154547691345215e-01 -1.366485506296157837e-01 7.481303215026855469e-01
8.360000000000000000e+02 6.821569061279296875e+01 1.997430229187011719e+01 4.143109023571014404e-01 2.115226984024047852e+00 7.588613629341125488e-01 7.392622828483581543e-01
8.370000000000000000e+02 5.955883026123046875e+01 2.382495689392089844e+01 -1.900345459580421448e-02 1.909802079200744629e+00 5.672395825386047363e-01 -1.304145812988281250e+00
8.380000000000000000e+02 5.598882293701171875e+01 2.203987503051757812e+01 -3.646040558815002441e-01 1.439879531972110271e-03 -1.089492589235305786e-01 -4.004377722740173340e-01
8.390000000000000000e+02 5.259022521972656250e+01 2.270779418945312500e+01 -4.897932708263397217e-01 -2.135859876871109009e-01 -2.110137790441513062e-01 -4.061160683631896973e-01
8.400000000000000000e+02 4.827337265014648438e+01 2.239855384826660156e+01 -4.432484507560729980e-01 -4.651419818401336670e-01 -2.725171446800231934e-01 -3.260377645492553711e-01
8.410000000000000000e+02 4.499288558959960938e+01 2.191852760314941406e+01 -2.903349101543426514e-01 -6.021807193756103516e-01 -2.677546739578247070e-01 -2.014682590961456299e-01
8.420000000000000000e+02 4.249889755249023438e+01 2.304681777954101562e+01 -7.383588701486587524e-02 -4.283902049064636230e-01 -1.506678313016891479e-01 3.891287744045257568e-02
8.430000000000000000e+02 3.896829223632812500e+01 2.218235206604003906e+01 -1.286446396261453629e-02 -9.959889948368072510e-02 -3.373900800943374634e-02 2.597593367099761963e-01
8.440000000000000000e+02 3.193754196166992188e+01 2.231258392333984375e+01 1.324361283332109451e-02 9.514954686164855957e-01 2.894217371940612793e-01 -1.689619384706020355e-02
8.450000000000000000e+02 3.679279708862304688e+01 2.299260711669921875e+01 -3.067248314619064331e-02 2.866184413433074951e-01 7.678378373384475708e-02 3.068794906139373779e-01
8.460000000000000000e+02 4.075329303741455078e+00 2.217443656921386719e+01 -2.155408030375838280e-03 -2.340085105970501900e-03 -1.348647871054708958e-03 5.606770515441894531e-03
8.470000000000000000e+02 4.187990665435791016e+00 1.692145729064941406e+01 -1.864099875092506409e-03 -3.338234673719853163e-04 -6.593770231120288372e-04 1.661295769736170769e-03
8.480000000000000000e+02 7.287652492523193359e+00 1.790531349182128906e+01 -3.764490596950054169e-03 1.802720711566507816e-03 -5.885309656150639057e-04 1.825092360377311707e-03
8.490000000000000000e+02 6.688464355468750000e+01 1.638517761230468750e+01 8.884266614913940430e-01 3.192949533462524414e+00 1.224412798881530762e+00 3.354084193706512451e-01
8.500000000000000000e+02 6.674165344238281250e+01 1.747779464721679688e+01 8.358522057533264160e-01 3.132784843444824219e+00 1.190591096878051758e+00 4.164838790893554688e-01
8.510000000000000000e+02 7.048931121826171875e+01 1.684721374511718750e+01 5.396969318389892578e-01 1.162291646003723145e+00 5.105965733528137207e-01 5.965160727500915527e-01
8.520000000000000000e+02 7.521899414062500000e+01 1.892241287231445312e+01 1.438660621643066406e-01 -9.042543172836303711e-01 -2.281164824962615967e-01 6.187125444412231445e-01
8.530000000000000000e+02 5.845184922218322754e-01 2.062579345703125000e+01 -5.665674689225852489e-04 -4.621753469109535217e-03 -1.556496252305805683e-03 9.018934215418994427e-04
8.540000000000000000e+02 7.168036651611328125e+01 1.345494747161865234e+01 5.521907806396484375e-01 5.685847401618957520e-01 3.362326622009277344e-01 2.914355993270874023e-01
8.550000000000000000e+02 7.039018249511718750e+01 1.375018501281738281e+01 6.850281953811645508e-01 1.266526937484741211e+00 5.854665040969848633e-01 3.296644389629364014e-01
8.560000000000000000e+02 7.560324096679687500e+01 1.484709739685058594e+01 1.934512406587600708e-01 -1.342653989791870117e+00 -3.447608351707458496e-01 3.219129741191864014e-01
8.570000000000000000e+02 6.499456024169921875e+01 1.099474143981933594e+01 8.527762889862060547e-01 4.776322364807128906e+00 1.688729524612426758e+00 5.477255582809448242e-01
8.580000000000000000e+02 6.699745178222656250e+01 9.332406997680664062e+00 8.912438154220581055e-01 3.039417266845703125e+00 1.179198265075683594e+00 2.685327231884002686e-01
8.590000000000000000e+02 7.542774963378906250e+01 1.090675163269042969e+01 2.174928337335586548e-01 -1.368876457214355469e+00 -3.454150855541229248e-01 1.592092029750347137e-02
8.600000000000000000e+02 7.526502227783203125e+01 9.558333396911621094e+00 2.282598614692687988e-01 -1.313329935073852539e+00 -3.255209922790527344e-01 -1.025893837213516235e-01
8.610000000000000000e+02 7.017140960693359375e+01 7.560371875762939453e+00 6.684688925743103027e-01 1.113651394844055176e+00 5.346360802650451660e-01 -1.494376361370086670e-01
8.620000000000000000e+02 6.605968475341796875e+01 4.736514568328857422e+00 9.025280475616455078e-01 2.746425390243530273e+00 1.094686031341552734e+00 1.230372563004493713e-01
8.630000000000000000e+02 6.700668334960937500e+01 3.975514411926269531e+00 7.647278308868408203e-01 2.217028617858886719e+00 8.945268988609313965e-01 -7.569798082113265991e-02
8.640000000000000000e+02 6.437475585937500000e+01 2.769805908203125000e+00 8.983165621757507324e-01 2.984661102294921875e+00 1.164893269538879395e+00 4.336620569229125977e-01
8.650000000000000000e+02 7.100901031494140625e+01 1.179863691329956055e+00 3.081579506397247314e-01 4.247443377971649170e-01 2.198706865310668945e-01 -7.076480984687805176e-01
8.660000000000000000e+02 7.567284393310546875e+01 1.255362868309020996e+00 1.030730605125427246e-01 -1.147526144981384277e+00 -3.133359253406524658e-01 -6.261575222015380859e-01
8.670000000000000000e+02 5.633739852905273438e+01 -6.346020698547363281e-01 2.065793275833129883e+00 3.691250324249267578e+00 1.727113127708435059e+00 2.627659559249877930e+00
8.680000000000000000e+02 6.707120513916015625e+01 -1.224877119064331055e+00 3.162699043750762939e-01 1.261508107185363770e+00 4.733333885669708252e-01 -4.265015423297882080e-01
8.690000000000000000e+02 5.731693649291992188e+01 -1.354272127151489258e+00 1.613408565521240234e+00 3.076517581939697266e+00 1.406977772712707520e+00 1.938063502311706543e+00
8.700000000000000000e+02 1.806016159057617188e+01 -1.559360980987548828e+00 -3.163908123970031738e-01 -1.624145060777664185e-01 -1.436415910720825195e-01 -3.916990160942077637e-01
8.710000000000000000e+02 1.496715831756591797e+01 -2.482883453369140625e+00 -9.278848022222518921e-02 -1.286148577928543091e-01 -6.642100214958190918e-02 -2.182527184486389160e-01
8.720000000000000000e+02 1.187579822540283203e+01 -2.566510200500488281e+00 3.075611963868141174e-02 -6.218573078513145447e-02 -9.428882971405982971e-03 -3.770015761256217957e-02
8.730000000000000000e+02 6.598979949951171875e+00 -3.540221405029296875e+01 6.722879409790039062e-02 -1.072057604789733887e+00 -3.014486432075500488e-01 -6.897017359733581543e-02
8.740000000000000000e+02 1.706019020080566406e+01 -3.585369873046875000e+01 2.573157846927642822e-01 3.427915573120117188e-01 1.800322085618972778e-01 -1.484097838401794434e-01
8.750000000000000000e+02 2.703574562072753906e+01 -3.169915008544921875e+01 1.125832200050354004e+00 4.079422056674957275e-01 4.601323306560516357e-01 2.428678097203373909e-03
8.760000000000000000e+02 4.777452087402343750e+01 -3.585647964477539062e+01 -1.331152915954589844e-01 1.221383810043334961e+00 3.264805376529693604e-01 -2.310208678245544434e-01
8.770000000000000000e+02 5.115328979492187500e+01 -3.583725738525390625e+01 2.655805088579654694e-02 5.902227163314819336e-01 1.850342154502868652e-01 -2.423900067806243896e-01
8.780000000000000000e+02 6.940676879882812500e+01 -3.556528854370117188e+01 2.170440275222063065e-03 -9.380402043461799622e-03 -2.162988530471920967e-03 3.415993973612785339e-02
8.790000000000000000e+02 7.372205352783203125e+01 -3.511001586914062500e+01 2.472197869792580605e-03 -1.350812148302793503e-02 -3.310777014121413231e-03 2.244192361831665039e-02
8.800000000000000000e+02 7.516765594482421875e+01 -3.387693786621093750e+01 -6.707590364385396242e-05 -1.489100791513919830e-02 -4.487425088882446289e-03 1.513567194342613220e-02
8.810000000000000000e+02 7.508415222167968750e+01 -2.685295867919921875e+01 -3.204270964488387108e-03 -2.888548886403441429e-03 -1.827845931984484196e-03 4.930597264319658279e-03
8.820000000000000000e+02 7.229293823242187500e+01 -2.750361442565917969e+01 -1.163710467517375946e-02 -8.154324314091354609e-05 -3.515594173222780228e-03 7.624734658747911453e-03
8.830000000000000000e+02 6.661965179443359375e+01 -2.811437606811523438e+01 -3.583769500255584717e-02 1.286726910620927811e-02 -6.891127210110425949e-03 -7.733916572760790586e-05
8.840000000000000000e+02 7.153143310546875000e+01 -1.823677253723144531e+01 -1.562162360642105341e-04 7.702832808718085289e-04 1.842201163526624441e-04 1.888693514047190547e-04
8.850000000000000000e+02 7.083995819091796875e+01 -1.833424186706542969e+01 5.566462641581892967e-04 -1.146006165072321892e-03 -1.768079819157719612e-04 5.092371138744056225e-04
8.860000000000000000e+02 7.290449523925781250e+01 2.468531227111816406e+01 -9.423821419477462769e-02 3.475774228572845459e-01 7.600176334381103516e-02 8.528634309768676758e-01
8.870000000000000000e+02 6.851048278808593750e+01 2.128118324279785156e+01 2.930382192134857178e-01 1.927222728729248047e+00 6.660783290863037109e-01 8.153249025344848633e-01
8.880000000000000000e+02 5.727872467041015625e+01 2.804460334777832031e+01 -1.901321411132812500e-01 8.988532423973083496e-01 2.126163244247436523e-01 -7.988064289093017578e-01
8.890000000000000000e+02 5.219588470458984375e+01 2.769181442260742188e+01 -1.375393010675907135e-02 3.870151191949844360e-02 7.484274916350841522e-03 -4.810007512569427490e-01
8.900000000000000000e+02 4.493429946899414062e+01 2.604302024841308594e+01 -2.749666571617126465e-02 -3.409585356712341309e-01 -1.105365604162216187e-01 -3.716836497187614441e-02
8.910000000000000000e+02 4.099338912963867188e+01 2.633529472351074219e+01 -3.844731021672487259e-03 -1.247871443629264832e-01 -3.858956322073936462e-02 1.659645289182662964e-01
8.920000000000000000e+02 3.261054992675781250e+01 2.845201873779296875e+01 -1.314900219440460205e-01 4.641556739807128906e-01 9.979970008134841919e-02 7.376079261302947998e-02
8.930000000000000000e+02 3.549591827392578125e+01 2.822402572631835938e+01 -9.513343125581741333e-02 3.221642076969146729e-01 6.810923665761947632e-02 1.880261152982711792e-01
8.940000000000000000e+02 2.874383926391601562e+01 2.324827194213867188e+01 9.865001589059829712e-02 6.867694258689880371e-01 2.356258332729339600e-01 -3.051004409790039062e-01
8.950000000000000000e+02 2.602999114990234375e+01 2.211374282836914062e+01 2.873854339122772217e-01 1.067175790667533875e-01 1.182309016585350037e-01 -1.803816854953765869e-01
8.960000000000000000e+02 2.235011482238769531e+01 2.218780326843261719e+01 3.597940132021903992e-02 6.603648886084556580e-03 1.277491543442010880e-02 -1.634861156344413757e-02
8.970000000000000000e+02 1.913287353515625000e+01 2.181920242309570312e+01 -5.462375283241271973e-02 -2.603771165013313293e-03 -1.716825738549232483e-02 -1.331076212227344513e-02
8.980000000000000000e+02 1.562893295288085938e+01 2.181386375427246094e+01 -2.841243147850036621e-02 -3.257236443459987640e-03 -9.500900283455848694e-03 -5.352739710360765457e-03
8.990000000000000000e+02 1.371213436126708984e+01 2.333785247802734375e+01 -8.687500841915607452e-03 7.745811715722084045e-03 -2.825068077072501183e-04 4.544055555015802383e-03
9.000000000000000000e+02 7.217155933380126953e+00 2.562050247192382812e+01 1.491958682890981436e-04 3.271913621574640274e-03 1.026332844048738480e-03 8.182148449122905731e-03
9.010000000000000000e+02 4.194779396057128906e+00 2.354049873352050781e+01 -8.517934475094079971e-04 -3.080896567553281784e-03 -1.179807004518806934e-03 6.704465951770544052e-03
9.020000000000000000e+02 5.961728692054748535e-01 2.343690681457519531e+01 -5.797638441435992718e-04 -1.004834752529859543e-02 -3.188433591276407242e-03 1.298927119933068752e-03
9.030000000000000000e+02 7.396761322021484375e+01 2.860564041137695312e+01 -1.794946342706680298e-01 1.637802571058273315e-01 -4.714310169219970703e-03 6.818637847900390625e-01
9.040000000000000000e+02 6.980367279052734375e+01 2.704284286499023438e+01 -3.315405547618865967e-01 1.186218023300170898e+00 2.564032375812530518e-01 7.327292561531066895e-01
9.050000000000000000e+02 6.784358215332031250e+01 2.905637550354003906e+01 -5.070776343345642090e-01 1.447160959243774414e+00 2.820249795913696289e-01 5.030774474143981934e-01
9.060000000000000000e+02 5.875442504882812500e+01 3.051276016235351562e+01 -3.972364664077758789e-01 1.153407216072082520e+00 2.268512248992919922e-01 -5.318667888641357422e-01
9.070000000000000000e+02 5.508578491210937500e+01 2.924962043762207031e+01 -9.767139703035354614e-02 4.859598875045776367e-01 1.164865419268608093e-01 -6.170141696929931641e-01
9.080000000000000000e+02 3.857756042480468750e+01 3.059302711486816406e+01 -2.555550634860992432e-02 1.171553581953048706e-01 2.747995592653751373e-02 1.522854119539260864e-01
9.090000000000000000e+02 3.399923706054687500e+01 3.016684532165527344e+01 -1.029379367828369141e-01 3.512379527091979980e-01 7.449000328779220581e-02 1.127422526478767395e-01
9.100000000000000000e+02 2.995703887939453125e+01 2.775943946838378906e+01 -1.116484403610229492e-01 5.100772976875305176e-01 1.195286661386489868e-01 -5.691082403063774109e-02
9.110000000000000000e+02 2.533183670043945312e+01 2.744738197326660156e+01 1.302918232977390289e-02 2.683341205120086670e-01 8.440899103879928589e-02 -1.629775613546371460e-01
9.120000000000000000e+02 2.117928314208984375e+01 2.649020385742187500e+01 5.233252048492431641e-02 7.422058284282684326e-02 3.796593099832534790e-02 -8.690723776817321777e-02
9.130000000000000000e+02 2.023601150512695312e+01 2.620139503479003906e+01 5.075544491410255432e-02 4.647881537675857544e-02 2.917027845978736877e-02 -6.933034211397171021e-02
9.140000000000000000e+02 1.622088813781738281e+01 2.652728080749511719e+01 2.186215296387672424e-02 2.115515433251857758e-02 1.290519256144762039e-02 -1.724945940077304840e-02
9.150000000000000000e+02 1.076432609558105469e+01 2.736509513854980469e+01 6.876373197883367538e-03 1.286766864359378815e-02 5.923212505877017975e-03 4.297248087823390961e-03
9.160000000000000000e+02 6.859005928039550781e+00 2.697461700439453125e+01 1.887123216874897480e-03 2.633296186104416847e-03 1.356125809252262115e-03 7.977263070642948151e-03
9.170000000000000000e+02 4.036943435668945312e+00 2.777043151855468750e+01 6.302414112724363804e-04 -7.605595048516988754e-03 -2.092606155201792717e-03 6.756264716386795044e-03
9.180000000000000000e+02 5.963615775108337402e-01 2.764798927307128906e+01 6.057503051124513149e-04 -2.012422308325767517e-02 -5.855542141944169998e-03 1.436235848814249039e-03
9.190000000000000000e+02 7.428550720214843750e+01 3.316979217529296875e+01 -1.922620087862014771e-01 2.813215553760528564e-01 2.671786770224571228e-02 4.361689686775207520e-01
9.200000000000000000e+02 7.143518829345703125e+01 3.193051719665527344e+01 -3.354426622390747070e-01 7.046135663986206055e-01 1.107512786984443665e-01 5.144937038421630859e-01
9.210000000000000000e+02 6.789620208740234375e+01 3.329005813598632812e+01 -5.003261566162109375e-01 1.094453573226928711e+00 1.782382279634475708e-01 2.981519103050231934e-01
9.220000000000000000e+02 1.971805381774902344e+01 3.264891815185546875e+01 -1.462693209759891033e-03 1.311747133731842041e-01 3.891360759735107422e-02 -5.745709314942359924e-02
9.230000000000000000e+02 1.416864299774169922e+01 3.161807632446289062e+01 1.282525155693292618e-02 4.558497667312622070e-02 1.752306893467903137e-02 -1.746336556971073151e-02
9.240000000000000000e+02 1.093210124969482422e+01 3.276748275756835938e+01 7.163098081946372986e-03 2.859127521514892578e-02 1.072631217539310455e-02 -6.520075257867574692e-03
9.250000000000000000e+02 9.223904609680175781e+00 3.279515838623046875e+01 6.787403486669063568e-03 1.951181143522262573e-02 7.889764383435249329e-03 -1.328387064859271049e-03
9.260000000000000000e+02 5.077591419219970703e+00 3.091056632995605469e+01 2.187534468248486519e-03 -4.669203422963619232e-03 -7.445007213391363621e-04 5.240477155894041061e-03
9.270000000000000000e+02 6.332343220710754395e-01 3.046718406677246094e+01 6.743184640072286129e-04 -2.617620676755905151e-02 -7.650566287338733673e-03 1.133899553678929806e-03
9.280000000000000000e+02 5.025873947143554688e+01 3.661338043212890625e+01 -4.426674544811248779e-02 2.656255066394805908e-01 6.640762835741043091e-02 -1.575797945261001587e-01
9.290000000000000000e+02 1.118316364288330078e+01 3.503776931762695312e+01 5.850267596542835236e-03 3.765210509300231934e-02 1.305071264505386353e-02 -8.168866857886314392e-03
9.300000000000000000e+02 6.876444339752197266e+00 3.434560775756835938e+01 3.005359554663300514e-03 9.200912900269031525e-03 3.661881666630506516e-03 2.138806739822030067e-03
9.310000000000000000e+02 6.296567916870117188e+00 3.171383857727050781e+01 3.248265478760004044e-03 3.140722401440143585e-03 1.916696317493915558e-03 5.017197690904140472e-03
9.320000000000000000e+02 8.271546363830566406e-01 3.474670028686523438e+01 1.008734325296245515e-04 -3.191237896680831909e-02 -9.543452411890029907e-03 1.339574810117483139e-04
9.330000000000000000e+02 7.334506988525390625e+01 3.831856918334960938e+01 -2.051818221807479858e-01 4.523745477199554443e-01 7.415781915187835693e-02 1.855109781026840210e-01
9.340000000000000000e+02 7.069421386718750000e+01 3.870766448974609375e+01 -3.293482363224029541e-01 6.687240600585937500e-01 1.018127501010894775e-01 1.770067960023880005e-01
9.350000000000000000e+02 6.570783257484436035e-01 3.753539276123046875e+01 1.053580432198941708e-03 -3.203405439853668213e-02 -9.294142015278339386e-03 -4.965995321981608868e-04
9.360000000000000000e+02 4.360474586486816406e+00 1.332967853546142578e+01 -7.091058068908751011e-04 -1.080166111933067441e-04 -2.451367327012121677e-04 4.832214908674359322e-04
9.370000000000000000e+02 7.232797622680664062e+00 1.371523952484130859e+01 -1.121290610171854496e-03 1.517402852186933160e-04 -2.908651076722890139e-04 3.625355893746018410e-04
9.380000000000000000e+02 6.179494857788085938e-01 1.639137458801269531e+01 2.765592071227729321e-04 -3.955092688556760550e-04 -3.568501779227517545e-05 3.150003904011100531e-04
9.390000000000000000e+02 3.853230714797973633e+00 9.664830207824707031e+00 8.768231782596558332e-05 1.849398540798574686e-05 3.185289097018539906e-05 -9.810955089051276445e-05
9.400000000000000000e+02 6.912580966949462891e+00 1.120475196838378906e+01 -4.419176257215440273e-04 -1.169407114502973855e-04 -1.676575047895312309e-04 1.175569341285154223e-04
9.410000000000000000e+02 6.281800866127014160e-01 1.355440521240234375e+01 2.650296664796769619e-04 3.809999616350978613e-04 1.938088826136663556e-04 9.081366442842409015e-05
9.420000000000000000e+02 4.365724563598632812e+00 5.870500564575195312e+00 9.386636520503088832e-05 -4.140483270020922646e-06 2.691776535357348621e-05 -1.694769161986187100e-04
9.430000000000000000e+02 9.255343437194824219e+00 5.895016670227050781e+00 3.701280365930870175e-05 -1.407277450198307633e-04 -3.111447949777357280e-05 3.155104786856099963e-05
9.440000000000000000e+02 1.232970142364501953e+01 6.318108558654785156e+00 2.225183925474993885e-05 -2.829560435202438384e-05 -1.813129642869171221e-06 7.374413689831271768e-05
9.450000000000000000e+02 6.018245816230773926e-01 9.302410125732421875e+00 -1.999790838453918695e-04 3.905469202436506748e-04 5.717034946428611875e-05 -1.836292904044967145e-05
9.460000000000000000e+02 5.781417846679687500e+00 1.888024687767028809e+00 7.184517744462937117e-05 -5.568122287513688207e-05 4.849186097999336198e-06 -2.599580693640746176e-05
9.470000000000000000e+02 8.117436408996582031e+00 2.578990697860717773e+00 7.574046321678906679e-05 -7.226574234664440155e-05 1.042415874508151319e-06 1.010180221783230081e-05
9.480000000000000000e+02 6.197963953018188477e-01 6.410662174224853516e+00 -1.326566707575693727e-04 2.120027784258127213e-04 2.380383375566452742e-05 -3.836255928035825491e-05
9.490000000000000000e+02 1.903503990173339844e+01 3.388693809509277344e+00 -1.802897349989507347e-05 -1.778978185029700398e-05 -1.074562715075444430e-05 -6.098505764384754002e-06
9.500000000000000000e+02 1.808509635925292969e+01 -2.575632476806640625e+01 1.012579917907714844e+00 9.607502818107604980e-01 5.919990539550781250e-01 -9.378007650375366211e-01
9.510000000000000000e+02 6.907186126708984375e+01 -1.469491958618164062e+01 -4.378701150417327881e-01 4.261181876063346863e-02 -1.185774877667427063e-01 1.123296841979026794e-01
9.520000000000000000e+02 3.497591400146484375e+01 -1.366580581665039062e+01 4.834266304969787598e-01 1.241759419441223145e+00 5.175557732582092285e-01 -8.876244425773620605e-01
9.530000000000000000e+02 3.542794418334960938e+01 -1.639105987548828125e+01 1.031060442328453064e-01 -6.409026384353637695e-01 -1.613389849662780762e-01 -1.978403031826019287e-01
9.540000000000000000e+02 3.553501129150390625e+01 -1.778038597106933594e+01 3.686418756842613220e-02 -1.121639251708984375e+00 -3.254325389862060547e-01 -5.503935739398002625e-02
9.550000000000000000e+02 3.552326202392578125e+01 -2.195995330810546875e+01 1.954734325408935547e-01 -2.228935807943344116e-01 -8.226044476032257080e-03 3.311733305454254150e-01
9.560000000000000000e+02 3.574106216430664062e+01 -2.487944412231445312e+01 7.490045428276062012e-01 8.296399712562561035e-01 4.735933542251586914e-01 8.688488006591796875e-01
9.570000000000000000e+02 2.883690452575683594e+01 -2.943036842346191406e+01 1.191474318504333496e+00 2.347835600376129150e-01 4.278773367404937744e-01 4.091246724128723145e-01
9.580000000000000000e+02 2.747108078002929688e+01 -2.973439598083496094e+01 1.211497306823730469e+00 1.785845160484313965e-01 4.170245528221130371e-01 1.621604412794113159e-01
9.590000000000000000e+02 1.619853401184082031e+01 -2.367710494995117188e+01 8.156782388687133789e-01 9.658965468406677246e-01 5.344724655151367188e-01 -8.897476196289062500e-01
9.600000000000000000e+02 1.818266296386718750e+01 -1.172196388244628906e+01 -2.155725479125976562e+00 -7.215962409973144531e-01 -8.631965517997741699e-01 -9.490178227424621582e-01
9.610000000000000000e+02 2.080693626403808594e+01 -1.129098415374755859e+01 -1.215341210365295410e+00 -1.055554077029228210e-01 -3.962689638137817383e-01 -3.767716586589813232e-01
9.620000000000000000e+02 2.339925575256347656e+01 -1.058882427215576172e+01 -8.082883954048156738e-01 -1.202381476759910583e-01 -2.785579562187194824e-01 -3.649377226829528809e-01
9.630000000000000000e+02 2.463317108154296875e+01 -1.008327865600585938e+01 -6.961323022842407227e-01 -1.791742742061614990e-01 -2.625919580459594727e-01 -3.835513889789581299e-01
9.640000000000000000e+02 3.271492385864257812e+01 1.991218209266662598e+00 3.424032449722290039e+00 6.294883728027343750e+00 2.915674924850463867e+00 4.645390510559082031e+00
9.650000000000000000e+02 3.302460098266601562e+01 1.836181402206420898e+00 2.510958671569824219e+00 3.089337587356567383e+00 1.680088877677917480e+00 2.580880165100097656e+00
9.660000000000000000e+02 3.308330154418945312e+01 2.335505008697509766e+00 2.922083139419555664e+00 5.533105373382568359e+00 2.536556720733642578e+00 3.132099390029907227e+00
9.670000000000000000e+02 3.359819412231445312e+01 1.908335566520690918e+00 1.359211683273315430e+00 9.821193814277648926e-01 7.023993134498596191e-01 4.074855744838714600e-01
9.680000000000000000e+02 3.383453750610351562e+01 2.161167144775390625e+00 1.513381242752075195e+00 1.238451004028320312e+00 8.255496621131896973e-01 6.970489770174026489e-02
9.690000000000000000e+02 3.417107391357421875e+01 1.990236043930053711e+00 3.866787254810333252e-01 8.461867272853851318e-02 1.413892209529876709e-01 -9.592062234878540039e-01
9.700000000000000000e+02 3.458694458007812500e+01 2.060802459716796875e+00 -6.924114376306533813e-02 -2.474921196699142456e-01 -9.501998126506805420e-02 -1.313020706176757812e+00
9.710000000000000000e+02 3.437937164306640625e+01 2.031539678573608398e+00 3.781661391258239746e-02 -1.085455492138862610e-01 -2.121867984533309937e-02 -1.234999656677246094e+00
9.720000000000000000e+02 3.327413558959960938e+01 2.714369058609008789e+00 1.393541932106018066e+00 5.895916461944580078e+00 2.186837434768676758e+00 2.338077545166015625e+00
9.730000000000000000e+02 3.633999633789062500e+01 3.162667751312255859e+00 1.885279119014739990e-01 -6.232467293739318848e-01 -1.304156482219696045e-01 -1.492886424064636230e+00
9.740000000000000000e+02 3.806393814086914062e+01 3.024373769760131836e+00 -1.179317161440849304e-01 -1.168692469596862793e+00 -3.859872519969940186e-01 -1.327768325805664062e+00
9.750000000000000000e+02 3.848353958129882812e+01 4.452116966247558594e+00 5.177978426218032837e-02 -2.125105142593383789e+00 -6.219975948333740234e-01 -1.016924381256103516e+00
9.760000000000000000e+02 3.930867767333984375e+01 4.861554145812988281e+00 -7.955136895179748535e-02 -2.975926399230957031e+00 -9.166433215141296387e-01 -3.486355245113372803e-01
9.770000000000000000e+02 3.924837875366210938e+01 6.133187294006347656e+00 -7.410252839326858521e-02 -4.065488338470458984e+00 -1.241877198219299316e+00 -5.338131189346313477e-01
9.780000000000000000e+02 4.193061828613281250e+01 1.273329448699951172e+01 -1.126731276512145996e+00 -2.250972270965576172e+00 -1.013311028480529785e+00 -1.567408442497253418e+00
9.790000000000000000e+02 4.274307250976562500e+01 1.516797351837158203e+01 -8.242795467376708984e-01 -1.500607967376708984e+00 -6.974662542343139648e-01 -9.711670875549316406e-01
9.800000000000000000e+02 4.715262985229492188e+01 1.790937232971191406e+01 -1.041377067565917969e+00 -6.998222470283508301e-01 -5.223597884178161621e-01 -8.170197010040283203e-01
9.810000000000000000e+02 4.942606353759765625e+01 1.944382286071777344e+01 -1.173074841499328613e+00 -4.759436547756195068e-01 -4.947055280208587646e-01 -6.817826032638549805e-01
9.820000000000000000e+02 5.065542221069335938e+01 2.006731986999511719e+01 -1.210525512695312500e+00 -3.494796752929687500e-01 -4.680015742778778076e-01 -5.572353005409240723e-01
9.830000000000000000e+02 5.325101089477539062e+01 2.107352256774902344e+01 -9.232829213142395020e-01 -1.395729333162307739e-01 -3.188567459583282471e-01 -3.416130542755126953e-01
9.840000000000000000e+02 5.752668380737304688e+01 2.226140022277832031e+01 1.221070513129234314e-01 1.897935271263122559e-01 9.357017278671264648e-02 -5.883401036262512207e-01
9.850000000000000000e+02 6.185742568969726562e+01 9.411243438720703125e+00 6.739494800567626953e-01 7.764207363128662109e+00 2.531447172164916992e+00 1.661487936973571777e+00
9.860000000000000000e+02 5.544633865356445312e+01 -1.725476980209350586e+00 2.168721675872802734e+00 3.168218374252319336e+00 1.601082086563110352e+00 2.513619899749755859e+00
9.870000000000000000e+02 4.779272079467773438e+01 -5.103859901428222656e+00 -5.976477622985839844e+00 -5.234981179237365723e-01 -1.949992775917053223e+00 1.499013304710388184e+00
9.880000000000000000e+02 3.726608276367187500e+01 -9.820427298545837402e-01 -1.891305685043334961e+00 3.223964869976043701e-01 -4.706727564334869385e-01 5.721082687377929688e-01
9.890000000000000000e+02 3.676820373535156250e+01 -1.669511914253234863e+00 -2.036096334457397461e+00 4.068903923034667969e-01 -4.887618124485015869e-01 5.729888081550598145e-01
9.900000000000000000e+02 3.536666107177734375e+01 -1.313514351844787598e+00 -2.224046230316162109e+00 2.573004364967346191e-01 -5.900236964225769043e-01 2.173222601413726807e-01
9.910000000000000000e+02 3.422275161743164062e+01 -1.379790067672729492e+00 -2.289973735809326172e+00 1.642802208662033081e-01 -6.377080678939819336e-01 1.707297563552856445e-02
9.920000000000000000e+02 3.400408172607421875e+01 -1.415067195892333984e+00 -2.307860612869262695e+00 1.802685409784317017e-01 -6.382776498794555664e-01 -1.844421029090881348e-02
9.930000000000000000e+02 3.320928192138671875e+01 -1.422218799591064453e+00 -2.372154712677001953e+00 1.210851445794105530e-01 -6.753208637237548828e-01 -1.583576202392578125e-01
9.940000000000000000e+02 3.339266204833984375e+01 -1.431084394454956055e+00 -2.343086957931518555e+00 1.458018869161605835e-01 -6.591855287551879883e-01 -1.254681497812271118e-01
9.950000000000000000e+02 3.200945281982421875e+01 -1.523647904396057129e+00 -2.292743444442749023e+00 1.027579233050346375e-01 -6.569956541061401367e-01 -3.506284952163696289e-01
9.960000000000000000e+02 3.142773818969726562e+01 -1.665769338607788086e+00 -2.167151212692260742e+00 8.302825689315795898e-02 -6.252368688583374023e-01 -4.476649761199951172e-01
9.970000000000000000e+02 2.959397125244140625e+01 -1.836776971817016602e+00 -1.738223433494567871e+00 2.951871231198310852e-02 -5.126114487648010254e-01 -7.300189733505249023e-01
9.980000000000000000e+02 2.877427101135253906e+01 -1.899458408355712891e+00 -1.499697566032409668e+00 2.282587438821792603e-02 -4.430615007877349854e-01 -8.510003685951232910e-01
9.990000000000000000e+02 2.743409729003906250e+01 -2.023882150650024414e+00 -1.042877197265625000e+00 2.300022244453430176e-01 -2.438624948263168335e-01 -1.128292798995971680e+00
1.000000000000000000e+03 2.663771438598632812e+01 -2.244698762893676758e+00 -9.477294683456420898e-01 6.544072628021240234e-01 -8.799665421247482300e-02 -1.179332613945007324e+00
1.001000000000000000e+03 2.276363563537597656e+01 -6.992424726486206055e-01 -7.724924087524414062e-01 -4.434881210327148438e-01 -3.647941648960113525e-01 -6.855816841125488281e-01
1.002000000000000000e+03 2.039540100097656250e+01 -1.236212491989135742e+00 -6.081908345222473145e-01 -3.033968210220336914e-01 -2.734763026237487793e-01 -5.872938632965087891e-01
1.003000000000000000e+03 1.728450965881347656e+01 -1.630363464355468750e+00 -2.285790145397186279e-01 -1.380998194217681885e-01 -1.100036501884460449e-01 -3.321295678615570068e-01
1.004000000000000000e+03 1.650762748718261719e+01 -1.694451093673706055e+00 -1.460808813571929932e-01 -1.058097556233406067e-01 -7.556718587875366211e-02 -2.707106173038482666e-01
1.005000000000000000e+03 1.341166591644287109e+01 -1.826653122901916504e+00 7.974476367235183716e-02 -4.574507102370262146e-02 1.019990909844636917e-02 -8.002562075853347778e-02
1.006000000000000000e+03 1.495353412628173828e+01 -1.772109389305114746e+00 -1.030319090932607651e-02 -7.044959068298339844e-02 -2.422583289444446564e-02 -1.643133908510208130e-01
1.007000000000000000e+03 1.188973617553710938e+01 -1.847459435462951660e+00 1.298135817050933838e-01 -2.956421487033367157e-02 3.007480874657630920e-02 -1.782897859811782837e-02
1.008000000000000000e+03 8.837812423706054688e+00 -2.607526540756225586e+00 6.503725796937942505e-02 -2.352019585669040680e-02 1.245511788874864578e-02 4.743263870477676392e-02
1.009000000000000000e+03 8.079620361328125000e+00 -1.861640810966491699e+00 1.358584165573120117e-01 -8.803588338196277618e-03 3.811644762754440308e-02 5.441314354538917542e-02
1.010000000000000000e+03 7.312825679779052734e+00 -2.568319559097290039e+00 6.708386540412902832e-02 -1.141568832099437714e-02 1.670045405626296997e-02 6.808525323867797852e-02
1.011000000000000000e+03 2.251237154006958008e+00 -2.978552341461181641e+00 1.401648018509149551e-02 3.393673896789550781e-02 1.438596658408641815e-02 6.141542643308639526e-02
1.012000000000000000e+03 2.777405977249145508e+00 -1.961473584175109863e+00 3.739576041698455811e-02 1.322669722139835358e-02 1.518673729151487350e-02 5.668259412050247192e-02
1.013000000000000000e+03 2.008332252502441406e+00 -2.022026062011718750e+00 2.163505181670188904e-02 2.369703724980354309e-02 1.359962671995162964e-02 4.718749597668647766e-02
1.014000000000000000e+03 1.232000708580017090e+00 -2.126984596252441406e+00 1.074609998613595963e-02 3.386370837688446045e-02 1.338294334709644318e-02 3.089631907641887665e-02
1.015000000000000000e+03 9.521486759185791016e-01 -3.869549942016601562e+01 -7.805096451193094254e-03 -2.026457786560058594e+00 -6.102788448333740234e-01 2.918883226811885834e-02
1.016000000000000000e+03 9.052399396896362305e-01 -3.340246963500976562e+01 -2.725441008806228638e-03 -2.087057590484619141e+00 -6.269348859786987305e-01 -1.006884220987558365e-02
1.017000000000000000e+03 8.745325207710266113e-01 -3.190630340576171875e+01 4.471467807888984680e-03 -2.067987918853759766e+00 -6.190549135208129883e-01 -1.177872065454721451e-02
1.018000000000000000e+03 7.714490890502929688e-01 -2.902036094665527344e+01 3.357031149789690971e-03 -1.983968377113342285e+00 -5.941833853721618652e-01 -3.444644063711166382e-02
1.019000000000000000e+03 6.945342421531677246e-01 -2.617253303527832031e+01 2.164706354960799217e-03 -1.796951293945312500e+00 -5.384359955787658691e-01 -5.960497260093688965e-02
1.020000000000000000e+03 1.908940911293029785e+00 -2.182233428955078125e+01 1.819698326289653778e-02 -1.142117142677307129e+00 -3.371760547161102295e-01 -2.609910666942596436e-01
1.021000000000000000e+03 1.846249103546142578e+00 -1.906086158752441406e+01 5.897362134419381618e-04 -7.957615256309509277e-01 -2.385515421628952026e-01 -2.834397256374359131e-01
1.022000000000000000e+03 6.185709238052368164e-01 -1.632358169555664062e+01 -3.983531612902879715e-03 -4.152944684028625488e-01 -1.257833987474441528e-01 -9.041617065668106079e-02
1.023000000000000000e+03 1.867016077041625977e+00 -1.489003086090087891e+01 -3.096713311970233917e-02 -2.845609784126281738e-01 -9.465843439102172852e-02 -2.218452095985412598e-01
1.024000000000000000e+03 1.706145167350769043e+00 -6.694401741027832031e+00 -1.920738071203231812e-02 1.062888950109481812e-01 2.612445317208766937e-02 3.016888536512851715e-02
1.025000000000000000e+03 1.807205438613891602e+00 -5.380357742309570312e+00 -9.343929588794708252e-03 8.613111823797225952e-02 2.303615584969520569e-02 4.978716745972633362e-02
1.026000000000000000e+03 7.966648864746093750e+01 -1.862756538391113281e+01 -3.460136358626186848e-04 2.881687832996249199e-04 -1.735345904307905585e-05 5.117518230690620840e-05
1.027000000000000000e+03 7.943965148925781250e+01 -2.274594688415527344e+01 9.847582550719380379e-04 1.348347868770360947e-03 6.999318138696253300e-04 -1.499097415944561362e-04
1.028000000000000000e+03 7.831300354003906250e+01 -2.272936248779296875e+01 -1.337155350483953953e-03 6.778514361940324306e-04 -1.977911597350612283e-04 1.468179980292916298e-04
1.029000000000000000e+03 7.932376861572265625e+01 -2.685496330261230469e+01 -1.868494204245507717e-03 -4.368201480247080326e-04 -6.915942649357020855e-04 8.156475378200411797e-04
1.030000000000000000e+03 7.795246124267578125e+01 -2.686582946777343750e+01 5.152790108695626259e-04 -2.230260521173477173e-03 -5.144944298081099987e-04 2.260147361084818840e-03
1.031000000000000000e+03 7.936566162109375000e+01 -3.093953895568847656e+01 1.880469964817166328e-03 -9.135686792433261871e-03 -2.176565118134021759e-03 2.168542239814996719e-03
1.032000000000000000e+03 7.818566131591796875e+01 -3.230258941650390625e+01 6.400109268724918365e-04 -1.334156282246112823e-02 -3.810465568676590919e-03 7.130559999495744705e-03
1.033000000000000000e+03 7.934037780761718750e+01 -3.495827865600585938e+01 -1.359252841211855412e-03 -2.522748149931430817e-02 -7.976020686328411102e-03 2.226267009973526001e-03
1.034000000000000000e+03 7.791705322265625000e+01 -3.611105346679687500e+01 7.253806688822805882e-05 -2.670791745185852051e-02 -7.990613579750061035e-03 6.190494634211063385e-03
1.035000000000000000e+03 7.911936950683593750e+01 -3.888008117675781250e+01 8.151551010087132454e-04 -3.717911243438720703e-02 -1.090918667614459991e-02 1.370399724692106247e-03
1.036000000000000000e+03 7.678947448730468750e+01 -2.008395576477050781e+01 -7.749760407023131847e-04 -4.656428063753992319e-04 -3.721856628544628620e-04 5.025332793593406677e-04
1.037000000000000000e+03 7.709371948242187500e+01 -1.833549690246582031e+01 -2.572992525529116392e-04 2.415329618088435382e-05 -6.994378782110288739e-05 -2.925894114014226943e-05
1.038000000000000000e+03 7.645622253417968750e+01 -1.828135871887207031e+01 6.198451737873256207e-04 1.283544406760483980e-04 2.244598872493952513e-04 -7.694064406678080559e-04
1.039000000000000000e+03 7.363175964355468750e+01 -1.817335510253906250e+01 9.111583931371569633e-04 -4.471355059649795294e-04 1.392068807035684586e-04 3.757029480766505003e-04
1.040000000000000000e+03 7.506604766845703125e+01 -1.820441055297851562e+01 6.230564904399216175e-04 -7.018465839792042971e-05 1.658615510677918792e-04 -2.142010489478707314e-04
1.041000000000000000e+03 7.222695159912109375e+01 -1.820050239562988281e+01 1.207698136568069458e-03 -9.834780357778072357e-04 6.726601714035496116e-05 5.265327636152505875e-04
1.042000000000000000e+03 6.859055328369140625e+01 -2.063973808288574219e+01 2.356793265789747238e-03 2.676797099411487579e-03 1.510077039711177349e-03 -4.505283141043037176e-04
1.043000000000000000e+03 6.773165130615234375e+01 -2.433424377441406250e+01 -7.119571324437856674e-03 3.526994958519935608e-03 -1.077772933058440685e-03 -3.235876094549894333e-03
1.044000000000000000e+03 6.238687133789062500e+01 -2.861305236816406250e+01 -9.473166614770889282e-02 -2.337544411420822144e-02 -3.543213382363319397e-02 -2.059189975261688232e-02
1.045000000000000000e+03 5.537341308593750000e+01 -3.077897453308105469e+01 -3.681003749370574951e-01 3.632800281047821045e-02 -9.953171759843826294e-02 -1.060856692492961884e-02
1.046000000000000000e+03 5.386959457397460938e+01 -3.081145477294921875e+01 -3.396612405776977539e-01 -2.872263453900814056e-02 -1.105151623487472534e-01 -1.515500247478485107e-02
1.047000000000000000e+03 4.602991867065429688e+01 -2.784926033020019531e+01 4.320845007896423340e-01 2.850795984268188477e+00 9.848641753196716309e-01 -6.406639218330383301e-01
1.048000000000000000e+03 4.402114486694335938e+01 -1.859633445739746094e+01 2.592375993728637695e+00 5.195633411407470703e+00 2.336402893066406250e+00 1.446014881134033203e+00
1.049000000000000000e+03 5.564373016357421875e+01 -1.459757232666015625e+01 4.353455007076263428e-01 7.294528186321258545e-02 1.524872332811355591e-01 3.711945414543151855e-01
1.050000000000000000e+03 5.699546432495117188e+01 -1.442448806762695312e+01 -2.393216639757156372e-01 1.170357391238212585e-01 -3.668577596545219421e-02 1.967683881521224976e-01
1.051000000000000000e+03 5.964813232421875000e+01 -1.389458560943603516e+01 -9.004464745521545410e-01 1.163173541426658630e-01 -2.352387309074401855e-01 -1.726621687412261963e-01
1.052000000000000000e+03 6.209706115722656250e+01 -1.277878284454345703e+01 -1.846401572227478027e+00 -1.267098039388656616e-01 -5.919334292411804199e-01 -7.141703367233276367e-01
1.053000000000000000e+03 6.854895782470703125e+01 -1.381940364837646484e+01 -7.180061340332031250e-01 6.044486165046691895e-02 -1.972683817148208618e-01 1.463874578475952148e-01
1.054000000000000000e+03 6.838385772705078125e+01 -1.472124767303466797e+01 -3.615130782127380371e-01 -2.333703264594078064e-02 -1.154550388455390930e-01 1.651912778615951538e-01
1.055000000000000000e+03 6.975302124023437500e+01 -1.464246749877929688e+01 -4.061270356178283691e-01 7.529344409704208374e-02 -9.925007820129394531e-02 8.088578283786773682e-02
1.056000000000000000e+03 7.272543334960937500e+01 -1.373132991790771484e+01 -3.534263372421264648e-01 4.860509559512138367e-02 -9.144636988639831543e-02 -1.338755339384078979e-01
1.057000000000000000e+03 7.356830596923828125e+01 -1.442061996459960938e+01 -2.598641514778137207e-01 1.679126545786857605e-02 -7.292187213897705078e-02 -1.043485626578330994e-01
1.058000000000000000e+03 7.428607940673828125e+01 -1.368339252471923828e+01 -2.508961260318756104e-01 4.775882698595523834e-03 -7.383606582880020142e-02 -1.589263528585433960e-01
1.059000000000000000e+03 7.591296386718750000e+01 -1.445792579650878906e+01 -1.233200058341026306e-01 -2.148945070803165436e-02 -4.344283789396286011e-02 -8.742247521877288818e-02
1.060000000000000000e+03 7.660298919677734375e+01 -1.457493591308593750e+01 -9.283012896776199341e-02 -2.526242285966873169e-02 -3.542776405811309814e-02 -6.974513083696365356e-02
1.061000000000000000e+03 7.836539459228515625e+01 -1.452423954010009766e+01 -2.713954821228981018e-02 -3.271665796637535095e-02 -1.795686222612857819e-02 -2.880533598363399506e-02
1.062000000000000000e+03 7.937162780761718750e+01 -1.125038337707519531e+01 -6.136093288660049438e-04 -1.494632661342620850e-01 -4.502306133508682251e-02 -5.187948420643806458e-02
1.063000000000000000e+03 7.900640869140625000e+01 -1.444379711151123047e+01 -9.064486250281333923e-03 -2.278364263474941254e-02 -9.554438292980194092e-03 -9.394514374434947968e-03
1.064000000000000000e+03 7.966548919677734375e+01 -1.433941555023193359e+01 -2.033716533333063126e-03 7.497758138924837112e-03 1.639212481677532196e-03 -2.357241930440068245e-03
1.065000000000000000e+03 7.491293334960937500e+01 4.044132614135742188e+01 -1.196279451251029968e-01 3.296045064926147461e-01 6.299297511577606201e-02 7.502781599760055542e-02
1.066000000000000000e+03 7.867082977294921875e+01 4.011962890625000000e+01 3.535945899784564972e-03 2.191165834665298462e-01 6.679575890302658081e-02 4.429976269602775574e-02
1.067000000000000000e+03 7.648193359375000000e+01 3.917741012573242188e+01 -5.520246177911758423e-02 2.103766351938247681e-01 4.655225202441215515e-02 1.143591403961181641e-01
1.068000000000000000e+03 7.925151062011718750e+01 3.469269180297851562e+01 -7.702838629484176636e-03 -1.267018318176269531e-01 -4.032140225172042847e-02 7.110778987407684326e-02
1.069000000000000000e+03 7.922933959960937500e+01 2.772070312500000000e+01 -1.235647778958082199e-02 -1.082426548004150391e+00 -3.284349143505096436e-01 1.399504989385604858e-01
1.070000000000000000e+03 7.793375396728515625e+01 2.062411880493164062e+01 1.825555413961410522e-02 -1.911356449127197266e+00 -5.679302811622619629e-01 3.786031901836395264e-01
1.071000000000000000e+03 7.810350799560546875e+01 1.642567062377929688e+01 4.217040538787841797e-02 -2.536458253860473633e+00 -7.482863664627075195e-01 2.389054000377655029e-01
1.072000000000000000e+03 7.809678649902343750e+01 1.226603507995605469e+01 5.081596225500106812e-02 -2.812315464019775391e+00 -8.284498453140258789e-01 5.767868086695671082e-02
1.073000000000000000e+03 7.798779296875000000e+01 9.478476524353027344e+00 6.395776569843292236e-02 -2.747183561325073242e+00 -8.049677610397338867e-01 -6.311994045972824097e-02
1.074000000000000000e+03 7.800119018554687500e+01 6.676601886749267578e+00 6.036041304469108582e-02 -2.621247053146362305e+00 -7.682660222053527832e-01 -1.858664751052856445e-01
1.075000000000000000e+03 7.937490081787109375e+01 3.929185390472412109e+00 -3.906738478690385818e-03 -2.997411489486694336e+00 -9.003954529762268066e-01 -9.466446936130523682e-02
1.076000000000000000e+03 7.814044189453125000e+01 2.510032415390014648e+00 1.833387278020381927e-02 -2.220418214797973633e+00 -6.606252789497375488e-01 -3.072032034397125244e-01
1.077000000000000000e+03 7.802392578125000000e+01 -3.026068806648254395e-01 1.327525544911623001e-02 -1.737275242805480957e+00 -5.171999931335449219e-01 -3.847583830356597900e-01
1.078000000000000000e+03 7.933640289306640625e+01 -3.090993881225585938e+00 5.120660716784186661e-05 -1.571022272109985352e+00 -4.712913334369659424e-01 -1.359262913465499878e-01
1.079000000000000000e+03 7.808825683593750000e+01 -4.553926944732666016e+00 -3.854333655908703804e-03 -1.050996065139770508e+00 -3.164550960063934326e-01 -3.788003325462341309e-01
1.080000000000000000e+03 7.942870330810546875e+01 -7.264089107513427734e+00 -1.186201162636280060e-02 -7.074026465415954590e-01 -2.157794088125228882e-01 -9.964205324649810791e-02
1.081000000000000000e+03 7.817460632324218750e+01 -1.088916587829589844e+01 -4.825643450021743774e-02 -2.270123809576034546e-01 -8.258064091205596924e-02 -1.713716983795166016e-01
1.082000000000000000e+03 3.917020857334136963e-01 2.187462568283081055e+00 1.123487745644524693e-04 5.393569881562143564e-05 4.988534055883064866e-05 -7.622927114425692707e-06
1.083000000000000000e+03 5.261812210083007812e-01 4.970786094665527344e+00 1.412684505339711905e-04 1.116716448450461030e-04 7.588203152408823371e-05 -4.432420973898842931e-05
1.084000000000000000e+03 1.883819103240966797e+00 6.291679859161376953e+00 1.366595533909276128e-04 1.147643270087428391e-04 7.542716775787994266e-05 -1.418545580236241221e-04
1.085000000000000000e+03 1.762165427207946777e+00 9.378745079040527344e+00 2.642303588800132275e-04 1.830227993195876479e-04 1.341759489150717854e-04 -1.088227290892973542e-04
1.086000000000000000e+03 6.082837581634521484e-01 1.213815307617187500e+01 -3.023012832272797823e-04 4.781840252690017223e-04 5.276482625049538910e-05 5.602487931355426554e-07
1.087000000000000000e+03 1.807058095932006836e+00 1.218527030944824219e+01 1.988908770726993680e-04 1.357222063234075904e-04 1.003839206532575190e-04 4.135496055823750794e-05
1.088000000000000000e+03 1.844360351562500000e+00 1.650076103210449219e+01 -7.245469023473560810e-04 -7.350409287028014660e-04 -4.378763551358133554e-04 8.857638458721339703e-04
1.089000000000000000e+03 1.750604271888732910e+00 1.931874656677246094e+01 -8.805766119621694088e-04 -2.616580808535218239e-03 -1.049147220328450203e-03 1.922147464938461781e-03
1.090000000000000000e+03 5.892851948738098145e-01 2.203173637390136719e+01 4.127310239709913731e-04 -7.100554648786783218e-03 -2.006347058340907097e-03 1.171316602267324924e-03
1.091000000000000000e+03 6.000183224678039551e-01 2.484066009521484375e+01 5.109166377224028111e-04 -1.326552871614694595e-02 -3.826383734121918678e-03 1.440456020645797253e-03
1.092000000000000000e+03 5.977128744125366211e-01 2.624334526062011719e+01 -5.645207711495459080e-04 -1.669221371412277222e-02 -5.177020560950040817e-03 1.461519626900553703e-03
1.093000000000000000e+03 6.064246296882629395e-01 2.905797576904296875e+01 -5.102902650833129883e-04 -2.338395267724990845e-02 -7.168272975832223892e-03 1.310185762122273445e-03
1.094000000000000000e+03 1.802184104919433594e+00 2.903011894226074219e+01 8.425016421824693680e-04 -1.780266687273979187e-02 -5.088049452751874924e-03 3.676129737868905067e-03
1.095000000000000000e+03 7.506704330444335938e-01 3.330271530151367188e+01 8.499188697896897793e-04 -3.086733631789684296e-02 -9.005225263535976410e-03 1.014788518659770489e-03
1.096000000000000000e+03 8.031909465789794922e-01 3.618579864501953125e+01 -2.090611960738897324e-04 -3.219259530305862427e-02 -9.720496833324432373e-03 2.376298507442697883e-04
1.097000000000000000e+03 2.486269712448120117e+00 3.640466308593750000e+01 1.628841855563223362e-03 -2.168435230851173401e-02 -6.016653031110763550e-03 -3.127590753138065338e-04
1.098000000000000000e+03 1.197198271751403809e+00 4.001088333129882812e+01 1.339402166195213795e-03 -2.736276760697364807e-02 -7.807009853422641754e-03 -2.227646997198462486e-03
1.099000000000000000e+03 9.621262550354003906e+00 1.847956180572509766e+00 1.283060701098293066e-04 2.468440834491048008e-05 4.589714444591663778e-05 2.822444230332621373e-06
1.100000000000000000e+03 8.854698181152343750e+00 1.853044748306274414e+00 1.017891408991999924e-04 -5.775360841653309762e-05 1.321066065429477021e-05 1.952243110281415284e-05
1.101000000000000000e+03 5.012807369232177734e+00 1.904403567314147949e+00 1.039616981870494783e-04 3.838532211375422776e-05 4.270410499884746969e-05 -6.863579619675874710e-05
1.102000000000000000e+03 1.942535519599914551e+00 2.073287248611450195e+00 3.580826387405977584e-06 9.411632345290854573e-05 2.930914524768013507e-05 -6.134811701485887170e-05
1.103000000000000000e+03 1.171034693717956543e+00 2.137764930725097656e+00 6.901104370626853779e-06 -4.956592238158918917e-05 -1.279944444831926376e-05 -1.060052727552829310e-05
1.104000000000000000e+03 1.114645671844482422e+01 2.515709400177001953e+00 6.408726767404004931e-05 -5.438182779471389949e-05 2.911632464019930921e-06 5.371957377064973116e-05
1.105000000000000000e+03 1.260569095611572266e+01 1.841689705848693848e+00 8.654979319544509053e-05 3.978959648520685732e-05 3.790181654039770365e-05 3.651390943559817970e-05
1.106000000000000000e+03 1.553379344940185547e+01 1.914076328277587891e+00 3.658997957245446742e-05 5.125070674694143236e-05 2.635220516822300851e-05 2.993996713485103101e-05
1.107000000000000000e+03 1.697168922424316406e+01 2.008718013763427734e+00 2.054883952951058745e-05 5.114638406666927040e-05 2.150856744265183806e-05 2.095464333251584321e-05
1.108000000000000000e+03 1.840480804443359375e+01 2.140445232391357422e+00 1.212469123856863007e-05 4.362113395472988486e-05 1.672374673944432288e-05 1.092531965696252882e-05
1.109000000000000000e+03 2.049230194091796875e+01 2.442084789276123047e+00 -8.208613166971190367e-07 -2.815313200699165463e-05 -8.692198207427281886e-06 -3.202457719453377649e-06
1.110000000000000000e+03 2.117765808105468750e+01 2.557890176773071289e+00 5.320578566170297563e-06 2.757416041276883334e-05 9.868422239378560334e-06 4.100339083379367366e-06
1.111000000000000000e+03 2.319235992431640625e+01 3.825427532196044922e+00 4.431130582815967500e-05 2.342338120797649026e-05 2.032040538324508816e-05 3.923042459064163268e-05
1.112000000000000000e+03 2.340157127380371094e+01 3.538024425506591797e+00 -1.411422090313863009e-05 -1.782197978172916919e-05 -9.580860023561399430e-06 -1.600592804607003927e-05
1.113000000000000000e+03 2.363349533081054688e+01 3.244203805923461914e+00 -1.079175217455485836e-05 4.532034381554694846e-06 -1.877915224213211332e-06 3.359397851454559714e-06
1.114000000000000000e+03 2.182564163208007812e+01 2.707386732101440430e+00 -8.523624273948371410e-06 -2.526407479308545589e-05 -1.013630935631226748e-05 -7.288978849828708917e-06
1.115000000000000000e+03 2.207500839233398438e+01 4.810255050659179688e+00 2.624135959194973111e-05 2.556727849878370762e-05 1.554259142722003162e-05 1.778845762601122260e-05
1.116000000000000000e+03 2.144790840148925781e+01 5.324942588806152344e+00 1.490525482950033620e-05 3.603414006647653878e-05 1.528181928733829409e-05 2.794174361042678356e-05
1.117000000000000000e+03 2.051007270812988281e+01 6.118631362915039062e+00 -5.433837213786318898e-05 -3.885526894009672105e-05 -2.795809268718585372e-05 -4.837874439544975758e-05
1.118000000000000000e+03 2.020943450927734375e+01 6.372275352478027344e+00 5.209192386246286333e-05 4.009110853075981140e-05 2.765491080936044455e-05 3.976995867560617626e-05
1.119000000000000000e+03 1.990338706970214844e+01 6.626576423645019531e+00 -4.090935181011445820e-05 -2.909181057475507259e-05 -2.100034907925873995e-05 -3.952511542593128979e-05
1.120000000000000000e+03 1.834200096130371094e+01 7.371881961822509766e+00 4.995276322006247938e-05 9.125814540311694145e-05 4.236327367834746838e-05 2.884932655433658510e-05
1.121000000000000000e+03 1.787925148010253906e+01 8.573987007141113281e+00 1.033918088069185615e-04 1.056794571923092008e-04 6.272138125495985150e-05 8.012136277102399617e-06
1.122000000000000000e+03 1.760146141052246094e+01 8.863198280334472656e+00 -2.981970465043559670e-05 4.909451308776624501e-05 5.782442713098134845e-06 -1.139002415584400296e-04
1.123000000000000000e+03 1.708595275878906250e+01 9.469858169555664062e+00 -1.127096311392961070e-05 1.032737491186708212e-04 2.760083589237183332e-05 -1.508287532487884164e-04
1.124000000000000000e+03 1.661946868896484375e+01 1.011703681945800781e+01 -1.730406438582576811e-05 1.568104489706456661e-04 4.185191573924385011e-05 -2.080875856336206198e-04
1.125000000000000000e+03 1.684812545776367188e+01 9.790016174316406250e+00 1.511279406258836389e-04 2.458810049574822187e-04 1.191026894957758486e-04 -4.581049870466813445e-05
1.126000000000000000e+03 1.592883682250976562e+01 1.110311222076416016e+01 2.714970614761114120e-04 5.124539020471274853e-04 2.351853036088868976e-04 -1.107683419832028449e-04
1.127000000000000000e+03 1.570409297943115234e+01 1.144640445709228516e+01 -4.391434777062386274e-05 5.284696817398071289e-04 1.453666045563295484e-04 -3.390915226191282272e-04
1.128000000000000000e+03 1.463929939270019531e+01 1.538804817199707031e+01 -3.753746277652680874e-04 6.605289527215063572e-04 8.554629312129691243e-05 -1.695977989584207535e-04
1.129000000000000000e+03 1.466472339630126953e+01 1.579639530181884766e+01 3.822343715000897646e-04 4.213322245050221682e-04 2.410699817119166255e-04 -1.709213538561016321e-04
1.130000000000000000e+03 1.471598911285400391e+01 1.659964561462402344e+01 3.507562505546957254e-04 -2.501327253412455320e-04 3.018705683643929660e-05 -3.289541054982692003e-04
1.131000000000000000e+03 1.472783756256103516e+01 1.819001579284667969e+01 -5.594375761575065553e-05 -5.073352716863155365e-03 -1.538788899779319763e-03 -1.512427814304828644e-03
1.132000000000000000e+03 1.710095024108886719e+01 2.140753746032714844e+01 -5.628157779574394226e-02 -1.184582896530628204e-02 -2.043822221457958221e-02 -2.000166103243827820e-02
1.133000000000000000e+03 1.835560989379882812e+01 2.165642356872558594e+01 -5.599531158804893494e-02 -4.086197819560766220e-03 -1.802445389330387115e-02 -1.533702388405799866e-02
1.134000000000000000e+03 2.430814361572265625e+01 2.186334991455078125e+01 1.436610817909240723e-01 1.643670536577701569e-02 4.802933707833290100e-02 -4.859467968344688416e-02
1.135000000000000000e+03 2.627620124816894531e+01 2.142911148071289062e+01 3.358020186424255371e-01 7.271438837051391602e-02 1.225549206137657166e-01 -1.448807418346405029e-01
1.136000000000000000e+03 2.668801689147949219e+01 2.134222602844238281e+01 3.905511200428009033e-01 9.018708765506744385e-02 1.442214548587799072e-01 -1.804445832967758179e-01
1.137000000000000000e+03 2.745463752746582031e+01 2.103256034851074219e+01 5.815972089767456055e-01 1.164488717913627625e-01 2.094138115644454956e-01 -2.572452723979949951e-01
1.138000000000000000e+03 2.782633590698242188e+01 2.089904594421386719e+01 7.339763045310974121e-01 2.041061669588088989e-01 2.814247310161590576e-01 -3.448677957057952881e-01
1.139000000000000000e+03 2.822745704650878906e+01 2.080309867858886719e+01 8.564261198043823242e-01 4.444557726383209229e-01 3.902645707130432129e-01 -5.019844174385070801e-01
1.140000000000000000e+03 2.892143440246582031e+01 2.033819580078125000e+01 9.263853430747985840e-01 9.060791730880737305e-01 5.497393608093261719e-01 -8.301813602447509766e-01
1.141000000000000000e+03 2.974532127380371094e+01 1.940786743164062500e+01 6.266874670982360840e-01 1.533618807792663574e+00 6.480918526649475098e-01 -9.163901209831237793e-01
1.142000000000000000e+03 3.039074516296386719e+01 1.836500167846679688e+01 5.140251517295837402e-01 1.897655606269836426e+00 7.235041856765747070e-01 -9.316712617874145508e-01
1.143000000000000000e+03 3.056521987915039062e+01 1.798938179016113281e+01 4.986056387424468994e-01 2.083941698074340820e+00 7.747641801834106445e-01 -9.325407147407531738e-01
1.144000000000000000e+03 3.115436363220214844e+01 1.650019836425781250e+01 2.948038578033447266e-01 2.524498939514160156e+00 8.457908630371093750e-01 -8.268432021141052246e-01
1.145000000000000000e+03 3.196348762512207031e+01 1.421224880218505859e+01 3.192047476768493652e-01 3.177896738052368164e+00 1.049130439758300781e+00 -8.995988368988037109e-01
1.146000000000000000e+03 3.173741912841796875e+01 1.496454811096191406e+01 2.826447486877441406e-01 2.867897987365722656e+00 9.451628327369689941e-01 -8.668317794799804688e-01
1.147000000000000000e+03 3.222104263305664062e+01 1.341935539245605469e+01 2.750349640846252441e-01 3.540017843246459961e+00 1.144515872001647949e+00 -9.156970381736755371e-01
1.148000000000000000e+03 3.238723373413085938e+01 1.262810611724853516e+01 2.718192636966705322e-01 4.026314735412597656e+00 1.289440274238586426e+00 -9.037393927574157715e-01
1.149000000000000000e+03 3.245552444458007812e+01 1.224096775054931641e+01 2.048685401678085327e-01 4.158634185791015625e+00 1.309050917625427246e+00 -8.588259220123291016e-01
1.150000000000000000e+03 3.251918411254882812e+01 1.185565662384033203e+01 1.824977397918701172e-01 4.188182830810546875e+00 1.311204195022583008e+00 -8.243110179901123047e-01
1.151000000000000000e+03 3.303985977172851562e+01 9.509685516357421875e+00 1.845820695161819458e-01 4.834957599639892578e+00 1.505861878395080566e+00 -8.298882246017456055e-01
1.152000000000000000e+03 3.306354522705078125e+01 9.149067878723144531e+00 1.210270226001739502e-01 4.979672908782958984e+00 1.530210018157958984e+00 -8.376494646072387695e-01
1.153000000000000000e+03 3.300735473632812500e+01 9.912279129028320312e+00 1.814791709184646606e-01 4.736587047576904297e+00 1.475419878959655762e+00 -8.549886941909790039e-01
1.154000000000000000e+03 3.339573287963867188e+01 7.140767097473144531e+00 1.619438081979751587e-01 5.148716449737548828e+00 1.593198060989379883e+00 -4.471012949943542480e-01
1.155000000000000000e+03 3.348215484619140625e+01 5.943914890289306641e+00 -4.909793287515640259e-02 4.471683025360107422e+00 1.326775550842285156e+00 -4.059016406536102295e-01
1.156000000000000000e+03 3.268000411987304688e+01 1.769488930702209473e+00 3.845945835113525391e+00 4.259065628051757812e+00 2.431503534317016602e+00 3.709266424179077148e+00
1.157000000000000000e+03 3.253242492675781250e+01 1.768848299980163574e+00 4.833585739135742188e+00 7.159188747406005859e+00 3.597832441329956055e+00 5.730727195739746094e+00
1.158000000000000000e+03 4.002103805541992188e+01 -6.456308960914611816e-01 -8.442689776420593262e-01 -3.891535401344299316e-01 -3.700267374515533447e-01 7.332140207290649414e-01
1.159000000000000000e+03 3.523859024047851562e+01 2.196238994598388672e+00 -5.427364110946655273e-01 -5.401750206947326660e-01 -3.248734474182128906e-01 -1.611937403678894043e+00
1.160000000000000000e+03 3.321445846557617188e+01 1.865985751152038574e+00 2.338674545288085938e+00 2.937897205352783203e+00 1.582971572875976562e+00 1.503693699836730957e+00
1.161000000000000000e+03 3.340374374389648438e+01 1.873208999633789062e+00 1.531528949737548828e+00 1.163769125938415527e+00 8.085894584655761719e-01 4.831291437149047852e-01
1.162000000000000000e+03 3.291553878784179688e+01 2.028369665145874023e+00 2.455111742019653320e+00 4.455712795257568359e+00 2.073247432708740234e+00 3.874515771865844727e+00
1.163000000000000000e+03 3.379314041137695312e+01 1.912434577941894531e+00 7.618247866630554199e-01 7.218592762947082520e-01 4.451052248477935791e-01 -3.343392312526702881e-01
1.164000000000000000e+03 3.083316040039062500e+01 -1.686001300811767578e+00 -2.104447364807128906e+00 7.378932833671569824e-02 -6.091973781585693359e-01 -5.359475016593933105e-01
1.165000000000000000e+03 3.043314743041992188e+01 -1.749394416809082031e+00 -1.998940229415893555e+00 5.585215985774993896e-02 -5.829263925552368164e-01 -6.042246818542480469e-01
1.166000000000000000e+03 3.241164016723632812e+01 -1.543387055397033691e+00 -2.307728290557861328e+00 1.260035187005996704e-01 -6.545174121856689453e-01 -2.776415944099426270e-01
1.167000000000000000e+03 3.001793289184570312e+01 -1.829679131507873535e+00 -1.859589457511901855e+00 5.525372549891471863e-02 -5.413007140159606934e-01 -6.738897562026977539e-01
1.168000000000000000e+03 2.848736190795898438e+01 -2.144476175308227539e+00 -1.298317670822143555e+00 6.979078799486160278e-02 -3.685580492019653320e-01 -9.731584191322326660e-01
1.169000000000000000e+03 2.799037361145019531e+01 -1.925443887710571289e+00 -1.204958319664001465e+00 7.317354530096054077e-02 -3.395354151725769043e-01 -9.863960146903991699e-01
1.170000000000000000e+03 2.775640487670898438e+01 -2.178081512451171875e+00 -1.086789608001708984e+00 1.719587892293930054e-01 -2.744492292404174805e-01 -1.092973470687866211e+00
1.171000000000000000e+03 2.705254554748535156e+01 -2.107065916061401367e+00 -9.701657295227050781e-01 4.202256798744201660e-01 -1.649820208549499512e-01 -1.208078742027282715e+00
1.172000000000000000e+03 2.590877342224121094e+01 -2.287575006484985352e+00 -9.167758226394653320e-01 9.024543762207031250e-01 -4.296428058296442032e-03 -8.619616031646728516e-01
1.173000000000000000e+03 2.637516212463378906e+01 -2.280446052551269531e+00 -9.833425879478454590e-01 8.292343616485595703e-01 -4.623246937990188599e-02 -1.152029275894165039e+00
1.174000000000000000e+03 3.485939025878906250e+01 -1.334105491638183594e+00 -2.261219739913940430e+00 2.348622232675552368e-01 -6.079072356224060059e-01 1.427375674247741699e-01
1.175000000000000000e+03 3.263720321655273438e+01 -1.543468713760375977e+00 -2.306814670562744141e+00 1.123208999633789062e-01 -6.583481431007385254e-01 -2.464295625686645508e-01
1.176000000000000000e+03 3.182015037536621094e+01 -1.879444360733032227e+00 -2.082655906677246094e+00 1.442754715681076050e-01 -5.815141201019287109e-01 -3.969972431659698486e-01
1.177000000000000000e+03 3.220168685913085938e+01 -1.536312818527221680e+00 -2.296309709548950195e+00 9.790241718292236328e-02 -6.595221757888793945e-01 -3.192988336086273193e-01
1.178000000000000000e+03 3.120672798156738281e+01 -1.642182826995849609e+00 -2.147147893905639648e+00 9.102305024862289429e-02 -6.168374419212341309e-01 -4.787626266479492188e-01
1.179000000000000000e+03 3.111262893676757812e+01 -1.844270467758178711e+00 -2.039857149124145508e+00 1.124040707945823669e-01 -5.782359242439270020e-01 -5.141516923904418945e-01
1.180000000000000000e+03 3.022835540771484375e+01 -1.781581759452819824e+00 -1.931491136550903320e+00 5.811179056763648987e-02 -5.620138049125671387e-01 -6.436309218406677246e-01
1.181000000000000000e+03 2.938794898986816406e+01 -1.853887677192687988e+00 -1.672669529914855957e+00 2.332000248134136200e-02 -4.948048591613769531e-01 -7.657844424247741699e-01
1.182000000000000000e+03 2.957134819030761719e+01 -2.128281831741333008e+00 -1.600454211235046387e+00 6.891521811485290527e-02 -4.594616889953613281e-01 -8.133108019828796387e-01
1.183000000000000000e+03 2.858298301696777344e+01 -1.899767041206359863e+00 -1.431212663650512695e+00 1.932738721370697021e-02 -4.235655665397644043e-01 -8.796411752700805664e-01
1.184000000000000000e+03 2.839344787597656250e+01 -1.935035705566406250e+00 -1.333355545997619629e+00 5.774588510394096375e-02 -3.826828896999359131e-01 -9.325914978981018066e-01
1.185000000000000000e+03 2.724584007263183594e+01 -2.063973665237426758e+00 -9.983183145523071289e-01 3.465515673160552979e-01 -1.955300271511077881e-01 -1.184275746345520020e+00
1.186000000000000000e+03 3.379461288452148438e+01 -1.417615532875061035e+00 -2.312848091125488281e+00 1.561333686113357544e-01 -6.470144391059875488e-01 -5.997348949313163757e-02
1.187000000000000000e+03 3.431833267211914062e+01 4.004550457000732422e+00 7.474213242530822754e-01 2.764926195144653320e+00 1.053704261779785156e+00 1.335614472627639771e-01
1.188000000000000000e+03 2.948621559143066406e+01 1.972588920593261719e+01 7.497251629829406738e-01 1.423101067543029785e+00 6.518478393554687500e-01 -9.297416210174560547e-01
1.189000000000000000e+03 2.853693580627441406e+01 2.191640472412109375e+01 3.070120513439178467e-01 6.749103069305419922e-01 2.945767045021057129e-01 -4.176708757877349854e-01
1.190000000000000000e+03 1.425960636138916016e+01 1.860643577575683594e+01 -3.740835236385464668e-03 -7.409862242639064789e-03 -3.345209173858165741e-03 -6.363025866448879242e-03
1.191000000000000000e+03 1.475327301025390625e+01 1.901468467712402344e+01 -4.577287472784519196e-03 -1.432007085531949997e-02 -5.669207312166690826e-03 -7.116668857634067535e-03
1.192000000000000000e+03 2.860482978820800781e+01 2.062539863586425781e+01 9.050801396369934082e-01 6.492177844047546387e-01 4.662893712520599365e-01 -6.649549603462219238e-01
1.193000000000000000e+03 2.796898841857910156e+01 2.171921730041503906e+01 4.115121960639953613e-01 4.947401583194732666e-01 2.718757092952728271e-01 -4.472101926803588867e-01
1.194000000000000000e+03 2.279283332824707031e+01 2.252002525329589844e+01 7.035078853368759155e-02 1.471972931176424026e-02 2.552115544676780701e-02 -3.952235355973243713e-02
1.195000000000000000e+03 2.708813667297363281e+01 2.120946884155273438e+01 4.578326642513275146e-01 8.658418804407119751e-02 1.633250564336776733e-01 -2.150979042053222656e-01
1.196000000000000000e+03 3.346108245849609375e+01 4.344430923461914062e+00 -1.527081131935119629e-01 4.738432884216308594e+00 1.375717401504516602e+00 1.599345505237579346e-01
1.197000000000000000e+03 3.344177627563476562e+01 6.347048759460449219e+00 6.061464175581932068e-02 4.585422515869140625e+00 1.393811106681823730e+00 -3.757830262184143066e-01
1.198000000000000000e+03 3.356643295288085938e+01 5.091280937194824219e+00 3.139025345444679260e-02 4.671049594879150391e+00 1.410731911659240723e+00 -2.779724895954132080e-01
1.199000000000000000e+03 3.390711975097656250e+01 7.541940689086914062e+00 2.628953754901885986e-01 4.085128784179687500e+00 1.304407238960266113e+00 -5.487903952598571777e-01
1.200000000000000000e+03 2.998123359680175781e+01 1.907798576354980469e+01 5.677561163902282715e-01 1.617650151252746582e+00 6.556218862533569336e-01 -9.012123942375183105e-01
1.201000000000000000e+03 2.722791671752929688e+01 2.212635993957519531e+01 3.580193519592285156e-01 2.773776948451995850e-01 1.906191110610961914e-01 -3.263818025588989258e-01
1.202000000000000000e+03 3.341577529907226562e+01 6.744033336639404297e+00 -2.882304973900318146e-02 4.877666473388671875e+00 1.454652905464172363e+00 -3.789488077163696289e-01
1.203000000000000000e+03 3.071996879577636719e+01 1.761079597473144531e+01 4.428284168243408203e-01 2.260519981384277344e+00 8.110045194625854492e-01 -9.233367443084716797e-01
1.204000000000000000e+03 2.391153144836425781e+01 2.192633819580078125e+01 1.156939342617988586e-01 1.404853910207748413e-02 3.892274200916290283e-02 -3.757272288203239441e-02
1.205000000000000000e+03 3.259114837646484375e+01 1.147211551666259766e+01 1.410543024539947510e-01 4.208351135253906250e+00 1.304821610450744629e+00 -8.408451080322265625e-01
1.206000000000000000e+03 2.519865608215332031e+01 2.227972221374511719e+01 2.153796553611755371e-01 7.201598584651947021e-02 8.621869236230850220e-02 -1.305683553218841553e-01
1.207000000000000000e+03 3.230824661254882812e+01 1.301998424530029297e+01 2.668630480766296387e-01 3.792266130447387695e+00 1.217738747596740723e+00 -9.291345477104187012e-01
1.208000000000000000e+03 3.328519821166992188e+01 8.381186485290527344e+00 1.978327929973602295e-01 5.078066349029541016e+00 1.582769751548767090e+00 -7.854862809181213379e-01
1.209000000000000000e+03 3.335975265502929688e+01 7.959281444549560547e+00 2.231769561767578125e-01 5.167048454284667969e+00 1.617067694664001465e+00 -6.635829806327819824e-01
1.210000000000000000e+03 3.347692871093750000e+01 3.953676462173461914e+00 2.339849025011062622e-01 4.961147785186767578e+00 1.558539748191833496e+00 2.270320653915405273e-01
1.211000000000000000e+03 3.350992202758789062e+01 4.697866916656494141e+00 3.334004282951354980e-01 4.675437927246093750e+00 1.502651572227478027e+00 -1.432482451200485229e-01
1.212000000000000000e+03 2.356076812744140625e+01 2.246371841430664062e+01 1.072205081582069397e-01 2.565861120820045471e-02 3.986373543739318848e-02 -5.932252109050750732e-02
1.213000000000000000e+03 3.157036781311035156e+01 1.535675525665283203e+01 2.796784043312072754e-01 2.705561161041259766e+00 8.955718874931335449e-01 -8.408828377723693848e-01
1.214000000000000000e+03 3.142675209045410156e+01 1.574217891693115234e+01 2.634735405445098877e-01 2.587280273437500000e+00 8.552261590957641602e-01 -8.227601051330566406e-01
1.215000000000000000e+03 3.267692947387695312e+01 1.109196662902832031e+01 1.866876482963562012e-01 4.303423881530761719e+00 1.347033500671386719e+00 -8.675729036331176758e-01
1.216000000000000000e+03 2.640398216247558594e+01 2.197095489501953125e+01 3.159978389739990234e-01 1.226327940821647644e-01 1.315891891717910767e-01 -1.936557590961456299e-01
1.217000000000000000e+03 2.741434097290039062e+01 2.168259811401367188e+01 4.377688765525817871e-01 2.646977305412292480e-01 2.107399851083755493e-01 -3.547016680240631104e-01
1.218000000000000000e+03 3.240677261352539062e+01 1.614689826965332031e+01 1.873140782117843628e-01 2.293952703475952148e+00 7.443800568580627441e-01 -5.015491843223571777e-01
1.219000000000000000e+03 3.073431777954101562e+01 1.909816741943359375e+01 4.041017293930053711e-01 1.642897009849548340e+00 6.140996217727661133e-01 -6.482489705085754395e-01
1.220000000000000000e+03 2.470473289489746094e+01 2.179582786560058594e+01 1.755604743957519531e-01 2.379853650927543640e-02 5.980770289897918701e-02 -6.090978533029556274e-02
1.221000000000000000e+03 3.341676712036132812e+01 9.347986221313476562e+00 1.620464473962783813e-01 4.463509082794189453e+00 1.387666702270507812e+00 -7.440412044525146484e-01
1.222000000000000000e+03 3.129326057434082031e+01 1.612529754638671875e+01 2.725762724876403809e-01 2.540773391723632812e+00 8.440049290657043457e-01 -8.126429319381713867e-01
1.223000000000000000e+03 3.212707519531250000e+01 1.383318138122558594e+01 2.763694822788238525e-01 3.332991600036621094e+00 1.082808375358581543e+00 -9.019914269447326660e-01
1.224000000000000000e+03 3.277508544921875000e+01 1.071091938018798828e+01 1.726115047931671143e-01 4.453645229339599609e+00 1.387876987457275391e+00 -8.990316987037658691e-01
1.225000000000000000e+03 3.316759872436523438e+01 8.783393859863281250e+00 1.464828401803970337e-01 5.026833057403564453e+00 1.551994800567626953e+00 -8.566085696220397949e-01
1.226000000000000000e+03 3.293693161010742188e+01 1.190280151367187500e+01 1.298940181732177734e-01 3.788697719573974609e+00 1.175577521324157715e+00 -6.949326992034912109e-01
1.227000000000000000e+03 2.351655578613281250e+01 2.198453712463378906e+01 9.091132879257202148e-02 8.431186899542808533e-03 2.980275452136993408e-02 -2.937385067343711853e-02
1.228000000000000000e+03 3.353316497802734375e+01 5.528604984283447266e+00 1.719789355993270874e-01 4.547460556030273438e+00 1.415831923484802246e+00 -3.832119405269622803e-01
1.229000000000000000e+03 1.544377994537353516e+01 2.011040115356445312e+01 -2.410492487251758575e-02 -1.748770102858543396e-02 -1.247778814285993576e-02 -1.928294822573661804e-02
1.230000000000000000e+03 1.511128807067871094e+01 1.980458450317382812e+01 -1.897271908819675446e-02 -1.820277795195579529e-02 -1.115264929831027985e-02 -1.625494658946990967e-02
1.231000000000000000e+03 2.195375442504882812e+01 2.224994087219238281e+01 1.703963801264762878e-02 1.397115760482847691e-03 5.531026050448417664e-03 -1.321287453174591064e-02
1.232000000000000000e+03 1.604662895202636719e+01 2.067405319213867188e+01 -3.649697452783584595e-02 -1.814005337655544281e-02 -1.639110781252384186e-02 -2.351540327072143555e-02
1.233000000000000000e+03 1.473052501678466797e+01 1.778908538818359375e+01 -5.982952425256371498e-04 -2.918269950896501541e-03 -1.054969616234302521e-03 -8.781764772720634937e-04
1.234000000000000000e+03 1.532834625244140625e+01 1.218642711639404297e+01 -1.128865114878863096e-04 7.357483846135437489e-04 1.868585677584633231e-04 -2.693993737921118736e-04
1.235000000000000000e+03 1.530970668792724609e+01 1.061041831970214844e+01 6.252761522773653269e-05 4.820753238163888454e-04 1.633808860788121819e-04 4.704458115156739950e-05
1.236000000000000000e+03 2.031638908386230469e+01 2.207916641235351562e+01 -3.588477894663810730e-02 -2.841824898496270180e-03 -1.161798089742660522e-02 -1.178747788071632385e-02
1.237000000000000000e+03 1.471348857879638672e+01 1.456803131103515625e+01 -3.330492181703448296e-04 9.653059532865881920e-04 1.896770118037238717e-04 -2.267930249217897654e-04
1.238000000000000000e+03 1.510891723632812500e+01 2.040258407592773438e+01 -2.449338510632514954e-02 -1.179488841444253922e-02 -1.088648196309804916e-02 -1.425717398524284363e-02
1.239000000000000000e+03 1.789338684082031250e+01 2.217957496643066406e+01 -3.831225633621215820e-02 -5.239800084382295609e-03 -1.306561660021543503e-02 -1.390158012509346008e-02
1.240000000000000000e+03 1.636560058593750000e+01 2.093960380554199219e+01 -4.503729939460754395e-02 -1.746285147964954376e-02 -1.875004544854164124e-02 -2.538126707077026367e-02
1.241000000000000000e+03 1.470589160919189453e+01 1.306564903259277344e+01 -5.881413926545064896e-06 6.746035651303827763e-04 2.006166469072923064e-04 -1.138213410740718246e-04
1.242000000000000000e+03 1.487209606170654297e+01 1.373548984527587891e+01 -2.196548011852428317e-04 9.108760859817266464e-04 2.073663927149027586e-04 -3.045480698347091675e-04
1.243000000000000000e+03 1.795306015014648438e+01 2.159715652465820312e+01 -5.564428120851516724e-02 -3.724355716258287430e-03 -1.781059056520462036e-02 -1.497988309711217880e-02
1.244000000000000000e+03 1.518995094299316406e+01 1.259064292907714844e+01 2.646192151587456465e-04 8.328958647325634956e-04 3.292545152362436056e-04 -1.165357316494919360e-04
1.245000000000000000e+03 2.071945953369140625e+01 2.215833091735839844e+01 -2.857998199760913849e-02 -1.949785859324038029e-03 -9.158929809927940369e-03 -1.199014764279127121e-02
1.246000000000000000e+03 1.960088348388671875e+01 6.892498970031738281e+00 4.202808122499845922e-05 4.352388714323751628e-05 2.566559123806655407e-05 3.037976966879796237e-05
1.247000000000000000e+03 1.733683586120605469e+01 9.160926818847656250e+00 1.284902245970442891e-04 1.598432427272200584e-04 8.650004019727930427e-05 -2.575027792772743851e-05
1.248000000000000000e+03 1.816578483581542969e+01 8.290538787841796875e+00 -3.752390693989582360e-05 1.705750946712214500e-06 -1.074544616130879149e-05 -8.707676897756755352e-05
1.249000000000000000e+03 1.752265357971191406e+01 2.154906082153320312e+01 -5.621733143925666809e-02 -8.746623992919921875e-03 -1.948918774724006653e-02 -1.627770811319351196e-02
1.250000000000000000e+03 1.639263343811035156e+01 1.044497871398925781e+01 2.008830342674627900e-04 3.397636755835264921e-04 1.621940173208713531e-04 -6.486912025138735771e-05
1.251000000000000000e+03 1.874161148071289062e+01 7.728894233703613281e+00 -3.443569949013181031e-05 -1.949737270479090512e-05 -1.617992165847681463e-05 -6.154220318421721458e-05
1.252000000000000000e+03 1.930811309814453125e+01 7.167809486389160156e+00 -3.658503919723443687e-05 -2.045166183961555362e-05 -1.711100958345923573e-05 -4.464493395062163472e-05
1.253000000000000000e+03 2.304441070556640625e+01 3.055484533309936523e+00 -6.317094630503561348e-06 -1.554588016006164253e-05 -6.558892437169561163e-06 -1.355928634438896552e-05
1.254000000000000000e+03 1.629390907287597656e+01 9.873109817504882812e+00 1.129546290030702949e-04 3.219021309632807970e-04 1.304570323554798961e-04 -1.915189204737544060e-05
1.255000000000000000e+03 2.278474617004394531e+01 3.753105163574218750e+00 1.344278189208125696e-05 -3.021390966750914231e-06 3.126417141174897552e-06 -1.830030851124320179e-05
1.256000000000000000e+03 1.607571983337402344e+01 1.020618534088134766e+01 -6.003978705848567188e-05 2.133981906808912754e-04 4.600752436090260744e-05 -1.928391429828479886e-04
1.257000000000000000e+03 1.584949302673339844e+01 1.053620433807373047e+01 1.343106559943407774e-04 4.462879442144185305e-04 1.741795858833938837e-04 -2.524384399293921888e-05
1.258000000000000000e+03 2.103411483764648438e+01 3.468251466751098633e+00 1.364406489301472902e-05 2.121814031852409244e-05 1.045866156346164644e-05 1.786955181160010397e-05
1.259000000000000000e+03 2.288723754882812500e+01 3.392529010772705078e+00 -1.852088416853803210e-06 2.375371695961803198e-05 6.570488494617165998e-06 1.433903435099637136e-05
1.260000000000000000e+03 2.292042732238769531e+01 4.065484046936035156e+00 -5.566940671997144818e-05 -3.471979289315640926e-05 -2.711675915634259582e-05 -3.290049789939075708e-05
1.261000000000000000e+03 1.539894580841064453e+01 2.069740676879882812e+01 -2.955991029739379883e-02 -1.052655559033155441e-02 -1.202593930065631866e-02 -1.494595594704151154e-02
1.262000000000000000e+03 2.176497650146484375e+01 5.069990158081054688e+00 -1.148033152276184410e-05 -3.505055792629718781e-05 -1.395926665281876922e-05 -1.721097942208871245e-05
1.263000000000000000e+03 2.224108886718750000e+01 3.747435569763183594e+00 6.781039246561704203e-06 2.161702923331176862e-06 2.682822469068923965e-06 9.646559192333370447e-06
1.264000000000000000e+03 1.427305984497070312e+01 1.819304656982421875e+01 -2.435921225696802139e-03 -5.860026925802230835e-03 -2.488784492015838623e-03 -4.174148663878440857e-03
1.265000000000000000e+03 1.425558948516845703e+01 1.700930786132812500e+01 -6.289035081863403320e-05 -1.893315347842872143e-03 -5.868617445230484009e-04 -1.407437608577311039e-03
1.266000000000000000e+03 1.501690196990966797e+01 1.335658168792724609e+01 4.020090564154088497e-04 9.276173659600317478e-04 3.988879325333982706e-04 -1.253699301742017269e-04
1.267000000000000000e+03 1.982257461547851562e+01 2.252939796447753906e+01 -1.933528855443000793e-02 -2.563905436545610428e-03 -6.569758523255586624e-03 -1.574701070785522461e-02
1.268000000000000000e+03 1.951964759826660156e+01 2.191383552551269531e+01 -4.876589775085449219e-02 -3.395884996280074120e-03 -1.564853452146053314e-02 -1.171615999191999435e-02
1.269000000000000000e+03 2.182009506225585938e+01 4.402047157287597656e+00 -2.809621219057589769e-05 -4.946262924931943417e-05 -2.326765206817071885e-05 -1.040712686517508700e-05
1.270000000000000000e+03 2.110284042358398438e+01 5.564009189605712891e+00 -2.678714372450485826e-05 -4.220922710373997688e-05 -2.069891161227133125e-05 -2.989958920807112008e-05
1.271000000000000000e+03 1.831322097778320312e+01 2.214327621459960938e+01 -4.069593176245689392e-02 -3.992263693362474442e-03 -1.340645831078290939e-02 -1.214180141687393188e-02
1.272000000000000000e+03 1.845481681823730469e+01 8.009776115417480469e+00 7.054852903820574284e-05 7.927000115159898996e-05 4.494556196732446551e-05 2.528621007513720542e-05
1.273000000000000000e+03 1.460598373413085938e+01 1.237381458282470703e+01 -2.202200994361191988e-04 4.381799080874770880e-04 6.538794696098193526e-05 -1.786776119843125343e-04
1.274000000000000000e+03 1.472847652435302734e+01 1.739150428771972656e+01 2.323229855392128229e-04 -1.655059633776545525e-03 -4.268209740985184908e-04 -6.063966429792344570e-04
1.275000000000000000e+03 1.427042579650878906e+01 1.779343032836914062e+01 -6.811081548221409321e-04 -4.110888112336397171e-03 -1.437598839402198792e-03 -2.659282414242625237e-03
1.276000000000000000e+03 1.902433013916015625e+01 7.447585105895996094e+00 4.949060166836716235e-05 5.828815119457431138e-05 3.233362440369091928e-05 2.608137583592906594e-05
1.277000000000000000e+03 2.078882408142089844e+01 5.834387779235839844e+00 3.584379010135307908e-05 4.496678593568503857e-05 2.424317244731355458e-05 4.620888284989632666e-05
1.278000000000000000e+03 1.472428607940673828e+01 1.699591255187988281e+01 -4.629362665582448244e-04 -8.280965266749262810e-04 -3.873098467011004686e-04 -3.699905064422637224e-04
1.279000000000000000e+03 1.512436771392822266e+01 1.299612617492675781e+01 -2.750012208707630634e-04 8.188724168576300144e-04 1.631613558856770396e-04 -3.090411191806197166e-04
1.280000000000000000e+03 7.716327667236328125e+01 -1.463681983947753906e+01 -6.809018552303314209e-02 -2.404573746025562286e-02 -2.764077670872211456e-02 -5.410186201333999634e-02
1.281000000000000000e+03 7.751907348632812500e+01 -1.392918872833251953e+01 -6.933189928531646729e-02 -4.722138121724128723e-02 -3.496598452329635620e-02 -7.065022736787796021e-02
1.282000000000000000e+03 7.796724700927734375e+01 -1.180455398559570312e+01 -4.288792237639427185e-02 -1.546862125396728516e-01 -5.927224084734916687e-02 -1.368374824523925781e-01
1.283000000000000000e+03 7.774276733398437500e+01 -1.457970142364501953e+01 -4.083035513758659363e-02 -2.251184545457363129e-02 -1.900265924632549286e-02 -3.763338178396224976e-02
1.284000000000000000e+03 7.762239074707031250e+01 -1.931988334655761719e+01 -8.905319264158606529e-04 3.839396231342107058e-04 -1.519776997156441212e-04 -1.649251353228464723e-04
1.285000000000000000e+03 7.836608886718750000e+01 -1.844256210327148438e+01 -1.837338058976456523e-04 1.181687694042921066e-04 -1.966951094800606370e-05 -2.529282646719366312e-04
1.286000000000000000e+03 7.947038269042968750e+01 -2.134014701843261719e+01 -7.717009866610169411e-04 1.249002874828875065e-03 1.431905548088252544e-04 1.626754419703502208e-05
1.287000000000000000e+03 2.244017601013183594e+01 2.881279468536376953e+00 9.465345101489219815e-06 1.884525408968329430e-05 8.493179848301224411e-06 9.211586075252853334e-06
1.288000000000000000e+03 2.163206100463867188e+01 3.626559972763061523e+00 -2.140000106010120362e-05 -1.883926233858801425e-05 -1.207177865580888465e-05 -2.008702904277015477e-05
1.289000000000000000e+03 3.866704559326171875e+01 -8.017045855522155762e-01 -1.504413962364196777e+00 1.294210255146026611e-01 -4.124978780746459961e-01 7.011589407920837402e-01
1.290000000000000000e+03 3.919569396972656250e+01 -1.608868837356567383e+00 -1.833887577056884766e+00 -1.773724891245365143e-02 -5.554874539375305176e-01 1.017355799674987793e+00
1.291000000000000000e+03 7.050629425048828125e+01 -1.394546699523925781e+01 -5.148850083351135254e-01 1.241666823625564575e-01 -1.172155067324638367e-01 -2.191228326410055161e-03
1.292000000000000000e+03 6.795272827148437500e+01 -1.358017826080322266e+01 -8.177164793014526367e-01 8.101791143417358398e-02 -2.210095822811126709e-01 1.682917475700378418e-01
1.293000000000000000e+03 2.043701362609863281e+01 2.929613351821899414e+00 1.065778405973105691e-06 3.032083077414426953e-05 9.415982276550494134e-06 1.103388422052375972e-05
1.294000000000000000e+03 1.766036796569824219e+01 2.633814811706542969e+00 1.353178322460735217e-05 5.154175232746638358e-05 1.952206002897582948e-05 2.122139267157763243e-05
1.295000000000000000e+03 1.910772132873535156e+01 2.231071233749389648e+00 -5.708266598958289251e-06 -2.841665082087274641e-05 -1.023747518047457561e-05 2.931763219748972915e-06
1.296000000000000000e+03 2.109904670715332031e+01 3.023661613464355469e+00 -6.051437594578601420e-06 -2.138193667633458972e-05 -8.230012099375016987e-06 -1.442825214326148853e-05
1.297000000000000000e+03 1.989420890808105469e+01 6.037082672119140625e+00 -4.737696144729852676e-05 -2.180370029236655682e-05 -2.075419797620270401e-05 -3.037920032511465251e-05
1.298000000000000000e+03 7.162093353271484375e+01 -1.956055831909179688e+01 -1.550978631712496281e-03 -2.656704455148428679e-04 -5.449947202578186989e-04 7.642883574590086937e-04
1.299000000000000000e+03 7.004844665527343750e+01 -1.856526374816894531e+01 2.427821309538558125e-04 7.716012769378721714e-04 3.043150063604116440e-04 3.665027325041592121e-04
1.300000000000000000e+03 7.111585998535156250e+01 -1.909923362731933594e+01 4.118354991078376770e-04 9.188203257508575916e-04 3.991967532783746719e-04 -1.566761347930878401e-04
1.301000000000000000e+03 7.053870391845703125e+01 -1.953861236572265625e+01 -8.580576977692544460e-04 -1.037654001265764236e-03 -5.687135271728038788e-04 1.236706972122192383e-03
1.302000000000000000e+03 1.768910408020019531e+01 2.070859193801879883e+00 5.349225489226228092e-07 -2.846910319931339473e-05 -8.380254257644992322e-06 1.239784432982560247e-05
1.303000000000000000e+03 1.553557395935058594e+01 2.522340297698974609e+00 8.631333002995233983e-06 -2.167987258872017264e-05 -3.914561602869071066e-06 4.225889642839320004e-05
1.304000000000000000e+03 1.836747360229492188e+01 2.710086345672607422e+00 -8.927613635023590177e-06 -2.026693073275964707e-05 -8.758363037486560643e-06 4.972052920493297279e-06
1.305000000000000000e+03 1.624638557434082031e+01 2.545661687850952148e+00 2.481693991285283118e-05 5.421088644652627409e-05 2.370834772591479123e-05 2.982907790283206850e-05
1.306000000000000000e+03 3.602265167236328125e+01 3.712536096572875977e+00 5.457386374473571777e-01 -2.769538164138793945e-01 8.063544332981109619e-02 -1.194862365722656250e+00
1.307000000000000000e+03 3.573086547851562500e+01 2.889377355575561523e+00 2.692260146141052246e-01 -4.301612079143524170e-01 -4.828056320548057556e-02 -1.407998919486999512e+00
1.308000000000000000e+03 3.610158157348632812e+01 4.615389823913574219e+00 5.266928076744079590e-01 2.929639816284179688e-02 1.667967736721038818e-01 -1.030182242393493652e+00
1.309000000000000000e+03 3.346361160278320312e+01 3.540738821029663086e+00 2.596991956233978271e-01 5.337055683135986328e+00 1.679026365280151367e+00 6.529515981674194336e-01
1.310000000000000000e+03 3.473332595825195312e+01 2.416321039199829102e+00 5.045827627182006836e-01 -6.332156807184219360e-02 1.323783546686172485e-01 -9.620837569236755371e-01
1.311000000000000000e+03 1.338669776916503906e+01 3.127894401550292969e+00 1.850435182859655470e-05 -2.773965934466104954e-05 -2.770592118395143189e-06 6.896213744767010212e-05
1.312000000000000000e+03 1.480532455444335938e+01 1.890388846397399902e+00 2.863118061213754117e-05 -3.399112756596878171e-05 -1.607983449503080919e-06 3.976729567511938512e-05
1.313000000000000000e+03 1.188839149475097656e+01 2.503791093826293945e+00 8.720332698430866003e-05 2.788628444250207394e-05 3.452688542893156409e-05 4.049592098454013467e-05
1.314000000000000000e+03 1.481575107574462891e+01 2.507426261901855469e+00 4.249736593919806182e-05 4.919511047773994505e-05 2.750774365267716348e-05 4.180851101409643888e-05
1.315000000000000000e+03 7.437779235839843750e+01 -1.896130180358886719e+01 4.628448223229497671e-04 -3.026920312549918890e-04 4.804584386874921620e-05 4.650764094549231231e-05
1.316000000000000000e+03 7.368621826171875000e+01 -1.897750282287597656e+01 -8.837875793687999249e-05 -2.851718745660036802e-04 -1.120651941164396703e-04 -4.765131743624806404e-04
1.317000000000000000e+03 7.505931091308593750e+01 -1.895233535766601562e+01 5.702929411199875176e-05 -3.928162332158535719e-04 -1.007360842777416110e-04 -3.033882821910083294e-04
1.318000000000000000e+03 1.186427974700927734e+01 1.841477513313293457e+00 7.619401003466919065e-05 -4.760854062624275684e-05 8.575640094932168722e-06 4.630323383025825024e-05
1.319000000000000000e+03 1.342142581939697266e+01 3.752053499221801758e+00 4.550578159978613257e-05 3.391601057955995202e-05 2.382653656241018325e-05 6.416822725441306829e-05
1.320000000000000000e+03 1.262669086456298828e+01 2.495578765869140625e+00 4.575195998768322170e-05 -4.105447442270815372e-05 1.409246010553033557e-06 6.053165634511969984e-05
1.321000000000000000e+03 1.111556625366210938e+01 -3.310662508010864258e+00 -3.921790048480033875e-02 -7.648877054452896118e-02 -3.471200168132781982e-02 -2.625358477234840393e-02
1.322000000000000000e+03 1.112316131591796875e+01 -2.575807571411132812e+00 4.714202508330345154e-02 -4.473071172833442688e-02 7.233939832076430321e-04 -5.893801804631948471e-03
1.323000000000000000e+03 1.263455963134765625e+01 -2.559189796447753906e+00 1.195530127733945847e-02 -6.996028125286102295e-02 -1.740149408578872681e-02 -6.944946199655532837e-02
1.324000000000000000e+03 9.613254547119140625e+00 -1.864733576774597168e+00 1.476353257894515991e-01 -1.671766676008701324e-02 3.927529603242874146e-02 3.446396812796592712e-02
1.325000000000000000e+03 7.279235076904296875e+01 -1.444054508209228516e+01 -3.082555830478668213e-01 3.196277841925621033e-02 -8.288783580064773560e-02 -7.869607210159301758e-02
1.326000000000000000e+03 7.509614562988281250e+01 -1.360486602783203125e+01 -2.010015100240707397e-01 -1.960747130215167999e-02 -6.618269532918930054e-02 -1.524068266153335571e-01
1.327000000000000000e+03 7.659569549560546875e+01 -1.354888725280761719e+01 -1.069292947649955750e-01 -5.741447210311889648e-02 -4.930312931537628174e-02 -1.138598471879959106e-01
1.328000000000000000e+03 7.589947509765625000e+01 -1.363032817840576172e+01 -1.511399745941162109e-01 -3.979570418596267700e-02 -5.728070437908172607e-02 -1.413705348968505859e-01
1.329000000000000000e+03 1.417588901519775391e+01 -3.246750831604003906e+00 -1.263145804405212402e-01 -1.598493754863739014e-01 -8.584918826818466187e-02 -1.991988569498062134e-01
1.330000000000000000e+03 1.340297031402587891e+01 -2.545695781707763672e+00 -1.751019246876239777e-02 -9.116602689027786255e-02 -3.260286524891853333e-02 -1.162622347474098206e-01
1.331000000000000000e+03 1.417945575714111328e+01 -2.518524169921875000e+00 -5.087129399180412292e-02 -1.007667481899261475e-01 -4.549141228199005127e-02 -1.597898453474044800e-01
1.332000000000000000e+03 1.576378440856933594e+01 -2.449213266372680664e+00 -1.429980397224426270e-01 -1.440144330263137817e-01 -8.610373735427856445e-02 -2.762604653835296631e-01
1.333000000000000000e+03 6.586077213287353516e+00 2.626013994216918945e+00 5.917124872212298214e-05 -6.743558333255350590e-05 -2.479300519553362392e-06 -1.681296635069884360e-05
1.334000000000000000e+03 7.318674087524414062e+00 1.866704702377319336e+00 9.215397585649043322e-05 -5.994744060444645584e-05 9.661961485107894987e-06 -2.213053221566951834e-06
1.335000000000000000e+03 5.056858062744140625e+00 2.704986572265625000e+00 3.853710950352251530e-05 -4.967314816894941032e-05 -3.340811417729128152e-06 -4.664200605475343764e-05
1.336000000000000000e+03 8.883007049560546875e+00 2.559686660766601562e+00 1.177040539914742112e-04 1.059350142895709723e-05 3.848926644423045218e-05 -1.032184900395805016e-05
1.337000000000000000e+03 3.478411674499511719e+00 1.962140202522277832e+00 6.557440792676061392e-05 5.296153540257364511e-05 3.556078445399180055e-05 -6.868533091619610786e-05
1.338000000000000000e+03 2.997132062911987305e+00 3.915025472640991211e+00 -3.949970050598494709e-05 5.100380803924053907e-05 3.451232259976677597e-06 -9.121189577854238451e-06
1.339000000000000000e+03 5.820291519165039062e+00 2.659877777099609375e+00 1.187006782856769860e-04 1.337328649242408574e-05 3.962219125241972506e-05 -7.581114186905324459e-05
1.340000000000000000e+03 1.270080924034118652e+00 3.421509504318237305e+00 3.275073322583921254e-05 9.711372695164754987e-05 3.895933696185238659e-05 -7.145781273720785975e-05
1.341000000000000000e+03 1.040042495727539062e+01 2.528646945953369141e+00 1.071590158971957862e-04 1.659565350564662367e-05 3.712640318553894758e-05 2.077040153380949050e-05
1.342000000000000000e+03 9.645890235900878906e+00 2.542898654937744141e+00 7.669624028494581580e-05 -6.580289482371881604e-05 3.268002956247073598e-06 3.470030424068681896e-05
1.343000000000000000e+03 1.036706733703613281e+01 -2.588655948638916016e+00 5.606803297996520996e-02 -3.954999893903732300e-02 4.955409560352563858e-03 1.316482108086347580e-02
1.344000000000000000e+03 6.557853698730468750e+00 -1.835165500640869141e+00 1.132971346378326416e-01 -4.049916286021471024e-03 3.277416527271270752e-02 6.417178362607955933e-02
1.345000000000000000e+03 4.296818733215332031e+00 -1.874325275421142578e+00 6.687536090612411499e-02 4.723852500319480896e-03 2.147976495325565338e-02 6.685049831867218018e-02
1.346000000000000000e+03 4.637792110443115234e+00 -4.199134826660156250e+00 -1.466648001223802567e-02 1.044501177966594696e-02 -1.266440609470009804e-03 7.742961496114730835e-02
1.347000000000000000e+03 3.541267156600952148e+00 -1.925536632537841797e+00 5.028163641691207886e-02 9.159941226243972778e-03 1.783247292041778564e-02 6.177879497408866882e-02
1.348000000000000000e+03 4.753166675567626953e+00 -3.303853988647460938e+00 2.158194407820701599e-02 5.832639988511800766e-03 8.224375545978546143e-03 8.388732373714447021e-02
1.349000000000000000e+03 3.727978706359863281e+00 -2.796857118606567383e+00 3.081182204186916351e-02 1.401315443217754364e-02 1.344749331474304199e-02 7.617166638374328613e-02
1.350000000000000000e+03 7.270402908325195312e+00 -3.325787067413330078e+00 1.440992578864097595e-02 -1.946060545742511749e-02 -1.515203970484435558e-03 6.967374682426452637e-02
1.351000000000000000e+03 8.071428298950195312e+00 -2.598838806152343750e+00 6.985815614461898804e-02 -1.623290963470935822e-02 1.608757302165031433e-02 6.109377369284629822e-02
1.352000000000000000e+03 6.574217796325683594e+00 -2.515802860260009766e+00 6.820578128099441528e-02 -6.807833909988403320e-03 1.841938309371471405e-02 7.355280220508575439e-02
1.353000000000000000e+03 2.958699226379394531e+00 -2.859207630157470703e+00 2.049103192985057831e-02 2.216071449220180511e-02 1.279552374035120010e-02 6.996506452560424805e-02
1.354000000000000000e+03 6.118826270103454590e-01 -5.086067676544189453e+00 -4.267809446901082993e-03 1.295303106307983398e-01 3.757875040173530579e-02 2.304348722100257874e-02
1.355000000000000000e+03 3.585062789916992188e+01 -1.240293622016906738e+00 -2.148716926574707031e+00 2.433370500802993774e-01 -5.716139674186706543e-01 3.311952352523803711e-01
1.356000000000000000e+03 3.509745407104492188e+01 -1.328193068504333496e+00 -2.223150014877319336e+00 2.320446819067001343e-01 -5.973315834999084473e-01 2.028570920228958130e-01
1.357000000000000000e+03 3.613840103149414062e+01 -1.788499593734741211e+00 -2.074503421783447266e+00 4.438796341419219971e-01 -4.891871213912963867e-01 4.311905801296234131e-01
1.358000000000000000e+03 1.812664222717285156e+01 -2.292632102966308594e+00 -3.185603022575378418e-01 -2.389665544033050537e-01 -1.672580540180206299e-01 -4.691972136497497559e-01
1.359000000000000000e+03 1.739324760437011719e+01 -3.121778488159179688e+00 -2.822562158107757568e-01 -2.710501849651336670e-01 -1.659919172525405884e-01 -4.610776901245117188e-01
1.360000000000000000e+03 1.655735778808593750e+01 -2.414059877395629883e+00 -2.010186910629272461e-01 -1.756825447082519531e-01 -1.130103692412376404e-01 -3.445515036582946777e-01
1.361000000000000000e+03 1.734312248229980469e+01 -2.363943099975585938e+00 -2.600988745689392090e-01 -1.975176185369491577e-01 -1.372849494218826294e-01 -4.055460393428802490e-01
1.362000000000000000e+03 7.124041748046875000e+01 -1.454425525665283203e+01 -3.838722705841064453e-01 7.699263840913772583e-02 -9.206388890743255615e-02 -7.429633755236864090e-03
1.363000000000000000e+03 7.195592498779296875e+01 -1.380595970153808594e+01 -4.186491370201110840e-01 8.417090773582458496e-02 -1.003434658050537109e-01 -8.763462305068969727e-02
1.364000000000000000e+03 7.121491241455078125e+01 -1.388266086578369141e+01 -4.572132527828216553e-01 9.048301726579666138e-02 -1.100190728902816772e-01 -6.560603529214859009e-02
1.365000000000000000e+03 7.350321197509765625e+01 -1.369309902191162109e+01 -3.045787215232849121e-01 3.025599569082260132e-02 -8.229681849479675293e-02 -1.427462995052337646e-01
1.366000000000000000e+03 2.195016670227050781e+01 -9.196269512176513672e-01 -7.263728380203247070e-01 -4.265453815460205078e-01 -3.458754718303680420e-01 -6.608471870422363281e-01
1.367000000000000000e+03 2.202410316467285156e+01 -1.583118438720703125e+00 -5.462992191314697266e-01 -4.282255172729492188e-01 -2.923574149608612061e-01 -6.550503373146057129e-01
1.368000000000000000e+03 2.360027503967285156e+01 -1.130999326705932617e+00 -5.360465049743652344e-01 -2.200336307287216187e-01 -2.268240302801132202e-01 -5.736964344978332520e-01
1.369000000000000000e+03 1.969890975952148438e+01 -2.096213102340698242e+00 -4.362166225910186768e-01 -3.195467591285705566e-01 -2.267290055751800537e-01 -5.854458808898925781e-01
1.370000000000000000e+03 2.047698783874511719e+01 -1.969858646392822266e+00 -4.811701774597167969e-01 -3.663962483406066895e-01 -2.542699277400970459e-01 -6.334097385406494141e-01
1.371000000000000000e+03 2.638802528381347656e+01 -2.805113315582275391e+00 -9.077875614166259766e-01 6.607439517974853516e-01 -7.411308586597442627e-02 -1.088700056076049805e+00
1.372000000000000000e+03 2.358509063720703125e+01 -1.858070135116577148e+00 -4.081545472145080566e-01 -1.654684245586395264e-01 -1.720868945121765137e-01 -4.932591617107391357e-01
1.373000000000000000e+03 6.913687133789062500e+01 -1.871267700195312500e+01 9.902078891173005104e-04 9.179588232655078173e-05 3.246011037845164537e-04 -1.023528602672740817e-04
1.374000000000000000e+03 6.903089904785156250e+01 -1.964901351928710938e+01 -2.069722628220915794e-03 -7.881991332396864891e-04 -8.573765517212450504e-04 1.489046146161854267e-03
1.375000000000000000e+03 3.698463439941406250e+01 3.495626211166381836e+00 2.020091563463211060e-01 -9.216128587722778320e-01 -2.158811092376708984e-01 -1.475203514099121094e+00
1.376000000000000000e+03 2.453168296813964844e+01 -2.632171869277954102e+00 -6.019029021263122559e-01 2.399988621473312378e-01 -1.085712090134620667e-01 -5.669782161712646484e-01
1.377000000000000000e+03 5.793291091918945312e+01 2.457513618469238281e+01 1.058126762509346008e-01 8.172806501388549805e-01 2.769280076026916504e-01 -1.071153283119201660e+00
1.378000000000000000e+03 6.772647857666015625e+01 -1.244191551208496094e+01 -1.234937548637390137e+00 1.961528807878494263e-01 -3.116354048252105713e-01 1.846939772367477417e-01
1.379000000000000000e+03 7.825003814697265625e+01 -1.938700485229492188e+01 5.138209089636802673e-04 2.244644128950312734e-04 2.214855921920388937e-04 -2.969956840388476849e-04
1.380000000000000000e+03 7.809410095214843750e+01 -3.101447677612304688e+01 -2.517053158953785896e-03 -9.496951475739479065e-03 -3.604201367124915123e-03 5.431366618722677231e-03
1.381000000000000000e+03 7.933016204833984375e+01 -2.958901214599609375e+01 -2.218473935499787331e-03 -5.226574838161468506e-03 -2.233514562249183655e-03 1.529997214674949646e-03
1.382000000000000000e+03 7.940203857421875000e+01 -2.411908912658691406e+01 -1.350156497210264206e-03 1.407858217135071754e-03 1.731053998810239136e-05 1.572072214912623167e-04
1.383000000000000000e+03 7.931652069091796875e+01 -3.628012847900390625e+01 9.875446557998657227e-04 -3.007602319121360779e-02 -8.726543746888637543e-03 2.514417748898267746e-03
1.384000000000000000e+03 7.937599182128906250e+01 -3.362752532958984375e+01 1.930749625898897648e-03 -1.996378228068351746e-02 -5.409909412264823914e-03 2.825011732056736946e-03
1.385000000000000000e+03 7.813183593750000000e+01 -3.356928634643554688e+01 -1.684407005086541176e-03 -1.735418662428855896e-02 -5.711577832698822021e-03 7.251734379678964615e-03
1.386000000000000000e+03 7.821805572509765625e+01 -2.410068321228027344e+01 8.403129177168011665e-04 -8.443337719654664397e-05 2.267638628836721182e-04 1.957113418029621243e-04
1.387000000000000000e+03 7.791000366210937500e+01 -2.828559684753417969e+01 -2.658018143847584724e-03 -3.745064837858080864e-03 -1.920924871228635311e-03 3.577347379177808762e-03
1.388000000000000000e+03 7.680724334716796875e+01 -3.737714004516601562e+01 3.807213855907320976e-03 -2.988826483488082886e-02 -7.824315689504146576e-03 8.839195594191551208e-03
1.389000000000000000e+03 7.677674102783203125e+01 -3.929166030883789062e+01 2.657933160662651062e-03 -3.413229435682296753e-02 -9.442307986319065094e-03 7.378792855888605118e-03
1.390000000000000000e+03 5.516303253173828125e+01 2.400040626525878906e+01 -4.224590584635734558e-02 5.736590176820755005e-02 4.535999149084091187e-03 -6.017665863037109375e-01
1.391000000000000000e+03 2.941994857788085938e+01 -6.624095916748046875e+00 4.637388288974761963e-01 6.988452672958374023e-01 3.487752377986907959e-01 -1.322050094604492188e+00
1.392000000000000000e+03 3.015701293945312500e+01 -8.370241165161132812e+00 2.894354820251464844e+00 8.523639440536499023e-01 1.124015688896179199e+00 -1.302381634712219238e+00
1.393000000000000000e+03 4.261030578613281250e+01 1.378948879241943359e+01 -1.083338737487792969e+00 -1.789591670036315918e+00 -8.618791103363037109e-01 -1.314804553985595703e+00
1.394000000000000000e+03 4.126268386840820312e+01 1.416487884521484375e+01 -5.276948213577270508e-01 -1.736391425132751465e+00 -6.792258620262145996e-01 -7.807265520095825195e-01
1.395000000000000000e+03 3.706458282470703125e+01 7.796809673309326172e+00 -4.078547954559326172e-01 -5.186649560928344727e-01 -2.779559195041656494e-01 -6.156804561614990234e-01
1.396000000000000000e+03 3.833415985107421875e+01 6.171499252319335938e+00 -1.068493351340293884e-01 -2.260884761810302734e+00 -7.103202342987060547e-01 -8.566132187843322754e-01
1.397000000000000000e+03 4.697694015502929688e+01 2.173068237304687500e+01 -4.542427659034729004e-01 -5.607115626335144043e-01 -3.044863045215606689e-01 -3.192351758480072021e-01
1.398000000000000000e+03 5.138048171997070312e+01 2.194522666931152344e+01 -6.873874664306640625e-01 -3.291403651237487793e-01 -3.049583435058593750e-01 -4.106210172176361084e-01
1.399000000000000000e+03 4.441864395141601562e+01 1.770214843750000000e+01 -6.470982432365417480e-01 -1.026609778404235840e+00 -5.021123886108398438e-01 -6.999174952507019043e-01
1.400000000000000000e+03 3.904307937622070312e+01 1.009805870056152344e+01 -5.894458293914794922e-01 -2.815489053726196289e+00 -1.021480441093444824e+00 -6.910187005996704102e-01
1.401000000000000000e+03 4.887251281738281250e+01 2.079639816284179688e+01 -8.069575428962707520e-01 -5.018147230148315430e-01 -3.926316797733306885e-01 -4.697325825691223145e-01
1.402000000000000000e+03 4.656047439575195312e+01 1.928902435302734375e+01 -7.631227970123291016e-01 -6.952382922172546387e-01 -4.375083446502685547e-01 -5.879006385803222656e-01
1.403000000000000000e+03 4.546628189086914062e+01 1.844825744628906250e+01 -7.145031690597534180e-01 -8.060327172279357910e-01 -4.561607837677001953e-01 -6.464492678642272949e-01
1.404000000000000000e+03 1.947643661499023438e+01 -1.150182247161865234e+01 -1.697470545768737793e+00 -1.476043164730072021e-01 -5.535224676132202148e-01 -5.059095621109008789e-01
1.405000000000000000e+03 6.041061019897460938e+01 2.132898139953613281e+01 1.616274476051330566e+00 2.980112075805664062e+00 1.378916025161743164e+00 -1.770458579063415527e+00
1.406000000000000000e+03 3.733536911010742188e+01 -2.465377426147460938e+01 8.064275979995727539e-01 1.132489085197448730e+00 5.816749930381774902e-01 1.127136945724487305e+00
1.407000000000000000e+03 1.213456535339355469e+01 -1.801940536499023438e+01 -1.167303025722503662e-01 -4.644048213958740234e-01 -1.743405312299728394e-01 -9.136455655097961426e-01
1.408000000000000000e+03 2.614038658142089844e+01 -2.994016265869140625e+01 1.277954936027526855e+00 9.226267784833908081e-02 4.110653102397918701e-01 -1.320837251842021942e-02
1.409000000000000000e+03 1.437857341766357422e+01 -1.320554828643798828e+01 -1.201918482780456543e+00 -1.003839850425720215e+00 -6.617274880409240723e-01 -7.662762999534606934e-01
1.410000000000000000e+03 3.346387100219726562e+01 -1.045376205444335938e+01 1.982749581336975098e+00 2.316616535186767578e+00 1.289809823036193848e+00 -1.901855826377868652e+00
1.411000000000000000e+03 3.648746490478515625e+01 -1.132232093811035156e+01 1.237297177314758301e+00 6.801646947860717773e-01 5.752385258674621582e-01 -1.347747206687927246e+00
1.412000000000000000e+03 1.816687774658203125e+01 -1.038987922668457031e+01 -1.062387585639953613e+00 -8.188456892967224121e-01 -5.643699765205383301e-01 -7.715988159179687500e-01
1.413000000000000000e+03 1.553936195373535156e+01 -1.112246990203857422e+01 -1.096672296524047852e+00 -9.618566036224365234e-01 -6.175586581230163574e-01 -5.821216702461242676e-01
1.414000000000000000e+03 3.794923782348632812e+01 -2.045578575134277344e+01 5.327697992324829102e-01 1.026031851768493652e+00 4.676404893398284912e-01 6.369230151176452637e-01
1.415000000000000000e+03 3.671537399291992188e+01 -1.916096305847167969e+01 2.232574522495269775e-01 -1.429841038770973682e-03 6.654828041791915894e-02 1.322046220302581787e-01
1.416000000000000000e+03 2.537344741821289062e+01 -8.595985412597656250e+00 -5.730591416358947754e-01 -2.160403728485107422e-01 -2.367298603057861328e-01 -4.260685443878173828e-01
1.417000000000000000e+03 2.060298728942871094e+01 -1.009534835815429688e+01 -1.142586946487426758e+00 -2.071396708488464355e-01 -4.049179852008819580e-01 -6.028412580490112305e-01
1.418000000000000000e+03 3.627841949462890625e+01 -1.248646926879882812e+01 1.398206591606140137e+00 5.781397223472595215e-01 5.929039120674133301e-01 -1.500548601150512695e+00
1.419000000000000000e+03 3.269148635864257812e+01 -8.814075469970703125e+00 1.726454257965087891e+00 1.835216283798217773e+00 1.068501114845275879e+00 -1.507326364517211914e+00
1.420000000000000000e+03 3.643957138061523438e+01 -1.502155590057373047e+01 6.521202325820922852e-01 4.435204267501831055e-01 3.286921977996826172e-01 -1.057290792465209961e+00
1.421000000000000000e+03 3.132092666625976562e+01 -2.816418647766113281e+01 1.059708833694458008e+00 8.021939992904663086e-01 5.585708618164062500e-01 7.884493470191955566e-01
1.422000000000000000e+03 3.668219375610351562e+01 -1.777213859558105469e+01 3.035774528980255127e-01 -3.662491962313652039e-02 8.008576184511184692e-02 -2.499457299709320068e-01
1.423000000000000000e+03 1.928472137451171875e+01 -2.927148818969726562e+01 9.213220477104187012e-01 7.006593346595764160e-01 4.865944087505340576e-01 -6.362557411193847656e-01
1.424000000000000000e+03 1.511267662048339844e+01 -2.508748626708984375e+01 7.529205679893493652e-01 6.077830195426940918e-01 4.082110822200775146e-01 -6.497455239295959473e-01
1.425000000000000000e+03 2.421575355529785156e+01 -9.079895019531250000e+00 -6.749007105827331543e-01 -1.736289560794830322e-01 -2.545588910579681396e-01 -4.765248894691467285e-01
1.426000000000000000e+03 3.764414978027343750e+01 -1.503840732574462891e+01 1.004701137542724609e+00 6.967646479606628418e-01 5.104397535324096680e-01 -1.312792658805847168e+00
1.427000000000000000e+03 2.585939216613769531e+01 -3.194982910156250000e+01 9.493286609649658203e-01 4.790346920490264893e-01 4.285089969635009766e-01 -1.472301632165908813e-01
1.428000000000000000e+03 5.030437088012695312e+01 -1.494148159027099609e+01 5.193439483642578125e+00 8.353366851806640625e-01 1.808632850646972656e+00 1.788062572479248047e+00
1.429000000000000000e+03 4.708100509643554688e+01 -1.451452159881591797e+01 3.192064762115478516e+00 3.602221965789794922e+00 2.038285970687866211e+00 1.962377429008483887e+00
1.430000000000000000e+03 5.310316085815429688e+01 -7.930840015411376953e+00 -1.015104413032531738e+00 1.869783878326416016e+00 2.564038634300231934e-01 2.549426078796386719e+00
1.431000000000000000e+03 5.415219116210937500e+01 -5.613173961639404297e+00 -6.041241884231567383e-01 2.598839759826660156e+00 5.984147191047668457e-01 1.792242765426635742e+00
1.432000000000000000e+03 7.773825073242187500e+01 3.451870727539062500e+01 -3.643089905381202698e-02 -5.030848830938339233e-02 -2.602181583642959595e-02 1.881090104579925537e-01
1.433000000000000000e+03 7.922073364257812500e+01 3.049987220764160156e+01 -9.284761734306812286e-03 -6.254609823226928711e-01 -1.904237270355224609e-01 1.163415908813476562e-01
1.434000000000000000e+03 7.760988616943359375e+01 2.898154640197753906e+01 -4.125776141881942749e-02 -5.806362628936767578e-01 -1.865682154893875122e-01 3.643439114093780518e-01
1.435000000000000000e+03 7.766149139404296875e+01 2.759697723388671875e+01 -2.347263693809509277e-02 -7.687481641769409180e-01 -2.376662343740463257e-01 3.896721303462982178e-01
1.436000000000000000e+03 7.686984252929687500e+01 5.179903984069824219e+00 9.511370211839675903e-02 -1.926108598709106445e+00 -5.492984652519226074e-01 -3.400779068470001221e-01
1.437000000000000000e+03 7.932682037353515625e+01 8.125909805297851562e+00 1.642252504825592041e-02 -3.494388818740844727e+00 -1.043389916419982910e+00 -3.900965675711631775e-02
1.438000000000000000e+03 7.831461334228515625e+01 -8.557392120361328125e+00 -3.561985120177268982e-02 -4.699690639972686768e-01 -1.516766697168350220e-01 -2.433108091354370117e-01
1.439000000000000000e+03 7.828634643554687500e+01 -9.789043426513671875e+00 -3.154509887099266052e-02 -3.212178647518157959e-01 -1.058288887143135071e-01 -2.013042122125625610e-01
1.440000000000000000e+03 7.936215972900390625e+01 1.123449325561523438e+00 7.124109833966940641e-05 -2.473462104797363281e+00 -7.420172691345214844e-01 -1.191777437925338745e-01
1.441000000000000000e+03 7.936749267578125000e+01 1.232213401794433594e+01 3.674211679026484489e-03 -3.594604253768920898e+00 -1.077278971672058105e+00 2.757500857114791870e-02
1.442000000000000000e+03 7.937700653076171875e+01 1.371959495544433594e+01 1.212409976869821548e-02 -3.529083013534545898e+00 -1.055087685585021973e+00 4.581041634082794189e-02
1.443000000000000000e+03 7.933767700195312500e+01 1.932285881042480469e+01 5.068683996796607971e-03 -2.779903173446655273e+00 -8.324503898620605469e-01 1.275451034307479858e-01
1.444000000000000000e+03 7.928312683105468750e+01 2.351932334899902344e+01 4.548108205199241638e-03 -1.919026732444763184e+00 -5.743436217308044434e-01 1.527018994092941284e-01
1.445000000000000000e+03 7.924694061279296875e+01 2.631919479370117188e+01 3.539274446666240692e-03 -1.346727013587951660e+00 -4.029563367366790771e-01 1.491552442312240601e-01
1.446000000000000000e+03 7.777301788330078125e+01 2.479599189758300781e+01 -6.101518869400024414e-03 -1.204846382141113281e+00 -3.632843792438507080e-01 4.198474586009979248e-01
1.447000000000000000e+03 7.924684906005859375e+01 3.329219055175781250e+01 -4.832342732697725296e-03 -2.697647809982299805e-01 -8.237913995981216431e-02 8.322301506996154785e-02
1.448000000000000000e+03 7.767100524902343750e+01 3.172212409973144531e+01 -3.826427459716796875e-02 -2.922604084014892578e-01 -9.915740042924880981e-02 2.854373157024383545e-01
1.449000000000000000e+03 7.920937347412109375e+01 3.743600845336914062e+01 3.210697788745164871e-03 8.377615362405776978e-02 2.609605714678764343e-02 4.990555346012115479e-02
1.450000000000000000e+03 7.773591613769531250e+01 3.586077117919921875e+01 -2.942798100411891937e-02 3.237494081258773804e-02 8.840877562761306763e-04 1.641276478767395020e-01
1.451000000000000000e+03 7.740882873535156250e+01 3.816109466552734375e+01 -2.670243941247463226e-02 1.722565442323684692e-01 4.366623237729072571e-02 1.266259700059890747e-01
1.452000000000000000e+03 7.799465179443359375e+01 1.922567939758300781e+01 3.367135673761367798e-02 -2.138316631317138672e+00 -6.313936114311218262e-01 3.400325179100036621e-01
1.453000000000000000e+03 7.931834411621093750e+01 2.072351264953613281e+01 7.342974189668893814e-03 -2.504860162734985352e+00 -7.492551803588867188e-01 1.409464180469512939e-01
1.454000000000000000e+03 7.812589263916015625e+01 1.503392887115478516e+01 4.499334469437599182e-02 -2.676337718963623047e+00 -7.894033193588256836e-01 1.757815480232238770e-01
1.455000000000000000e+03 7.937008666992187500e+01 1.651844978332519531e+01 6.676788907498121262e-03 -3.241523027420043945e+00 -9.704539179801940918e-01 8.963683247566223145e-02
1.456000000000000000e+03 7.795375061035156250e+01 8.072088241577148438e+00 3.625838831067085266e-02 -2.686526298522949219e+00 -7.950803637504577637e-01 -1.248455271124839783e-01
1.457000000000000000e+03 7.933414459228515625e+01 9.523858070373535156e+00 3.702629357576370239e-03 -3.576033592224121094e+00 -1.071699261665344238e+00 -1.878319121897220612e-02
1.458000000000000000e+03 7.809711456298828125e+01 1.113479971885681152e+00 3.552265092730522156e-02 -1.994155883789062500e+00 -5.875899791717529297e-01 -3.452468216419219971e-01
1.459000000000000000e+03 7.937543487548828125e+01 2.527498960494995117e+00 1.377157866954803467e-02 -2.747063875198364258e+00 -8.199877142906188965e-01 -1.043087467551231384e-01
1.460000000000000000e+03 7.819879913330078125e+01 -5.925854682922363281e+00 -2.960882708430290222e-02 -8.386834263801574707e-01 -2.604876756668090820e-01 -3.353352248668670654e-01
1.461000000000000000e+03 7.936584472656250000e+01 -4.488213539123535156e+00 -5.855812691152095795e-03 -1.271861910820007324e+00 -3.833153247833251953e-01 -1.287542432546615601e-01
1.462000000000000000e+03 7.828046417236328125e+01 -7.261338233947753906e+00 -2.214561030268669128e-02 -6.465567350387573242e-01 -2.006106972694396973e-01 -2.865959107875823975e-01
1.463000000000000000e+03 7.779053497314453125e+01 -1.252592658996582031e+01 -5.863161385059356689e-02 -1.046024784445762634e-01 -4.897022619843482971e-02 -1.194950863718986511e-01
1.464000000000000000e+03 7.880458831787109375e+01 -1.352103137969970703e+01 -2.104095183312892914e-02 -6.265210360288619995e-02 -2.510791644454002380e-02 -4.543767496943473816e-02
1.465000000000000000e+03 7.898589324951171875e+01 -1.223556327819824219e+01 -2.169033885002136230e-02 -1.007959395647048950e-01 -3.674588352441787720e-02 -5.818384140729904175e-02
1.466000000000000000e+03 4.428842163085937500e+01 -2.634212493896484375e+01 3.630857169628143311e-01 3.867380380630493164e+00 1.269139885902404785e+00 2.720642387866973877e-01
1.467000000000000000e+03 5.057532119750976562e+01 -5.493369102478027344e+00 -3.068674802780151367e+00 3.223229348659515381e-01 -8.239055871963500977e-01 1.149501800537109375e+00
1.468000000000000000e+03 4.713802337646484375e+01 -1.634409713745117188e+01 6.060236454010009766e+00 5.002332210540771484e+00 3.318770647048950195e+00 4.897727012634277344e+00
1.469000000000000000e+03 5.972024917602539062e+01 -2.998595428466796875e+01 -1.970801055431365967e-01 -2.334231324493885040e-02 -6.612672656774520874e-02 -2.700381353497505188e-02
1.470000000000000000e+03 6.030312728881835938e+01 -3.193243789672851562e+01 -1.164621934294700623e-01 2.277191728353500366e-02 -2.810708247125148773e-02 3.780723363161087036e-02
1.471000000000000000e+03 5.700658798217773438e+01 -3.238396835327148438e+01 -1.340316832065582275e-01 1.745648798532783985e-03 -3.968581184744834900e-02 3.354465588927268982e-02
1.472000000000000000e+03 4.946490859985351562e+01 -3.065959358215332031e+01 5.401212349534034729e-02 6.637318730354309082e-01 2.153231948614120483e-01 -5.026231408119201660e-01
1.473000000000000000e+03 4.970866775512695312e+01 -2.947719383239746094e+01 2.142189741134643555e-01 4.192414283752441406e-01 1.900381296873092651e-01 -3.174687623977661133e-01
1.474000000000000000e+03 4.960881042480468750e+01 -3.193615913391113281e+01 1.092434115707874298e-02 8.068863153457641602e-01 2.453431934118270874e-01 -4.884103238582611084e-01
1.475000000000000000e+03 4.309408187866210938e+01 -2.323365211486816406e+01 7.161874771118164062e-01 4.495231151580810547e+00 1.563425660133361816e+00 7.717413306236267090e-01
1.476000000000000000e+03 6.895587921142578125e+01 -2.415073585510253906e+01 -6.445243488997220993e-03 -1.784549793228507042e-03 -2.468938007950782776e-03 -9.760018292581662536e-05
1.477000000000000000e+03 6.765238952636718750e+01 -2.301743698120117188e+01 1.640262198634445667e-03 1.193435396999120712e-03 8.501092670485377312e-04 -9.692707099020481110e-04
1.478000000000000000e+03 5.795811080932617188e+01 -1.304234981536865234e+01 -5.005494356155395508e-01 4.038322865962982178e-01 -2.901513315737247467e-02 4.565891623497009277e-01
1.479000000000000000e+03 4.101002883911132812e+01 -2.198791980743408203e+00 -2.628341197967529297e+00 -1.405321836471557617e+00 -1.210098862648010254e+00 1.659993410110473633e+00
1.480000000000000000e+03 5.671358489990234375e+01 -1.330542659759521484e+01 -6.386332213878631592e-02 3.192863166332244873e-01 7.662689685821533203e-02 7.634248137474060059e-01
1.481000000000000000e+03 5.547196578979492188e+01 -1.352387523651123047e+01 4.929129779338836670e-01 3.465889096260070801e-01 2.518505752086639404e-01 9.368149638175964355e-01
1.482000000000000000e+03 6.327501678466796875e+01 -3.016679573059082031e+01 -8.273924887180328369e-02 1.554161217063665390e-02 -2.015929110348224640e-02 1.058398000895977020e-02
1.483000000000000000e+03 6.546296691894531250e+01 -2.778762054443359375e+01 -3.401338309049606323e-02 5.035345442593097687e-03 -8.693411946296691895e-03 -8.777162060141563416e-03
1.484000000000000000e+03 5.160211563110351562e+01 -1.492918872833251953e+01 3.580888032913208008e+00 2.566534280776977539e-01 1.151262402534484863e+00 1.036264419555664062e+00
1.485000000000000000e+03 4.957254791259765625e+01 -1.298001480102539062e+01 2.039581775665283203e+00 1.884360671043395996e+00 1.177182793617248535e+00 2.420843839645385742e+00
1.486000000000000000e+03 7.093149566650390625e+01 -2.096354675292968750e+01 -1.932498533278703690e-03 -1.448984025046229362e-03 -1.014444744214415550e-03 4.741525626741349697e-04
1.487000000000000000e+03 5.293845748901367188e+01 -1.484988212585449219e+01 2.530957937240600586e+00 2.290220260620117188e-01 8.279939889907836914e-01 7.995151877403259277e-01
1.488000000000000000e+03 5.556997299194335938e+01 -3.254627609252929688e+01 -1.010618060827255249e-01 1.861640252172946930e-02 -2.473361976444721222e-02 2.117590419948101044e-02
1.489000000000000000e+03 4.428948211669921875e+01 -2.061409759521484375e+01 1.044760227203369141e+00 6.891314983367919922e+00 2.380822658538818359e+00 1.591305851936340332e+00
1.490000000000000000e+03 4.541994857788085938e+01 -2.054252052307128906e+01 8.925048261880874634e-02 8.192646026611328125e+00 2.484568834304809570e+00 5.497354865074157715e-01
1.491000000000000000e+03 6.376569747924804688e+01 1.833944320678710938e+01 1.157239437103271484e+00 4.884499073028564453e+00 1.812521576881408691e+00 -4.414900541305541992e-01
1.492000000000000000e+03 4.625420379638671875e+01 -6.092330455780029297e+00 -3.859571695327758789e+00 -2.783588767051696777e-01 -1.241379141807556152e+00 9.932680130004882812e-01
1.493000000000000000e+03 1.798534393310546875e+00 2.625739860534667969e+01 4.690578207373619080e-04 -1.298806723207235336e-02 -3.755702869966626167e-03 4.059567581862211227e-03
1.494000000000000000e+03 2.552411556243896484e+00 3.474865341186523438e+01 1.968505326658487320e-03 -2.013052813708782196e-02 -5.448606796562671661e-03 2.312583150342106819e-03
1.495000000000000000e+03 6.778559684753417969e-01 3.187671852111816406e+01 -7.021993515081703663e-04 -2.869567833840847015e-02 -8.819363079965114594e-03 1.172033254988491535e-03
1.496000000000000000e+03 3.070371389389038086e+00 3.883337020874023438e+01 1.490379567258059978e-03 -2.314838394522666931e-02 -6.497401278465986252e-03 -5.216308054514229298e-04
1.497000000000000000e+03 7.413280010223388672e-01 3.874359512329101562e+01 -5.316992755979299545e-04 -3.023935668170452118e-02 -9.231316857039928436e-03 -8.559161797165870667e-04
1.498000000000000000e+03 2.604899883270263672e+00 -3.803856277465820312e+01 2.053866535425186157e-02 -1.815919637680053711e+00 -5.386143326759338379e-01 6.316458433866500854e-02
1.499000000000000000e+03 1.711575031280517578e+00 -3.552472686767578125e+01 3.290900960564613342e-02 -1.931211590766906738e+00 -5.694907903671264648e-01 2.026489749550819397e-02
1.500000000000000000e+03 1.795711755752563477e+00 2.348380661010742188e+01 1.843586069298908114e-04 -8.101169019937515259e-03 -2.375043230131268501e-03 3.715445753186941147e-03
1.501000000000000000e+03 1.886407613754272461e+00 3.041632270812988281e+01 -1.342915347777307034e-04 -1.977973431348800659e-02 -5.974208004772663116e-03 3.356901463121175766e-03
1.502000000000000000e+03 8.243456482887268066e-01 -3.045611190795898438e+01 9.202415123581886292e-03 -2.037067174911499023e+00 -6.083593964576721191e-01 -2.293338440358638763e-02
1.503000000000000000e+03 6.194383502006530762e-01 -1.351001548767089844e+01 -8.889839984476566315e-03 -5.766746029257774353e-02 -1.996719092130661011e-02 -6.276410818099975586e-02
1.504000000000000000e+03 2.212797403335571289e+00 -4.330981254577636719e+00 -4.104524850845336914e-03 5.848039314150810242e-02 1.631276123225688934e-02 6.335822492837905884e-02
1.505000000000000000e+03 5.939503908157348633e-01 -1.070435905456542969e+01 -9.681834839284420013e-03 1.509342640638351440e-01 4.237572848796844482e-02 -2.676647529006004333e-02
1.506000000000000000e+03 1.740882039070129395e+00 -9.359080314636230469e+00 -3.203087300062179565e-02 8.320164680480957031e-02 1.535123307257890701e-02 -3.287380561232566833e-02
1.507000000000000000e+03 6.151716113090515137e-01 -1.773004341125488281e+01 -2.948617562651634216e-03 -6.341758966445922852e-01 -1.911373585462570190e-01 -9.884349256753921509e-02
1.508000000000000000e+03 6.158575415611267090e-01 -1.913617324829101562e+01 2.556077204644680023e-03 -8.644900918006896973e-01 -2.585802078247070312e-01 -9.909135848283767700e-02
1.509000000000000000e+03 6.224779486656188965e-01 -2.054131126403808594e+01 -1.146088106906972826e-04 -1.091510891914367676e+00 -3.274876773357391357e-01 -9.699437022209167480e-02
1.510000000000000000e+03 6.342028975486755371e-01 -2.194557380676269531e+01 6.764364428818225861e-03 -1.304050445556640625e+00 -3.891858458518981934e-01 -8.901923149824142456e-02
1.511000000000000000e+03 6.505287885665893555e-01 -2.335074615478515625e+01 1.058752648532390594e-03 -1.494767069816589355e+00 -4.481124877929687500e-01 -8.135709911584854126e-02
1.512000000000000000e+03 2.079409599304199219e+00 -2.601270484924316406e+01 3.357642889022827148e-02 -1.527119278907775879e+00 -4.480628371238708496e-01 -1.787723898887634277e-01
1.513000000000000000e+03 2.754866361618041992e+00 -3.340522766113281250e+01 1.634401641786098480e-02 -1.730365276336669922e+00 -5.142063498497009277e-01 -3.041144646704196930e-02
1.514000000000000000e+03 2.218253135681152344e+00 -3.679553222656250000e+01 3.272632509469985962e-02 -1.888867735862731934e+00 -5.568423867225646973e-01 1.332761347293853760e-02
1.515000000000000000e+03 1.559425592422485352e+00 4.761290073394775391e+00 -3.920013841707259417e-05 1.044853779603727162e-04 1.958557186299003661e-05 -8.453756890958175063e-06
1.516000000000000000e+03 1.767286300659179688e+00 2.209412384033203125e+01 -8.461578981950879097e-04 -5.949068814516067505e-03 -2.038568025454878807e-03 3.161275526508688927e-03
1.517000000000000000e+03 5.871468186378479004e-01 1.921864509582519531e+01 3.365863522049039602e-04 -2.672872273251414299e-03 -7.008857792243361473e-04 7.128239376470446587e-04
1.518000000000000000e+03 5.994027853012084961e-01 1.780781745910644531e+01 -4.720933502539992332e-04 -1.292410423047840595e-03 -5.293511203490197659e-04 4.628661263268440962e-04
1.519000000000000000e+03 6.325353384017944336e-01 1.497222518920898438e+01 -3.675873158499598503e-04 1.139442174462601542e-04 -7.609293243149295449e-05 1.507738052168861032e-04
1.520000000000000000e+03 5.929989814758300781e-01 1.072300243377685547e+01 2.401258097961544991e-04 4.459400661289691925e-04 2.058197569567710161e-04 -2.758068694674875587e-05
1.521000000000000000e+03 6.332557797431945801e-01 7.865265369415283203e+00 1.498252531746402383e-04 3.092140541411936283e-04 1.377117878291755915e-04 -5.153842721483670175e-05
1.522000000000000000e+03 3.312378644943237305e+00 -3.910963821411132812e+01 2.177712880074977875e-02 -1.790581941604614258e+00 -5.306414365768432617e-01 7.737503852695226669e-03
1.523000000000000000e+03 4.112275600433349609e+00 -3.759678649902343750e+01 5.451171845197677612e-02 -1.611510276794433594e+00 -4.670995771884918213e-01 -6.972472369670867920e-02
1.524000000000000000e+03 2.632252693176269531e+00 -3.185415458679199219e+01 2.826672606170177460e-02 -1.715192079544067383e+00 -5.060775876045227051e-01 -6.210458278656005859e-02
1.525000000000000000e+03 2.013642072677612305e+00 -2.460355758666992188e+01 2.614354155957698822e-02 -1.419930815696716309e+00 -4.181361794471740723e-01 -2.100509852170944214e-01
1.526000000000000000e+03 6.701681613922119141e-01 -2.475903320312500000e+01 8.813351392745971680e-03 -1.659688234329223633e+00 -4.952624440193176270e-01 -7.000896334648132324e-02
1.527000000000000000e+03 6.208386421203613281e-01 -1.491638278961181641e+01 -5.545233376324176788e-03 -2.203782796859741211e-01 -6.777705252170562744e-02 -7.956216484308242798e-02
1.528000000000000000e+03 1.841720938682556152e+00 -1.210274314880371094e+01 -3.928433731198310852e-02 -4.617827385663986206e-02 -2.563878335058689117e-02 -1.297727674245834351e-01
1.529000000000000000e+03 2.843049049377441406e+00 -6.887186050415039062e+00 -4.162804782390594482e-02 4.742672666907310486e-02 1.739603700116276741e-03 2.840815484523773193e-02
1.530000000000000000e+03 5.642027854919433594e-01 -7.913499355316162109e+00 -6.676713470369577408e-03 2.015522271394729614e-01 5.846265330910682678e-02 3.617284819483757019e-03
1.531000000000000000e+03 1.516439437866210938e+00 -3.382631778717041016e+00 5.225203931331634521e-03 5.621186271309852600e-02 1.843111962080001831e-02 4.973215237259864807e-02
1.532000000000000000e+03 1.888416647911071777e+00 1.361452388763427734e+01 -4.771434469148516655e-04 1.143550798587966710e-05 -1.397123705828562379e-04 2.266744268126785755e-04
1.533000000000000000e+03 4.370733642578125000e+01 -3.983235597610473633e+00 -5.401255607604980469e+00 -6.796004772186279297e-01 -1.824256777763366699e+00 1.687186360359191895e+00
1.534000000000000000e+03 4.204854965209960938e+01 -6.268136024475097656e+00 -2.333901882171630859e+00 -7.509828358888626099e-02 -7.227000594139099121e-01 5.789335444569587708e-02
1.535000000000000000e+03 6.246064376831054688e+01 4.569327831268310547e+00 1.296047568321228027e+00 4.370748043060302734e+00 1.700038671493530273e+00 1.229943990707397461e+00
1.536000000000000000e+03 6.155499649047851562e+01 5.676020622253417969e+00 1.550066232681274414e+00 5.892906188964843750e+00 2.232891798019409180e+00 2.097659826278686523e+00
1.537000000000000000e+03 5.452158737182617188e+01 -2.773803472518920898e+00 1.846544146537780762e+00 2.668348312377929688e+00 1.354467749595642090e+00 2.276537179946899414e+00
1.538000000000000000e+03 5.814952850341796875e+01 -2.541545331478118896e-01 1.603469610214233398e+00 3.140649318695068359e+00 1.423235654830932617e+00 2.113909244537353516e+00
1.539000000000000000e+03 6.242157363891601562e+01 7.089035034179687500e+00 1.097164988517761230e+00 5.709620952606201172e+00 2.042035818099975586e+00 1.725587487220764160e+00
1.540000000000000000e+03 6.275885772705078125e+01 6.176428318023681641e+00 1.120026588439941406e+00 5.053771972656250000e+00 1.852139592170715332e+00 1.310936808586120605e+00
1.541000000000000000e+03 5.484797286987304688e+01 -4.561659812927246094e+00 3.831733763217926025e-01 2.468326807022094727e+00 8.554500937461853027e-01 1.549730420112609863e+00
1.542000000000000000e+03 5.715613937377929688e+01 5.099875330924987793e-01 1.734338521957397461e+00 3.759159803390502930e+00 1.648049473762512207e+00 2.465345859527587891e+00
1.543000000000000000e+03 6.577139282226562500e+01 1.596434974670410156e+01 9.052699804306030273e-01 4.009573936462402344e+00 1.474453210830688477e+00 1.388845741748809814e-01
1.544000000000000000e+03 6.067202377319335938e+01 2.863173007965087891e+00 1.212401270866394043e+00 4.395409107208251953e+00 1.682343125343322754e+00 1.914072513580322266e+00
1.545000000000000000e+03 6.433346557617187500e+01 1.296441555023193359e+01 6.129207015037536621e-01 5.564058780670166016e+00 1.853093862533569336e+00 3.335469663143157959e-01
1.546000000000000000e+03 6.528054809570312500e+01 1.406081104278564453e+01 7.331750392913818359e-01 4.792306900024414062e+00 1.657644629478454590e+00 2.067355364561080933e-01
1.547000000000000000e+03 5.563735961914062500e+01 -3.501943826675415039e+00 1.165950894355773926e+00 2.717279434204101562e+00 1.164969086647033691e+00 1.831650376319885254e+00
1.548000000000000000e+03 6.730331420898437500e+01 -2.628368186950683594e+01 -1.638910174369812012e-02 6.155597046017646790e-03 -3.070051083341240883e-03 -6.380713544785976410e-03
1.549000000000000000e+03 2.159535980224609375e+01 -3.119745445251464844e+01 8.520728945732116699e-01 6.669661402702331543e-01 4.557116925716400146e-01 -3.983993530273437500e-01
1.550000000000000000e+03 2.281553077697753906e+01 -3.235528945922851562e+01 7.899478077888488770e-01 6.789693832397460938e-01 4.406751394271850586e-01 -3.629789054393768311e-01
1.551000000000000000e+03 1.292657661437988281e+01 -1.870211219787597656e+01 7.770888507366180420e-02 -3.057383596897125244e-01 -6.840883940458297729e-02 -7.891244292259216309e-01
1.552000000000000000e+03 6.514265441894531250e+01 -1.037402439117431641e+01 -1.325366854667663574e+00 -2.629512548446655273e-01 -4.764954149723052979e-01 -3.593498468399047852e-01
1.553000000000000000e+03 3.331655883789062500e+01 2.121326208114624023e+00 1.818935394287109375e+00 3.065979003906250000e+00 1.465474367141723633e+00 1.763889074325561523e+00
1.554000000000000000e+03 3.396535491943359375e+01 2.457042217254638672e+00 1.183884263038635254e+00 1.393967151641845703e+00 7.733554244041442871e-01 1.012909710407257080e-01
1.555000000000000000e+03 3.464138412475585938e+01 -1.348916411399841309e+00 -2.270375490188598633e+00 1.811580508947372437e-01 -6.267652511596679688e-01 1.005219221115112305e-01
1.556000000000000000e+03 3.424619293212890625e+01 -1.712509751319885254e+00 -2.194019317626953125e+00 2.539679408073425293e-01 -5.820153951644897461e-01 5.211072787642478943e-02
1.557000000000000000e+03 3.325814819335937500e+01 -1.659945845603942871e+00 -2.235860109329223633e+00 1.652364879846572876e-01 -6.211870908737182617e-01 -1.424230784177780151e-01
1.558000000000000000e+03 3.238927459716796875e+01 -1.861035823822021484e+00 -2.128336906433105469e+00 1.648316532373428345e-01 -5.890516042709350586e-01 -3.052502274513244629e-01
1.559000000000000000e+03 2.980333518981933594e+01 -1.844078421592712402e+00 -1.797292590141296387e+00 4.861135035753250122e-02 -5.246043801307678223e-01 -7.068395614624023438e-01
1.560000000000000000e+03 3.091676902770996094e+01 -1.960438370704650879e+00 -1.942639827728271484e+00 1.186253428459167480e-01 -5.472043156623840332e-01 -5.666918754577636719e-01
1.561000000000000000e+03 2.818517303466796875e+01 -1.957085013389587402e+00 -1.261954903602600098e+00 6.212465837597846985e-02 -3.599490523338317871e-01 -9.710826277732849121e-01
1.562000000000000000e+03 2.892460823059082031e+01 -2.194146633148193359e+00 -1.396768927574157715e+00 6.378140300512313843e-02 -3.998962342739105225e-01 -9.229627847671508789e-01
1.563000000000000000e+03 2.915672111511230469e+01 -2.521228313446044922e+00 -1.310435533523559570e+00 1.138218268752098083e-01 -3.589840829372406006e-01 -9.689109325408935547e-01
1.564000000000000000e+03 2.918183708190917969e+01 -1.875668883323669434e+00 -1.623214006423950195e+00 2.068377099931240082e-02 -4.807590842247009277e-01 -8.021495342254638672e-01
1.565000000000000000e+03 2.781873130798339844e+01 -1.937936186790466309e+00 -1.137676119804382324e+00 1.001739129424095154e-01 -3.112506568431854248e-01 -1.024687051773071289e+00
1.566000000000000000e+03 2.897773933410644531e+01 -1.889104247093200684e+00 -1.575240254402160645e+00 2.743774279952049255e-02 -4.643407464027404785e-01 -8.250192999839782715e-01
1.567000000000000000e+03 3.404314422607421875e+01 -1.755642414093017578e+00 -2.171398639678955078e+00 2.100032716989517212e-01 -5.884186029434204102e-01 1.519873831421136856e-02
1.568000000000000000e+03 3.365883636474609375e+01 -1.701265573501586914e+00 -2.207849264144897461e+00 1.811155527830123901e-01 -6.080200672149658203e-01 -5.564498528838157654e-02
1.569000000000000000e+03 3.165351486206054688e+01 -1.622774720191955566e+00 -2.215044021606445312e+00 1.044753342866897583e-01 -6.331706047058105469e-01 -4.145160317420959473e-01
1.570000000000000000e+03 3.168424797058105469e+01 -2.110173940658569336e+00 -1.963002324104309082e+00 1.852800846099853516e-01 -5.333166718482971191e-01 -4.429057538509368896e-01
1.571000000000000000e+03 2.557321166992187500e+01 -3.168981313705444336e+00 -7.925199270248413086e-01 4.996508955955505371e-01 -8.786070346832275391e-02 -9.180897474288940430e-01
1.572000000000000000e+03 2.735004997253417969e+01 -2.497344017028808594e+00 -9.516963958740234375e-01 3.358982503414154053e-01 -1.847394406795501709e-01 -1.220718860626220703e+00
1.573000000000000000e+03 2.437051773071289062e+01 2.237555503845214844e+01 1.553132683038711548e-01 4.302243888378143311e-02 5.950070917606353760e-02 -8.738112449645996094e-02
1.574000000000000000e+03 2.316567802429199219e+01 2.249824714660644531e+01 8.612639456987380981e-02 1.760938949882984161e-02 3.112073428928852081e-02 -4.839115589857101440e-02
1.575000000000000000e+03 2.315452957153320312e+01 2.295775794982910156e+01 9.520773589611053467e-02 3.308020532131195068e-02 3.848638385534286499e-02 -7.135413587093353271e-02
1.576000000000000000e+03 3.339892578125000000e+01 3.126636981964111328e+00 8.440281748771667480e-01 5.790607929229736328e+00 1.990390777587890625e+00 1.327327489852905273e+00
1.577000000000000000e+03 3.405474853515625000e+01 5.970451831817626953e+00 1.481530368328094482e-01 3.751434326171875000e+00 1.169876217842102051e+00 -4.447864592075347900e-01
1.578000000000000000e+03 2.264208412170410156e+01 4.326265335083007812e+00 4.097211785847321153e-05 4.125630221096798778e-05 2.466852674842812121e-05 4.331729724071919918e-05
1.579000000000000000e+03 2.238533592224121094e+01 4.583445072174072266e+00 -4.279131826478987932e-05 -3.151844794047065079e-05 -2.229293022537603974e-05 -3.946893048123456538e-05
1.580000000000000000e+03 1.796188926696777344e+01 2.273680114746093750e+01 -1.946775242686271667e-02 -5.585853476077318192e-03 -7.516081910580396652e-03 -1.235839631408452988e-02
1.581000000000000000e+03 3.250119400024414062e+01 1.577289485931396484e+01 1.538935005664825439e-01 2.360371589660644531e+00 7.542794942855834961e-01 -4.963132143020629883e-01
1.582000000000000000e+03 1.381329822540283203e+01 1.780007171630859375e+01 -2.907010726630687714e-03 -3.791566705331206322e-03 -2.009573159739375114e-03 -4.042425658553838730e-03
1.583000000000000000e+03 1.869159889221191406e+01 2.213565444946289062e+01 -4.043094068765640259e-02 -4.531465005129575729e-03 -1.348872203379869461e-02 -1.324636954814195633e-02
1.584000000000000000e+03 3.299375152587890625e+01 1.154185581207275391e+01 1.284850686788558960e-01 3.902402877807617188e+00 1.209266424179077148e+00 -7.033970952033996582e-01
1.585000000000000000e+03 3.398696136474609375e+01 6.376412868499755859e+00 -3.736707568168640137e-02 3.925029993057250977e+00 1.166298866271972656e+00 -5.477441549301147461e-01
1.586000000000000000e+03 3.394019699096679688e+01 6.764611244201660156e+00 1.486591845750808716e-01 4.008151054382324219e+00 1.247043013572692871e+00 -5.684350132942199707e-01
1.587000000000000000e+03 1.807308769226074219e+01 7.681571483612060547e+00 -5.427006180980242789e-05 1.748954491631593555e-05 -1.103415524994488806e-05 -7.275159441633149981e-05
1.588000000000000000e+03 3.207689666748046875e+01 1.557245063781738281e+01 1.946293413639068604e-01 2.564572334289550781e+00 8.277604579925537109e-01 -6.413448452949523926e-01
1.589000000000000000e+03 1.861042213439941406e+01 7.065888404846191406e+00 -4.882126813754439354e-05 -1.189096019516000524e-05 -1.821366822696290910e-05 -5.405660340329632163e-05
1.590000000000000000e+03 1.890236663818359375e+01 6.778893470764160156e+00 4.315975093049928546e-05 6.728910375386476517e-05 3.313465640530921519e-05 2.792878512991592288e-05
1.591000000000000000e+03 2.224006652832031250e+01 4.213050365447998047e+00 3.859664047922706231e-06 1.092864022211870179e-05 4.436491508386097848e-06 7.162304882513126358e-06
1.592000000000000000e+03 2.769770812988281250e+01 2.142603111267089844e+01 5.260578393936157227e-01 3.046911954879760742e-01 2.492247223854064941e-01 -4.033709764480590820e-01
1.593000000000000000e+03 2.067080116271972656e+01 4.815456390380859375e+00 -3.777239544433541596e-05 -6.829238827776862308e-06 -1.338048969046212733e-05 7.975053222253336571e-07
1.594000000000000000e+03 1.382538890838623047e+01 1.818823242187500000e+01 -3.639137139543890953e-03 -4.416752606630325317e-03 -2.416766947135329247e-03 -5.529034882783889771e-03
1.595000000000000000e+03 1.596304416656494141e+01 9.634647369384765625e+00 -9.047183993970975280e-05 1.776739227352663875e-04 2.616062374727334827e-05 -1.150964380940422416e-04
1.596000000000000000e+03 1.560644245147705078e+01 1.086538219451904297e+01 -6.919133011251688004e-05 3.505643107928335667e-04 8.441189856966957450e-05 -2.146796177839860320e-04
1.597000000000000000e+03 1.554920101165771484e+01 1.029709815979003906e+01 -9.115546708926558495e-05 2.552021760493516922e-04 4.921400977764278650e-05 -1.301030279137194157e-04
1.598000000000000000e+03 3.320265960693359375e+01 1.083127880096435547e+01 1.249627396464347839e-01 4.022124767303466797e+00 1.244126200675964355e+00 -6.312882304191589355e-01
1.599000000000000000e+03 2.399106407165527344e+01 2.291428947448730469e+01 1.342904269695281982e-01 5.473732575774192810e-02 5.670832842588424683e-02 -1.002445146441459656e-01
1.600000000000000000e+03 1.506059455871582031e+01 1.154662704467773438e+01 -1.207781897392123938e-04 4.623447312042117119e-04 1.024699595291167498e-04 -1.877544855233281851e-04
1.601000000000000000e+03 1.534299945831298828e+01 1.119974899291992188e+01 1.570841413922607899e-04 5.582624580711126328e-04 2.146039769286289811e-04 2.996878174599260092e-05
1.602000000000000000e+03 3.183840751647949219e+01 1.457244300842285156e+01 2.634371817111968994e-01 2.993969678878784180e+00 9.772220253944396973e-01 -9.065847396850585938e-01
1.603000000000000000e+03 2.112750625610351562e+01 2.222254562377929688e+01 -1.772233657538890839e-02 -2.538533182814717293e-03 -6.078260950744152069e-03 -1.190210785716772079e-02
1.604000000000000000e+03 2.024821853637695312e+01 2.262611007690429688e+01 -9.772887453436851501e-03 -1.127011841163039207e-03 -3.269969718530774117e-03 -1.718463562428951263e-02
1.605000000000000000e+03 3.049840736389160156e+01 1.949050140380859375e+01 4.507258534431457520e-01 1.515041589736938477e+00 5.897302627563476562e-01 -6.469644904136657715e-01
1.606000000000000000e+03 1.379666233062744141e+01 1.665717887878417969e+01 -4.735646944027394056e-04 -1.691776094958186150e-03 -6.496022688224911690e-04 -1.860238146036863327e-03
1.607000000000000000e+03 1.999046134948730469e+01 5.526433467864990234e+00 -4.501687556057731854e-07 -1.454064931749599054e-05 -4.497245299717178568e-06 -1.355178142148361076e-06
1.608000000000000000e+03 1.779658889770507812e+01 7.986534118652343750e+00 6.709495210088789463e-05 1.120950546464882791e-04 5.375700129661709070e-05 1.924409298226237297e-05
1.609000000000000000e+03 3.386447525024414062e+01 9.634676933288574219e+00 8.624454587697982788e-02 3.698600292205810547e+00 1.135453462600708008e+00 -4.970719218254089355e-01
1.610000000000000000e+03 3.360045242309570312e+01 1.097935962677001953e+01 8.548384904861450195e-02 3.568928956985473633e+00 1.096323847770690918e+00 -4.833598732948303223e-01
1.611000000000000000e+03 3.423815536499023438e+01 4.504708766937255859e+00 2.948030233383178711e-01 3.106973171234130859e+00 1.020532846450805664e+00 -1.345066875219345093e-01
1.612000000000000000e+03 3.333749008178710938e+01 1.191574573516845703e+01 1.209560483694076538e-01 3.384307622909545898e+00 1.051579117774963379e+00 -5.099148750305175781e-01
1.613000000000000000e+03 1.347865390777587891e+01 1.257668209075927734e+01 -1.702182635199278593e-04 1.092894235625863075e-04 -1.827865162340458483e-05 5.015605711378157139e-05
1.614000000000000000e+03 1.477260684967041016e+01 1.192996406555175781e+01 2.466550795361399651e-04 5.535166710615158081e-04 2.400515222689136863e-04 5.126162068336270750e-05
1.615000000000000000e+03 3.505038833618164062e+01 5.973965167999267578e+00 2.751865088939666748e-01 2.047439336776733398e+00 6.967877745628356934e-01 -6.013631224632263184e-01
1.616000000000000000e+03 3.391146469116210938e+01 7.149316310882568359e+00 1.067235097289085388e-01 4.066826343536376953e+00 1.252065062522888184e+00 -5.700854063034057617e-01
1.617000000000000000e+03 1.902664566040039062e+01 2.224640655517578125e+01 -3.440803289413452148e-02 -4.525986965745687485e-03 -1.168020535260438919e-02 -1.322403643280267715e-02
1.618000000000000000e+03 1.837329101562500000e+01 2.259799003601074219e+01 -2.336328290402889252e-02 -3.286638529971241951e-03 -7.994976826012134552e-03 -1.400634180754423141e-02
1.619000000000000000e+03 3.420447158813476562e+01 5.025850772857666016e+00 4.445596039295196533e-01 3.262640953063964844e+00 1.112160205841064453e+00 -2.110503017902374268e-01
1.620000000000000000e+03 1.939760971069335938e+01 2.241553306579589844e+01 -2.696467190980911255e-02 -3.031992120668292046e-03 -8.998999372124671936e-03 -1.460255403071641922e-02
1.621000000000000000e+03 2.038675498962402344e+01 5.187816143035888672e+00 3.420580833335407078e-05 -2.356943878112360835e-05 3.190911002093343996e-06 1.819686804083175957e-05
1.622000000000000000e+03 3.388444900512695312e+01 3.964065074920654297e+00 2.729411423206329346e-01 3.728711605072021484e+00 1.200495839118957520e+00 2.610797584056854248e-01
1.623000000000000000e+03 3.390335083007812500e+01 3.492678165435791016e+00 9.883521199226379395e-01 3.414218664169311523e+00 1.320771217346191406e+00 6.246672868728637695e-01
1.624000000000000000e+03 1.503068542480468750e+01 2.093691825866699219e+01 -2.648898027837276459e-02 -5.500748287886381149e-03 -9.596918709576129913e-03 -9.373256936669349670e-03
1.625000000000000000e+03 3.092485809326171875e+01 1.867544555664062500e+01 3.822552263736724854e-01 1.781437516212463379e+00 6.491078138351440430e-01 -6.498153209686279297e-01
1.626000000000000000e+03 1.478585243225097656e+01 1.010120487213134766e+01 4.070617069373838603e-05 3.147111565340310335e-04 1.066252007149159908e-04 8.589884964749217033e-05
1.627000000000000000e+03 1.651350402832031250e+01 9.538567543029785156e+00 -5.203769251238554716e-05 1.390233665006235242e-04 2.609570219647139311e-05 -1.418710016878321767e-04
1.628000000000000000e+03 2.799627494812011719e+01 2.126249694824218750e+01 6.148586273193359375e-01 4.088304638862609863e-01 3.071067035198211670e-01 -4.755011498928070068e-01
1.629000000000000000e+03 1.382910156250000000e+01 1.856133079528808594e+01 -6.748666521161794662e-03 -4.985315259546041489e-03 -3.520194441080093384e-03 -7.459752261638641357e-03
1.630000000000000000e+03 2.154143524169921875e+01 2.225790786743164062e+01 -1.831592409871518612e-03 3.642670708359219134e-05 -5.385496770031750202e-04 -1.193046662956476212e-02
1.631000000000000000e+03 1.681437301635742188e+01 7.727904319763183594e+00 -8.058218372752889991e-05 8.537248504580929875e-05 1.437092123524053022e-06 -5.523111030925065279e-05
1.632000000000000000e+03 1.465387153625488281e+01 1.497855758666992188e+01 3.983311180491000414e-04 8.363882661797106266e-04 3.704158298205584288e-04 -1.577786315465345979e-04
1.633000000000000000e+03 1.674468231201171875e+01 2.191386985778808594e+01 -3.749128431081771851e-02 -9.939682669937610626e-03 -1.422929018735885620e-02 -8.755323477089405060e-03
1.634000000000000000e+03 1.425226783752441406e+01 1.405425643920898438e+01 -3.113960556220263243e-04 4.719302814919501543e-04 4.816026921616867185e-05 -2.139525022357702255e-04
1.635000000000000000e+03 1.565549373626708984e+01 2.103475761413574219e+01 -3.311941027641296387e-02 -8.794259279966354370e-03 -1.257409993559122086e-02 -1.399952266365289688e-02
1.636000000000000000e+03 1.416120910644531250e+01 1.447864151000976562e+01 3.735623031388968229e-04 2.342012012377381325e-04 1.823290513129904866e-04 -1.516435440862551332e-04
1.637000000000000000e+03 2.834681510925292969e+01 2.125215148925781250e+01 5.558195114135742188e-01 5.970789194107055664e-01 3.458695411682128906e-01 -5.165735483169555664e-01
1.638000000000000000e+03 2.779386901855468750e+01 2.195954322814941406e+01 3.644832968711853027e-01 4.363082051277160645e-01 2.402374446392059326e-01 -4.036931991577148438e-01
1.639000000000000000e+03 2.063443946838378906e+01 2.325842094421386719e+01 2.219537086784839630e-02 3.822454018518328667e-03 7.805347442626953125e-03 -3.161449357867240906e-02
1.640000000000000000e+03 1.474466037750244141e+01 2.012420272827148438e+01 -2.047307416796684265e-02 -9.482272900640964508e-03 -8.986604399979114532e-03 -1.053029019385576248e-02
1.641000000000000000e+03 2.815657424926757812e+01 2.203517150878906250e+01 3.021943271160125732e-01 5.639994144439697266e-01 2.598581314086914062e-01 -4.026175439357757568e-01
1.642000000000000000e+03 2.245049476623535156e+01 2.263671112060546875e+01 5.569123104214668274e-02 1.227833610028028488e-02 2.039087004959583282e-02 -3.896421939134597778e-02
1.643000000000000000e+03 2.880452537536621094e+01 2.155037689208984375e+01 3.788460493087768555e-01 7.715367674827575684e-01 3.451148569583892822e-01 -4.585172533988952637e-01
1.644000000000000000e+03 1.603376197814941406e+01 2.209129333496093750e+01 -2.654209360480308533e-02 -4.992784000933170319e-03 -9.460463188588619232e-03 -4.068898037075996399e-03
1.645000000000000000e+03 1.689979171752929688e+01 2.240544700622558594e+01 -2.466538362205028534e-02 -6.881190929561853409e-03 -9.463972412049770355e-03 -8.585085161030292511e-03
1.646000000000000000e+03 2.982197570800781250e+01 2.006865310668945312e+01 6.181982159614562988e-01 1.270039677619934082e+00 5.664713382720947266e-01 -6.651079058647155762e-01
1.647000000000000000e+03 2.951959609985351562e+01 2.036900329589843750e+01 6.370379328727722168e-01 1.161052346229553223e+00 5.394271016120910645e-01 -6.502200365066528320e-01
1.648000000000000000e+03 3.363344955444335938e+01 2.594188928604125977e+00 2.252635478973388672e+00 3.086502075195312500e+00 1.601741194725036621e+00 1.356077909469604492e+00
1.649000000000000000e+03 1.426366615295410156e+01 1.996868324279785156e+01 -1.954069547355175018e-02 -4.294463433325290680e-03 -7.150547578930854797e-03 -8.826736360788345337e-03
1.650000000000000000e+03 1.423366546630859375e+01 1.951522636413574219e+01 -1.486660819500684738e-02 -5.279938224703073502e-03 -6.043963599950075150e-03 -9.446965530514717102e-03
1.651000000000000000e+03 1.420582199096679688e+01 1.904516601562500000e+01 -1.017561834305524826e-02 -6.776213645935058594e-03 -5.085549782961606979e-03 -9.077480994164943695e-03
1.652000000000000000e+03 3.445870590209960938e+01 2.620374679565429688e+00 7.963334321975708008e-01 4.559395909309387207e-01 3.756819069385528564e-01 -6.063198447227478027e-01
1.653000000000000000e+03 3.515411376953125000e+01 2.668839693069458008e+00 4.212038218975067139e-01 -1.359962224960327148e-01 8.556228131055831909e-02 -1.156173348426818848e+00
1.654000000000000000e+03 2.117750930786132812e+01 4.955563068389892578e+00 -1.549877742945682257e-05 -4.781762618222273886e-05 -1.899492235679645091e-05 -2.164895886380691081e-05
1.655000000000000000e+03 7.698883819580078125e+01 -1.920150375366210938e+01 8.015207131393253803e-04 1.485465181758627295e-04 2.850201562978327274e-04 -1.146419090218842030e-03
1.656000000000000000e+03 7.636405944824218750e+01 -1.906427383422851562e+01 -1.371454418404027820e-04 -4.388513043522834778e-04 -1.727990311337634921e-04 7.435639417963102460e-05
1.657000000000000000e+03 2.145487594604492188e+01 4.057865142822265625e+00 3.953993291361257434e-05 3.039836337848100811e-05 2.098148797813337296e-05 1.413890640833415091e-05
1.658000000000000000e+03 7.815047454833984375e+01 -1.376589298248291016e+01 -4.124537482857704163e-02 -4.457521438598632812e-02 -2.574617601931095123e-02 -5.732883512973785400e-02
1.659000000000000000e+03 7.299615478515625000e+01 -1.898311996459960938e+01 1.063992967829108238e-03 -7.277947152033448219e-04 1.008594990707933903e-04 6.927873473614454269e-04
1.660000000000000000e+03 7.443428039550781250e+01 -1.976146316528320312e+01 -1.581278920639306307e-04 -5.673249834217131138e-04 -2.176358539145439863e-04 -2.134487294824793935e-04
1.661000000000000000e+03 1.906583595275878906e+01 2.800872325897216797e+00 1.469122889830032364e-05 3.928525984520092607e-05 1.619294744159560651e-05 9.647160368331242353e-06
1.662000000000000000e+03 1.763275146484375000e+01 3.177042484283447266e+00 -6.032756573404185474e-06 -1.962467831617686898e-05 -7.697230103076435626e-06 1.587301449035294354e-05
1.663000000000000000e+03 2.292501068115234375e+01 -2.755884408950805664e+00 -4.136996269226074219e-01 -2.414269149303436279e-01 -1.965379714965820312e-01 -5.661703348159790039e-01
1.664000000000000000e+03 3.917390441894531250e+01 -2.618780851364135742e+00 -2.493589639663696289e+00 3.873433768749237061e-01 -6.318739056587219238e-01 6.716529726982116699e-01
1.665000000000000000e+03 7.691593933105468750e+01 -1.413424301147460938e+01 -7.658039033412933350e-02 -3.233417496085166931e-02 -3.267437219619750977e-02 -7.992272824048995972e-02
1.666000000000000000e+03 1.483535671234130859e+01 3.121775150299072266e+00 1.479242769164557103e-06 -1.219517798745073378e-05 -3.214780463167699054e-06 5.703330316464416683e-05
1.667000000000000000e+03 6.885687255859375000e+01 -1.231435871124267578e+01 -9.836633801460266113e-01 2.237277030944824219e-01 -2.279807180166244507e-01 -9.107752144336700439e-02
1.668000000000000000e+03 6.983361816406250000e+01 -1.395499515533447266e+01 -5.657287836074829102e-01 1.010725125670433044e-01 -1.393968909978866577e-01 4.123264923691749573e-02
1.669000000000000000e+03 6.940140533447265625e+01 -1.313290882110595703e+01 -7.975581288337707520e-01 1.648237854242324829e-01 -1.898203045129776001e-01 1.159475091844797134e-02
1.670000000000000000e+03 1.975485992431640625e+01 2.870996713638305664e+00 6.221091553015867248e-07 -2.340818173252046108e-05 -6.835821750428294763e-06 -1.266850972569955047e-06
1.671000000000000000e+03 2.087378883361816406e+01 4.190122604370117188e+00 4.339712904766201973e-05 5.736637831432744861e-06 1.474012969993054867e-05 2.338003639579255832e-07
1.672000000000000000e+03 7.131465148925781250e+01 -2.020400810241699219e+01 1.690350007265806198e-03 -1.085613039322197437e-04 4.745366168208420277e-04 -1.275701561098685488e-05
1.673000000000000000e+03 1.336001110076904297e+01 2.493657588958740234e+00 6.508881779154762626e-05 4.002713831141591072e-05 3.153478610329329967e-05 4.715608156402595341e-05
1.674000000000000000e+03 1.192118549346923828e+01 3.159208059310913086e+00 3.697639112942852080e-05 -4.829902536584995687e-05 -3.396790816623251885e-06 6.912258686497807503e-05
1.675000000000000000e+03 1.694381523132324219e+01 3.142440319061279297e+00 1.171749954664846882e-05 5.970357960904948413e-05 2.142632365575991571e-05 2.546184987295418978e-05
1.676000000000000000e+03 1.695265197753906250e+01 2.581000566482543945e+00 3.868654232519475045e-07 -2.184500772273167968e-05 -6.437442607420962304e-06 2.326263165741693228e-05
1.677000000000000000e+03 1.832477188110351562e+01 3.257837533950805664e+00 1.244151007995242253e-05 5.849144872627221048e-05 2.127988773281686008e-05 2.097690230584703386e-05
1.678000000000000000e+03 3.550160980224609375e+01 3.390909910202026367e+00 6.255239248275756836e-01 3.121964260935783386e-02 1.970230638980865479e-01 -1.053556442260742188e+00
1.679000000000000000e+03 7.567654418945312500e+01 -1.968527412414550781e+01 -1.267743937205523252e-04 -4.765276098623871803e-04 -1.809905952541157603e-04 -3.468634095042943954e-04
1.680000000000000000e+03 3.658119583129882812e+01 4.118479251861572266e+00 4.216739535331726074e-01 -5.598170757293701172e-01 -4.144293442368507385e-02 -1.276877641677856445e+00
1.681000000000000000e+03 1.411321640014648438e+01 3.121766805648803711e+00 4.544156763586215675e-05 4.363722109701484442e-05 2.672363552846945822e-05 5.359316128306090832e-05
1.682000000000000000e+03 1.408945083618164062e+01 2.497987031936645508e+00 2.435099486319813877e-05 -2.846521056198980659e-05 -1.234264345839619637e-06 5.498666723724454641e-05
1.683000000000000000e+03 1.554963207244873047e+01 3.126046657562255859e+00 2.811290505633223802e-05 5.345018143998458982e-05 2.446892540319822729e-05 3.955738429795019329e-05
1.684000000000000000e+03 7.454734802246093750e+01 -2.053859329223632812e+01 -5.924149882048368454e-04 -6.021672161296010017e-04 -3.583746438380330801e-04 -3.613371809478849173e-04
1.685000000000000000e+03 3.437140655517578125e+01 3.511842727661132812e+00 8.222370147705078125e-01 2.011884450912475586e+00 8.502364158630371094e-01 7.296714931726455688e-02
1.686000000000000000e+03 1.118142032623291016e+01 3.182733058929443359e+00 8.682237967150285840e-05 1.055245138559257612e-05 2.921244958997704089e-05 3.966914300690405071e-05
1.687000000000000000e+03 1.265630531311035156e+01 3.140485048294067383e+00 6.568511889781802893e-05 2.830370976880658418e-05 2.819664950948208570e-05 5.402443275670520961e-05
1.688000000000000000e+03 1.043626976013183594e+01 3.207749366760253906e+00 4.971426824340596795e-05 -6.813128129579126835e-05 -5.525103460968239233e-06 5.321214121067896485e-05
1.689000000000000000e+03 7.395455360412597656e+00 3.334128856658935547e+00 4.859735417994670570e-05 -8.819715731078758836e-05 -1.187993984785862267e-05 -1.886545987872523256e-06
1.690000000000000000e+03 1.038035869598388672e+01 -4.072082519531250000e+00 -1.044742316007614136e-01 -8.731728047132492065e-02 -5.753745138645172119e-02 -1.443609781563282013e-02
1.691000000000000000e+03 1.036695003509521484e+01 -3.327043533325195312e+00 -2.378675527870655060e-02 -5.865223705768585205e-02 -2.473169751465320587e-02 6.361174397170543671e-03
1.692000000000000000e+03 7.488056182861328125e+01 -1.286287975311279297e+01 -2.081809490919113159e-01 -2.824346907436847687e-02 -7.092732191085815430e-02 -2.029969394207000732e-01
1.693000000000000000e+03 7.420913696289062500e+01 -1.299791622161865234e+01 -2.733300924301147461e-01 3.594752866774797440e-03 -8.092059940099716187e-02 -1.964344978332519531e-01
1.694000000000000000e+03 7.619355010986328125e+01 -1.290423583984375000e+01 -1.274753659963607788e-01 -6.968916207551956177e-02 -5.914935842156410217e-02 -1.694541573524475098e-01
1.695000000000000000e+03 7.551396179199218750e+01 -1.232528686523437500e+01 -2.082535773515701294e-01 -6.590563058853149414e-02 -8.224776387214660645e-02 -2.312852293252944946e-01
1.696000000000000000e+03 1.497727584838867188e+01 -3.184193372726440430e+00 -1.602387279272079468e-01 -1.761179417371749878e-01 -1.009070053696632385e-01 -2.550372183322906494e-01
1.697000000000000000e+03 9.604387283325195312e+00 -2.601473569869995117e+00 6.448099017143249512e-02 -2.876843325793743134e-02 1.071376819163560867e-02 3.536812588572502136e-02
1.698000000000000000e+03 7.351807117462158203e+00 2.600261449813842773e+00 1.236060634255409241e-04 1.041243103827582672e-05 4.020554479211568832e-05 -4.729797001346014440e-05
1.699000000000000000e+03 6.635140419006347656e+00 3.372647762298583984e+00 1.173746059066615999e-04 -2.790660801110789180e-06 3.437518535065464675e-05 -7.179427484516054392e-05
1.700000000000000000e+03 8.921939849853515625e+00 3.265619039535522461e+00 5.897564915358088911e-05 -8.396986231673508883e-05 -7.498263585148379207e-06 2.568182208051439375e-05
1.701000000000000000e+03 8.157649993896484375e+00 3.299603223800659180e+00 1.093566897907294333e-04 -6.297164418356260285e-06 3.091785765718668699e-05 -2.933873292931821197e-05
1.702000000000000000e+03 5.124039649963378906e+00 3.485888481140136719e+00 1.206593515234999359e-04 -3.805527967415400781e-06 3.505614586174488068e-05 -1.018328766804188490e-04
1.703000000000000000e+03 4.386195182800292969e+00 3.578479051589965820e+00 1.997418621613178402e-05 -3.363096402608789504e-05 -4.097033524885773659e-06 -7.166112482082098722e-05
1.704000000000000000e+03 3.549157857894897461e+00 2.867486715316772461e+00 1.571981920278631151e-05 -1.746622183418367058e-05 -5.239209599494643044e-07 -4.015387821709737182e-05
1.705000000000000000e+03 5.192114830017089844e+00 4.248655319213867188e+00 -7.099743470462271944e-06 -7.102957897586748004e-05 -2.343879714317154139e-05 -1.672243888606317341e-05
1.706000000000000000e+03 5.875480651855468750e+00 3.422271966934204102e+00 2.880445936170872301e-05 -7.147021096898242831e-05 -1.279972548218211159e-05 -2.740434320003259927e-05
1.707000000000000000e+03 5.937390327453613281e+00 4.172760009765625000e+00 1.050385180860757828e-04 -2.400476660113781691e-06 3.079141242778860033e-05 -1.029290215228684247e-04
1.708000000000000000e+03 9.683144569396972656e+00 3.234580755233764648e+00 1.020559284370392561e-04 -3.102311438851756975e-06 2.968608532682992518e-05 1.241069185198284686e-05
1.709000000000000000e+03 6.528452396392822266e+00 -3.228536844253540039e+00 1.913866773247718811e-02 -1.058469992130994797e-02 2.566190669313073158e-03 7.636817544698715210e-02
1.710000000000000000e+03 5.167343139648437500e+00 -2.493282079696655273e+00 5.507333949208259583e-02 1.526784966699779034e-03 1.698003709316253662e-02 7.876935601234436035e-02
1.711000000000000000e+03 5.674519062042236328e+00 -3.641737937927246094e+00 -2.203106880187988281e-03 -5.389103665947914124e-03 -2.277663210406899452e-03 8.020094037055969238e-02
1.712000000000000000e+03 4.111431121826171875e+00 -3.588583946228027344e+00 6.392084527760744095e-03 1.492443494498729706e-02 6.394955795258283615e-03 8.000562340021133423e-02
1.713000000000000000e+03 3.543762922286987305e+00 -4.116236686706542969e+00 -4.175984300673007965e-03 2.600315213203430176e-02 6.548150442540645599e-03 7.736746221780776978e-02
1.714000000000000000e+03 7.182384967803955078e+00 -4.128777503967285156e+00 -4.749133065342903137e-02 -2.854106202721595764e-02 -2.280971780419349670e-02 5.904161557555198669e-02
1.715000000000000000e+03 8.048515319824218750e+00 -3.368508100509643555e+00 8.872473845258355141e-04 -2.881492488086223602e-02 -8.378303609788417816e-03 5.557539314031600952e-02
1.716000000000000000e+03 8.830452919006347656e+00 -3.372431755065917969e+00 -4.746698308736085892e-03 -3.601094707846641541e-02 -1.222729310393333435e-02 4.393799975514411926e-02
1.717000000000000000e+03 3.797198867797851562e+01 -1.529438376426696777e+00 -1.941945433616638184e+00 3.477666378021240234e-01 -4.782536327838897705e-01 7.628808021545410156e-01
1.718000000000000000e+03 1.743152999877929688e+01 -3.932575941085815430e+00 -3.140981197357177734e-01 -3.346427977085113525e-01 -1.946222782135009766e-01 -4.972151517868041992e-01
1.719000000000000000e+03 1.819225120544433594e+01 -3.045286417007446289e+00 -3.242275416851043701e-01 -2.999756038188934326e-01 -1.872609406709671021e-01 -5.217362046241760254e-01
1.720000000000000000e+03 1.185596847534179688e+01 -3.302912473678588867e+00 -5.564514175057411194e-02 -8.646164834499359131e-02 -4.263203591108322144e-02 -5.137706175446510315e-02
1.721000000000000000e+03 1.261163806915283203e+01 -3.295903205871582031e+00 -7.782707363367080688e-02 -1.168840005993843079e-01 -5.841332301497459412e-02 -9.425383061170578003e-02
1.722000000000000000e+03 3.651496124267578125e+01 -2.887457370758056641e+00 -1.973980426788330078e+00 6.192980408668518066e-01 -4.064047038555145264e-01 4.622147679328918457e-01
1.723000000000000000e+03 7.186535644531250000e+01 -1.310011005401611328e+01 -5.021351575851440430e-01 1.188573017716407776e-01 -1.149833500385284424e-01 -1.665879637002944946e-01
1.724000000000000000e+03 7.263582611083984375e+01 -1.297549343109130859e+01 -4.219932556152343750e-01 7.937595248222351074e-02 -1.027851924300193787e-01 -1.994186639785766602e-01
1.725000000000000000e+03 7.051094818115234375e+01 -1.329549980163574219e+01 -5.820206403732299805e-01 1.372139453887939453e-01 -1.334419995546340942e-01 -7.533212006092071533e-02
1.726000000000000000e+03 1.578718662261962891e+01 -3.150741815567016602e+00 -2.009587883949279785e-01 -2.107591629028320312e-01 -1.235153824090957642e-01 -3.253496289253234863e-01
1.727000000000000000e+03 3.769643020629882812e+01 3.914431810379028320e+00 1.728052496910095215e-01 -1.252607226371765137e+00 -3.239406049251556396e-01 -1.354436516761779785e+00
1.728000000000000000e+03 3.783986282348632812e+01 5.303860664367675781e+00 4.648364707827568054e-02 -1.720081329345703125e+00 -5.020793080329895020e-01 -1.089019060134887695e+00
1.729000000000000000e+03 7.344511413574218750e+01 -1.292651844024658203e+01 -3.404544293880462646e-01 2.848385274410247803e-02 -9.359117597341537476e-02 -2.180172950029373169e-01
1.730000000000000000e+03 7.374430847167968750e+01 -1.982655715942382812e+01 1.368317462038248777e-04 -4.201519186608493328e-04 -8.499605610268190503e-05 4.396221193019300699e-04
1.731000000000000000e+03 2.484882736206054688e+01 -3.057872772216796875e+00 -6.496796011924743652e-01 3.260502815246582031e-01 -9.708879888057708740e-02 -6.291977167129516602e-01
1.732000000000000000e+03 2.281192970275878906e+01 -1.350570440292358398e+00 -5.367379188537597656e-01 -3.805488944053649902e-01 -2.751860618591308594e-01 -5.960757732391357422e-01
1.733000000000000000e+03 2.135970306396484375e+01 -2.563465595245361328e+00 -4.224580526351928711e-01 -4.071227312088012695e-01 -2.488742321729660034e-01 -6.536858081817626953e-01
1.734000000000000000e+03 1.898328208923339844e+01 -2.948040962219238281e+00 -3.578515052795410156e-01 -3.378907740116119385e-01 -2.087226808071136475e-01 -5.746157169342041016e-01
1.735000000000000000e+03 2.286000251770019531e+01 -2.044295549392700195e+00 -4.537638723850250244e-01 -3.064768016338348389e-01 -2.280721962451934814e-01 -5.773598551750183105e-01
1.736000000000000000e+03 1.981149101257324219e+01 -3.617649078369140625e+00 -3.674989640712738037e-01 -4.051091969013214111e-01 -2.317824512720108032e-01 -6.319762468338012695e-01
1.737000000000000000e+03 2.056717491149902344e+01 -2.764166831970214844e+00 -4.027836322784423828e-01 -3.952013254165649414e-01 -2.393954843282699585e-01 -6.415506601333618164e-01
1.738000000000000000e+03 4.348537063598632812e+01 -5.306144237518310547e+00 -3.441087245941162109e+00 -6.182674765586853027e-01 -1.217806458473205566e+00 8.652395606040954590e-01
1.739000000000000000e+03 4.762092971801757812e+01 -7.482178688049316406e+00 -2.109457254409790039e+00 -5.958783999085426331e-02 -6.507135033607482910e-01 1.437410235404968262e+00
1.740000000000000000e+03 6.425192260742187500e+01 7.862823009490966797e+00 1.020049810409545898e+00 4.567696094512939453e+00 1.676323771476745605e+00 8.204030990600585938e-01
1.741000000000000000e+03 2.273744010925292969e+01 -8.379719734191894531e+00 -7.004143595695495605e-01 -2.276980876922607422e-01 -2.784337401390075684e-01 -5.834950804710388184e-01
1.742000000000000000e+03 2.183259963989257812e+01 -9.817380905151367188e+00 -9.332115650177001953e-01 -1.793414801359176636e-01 -3.337659239768981934e-01 -5.255705714225769043e-01
1.743000000000000000e+03 5.897479248046875000e+01 8.267809152603149414e-01 1.453554391860961914e+00 3.492298126220703125e+00 1.483755707740783691e+00 2.166550397872924805e+00
1.744000000000000000e+03 6.167378997802734375e+01 1.885347247123718262e+00 9.655554294586181641e-01 3.558550596237182617e+00 1.357231736183166504e+00 1.228611826896667480e+00
1.745000000000000000e+03 6.733829498291015625e+01 -1.341306304931640625e+01 -8.518950939178466797e-01 -1.685591042041778564e-01 -3.061362504959106445e-01 2.751309275627136230e-01
1.746000000000000000e+03 5.620708465576171875e+01 2.570788955688476562e+01 3.709565382450819016e-03 4.454144835472106934e-01 1.347372084856033325e-01 -8.059164881706237793e-01
1.747000000000000000e+03 5.373260879516601562e+01 2.499413299560546875e+01 -6.498813629150390625e-02 -8.981150574982166290e-03 -2.219078689813613892e-02 -5.819250345230102539e-01
1.748000000000000000e+03 2.041056060791015625e+01 -8.952080726623535156e+00 -8.827732205390930176e-01 -4.046889543533325195e-01 -3.862386643886566162e-01 -7.343270778656005859e-01
1.749000000000000000e+03 1.815523719787597656e+01 -3.078755950927734375e+01 6.513102650642395020e-01 5.598101615905761719e-01 3.633361160755157471e-01 -3.946855366230010986e-01
1.750000000000000000e+03 1.926510047912597656e+01 -9.146051406860351562e+00 -8.449360728263854980e-01 -5.673307180404663086e-01 -4.236800372600555420e-01 -7.043268084526062012e-01
1.751000000000000000e+03 1.039662456512451172e+01 -1.769594573974609375e+01 -1.632348299026489258e-01 -4.156174659729003906e-01 -1.736556887626647949e-01 -9.075372219085693359e-01
1.752000000000000000e+03 4.270122909545898438e+01 -2.631971931457519531e+01 3.911504149436950684e-01 3.314728975296020508e+00 1.111763834953308105e+00 7.629464268684387207e-01
1.753000000000000000e+03 4.430549621582031250e+01 -2.803227615356445312e+01 3.072879649698734283e-02 3.168178081512451172e+00 9.596720337867736816e-01 1.063583791255950928e-01
1.754000000000000000e+03 5.115258789062500000e+01 -1.208269691467285156e+01 1.272200584411621094e+00 1.302454471588134766e+00 7.723965048789978027e-01 2.490384578704833984e+00
1.755000000000000000e+03 3.845379638671875000e+01 1.088960647583007812e+01 -4.231260120868682861e-01 -1.574423670768737793e+00 -5.992649197578430176e-01 -3.257639408111572266e-01
1.756000000000000000e+03 2.157465744018554688e+01 -8.676998138427734375e+00 -8.193235993385314941e-01 -2.517158687114715576e-01 -3.213118314743041992e-01 -6.166564822196960449e-01
1.757000000000000000e+03 6.975774383544921875e+01 -9.764786720275878906e+00 -8.465168476104736328e-01 2.742299139499664307e-01 -1.716860830783843994e-01 -5.806589722633361816e-01
1.758000000000000000e+03 6.682381439208984375e+01 -1.033926963806152344e+01 -1.245967626571655273e+00 8.968976140022277832e-02 -3.468833863735198975e-01 -4.722739756107330322e-01
1.759000000000000000e+03 3.325432968139648438e+01 -2.847567939758300781e+01 8.883100152015686035e-01 9.089117050170898438e-01 5.391665101051330566e-01 7.577683329582214355e-01
1.760000000000000000e+03 3.497893905639648438e+01 -2.892989540100097656e+01 8.194501399993896484e-01 1.057952761650085449e+00 5.632208585739135742e-01 8.229992389678955078e-01
1.761000000000000000e+03 5.867465209960937500e+01 -1.156922721862792969e+01 -8.062881827354431152e-01 7.732162475585937500e-01 -9.921587072312831879e-03 6.969434618949890137e-01
1.762000000000000000e+03 5.638240051269531250e+01 -1.216895294189453125e+01 -7.823794335126876831e-02 7.067149281501770020e-01 1.885430961847305298e-01 1.217626214027404785e+00
1.763000000000000000e+03 6.509828186035156250e+01 2.004178237915039062e+01 6.057952046394348145e-01 3.551903486251831055e+00 1.247309565544128418e+00 2.639949619770050049e-01
1.764000000000000000e+03 7.838824462890625000e+01 -2.136392974853515625e+01 7.565366686321794987e-04 3.916885179933160543e-04 3.444675530772656202e-04 -4.988666623830795288e-04
1.765000000000000000e+03 7.716078948974609375e+01 -2.267985534667968750e+01 7.373260450549423695e-04 -5.668170633725821972e-04 5.115268504596315324e-05 -3.734571801032871008e-04
1.766000000000000000e+03 7.653835296630859375e+01 -2.988961601257324219e+01 -3.869159147143363953e-03 -5.998859647661447525e-03 -2.960405778139829636e-03 7.284916006028652191e-03
1.767000000000000000e+03 7.682567596435546875e+01 -3.123745918273925781e+01 -1.616118592210114002e-03 -9.336791932582855225e-03 -3.285872982814908028e-03 1.012224145233631134e-02
1.768000000000000000e+03 7.652920532226562500e+01 -2.680287170410156250e+01 -4.157320596277713776e-03 -1.585887046530842781e-03 -1.722962246276438236e-03 3.586065955460071564e-03
1.769000000000000000e+03 7.709393310546875000e+01 -2.402300834655761719e+01 -2.422470366582274437e-03 -2.450078318361192942e-04 -8.002434624359011650e-04 1.059601432643830776e-03
1.770000000000000000e+03 7.678215789794921875e+01 -2.536231994628906250e+01 -1.010489431791938841e-04 -1.382723334245383739e-03 -4.451316781342029572e-04 1.492256764322519302e-03
1.771000000000000000e+03 7.696533966064453125e+01 -3.341902542114257812e+01 5.310247070156037807e-04 -1.585567183792591095e-02 -4.597393795847892761e-03 1.132925320416688919e-02
1.772000000000000000e+03 7.646826171875000000e+01 -3.464717864990234375e+01 -1.275737420655786991e-03 -1.679678820073604584e-02 -5.421757232397794724e-03 1.253221370279788971e-02
1.773000000000000000e+03 7.645056152343750000e+01 -2.836507606506347656e+01 -1.703192014247179031e-03 -4.515476990491151810e-03 -1.865600701421499252e-03 6.361932028084993362e-03
1.774000000000000000e+03 7.707108306884765625e+01 -3.237654113769531250e+01 -2.306409645825624466e-03 -1.265009306371212006e-02 -4.486951045691967010e-03 9.265146218240261078e-03
1.775000000000000000e+03 5.416648864746093750e+01 -1.266010570526123047e+01 8.154830336570739746e-01 6.931616663932800293e-01 4.525934159755706787e-01 1.691716551780700684e+00
1.776000000000000000e+03 5.322801971435546875e+01 -1.266376590728759766e+01 1.325803875923156738e+00 7.519370317459106445e-01 6.233223080635070801e-01 2.117480993270874023e+00
1.777000000000000000e+03 2.997686576843261719e+01 -7.209179401397705078e+00 9.756464958190917969e-01 1.043538451194763184e+00 6.057555079460144043e-01 -1.388236165046691895e+00
1.778000000000000000e+03 2.858071517944335938e+01 -7.001231193542480469e+00 4.092251658439636230e-01 2.415055781602859497e-01 1.952192187309265137e-01 -1.208480715751647949e+00
1.779000000000000000e+03 2.651810073852539062e+01 -8.041794776916503906e+00 -6.728026270866394043e-02 -3.411352038383483887e-01 -1.225246414542198181e-01 -5.055388212203979492e-01
1.780000000000000000e+03 4.288562011718750000e+01 1.848128700256347656e+01 -3.618490695953369141e-01 -8.985295295715332031e-01 -3.781135976314544678e-01 -3.536603748798370361e-01
1.781000000000000000e+03 4.192577362060546875e+01 1.804748725891113281e+01 -2.241003662347793579e-01 -9.313785433769226074e-01 -3.466436862945556641e-01 -2.802660167217254639e-01
1.782000000000000000e+03 4.235223388671875000e+01 1.673120117187500000e+01 -4.107445776462554932e-01 -1.149154901504516602e+00 -4.679698646068572998e-01 -4.755231142044067383e-01
1.783000000000000000e+03 7.694626617431640625e+01 3.848124504089355469e+00 5.934183672070503235e-02 -1.875609278678894043e+00 -5.448802113533020020e-01 -3.958926200866699219e-01
1.784000000000000000e+03 7.673582458496093750e+01 1.086884498596191406e+01 1.256528049707412720e-01 -2.063797950744628906e+00 -5.814435482025146484e-01 -6.283710710704326630e-03
1.785000000000000000e+03 7.662170410156250000e+01 9.471369743347167969e+00 1.253387182950973511e-01 -1.979023098945617676e+00 -5.561053156852722168e-01 -9.267891198396682739e-02
1.786000000000000000e+03 7.654830932617187500e+01 -3.270360469818115234e+00 -1.185286091640591621e-03 -9.319812059402465820e-01 -2.799499630928039551e-01 -6.086975336074829102e-01
1.787000000000000000e+03 7.651599121093750000e+01 -1.745203733444213867e+00 9.019688703119754791e-03 -1.099759221076965332e+00 -3.272218704223632812e-01 -6.163026690483093262e-01
1.788000000000000000e+03 7.693721008300781250e+01 2.514315128326416016e+00 7.870129495859146118e-02 -1.738669157028198242e+00 -4.979903697967529297e-01 -4.574745893478393555e-01
1.789000000000000000e+03 7.673887634277343750e+01 1.770057678222656250e+01 9.436675161123275757e-02 -1.710007667541503906e+00 -4.846922755241394043e-01 4.310189783573150635e-01
1.790000000000000000e+03 7.682567596435546875e+01 1.631542587280273438e+01 1.002940163016319275e-01 -1.870256066322326660e+00 -5.309886336326599121e-01 3.442693352699279785e-01
1.791000000000000000e+03 7.638356018066406250e+01 2.189410018920898438e+01 2.521144226193428040e-02 -1.120504140853881836e+00 -3.285878300666809082e-01 5.998150110244750977e-01
1.792000000000000000e+03 7.629431915283203125e+01 2.328248023986816406e+01 3.724480979144573212e-03 -9.326010942459106445e-01 -2.786629796028137207e-01 6.268842220306396484e-01
1.793000000000000000e+03 7.581147003173828125e+01 3.027781867980957031e+01 -1.024396866559982300e-01 -1.307127177715301514e-01 -6.994572281837463379e-02 4.924068450927734375e-01
1.794000000000000000e+03 7.623778533935546875e+01 2.466482162475585938e+01 -3.354839235544204712e-02 -7.566244006156921387e-01 -2.370518445968627930e-01 6.222103238105773926e-01
1.795000000000000000e+03 7.661888122558593750e+01 1.909808921813964844e+01 7.395710796117782593e-02 -1.510310888290405273e+00 -4.309061467647552490e-01 5.023792386054992676e-01
1.796000000000000000e+03 7.686737060546875000e+01 1.494407176971435547e+01 1.082906350493431091e-01 -1.995094418525695801e+00 -5.660411715507507324e-01 2.701008021831512451e-01
1.797000000000000000e+03 7.686235809326171875e+01 1.358652782440185547e+01 1.147999837994575500e-01 -2.064738273620605469e+00 -5.849815011024475098e-01 1.727472245693206787e-01
1.798000000000000000e+03 7.681821441650390625e+01 1.223367691040039062e+01 1.155117005109786987e-01 -2.084865570068359375e+00 -5.908061265945434570e-01 9.762647002935409546e-02
1.799000000000000000e+03 7.649623107910156250e+01 8.001091003417968750e+00 1.395793408155441284e-01 -1.879332542419433594e+00 -5.219259262084960938e-01 -2.012648880481719971e-01
1.800000000000000000e+03 7.661936950683593750e+01 6.545594215393066406e+00 1.194373667240142822e-01 -1.870358705520629883e+00 -5.252764225006103516e-01 -2.810734510421752930e-01
1.801000000000000000e+03 7.686365509033203125e+01 1.152846693992614746e+00 4.844456538558006287e-02 -1.554322481155395508e+00 -4.517633616924285889e-01 -5.171782970428466797e-01
1.802000000000000000e+03 7.672270202636718750e+01 -2.524675130844116211e-01 5.333473533391952515e-02 -1.343921065330505371e+00 -3.871759176254272461e-01 -5.660396814346313477e-01
1.803000000000000000e+03 7.700965881347656250e+01 -6.034697055816650391e+00 -4.806023091077804565e-02 -6.818283796310424805e-01 -2.189665883779525757e-01 -4.939095079898834229e-01
1.804000000000000000e+03 7.692747497558593750e+01 -1.166361236572265625e+01 -1.110640913248062134e-01 -1.495817005634307861e-01 -7.819373905658721924e-02 -2.218465656042098999e-01
1.805000000000000000e+03 7.717625427246093750e+01 -9.647898674011230469e+00 -9.116608649492263794e-02 -3.090893030166625977e-01 -1.200766116380691528e-01 -3.197313249111175537e-01
1.806000000000000000e+03 7.719237518310546875e+01 -8.513368606567382812e+00 -7.155866920948028564e-02 -4.149305820465087891e-01 -1.459467709064483643e-01 -3.725472986698150635e-01
1.807000000000000000e+03 7.708071136474609375e+01 -1.068855285644531250e+01 -9.440764784812927246e-02 -2.147677093744277954e-01 -9.275261312723159790e-02 -2.605126202106475830e-01
1.808000000000000000e+03 7.618482971191406250e+01 3.436833190917968750e+01 -8.998990058898925781e-02 8.641313016414642334e-02 -1.073032617568969727e-03 2.915032804012298584e-01
1.809000000000000000e+03 7.468708038330078125e+01 2.592446327209472656e+01 -8.623394370079040527e-02 -1.746724396944046021e-01 -7.827191054821014404e-02 7.522721290588378906e-01
1.810000000000000000e+03 7.617915344238281250e+01 2.605838775634765625e+01 -4.035648331046104431e-02 -5.744172930717468262e-01 -1.844321340322494507e-01 6.122820973396301270e-01
1.811000000000000000e+03 7.713517761230468750e+01 -7.303353309631347656e+00 -7.180701196193695068e-02 -5.432192087173461914e-01 -1.845078617334365845e-01 -4.385982155799865723e-01
1.812000000000000000e+03 4.381880187988281250e+01 1.910432052612304688e+01 -3.773210644721984863e-01 -8.419056534767150879e-01 -3.657680153846740723e-01 -3.710269629955291748e-01
1.813000000000000000e+03 3.669474411010742188e+01 -2.669130325317382812e+01 8.078024387359619141e-01 1.249304413795471191e+00 6.171320676803588867e-01 1.048788905143737793e+00
1.814000000000000000e+03 3.543754196166992188e+01 -2.710650253295898438e+01 8.337399363517761230e-01 1.011929631233215332e+00 5.537008643150329590e-01 9.147229194641113281e-01
1.815000000000000000e+03 6.846237945556640625e+01 -2.577374649047851562e+01 -1.517582684755325317e-02 -4.309074429329484701e-04 -4.682020284235477448e-03 1.350226812064647675e-03
1.816000000000000000e+03 6.031166458129882812e+01 -1.224553203582763672e+01 -1.296720027923583984e+00 4.365957975387573242e-01 -2.580372691154479980e-01 6.849294900894165039e-02
1.817000000000000000e+03 3.245048522949218750e+01 -3.212375640869140625e+01 7.112908363342285156e-01 9.737676382064819336e-01 5.055175423622131348e-01 4.678975343704223633e-01
1.818000000000000000e+03 3.138353347778320312e+00 3.033515739440917969e+01 1.161317806690931320e-03 -1.344523951411247253e-02 -3.685176605358719826e-03 5.053347907960414886e-03
1.819000000000000000e+03 3.250026941299438477e+00 3.165561103820800781e+01 8.455982897430658340e-04 -1.385625358670949936e-02 -3.903196658939123154e-03 4.028150346130132675e-03
1.820000000000000000e+03 3.002628803253173828e+00 2.352745628356933594e+01 -1.093549071811139584e-03 -5.710330326110124588e-03 -2.041163854300975800e-03 5.419425666332244873e-03
1.821000000000000000e+03 3.050917625427246094e+00 2.492426109313964844e+01 7.196002115961164236e-05 -7.411879952996969223e-03 -2.201976021751761436e-03 6.010525394231081009e-03
1.822000000000000000e+03 3.017645120620727539e+00 2.630651283264160156e+01 -3.061752940993756056e-04 -9.398289956152439117e-03 -2.911339513957500458e-03 5.912502761930227280e-03
1.823000000000000000e+03 2.935477972030639648e+00 2.765619277954101562e+01 7.734652608633041382e-04 -1.126910280436277390e-02 -3.148691263049840927e-03 5.692276638001203537e-03
1.824000000000000000e+03 2.934955358505249023e+00 2.898619270324707031e+01 2.775277534965425730e-04 -1.285468321293592453e-02 -3.773146774619817734e-03 5.220224615186452866e-03
1.825000000000000000e+03 3.580258369445800781e+00 -2.722834968566894531e+01 8.113612234592437744e-02 -1.358023643493652344e+00 -3.830662369728088379e-01 -2.333482950925827026e-01
1.826000000000000000e+03 3.454480171203613281e+00 -2.581573104858398438e+01 7.416523993015289307e-02 -1.298928022384643555e+00 -3.674288392066955566e-01 -2.804138958454132080e-01
1.827000000000000000e+03 4.097860336303710938e+00 -3.014980316162109375e+01 8.365123718976974487e-02 -1.388573050498962402e+00 -3.914765715599060059e-01 -1.463510841131210327e-01
1.828000000000000000e+03 2.937507390975952148e+00 2.214562988281250000e+01 -5.486456793732941151e-04 -4.238905850797891617e-03 -1.436265418305993080e-03 4.723881836980581284e-03
1.829000000000000000e+03 2.916794538497924805e+00 -5.774752616882324219e+00 -3.364907205104827881e-02 4.650604352355003357e-02 3.857091534882783890e-03 5.473654717206954956e-02
1.830000000000000000e+03 3.100262403488159180e+00 -1.207787227630615234e+01 -9.213403612375259399e-02 -1.143076643347740173e-01 -6.193251162767410278e-02 -2.079826444387435913e-01
1.831000000000000000e+03 1.842833995819091797e+00 -1.767497825622558594e+01 -8.222567848861217499e-03 -6.151294112205505371e-01 -1.870055943727493286e-01 -2.747126221656799316e-01
1.832000000000000000e+03 3.119784593582153320e+00 -1.487760162353515625e+01 -7.527006417512893677e-02 -3.168464004993438721e-01 -1.176349371671676636e-01 -3.475330471992492676e-01
1.833000000000000000e+03 3.064545631408691406e+00 -1.762590408325195312e+01 -2.586103044450283051e-02 -5.850508213043212891e-01 -1.832735538482666016e-01 -4.219854176044464111e-01
1.834000000000000000e+03 3.037683486938476562e+00 1.665972900390625000e+01 -4.286812618374824524e-04 -6.622623768635094166e-04 -3.272831090725958347e-04 1.416794257238507271e-03
1.835000000000000000e+03 2.935969352722167969e+00 1.806479263305664062e+01 -1.403032452799379826e-03 -1.216919394209980965e-03 -7.859855541028082371e-04 2.052012132480740547e-03
1.836000000000000000e+03 3.170546054840087891e+00 1.362683868408203125e+01 -1.012599241221323609e-04 -1.705798349576070905e-04 -8.155192335834726691e-05 3.309407620690762997e-04
1.837000000000000000e+03 3.183839559555053711e+00 6.057835578918457031e+00 -2.884895548049826175e-05 9.692271305539179593e-06 -5.747005161538254470e-06 -2.797844354063272476e-05
1.838000000000000000e+03 3.047465801239013672e+00 8.226711273193359375e+00 2.410040469840168953e-04 1.025362289510667324e-04 1.030620842357166111e-04 -6.514183769468218088e-05
1.839000000000000000e+03 3.284548044204711914e+00 -2.302661132812500000e+01 6.156843155622482300e-02 -1.118965983390808105e+00 -3.172192573547363281e-01 -3.708912730216979980e-01
1.840000000000000000e+03 3.202342987060546875e+00 -2.166376876831054688e+01 4.879622906446456909e-02 -1.002611756324768066e+00 -2.861446440219879150e-01 -4.021529853343963623e-01
1.841000000000000000e+03 3.121543884277343750e+00 -2.032257270812988281e+01 2.605067007243633270e-02 -8.735820055007934570e-01 -2.542594075202941895e-01 -4.245581924915313721e-01
1.842000000000000000e+03 3.071167230606079102e+00 -1.897878837585449219e+01 4.641598090529441833e-03 -7.321324944496154785e-01 -2.182472646236419678e-01 -4.276519715785980225e-01
1.843000000000000000e+03 2.863362073898315430e+00 -8.108031272888183594e+00 -6.025741249322891235e-02 3.715393692255020142e-02 -6.931043229997158051e-03 -1.113365124911069870e-02
1.844000000000000000e+03 3.146969318389892578e+00 -4.860892295837402344e+00 -1.622805558145046234e-02 3.931337222456932068e-02 6.925594527274370193e-03 6.829638779163360596e-02
1.845000000000000000e+03 2.841786861419677734e+00 1.081551170349121094e+01 1.725779875414445996e-04 3.299694435554556549e-05 6.167247920529916883e-05 -6.168428808450698853e-05
1.846000000000000000e+03 2.957399845123291016e+00 1.216352844238281250e+01 -4.850406548939645290e-04 1.395202161802444607e-05 -1.413265854353085160e-04 1.584783749422058463e-04
1.847000000000000000e+03 3.202780246734619141e+00 1.517082977294921875e+01 -1.038920599967241287e-03 -3.216924960725009441e-04 -4.081839288119226694e-04 7.969108992256224155e-04
1.848000000000000000e+03 2.924626111984252930e+00 -9.385354995727539062e+00 -7.021569460630416870e-02 6.643177941441535950e-03 -1.907175406813621521e-02 -6.308231502771377563e-02
1.849000000000000000e+03 2.360183000564575195e+00 4.305185317993164062e+00 -5.168630741536617279e-05 -2.845036215148866177e-05 -2.404100087005645037e-05 -8.529387559974566102e-05
1.850000000000000000e+03 3.083441495895385742e+00 4.815456867218017578e+00 1.658185065025463700e-04 1.041636933223344386e-04 8.099465776467695832e-05 -2.101720456266775727e-04
1.851000000000000000e+03 2.888557672500610352e+00 1.943127632141113281e+01 -6.369387847371399403e-04 -1.999832456931471825e-03 -7.910314016044139862e-04 2.933789510279893875e-03
1.852000000000000000e+03 2.842351436614990234e+00 9.520827293395996094e+00 -3.052219108212739229e-04 5.692146805813536048e-05 -7.449013355653733015e-05 -9.010446228785440326e-05
1.853000000000000000e+03 3.372099304199218750e+01 -7.963739871978759766e+00 8.109061121940612793e-01 1.257514834403991699e+00 6.205262541770935059e-01 -8.007493615150451660e-01
1.854000000000000000e+03 3.271895980834960938e+01 -7.204864025115966797e+00 4.718426167964935303e-01 1.284963011741638184e+00 5.270416736602783203e-01 -7.927252650260925293e-01
1.855000000000000000e+03 3.786785507202148438e+01 -1.639496231079101562e+01 8.941103816032409668e-01 7.392994761466979980e-01 4.900229573249816895e-01 -7.737182378768920898e-01
1.856000000000000000e+03 7.830091857910156250e+01 -2.025349807739257812e+01 -8.098216494545340538e-04 9.074953268282115459e-04 2.930209302576258779e-05 -7.042565266601741314e-04
1.857000000000000000e+03 5.223685073852539062e+01 -1.238581943511962891e+01 1.186443924903869629e+00 1.116412281990051270e+00 6.908568739891052246e-01 2.493241071701049805e+00
1.858000000000000000e+03 5.304380416870117188e+01 -1.372887039184570312e+01 1.833918809890747070e+00 4.821059405803680420e-01 6.948074102401733398e-01 1.512698411941528320e+00
1.859000000000000000e+03 3.950531387329101562e+01 1.249781703948974609e+01 -3.740023374557495117e-01 -1.964166760444641113e+00 -7.014507651329040527e-01 -5.093291997909545898e-01
1.860000000000000000e+03 3.901978683471679688e+01 1.162009429931640625e+01 -3.822085559368133545e-01 -1.926603198051452637e+00 -6.926435232162475586e-01 -3.699808716773986816e-01
1.861000000000000000e+03 3.791198730468750000e+01 -1.779752349853515625e+01 7.075819969177246094e-01 8.199684023857116699e-01 4.582651257514953613e-01 -3.023823499679565430e-01
1.862000000000000000e+03 2.040753555297851562e+01 -3.024630928039550781e+01 9.571693539619445801e-01 6.386089920997619629e-01 4.787335097789764404e-01 -5.137205123901367188e-01
1.863000000000000000e+03 5.677788543701171875e+01 -4.197104454040527344e+00 4.573056399822235107e-01 2.571635007858276367e+00 9.086821675300598145e-01 1.446674108505249023e+00
1.864000000000000000e+03 3.697292709350585938e+01 -1.018002510070800781e+01 1.099835276603698730e+00 7.543948292732238770e-01 5.562690496444702148e-01 -1.185564875602722168e+00
1.865000000000000000e+03 6.752880096435546875e+01 -1.412893867492675781e+01 -6.609374880790710449e-01 -2.168308794498443604e-01 -2.633305191993713379e-01 2.772102057933807373e-01
1.866000000000000000e+03 6.253313827514648438e+01 2.770828723907470703e+00 1.053455948829650879e+00 3.693598508834838867e+00 1.424116373062133789e+00 1.072915077209472656e+00
1.867000000000000000e+03 6.153496551513671875e+01 3.769641399383544922e+00 1.121225595474243164e+00 4.464660167694091797e+00 1.675765752792358398e+00 1.454093933105468750e+00
1.868000000000000000e+03 6.542575073242187500e+01 1.723721122741699219e+01 9.921028017997741699e-01 4.030333995819091797e+00 1.506731033325195312e+00 1.501937508583068848e-01
1.869000000000000000e+03 1.312704658508300781e+01 -1.774509620666503906e+01 -1.573036909103393555e-01 -4.283391535282135010e-01 -1.756928563117980957e-01 -7.738426923751831055e-01
1.870000000000000000e+03 1.223190402984619141e+01 -1.959638023376464844e+01 2.578399181365966797e-01 -3.280097842216491699e-01 -2.105095610022544861e-02 -8.281306624412536621e-01
1.871000000000000000e+03 3.921842193603515625e+01 1.453751564025878906e+01 -1.539658010005950928e-01 -1.092603206634521484e+00 -3.739707171916961670e-01 -1.083211526274681091e-01
1.872000000000000000e+03 5.834283447265625000e+01 -2.109061002731323242e+00 1.104725003242492676e+00 2.717462062835693359e+00 1.146656155586242676e+00 1.583946228027343750e+00
1.873000000000000000e+03 2.956561660766601562e+01 -3.102229690551757812e+01 9.705645442008972168e-01 6.319377422332763672e-01 4.807506799697875977e-01 3.718764483928680420e-01
1.874000000000000000e+03 3.754478073120117188e+01 -1.379506587982177734e+01 1.245425105094909668e+00 5.304790735244750977e-01 5.327712297439575195e-01 -1.427403450012207031e+00
1.875000000000000000e+03 7.194062805175781250e+01 -2.158038330078125000e+01 3.190127317793667316e-04 -2.020179381361231208e-04 3.509843736537732184e-05 -3.481528838165104389e-04
1.876000000000000000e+03 5.915459442138671875e+01 -1.050915956497192383e+00 1.205451369285583496e+00 2.920427083969116211e+00 1.237763524055480957e+00 1.624084234237670898e+00
1.877000000000000000e+03 6.103491210937500000e+01 -3.406362152099609375e+01 -2.315009385347366333e-02 4.630105569958686829e-03 -5.555996205657720566e-03 7.477743178606033325e-02
1.878000000000000000e+03 6.282898330688476562e+01 -3.302822113037109375e+01 -4.386409372091293335e-02 1.080411951988935471e-02 -9.917992167174816132e-03 5.021489411592483521e-02
1.879000000000000000e+03 6.455447387695312500e+01 -2.901776695251464844e+01 -6.658810377120971680e-02 7.608681917190551758e-03 -1.769382692873477936e-02 5.603584460914134979e-03
1.880000000000000000e+03 3.811961364746093750e+01 -2.173823928833007812e+01 6.667476892471313477e-01 1.189555883407592773e+00 5.568910837173461914e-01 9.777657985687255859e-01
1.881000000000000000e+03 3.676736450195312500e+01 -2.054250907897949219e+01 2.330536693334579468e-01 2.332823574542999268e-01 1.399008035659790039e-01 4.986297786235809326e-01
1.882000000000000000e+03 4.430772018432617188e+01 -1.948380661010742188e+01 2.180763006210327148e+00 5.849789142608642578e+00 2.409165620803833008e+00 1.826714158058166504e+00
1.883000000000000000e+03 2.050970315933227539e+00 3.207302093505859375e+00 4.604245987138710916e-05 7.143541097320849076e-06 1.595580033608712256e-05 -5.824636900797486305e-05
1.884000000000000000e+03 4.884985733032226562e+01 -7.644838333129882812e+00 -1.752761363983154297e+00 2.020778059959411621e-01 -4.652050733566284180e-01 2.040181875228881836e+00
1.885000000000000000e+03 3.760294723510742188e+01 -1.266091537475585938e+01 1.178589582443237305e+00 6.715423464775085449e-01 5.550395846366882324e-01 -1.501026272773742676e+00
1.886000000000000000e+03 1.331108188629150391e+01 -1.246760463714599609e+01 -9.924961328506469727e-01 -5.979681015014648438e-01 -4.771392643451690674e-01 -5.022944808006286621e-01
1.887000000000000000e+03 1.505889129638671875e+01 -1.216178894042968750e+01 -1.215460777282714844e+00 -9.442347288131713867e-01 -6.479086279869079590e-01 -6.381353139877319336e-01
1.888000000000000000e+03 5.006378936767578125e+01 -7.945284366607666016e+00 -1.418497562408447266e+00 6.191050410270690918e-01 -2.398177683353424072e-01 2.495409727096557617e+00
1.889000000000000000e+03 5.169428253173828125e+01 -7.228656768798828125e+00 -1.662714004516601562e+00 1.369965910911560059e+00 -8.782441914081573486e-02 2.614563941955566406e+00
1.890000000000000000e+03 6.331052780151367188e+01 1.041375446319580078e+01 7.030962109565734863e-01 6.234548568725585938e+00 2.081293344497680664e+00 9.897954463958740234e-01
1.891000000000000000e+03 2.067938232421875000e+01 -3.279395675659179688e+01 6.390632390975952148e-01 6.351062655448913574e-01 3.822508752346038818e-01 -3.462273180484771729e-01
1.892000000000000000e+03 1.345687007904052734e+01 -2.039120292663574219e+01 3.691559433937072754e-01 2.484534382820129395e-01 1.852828115224838257e-01 -6.209681630134582520e-01
1.893000000000000000e+03 4.639356613159179688e+01 -3.275030136108398438e+01 -2.514050602912902832e-01 1.661031246185302734e+00 4.228878617286682129e-01 -2.307611107826232910e-01
1.894000000000000000e+03 4.822274398803710938e+01 -3.189166450500488281e+01 -1.689511388540267944e-01 1.276744246482849121e+00 3.323379158973693848e-01 -4.686264693737030029e-01
1.895000000000000000e+03 1.699466133117675781e+01 -1.031608867645263672e+01 -1.071021437644958496e+00 -8.767000436782836914e-01 -5.843164324760437012e-01 -6.123502254486083984e-01
1.896000000000000000e+03 4.605698394775390625e+01 -1.363622188568115234e+01 2.301710367202758789e+00 3.333099126815795898e+00 1.690442919731140137e+00 1.239206552505493164e+00
1.897000000000000000e+03 5.496602630615234375e+01 -7.322582244873046875e+00 -7.613639235496520996e-01 2.195402860641479492e+00 4.302116632461547852e-01 1.974422216415405273e+00
1.898000000000000000e+03 4.315684127807617188e+01 -2.188925933837890625e+01 1.005684614181518555e+00 4.964611053466796875e+00 1.791088700294494629e+00 1.099291920661926270e+00
1.899000000000000000e+03 3.696771240234375000e+01 -2.322608757019042969e+01 7.135834097862243652e-01 8.082317113876342773e-01 4.565445482730865479e-01 1.052211403846740723e+00
1.900000000000000000e+03 4.095269775390625000e+01 -6.107049465179443359e+00 -2.056756734848022461e+00 6.815252453088760376e-02 -5.965812802314758301e-01 -1.409948319196701050e-01
1.901000000000000000e+03 4.123104858398437500e+01 -4.864237308502197266e+00 -3.041770696640014648e+00 -1.731257587671279907e-01 -9.644689559936523438e-01 2.744630873203277588e-01
1.902000000000000000e+03 1.584438228607177734e+01 -1.004675292968750000e+01 -9.948782324790954590e-01 -8.951056003570556641e-01 -5.669951438903808594e-01 -5.288804173469543457e-01
1.903000000000000000e+03 6.081719207763671875e+01 -1.070444202423095703e+01 -1.136796593666076660e+00 6.151740550994873047e-01 -1.564867645502090454e-01 5.688037872314453125e-01
1.904000000000000000e+03 4.318292236328125000e+01 -6.519232273101806641e+00 -2.499482870101928711e+00 -4.630575701594352722e-02 -7.637366056442260742e-01 1.667098999023437500e-01
1.905000000000000000e+03 4.283441543579101562e+01 -7.583654880523681641e+00 -1.584198117256164551e+00 1.224094405770301819e-01 -4.385365843772888184e-01 -1.341576427221298218e-01
1.906000000000000000e+03 3.101635742187500000e+01 -3.054415321350097656e+01 8.648467659950256348e-01 7.757326364517211914e-01 4.921738207340240479e-01 4.953078627586364746e-01
1.907000000000000000e+03 3.339367675781250000e+01 -3.067905235290527344e+01 7.279521226882934570e-01 1.030810356140136719e+00 5.276287794113159180e-01 6.245921254158020020e-01
1.908000000000000000e+03 5.872790145874023438e+01 -3.464706802368164062e+01 1.090134494006633759e-02 2.894853428006172180e-02 1.195496413856744766e-02 4.947682470083236694e-02
1.909000000000000000e+03 3.831351852416992188e+01 -2.300741958618164062e+01 7.451753020286560059e-01 1.449820041656494141e+00 6.584985852241516113e-01 1.155780673027038574e+00
1.910000000000000000e+03 4.581974411010742188e+01 -2.975644683837890625e+01 -1.727158576250076294e-01 2.286695718765258789e+00 6.341939568519592285e-01 -1.927107125520706177e-01
1.911000000000000000e+03 6.330098342895507812e+01 -1.018022441864013672e+01 -1.204373598098754883e+00 -1.327778100967407227e-01 -4.011454284191131592e-01 1.822514384984970093e-01
1.912000000000000000e+03 1.570830249786376953e+01 -2.691766738891601562e+01 6.705540418624877930e-01 5.463480353355407715e-01 3.650706112384796143e-01 -5.638259053230285645e-01
1.913000000000000000e+03 6.789089202880859375e+01 -1.479670333862304688e+01 -3.236903846263885498e-01 -5.413100123405456543e-02 -1.133464202284812927e-01 2.192013263702392578e-01
1.914000000000000000e+03 6.752745056152343750e+01 -1.479136466979980469e+01 -2.996410131454467773e-01 -2.681898474693298340e-01 -1.703492552042007446e-01 2.423294782638549805e-01
1.915000000000000000e+03 3.359038162231445312e+01 -1.426049709320068359e+00 -2.334499597549438477e+00 1.549917012453079224e-01 -6.538524031639099121e-01 -8.574655652046203613e-02
1.916000000000000000e+03 3.382761383056640625e+01 -1.951927661895751953e+00 -2.104620218276977539e+00 2.642653882503509521e-01 -5.521064400672912598e-01 -2.879129908978939056e-02
1.917000000000000000e+03 3.063529205322265625e+01 -1.722578287124633789e+00 -2.048413276672363281e+00 5.270331725478172302e-02 -5.987129807472229004e-01 -5.715219378471374512e-01
1.918000000000000000e+03 2.742028236389160156e+01 -2.248676776885986328e+00 -1.011782765388488770e+00 2.968448698520660400e-01 -2.144813537597656250e-01 -1.176341891288757324e+00
1.919000000000000000e+03 2.765842819213867188e+01 -2.335525512695312500e+00 -1.029661059379577637e+00 2.257443666458129883e-01 -2.411749958992004395e-01 -1.163200974464416504e+00
1.920000000000000000e+03 2.763588714599609375e+01 -1.994769930839538574e+00 -1.099139928817749023e+00 1.725511699914932251e-01 -2.779766321182250977e-01 -1.087524533271789551e+00
1.921000000000000000e+03 2.807697296142578125e+01 -2.199393987655639648e+00 -1.155583143234252930e+00 1.086649596691131592e-01 -3.140754699707031250e-01 -1.054305553436279297e+00
1.922000000000000000e+03 2.936999320983886719e+01 -2.161123037338256836e+00 -1.539900064468383789e+00 7.269992679357528687e-02 -4.401600658893585205e-01 -8.483712673187255859e-01
1.923000000000000000e+03 3.049276161193847656e+01 -2.061095237731933594e+00 -1.832869529724121094e+00 1.065926700830459595e-01 -5.178830623626708984e-01 -6.486272215843200684e-01
1.924000000000000000e+03 3.359312820434570312e+01 -2.235746383666992188e+00 -1.983023047447204590e+00 2.990302443504333496e-01 -5.051978826522827148e-01 -6.857513636350631714e-02
1.925000000000000000e+03 3.215873718261718750e+01 -1.796924471855163574e+00 -2.154309511184692383e+00 1.521032899618148804e-01 -6.006618738174438477e-01 -3.315835893154144287e-01
1.926000000000000000e+03 3.284232711791992188e+01 -1.492399215698242188e+00 -2.326034545898437500e+00 1.444084197282791138e-01 -6.544878482818603516e-01 -2.241812795400619507e-01
1.927000000000000000e+03 3.137958335876464844e+01 -2.207579851150512695e+00 -1.881829619407653809e+00 1.675996929407119751e-01 -5.142689943313598633e-01 -5.119584798812866211e-01
1.928000000000000000e+03 2.082127571105957031e+01 5.152491569519042969e+00 5.842102837050333619e-06 5.334437082638032734e-05 1.775594319042284042e-05 8.805783181742299348e-06
1.929000000000000000e+03 2.038028335571289062e+01 5.563735961914062500e+00 -5.323933146428316832e-05 -5.735259037464857101e-06 -1.769237678672652692e-05 -3.907459540641866624e-05
1.930000000000000000e+03 3.380645751953125000e+01 3.025434494018554688e+00 1.132267713546752930e+00 3.272990226745605469e+00 1.321577429771423340e+00 9.540725350379943848e-01
1.931000000000000000e+03 3.451538848876953125e+01 -2.687339544296264648e+00 -1.834264516830444336e+00 4.534314870834350586e-01 -4.142498970031738281e-01 1.185182929039001465e-01
1.932000000000000000e+03 3.704053497314453125e+01 5.869258403778076172e+00 1.656206846237182617e-01 -7.593255639076232910e-01 -1.781114637851715088e-01 -1.009626030921936035e+00
1.933000000000000000e+03 1.928269767761230469e+01 2.293566131591796875e+01 -9.062908589839935303e-03 -2.971813548356294632e-03 -3.610416781157255173e-03 -1.766554266214370728e-02
1.934000000000000000e+03 1.876559066772460938e+01 2.249713897705078125e+01 -2.624772116541862488e-02 -4.634933080524206161e-03 -9.264796040952205658e-03 -1.348380837589502335e-02
1.935000000000000000e+03 2.399971008300781250e+01 2.340393829345703125e+01 1.306463479995727539e-01 7.595690339803695679e-02 6.198097765445709229e-02 -1.211315169930458069e-01
1.936000000000000000e+03 1.724053573608398438e+01 8.587487220764160156e+00 9.362823038827627897e-05 1.516065822215750813e-04 7.357044523814693093e-05 2.865531087081762962e-06
1.937000000000000000e+03 1.815697669982910156e+01 6.677130222320556641e+00 5.002510806662030518e-05 9.638861229177564383e-05 4.392411574372090399e-05 3.490617746138013899e-05
1.938000000000000000e+03 2.663132476806640625e+01 2.242372512817382812e+01 2.920469939708709717e-01 2.222809791564941406e-01 1.542983800172805786e-01 -2.728037238121032715e-01
1.939000000000000000e+03 2.068069648742675781e+01 2.270505714416503906e+01 1.391766942106187344e-03 -1.657032524235546589e-03 -7.957966590765863657e-05 -2.048760093748569489e-02
1.940000000000000000e+03 1.353154468536376953e+01 1.596611881256103516e+01 -3.616827598307281733e-04 -1.009707455523312092e-03 -4.114170733373612165e-04 -1.315052737481892109e-03
1.941000000000000000e+03 1.408717155456542969e+01 1.582883548736572266e+01 -5.545278545469045639e-04 -4.381042381282895803e-04 -2.977896074298769236e-04 -5.910574691370129585e-04
1.942000000000000000e+03 2.120308113098144531e+01 4.393945693969726562e+00 -4.517211345955729485e-05 -1.990199052670504898e-05 -1.952223101397976279e-05 -2.570410288171842694e-05
1.943000000000000000e+03 1.333427715301513672e+01 1.741016197204589844e+01 -3.101441543549299240e-03 -2.230073558166623116e-03 -1.599454553797841072e-03 -3.535052994266152382e-03
1.944000000000000000e+03 3.350124740600585938e+01 1.130970859527587891e+01 1.158223524689674377e-01 3.578739166259765625e+00 1.108368396759033203e+00 -4.976453185081481934e-01
1.945000000000000000e+03 1.576246070861816406e+01 9.971621513366699219e+00 7.072537846397608519e-05 3.799799305852502584e-04 1.352115941699594259e-04 1.861958298832178116e-05
1.946000000000000000e+03 3.180314064025878906e+01 1.637993621826171875e+01 2.403235286474227905e-01 2.372126340866088867e+00 7.837349772453308105e-01 -6.703269481658935547e-01
1.947000000000000000e+03 3.270122909545898438e+01 1.547920036315917969e+01 1.434949189424514771e-01 2.400984764099121094e+00 7.633439302444458008e-01 -4.293400943279266357e-01
1.948000000000000000e+03 1.715150451660156250e+01 8.008384704589843750e+00 5.629243969451636076e-05 1.403574715368449688e-04 5.899497409700416028e-05 3.010733598785009235e-05
1.949000000000000000e+03 1.751510047912597656e+01 8.287429809570312500e+00 -6.476802809629589319e-05 6.428163760574534535e-05 -1.459156919736415148e-07 -9.065666381502524018e-05
1.950000000000000000e+03 1.426330661773681641e+01 1.739765548706054688e+01 -9.937322465702891350e-04 -2.863162197172641754e-03 -1.157068298198282719e-03 -1.771673792973160744e-03
1.951000000000000000e+03 1.398091983795166016e+01 1.537895774841308594e+01 2.261132758576422930e-04 -2.672272676136344671e-04 -1.233419698110083118e-05 -5.577295087277889252e-04
1.952000000000000000e+03 3.277942657470703125e+01 1.393850708007812500e+01 1.860415935516357422e-01 2.935317993164062500e+00 9.364079236984252930e-01 -5.252811312675476074e-01
1.953000000000000000e+03 3.284732818603515625e+01 1.305990886688232422e+01 2.151724994182586670e-01 3.339159011840820312e+00 1.066299438476562500e+00 -5.899969935417175293e-01
1.954000000000000000e+03 3.291262054443359375e+01 1.227287101745605469e+01 2.225137948989868164e-01 3.630688190460205078e+00 1.155960559844970703e+00 -6.602296829223632812e-01
1.955000000000000000e+03 1.467455291748046875e+01 1.119895362854003906e+01 2.606678208394441754e-05 4.756634007208049297e-04 1.505190593888983130e-04 1.486503024352714419e-04
1.956000000000000000e+03 1.616331863403320312e+01 9.289420127868652344e+00 6.724677950842306018e-05 2.872148761525750160e-04 1.063384988810867071e-04 1.558839176141191274e-05
1.957000000000000000e+03 2.262627792358398438e+01 2.339374542236328125e+01 8.086158335208892822e-02 3.334530442953109741e-02 3.426206856966018677e-02 -7.207472622394561768e-02
1.958000000000000000e+03 1.427947235107421875e+01 1.153333282470703125e+01 -1.115518680308014154e-04 1.999481028178706765e-04 2.651887007232289761e-05 -4.484671080717816949e-05
1.959000000000000000e+03 1.328133964538574219e+01 1.697653007507324219e+01 -1.572336070239543915e-03 -1.773984520696103573e-03 -1.003896119073033333e-03 -2.749249106273055077e-03
1.960000000000000000e+03 1.378319358825683594e+01 1.701395416259765625e+01 -1.331305829808115959e-03 -2.305301371961832047e-03 -1.090982113964855671e-03 -2.103702165186405182e-03
1.961000000000000000e+03 1.742428970336914062e+01 2.224064064025878906e+01 -3.269349411129951477e-02 -8.099344559013843536e-03 -1.223785243928432465e-02 -1.184479705989360809e-02
1.962000000000000000e+03 2.094536590576171875e+01 4.644838809967041016e+00 4.357914076535962522e-05 2.624941225803922862e-05 2.094856608891859651e-05 1.683344999037217349e-05
1.963000000000000000e+03 2.096279716491699219e+01 3.867699384689331055e+00 -2.122927980963140726e-05 -1.197211167891509831e-05 -9.960417628462892026e-06 -7.674173502891790122e-06
1.964000000000000000e+03 3.229239273071289062e+01 1.519210720062255859e+01 1.622128039598464966e-01 2.615955114364624023e+00 8.334503769874572754e-01 -5.966306328773498535e-01
1.965000000000000000e+03 3.356547927856445312e+01 1.006897163391113281e+01 1.553387492895126343e-01 3.907305955886840820e+00 1.218793392181396484e+00 -5.610197782516479492e-01
1.966000000000000000e+03 1.972168350219726562e+01 2.305969810485839844e+01 3.585866579669527709e-05 -4.570046439766883850e-04 -1.263437879970297217e-04 -2.077096141874790192e-02
1.967000000000000000e+03 3.335752868652343750e+01 1.046509075164794922e+01 1.060811504721641541e-01 4.014031410217285156e+00 1.236033678054809570e+00 -6.172943115234375000e-01
1.968000000000000000e+03 1.405813980102539062e+01 1.237538623809814453e+01 1.068209803634090349e-05 2.816984779201447964e-04 8.771417196840047836e-05 -6.055456469766795635e-05
1.969000000000000000e+03 3.408678054809570312e+01 9.163685798645019531e+00 1.309054046869277954e-01 3.505769252777099609e+00 1.091002345085144043e+00 -4.246825575828552246e-01
1.970000000000000000e+03 3.264058303833007812e+01 1.484111499786376953e+01 1.588898748159408569e-01 2.637912988662719727e+00 8.390408754348754883e-01 -4.903377294540405273e-01
1.971000000000000000e+03 3.162331008911132812e+01 1.674943161010742188e+01 2.811086177825927734e-01 2.291190862655639648e+00 7.716898322105407715e-01 -6.752231121063232422e-01
1.972000000000000000e+03 3.107566642761230469e+01 1.823586082458496094e+01 3.887215852737426758e-01 1.916556835174560547e+00 6.915835738182067871e-01 -6.697839498519897461e-01
1.973000000000000000e+03 3.132894515991210938e+01 1.747186660766601562e+01 3.516895473003387451e-01 2.136142253875732422e+00 7.463495731353759766e-01 -6.808910369873046875e-01
1.974000000000000000e+03 1.956700134277343750e+01 6.263499259948730469e+00 3.593939982238225639e-05 5.160577711649239063e-05 2.626355308166239411e-05 2.490823862899560481e-05
1.975000000000000000e+03 1.989971351623535156e+01 3.954581260681152344e+00 3.082711191382259130e-05 3.393575752852484584e-05 1.942886046890635043e-05 7.308999101951485500e-06
1.976000000000000000e+03 2.699144935607910156e+01 2.334915351867675781e+01 1.916771084070205688e-01 3.427889943122863770e-01 1.603398323059082031e-01 -2.929217517375946045e-01
1.977000000000000000e+03 3.280930709838867188e+01 1.348539352416992188e+01 1.796320527791976929e-01 3.167880296707153320e+00 1.004253625869750977e+00 -5.651080012321472168e-01
1.978000000000000000e+03 1.418325138092041016e+01 2.033312988281250000e+01 -2.071267180144786835e-02 -1.915829605422914028e-03 -6.788550410419702530e-03 -7.191888056695461273e-03
1.979000000000000000e+03 1.371069335937500000e+01 1.890707015991210938e+01 -9.639097377657890320e-03 -3.092864761129021645e-03 -3.819588571786880493e-03 -7.492648903280496597e-03
1.980000000000000000e+03 1.513372707366943359e+01 9.546584129333496094e+00 2.683119782886933535e-05 3.087170480284839869e-04 1.006644670269452035e-04 6.769762694602832198e-05
1.981000000000000000e+03 3.394393157958984375e+01 7.953259944915771484e+00 2.085626870393753052e-01 3.977235794067382812e+00 1.255739569664001465e+00 -5.487287640571594238e-01
1.982000000000000000e+03 2.440504074096679688e+01 2.288582420349121094e+01 1.551858037710189819e-01 6.872700899839401245e-02 6.717384606599807739e-02 -1.190833821892738342e-01
1.983000000000000000e+03 2.562131500244140625e+01 2.221609687805175781e+01 2.502068579196929932e-01 9.303925186395645142e-02 1.029738336801528931e-01 -1.590428650379180908e-01
1.984000000000000000e+03 2.112267494201660156e+01 2.276162338256835938e+01 1.475505158305168152e-02 6.419963319785892963e-04 4.619114566594362259e-03 -2.551311440765857697e-02
1.985000000000000000e+03 2.017193031311035156e+01 2.317030906677246094e+01 1.008275803178548813e-02 8.464152924716472626e-04 3.278752090409398079e-03 -2.571229822933673859e-02
1.986000000000000000e+03 1.926474761962890625e+01 5.862313270568847656e+00 -2.466774822096340358e-05 -2.693445640034042299e-05 -1.548066211398690939e-05 -2.119979399139992893e-05
1.987000000000000000e+03 1.698299980163574219e+01 8.892657279968261719e+00 -7.043554796837270260e-05 1.028741462505422533e-04 9.731578757055103779e-06 -1.021298521663993597e-04
1.988000000000000000e+03 1.674172401428222656e+01 9.209579467773437500e+00 9.885195322567597032e-05 2.335818135179579258e-04 9.973013220587745309e-05 -1.215655083797173575e-05
1.989000000000000000e+03 1.369061088562011719e+01 1.433657360076904297e+01 -3.601428179536014795e-04 -4.321579035604372621e-05 -1.210075861308723688e-04 -4.283162124920636415e-04
1.990000000000000000e+03 1.439253616333007812e+01 1.275138187408447266e+01 2.312497381353750825e-04 4.678509430959820747e-04 2.097302058245986700e-04 5.983042137813754380e-05
1.991000000000000000e+03 1.481023502349853516e+01 2.149850273132324219e+01 -2.394856140017509460e-02 -5.598885472863912582e-04 -7.352535147219896317e-03 -4.103598650544881821e-03
1.992000000000000000e+03 1.847667312622070312e+01 6.351799488067626953e+00 -4.389555033412761986e-05 -3.782492512982571498e-06 -1.430341308150673285e-05 -4.879301195614971220e-05
1.993000000000000000e+03 3.521420288085937500e+01 7.109065532684326172e+00 6.250766664743423462e-02 1.950425148010253906e+00 6.038798689842224121e-01 -5.728546977043151855e-01
1.994000000000000000e+03 3.438634490966796875e+01 7.510200500488281250e+00 1.448855102062225342e-01 3.269476175308227539e+00 1.024308443069458008e+00 -5.803800225257873535e-01
1.995000000000000000e+03 3.090250778198242188e+01 2.032493400573730469e+01 3.192136883735656738e-01 1.284003496170043945e+00 4.809651672840118408e-01 -3.633289337158203125e-01
1.996000000000000000e+03 3.007364845275878906e+01 2.039876365661621094e+01 4.773386418819427490e-01 1.244207143783569336e+00 5.164637565612792969e-01 -5.331352949142456055e-01
1.997000000000000000e+03 3.480633163452148438e+01 4.919459819793701172e+00 3.127757608890533447e-01 2.186622858047485352e+00 7.498195767402648926e-01 -4.410152733325958252e-01
1.998000000000000000e+03 3.470893096923828125e+01 5.657984733581542969e+00 3.160771131515502930e-01 2.598348140716552734e+00 8.743276000022888184e-01 -4.196049869060516357e-01
1.999000000000000000e+03 1.886941337585449219e+01 2.288353347778320312e+01 -1.362216379493474960e-02 -2.259581116959452629e-03 -4.764523357152938843e-03 -1.613942161202430725e-02
2.000000000000000000e+03 1.598273944854736328e+01 2.136027336120605469e+01 -3.664783015847206116e-02 -8.304104208946228027e-03 -1.348558068275451660e-02 -1.135424897074699402e-02
2.001000000000000000e+03 2.204685592651367188e+01 2.276939773559570312e+01 4.476558789610862732e-02 1.113361492753028870e-02 1.676976121962070465e-02 -3.852001950144767761e-02
2.002000000000000000e+03 1.465482997894287109e+01 2.095684432983398438e+01 -2.572494372725486755e-02 -1.487353467382490635e-03 -8.163688704371452332e-03 -6.864904426038265228e-03
2.003000000000000000e+03 1.483380126953125000e+01 2.067328643798828125e+01 -2.492658607661724091e-02 -5.765217356383800507e-03 -9.207541123032569885e-03 -9.032560512423515320e-03
2.004000000000000000e+03 3.498413467407226562e+01 3.151523828506469727e+00 8.071808815002441406e-01 5.158124566078186035e-01 3.968980014324188232e-01 -7.093613743782043457e-01
2.005000000000000000e+03 1.401342773437500000e+01 1.491383552551269531e+01 -4.641300474759191275e-04 -6.410345122276339680e-06 -1.411621196893975139e-04 -4.038683255203068256e-04
2.006000000000000000e+03 1.343242359161376953e+01 1.469220733642578125e+01 9.657400369178503752e-06 -3.425811300985515118e-04 -9.987712110159918666e-05 -3.961148031521588564e-04
2.007000000000000000e+03 2.821399307250976562e+01 2.154391479492187500e+01 4.356086552143096924e-01 5.783726572990417480e-01 3.041943907737731934e-01 -4.690600931644439697e-01
2.008000000000000000e+03 2.157681655883789062e+01 2.278831481933593750e+01 2.930895984172821045e-02 3.834986593574285507e-03 9.943184442818164825e-03 -3.238869830965995789e-02
2.009000000000000000e+03 2.925459480285644531e+01 2.070593833923339844e+01 6.156252622604370117e-01 1.007164001464843750e+00 4.868367910385131836e-01 -5.982920527458190918e-01
2.010000000000000000e+03 2.600163078308105469e+01 -2.908373117446899414e+00 -8.331403136253356934e-01 5.846088528633117676e-01 -7.455942779779434204e-02 -9.829387068748474121e-01
2.011000000000000000e+03 1.750583648681640625e+01 2.291231346130371094e+01 -1.505016069859266281e-02 -3.671847051009535789e-03 -5.616602487862110138e-03 -1.010181009769439697e-02
2.012000000000000000e+03 1.642764663696289062e+01 2.238383674621582031e+01 -2.282137237489223480e-02 -5.129246506839990616e-03 -8.385186083614826202e-03 -5.519252270460128784e-03
2.013000000000000000e+03 1.518995475769042969e+01 2.164734649658203125e+01 -2.588775195181369781e-02 -2.354269381612539291e-03 -8.472606539726257324e-03 -4.404134582728147507e-03
2.014000000000000000e+03 1.941936492919921875e+01 5.198482990264892578e+00 -1.360401074634864926e-05 -3.976465086452662945e-05 -1.601059921085834503e-05 3.760843355848919600e-06
2.015000000000000000e+03 2.047503471374511719e+01 4.586551189422607422e+00 8.298234752146527171e-05 -8.887679541658144444e-06 2.222839975729584694e-05 -1.254622566193575040e-05
2.016000000000000000e+03 2.272996520996093750e+01 2.291037178039550781e+01 7.485365867614746094e-02 2.345820888876914978e-02 2.949356101453304291e-02 -5.813854560256004333e-02
2.017000000000000000e+03 2.210368919372558594e+01 2.335194015502929688e+01 6.250806897878646851e-02 2.127754501998424530e-02 2.513568289577960968e-02 -5.840586125850677490e-02
2.018000000000000000e+03 2.900097656250000000e+01 2.108012199401855469e+01 5.143366456031799316e-01 8.759478330612182617e-01 4.170853495597839355e-01 -5.199190974235534668e-01
2.019000000000000000e+03 3.049555015563964844e+01 2.059528923034667969e+01 3.429295122623443604e-01 1.223160028457641602e+00 4.698268771171569824e-01 -3.843683898448944092e-01
2.020000000000000000e+03 2.980841445922851562e+01 2.065444564819335938e+01 4.846978187561035156e-01 1.145746350288391113e+00 4.891332387924194336e-01 -5.105637907981872559e-01
2.021000000000000000e+03 1.525643157958984375e+01 2.290904426574707031e+01 -1.500068325549364090e-02 1.777247525751590729e-03 -3.967030439525842667e-03 1.084861811250448227e-03
2.022000000000000000e+03 2.937312507629394531e+01 2.193809318542480469e+01 2.240802049636840820e-01 8.962199091911315918e-01 3.360900282859802246e-01 -3.677550554275512695e-01
2.023000000000000000e+03 2.396392822265625000e+01 2.242085647583007812e+01 1.297845095396041870e-01 3.190701827406883240e-02 4.850745573639869690e-02 -7.209998369216918945e-02
2.024000000000000000e+03 2.357487869262695312e+01 2.343846702575683594e+01 1.162277311086654663e-01 6.015145778656005859e-02 5.291375517845153809e-02 -1.054042801260948181e-01
2.025000000000000000e+03 2.478079414367675781e+01 2.232944297790527344e+01 1.828905493021011353e-01 5.388466641306877136e-02 7.103256136178970337e-02 -1.073781177401542664e-01
2.026000000000000000e+03 2.623486137390136719e+01 2.273754310607910156e+01 2.447471469640731812e-01 1.951382756233215332e-01 1.319656223058700562e-01 -2.392609417438507080e-01
2.027000000000000000e+03 2.525599861145019531e+01 2.284362030029296875e+01 1.967627555131912231e-01 1.117685958743095398e-01 9.255940467119216919e-02 -1.673663407564163208e-01
2.028000000000000000e+03 1.311559581756591797e+01 1.980936813354492188e+01 -1.461688149720430374e-02 2.525242744013667107e-03 -3.627491649240255356e-03 -5.201426800340414047e-03
2.029000000000000000e+03 1.660226821899414062e+01 8.612496376037597656e+00 7.631445623701438308e-05 2.087350294459611177e-04 8.551484643248841166e-05 8.628235264040995389e-06
2.030000000000000000e+03 1.637319755554199219e+01 8.944261550903320312e+00 -9.525239147478714585e-05 1.243823207914829254e-04 8.738978067412972450e-06 -7.938405178720131516e-05
2.031000000000000000e+03 7.635717773437500000e+01 -2.101404571533203125e+01 2.829119039233773947e-04 5.694337305612862110e-04 2.557036932557821274e-04 -1.178087899461388588e-03
2.032000000000000000e+03 7.508467102050781250e+01 -1.971723937988281250e+01 4.075150936841964722e-04 -4.748213978018611670e-04 -2.019189560087397695e-05 -3.498594742268323898e-04
2.033000000000000000e+03 3.641702270507812500e+01 -2.368393182754516602e+00 -2.002314805984497070e+00 5.090488791465759277e-01 -4.479798078536987305e-01 4.752501249313354492e-01
2.034000000000000000e+03 2.041394615173339844e+01 3.400268077850341797e+00 4.835667937186372001e-07 -8.937964594224467874e-06 -2.536319243517937139e-06 -1.553790752950590104e-05
2.035000000000000000e+03 7.841466522216796875e+01 -1.284080219268798828e+01 -3.334240987896919250e-02 -7.485207915306091309e-02 -3.245834633708000183e-02 -8.058371394872665405e-02
2.036000000000000000e+03 1.825488281250000000e+01 3.762300252914428711e+00 -1.974665974557865411e-05 -2.729254629230126739e-05 -1.411176162946503609e-05 1.380056164634879678e-05
2.037000000000000000e+03 1.974623680114746094e+01 3.428685188293457031e+00 -5.596751179837156087e-06 2.330548522877506912e-05 5.312620487529784441e-06 1.426519247615942731e-05
2.038000000000000000e+03 1.761100387573242188e+01 3.688815116882324219e+00 5.537805463973199949e-06 6.737597141182050109e-05 2.187413156207185239e-05 1.669461198616772890e-05
2.039000000000000000e+03 1.557884120941162109e+01 3.726786375045776367e+00 -1.894145498226862401e-05 8.377147423743735999e-06 -3.169292540405876935e-06 5.405769479693844914e-05
2.040000000000000000e+03 1.627919769287109375e+01 3.716166734695434570e+00 1.547301690152380615e-05 5.688059172825887799e-05 2.170608240703586489e-05 2.853805926861241460e-05
2.041000000000000000e+03 3.858985137939453125e+01 -1.544078946113586426e+00 -1.851794481277465820e+00 2.821452021598815918e-01 -4.708947837352752686e-01 8.357617259025573730e-01
2.042000000000000000e+03 1.989035987854003906e+01 5.110731601715087891e+00 -2.989329186675604433e-05 3.499806553008966148e-05 1.531431962575879879e-06 -1.821192017814610153e-05
2.043000000000000000e+03 3.874001312255859375e+01 -2.144740581512451172e+00 -2.411008358001708984e+00 3.716813921928405762e-01 -6.117980480194091797e-01 9.514276981353759766e-01
2.044000000000000000e+03 1.274413681030273438e+01 4.396355628967285156e+00 4.482277290662750602e-05 1.784920095815323293e-05 1.880159106804057956e-05 7.176335930125787854e-05
2.045000000000000000e+03 1.196466064453125000e+01 3.805742025375366211e+00 6.663169187959283590e-05 9.770244105311576277e-06 2.292057979502715170e-05 5.692297054338268936e-05
2.046000000000000000e+03 3.718135452270507812e+01 4.637315273284912109e+00 2.606227397918701172e-01 -1.009602069854736328e+00 -2.246937900781631470e-01 -1.247400879859924316e+00
2.047000000000000000e+03 1.486505031585693359e+01 3.730709791183471680e+00 3.019720315933227539e-05 4.902728323941119015e-05 2.376734482822939754e-05 5.390553269535303116e-05
2.048000000000000000e+03 1.048497962951660156e+01 3.880235433578491211e+00 8.855255873640999198e-05 -1.314491055381949991e-05 2.262229463667608798e-05 3.599285264499485493e-05
2.049000000000000000e+03 1.269511795043945312e+01 3.774847745895385742e+00 1.120440265367506072e-05 -3.393241786397993565e-05 -6.818404472141992301e-06 8.037885709200054407e-05
2.050000000000000000e+03 3.766931915283203125e+01 -2.080132961273193359e+00 -2.139909267425537109e+00 5.000762343406677246e-01 -4.919498860836029053e-01 7.257027029991149902e-01
2.051000000000000000e+03 3.680388450622558594e+00 3.735467195510864258e+00 3.752017073566094041e-05 6.124714127508923411e-05 2.963019323942717165e-05 -1.345676864730194211e-04
2.052000000000000000e+03 1.110878276824951172e+01 -4.068618774414062500e+00 -1.164335608482360840e-01 -1.042356789112091064e-01 -6.620077043771743774e-02 -3.713808953762054443e-02
2.053000000000000000e+03 1.182854843139648438e+01 -4.071800708770751953e+00 -1.341391950845718384e-01 -1.263213306665420532e-01 -7.813815772533416748e-02 -7.587861269712448120e-02
2.054000000000000000e+03 7.592623138427734375e+01 -1.148906803131103516e+01 -1.633556187152862549e-01 -1.166618838906288147e-01 -8.400525152683258057e-02 -2.721309363842010498e-01
2.055000000000000000e+03 7.433382415771484375e+01 -1.238422584533691406e+01 -2.966683506965637207e-01 -1.558047253638505936e-02 -9.367465227842330933e-02 -2.664691805839538574e-01
2.056000000000000000e+03 9.603904724121093750e+00 -3.353162288665771484e+00 -1.764070056378841400e-02 -4.865764454007148743e-02 -1.988950371742248535e-02 2.355203405022621155e-02
2.057000000000000000e+03 1.438150024414062500e+01 -4.694697380065917969e+00 -2.612251937389373779e-01 -2.781497538089752197e-01 -1.618124842643737793e-01 -2.598476409912109375e-01
2.058000000000000000e+03 8.973454475402832031e+00 3.966090679168701172e+00 9.421420691069215536e-05 -2.469013998052105308e-05 2.085722007905133069e-05 -1.010575033433269709e-06
2.059000000000000000e+03 1.338730907440185547e+01 -3.287080049514770508e+00 -9.823777526617050171e-02 -1.327200084924697876e-01 -6.928733736276626587e-02 -1.399095505475997925e-01
2.060000000000000000e+03 1.336690425872802734e+01 -4.069721698760986328e+00 -1.845549792051315308e-01 -1.973245292901992798e-01 -1.145638525485992432e-01 -1.712474972009658813e-01
2.061000000000000000e+03 6.692267894744873047e+00 4.114277839660644531e+00 2.066779597953427583e-05 -1.071841907105408609e-04 -2.595491969259455800e-05 -1.740035258990246803e-05
2.062000000000000000e+03 6.747405052185058594e+00 4.847625255584716797e+00 1.204028012580238283e-04 -3.254555122111923993e-05 2.635717464727349579e-05 -6.261362432269379497e-05
2.063000000000000000e+03 7.446801185607910156e+00 4.069893360137939453e+00 1.076515618478879333e-04 -2.226939795946236700e-05 2.561464862083084881e-05 -5.217155194259248674e-05
2.064000000000000000e+03 4.492634773254394531e+00 4.316902160644531250e+00 1.542288955533877015e-04 -3.979832035838626325e-05 3.432917219470255077e-05 -1.236665120813995600e-04
2.065000000000000000e+03 7.096189975738525391e+00 -4.983901977539062500e+00 -9.569784998893737793e-02 -4.050072282552719116e-02 -4.085957258939743042e-02 4.502259567379951477e-02
2.066000000000000000e+03 8.020009994506835938e+00 -4.172233104705810547e+00 -5.926004424691200256e-02 -4.211415350437164307e-02 -3.041225858032703400e-02 4.858213663101196289e-02
2.067000000000000000e+03 5.880173683166503906e+00 -3.091315984725952148e+00 2.827262692153453827e-02 -6.228532176464796066e-03 6.613228004425764084e-03 7.928619533777236938e-02
2.068000000000000000e+03 6.345824241638183594e+00 -3.987193346023559570e+00 -2.034373208880424500e-02 -1.598349399864673615e-02 -1.089816819876432419e-02 7.167723029851913452e-02
2.069000000000000000e+03 5.325382232666015625e+00 -3.107591867446899414e+00 2.774007618427276611e-02 -1.804106868803501129e-03 7.780790794640779495e-03 8.043342828750610352e-02
2.070000000000000000e+03 2.793898344039916992e+00 -3.616941928863525391e+00 6.926313973963260651e-03 3.318341076374053955e-02 1.203291770070791245e-02 7.101576775312423706e-02
2.071000000000000000e+03 1.826960182189941406e+01 -3.817053794860839844e+00 -3.322579562664031982e-01 -3.668427467346191406e-01 -2.097302228212356567e-01 -5.578898787498474121e-01
2.072000000000000000e+03 9.734171867370605469e+00 3.918698310852050781e+00 3.453683166299015284e-05 -8.872862235875800252e-05 -1.625753793632611632e-05 4.426391751621849835e-05
2.073000000000000000e+03 2.356224822998046875e+01 -2.572462320327758789e+00 -4.637626111507415771e-01 -5.870759859681129456e-02 -1.567410677671432495e-01 -5.032460093498229980e-01
2.074000000000000000e+03 2.516344642639160156e+01 -3.589029550552368164e+00 -6.851130723953247070e-01 3.658849298954010010e-01 -9.576843678951263428e-02 -8.029209375381469727e-01
2.075000000000000000e+03 1.659281539916992188e+01 -3.148313045501708984e+00 -2.425828874111175537e-01 -2.348455041646957397e-01 -1.432285159826278687e-01 -3.927043378353118896e-01
2.076000000000000000e+03 1.257563114166259766e+01 -4.046221733093261719e+00 -1.515616625547409058e-01 -1.513216197490692139e-01 -9.086497873067855835e-02 -1.085391119122505188e-01
2.077000000000000000e+03 1.419204711914062500e+01 -4.005433559417724609e+00 -2.015606164932250977e-01 -2.127092331647872925e-01 -1.242809519171714783e-01 -2.230690568685531616e-01
2.078000000000000000e+03 7.175193786621093750e+01 -1.241369819641113281e+01 -5.481759905815124512e-01 1.431570500135421753e-01 -1.215056851506233215e-01 -2.306988239288330078e-01
2.079000000000000000e+03 7.239721679687500000e+01 -1.226299667358398438e+01 -4.606268405914306641e-01 1.005773544311523438e-01 -1.080148518085479736e-01 -2.709585428237915039e-01
2.080000000000000000e+03 7.476003265380859375e+01 -1.184340858459472656e+01 -2.522396743297576904e-01 -4.357281699776649475e-02 -8.874374628067016602e-02 -2.859823405742645264e-01
2.081000000000000000e+03 1.500205802917480469e+01 -3.855800151824951172e+00 -2.152708321809768677e-01 -2.382727116346359253e-01 -1.360630542039871216e-01 -2.921128869056701660e-01
2.082000000000000000e+03 1.578843116760253906e+01 -3.818206548690795898e+00 -2.422234117984771729e-01 -2.558552920818328857e-01 -1.494236141443252563e-01 -3.500867784023284912e-01
2.083000000000000000e+03 7.114712524414062500e+01 -1.318047142028808594e+01 -5.634492635726928711e-01 1.448089033365249634e-01 -1.255921125411987305e-01 -9.064337611198425293e-02
2.084000000000000000e+03 2.726229095458984375e+01 -5.095626831054687500e+00 -3.302370309829711914e-01 1.724653393030166626e-01 -4.733150452375411987e-02 -1.260038971900939941e+00
2.085000000000000000e+03 3.562050247192382812e+01 4.191929340362548828e+00 6.134626269340515137e-01 3.897786736488342285e-01 3.009724020957946777e-01 -8.678715229034423828e-01
2.086000000000000000e+03 3.521377182006835938e+01 3.831557512283325195e+00 7.994982600212097168e-01 7.881442904472351074e-01 4.762927591800689697e-01 -6.822450160980224609e-01
2.087000000000000000e+03 7.357797241210937500e+01 -1.218457508087158203e+01 -3.467950224876403809e-01 3.299352526664733887e-02 -9.414045512676239014e-02 -2.625622451305389404e-01
2.088000000000000000e+03 1.905389976501464844e+01 -3.704115629196166992e+00 -3.575463294982910156e-01 -3.819605112075805664e-01 -2.218520492315292358e-01 -6.064212918281555176e-01
2.089000000000000000e+03 6.828321075439453125e+01 -1.283428955078125000e+01 -9.980510473251342773e-01 1.045469567179679871e-01 -2.680512368679046631e-01 4.330910742282867432e-02
2.090000000000000000e+03 7.293894195556640625e+01 -1.181111240386962891e+01 -4.455987811088562012e-01 6.177449971437454224e-02 -1.151472851634025574e-01 -3.260600268840789795e-01
2.091000000000000000e+03 6.967501068115234375e+01 -1.227002525329589844e+01 -8.555746674537658691e-01 2.493675649166107178e-01 -1.818621307611465454e-01 -1.307023316621780396e-01
2.092000000000000000e+03 7.230642700195312500e+01 -1.976264381408691406e+01 1.678973552770912647e-03 -9.145246585831046104e-04 2.293346624355763197e-04 4.890701966360211372e-04
2.093000000000000000e+03 7.303068542480468750e+01 -1.984370422363281250e+01 -9.618576150387525558e-04 -3.231954469811171293e-04 -3.855159156955778599e-04 -6.111645488999783993e-04
2.094000000000000000e+03 3.813692092895507812e+01 9.581494331359863281e+00 -5.636376142501831055e-01 -1.823388695716857910e+00 -7.161079049110412598e-01 -3.890099227428436279e-01
2.095000000000000000e+03 2.212295913696289062e+01 -2.277955532073974609e+00 -4.329606890678405762e-01 -3.852656781673431396e-01 -2.454679012298583984e-01 -6.143391132354736328e-01
2.096000000000000000e+03 1.344395446777343750e+01 -1.010812950134277344e+01 -7.864873409271240234e-01 -5.679659247398376465e-01 -4.063359797000885010e-01 -3.279978334903717041e-01
2.097000000000000000e+03 3.005317497253417969e+01 -6.201453685760498047e+00 1.548434793949127197e-01 9.507950544357299805e-01 3.316915631294250488e-01 -1.291874051094055176e+00
2.098000000000000000e+03 3.074540328979492188e+01 -7.763311386108398438e+00 1.362895131111145020e+00 1.456030607223510742e+00 8.456776738166809082e-01 -1.280356526374816895e+00
2.099000000000000000e+03 3.284285736083984375e+01 -7.956119537353515625e+00 9.255675077438354492e-01 1.522908329963684082e+00 7.345427274703979492e-01 -8.734431266784667969e-01
2.100000000000000000e+03 3.207841491699218750e+01 -7.619734287261962891e+00 8.334559798240661621e-01 1.600888729095458984e+00 7.303034067153930664e-01 -1.075503587722778320e+00
2.101000000000000000e+03 6.998433685302734375e+01 -2.026255416870117188e+01 1.727336668409407139e-03 1.221831305883824825e-03 8.847503922879695892e-04 7.166804425651207566e-05
2.102000000000000000e+03 2.909261894226074219e+01 -6.047569274902343750e+00 4.772049933671951294e-02 5.256775021553039551e-01 1.720193922519683838e-01 -1.371680736541748047e+00
2.103000000000000000e+03 3.059119415283203125e+01 -6.664373397827148438e+00 3.578221499919891357e-01 1.193882942199707031e+00 4.655115008354187012e-01 -1.155251383781433105e+00
2.104000000000000000e+03 2.055638313293457031e+01 -3.606429815292358398e+00 -3.817079961299896240e-01 -4.077808558940887451e-01 -2.368466556072235107e-01 -6.583082079887390137e-01
2.105000000000000000e+03 2.363617515563964844e+01 -3.258745431900024414e+00 -4.968361556529998779e-01 -4.062905907630920410e-02 -1.612395644187927246e-01 -6.066094636917114258e-01
2.106000000000000000e+03 2.043949127197265625e+01 -4.423987865447998047e+00 -3.818862140178680420e-01 -4.247338473796844482e-01 -2.419860213994979858e-01 -6.573453545570373535e-01
2.107000000000000000e+03 1.977146148681640625e+01 -2.851118087768554688e+00 -3.874516189098358154e-01 -3.696897327899932861e-01 -2.271424084901809692e-01 -6.222428679466247559e-01
2.108000000000000000e+03 4.118135833740234375e+01 -2.229644775390625000e+01 1.038605332374572754e+00 3.079144001007080078e+00 1.235324740409851074e+00 1.123699069023132324e+00
2.109000000000000000e+03 3.889000701904296875e+01 -1.916049575805664062e+01 8.769447207450866699e-01 1.420905351638793945e+00 6.893550157546997070e-01 3.100496530532836914e-01
2.110000000000000000e+03 3.877482986450195312e+01 -3.175872564315795898e+00 -2.411428451538085938e+00 4.591202735900878906e-01 -5.856924057006835938e-01 6.475726962089538574e-01
2.111000000000000000e+03 3.811966705322265625e+01 1.406093788146972656e+01 -8.105731755495071411e-02 -5.541072487831115723e-01 -1.905493587255477905e-01 1.093106269836425781e-01
2.112000000000000000e+03 2.131116867065429688e+01 -7.559109687805175781e+00 -6.431839466094970703e-01 -3.666310608386993408e-01 -3.029445111751556396e-01 -6.914662718772888184e-01
2.113000000000000000e+03 1.155729198455810547e+01 -1.415763092041015625e+01 -7.763366699218750000e-01 -4.157887399196624756e-01 -3.576376140117645264e-01 -6.962161064147949219e-01
2.114000000000000000e+03 4.090707015991210938e+01 1.778647422790527344e+01 -1.345675736665725708e-01 -8.716576099395751953e-01 -3.018675446510314941e-01 -1.087043359875679016e-01
2.115000000000000000e+03 2.497601127624511719e+01 -7.728261947631835938e+00 -3.689975738525390625e-01 -2.524178326129913330e-01 -1.864246129989624023e-01 -5.604979395866394043e-01
2.116000000000000000e+03 2.363589477539062500e+01 -7.084978103637695312e+00 -4.836630225181579590e-01 -2.415850162506103516e-01 -2.175744175910949707e-01 -6.382478475570678711e-01
2.117000000000000000e+03 6.523290252685546875e+01 -8.521096229553222656e+00 -7.305821180343627930e-01 1.966188699007034302e-01 -1.601889878511428833e-01 -3.996030092239379883e-01
2.118000000000000000e+03 6.165970611572265625e+01 -1.023990917205810547e+01 -1.211878061294555664e+00 3.237400054931640625e-01 -2.664414048194885254e-01 4.076153635978698730e-01
2.119000000000000000e+03 4.122668266296386719e+00 -9.379911422729492188e+00 -1.306995451450347900e-01 -4.186317324638366699e-02 -5.176881700754165649e-02 -9.379071742296218872e-02
2.120000000000000000e+03 4.333690261840820312e+01 -1.776025009155273438e+01 2.986904382705688477e+00 4.451476573944091797e+00 2.231514215469360352e+00 1.066948652267456055e+00
2.121000000000000000e+03 4.329184722900390625e+01 -1.937504577636718750e+01 1.993800640106201172e+00 4.969890117645263672e+00 2.089107275009155273e+00 1.356197953224182129e+00
2.122000000000000000e+03 3.782816696166992188e+01 1.042066955566406250e+01 -4.203304052352905273e-01 -1.212030172348022461e+00 -4.897081553936004639e-01 -2.414619922637939453e-01
2.123000000000000000e+03 3.715283584594726562e+01 9.556539535522460938e+00 -3.882909119129180908e-01 -4.371777772903442383e-01 -2.476406097412109375e-01 -2.451449930667877197e-01
2.124000000000000000e+03 1.688119888305664062e+01 -2.672088241577148438e+01 8.008359670639038086e-01 7.099631428718566895e-01 4.532397389411926270e-01 -6.750776171684265137e-01
2.125000000000000000e+03 5.049502944946289062e+01 2.427050399780273438e+01 -2.287504076957702637e-01 -3.280343711376190186e-01 -1.670354306697845459e-01 -3.732520937919616699e-01
2.126000000000000000e+03 6.242760848999023438e+01 -1.107758426666259766e+01 -1.663631558418273926e+00 1.039409637451171875e-01 -4.679071903228759766e-01 3.793013691902160645e-01
2.127000000000000000e+03 5.085190963745117188e+01 -9.443116188049316406e+00 -4.390047490596771240e-01 1.175680279731750488e+00 2.210026681423187256e-01 2.789214134216308594e+00
2.128000000000000000e+03 5.045917510986328125e+01 -1.055007076263427734e+01 2.196865230798721313e-01 1.313318967819213867e+00 4.599016308784484863e-01 2.637953281402587891e+00
2.129000000000000000e+03 7.217100524902343750e+01 -2.061883735656738281e+01 -2.109022112563252449e-03 -5.905190482735633850e-04 -8.098623948171734810e-04 9.519058949081227183e-05
2.130000000000000000e+03 7.517378997802734375e+01 -3.712923765182495117e+00 -3.352992981672286987e-02 -6.212947964668273926e-01 -1.964474171400070190e-01 -7.465642094612121582e-01
2.131000000000000000e+03 6.841660308837890625e+01 -1.163419723510742188e+01 -1.370710372924804688e+00 3.411383330821990967e-01 -3.088715970516204834e-01 -2.351004630327224731e-01
2.132000000000000000e+03 7.465532684326171875e+01 2.317124557495117188e+01 1.427156035788357258e-03 -3.791116476058959961e-01 -1.133053451776504517e-01 7.646800875663757324e-01
2.133000000000000000e+03 3.827667617797851562e+01 1.211529159545898438e+01 -2.623694837093353271e-01 -1.085485339164733887e+00 -4.043564498424530029e-01 -1.414941400289535522e-01
2.134000000000000000e+03 7.392016601562500000e+01 -8.888728618621826172e-01 8.784260600805282593e-02 -4.659523367881774902e-01 -1.134329214692115784e-01 -7.981712222099304199e-01
2.135000000000000000e+03 5.700357913970947266e+00 -2.979585456848144531e+01 1.429894417524337769e-01 -1.101194620132446289e+00 -2.874615490436553955e-01 -2.035640180110931396e-01
2.136000000000000000e+03 5.623980522155761719e+00 -1.988471221923828125e+01 6.185384467244148254e-02 -6.867100000381469727e-01 -1.874568462371826172e-01 -6.602641940116882324e-01
2.137000000000000000e+03 4.375533580780029297e+00 -2.016098022460937500e+01 5.081956461071968079e-02 -7.848141193389892578e-01 -2.201983630657196045e-01 -5.466909408569335938e-01
2.138000000000000000e+03 5.227273941040039062e+00 4.993923187255859375e+00 7.927153637865558267e-05 4.275342507753521204e-05 3.660748916445299983e-05 -1.635760418139398098e-04
2.139000000000000000e+03 3.965055942535400391e+00 8.690598487854003906e+00 -2.320547791896387935e-04 -1.239099074155092239e-04 -1.067894045263528824e-04 -7.604094571433961391e-05
2.140000000000000000e+03 7.060584259033203125e+01 -2.429676055908203125e+01 -7.948914542794227600e-03 -5.950013292022049427e-04 -2.563174581155180931e-03 2.155611291527748108e-03
2.141000000000000000e+03 7.051010894775390625e+01 -2.179974365234375000e+01 4.211917694192379713e-04 3.447796625550836325e-04 2.297914325026795268e-04 -6.852753576822578907e-04
2.142000000000000000e+03 7.432250213623046875e+01 1.348969936370849609e+01 3.108544647693634033e-01 -7.496176958084106445e-01 -1.316289603710174561e-01 2.510339915752410889e-01
2.143000000000000000e+03 2.464820861816406250e+01 -6.882853507995605469e+00 -3.925074934959411621e-01 -1.897260099649429321e-01 -1.746700555086135864e-01 -6.968827843666076660e-01
2.144000000000000000e+03 2.892325162887573242e+00 2.078480339050292969e+01 -1.519389566965401173e-03 -3.032133681699633598e-03 -1.365456962957978249e-03 3.744882531464099884e-03
2.145000000000000000e+03 3.989672660827636719e+00 1.955698966979980469e+01 -2.290610456839203835e-03 -1.075142063200473785e-03 -1.009725732728838921e-03 3.512169700115919113e-03
2.146000000000000000e+03 4.437651824951171875e+01 -6.986961364746093750e+00 -2.410979986190795898e+00 -1.106948032975196838e-01 -7.565023899078369141e-01 4.007205963134765625e-01
2.147000000000000000e+03 4.197082996368408203e+00 2.998792839050292969e+01 1.153898425400257111e-03 -7.878694683313369751e-03 -2.017438877373933792e-03 5.961559712886810303e-03
2.148000000000000000e+03 1.239746093750000000e+01 -1.525530433654785156e+01 -7.277282476425170898e-01 -5.425107479095458984e-01 -3.810717165470123291e-01 -7.956212162971496582e-01
2.149000000000000000e+03 6.441503906250000000e+01 9.984747886657714844e+00 7.763119935989379883e-01 5.215523242950439453e+00 1.797550559043884277e+00 6.461613774299621582e-01
2.150000000000000000e+03 7.513692474365234375e+01 -3.044134712219238281e+01 -5.444854032248258591e-03 -5.509870126843452454e-03 -3.286417340859770775e-03 1.273615192621946335e-02
2.151000000000000000e+03 7.729655456542968750e+01 -2.138605690002441406e+01 -1.503807143308222294e-03 -6.090229726396501064e-05 -4.694128292612731457e-04 1.346354401903226972e-04
2.152000000000000000e+03 7.387783813476562500e+01 3.027771949768066406e+01 -1.990230083465576172e-01 2.753608822822570801e-01 2.290135808289051056e-02 5.954527854919433594e-01
2.153000000000000000e+03 3.576095962524414062e+01 -9.661362648010253906e+00 1.123890995979309082e+00 9.772283434867858887e-01 6.303358078002929688e-01 -1.097037434577941895e+00
2.154000000000000000e+03 4.441626739501953125e+01 -1.527109527587890625e+01 3.033819437026977539e+00 3.454445362091064453e+00 1.946479439735412598e+00 5.710058212280273438e-01
2.155000000000000000e+03 4.351509857177734375e+01 -1.604657554626464844e+01 2.770475864410400391e+00 3.548868656158447266e+00 1.895803332328796387e+00 4.065708220005035400e-01
2.156000000000000000e+03 4.359350681304931641e+00 -1.490684700012207031e+01 -1.318695545196533203e-01 -3.264617025852203369e-01 -1.374993771314620972e-01 -4.476990699768066406e-01
2.157000000000000000e+03 6.297065734863281250e+00 -1.261757278442382812e+01 -3.081572353839874268e-01 -1.903122514486312866e-01 -1.495408415794372559e-01 -3.958428800106048584e-01
2.158000000000000000e+03 3.917543792724609375e+01 1.533883666992187500e+01 -8.542354404926300049e-02 -8.847087621688842773e-01 -2.910397052764892578e-01 -7.961304858326911926e-03
2.159000000000000000e+03 4.014831542968750000e+01 1.438075256347656250e+01 -2.716451287269592285e-01 -1.492635250091552734e+00 -5.292841196060180664e-01 -3.772587180137634277e-01
2.160000000000000000e+03 7.426792907714843750e+01 1.602521896362304688e+01 2.848251461982727051e-01 -6.293438673019409180e-01 -1.033556088805198669e-01 4.805184006690979004e-01
2.161000000000000000e+03 7.369868469238281250e+01 -6.847153663635253906e+00 -2.210834771394729614e-01 -1.681031286716461182e-01 -1.167559847235679626e-01 -7.566906809806823730e-01
2.162000000000000000e+03 7.612632751464843750e+01 -9.571804046630859375e+00 -1.456007063388824463e-01 -2.469528019428253174e-01 -1.177660524845123291e-01 -4.009813368320465088e-01
2.163000000000000000e+03 4.040565490722656250e+00 1.201822948455810547e+01 -1.562731777084991336e-04 -9.327372390544041991e-05 -7.486407412216067314e-05 2.822658279910683632e-05
2.164000000000000000e+03 7.374480438232421875e+01 5.574652194976806641e+00 3.246363103389739990e-01 -5.409499406814575195e-01 -6.489409506320953369e-02 -4.365051090717315674e-01
2.165000000000000000e+03 2.691373443603515625e+01 -6.705333709716796875e+00 -1.263582520186901093e-02 -1.091716364026069641e-01 -3.654223680496215820e-02 -9.802190661430358887e-01
2.166000000000000000e+03 6.971424102783203125e+01 -2.521245765686035156e+01 -8.851619437336921692e-03 3.808440873399376869e-03 -1.512953662313520908e-03 -1.896928297355771065e-03
2.167000000000000000e+03 4.277898311614990234e+00 2.644603729248046875e+01 4.987693973816931248e-04 -5.114674568176269531e-03 -1.384771661832928658e-03 7.624679245054721832e-03
2.168000000000000000e+03 6.911748504638671875e+01 -2.710484886169433594e+01 -1.808100007474422455e-02 7.427297066897153854e-03 -3.196110948920249939e-03 1.668786717345938087e-04
2.169000000000000000e+03 4.480695724487304688e+01 1.982571792602539062e+01 -4.557640552520751953e-01 -7.828560471534729004e-01 -3.715860247611999512e-01 -4.067102074623107910e-01
2.170000000000000000e+03 4.305488204956054688e+01 2.047949028015136719e+01 -2.375082671642303467e-01 -6.951206326484680176e-01 -2.797886729240417480e-01 -1.726472824811935425e-01
2.171000000000000000e+03 1.156485462188720703e+01 -2.247072219848632812e+01 5.059790611267089844e-01 -2.168793082237243652e-01 8.672993630170822144e-02 -6.455624103546142578e-01
2.172000000000000000e+03 4.894274139404296875e+01 2.531770133972167969e+01 -1.039939299225807190e-01 -3.433328866958618164e-01 -1.341980397701263428e-01 -2.938834428787231445e-01
2.173000000000000000e+03 3.490639209747314453e+00 3.288320541381835938e+01 1.357236062176525593e-03 -1.390538550913333893e-02 -3.764444729313254356e-03 3.595372661948204041e-03
2.174000000000000000e+03 4.282312393188476562e+01 -2.468411064147949219e+01 6.859869956970214844e-01 3.824478626251220703e+00 1.353139638900756836e+00 8.363754153251647949e-01
2.175000000000000000e+03 4.427072525024414062e+01 -2.334744071960449219e+01 7.368215918540954590e-01 5.354565143585205078e+00 1.827416062355041504e+00 2.425006031990051270e-01
2.176000000000000000e+03 3.781895065307617188e+01 -1.159615707397460938e+01 1.197023749351501465e+00 6.030105352401733398e-01 5.400102734565734863e-01 -1.454964041709899902e+00
2.177000000000000000e+03 1.815976142883300781e+01 -9.227337837219238281e+00 -9.074035286903381348e-01 -6.718045473098754883e-01 -4.737624228000640869e-01 -6.883913874626159668e-01
2.178000000000000000e+03 6.523742675781250000e+01 1.860222625732421875e+01 8.440092206001281738e-01 3.863348960876464844e+00 1.412207365036010742e+00 2.544039189815521240e-01
2.179000000000000000e+03 1.821844482421875000e+01 -2.834259414672851562e+01 8.262628316879272461e-01 7.215110659599304199e-01 4.643321633338928223e-01 -6.576128602027893066e-01
2.180000000000000000e+03 6.352822113037109375e+01 1.969896125793457031e+01 8.722193837165832520e-01 4.487289905548095703e+00 1.607852816581726074e+00 -1.704195588827133179e-01
2.181000000000000000e+03 4.529383850097656250e+01 -7.765443801879882812e+00 -1.959686756134033203e+00 1.729652881622314453e-01 -5.360164642333984375e-01 5.870459079742431641e-01
2.182000000000000000e+03 4.636240768432617188e+01 -7.451200962066650391e+00 -2.301156997680664062e+00 -1.584959961473941803e-02 -6.951019167900085449e-01 9.021641016006469727e-01
2.183000000000000000e+03 6.376036834716796875e+01 1.167364978790283203e+01 5.344519615173339844e-01 6.180623531341552734e+00 2.014522552490234375e+00 5.911158323287963867e-01
2.184000000000000000e+03 7.604444885253906250e+01 3.167041587829589844e+01 -9.486557543277740479e-02 -5.998091027140617371e-02 -4.645394533872604370e-02 4.199422597885131836e-01
2.185000000000000000e+03 4.585303497314453125e+01 2.069310188293457031e+01 -4.740894138813018799e-01 -6.406947374343872070e-01 -3.344352543354034424e-01 -3.702934980392456055e-01
2.186000000000000000e+03 4.024691390991210938e+01 -4.716724872589111328e+00 -2.634274244308471680e+00 1.302306056022644043e-01 -7.512130737304687500e-01 3.032737374305725098e-01
2.187000000000000000e+03 4.429133605957031250e+01 -2.986110115051269531e+01 -6.507833302021026611e-02 2.564173460006713867e+00 7.497285604476928711e-01 7.331766188144683838e-02
2.188000000000000000e+03 5.812627029418945312e+01 -1.055435943603515625e+01 -7.981166839599609375e-01 1.065084815025329590e+00 8.009045571088790894e-02 1.111722946166992188e+00
2.189000000000000000e+03 5.977774429321289062e+01 -9.199815750122070312e+00 -7.696404457092285156e-01 1.077380776405334473e+00 9.232208877801895142e-02 9.113408923149108887e-01
2.190000000000000000e+03 4.673571014404296875e+01 -1.273058700561523438e+01 1.677006363868713379e+00 2.545857906341552734e+00 1.266859292984008789e+00 1.306117534637451172e+00
2.191000000000000000e+03 1.914454650878906250e+01 -8.098386764526367188e+00 -7.247377038002014160e-01 -5.416617393493652344e-01 -3.799198269844055176e-01 -7.052293419837951660e-01
2.192000000000000000e+03 5.863920593261718750e+01 -3.905226230621337891e+00 4.651202261447906494e-01 2.350289344787597656e+00 8.446228504180908203e-01 1.240587592124938965e+00
2.193000000000000000e+03 3.943298721313476562e+01 -3.237973451614379883e+00 -2.442913770675659180e+00 3.015066087245941162e-01 -6.424221992492675781e-01 6.226052641868591309e-01
2.194000000000000000e+03 4.042950820922851562e+01 -3.719451904296875000e+00 -2.822897195816040039e+00 -7.663970440626144409e-02 -8.698610663414001465e-01 5.940953493118286133e-01
2.195000000000000000e+03 2.494571113586425781e+01 -3.251884460449218750e+01 8.398196101188659668e-01 5.293698310852050781e-01 4.107568264007568359e-01 -2.282260954380035400e-01
2.196000000000000000e+03 5.606971359252929688e+01 -1.102764797210693359e+01 -3.258935809135437012e-01 1.121516466140747070e+00 2.386868596076965332e-01 1.684644341468811035e+00
2.197000000000000000e+03 5.546114730834960938e+01 -6.247950077056884766e+00 -3.505004942417144775e-01 2.381642818450927734e+00 6.093426942825317383e-01 1.817091464996337891e+00
2.198000000000000000e+03 5.790159606933593750e+01 -4.892546653747558594e+00 1.281456202268600464e-01 2.393634796142578125e+00 7.565341591835021973e-01 1.356332063674926758e+00
2.199000000000000000e+03 7.571051025390625000e+01 -3.796789932250976562e+01 3.751975949853658676e-03 -2.316178381443023682e-02 -5.822942126542329788e-03 1.269295997917652130e-02
2.200000000000000000e+03 7.637936401367187500e+01 -3.606915283203125000e+01 3.213851246982812881e-03 -2.146620862185955048e-02 -5.475707352161407471e-03 1.482955738902091980e-02
2.201000000000000000e+03 5.665743255615234375e+01 -6.784692764282226562e+00 -5.036577582359313965e-01 2.240359783172607422e+00 5.210105776786804199e-01 1.601980209350585938e+00
2.202000000000000000e+03 4.104510307312011719e+00 3.712475967407226562e+01 2.190399449318647385e-03 -1.250118669122457504e-02 -3.093236126005649567e-03 3.276263829320669174e-03
2.203000000000000000e+03 5.410487651824951172e+00 3.579295349121093750e+01 3.184586530551314354e-03 -1.739605941111221910e-04 9.031877852976322174e-04 2.328156959265470505e-03
2.204000000000000000e+03 4.529501342773437500e+01 -1.624742698669433594e+01 3.596783161163330078e+00 4.919301033020019531e+00 2.554825067520141602e+00 1.670810699462890625e+00
2.205000000000000000e+03 3.910271835327148438e+01 -1.615846443176269531e+01 1.281371712684631348e+00 1.171613812446594238e+00 7.358956336975097656e-01 -8.672814369201660156e-01
2.206000000000000000e+03 6.764308929443359375e+01 -1.102174282073974609e+01 -1.270007610321044922e+00 2.226225882768630981e-01 -3.142155110836029053e-01 -5.119739770889282227e-01
2.207000000000000000e+03 6.758533477783203125e+01 -9.491614341735839844e+00 -9.934355616569519043e-01 2.673772573471069336e-01 -2.178175002336502075e-01 -6.422819495201110840e-01
2.208000000000000000e+03 4.635869503021240234e+00 -3.332210922241210938e+01 6.316468864679336548e-02 -1.362786412239074707e+00 -3.898864984512329102e-01 -8.455805480480194092e-02
2.209000000000000000e+03 4.036530494689941406e+00 -8.156799316406250000e+00 -1.062712967395782471e-01 -1.403352525085210800e-02 -3.609144687652587891e-02 -3.171628341078758240e-02
2.210000000000000000e+03 5.197143077850341797e+00 -8.141190528869628906e+00 -1.671665757894515991e-01 -4.551834613084793091e-02 -6.380547583103179932e-02 -5.083903670310974121e-02
2.211000000000000000e+03 4.698595046997070312e+00 6.823702335357666016e+00 2.499730362615082413e-05 -3.134703365503810346e-05 -1.904918690343038179e-06 5.469501775223761797e-05
2.212000000000000000e+03 3.721991539001464844e+00 7.276074409484863281e+00 -1.483645610278472304e-04 -1.019387673295568675e-05 -4.756752969115041196e-05 -2.781090734060853720e-04
2.213000000000000000e+03 6.563971710205078125e+01 -3.337429046630859375e+01 -2.305461466312408447e-02 2.883031498640775681e-03 -6.051474716514348984e-03 4.363684356212615967e-02
2.214000000000000000e+03 4.153418350219726562e+01 -2.409445762634277344e+01 7.334756255149841309e-01 3.272418022155761719e+00 1.201768040657043457e+00 1.103544473648071289e+00
2.215000000000000000e+03 5.127082824707031250e+01 -8.358967781066894531e+00 -1.054179906845092773e+00 1.180059671401977539e+00 3.776391223073005676e-02 2.731515407562255859e+00
2.216000000000000000e+03 4.869722747802734375e+01 -8.714754104614257812e+00 -9.993538856506347656e-01 5.743476152420043945e-01 -1.275018751621246338e-01 2.099357843399047852e+00
2.217000000000000000e+03 4.159614181518554688e+01 -1.760548210144042969e+01 2.215655326843261719e+00 2.693698644638061523e+00 1.472806215286254883e+00 2.864918112754821777e-01
2.218000000000000000e+03 6.340450286865234375e+01 3.634111642837524414e+00 9.715098142623901367e-01 3.740750074386596680e+00 1.413677930831909180e+00 7.907773852348327637e-01
2.219000000000000000e+03 4.053203201293945312e+01 -2.316407966613769531e+01 9.129149317741394043e-01 2.654533863067626953e+00 1.070234656333923340e+00 1.266925692558288574e+00
2.220000000000000000e+03 4.527402114868164062e+01 -1.446961498260498047e+01 2.426830768585205078e+00 3.482595443725585938e+00 1.772827863693237305e+00 6.739659905433654785e-01
2.221000000000000000e+03 7.444251251220703125e+01 3.602971649169921875e+01 -1.590894907712936401e-01 3.074205815792083740e-01 4.449932649731636047e-02 2.814502120018005371e-01
2.222000000000000000e+03 7.493797302246093750e+01 3.394642639160156250e+01 -1.451341807842254639e-01 2.017429769039154053e-01 1.698263548314571381e-02 3.649201095104217529e-01
2.223000000000000000e+03 1.108834075927734375e+01 -1.590643405914306641e+01 -4.914063513278961182e-01 -3.769445121288299561e-01 -2.605052590370178223e-01 -8.462213277816772461e-01
2.224000000000000000e+03 4.308301448822021484e+00 -1.627096366882324219e+01 -8.676642924547195435e-02 -4.403117001056671143e-01 -1.581234335899353027e-01 -5.060934424400329590e-01
2.225000000000000000e+03 3.513663864135742188e+01 -3.007206153869628906e+01 6.895467638969421387e-01 1.215610265731811523e+00 5.715470910072326660e-01 7.741919159889221191e-01
2.226000000000000000e+03 3.754733657836914062e+01 -2.858516693115234375e+01 6.200357675552368164e-01 1.500978708267211914e+00 6.363043785095214844e-01 9.452964663505554199e-01
2.227000000000000000e+03 5.938569641113281250e+01 -2.878385543823242188e+00 7.131925225257873535e-01 2.463083982467651367e+00 9.528829455375671387e-01 1.231572389602661133e+00
2.228000000000000000e+03 3.258449554443359375e+01 -2.259749650955200195e+00 -1.923266291618347168e+00 2.595756053924560547e-01 -4.991072118282318115e-01 -2.879815399646759033e-01
2.229000000000000000e+03 3.291813278198242188e+01 -1.981140732765197754e+00 -2.095417022705078125e+00 2.063192576169967651e-01 -5.667293667793273926e-01 -2.090002000331878662e-01
2.230000000000000000e+03 3.314131927490234375e+01 -2.216706275939941406e+00 -1.973334670066833496e+00 2.644196152687072754e-01 -5.126745104789733887e-01 -1.597127914428710938e-01
2.231000000000000000e+03 2.849269104003906250e+01 -2.662490129470825195e+00 -1.116288542747497559e+00 1.600746661424636841e-01 -2.868641912937164307e-01 -1.111467003822326660e+00
2.232000000000000000e+03 2.670878410339355469e+01 -2.753184318542480469e+00 -9.191315174102783203e-01 5.556253194808959961e-01 -1.090518534183502197e-01 -1.216674566268920898e+00
2.233000000000000000e+03 2.708480834960937500e+01 -3.175760030746459961e+00 -8.474999070167541504e-01 4.043495357036590576e-01 -1.329451203346252441e-01 -1.256218433380126953e+00
2.234000000000000000e+03 2.826576805114746094e+01 -2.416080713272094727e+00 -1.141550064086914062e+00 1.324926465749740601e-01 -3.027172386646270752e-01 -1.088912487030029297e+00
2.235000000000000000e+03 3.009530830383300781e+01 -2.181114673614501953e+00 -1.691644906997680664e+00 1.010705009102821350e-01 -4.771723151206970215e-01 -7.337278127670288086e-01
2.236000000000000000e+03 2.831397819519042969e+01 -3.018236637115478516e+00 -9.752650260925292969e-01 2.048885673284530640e-01 -2.311129271984100342e-01 -1.188018202781677246e+00
2.237000000000000000e+03 2.875818443298339844e+01 -2.422906160354614258e+00 -1.263932585716247559e+00 9.595242887735366821e-02 -3.503940403461456299e-01 -1.007390618324279785e+00
2.238000000000000000e+03 2.946874237060546875e+01 -2.729746818542480469e+00 -1.280719637870788574e+00 1.750357896089553833e-01 -3.317051529884338379e-01 -9.640524387359619141e-01
2.239000000000000000e+03 3.070818519592285156e+01 -2.043106079101562500e+00 -1.878998517990112305e+00 1.160130426287651062e-01 -5.288956761360168457e-01 -6.066378951072692871e-01
2.240000000000000000e+03 3.469763946533203125e+01 -1.733342170715332031e+00 -2.149750471115112305e+00 2.982990443706512451e-01 -5.554354786872863770e-01 1.308124214410781860e-01
2.241000000000000000e+03 3.470386886596679688e+01 -2.328510046005249023e+00 -1.958705782890319824e+00 3.892765045166015625e-01 -4.708287715911865234e-01 1.351539045572280884e-01
2.242000000000000000e+03 3.193331527709960938e+01 -2.302725553512573242e+00 -1.874310493469238281e+00 2.228919863700866699e-01 -4.954255521297454834e-01 -4.027521312236785889e-01
2.243000000000000000e+03 3.441839599609375000e+01 -2.118270874023437500e+00 -2.037171363830566406e+00 3.348020911216735840e-01 -5.107107758522033691e-01 1.067047640681266785e-01
2.244000000000000000e+03 3.560569763183593750e+01 -1.824653267860412598e+00 -2.057877302169799805e+00 3.349803686141967773e-01 -5.168690681457519531e-01 3.344970047473907471e-01
2.245000000000000000e+03 3.451753997802734375e+01 6.440377235412597656e+00 1.691863685846328735e-01 3.007236003875732422e+00 9.529266953468322754e-01 -5.326436758041381836e-01
2.246000000000000000e+03 1.850456428527832031e+01 2.366741180419921875e+01 5.257657729089260101e-03 2.759126255114097148e-05 1.585574704222381115e-03 -1.853320561349391937e-02
2.247000000000000000e+03 2.820681571960449219e+01 2.250880622863769531e+01 2.391476780176162720e-01 5.740426778793334961e-01 2.439571171998977661e-01 -3.752713501453399658e-01
2.248000000000000000e+03 2.645845413208007812e+01 2.340186119079589844e+01 1.935663968324661255e-01 2.684042751789093018e-01 1.385912001132965088e-01 -2.605728507041931152e-01
2.249000000000000000e+03 3.459373855590820312e+01 6.055533409118652344e+00 8.577328920364379883e-02 2.874174356460571289e+00 8.879843354225158691e-01 -5.437223911285400391e-01
2.250000000000000000e+03 1.428966426849365234e+01 1.360922241210937500e+01 3.357605019118636847e-04 4.757209098897874355e-04 2.434444177197292447e-04 -4.799070666194893420e-05
2.251000000000000000e+03 3.676794433593750000e+01 7.035903930664062500e+00 -1.816508322954177856e-01 -2.861629128456115723e-01 -1.403441280126571655e-01 -8.489975333213806152e-01
2.252000000000000000e+03 3.445796966552734375e+01 6.808029174804687500e+00 5.499839410185813904e-02 3.149924755096435547e+00 9.614769816398620605e-01 -6.030589938163757324e-01
2.253000000000000000e+03 2.312180519104003906e+01 2.400272750854492188e+01 9.959273785352706909e-02 6.705396622419357300e-02 4.999401047825813293e-02 -1.070020869374275208e-01
2.254000000000000000e+03 1.336373519897460938e+01 1.781633567810058594e+01 -3.634981112554669380e-03 -2.480470808222889900e-03 -1.834635506384074688e-03 -4.740960430353879929e-03
2.255000000000000000e+03 1.545006561279296875e+01 9.747237205505371094e+00 -1.202662824653089046e-04 2.038803650066256523e-04 2.508422767277806997e-05 -6.501762982225045562e-05
2.256000000000000000e+03 1.562163257598876953e+01 9.409097671508789062e+00 4.361071842140518129e-05 3.149698022753000259e-04 1.075741529348306358e-04 4.525609256234019995e-05
2.257000000000000000e+03 3.289731979370117188e+01 1.583149242401123047e+01 1.247195675969123840e-01 2.196164846420288086e+00 6.962653398513793945e-01 -3.313422203063964844e-01
2.258000000000000000e+03 1.686375999450683594e+01 8.304341316223144531e+00 -1.027906182571314275e-04 1.112575409933924675e-04 2.540076138757285662e-06 -7.451033889083191752e-05
2.259000000000000000e+03 1.379558944702148438e+01 1.740224075317382812e+01 -1.247764681465923786e-03 -2.879734616726636887e-03 -1.238249824382364750e-03 -2.956947544589638710e-03
2.260000000000000000e+03 1.293691539764404297e+01 1.782063102722167969e+01 -5.261712241917848587e-03 -1.304893055930733681e-03 -1.969981705769896507e-03 -4.377499222755432129e-03
2.261000000000000000e+03 3.229821014404296875e+01 1.654786872863769531e+01 2.154661864042282104e-01 2.184802055358886719e+00 7.200804352760314941e-01 -5.050380229949951172e-01
2.262000000000000000e+03 1.373182487487792969e+01 1.358629417419433594e+01 -2.748157712630927563e-04 1.071706574293784797e-04 -5.029353633290156722e-05 -1.173461932921782136e-04
2.263000000000000000e+03 2.007676315307617188e+01 2.373015975952148438e+01 2.539634518325328827e-02 6.314103025943040848e-03 9.513134136795997620e-03 -3.359419479966163635e-02
2.264000000000000000e+03 1.526088142395019531e+01 1.006293773651123047e+01 3.939210728276520967e-05 3.856068651657551527e-04 1.274996902793645859e-04 5.885960126761347055e-05
2.265000000000000000e+03 3.230480957031250000e+01 1.450485897064208984e+01 2.007337212562561035e-01 2.964168787002563477e+00 9.494707584381103516e-01 -6.810248494148254395e-01
2.266000000000000000e+03 3.336255645751953125e+01 1.305594825744628906e+01 1.362092494964599609e-01 2.931922674179077148e+00 9.204396009445190430e-01 -3.714623153209686279e-01
2.267000000000000000e+03 3.401393127441406250e+01 1.103964996337890625e+01 6.435872614383697510e-02 3.038959264755249023e+00 9.309954047203063965e-01 -3.029637336730957031e-01
2.268000000000000000e+03 3.375529479980468750e+01 8.576607704162597656e+00 1.713053286075592041e-01 4.213653564453125000e+00 1.315487623214721680e+00 -5.130655765533447266e-01
2.269000000000000000e+03 3.107050514221191406e+01 1.990125274658203125e+01 3.154396414756774902e-01 1.383639335632324219e+00 5.097236633300781250e-01 -3.881735205650329590e-01
2.270000000000000000e+03 1.946449089050292969e+01 4.313039779663085938e+00 -3.088417361141182482e-05 -5.978040644549764693e-05 -2.719937401707284153e-05 -5.287456133373780176e-06
2.271000000000000000e+03 1.887886428833007812e+01 6.099318981170654297e+00 1.287853956455364823e-05 7.911208376754075289e-05 2.759718699962832034e-05 2.887029768317006528e-05
2.272000000000000000e+03 1.769394493103027344e+01 7.388238906860351562e+00 5.483502536662854254e-05 1.095046172849833965e-04 4.930189243168570101e-05 2.868429146474227309e-05
2.273000000000000000e+03 3.147891044616699219e+01 1.711253166198730469e+01 3.292550742626190186e-01 2.200809478759765625e+00 7.590193152427673340e-01 -6.764323711395263672e-01
2.274000000000000000e+03 3.275634002685546875e+01 1.673184204101562500e+01 1.550223678350448608e-01 1.960853219032287598e+00 6.347626447677612305e-01 -2.938027977943420410e-01
2.275000000000000000e+03 1.502893066406250000e+01 1.091206073760986328e+01 -5.303450961946509778e-05 2.949720947071909904e-04 7.258127152454108000e-05 -1.106349300243891776e-04
2.276000000000000000e+03 1.504207515716552734e+01 1.035137462615966797e+01 -1.023460936266928911e-04 2.460137766320258379e-04 4.310030999477021396e-05 -3.607822145568206906e-05
2.277000000000000000e+03 1.963166427612304688e+01 5.657508850097656250e+00 2.384925574006047100e-05 5.358750786399468780e-05 2.323102853551972657e-05 7.929479579615872353e-06
2.278000000000000000e+03 1.867304420471191406e+01 4.391659736633300781e+00 -5.067570600658655167e-05 -2.500099799362942576e-05 -2.270301229145843536e-05 -6.998631079113692977e-07
2.279000000000000000e+03 3.447279739379882812e+01 7.874928474426269531e+00 1.936688125133514404e-01 3.142137527465820312e+00 1.000741839408874512e+00 -4.726321995258331299e-01
2.280000000000000000e+03 3.441457366943359375e+01 7.167630672454833984e+00 1.948047429323196411e-01 3.230410099029541016e+00 1.027564406394958496e+00 -5.844931602478027344e-01
2.281000000000000000e+03 3.141961288452148438e+01 2.039954757690429688e+01 2.137303203344345093e-01 1.289996981620788574e+00 4.511182010173797607e-01 -2.363107353448867798e-01
2.282000000000000000e+03 3.478351593017578125e+01 4.478099822998046875e+00 6.646266579627990723e-01 1.984393000602722168e+00 7.947058677673339844e-01 -3.454769253730773926e-01
2.283000000000000000e+03 3.480051422119140625e+01 4.029078960418701172e+00 6.565090417861938477e-01 1.601614356040954590e+00 6.774370074272155762e-01 -3.288527727127075195e-01
2.284000000000000000e+03 1.851297950744628906e+01 2.300028610229492188e+01 -1.149906497448682785e-02 -4.331987351179122925e-03 -4.749315790832042694e-03 -1.525670289993286133e-02
2.285000000000000000e+03 1.814311408996582031e+01 5.875520229339599609e+00 -1.653603612794540823e-05 9.661322837928310037e-05 2.402315840299706906e-05 2.852548823284450918e-05
2.286000000000000000e+03 1.761963844299316406e+01 5.946280002593994141e+00 3.787918103625997901e-05 2.065724947897251695e-05 1.756092933646868914e-05 -4.527787496044766158e-06
2.287000000000000000e+03 2.573092651367187500e+01 2.283792495727539062e+01 2.190182060003280640e-01 1.510511636734008789e-01 1.110208109021186829e-01 -2.002807110548019409e-01
2.288000000000000000e+03 3.395075607299804688e+01 1.262196063995361328e+01 8.772037178277969360e-02 2.605847597122192383e+00 8.080704212188720703e-01 -2.177646160125732422e-01
2.289000000000000000e+03 3.415377807617187500e+01 2.828344821929931641e+00 1.550106763839721680e+00 1.679265975952148438e+00 9.688118100166320801e-01 2.546240985393524170e-01
2.290000000000000000e+03 1.858817100524902344e+01 5.672022342681884766e+00 -1.232978047482902184e-05 -2.514945481379982084e-05 -1.124377104133600369e-05 -2.506245255062822253e-05
2.291000000000000000e+03 3.456264877319335938e+01 8.280018806457519531e+00 1.264385133981704712e-01 3.005110979080200195e+00 9.394648075103759766e-01 -4.298393130302429199e-01
2.292000000000000000e+03 3.407012176513671875e+01 8.345338821411132812e+00 2.107476443052291870e-01 3.752243995666503906e+00 1.188897490501403809e+00 -4.886003732681274414e-01
2.293000000000000000e+03 1.302267265319824219e+01 1.625138473510742188e+01 -1.350759412162005901e-03 -1.269688829779624939e-03 -7.861345075070858002e-04 -1.838035881519317627e-03
2.294000000000000000e+03 3.560299682617187500e+01 4.992039680480957031e+00 3.812248706817626953e-01 7.738205194473266602e-01 3.465135991573333740e-01 -7.916091084480285645e-01
2.295000000000000000e+03 3.509463119506835938e+01 5.308610916137695312e+00 4.177677035331726074e-01 1.888213634490966797e+00 6.917943954467773438e-01 -5.407448410987854004e-01
2.296000000000000000e+03 1.816009140014648438e+01 2.325177574157714844e+01 -5.614875350147485733e-03 -1.245206454768776894e-03 -2.058024518191814423e-03 -1.412918046116828918e-02
2.297000000000000000e+03 1.960173606872558594e+01 2.360210227966308594e+01 1.463481411337852478e-02 2.680470701307058334e-03 5.194585304707288742e-03 -2.729224972426891327e-02
2.298000000000000000e+03 2.615472793579101562e+01 -3.379410028457641602e+00 -8.025870323181152344e-01 4.763637185096740723e-01 -9.786700457334518433e-02 -1.065571665763854980e+00
2.299000000000000000e+03 3.491384887695312500e+01 6.682944774627685547e+00 1.609560996294021606e-01 2.393441438674926758e+00 7.663192749023437500e-01 -5.782865881919860840e-01
2.300000000000000000e+03 3.497063446044921875e+01 7.763666152954101562e+00 7.660566270351409912e-02 2.341946601867675781e+00 7.255656719207763672e-01 -4.858902394771575928e-01
2.301000000000000000e+03 1.337283897399902344e+01 1.820901298522949219e+01 -6.207024212926626205e-03 -2.619670471176505089e-03 -2.648008521646261215e-03 -5.688108038157224655e-03
2.302000000000000000e+03 1.519707393646240234e+01 2.126954460144042969e+01 -2.956756390631198883e-02 -3.445991082116961479e-03 -9.904066100716590881e-03 -7.199520245194435120e-03
2.303000000000000000e+03 2.110729980468750000e+01 2.331952095031738281e+01 3.423108160495758057e-02 7.385371252894401550e-03 1.248493604362010956e-02 -3.948144242167472839e-02
2.304000000000000000e+03 2.159352302551269531e+01 2.335127258300781250e+01 4.729554057121276855e-02 1.393688097596168518e-02 1.836972683668136597e-02 -4.834232851862907410e-02
2.305000000000000000e+03 3.483136749267578125e+01 3.605855464935302734e+00 9.568763971328735352e-01 1.137419342994689941e+00 6.282886862754821777e-01 -3.007626533508300781e-01
2.306000000000000000e+03 1.444793128967285156e+01 2.128670692443847656e+01 -2.278302796185016632e-02 8.311428828164935112e-04 -6.585565395653247833e-03 -2.943367464467883110e-03
2.307000000000000000e+03 1.617825317382812500e+01 8.306058883666992188e+00 -1.363157498417422175e-04 1.133824625867418945e-04 -6.879985448904335499e-06 -3.029582512681372464e-05
2.308000000000000000e+03 2.482274055480957031e+01 2.286299514770507812e+01 1.772284805774688721e-01 8.771993219852447510e-02 7.948452234268188477e-02 -1.404108405113220215e-01
2.309000000000000000e+03 3.416074752807617188e+01 5.523252964019775391e+00 1.055225953459739685e-01 3.435161113739013672e+00 1.062205076217651367e+00 -3.833481967449188232e-01
2.310000000000000000e+03 3.043946456909179688e+01 2.024092864990234375e+01 4.116122722625732422e-01 1.303376674652099609e+00 5.144966840744018555e-01 -4.707225561141967773e-01
2.311000000000000000e+03 1.364997482299804688e+01 1.310824489593505859e+01 1.169191091321408749e-04 1.348396472167223692e-04 7.552762690465897322e-05 -8.902012632461264729e-05
2.312000000000000000e+03 1.361480236053466797e+01 1.960748481750488281e+01 -1.516338158398866653e-02 -5.822128732688724995e-04 -4.723678342998027802e-03 -6.936257239431142807e-03
2.313000000000000000e+03 2.477690696716308594e+01 2.396123504638671875e+01 1.424195021390914917e-01 1.436611711978912354e-01 8.582420647144317627e-02 -1.764005571603775024e-01
2.314000000000000000e+03 2.357538986206054688e+01 2.294475173950195312e+01 1.136567518115043640e-01 4.217146337032318115e-02 4.674846306443214417e-02 -8.478046953678131104e-02
2.315000000000000000e+03 2.057056617736816406e+01 2.383401298522949219e+01 3.563806787133216858e-02 1.080350670963525772e-02 1.393247209489345551e-02 -4.222640022635459900e-02
2.316000000000000000e+03 1.567944049835205078e+01 2.253995704650878906e+01 -1.862099952995777130e-02 -1.148177892901003361e-03 -5.930753424763679504e-03 -2.276736777275800705e-03
2.317000000000000000e+03 1.579125976562500000e+01 9.053404808044433594e+00 -1.288912608288228512e-04 1.537839852971956134e-04 7.467815976269776002e-06 -4.509817154030315578e-05
2.318000000000000000e+03 1.911623191833496094e+01 4.735682010650634766e+00 2.754699380602687597e-05 8.828751015244051814e-05 3.475035191513597965e-05 1.996504033741075546e-05
2.319000000000000000e+03 2.260776329040527344e+01 2.398965263366699219e+01 8.410788327455520630e-02 4.970784857869148254e-02 4.014471918344497681e-02 -9.048464894294738770e-02
2.320000000000000000e+03 2.209056854248046875e+01 2.396928215026855469e+01 7.227230817079544067e-02 3.662307187914848328e-02 3.266861289739608765e-02 -7.608515024185180664e-02
2.321000000000000000e+03 2.107147598266601562e+01 2.390807342529296875e+01 4.748119413852691650e-02 1.735324412584304810e-02 1.945033110678195953e-02 -5.186619982123374939e-02
2.322000000000000000e+03 2.962298393249511719e+01 2.099413490295410156e+01 4.143236577510833740e-01 1.062205076217651367e+00 4.429586231708526611e-01 -4.564000368118286133e-01
2.323000000000000000e+03 1.431202888488769531e+01 2.078598022460937500e+01 -2.262326516211032867e-02 -4.529652869678102434e-05 -6.800568662583827972e-03 -5.174136254936456680e-03
2.324000000000000000e+03 1.452381324768066406e+01 2.047517395019531250e+01 -2.320595085620880127e-02 -3.749221330508589745e-03 -8.086551912128925323e-03 -9.054825641214847565e-03
2.325000000000000000e+03 2.569432640075683594e+01 2.341581535339355469e+01 1.866661459207534790e-01 1.845947355031967163e-01 1.113782674074172974e-01 -2.172350585460662842e-01
2.326000000000000000e+03 2.948648071289062500e+01 2.140950584411621094e+01 3.184561431407928467e-01 9.753546118736267090e-01 3.881432414054870605e-01 -4.128735363483428955e-01
2.327000000000000000e+03 3.001750183105468750e+01 2.216639900207519531e+01 1.244818568229675293e-01 9.600532650947570801e-01 3.253605365753173828e-01 -2.664789855480194092e-01
2.328000000000000000e+03 1.451475429534912109e+01 2.184904479980468750e+01 -2.124375291168689728e-02 2.101706108078360558e-03 -5.742614157497882843e-03 -4.119303193874657154e-04
2.329000000000000000e+03 1.458250236511230469e+01 9.862024307250976562e+00 -1.611888001207262278e-04 2.453616179991513491e-04 2.525184572732541710e-05 2.855561251635663211e-05
2.330000000000000000e+03 1.478628253936767578e+01 1.060741138458251953e+01 -1.398831773258280009e-05 4.299768479540944099e-04 1.247965556103736162e-04 7.391293183900415897e-05
2.331000000000000000e+03 2.932917213439941406e+01 2.262717437744140625e+01 1.283706724643707275e-01 8.142778277397155762e-01 2.827945649623870850e-01 -3.174413442611694336e-01
2.332000000000000000e+03 3.080155754089355469e+01 2.071346855163574219e+01 2.798112928867340088e-01 1.212688565254211426e+00 4.477499425411224365e-01 -3.109575212001800537e-01
2.333000000000000000e+03 3.000267982482910156e+01 2.159427070617675781e+01 2.169043719768524170e-01 1.033531308174133301e+00 3.751307129859924316e-01 -3.184856176376342773e-01
2.334000000000000000e+03 3.560796737670898438e+01 -2.366016864776611328e+00 -1.983650207519531250e+00 4.850344061851501465e-01 -4.495847225189208984e-01 3.552825152873992920e-01
2.335000000000000000e+03 1.550319290161132812e+01 2.334530830383300781e+01 -7.061528507620096207e-03 2.684077480807900429e-03 -1.313235377892851830e-03 -4.932162701152265072e-04
2.336000000000000000e+03 3.710530471801757812e+01 -2.994385004043579102e+00 -2.012344121932983398e+00 6.237110495567321777e-01 -4.165899157524108887e-01 4.782365262508392334e-01
2.337000000000000000e+03 1.374896812438964844e+01 2.001580238342285156e+01 -1.732324808835983276e-02 3.458092687651515007e-04 -5.093231797218322754e-03 -6.738991010934114456e-03
2.338000000000000000e+03 1.845063781738281250e+01 4.725919246673583984e+00 3.535625364747829735e-05 7.791793177602812648e-05 3.398225453565828502e-05 2.742402648436836898e-05
2.339000000000000000e+03 1.890345191955566406e+01 3.943740367889404297e+00 3.198160266038030386e-05 7.332011591643095016e-05 3.159051630063913763e-05 6.206837497302331030e-06
2.340000000000000000e+03 3.655205154418945312e+01 5.186098575592041016e+00 2.660304605960845947e-01 -3.370987176895141602e-01 -2.132047712802886963e-02 -1.034575104713439941e+00
2.341000000000000000e+03 3.537073516845703125e+01 6.369284629821777344e+00 1.165690347552299500e-01 1.578658819198608398e+00 5.085683465003967285e-01 -6.695851087570190430e-01
2.342000000000000000e+03 2.019366264343261719e+01 4.343955993652343750e+00 -7.009338150965049863e-05 7.177749466791283339e-06 -1.887468897621147335e-05 -3.424172973609529436e-06
2.343000000000000000e+03 1.634093093872070312e+01 4.309795856475830078e+00 -3.562161145964637399e-05 3.270860543125309050e-05 -8.739009444980183616e-07 4.850170080317184329e-05
2.344000000000000000e+03 1.562148666381835938e+01 4.322204113006591797e+00 2.116156792908441275e-05 5.341436190064996481e-05 2.237277840322349221e-05 4.676764001487754285e-05
2.345000000000000000e+03 1.695601272583007812e+01 3.691228151321411133e+00 -6.442200628953287378e-06 -3.782112116823554970e-06 -3.067293846470420249e-06 3.578946416382677853e-05
2.346000000000000000e+03 1.701587677001953125e+01 4.233202457427978516e+00 -9.439823770662769675e-06 4.984633415006101131e-05 1.212195275002159178e-05 1.176172645500628278e-05
2.347000000000000000e+03 2.226253318786621094e+01 -2.972632884979248047e+00 -4.085663259029388428e-01 -3.339539468288421631e-01 -2.227560728788375854e-01 -6.170030236244201660e-01
2.348000000000000000e+03 1.351074790954589844e+01 4.957241058349609375e+00 2.651897011674009264e-05 2.843442780431360006e-05 1.648601937631610781e-05 8.553179941372945905e-05
2.349000000000000000e+03 1.414503097534179688e+01 3.737736701965332031e+00 -6.511847459478303790e-06 -7.526629360654624179e-06 -4.211543000565143302e-06 7.063926750561222434e-05
2.350000000000000000e+03 1.346357822418212891e+01 4.362901687622070312e+00 -1.339922528131864965e-05 -1.019507635646732524e-05 -7.078290764184202999e-06 8.305841038236394525e-05
2.351000000000000000e+03 1.761450576782226562e+01 4.159107208251953125e+00 -1.923422314575873315e-05 9.339200914837419987e-06 -2.968506578326923773e-06 3.571474735508672893e-05
2.352000000000000000e+03 2.517849349975585938e+01 -4.634487152099609375e+00 -5.396777987480163574e-01 1.294142901897430420e-01 -1.230790540575981140e-01 -8.944473862648010254e-01
2.353000000000000000e+03 2.555760955810546875e+01 -4.110798358917236328e+00 -6.276037096977233887e-01 2.507558465003967285e-01 -1.130543649196624756e-01 -9.594163298606872559e-01
2.354000000000000000e+03 1.122809314727783203e+01 3.842803955078125000e+00 2.468405727995559573e-05 -6.179312185849994421e-05 -1.113272082875482738e-05 7.197147351689636707e-05
2.355000000000000000e+03 1.054473876953125000e+01 4.545349597930908203e+00 4.776208697876427323e-06 -7.919083873275667429e-05 -2.232438782812096179e-05 6.637647311436012387e-05
2.356000000000000000e+03 1.490358924865722656e+01 4.331197261810302734e+00 -3.040016599697992206e-05 1.887019789137411863e-05 -3.458990249782800674e-06 6.597868923563510180e-05
2.357000000000000000e+03 1.418399906158447266e+01 4.342927455902099609e+00 3.007545819855295122e-05 4.181186523055657744e-05 2.156619666493497789e-05 6.903953908476978540e-05
2.358000000000000000e+03 1.202138042449951172e+01 4.442767143249511719e+00 1.835235025282599963e-06 -4.757927672471851110e-05 -1.372321185044711456e-05 8.929859905038028955e-05
2.359000000000000000e+03 1.128764438629150391e+01 4.496126174926757812e+00 7.076734618749469519e-05 -1.822075137170031667e-05 1.576397698954679072e-05 5.505650551640428603e-05
2.360000000000000000e+03 7.303556823730468750e+01 -2.079081916809082031e+01 5.734231672249734402e-04 -8.663198095746338367e-04 -8.786898979451507330e-05 7.149482262320816517e-04
2.361000000000000000e+03 1.179580211639404297e+01 -4.926207542419433594e+00 -2.154987007379531860e-01 -1.628112345933914185e-01 -1.134929805994033813e-01 -8.643177896738052368e-02
2.362000000000000000e+03 1.106812000274658203e+01 -4.870149612426757812e+00 -1.991517841815948486e-01 -1.392912417650222778e-01 -1.015329062938690186e-01 -6.328386813402175903e-02
2.363000000000000000e+03 9.798543930053710938e+00 4.589487552642822266e+00 9.122848132392391562e-05 -4.191340485704131424e-05 1.479452294006478041e-05 3.291086613899096847e-05
2.364000000000000000e+03 9.622871398925781250e+00 -4.118439674377441406e+00 -8.575724065303802490e-02 -6.555180251598358154e-02 -4.539271071553230286e-02 1.215620618313550949e-02
2.365000000000000000e+03 3.986277580261230469e+00 -5.183410644531250000e+00 -4.330409318208694458e-02 1.697758212685585022e-02 -7.897953502833843231e-03 6.569375842809677124e-02
2.366000000000000000e+03 5.242255210876464844e+00 -4.623880386352539062e+00 -3.775253891944885254e-02 -6.980301346629858017e-03 -1.341985259205102921e-02 6.871955096721649170e-02
2.367000000000000000e+03 1.508185005187988281e+01 -4.463307857513427734e+00 -2.604524195194244385e-01 -2.882287800312042236e-01 -1.646043658256530762e-01 -3.132629394531250000e-01
2.368000000000000000e+03 6.110769271850585938e+00 -4.869466304779052734e+00 -7.158507406711578369e-02 -1.987917535006999969e-02 -2.743927575647830963e-02 5.863110348582267761e-02
2.369000000000000000e+03 6.077556133270263672e+00 5.577301979064941406e+00 2.495354692655382678e-06 8.334191988979000598e-06 3.248864004490314983e-06 -9.699700603960081935e-05
2.370000000000000000e+03 8.836649894714355469e+00 -4.161267280578613281e+00 -7.685534656047821045e-02 -5.612771958112716675e-02 -3.989491984248161316e-02 2.724396623671054840e-02
2.371000000000000000e+03 1.041047573089599609e+01 -4.794487953186035156e+00 -1.631457656621932983e-01 -1.049175783991813660e-01 -8.041900396347045898e-02 -2.762944996356964111e-02
2.372000000000000000e+03 5.998802661895751953e+00 4.898439407348632812e+00 2.364812644373159856e-05 -1.439532061340287328e-04 -3.609152554417960346e-05 -3.728004230652004480e-05
2.373000000000000000e+03 4.410653114318847656e+00 5.008040904998779297e+00 -1.412935671396553516e-04 -8.083243301371112466e-05 -6.663780368398874998e-05 1.813853486964944750e-05
2.374000000000000000e+03 8.011347770690917969e+00 -5.006053924560546875e+00 -1.278969496488571167e-01 -5.640187114477157593e-02 -5.528964474797248840e-02 2.566082961857318878e-02
2.375000000000000000e+03 8.876917839050292969e+00 -4.971561908721923828e+00 -1.424594372510910034e-01 -7.545785605907440186e-02 -6.537518650293350220e-02 1.453706342726945877e-02
2.376000000000000000e+03 7.500933170318603516e+00 4.815058231353759766e+00 1.038025311572710052e-05 -1.254245289601385593e-04 -3.451328302617184818e-05 3.071522314712638035e-06
2.377000000000000000e+03 8.207607269287109375e+00 4.020166873931884766e+00 4.157503644819371402e-05 -1.059904243447817862e-04 -1.932461600517854095e-05 1.399255143041955307e-05
2.378000000000000000e+03 5.161301136016845703e+00 -3.944751024246215820e+00 -1.584416069090366364e-02 -2.951130736619234085e-03 -5.638587754219770432e-03 7.924240082502365112e-02
2.379000000000000000e+03 9.041641235351562500e+00 4.651936531066894531e+00 2.649951602506916970e-05 -1.170432224171236157e-04 -2.716311064432375133e-05 2.757383663265500218e-05
2.380000000000000000e+03 8.271399497985839844e+00 4.739103794097900391e+00 7.960250513860955834e-05 -4.381179314805194736e-05 1.073721341526834294e-05 -2.340167702641338110e-05
2.381000000000000000e+03 1.840191650390625000e+01 -4.605496883392333984e+00 -3.644360005855560303e-01 -4.139108955860137939e-01 -2.335040718317031860e-01 -5.886929631233215332e-01
2.382000000000000000e+03 1.915744972229003906e+01 -4.469385147094726562e+00 -3.655104935169219971e-01 -4.251481592655181885e-01 -2.371975928544998169e-01 -6.193909049034118652e-01
2.383000000000000000e+03 9.687613487243652344e+00 -4.897352695465087891e+00 -1.575460135936737061e-01 -9.496989846229553223e-02 -7.575477659702301025e-02 -1.308592036366462708e-02
2.384000000000000000e+03 1.658879470825195312e+01 -3.909551143646240234e+00 -2.818397581577301025e-01 -3.110749423503875732e-01 -1.778744161128997803e-01 -4.318500459194183350e-01
2.385000000000000000e+03 3.523555755615234375e+01 4.615596771240234375e+00 6.353436112403869629e-01 1.169297099113464355e+00 5.413922071456909180e-01 -6.084977388381958008e-01
2.386000000000000000e+03 2.367755889892578125e+01 -6.186711311340332031e+00 -4.544829130172729492e-01 -2.012863755226135254e-01 -1.967307776212692261e-01 -6.890066266059875488e-01
2.387000000000000000e+03 2.322777938842773438e+01 -4.310630798339843750e+00 -4.583801925182342529e-01 -1.586487144231796265e-01 -1.851086765527725220e-01 -6.710649132728576660e-01
2.388000000000000000e+03 1.320030212402343750e+01 -4.826695919036865234e+00 -2.443128377199172974e-01 -2.287690937519073486e-01 -1.419245749711990356e-01 -1.763350665569305420e-01
2.389000000000000000e+03 7.607003784179687500e+01 -1.054957771301269531e+01 -1.666698902845382690e-01 -1.829840242862701416e-01 -1.048961728811264038e-01 -3.465893268585205078e-01
2.390000000000000000e+03 1.759318351745605469e+01 -4.756121635437011719e+00 -3.410548567771911621e-01 -4.087152779102325439e-01 -2.249310314655303955e-01 -5.332192778587341309e-01
2.391000000000000000e+03 7.108366394042968750e+01 -1.152698421478271484e+01 -6.665824055671691895e-01 2.128583192825317383e-01 -1.361172348260879517e-01 -3.105659186840057373e-01
2.392000000000000000e+03 7.431588745117187500e+01 -1.126955795288085938e+01 -3.293076157569885254e-01 -1.907909289002418518e-02 -1.045160144567489624e-01 -3.542892038822174072e-01
2.393000000000000000e+03 1.635717201232910156e+01 -4.600475311279296875e+00 -3.038225769996643066e-01 -3.543877303600311279e-01 -1.974630802869796753e-01 -4.323678910732269287e-01
2.394000000000000000e+03 2.385784149169921875e+01 -3.919974327087402344e+00 -5.043734312057495117e-01 -2.678605541586875916e-02 -1.593478471040725708e-01 -6.695164442062377930e-01
2.395000000000000000e+03 2.472674369812011719e+01 -4.057951450347900391e+00 -5.766897201538085938e-01 1.372489929199218750e-01 -1.318322122097015381e-01 -7.621532082557678223e-01
2.396000000000000000e+03 7.356855773925781250e+01 -1.146321678161621094e+01 -3.671547472476959229e-01 1.619915664196014404e-02 -1.052866727113723755e-01 -3.598017990589141846e-01
2.397000000000000000e+03 4.989232063293457031e+00 -5.960966587066650391e+00 -8.837547898292541504e-02 -1.096489559859037399e-02 -2.980211190879344940e-02 3.986318409442901611e-02
2.398000000000000000e+03 2.439506912231445312e+01 -3.518224239349365234e+00 -5.716890096664428711e-01 1.371235549449920654e-01 -1.303696334362030029e-01 -6.778509616851806641e-01
2.399000000000000000e+03 2.414980888366699219e+01 -3.017673015594482422e+00 -5.504128932952880859e-01 1.038405373692512512e-01 -1.339717060327529907e-01 -5.874831676483154297e-01
2.400000000000000000e+03 5.596548557281494141e+00 6.517363071441650391e+00 -3.755077341338619590e-05 -8.802583761280402541e-05 -3.767298403545282781e-05 -1.918642083182930946e-04
2.401000000000000000e+03 7.030722045898437500e+01 -1.268570232391357422e+01 -7.713418006896972656e-01 2.033406347036361694e-01 -1.704003512859344482e-01 -1.377529948949813843e-01
2.402000000000000000e+03 2.831300354003906250e+01 -6.239584922790527344e+00 1.139590516686439514e-01 1.902512013912200928e-01 9.126307815313339233e-02 -1.306450843811035156e+00
2.403000000000000000e+03 3.775347137451171875e+01 -3.301501035690307617e+00 -2.168107509613037109e+00 6.331456303596496582e-01 -4.604885280132293701e-01 5.444992780685424805e-01
2.404000000000000000e+03 3.132588768005371094e+01 -7.112594604492187500e+00 7.165144085884094238e-01 1.321229696273803711e+00 6.113232374191284180e-01 -1.064727902412414551e+00
2.405000000000000000e+03 2.943926239013671875e+01 -5.308974742889404297e+00 -3.032338917255401611e-01 5.911353230476379395e-01 8.637041598558425903e-02 -1.323254108428955078e+00
2.406000000000000000e+03 3.883999633789062500e+01 1.739901733398437500e+01 -1.964920014142990112e-02 -4.471217989921569824e-01 -1.400312930345535278e-01 1.512383669614791870e-01
2.407000000000000000e+03 2.968608856201171875e+01 -5.744040012359619141e+00 -9.374848753213882446e-02 7.406281828880310059e-01 1.940639019012451172e-01 -1.294183492660522461e+00
2.408000000000000000e+03 1.477638626098632812e+01 -9.664746284484863281e+00 -8.052728772163391113e-01 -7.003601193428039551e-01 -4.516898989677429199e-01 -3.803321719169616699e-01
2.409000000000000000e+03 4.369679927825927734e+00 3.206352233886718750e+01 1.552715897560119629e-03 -7.432535290718078613e-03 -1.763945794664323330e-03 5.143741145730018616e-03
2.410000000000000000e+03 4.046570301055908203e+00 1.825082588195800781e+01 -1.307219499722123146e-03 -5.832608439959585667e-04 -5.671440740115940571e-04 2.662572078406810760e-03
2.411000000000000000e+03 7.620803833007812500e+01 -1.980130386352539062e+01 6.812303035985678434e-05 6.092909025028347969e-04 2.032241900451481342e-04 -1.076750806532800198e-03
2.412000000000000000e+03 6.342617034912109375e+01 5.311092376708984375e+00 1.256196618080139160e+00 4.359255313873291016e+00 1.684635519981384277e+00 1.009900212287902832e+00
2.413000000000000000e+03 6.425275421142578125e+01 6.104387760162353516e+00 1.042892813682556152e+00 4.078931331634521484e+00 1.536547183990478516e+00 7.752674221992492676e-01
2.414000000000000000e+03 3.878762435913085938e+01 -4.524127960205078125e+00 -2.117372035980224609e+00 5.298115611076354980e-01 -4.762681424617767334e-01 2.327518463134765625e-01
2.415000000000000000e+03 3.786645889282226562e+01 1.145882320404052734e+01 -2.632551491260528564e-01 -8.907305002212524414e-01 -3.461956977844238281e-01 -9.489867091178894043e-02
2.416000000000000000e+03 2.159965324401855469e+01 -3.227774620056152344e+00 -3.904842138290405273e-01 -3.778662681579589844e-01 -2.305051535367965698e-01 -6.385706663131713867e-01
2.417000000000000000e+03 2.240134620666503906e+01 -3.705005645751953125e+00 -4.059981107711791992e-01 -2.830308079719543457e-01 -2.067086845636367798e-01 -6.292319297790527344e-01
2.418000000000000000e+03 5.588578224182128906e+00 1.612569999694824219e+01 -2.344047650694847107e-03 2.204448828706517816e-04 -6.370808114297688007e-04 1.167445792816579342e-03
2.419000000000000000e+03 6.915920257568359375e+01 -1.076249885559082031e+01 -9.479251503944396973e-01 2.835924327373504639e-01 -1.992998123168945312e-01 -4.766912758350372314e-01
2.420000000000000000e+03 6.363649368286132812e+01 6.688831329345703125e+00 1.070146203041076660e+00 4.741269588470458984e+00 1.743424773216247559e+00 1.011043071746826172e+00
2.421000000000000000e+03 6.519606781005859375e+01 7.428459167480468750e+00 9.849440455436706543e-01 4.031566619873046875e+00 1.504953265190124512e+00 5.426919460296630859e-01
2.422000000000000000e+03 3.970026016235351562e+01 -1.475762176513671875e+01 1.463523149490356445e+00 1.195455551147460938e+00 7.976936101913452148e-01 -1.196002244949340820e+00
2.423000000000000000e+03 4.239014053344726562e+01 -1.864152526855468750e+01 2.152724027633666992e+00 3.531513690948486328e+00 1.705271363258361816e+00 8.492973446846008301e-01
2.424000000000000000e+03 2.666898727416992188e+01 -4.486881256103515625e+00 -5.396083593368530273e-01 2.202105075120925903e-01 -9.581935405731201172e-02 -1.195540547370910645e+00
2.425000000000000000e+03 1.288803768157958984e+01 -2.237598800659179688e+01 7.030498981475830078e-01 -1.604759506881237030e-02 2.061006873846054077e-01 -6.379463076591491699e-01
2.426000000000000000e+03 4.463447570800781250e+00 1.555299854278564453e+01 -8.920970722101628780e-04 -5.626264828606508672e-05 -2.845078997779637575e-04 1.151242642663419247e-03
2.427000000000000000e+03 3.417154312133789062e+01 -3.805457830429077148e+00 -1.434601426124572754e+00 6.670194864273071289e-01 -2.302746027708053589e-01 -6.661447882652282715e-02
2.428000000000000000e+03 2.600884056091308594e+01 -7.263279914855957031e+00 -1.543720960617065430e-01 -2.377485632896423340e-01 -1.176361963152885437e-01 -7.517402768135070801e-01
2.429000000000000000e+03 1.212377548217773438e+01 -1.024171066284179688e+01 -7.335770726203918457e-01 -4.016239643096923828e-01 -3.405603170394897461e-01 -3.265834450721740723e-01
2.430000000000000000e+03 1.295827102661132812e+01 -1.091806316375732422e+01 -8.629536628723144531e-01 -4.815561473369598389e-01 -4.033529460430145264e-01 -3.616390526294708252e-01
2.431000000000000000e+03 5.306575393676757812e+01 -9.979585647583007812e+00 -3.286116421222686768e-01 1.530175089836120605e+00 3.604690432548522949e-01 2.664381265640258789e+00
2.432000000000000000e+03 5.457179641723632812e+01 -8.514969825744628906e+00 -7.332739830017089844e-01 2.032424926757812500e+00 3.897452950477600098e-01 2.295252084732055664e+00
2.433000000000000000e+03 5.066031932830810547e+00 1.177454853057861328e+01 -4.938820493407547474e-04 -1.784845226211473346e-04 -2.017099614022299647e-04 1.788814406609162688e-04
2.434000000000000000e+03 3.887136697769165039e+00 1.079548931121826172e+01 -3.334922366775572300e-04 -1.011880740406922996e-04 -1.304040924878790975e-04 5.925617733737453818e-05
2.435000000000000000e+03 3.720863723754882812e+01 8.646012306213378906e+00 -3.254008293151855469e-01 -6.077820062637329102e-01 -2.799548506736755371e-01 -4.175137281417846680e-01
2.436000000000000000e+03 4.057125091552734375e+01 1.902480316162109375e+01 -7.684989273548126221e-02 -6.440348625183105469e-01 -2.162654250860214233e-01 1.927680918015539646e-03
2.437000000000000000e+03 4.121472549438476562e+01 1.654866981506347656e+01 -3.037332296371459961e-01 -1.143961429595947266e+00 -4.343083798885345459e-01 -3.427014350891113281e-01
2.438000000000000000e+03 7.494838714599609375e+01 -7.567533016204833984e+00 -1.873068511486053467e-01 -2.827521264553070068e-01 -1.410176903009414673e-01 -6.345140933990478516e-01
2.439000000000000000e+03 7.542961120605468750e+01 6.051700115203857422e+00 2.050610631704330444e-01 -1.306264877319335938e+00 -3.303611278533935547e-01 -3.548160493373870850e-01
2.440000000000000000e+03 7.461265563964843750e+01 3.853148698806762695e+00 2.002113163471221924e-01 -8.613053560256958008e-01 -1.983282119035720825e-01 -5.540377497673034668e-01
2.441000000000000000e+03 5.158560180664062500e+01 -1.091465091705322266e+01 3.460424542427062988e-01 1.334456682205200195e+00 5.041497349739074707e-01 2.826456069946289062e+00
2.442000000000000000e+03 5.193047714233398438e+01 -9.852059364318847656e+00 -2.073296159505844116e-01 1.305208086967468262e+00 3.293635249137878418e-01 2.782997608184814453e+00
2.443000000000000000e+03 4.759190559387207031e+00 8.776213645935058594e+00 -6.750288594048470259e-05 -3.002789526362903416e-06 -2.115170173055958003e-05 -1.834843424148857594e-04
2.444000000000000000e+03 2.249061012268066406e+01 -7.243928909301757812e+00 -5.909883379936218262e-01 -2.692857682704925537e-01 -2.580822408199310303e-01 -6.310164332389831543e-01
2.445000000000000000e+03 4.462031841278076172e+00 -1.347130966186523438e+01 -1.676152795553207397e-01 -2.278013676404953003e-01 -1.186250001192092896e-01 -3.722676634788513184e-01
2.446000000000000000e+03 5.368737220764160156e+00 -1.056960201263427734e+01 -2.285074740648269653e-01 -1.081060394644737244e-01 -1.009840518236160278e-01 -1.974844187498092651e-01
2.447000000000000000e+03 1.233994770050048828e+01 -1.169031620025634766e+01 -8.762699365615844727e-01 -4.573891460895538330e-01 -4.000977277755737305e-01 -4.602871835231781006e-01
2.448000000000000000e+03 1.161112403869628906e+01 -1.245552444458007812e+01 -8.035710453987121582e-01 -3.804132938385009766e-01 -3.551953136920928955e-01 -4.874989986419677734e-01
2.449000000000000000e+03 6.052112579345703125e+00 2.858688545227050781e+01 2.079963684082031250e-03 4.206180456094443798e-04 7.501745130866765976e-04 6.833656691014766693e-03
2.450000000000000000e+03 4.778306007385253906e+00 2.917985153198242188e+01 1.688575837761163712e-03 -5.200529471039772034e-03 -1.053586020134389400e-03 6.552807986736297607e-03
2.451000000000000000e+03 5.333393096923828125e+00 2.346709823608398438e+01 -2.430056221783161163e-03 -5.878300289623439312e-04 -9.053658577613532543e-04 7.233955431729555130e-03
2.452000000000000000e+03 3.756679153442382812e+01 -9.113222122192382812e+00 3.991974890232086182e-01 6.177456974983215332e-01 3.050829470157623291e-01 -9.414218664169311523e-01
2.453000000000000000e+03 3.688258743286132812e+01 1.236205387115478516e+01 -9.210661798715591431e-02 2.548917941749095917e-02 -1.998523063957691193e-02 1.115068346261978149e-01
2.454000000000000000e+03 3.896113967895507812e+01 1.372646141052246094e+01 -1.598577201366424561e-01 -1.217295408248901367e+00 -4.131459295749664307e-01 -1.321133375167846680e-01
2.455000000000000000e+03 3.848947525024414062e+01 1.488054370880126953e+01 -5.443778634071350098e-02 -6.906001567840576172e-01 -2.235113829374313354e-01 7.235840708017349243e-02
2.456000000000000000e+03 6.081862640380859375e+01 9.554715156555175781e-01 1.051204204559326172e+00 3.479188203811645508e+00 1.359117746353149414e+00 1.526722311973571777e+00
2.457000000000000000e+03 6.080423355102539062e+01 -9.725977897644042969e+00 -1.060598969459533691e+00 8.291777372360229492e-01 -6.942636519670486450e-02 6.787449121475219727e-01
2.458000000000000000e+03 7.433788299560546875e+01 1.474721527099609375e+01 2.970430850982666016e-01 -7.266039252281188965e-01 -1.288682520389556885e-01 3.769841194152832031e-01
2.459000000000000000e+03 7.554075622558593750e+01 1.618285179138183594e+01 1.835284531116485596e-01 -1.241496205329895020e+00 -3.173903226852416992e-01 4.340233206748962402e-01
2.460000000000000000e+03 3.867922210693359375e+01 -5.657930374145507812e+00 -1.743455767631530762e+00 6.014323234558105469e-01 -3.426070213317871094e-01 -1.001375913619995117e-01
2.461000000000000000e+03 3.962278747558593750e+01 -4.115767002105712891e+00 -2.525411367416381836e+00 3.567397296428680420e-01 -6.506014466285705566e-01 3.967766761779785156e-01
2.462000000000000000e+03 7.575185394287109375e+01 -2.491055870056152344e+01 -3.242461942136287689e-03 -2.157519804313778877e-03 -1.619994523935019970e-03 2.898656064644455910e-03
2.463000000000000000e+03 7.337467193603515625e+01 -2.585041046142578125e+01 -5.469252821058034897e-03 -1.922726514749228954e-03 -2.217593835666775703e-03 3.923116251826286316e-03
2.464000000000000000e+03 6.600757598876953125e+01 -9.512198448181152344e+00 -1.128566026687622070e+00 1.060961037874221802e-01 -3.067409694194793701e-01 -5.018011927604675293e-01
2.465000000000000000e+03 6.422619628906250000e+01 -9.265887260437011719e+00 -1.060245156288146973e+00 -8.791861683130264282e-02 -3.444491326808929443e-01 -9.090718626976013184e-02
2.466000000000000000e+03 7.490918731689453125e+01 -2.116454315185546875e+01 2.439169329591095448e-04 1.322022289969027042e-04 1.128357471316121519e-04 -8.132240618579089642e-04
2.467000000000000000e+03 7.384961700439453125e+01 -2.072673797607421875e+01 -3.281625395175069571e-04 -7.730388315394520760e-04 -3.303604316897690296e-04 -6.074586417526006699e-04
2.468000000000000000e+03 4.063831329345703125e+01 -2.117998123168945312e+01 1.191477894783020020e+00 2.635418891906738281e+00 1.148069024085998535e+00 1.062261581420898438e+00
2.469000000000000000e+03 7.557211303710937500e+01 -2.182262802124023438e+01 -1.095757470466196537e-03 -1.456719706766307354e-03 -7.657431415282189846e-04 7.347528007812798023e-04
2.470000000000000000e+03 7.315827178955078125e+01 -2.456046867370605469e+01 -5.750484764575958252e-03 4.926903638988733292e-04 -1.577338320203125477e-03 1.594018540345132351e-03
2.471000000000000000e+03 7.547659301757812500e+01 -6.696823239326477051e-02 6.344159692525863647e-02 -9.900486469268798828e-01 -2.779821157455444336e-01 -6.762757301330566406e-01
2.472000000000000000e+03 7.230009460449218750e+01 -1.148471593856811523e+00 1.284469813108444214e-01 -2.461712807416915894e-02 3.114895522594451904e-02 -8.360397219657897949e-01
2.473000000000000000e+03 7.527065277099609375e+01 -2.408194923400878906e+01 -2.671639667823910713e-03 -4.101835074834525585e-04 -9.245469700545072556e-04 1.945245778188109398e-03
2.474000000000000000e+03 7.508185577392578125e+01 -2.316687393188476562e+01 -1.713044708594679832e-03 -1.177024794742465019e-03 -8.670208626426756382e-04 6.441269943024963140e-05
2.475000000000000000e+03 4.378880310058593750e+01 -8.057592391967773438e+00 -1.378896355628967285e+00 3.552240431308746338e-01 -3.071016967296600342e-01 1.422856375575065613e-02
2.476000000000000000e+03 5.642641067504882812e+00 8.559760093688964844e+00 -2.537657201173715293e-05 -1.986329152714461088e-04 -6.720284727634862065e-05 6.304318230831995606e-05
2.477000000000000000e+03 4.414563655853271484e+00 8.048028945922851562e+00 2.043336426140740514e-04 -1.171960320789366961e-04 2.614128243294544518e-05 5.054171560914255679e-05
2.478000000000000000e+03 3.584867477416992188e+01 5.978349208831787109e+00 2.047371715307235718e-01 7.356274724006652832e-01 2.821093797683715820e-01 -8.051778674125671387e-01
2.479000000000000000e+03 7.430618286132812500e+01 2.317060977220535278e-01 1.109826937317848206e-01 -6.302563548088073730e-01 -1.557820886373519897e-01 -7.468131780624389648e-01
2.480000000000000000e+03 7.612516784667968750e+01 -3.284085083007812500e+01 -2.388761611655354500e-03 -1.157953403890132904e-02 -4.190488718450069427e-03 1.329099759459495544e-02
2.481000000000000000e+03 1.036985301971435547e+01 -1.979865646362304688e+01 1.605427861213684082e-01 -4.310036301612854004e-01 -8.113825321197509766e-02 -8.849784731864929199e-01
2.482000000000000000e+03 4.002629756927490234e+00 2.085644149780273438e+01 -1.432730932720005512e-03 -1.637511653825640678e-03 -9.210727876052260399e-04 4.671678412705659866e-03
2.483000000000000000e+03 5.068740844726562500e+00 2.092195701599121094e+01 -3.218203084543347359e-03 -1.489018031861633062e-04 -1.010131440125405788e-03 5.058170296251773834e-03
2.484000000000000000e+03 4.660175323486328125e+01 -1.004320240020751953e+01 -2.220204174518585205e-01 1.233055114746093750e+00 3.033104240894317627e-01 1.096856713294982910e+00
2.485000000000000000e+03 4.775886154174804688e+01 -1.056300735473632812e+01 2.091979980468750000e-01 1.518387079238891602e+00 5.182755589485168457e-01 1.756739258766174316e+00
2.486000000000000000e+03 6.568741607666015625e+01 1.203198337554931641e+01 7.905880808830261230e-01 4.297551631927490234e+00 1.526441931724548340e+00 3.991218805313110352e-01
2.487000000000000000e+03 6.699351501464843750e+01 -2.952038764953613281e+01 -4.314414411783218384e-02 8.138675242662429810e-03 -1.050163991749286652e-02 1.531436946243047714e-02
2.488000000000000000e+03 5.842313003540039062e+01 -7.985117435455322266e+00 -5.512095689773559570e-01 1.681824564933776855e+00 3.391845226287841797e-01 1.286610960960388184e+00
2.489000000000000000e+03 5.606862640380859375e+01 -5.220259666442871094e+00 -7.044899463653564453e-02 2.622869014739990234e+00 7.657259702682495117e-01 1.640630364418029785e+00
2.490000000000000000e+03 5.521490859985351562e+01 -1.239678859710693359e+01 3.642670810222625732e-01 6.819432973861694336e-01 3.138631284236907959e-01 1.561053276062011719e+00
2.491000000000000000e+03 5.721841812133789062e+01 -1.091774463653564453e+01 -5.122703313827514648e-01 1.056948423385620117e+00 1.634034365415573120e-01 1.254760980606079102e+00
2.492000000000000000e+03 7.511033630371093750e+01 -9.562703132629394531e+00 -2.312671095132827759e-01 -1.692055016756057739e-01 -1.201417818665504456e-01 -4.805160760879516602e-01
2.493000000000000000e+03 7.610912322998046875e+01 -8.523290634155273438e+00 -1.415966302156448364e-01 -3.304755985736846924e-01 -1.416216641664505005e-01 -4.805374741554260254e-01
2.494000000000000000e+03 5.368766307830810547e+00 1.281092071533203125e+01 -6.385822780430316925e-04 -1.439972256775945425e-04 -2.347738482058048248e-04 1.541898964205756783e-04
2.495000000000000000e+03 5.432785415649414062e+01 2.693286895751953125e+01 -6.171726062893867493e-02 2.059617787599563599e-01 4.327335581183433533e-02 -6.247527599334716797e-01
2.496000000000000000e+03 5.204272460937500000e+01 2.552299690246582031e+01 -1.047349944710731506e-01 -1.668064445257186890e-01 -8.146242797374725342e-02 -4.513054490089416504e-01
2.497000000000000000e+03 7.347184753417968750e+01 2.006723594665527344e+01 1.785167753696441650e-01 -9.181985259056091309e-02 2.600907906889915466e-02 7.762130498886108398e-01
2.498000000000000000e+03 5.740320968627929688e+01 -8.074653625488281250e+00 -5.809754729270935059e-01 1.739133119583129883e+00 3.474473059177398682e-01 1.498852968215942383e+00
2.499000000000000000e+03 5.737380218505859375e+01 -9.040045738220214844e+00 -6.040974259376525879e-01 1.614652514457702637e+00 3.031665086746215820e-01 1.499345660209655762e+00
2.500000000000000000e+03 5.702933788299560547e+00 2.974346160888671875e+01 2.506800461560487747e-03 -6.176583701744675636e-04 5.667426157742738724e-04 6.757192313671112061e-03
2.501000000000000000e+03 2.155685043334960938e+01 -6.014420986175537109e+00 -4.742014110088348389e-01 -3.676457703113555908e-01 -2.525541484355926514e-01 -6.718249320983886719e-01
2.502000000000000000e+03 5.537254333496093750e+00 -1.631505203247070312e+01 -1.255885809659957886e-01 -4.210506677627563477e-01 -1.639917790889739990e-01 -6.009717583656311035e-01
2.503000000000000000e+03 5.746347904205322266e+00 -1.371293735504150391e+01 -2.517158389091491699e-01 -2.381774336099624634e-01 -1.469679772853851318e-01 -4.485684335231781006e-01
2.504000000000000000e+03 4.890939712524414062e+01 -1.120811176300048828e+01 6.520181298255920410e-01 1.668841242790222168e+00 6.962578296661376953e-01 2.293236255645751953e+00
2.505000000000000000e+03 4.974938583374023438e+01 -9.058403015136718750e+00 -7.234730124473571777e-01 8.834329247474670410e-01 4.798797145485877991e-02 2.474662780761718750e+00
2.506000000000000000e+03 3.980329513549804688e+01 -1.727985382080078125e+01 1.502064943313598633e+00 1.628593921661376953e+00 9.391976594924926758e-01 -2.616503238677978516e-01
2.507000000000000000e+03 4.016855621337890625e+01 -1.564371299743652344e+01 1.707443594932556152e+00 1.525861144065856934e+00 9.699914455413818359e-01 -7.552069425582885742e-01
2.508000000000000000e+03 4.404065704345703125e+01 2.117379379272460938e+01 -2.477524578571319580e-01 -6.399123668670654297e-01 -2.662994563579559326e-01 -1.792947649955749512e-01
2.509000000000000000e+03 4.354370880126953125e+01 -1.432753753662109375e+01 2.008159399032592773e+00 2.705376863479614258e+00 1.414060950279235840e+00 -1.726741790771484375e-01
2.510000000000000000e+03 7.503008270263671875e+01 8.147159576416015625e+00 2.365155369043350220e-01 -1.173067808151245117e+00 -2.809656858444213867e-01 -2.176832556724548340e-01
2.511000000000000000e+03 5.221884727478027344e+00 -2.836169433593750000e+01 1.412122845649719238e-01 -1.144102931022644043e+00 -3.008671998977661133e-01 -2.476772516965866089e-01
2.512000000000000000e+03 5.373881912231445312e+01 -1.175681972503662109e+01 4.436012208461761475e-01 1.083546876907348633e+00 4.581444263458251953e-01 2.311803340911865234e+00
2.513000000000000000e+03 6.044458007812500000e+01 -3.632096290588378906e+00 3.965706229209899902e-01 2.078262329101562500e+00 7.424498796463012695e-01 9.164215326309204102e-01
2.514000000000000000e+03 6.967558288574218750e+01 -2.359278488159179688e+01 -4.892337601631879807e-03 3.057720139622688293e-03 -5.503851571120321751e-04 -2.463401528075337410e-03
2.515000000000000000e+03 7.437685394287109375e+01 2.717006111145019531e+01 -1.291523575782775879e-01 5.574460141360759735e-03 -3.707337006926536560e-02 7.155121564865112305e-01
2.516000000000000000e+03 4.841486740112304688e+01 -1.237127494812011719e+01 1.730762243270874023e+00 2.249371528625488281e+00 1.194040179252624512e+00 2.226057767868041992e+00
2.517000000000000000e+03 6.785935211181640625e+01 1.641046524047851562e+01 8.032318949699401855e-01 2.548492431640625000e+00 1.005517244338989258e+00 4.637225866317749023e-01
2.518000000000000000e+03 6.808606719970703125e+01 1.870292663574218750e+01 6.099409461021423340e-01 2.249263763427734375e+00 8.577614426612854004e-01 6.543422937393188477e-01
2.519000000000000000e+03 3.952604293823242188e+01 -7.134351730346679688e+00 -1.075211524963378906e+00 4.601205289363861084e-01 -1.845272928476333618e-01 -4.879837036132812500e-01
2.520000000000000000e+03 1.709037780761718750e+01 -9.184778213500976562e+00 -8.007604479789733887e-01 -7.858430147171020508e-01 -4.759810268878936768e-01 -6.378887295722961426e-01
2.521000000000000000e+03 9.856772422790527344e+00 -1.652396965026855469e+01 -3.448007106781005859e-01 -3.544373512268066406e-01 -2.097714245319366455e-01 -8.454049229621887207e-01
2.522000000000000000e+03 1.163041114807128906e+01 -1.701443099975585938e+01 -3.419917523860931396e-01 -3.685611486434936523e-01 -2.131658643484115601e-01 -9.065818190574645996e-01
2.523000000000000000e+03 4.144330596923828125e+01 2.028643798828125000e+01 -1.107464730739593506e-01 -5.873135328292846680e-01 -2.094179987907409668e-01 -1.186686288565397263e-02
2.524000000000000000e+03 3.652712249755859375e+01 -3.139340782165527344e+01 4.691414833068847656e-01 1.501217842102050781e+00 5.911077857017517090e-01 7.325152754783630371e-01
2.525000000000000000e+03 7.411752319335937500e+01 1.098769474029541016e+01 3.460117280483245850e-01 -7.244322299957275391e-01 -1.135261431336402893e-01 2.664519101381301880e-02
2.526000000000000000e+03 7.184457397460937500e+01 -2.465547370910644531e+01 -5.465924274176359177e-03 -3.427728952374309301e-04 -1.742609078064560890e-03 1.088851131498813629e-03
2.527000000000000000e+03 7.009214782714843750e+01 -2.270511627197265625e+01 -4.262735135853290558e-03 -1.348622492514550686e-03 -1.683407230302691460e-03 9.123926283791661263e-04
2.528000000000000000e+03 1.671962165832519531e+01 -3.227482223510742188e+01 4.626724123954772949e-01 4.041525423526763916e-01 2.600474953651428223e-01 -2.767965197563171387e-01
2.529000000000000000e+03 2.338281822204589844e+01 -3.515311050415039062e+01 5.391799807548522949e-01 7.423697710037231445e-01 3.844649195671081543e-01 -1.681681424379348755e-01
2.530000000000000000e+03 4.125616836547851562e+01 -2.642961883544921875e+01 5.029980540275573730e-01 2.803078889846801758e+00 9.918230772018432617e-01 1.050014019012451172e+00
2.531000000000000000e+03 7.578224182128906250e+01 3.811746597290039062e+00 1.425840556621551514e-01 -1.386516213417053223e+00 -3.731796443462371826e-01 -4.977695643901824951e-01
2.532000000000000000e+03 7.559593200683593750e+01 1.353322792053222656e+01 2.050838917493820190e-01 -1.399866819381713867e+00 -3.584348857402801514e-01 2.354372739791870117e-01
2.533000000000000000e+03 6.011259078979492188e+00 -2.257498931884765625e+01 1.755128353834152222e-01 -8.351002335548400879e-01 -1.978762298822402954e-01 -5.812472105026245117e-01
2.534000000000000000e+03 5.974930572509765625e+01 -4.687117576599121094e+00 1.666691750288009644e-01 2.050132274627685547e+00 6.650404334068298340e-01 1.016609191894531250e+00
2.535000000000000000e+03 6.669396972656250000e+01 2.017879867553710938e+01 5.032495260238647461e-01 2.793567180633544922e+00 9.890449643135070801e-01 6.310867071151733398e-01
2.536000000000000000e+03 6.468392944335937500e+01 2.139890670776367188e+01 3.345892429351806641e-01 3.364758014678955078e+00 1.109804153442382812e+00 2.916963100433349609e-01
2.537000000000000000e+03 6.819203948974609375e+01 -3.293410491943359375e+01 -1.998905651271343231e-02 2.036159159615635872e-03 -5.385869182646274567e-03 3.424396738409996033e-02
2.538000000000000000e+03 4.151622009277343750e+01 1.919407081604003906e+01 -1.456864476203918457e-01 -7.204839587211608887e-01 -2.598511278629302979e-01 -6.097304821014404297e-02
2.539000000000000000e+03 7.511277770996093750e+01 -2.826885223388671875e+01 -6.842329632490873337e-03 -1.923852483741939068e-03 -2.629854716360569000e-03 7.189266849309206009e-03
2.540000000000000000e+03 7.328964233398437500e+01 -3.000579833984375000e+01 -1.160185132175683975e-02 -1.275110291317105293e-03 -3.863088553771376610e-03 1.432428136467933655e-02
2.541000000000000000e+03 4.729872512817382812e+01 -1.169829177856445312e+01 9.248084425926208496e-01 2.217474699020385742e+00 9.426849484443664551e-01 1.538827896118164062e+00
2.542000000000000000e+03 4.576207351684570312e+01 -1.202042293548583984e+01 1.075846791267395020e+00 2.295966863632202148e+00 1.011544108390808105e+00 7.754700183868408203e-01
2.543000000000000000e+03 7.289440917968750000e+01 -4.096278846263885498e-01 1.402318179607391357e-01 -2.298165261745452881e-01 -2.687541209161281586e-02 -8.070905804634094238e-01
2.544000000000000000e+03 1.122038364410400391e+01 -2.557866096496582031e+01 5.262857079505920410e-01 -2.533757090568542480e-01 8.187300711870193481e-02 -4.482452869415283203e-01
2.545000000000000000e+03 1.277470970153808594e+01 -2.538660812377929688e+01 6.230620145797729492e-01 1.581848785281181335e-02 1.916641592979431152e-01 -4.874638020992279053e-01
2.546000000000000000e+03 6.740662384033203125e+01 1.397454071044921875e+01 8.464489579200744629e-01 3.127958536148071289e+00 1.192322254180908203e+00 2.973768413066864014e-01
2.547000000000000000e+03 6.643787384033203125e+01 1.486301994323730469e+01 8.514063954353332520e-01 3.702269792556762695e+00 1.366102814674377441e+00 2.178575694561004639e-01
2.548000000000000000e+03 3.220438385009765625e+01 -2.463604450225830078e+00 -1.811373710632324219e+00 2.726970613002777100e-01 -4.616029858589172363e-01 -3.740092813968658447e-01
2.549000000000000000e+03 3.287440872192382812e+01 -2.333456754684448242e+00 -1.911694407463073730e+00 3.030543923377990723e-01 -4.825920164585113525e-01 -2.193829268217086792e-01
2.550000000000000000e+03 2.960296058654785156e+01 -2.354069232940673828e+00 -1.490916371345520020e+00 1.154647171497344971e-01 -4.126355051994323730e-01 -8.606370687484741211e-01
2.551000000000000000e+03 2.972067260742187500e+01 -2.590476274490356445e+00 -1.408225774765014648e+00 1.592525392770767212e-01 -3.746919631958007812e-01 -8.861525654792785645e-01
2.552000000000000000e+03 3.011901092529296875e+01 -2.498058795928955078e+00 -1.523331403732299805e+00 1.648819744586944580e-01 -4.075348079204559326e-01 -7.944923043251037598e-01
2.553000000000000000e+03 3.011947059631347656e+01 -3.216261625289916992e+00 -1.220887899398803711e+00 3.049626946449279785e-01 -2.747775614261627197e-01 -9.172801375389099121e-01
2.554000000000000000e+03 3.083385086059570312e+01 -2.391901016235351562e+00 -1.692803144454956055e+00 1.847720891237258911e-01 -4.524092972278594971e-01 -6.452500224113464355e-01
2.555000000000000000e+03 2.647215843200683594e+01 -3.252361297607421875e+00 -8.220456838607788086e-01 4.746738076210021973e-01 -1.042115539312362671e-01 -1.151618599891662598e+00
2.556000000000000000e+03 3.154080581665039062e+01 -2.365891933441162109e+00 -1.784876108169555664e+00 2.349809557199478149e-01 -4.649685323238372803e-01 -5.005275607109069824e-01
2.557000000000000000e+03 3.425585174560546875e+01 -2.438299655914306641e+00 -1.908176898956298828e+00 3.891969323158264160e-01 -4.556939899921417236e-01 4.270864278078079224e-02
2.558000000000000000e+03 1.458339405059814453e+01 1.032787322998046875e+01 -1.344700867775827646e-04 2.091842761728912592e-04 2.241425318061374128e-05 6.090880924602970481e-05
2.559000000000000000e+03 3.149326896667480469e+01 1.894919013977050781e+01 2.841491401195526123e-01 1.620544314384460449e+00 5.714080333709716797e-01 -4.193386435508728027e-01
2.560000000000000000e+03 1.750192832946777344e+01 6.802052497863769531e+00 6.302255496848374605e-05 9.053419489646330476e-05 4.606702350429259241e-05 2.272925667057279497e-05
2.561000000000000000e+03 3.576292419433593750e+01 6.810965538024902344e+00 6.434483081102371216e-02 1.108993411064147949e+00 3.520014584064483643e-01 -7.151419520378112793e-01
2.562000000000000000e+03 1.792932319641113281e+01 7.048908233642578125e+00 -7.518150232499465346e-05 3.018816096300724894e-05 -1.349800277239410207e-05 -5.933089050813578069e-05
2.563000000000000000e+03 1.597216892242431641e+01 8.684877395629882812e+00 5.503310603671707213e-05 2.414161426713690162e-04 8.893477206584066153e-05 3.776992161874659359e-05
2.564000000000000000e+03 1.944117164611816406e+01 2.415950584411621094e+01 2.572842501103878021e-02 7.774809375405311584e-03 1.005097012966871262e-02 -3.210894390940666199e-02
2.565000000000000000e+03 1.338362789154052734e+01 1.657268524169921875e+01 -1.502344966866075993e-03 -1.562128076329827309e-03 -9.193419246003031731e-04 -2.134530339390039444e-03
2.566000000000000000e+03 3.383169937133789062e+01 1.341732978820800781e+01 1.046070829033851624e-01 2.447875976562500000e+00 7.657448649406433105e-01 -1.836335957050323486e-01
2.567000000000000000e+03 3.376518249511718750e+01 1.068644714355468750e+01 6.690459698438644409e-02 3.442530632019042969e+00 1.052830576896667480e+00 -4.075739979743957520e-01
2.568000000000000000e+03 1.275980472564697266e+01 1.704608917236328125e+01 -3.035778645426034927e-03 -1.360271708108484745e-03 -1.318815164268016815e-03 -3.012688597664237022e-03
2.569000000000000000e+03 1.228779125213623047e+01 1.730802345275878906e+01 -4.383229184895753860e-03 -3.235243784729391336e-04 -1.412026002071797848e-03 -3.369280602782964706e-03
2.570000000000000000e+03 3.291923141479492188e+01 1.629196166992187500e+01 1.406833082437515259e-01 2.032521963119506836e+00 6.519615650177001953e-01 -2.971658408641815186e-01
2.571000000000000000e+03 3.605562210083007812e+01 -2.648641824722290039e+00 -1.953320145606994629e+00 5.511648654937744141e-01 -4.206465780735015869e-01 3.809874355792999268e-01
2.572000000000000000e+03 1.835661315917968750e+01 5.267340660095214844e+00 -1.532131477688380983e-06 8.659187733428552747e-05 2.551792385929729789e-05 3.322381962789222598e-05
2.573000000000000000e+03 1.480678939819335938e+01 9.396118164062500000e+00 -1.494210591772571206e-04 1.764064072631299496e-04 8.095604243862908334e-06 8.050344331422820687e-05
2.574000000000000000e+03 3.441695785522460938e+01 9.982992172241210938e+00 6.029831990599632263e-02 2.882796049118041992e+00 8.829283118247985840e-01 -3.132171928882598877e-01
2.575000000000000000e+03 3.347541427612304688e+01 1.442726707458496094e+01 1.112060919404029846e-01 2.387623310089111328e+00 7.496488094329833984e-01 -2.338331192731857300e-01
2.576000000000000000e+03 1.538610458374023438e+01 8.844249725341796875e+00 4.261414142092689872e-05 2.488724712748080492e-04 8.744598744669929147e-05 5.198291182750836015e-05
2.577000000000000000e+03 3.405918502807617188e+01 1.038188362121582031e+01 3.905238583683967590e-02 3.234281539916992188e+00 9.820001721382141113e-01 -3.548860847949981689e-01
2.578000000000000000e+03 3.481584930419921875e+01 9.596172332763671875e+00 2.747417241334915161e-02 2.462877988815307617e+00 7.471056580543518066e-01 -2.899752855300903320e-01
2.579000000000000000e+03 3.308646011352539062e+01 1.521149158477783203e+01 1.134835481643676758e-01 2.317052841186523438e+00 7.291609048843383789e-01 -3.225147724151611328e-01
2.580000000000000000e+03 1.338984584808349609e+01 1.406797695159912109e+01 -1.496950426371768117e-04 -1.987077121157199144e-04 -1.045208264258690178e-04 -2.457744849380105734e-04
2.581000000000000000e+03 1.285163307189941406e+01 1.271951675415039062e+01 -9.099204180529341102e-05 -1.558370568091049790e-04 -7.404873031191527843e-05 -1.423576613888144493e-04
2.582000000000000000e+03 3.339696884155273438e+01 1.264448261260986328e+01 1.713923662900924683e-01 3.093429803848266602e+00 9.794466495513916016e-01 -4.169393181800842285e-01
2.583000000000000000e+03 1.331256389617919922e+01 1.551449680328369141e+01 -6.649177521467208862e-04 -8.265614742413163185e-04 -4.474437737371772528e-04 -9.008196648210287094e-04
2.584000000000000000e+03 3.151011657714843750e+01 2.098331451416015625e+01 1.459058672189712524e-01 1.177953600883483887e+00 3.971578180789947510e-01 -1.602754741907119751e-01
2.585000000000000000e+03 2.770705986022949219e+01 2.237493515014648438e+01 2.880955934524536133e-01 4.338007867336273193e-01 2.165689170360565186e-01 -3.689813315868377686e-01
2.586000000000000000e+03 1.900215530395507812e+01 5.439021587371826172e+00 1.378571710120013449e-06 9.054785914486274123e-05 2.757792935881298035e-05 1.488493762735743076e-05
2.587000000000000000e+03 1.743478202819824219e+01 7.705863952636718750e+00 -7.667036697966977954e-05 5.999665518174879253e-05 -5.002113084628945217e-06 -6.900161679368466139e-05
2.588000000000000000e+03 3.335552215576171875e+01 1.348012733459472656e+01 1.540953367948532104e-01 2.745673656463623047e+00 8.699306845664978027e-01 -3.269563913345336914e-01
2.589000000000000000e+03 2.048497962951660156e+01 2.444053459167480469e+01 4.526154696941375732e-02 2.009103447198867798e-02 1.960577443242073059e-02 -5.137298628687858582e-02
2.590000000000000000e+03 3.213518905639648438e+01 1.768253135681152344e+01 2.450457513332366943e-01 1.852072834968566895e+00 6.291355490684509277e-01 -3.972821533679962158e-01
2.591000000000000000e+03 2.576737213134765625e+01 2.450701332092285156e+01 1.188854128122329712e-01 2.435224652290344238e-01 1.087223663926124573e-01 -2.236032038927078247e-01
2.592000000000000000e+03 1.794293975830078125e+01 5.411601066589355469e+00 -1.006064394459826872e-05 1.689475175226107240e-05 2.050232069450430572e-06 -2.515526284696534276e-05
2.593000000000000000e+03 3.549313354492187500e+01 7.588307857513427734e+00 6.355337798595428467e-02 1.573444008827209473e+00 4.910992085933685303e-01 -5.504887700080871582e-01
2.594000000000000000e+03 3.478005981445312500e+01 7.365763187408447266e+00 1.502429395914077759e-01 2.629124879837036133e+00 8.338103294372558594e-01 -5.086985230445861816e-01
2.595000000000000000e+03 1.321184158325195312e+01 1.367168712615966797e+01 -8.313157741213217378e-05 -1.445104426238685846e-04 -6.829261110397055745e-05 -2.755905443336814642e-04
2.596000000000000000e+03 3.566223907470703125e+01 8.129042625427246094e+00 -4.619500041007995605e-02 1.371017932891845703e+00 3.974468708038330078e-01 -4.604163169860839844e-01
2.597000000000000000e+03 1.552639293670654297e+01 8.460275650024414062e+00 -1.688987540546804667e-04 1.418361061951145530e-04 -8.118795449263416231e-06 2.317521284567192197e-05
2.598000000000000000e+03 3.163691139221191406e+01 1.786064720153808594e+01 3.135405778884887695e-01 1.925096392631530762e+00 6.715911030769348145e-01 -5.164982676506042480e-01
2.599000000000000000e+03 1.636401557922363281e+01 2.340658569335937500e+01 -6.679303012788295746e-03 2.368943569308612496e-05 -1.996684120967984200e-03 -4.386950284242630005e-03
2.600000000000000000e+03 3.571498107910156250e+01 8.722354888916015625e+00 -4.880336672067642212e-02 1.315128922462463379e+00 3.798976540565490723e-01 -3.201095759868621826e-01
2.601000000000000000e+03 3.507212829589843750e+01 9.195011138916015625e+00 2.601440250873565674e-02 2.142237186431884766e+00 6.504755020141601562e-01 -2.591372430324554443e-01
2.602000000000000000e+03 1.772372817993164062e+01 2.358531570434570312e+01 -4.532786842901259661e-04 -1.209810259751975536e-03 -4.989266744814813137e-04 -1.244956534355878830e-02
2.603000000000000000e+03 1.877054214477539062e+01 2.327934265136718750e+01 -1.144431997090578079e-03 -1.472512376494705677e-03 -7.850832771509885788e-04 -1.767557486891746521e-02
2.604000000000000000e+03 1.993555259704589844e+01 4.668297767639160156e+00 4.457471004570834339e-05 4.821367838303558528e-05 2.783651689242105931e-05 7.397616741400270257e-07
2.605000000000000000e+03 1.373911190032958984e+01 2.138347053527832031e+01 -1.959917508065700531e-02 4.178198520094156265e-03 -4.626293200999498367e-03 -5.823082756251096725e-04
2.606000000000000000e+03 1.377927303314208984e+01 1.399111557006835938e+01 2.600044826976954937e-04 6.130978727014735341e-05 9.639428026275709271e-05 -1.429148105671629310e-04
2.607000000000000000e+03 1.271509265899658203e+01 1.385408306121826172e+01 -3.501570608932524920e-04 -3.984349896200001240e-04 -2.245776122435927391e-04 -3.389618068467825651e-04
2.608000000000000000e+03 1.332464027404785156e+01 1.917970848083496094e+01 -1.175952795892953873e-02 -4.108611610718071461e-04 -3.651116741821169853e-03 -6.987052503973245621e-03
2.609000000000000000e+03 1.297131443023681641e+01 1.872177314758300781e+01 -9.011963382363319397e-03 -2.877252409234642982e-04 -2.789906691759824753e-03 -5.446107592433691025e-03
2.610000000000000000e+03 3.592783737182617188e+01 5.473883628845214844e+00 3.932681083679199219e-01 5.590507984161376953e-01 2.856956720352172852e-01 -8.383582830429077148e-01
2.611000000000000000e+03 2.157759475708007812e+01 2.394983482360839844e+01 5.915686488151550293e-02 2.502417750656604767e-02 2.525431290268898010e-02 -6.280115991830825806e-02
2.612000000000000000e+03 1.291061782836914062e+01 1.746107292175292969e+01 -3.416733350604772568e-03 -1.498036901466548443e-03 -1.474431133829057217e-03 -3.972913604229688644e-03
2.613000000000000000e+03 1.405868911743164062e+01 2.108102226257324219e+01 -2.137107774615287781e-02 2.041806466877460480e-03 -5.798781756311655045e-03 -3.809241810813546181e-03
2.614000000000000000e+03 1.445929622650146484e+01 1.080427360534667969e+01 4.611871918314136565e-05 2.377673808950930834e-04 8.516582602169364691e-05 8.507086931786034256e-06
2.615000000000000000e+03 1.433992576599121094e+01 1.019640159606933594e+01 5.315513044479303062e-05 2.438195224385708570e-04 8.909239841159433126e-05 3.220867802156135440e-05
2.616000000000000000e+03 2.782013702392578125e+01 -4.325964450836181641e+00 -5.672311186790466309e-01 2.781974971294403076e-01 -8.671009540557861328e-02 -1.310337662696838379e+00
2.617000000000000000e+03 2.101894760131835938e+01 2.453900909423828125e+01 5.463037267327308655e-02 2.847057394683361053e-02 2.493028342723846436e-02 -6.287947297096252441e-02
2.618000000000000000e+03 1.605259132385253906e+01 2.290137672424316406e+01 -1.576264016330242157e-02 -2.191620646044611931e-03 -5.386278033256530762e-03 -2.142198616638779640e-03
2.619000000000000000e+03 1.479345607757568359e+01 2.314898109436035156e+01 -9.139057248830795288e-03 3.799489000812172890e-03 -1.601870404556393623e-03 1.861837459728121758e-03
2.620000000000000000e+03 2.992459106445312500e+01 2.368849182128906250e+01 -4.989074077457189560e-03 7.822452187538146973e-01 2.331768423318862915e-01 -1.870801150798797607e-01
2.621000000000000000e+03 2.260663223266601562e+01 2.460317420959472656e+01 8.323273062705993652e-02 6.814083456993103027e-02 4.541206732392311096e-02 -1.039089113473892212e-01
2.622000000000000000e+03 2.207682418823242188e+01 2.460292625427246094e+01 7.295531034469604492e-02 5.302605032920837402e-02 3.779440745711326599e-02 -8.889536559581756592e-02
2.623000000000000000e+03 2.998937416076660156e+01 2.116232872009277344e+01 3.112332522869110107e-01 1.101629614830017090e+00 4.238588511943817139e-01 -3.781412839889526367e-01
2.624000000000000000e+03 3.068814086914062500e+01 2.306139945983886719e+01 -1.006371574476361275e-03 9.055993556976318359e-01 2.713778913021087646e-01 -1.416228413581848145e-01
2.625000000000000000e+03 1.322170734405517578e+01 1.203941059112548828e+01 -5.319200136000290513e-05 -9.955482710211072117e-06 -1.894424531201366335e-05 -6.277750071603804827e-05
2.626000000000000000e+03 1.380070114135742188e+01 1.184260177612304688e+01 -4.580771565088070929e-05 2.353375602979212999e-04 5.685895666829310358e-05 1.408877433277666569e-04
2.627000000000000000e+03 1.696527099609375000e+01 2.310901069641113281e+01 -1.322991121560335159e-02 -3.542706603184342384e-03 -5.031785462051630020e-03 -6.576032377779483795e-03
2.628000000000000000e+03 1.546078395843505859e+01 2.431159400939941406e+01 1.442014705389738083e-03 6.582231260836124420e-03 2.407273743301630020e-03 -1.697046100161969662e-03
2.629000000000000000e+03 3.818332290649414062e+01 -2.637632131576538086e+00 -2.219959735870361328e+00 5.404679775238037109e-01 -5.038475394248962402e-01 6.224157810211181641e-01
2.630000000000000000e+03 1.712184333801269531e+01 6.297883033752441406e+00 2.704764483496546745e-05 8.805649849819019437e-05 3.453124372754245996e-05 7.111175364116206765e-06
2.631000000000000000e+03 3.045160293579101562e+01 2.150843620300292969e+01 1.880907267332077026e-01 1.072997450828552246e+00 3.783264458179473877e-01 -2.688612341880798340e-01
2.632000000000000000e+03 3.066748809814453125e+01 2.234697151184082031e+01 6.425609439611434937e-02 9.824784994125366211e-01 3.140203654766082764e-01 -1.789980679750442505e-01
2.633000000000000000e+03 2.762533569335937500e+01 2.292246437072753906e+01 2.182615697383880615e-01 4.409364163875579834e-01 1.977593898773193359e-01 -3.394564688205718994e-01
2.634000000000000000e+03 2.818042945861816406e+01 2.310741233825683594e+01 1.607733517885208130e-01 5.666205286979675293e-01 2.182181626558303833e-01 -3.379293084144592285e-01
2.635000000000000000e+03 1.401751136779785156e+01 2.059802627563476562e+01 -2.118249982595443726e-02 4.911375581286847591e-04 -6.207408849149942398e-03 -5.878088530153036118e-03
2.636000000000000000e+03 1.347926425933837891e+01 2.052322387695312500e+01 -1.847985573112964630e-02 3.129588905721902847e-03 -4.605080001056194305e-03 -4.230150487273931503e-03
2.637000000000000000e+03 1.873999595642089844e+01 5.041342735290527344e+00 -2.211504943261388689e-05 -3.847550760838203132e-05 -1.817716656660195440e-05 -2.389334804320242256e-05
2.638000000000000000e+03 1.767262077331542969e+01 4.587872028350830078e+00 -1.545242980682814959e-06 3.925865894416347146e-05 1.131402405007975176e-05 -2.503268842701800168e-05
2.639000000000000000e+03 1.810179138183593750e+01 4.580791950225830078e+00 -3.735298378160223365e-05 1.792950570234097540e-05 -5.827044333273079246e-06 4.017124956590123475e-05
2.640000000000000000e+03 3.636612319946289062e+01 -3.429844856262207031e+00 -1.858733773231506348e+00 6.659325957298278809e-01 -3.578403592109680176e-01 3.368819653987884521e-01
2.641000000000000000e+03 1.637065505981445312e+01 4.905652523040771484e+00 2.471154584782198071e-05 6.102815677877515554e-05 2.572191078797914088e-05 2.709311229409649968e-05
2.642000000000000000e+03 1.698406791687011719e+01 6.955730438232421875e+00 5.392125240177847445e-05 1.103746762964874506e-04 4.928877751808613539e-05 2.513000254111830145e-05
2.643000000000000000e+03 1.578780364990234375e+01 2.378555297851562500e+01 -3.657973138615489006e-03 3.011544700711965561e-03 -1.939285430125892162e-04 -1.529115834273397923e-03
2.644000000000000000e+03 2.053042221069335938e+01 4.169766902923583984e+00 3.360304981470108032e-05 -1.929355448737624101e-06 9.502107786829583347e-06 2.341925028304103762e-05
2.645000000000000000e+03 1.566599273681640625e+01 4.909347057342529297e+00 -5.289030377753078938e-05 4.633094795281067491e-05 -1.967806610991829075e-06 5.803010571980848908e-05
2.646000000000000000e+03 2.754532623291015625e+01 2.351731872558593750e+01 1.528881192207336426e-01 4.420251548290252686e-01 1.784739792346954346e-01 -3.109464645385742188e-01
2.647000000000000000e+03 2.707839393615722656e+01 2.271948242187500000e+01 2.520810961723327637e-01 3.131406009197235107e-01 1.695665121078491211e-01 -3.051129281520843506e-01
2.648000000000000000e+03 1.383890533447265625e+01 2.035303115844726562e+01 -2.004469558596611023e-02 3.377396496944129467e-04 -5.912086460739374161e-03 -5.527832545340061188e-03
2.649000000000000000e+03 1.694548797607421875e+01 4.998507499694824219e+00 -7.859200559323653579e-05 2.299538755323737860e-05 -1.667898504820186645e-05 1.086466090782778338e-05
2.650000000000000000e+03 1.737914848327636719e+01 5.061521053314208984e+00 -1.688801785348914564e-05 6.340917025227099657e-05 1.395634626533137634e-05 -6.470563221228076145e-06
2.651000000000000000e+03 1.280518245697021484e+01 5.003479003906250000e+00 -1.722976048768032342e-05 -2.320526982657611370e-05 -1.213050927617587149e-05 9.486006456427276134e-05
2.652000000000000000e+03 1.209577941894531250e+01 5.070009708404541016e+00 4.512465602601878345e-05 -6.083569132897537202e-06 1.171232543129008263e-05 7.325022306758910418e-05
2.653000000000000000e+03 2.441152572631835938e+01 2.339010047912597656e+01 1.467737108469009399e-01 9.612207859754562378e-02 7.286873459815979004e-02 -1.414905339479446411e-01
2.654000000000000000e+03 3.051790237426757812e+01 -5.755767345428466797e+00 -1.765542626380920410e-01 9.797939062118530273e-01 2.409718930721282959e-01 -1.111239910125732422e+00
2.655000000000000000e+03 3.503776550292968750e+01 -2.591131925582885742e+00 -1.893514633178710938e+00 4.707979559898376465e-01 -4.268150031566619873e-01 2.311637997627258301e-01
2.656000000000000000e+03 3.542425537109375000e+01 -2.851481437683105469e+00 -1.843996763229370117e+00 5.489469170570373535e-01 -3.885149657726287842e-01 2.469471544027328491e-01
2.657000000000000000e+03 1.422700023651123047e+01 4.935570716857910156e+00 -4.334377081249840558e-05 2.545791176089551300e-05 -5.365758170228218660e-06 7.659014227101579309e-05
2.658000000000000000e+03 3.171314430236816406e+01 -6.406564235687255859e+00 8.682259172201156616e-02 1.274387240409851074e+00 4.083629548549652100e-01 -9.322947263717651367e-01
2.659000000000000000e+03 2.235521507263183594e+01 -6.225920677185058594e+00 -4.909955263137817383e-01 -3.129025101661682129e-01 -2.411694079637527466e-01 -6.853814125061035156e-01
2.660000000000000000e+03 2.420489501953125000e+01 -4.526738643646240234e+00 -5.087876319885253906e-01 -1.661733025684952736e-03 -1.531348079442977905e-01 -7.494708895683288574e-01
2.661000000000000000e+03 1.253917121887207031e+01 -4.777675628662109375e+00 -2.233108431100845337e-01 -2.048254758119583130e-01 -1.284408867359161377e-01 -1.347206085920333862e-01
2.662000000000000000e+03 7.511082458496093750e+01 -1.045216751098632812e+01 -2.323378026485443115e-01 -1.169309839606285095e-01 -1.047806367278099060e-01 -3.922008872032165527e-01
2.663000000000000000e+03 1.060832691192626953e+01 5.208615779876708984e+00 8.543565490981563926e-05 -5.889013118576258421e-05 7.963657481013797224e-06 4.850617187912575901e-05
2.664000000000000000e+03 2.603145599365234375e+01 2.369930458068847656e+01 1.704339236021041870e-01 2.274536788463592529e-01 1.193662807345390320e-01 -2.353140115737915039e-01
2.665000000000000000e+03 2.565246963500976562e+01 2.392724037170410156e+01 1.510775089263916016e-01 2.084842473268508911e-01 1.078685298562049866e-01 -2.146512418985366821e-01
2.666000000000000000e+03 2.570334815979003906e+01 -5.300102233886718750e+00 -4.240442216396331787e-01 3.832674771547317505e-02 -1.157152503728866577e-01 -9.660548567771911621e-01
2.667000000000000000e+03 5.314156532287597656e+00 5.751224994659423828e+00 4.390215690364129841e-05 -1.287990453420206904e-04 -2.546906580391805619e-05 -9.542007319396361709e-06
2.668000000000000000e+03 7.111974334716796875e+01 -9.243633270263671875e+00 -6.305057406425476074e-01 1.922183483839035034e-01 -1.314862221479415894e-01 -6.454350352287292480e-01
2.669000000000000000e+03 7.188181304931640625e+01 -1.178052043914794922e+01 -5.905706882476806641e-01 1.421881765127182007e-01 -1.345147639513015747e-01 -3.368886709213256836e-01
2.670000000000000000e+03 6.146980285644531250e+00 -6.946455955505371094e+00 -1.705790907144546509e-01 -4.837063327431678772e-02 -6.568491458892822266e-02 -1.190891209989786148e-02
2.671000000000000000e+03 8.969850540161132812e+00 -5.793750762939453125e+00 -2.175773233175277710e-01 -9.786631166934967041e-02 -9.463308751583099365e-02 -2.113193646073341370e-02
2.672000000000000000e+03 1.520218944549560547e+01 -5.480445861816406250e+00 -3.376819193363189697e-01 -3.882385790348052979e-01 -2.177761495113372803e-01 -3.484596610069274902e-01
2.673000000000000000e+03 1.548259735107421875e+01 -7.026247978210449219e+00 -4.910388588905334473e-01 -5.425248146057128906e-01 -3.100691139698028564e-01 -4.082886874675750732e-01
2.674000000000000000e+03 1.325501060485839844e+01 -5.912104129791259766e+00 -3.346465229988098145e-01 -3.017905056476593018e-01 -1.909311115741729736e-01 -1.972699314355850220e-01
2.675000000000000000e+03 1.377906990051269531e+01 -5.220087051391601562e+00 -2.930634617805480957e-01 -2.869465351104736328e-01 -1.740030050277709961e-01 -2.247513383626937866e-01
2.676000000000000000e+03 2.251534271240234375e+01 -4.531816482543945312e+00 -4.303393363952636719e-01 -2.688446938991546631e-01 -2.097552120685577393e-01 -6.637116670608520508e-01
2.677000000000000000e+03 1.995289802551269531e+01 2.431312751770019531e+01 3.414365649223327637e-02 1.297771930694580078e-02 1.413641218096017838e-02 -4.105489328503608704e-02
2.678000000000000000e+03 2.662516403198242188e+01 2.399015045166015625e+01 1.378216743469238281e-01 3.224053382873535156e-01 1.380680948495864868e-01 -2.625321745872497559e-01
2.679000000000000000e+03 1.812880325317382812e+01 -8.190682411193847656e+00 -6.535536646842956543e-01 -6.508221030235290527e-01 -3.913127183914184570e-01 -6.577131748199462891e-01
2.680000000000000000e+03 1.521955394744873047e+01 -4.985572814941406250e+00 -3.100413382053375244e-01 -3.398543000221252441e-01 -1.949687004089355469e-01 -3.447714745998382568e-01
2.681000000000000000e+03 1.983430290222167969e+01 -4.345677852630615234e+00 -3.778893947601318359e-01 -4.256717562675476074e-01 -2.410683482885360718e-01 -6.511648893356323242e-01
2.682000000000000000e+03 3.752020263671875000e+01 6.637965202331542969e+00 -1.518703252077102661e-01 -1.437927484512329102e+00 -4.769393503665924072e-01 -9.400814175605773926e-01
2.683000000000000000e+03 2.834779930114746094e+01 -5.588467121124267578e+00 -1.773133724927902222e-01 2.892785072326660156e-01 3.358954191207885742e-02 -1.321555018424987793e+00
2.684000000000000000e+03 7.304769134521484375e+01 -2.189050865173339844e+01 -2.506480552256107330e-03 -4.002554924227297306e-04 -8.720208425074815750e-04 -2.918316458817571402e-04
2.685000000000000000e+03 1.880237960815429688e+01 -6.255579471588134766e+00 -4.850221872329711914e-01 -5.001665353775024414e-01 -2.955566048622131348e-01 -6.403719186782836914e-01
2.686000000000000000e+03 1.935459327697753906e+01 -5.235438823699951172e+00 -4.106419086456298828e-01 -4.537981450557708740e-01 -2.593320310115814209e-01 -6.499127149581909180e-01
2.687000000000000000e+03 2.043144989013671875e+01 -5.696290493011474609e+00 -4.441397488117218018e-01 -4.388362467288970947e-01 -2.648927867412567139e-01 -6.810874342918395996e-01
2.688000000000000000e+03 3.872908592224121094e+00 4.567147731781005859e+00 1.411962439306080341e-04 -1.846760278567671776e-05 3.681859379867091775e-05 -9.814656368689611554e-05
2.689000000000000000e+03 2.303563308715820312e+01 -3.502738237380981445e+00 -4.451606869697570801e-01 -1.823495328426361084e-01 -1.882530599832534790e-01 -6.066324710845947266e-01
2.690000000000000000e+03 2.108247375488281250e+01 -4.561522006988525391e+00 -3.994782567024230957e-01 -3.998982310295104980e-01 -2.398129403591156006e-01 -6.708687543869018555e-01
2.691000000000000000e+03 7.410556793212890625e+01 -9.632314682006835938e+00 -3.117506504058837891e-01 -6.925097107887268066e-02 -1.143004819750785828e-01 -5.058130025863647461e-01
2.692000000000000000e+03 7.204073333740234375e+01 -9.629498481750488281e+00 -5.018698573112487793e-01 1.276526451110839844e-01 -1.122651621699333191e-01 -5.835779309272766113e-01
2.693000000000000000e+03 6.775231170654296875e+01 -7.963261127471923828e+00 -6.590587496757507324e-01 3.511375486850738525e-01 -9.237635880708694458e-02 -6.923471689224243164e-01
2.694000000000000000e+03 2.775416183471679688e+01 -5.445012092590332031e+00 -2.374868243932723999e-01 2.068934589624404907e-01 -9.178010746836662292e-03 -1.306915521621704102e+00
2.695000000000000000e+03 2.681072425842285156e+01 -5.505304336547851562e+00 -2.877389192581176758e-01 5.500779300928115845e-02 -6.981933861970901489e-02 -1.136024117469787598e+00
2.696000000000000000e+03 1.065124988555908203e+01 -5.443517684936523438e+00 -2.359364330768585205e-01 -1.462205350399017334e-01 -1.146470904350280762e-01 -6.066503003239631653e-02
2.697000000000000000e+03 3.691172409057617188e+01 -3.631540775299072266e+00 -1.941347241401672363e+00 7.098288536071777344e-01 -3.694555163383483887e-01 3.854714930057525635e-01
2.698000000000000000e+03 7.306473541259765625e+01 -9.748252868652343750e+00 -4.265226423740386963e-01 2.512621507048606873e-02 -1.204189285635948181e-01 -5.605528354644775391e-01
2.699000000000000000e+03 6.325167179107666016e+00 1.760815811157226562e+01 -3.572668181732296944e-03 9.514203993603587151e-04 -7.863743812777101994e-04 1.931076869368553162e-03
2.700000000000000000e+03 7.307990264892578125e+01 -2.319698143005371094e+01 -2.364147687330842018e-03 -9.345455910079181194e-04 -9.896080009639263153e-04 6.209805142134428024e-04
2.701000000000000000e+03 3.609128952026367188e+01 7.352656841278076172e+00 -9.219165891408920288e-02 7.506046295166015625e-01 1.975238919258117676e-01 -6.162561178207397461e-01
2.702000000000000000e+03 5.897465229034423828e+00 1.369744110107421875e+01 -9.766094153746962547e-04 6.842968286946415901e-05 -2.724539372138679028e-04 5.392067832872271538e-04
2.703000000000000000e+03 7.405712127685546875e+01 -8.721167564392089844e+00 -3.023040592670440674e-01 -1.050625070929527283e-01 -1.222099661827087402e-01 -6.113304495811462402e-01
2.704000000000000000e+03 1.797842979431152344e+01 -6.392158031463623047e+00 -4.578784108161926270e-01 -5.366576313972473145e-01 -2.983608245849609375e-01 -5.974029898643493652e-01
2.705000000000000000e+03 6.896483612060546875e+01 -9.322215080261230469e+00 -7.994323968887329102e-01 2.750420868396759033e-01 -1.573170870542526245e-01 -6.797534823417663574e-01
2.706000000000000000e+03 6.191882324218750000e+01 -3.251071691513061523e+00 3.997538387775421143e-01 1.914916276931762695e+00 6.944010257720947266e-01 5.914469957351684570e-01
2.707000000000000000e+03 3.986779785156250000e+01 1.758698844909667969e+01 -7.534489780664443970e-02 -7.183623313903808594e-01 -2.381121814250946045e-01 1.586516015231609344e-02
2.708000000000000000e+03 2.441551780700683594e+01 -6.131664752960205078e+00 -4.095640480518341064e-01 -1.589482277631759644e-01 -1.705536842346191406e-01 -7.533857226371765137e-01
2.709000000000000000e+03 6.183214187622070312e+00 2.605414581298828125e+01 -4.161441756878048182e-04 1.055932487361133099e-03 1.919364876812323928e-04 8.387302979826927185e-03
2.710000000000000000e+03 7.417999267578125000e+01 -2.326157379150390625e+01 -3.587785409763455391e-03 -6.784505676478147507e-04 -1.279870746657252312e-03 1.416127081029117107e-03
2.711000000000000000e+03 3.592005920410156250e+01 -8.052398681640625000e+00 2.189681529998779297e-01 9.483599662780761719e-01 3.501984179019927979e-01 -7.268779277801513672e-01
2.712000000000000000e+03 3.354878997802734375e+01 -7.059741497039794922e+00 1.423354595899581909e-01 1.258812427520751953e+00 4.203443825244903564e-01 -6.052045226097106934e-01
2.713000000000000000e+03 3.624945449829101562e+01 -6.769526481628417969e+00 -4.576252996921539307e-01 8.907180428504943848e-01 1.299278289079666138e-01 -4.166348278522491455e-01
2.714000000000000000e+03 1.651256179809570312e+01 -5.673925876617431641e+00 -3.763594925403594971e-01 -4.445065557956695557e-01 -2.462598234415054321e-01 -4.619028270244598389e-01
2.715000000000000000e+03 3.728979110717773438e+01 1.187553882598876953e+01 -2.025695890188217163e-01 -3.126779198646545410e-01 -1.545742452144622803e-01 3.641176968812942505e-02
2.716000000000000000e+03 1.132712459564208984e+01 -2.055100059509277344e+01 3.590148985385894775e-01 -2.873654961585998535e-01 2.149482443928718567e-02 -8.177783489227294922e-01
2.717000000000000000e+03 3.741653823852539062e+01 1.093473434448242188e+01 -2.805354297161102295e-01 -5.602397322654724121e-01 -2.522325515747070312e-01 -5.392457544803619385e-02
2.718000000000000000e+03 7.142806243896484375e+01 -2.947441482543945312e+01 -1.778854057192802429e-02 1.868159975856542587e-03 -4.776114132255315781e-03 1.393511611968278885e-02
2.719000000000000000e+03 5.431974887847900391e+00 2.693194770812988281e+01 7.737871492281556129e-04 -2.009080955758690834e-03 -3.705881536006927490e-04 7.790739648044109344e-03
2.720000000000000000e+03 4.009033966064453125e+01 1.644258880615234375e+01 -1.376105546951293945e-01 -9.700412750244140625e-01 -3.322955369949340820e-01 -1.150057837367057800e-01
2.721000000000000000e+03 6.049075603485107422e+00 1.515982818603515625e+01 -1.375030144117772579e-03 2.135793474735692143e-04 -3.484352491796016693e-04 8.996940450742840767e-04
2.722000000000000000e+03 6.598025798797607422e+00 1.657976722717285156e+01 -2.425970509648323059e-03 8.356060134246945381e-04 -4.771093663293868303e-04 1.287945313379168510e-03
2.723000000000000000e+03 8.368072509765625000e+00 5.446036338806152344e+00 3.050777195312548429e-05 -1.506582775618880987e-04 -3.604515222832560539e-05 1.278642594115808606e-05
2.724000000000000000e+03 5.360732078552246094e+00 -9.363087654113769531e+00 -1.997527182102203369e-01 -8.089980483055114746e-02 -8.419575542211532593e-02 -1.269422322511672974e-01
2.725000000000000000e+03 5.533050060272216797e+00 -1.169990158081054688e+01 -2.461089193820953369e-01 -1.573100537061691284e-01 -1.210256889462471008e-01 -2.999092042446136475e-01
2.726000000000000000e+03 4.828430652618408203e+00 9.672911643981933594e+00 -1.718241546768695116e-04 -2.292813442181795835e-04 -1.203316496685147285e-04 3.503027255646884441e-05
2.727000000000000000e+03 5.246604537963867188e+01 -8.955753326416015625e+00 -7.231333851814270020e-01 1.532519459724426270e+00 2.428158074617385864e-01 2.784971475601196289e+00
2.728000000000000000e+03 6.617358398437500000e+01 -7.836329460144042969e+00 -6.437150835990905762e-01 3.239225447177886963e-01 -9.593775868415832520e-02 -5.062287449836730957e-01
2.729000000000000000e+03 6.229238510131835938e+01 -9.414963722229003906e+00 -1.148878931999206543e+00 4.125111699104309082e-01 -2.209103256464004517e-01 3.531170189380645752e-01
2.730000000000000000e+03 7.445256805419921875e+01 -5.435326099395751953e+00 -1.189445108175277710e-01 -3.623954653739929199e-01 -1.444019824266433716e-01 -7.720784544944763184e-01
2.731000000000000000e+03 4.829709625244140625e+01 -9.598942756652832031e+00 -3.645706176757812500e-01 1.013668417930603027e+00 1.947293430566787720e-01 1.945030570030212402e+00
2.732000000000000000e+03 6.833919525146484375e+01 -1.015874576568603516e+01 -1.089285969734191895e+00 2.729588747024536133e-01 -2.448981404304504395e-01 -5.326869487762451172e-01
2.733000000000000000e+03 1.993646240234375000e+01 -6.926334857940673828e+00 -5.699844360351562500e-01 -4.715346395969390869e-01 -3.124557137489318848e-01 -6.934757232666015625e-01
2.734000000000000000e+03 7.146794128417968750e+01 -2.241584014892578125e+01 -4.142787773162126541e-03 -1.301136100664734840e-03 -1.633177162148058414e-03 7.824125350452959538e-04
2.735000000000000000e+03 6.396440982818603516e+00 2.331172370910644531e+01 -2.359719714149832726e-03 1.729904091916978359e-03 -1.889447157736867666e-04 7.614265196025371552e-03
2.736000000000000000e+03 5.159794330596923828e+00 2.217009925842285156e+01 -2.079101745039224625e-03 -3.951752441935241222e-04 -7.422831258736550808e-04 6.305271759629249573e-03
2.737000000000000000e+03 6.685580444335937500e+01 1.116231250762939453e+01 8.896626234054565430e-01 3.328023672103881836e+00 1.265305876731872559e+00 3.366494774818420410e-01
2.738000000000000000e+03 1.317521858215332031e+01 -7.948990345001220703e+00 -5.505027770996093750e-01 -4.297274351119995117e-01 -2.940690517425537109e-01 -2.471466362476348877e-01
2.739000000000000000e+03 2.005307769775390625e+01 -4.974831581115722656e+00 -4.056312739849090576e-01 -4.312289059162139893e-01 -2.510580718517303467e-01 -6.514011621475219727e-01
2.740000000000000000e+03 1.963420486450195312e+01 -6.040952205657958984e+00 -4.576599299907684326e-01 -4.727472662925720215e-01 -2.791221737861633301e-01 -6.527937650680541992e-01
2.741000000000000000e+03 9.793581962585449219e+00 -1.380314636230468750e+01 -6.123120188713073730e-01 -2.839422523975372314e-01 -2.688762843608856201e-01 -6.209030747413635254e-01
2.742000000000000000e+03 6.834635925292968750e+01 -2.894989776611328125e+01 -2.595595084130764008e-02 1.015400141477584839e-02 -4.740584641695022583e-03 6.487952079623937607e-03
2.743000000000000000e+03 6.787271118164062500e+01 -2.763686752319335938e+01 -2.891048789024353027e-02 3.340011229738593102e-03 -7.671142928302288055e-03 5.117850843816995621e-03
2.744000000000000000e+03 9.041178703308105469e+00 -1.952676391601562500e+01 9.075519442558288574e-02 -4.741352498531341553e-01 -1.150140091776847839e-01 -8.803779482841491699e-01
2.745000000000000000e+03 4.269055938720703125e+01 -1.509943199157714844e+01 2.368516206741333008e+00 2.419748783111572266e+00 1.436479449272155762e+00 -3.448183238506317139e-01
2.746000000000000000e+03 4.898480415344238281e+00 1.069943523406982422e+01 -1.481065992265939713e-04 -8.310796692967414856e-05 -6.936437421245500445e-05 -7.049892883514985442e-05
2.747000000000000000e+03 6.605531692504882812e+00 1.313945770263671875e+01 -1.042181975208222866e-03 -1.548389554955065250e-04 -3.591062559280544519e-04 -6.275915802689269185e-05
2.748000000000000000e+03 4.184040069580078125e+01 -1.417361164093017578e+01 1.695878744125366211e+00 1.843541383743286133e+00 1.061825990676879883e+00 -7.803652286529541016e-01
2.749000000000000000e+03 3.960428237915039062e+01 -1.394244289398193359e+01 1.468540191650390625e+00 9.445281624794006348e-01 7.239205241203308105e-01 -1.275695800781250000e+00
2.750000000000000000e+03 7.367202758789062500e+01 -2.712527275085449219e+01 -8.262957446277141571e-03 8.229758241213858128e-04 -2.231994410976767540e-03 5.162806250154972076e-03
2.751000000000000000e+03 9.132365226745605469e+00 -1.817750740051269531e+01 -8.766634762287139893e-02 -4.185318946838378906e-01 -1.518594771623611450e-01 -8.737772107124328613e-01
2.752000000000000000e+03 7.475098419189453125e+01 -6.507340431213378906e+00 -1.462441384792327881e-01 -3.347026109695434570e-01 -1.442840248346328735e-01 -6.953477263450622559e-01
2.753000000000000000e+03 3.875993728637695312e+01 -1.285006332397460938e+01 1.304496169090270996e+00 6.700609326362609863e-01 5.923671126365661621e-01 -1.451631665229797363e+00
2.754000000000000000e+03 7.612213134765625000e+01 -2.392576408386230469e+01 -3.492402611300349236e-04 -1.018320326693356037e-03 -4.102681705262511969e-04 1.582023396622389555e-04
2.755000000000000000e+03 6.836919403076171875e+01 -8.708848953247070312e+00 -7.262597680091857910e-01 2.896246612071990967e-01 -1.309905350208282471e-01 -6.927301883697509766e-01
2.756000000000000000e+03 5.053363800048828125e+00 1.969697761535644531e+01 -2.362119732424616814e-03 1.193496500491164625e-04 -6.728310254402458668e-04 4.038345534354448318e-03
2.757000000000000000e+03 5.601419830322265625e+01 -8.811173439025878906e+00 -5.604922175407409668e-01 1.714731454849243164e+00 3.462717831134796143e-01 1.874076485633850098e+00
2.758000000000000000e+03 5.864809036254882812e+01 -8.989418983459472656e+00 -6.978496909141540527e-01 1.323595643043518066e+00 1.877237856388092041e-01 1.149429202079772949e+00
2.759000000000000000e+03 5.927342224121093750e+01 -7.331772804260253906e+00 -4.206802546977996826e-01 1.529149770736694336e+00 3.325408399105072021e-01 1.104257822036743164e+00
2.760000000000000000e+03 3.840710067749023438e+01 -6.907020092010498047e+00 -9.542267322540283203e-01 5.545445084571838379e-01 -1.199046671390533447e-01 -4.704371690750122070e-01
2.761000000000000000e+03 4.586921691894531250e+01 2.319927024841308594e+01 -2.183443903923034668e-01 -5.117463469505310059e-01 -2.190272212028503418e-01 -1.798743456602096558e-01
2.762000000000000000e+03 4.388945007324218750e+01 2.255324172973632812e+01 -1.610918343067169189e-01 -5.413680076599121094e-01 -2.107379436492919922e-01 -6.845740228891372681e-02
2.763000000000000000e+03 6.095755767822265625e+01 -8.721067905426025391e-01 8.690838813781738281e-01 2.788898468017578125e+00 1.097394704818725586e+00 1.151202440261840820e+00
2.764000000000000000e+03 4.531667709350585938e+01 -1.066860389709472656e+01 1.369562000036239624e-01 1.398047566413879395e+00 4.605011343955993652e-01 4.195833206176757812e-01
2.765000000000000000e+03 4.549148941040039062e+01 -9.765176773071289062e+00 -2.930401861667633057e-01 8.891050219535827637e-01 1.788194477558135986e-01 5.925635695457458496e-01
2.766000000000000000e+03 6.420595550537109375e+01 8.928814888000488281e+00 8.804722428321838379e-01 5.127232551574707031e+00 1.802311420440673828e+00 8.190991878509521484e-01
2.767000000000000000e+03 6.524961853027343750e+01 9.294798851013183594e+00 9.733448624610900879e-01 4.197859764099121094e+00 1.551361441612243652e+00 5.866452455520629883e-01
2.768000000000000000e+03 4.352547073364257812e+01 -1.265760707855224609e+01 1.222193598747253418e+00 1.884476304054260254e+00 9.320009946823120117e-01 -4.197366535663604736e-01
2.769000000000000000e+03 4.217177391052246094e+00 3.426133346557617188e+01 1.864433870650827885e-03 -8.144810795783996582e-03 -1.884113065898418427e-03 3.302397672086954117e-03
2.770000000000000000e+03 4.179742431640625000e+01 -1.587647914886474609e+01 2.192341089248657227e+00 2.310330152511596680e+00 1.350801348686218262e+00 -3.293999731540679932e-01
2.771000000000000000e+03 7.409433746337890625e+01 1.732924652099609375e+01 2.527329325675964355e-01 -4.909901320934295654e-01 -7.147716730833053589e-02 5.929579734802246094e-01
2.772000000000000000e+03 4.184197235107421875e+01 -2.068913078308105469e+01 1.415823817253112793e+00 3.685393571853637695e+00 1.530365228652954102e+00 1.030403375625610352e+00
2.773000000000000000e+03 4.276035308837890625e+01 -1.174816131591796875e+01 9.144329428672790527e-01 1.371121168136596680e+00 6.856662034988403320e-01 -5.984653234481811523e-01
2.774000000000000000e+03 4.470034408569335938e+01 -8.549441337585449219e+00 -1.185718774795532227e+00 3.568673729896545410e-01 -2.486554086208343506e-01 2.578166425228118896e-01
2.775000000000000000e+03 7.438571929931640625e+01 -3.253567123413085938e+01 -3.709487151354551315e-03 -8.386353962123394012e-03 -3.628752194344997406e-03 1.838229596614837646e-02
2.776000000000000000e+03 1.807091712951660156e+01 -7.255869865417480469e+00 -5.746181607246398926e-01 -5.690083503723144531e-01 -3.430879712104797363e-01 -6.190038323402404785e-01
2.777000000000000000e+03 1.567969226837158203e+01 -6.274719715118408203e+00 -4.089957177639007568e-01 -4.851697683334350586e-01 -2.682496309280395508e-01 -4.038905799388885498e-01
2.778000000000000000e+03 7.387556552886962891e+00 -2.380328369140625000e+01 2.730162441730499268e-01 -7.625736594200134277e-01 -1.468672156333923340e-01 -5.608537793159484863e-01
2.779000000000000000e+03 6.801763916015625000e+01 1.748480415344238281e+01 7.441715002059936523e-01 2.406094074249267578e+00 9.450796842575073242e-01 5.332338809967041016e-01
2.780000000000000000e+03 7.425019073486328125e+01 1.224465942382812500e+01 3.268190324306488037e-01 -7.458127737045288086e-01 -1.256981194019317627e-01 1.648720949888229370e-01
2.781000000000000000e+03 7.366505432128906250e+01 8.485690116882324219e+00 3.665343821048736572e-01 -4.968264698982238770e-01 -3.908762335777282715e-02 -1.874121278524398804e-01
2.782000000000000000e+03 7.499872589111328125e+01 2.032577323913574219e+01 1.047613993287086487e-01 -7.010834813117980957e-01 -1.788966208696365356e-01 6.931912302970886230e-01
2.783000000000000000e+03 6.147517013549804688e+01 -4.070200920104980469e+00 1.943321228027343750e-01 1.834174156188964844e+00 6.085519194602966309e-01 6.639007925987243652e-01
2.784000000000000000e+03 5.829780197143554688e+01 -6.511544227600097656e+00 -3.416270613670349121e-01 2.054969787597656250e+00 5.140027999877929688e-01 1.305970907211303711e+00
2.785000000000000000e+03 7.462810516357421875e+01 2.609036445617675781e+00 1.865588873624801636e-01 -8.431539535522460938e-01 -1.969785243272781372e-01 -6.220974326133728027e-01
2.786000000000000000e+03 6.650866699218750000e+01 1.302362155914306641e+01 8.206758499145507812e-01 3.728608369827270508e+00 1.364785194396972656e+00 3.336932659149169922e-01
2.787000000000000000e+03 6.578234100341796875e+01 2.237513732910156250e+01 1.289445906877517700e-01 2.872693300247192383e+00 9.004913568496704102e-01 5.086060762405395508e-01
2.788000000000000000e+03 6.243870258331298828e+00 -2.677091407775878906e+01 2.082244455814361572e-01 -9.632023572921752930e-01 -2.264933735132217407e-01 -3.571504652500152588e-01
2.789000000000000000e+03 4.947428703308105469e+00 -2.698135566711425781e+01 1.399833709001541138e-01 -1.145245790481567383e+00 -3.015787303447723389e-01 -3.033736348152160645e-01
2.790000000000000000e+03 4.120027160644531250e+01 -2.792897796630859375e+01 2.914193868637084961e-01 2.603265285491943359e+00 8.684054613113403320e-01 8.923816680908203125e-01
2.791000000000000000e+03 7.195034790039062500e+01 2.853508758544921875e+01 -2.618832290172576904e-01 5.938394069671630859e-01 9.958684444427490234e-02 7.145017385482788086e-01
2.792000000000000000e+03 7.012269592285156250e+01 -3.165485382080078125e+01 -2.042079903185367584e-02 2.488227561116218567e-03 -5.379771348088979721e-03 2.447324246168136597e-02
2.793000000000000000e+03 6.877558898925781250e+01 -3.146675491333007812e+01 -2.505366504192352295e-02 7.412431295961141586e-03 -5.292369984090328217e-03 2.332152053713798523e-02
2.794000000000000000e+03 1.057673740386962891e+01 -1.011661148071289062e+01 -6.076006293296813965e-01 -2.769345343112945557e-01 -2.653605639934539795e-01 -2.866445779800415039e-01
2.795000000000000000e+03 6.620332336425781250e+01 2.948286056518554688e+00 7.749282121658325195e-01 2.314906597137451172e+00 9.269504547119140625e-01 -2.133616618812084198e-02
2.796000000000000000e+03 1.324209785461425781e+01 -2.692858505249023438e+01 5.654814839363098145e-01 4.348092898726463318e-02 1.826887130737304688e-01 -4.200828373432159424e-01
2.797000000000000000e+03 6.620880126953125000e+00 1.438539695739746094e+01 -1.733969314955174923e-03 9.874656825559213758e-05 -4.905668320134282112e-04 1.668556942604482174e-04
2.798000000000000000e+03 5.121135711669921875e+00 1.847639083862304688e+01 -2.974368399009108543e-03 1.926019613165408373e-04 -8.345299283973872662e-04 2.831071615219116211e-03
2.799000000000000000e+03 6.442971801757812500e+01 6.948265075683593750e+00 1.034146428108215332e+00 4.164393901824951172e+00 1.559562087059020996e+00 7.438021898269653320e-01
2.800000000000000000e+03 6.102268600463867188e+01 2.323448181152343750e+01 -2.727456390857696533e-01 2.879956007003784180e+00 7.821631431579589844e-01 -8.289265632629394531e-01
2.801000000000000000e+03 6.159672927856445312e+01 2.657748222351074219e+01 -5.414890646934509277e-01 2.130301475524902344e+00 4.766437113285064697e-01 -5.362204909324645996e-01
2.802000000000000000e+03 7.340410614013671875e+01 -5.902907371520996094e+00 -1.767461299896240234e-01 -1.571294367313385010e-01 -1.001626700162887573e-01 -7.993598580360412598e-01
2.803000000000000000e+03 7.319771575927734375e+01 5.437641143798828125e-01 1.521131098270416260e-01 -3.078031837940216064e-01 -4.670701920986175537e-02 -7.746193408966064453e-01
2.804000000000000000e+03 1.548266410827636719e+01 -2.851088333129882812e+01 5.896568298339843750e-01 3.704612851142883301e-01 2.880354225635528564e-01 -4.339832365512847900e-01
2.805000000000000000e+03 7.210253906250000000e+01 -3.068629264831542969e+01 -1.201412454247474670e-02 4.522728850133717060e-04 -3.468555631116032600e-03 1.644082926213741302e-02
2.806000000000000000e+03 5.276731491088867188e+01 -1.121967887878417969e+01 4.468799233436584473e-01 1.197437167167663574e+00 4.932951033115386963e-01 2.489338874816894531e+00
2.807000000000000000e+03 7.663078784942626953e+00 3.240098953247070312e+01 4.767996724694967270e-03 1.173419132828712463e-02 4.950656555593013763e-03 1.355455373413860798e-03
2.808000000000000000e+03 4.626099777221679688e+01 -1.111076736450195312e+01 5.664771795272827148e-01 1.658243298530578613e+00 6.674161553382873535e-01 9.994308948516845703e-01
2.809000000000000000e+03 3.896641159057617188e+01 -2.806269073486328125e+01 5.418140888214111328e-01 1.838831305503845215e+00 7.141936421394348145e-01 1.006717562675476074e+00
2.810000000000000000e+03 3.802717208862304688e+01 -2.626229286193847656e+01 7.667532563209533691e-01 1.491006612777709961e+00 6.773279905319213867e-01 1.144882559776306152e+00
2.811000000000000000e+03 5.067039489746093750e+00 2.810437393188476562e+01 1.229257322847843170e-03 -3.247820539399981499e-03 -6.055689300410449505e-04 7.702462375164031982e-03
2.812000000000000000e+03 2.896983528137207031e+01 -2.886209249496459961e+00 -1.140352845191955566e+00 1.773053109645843506e-01 -2.889142632484436035e-01 -1.079846382141113281e+00
2.813000000000000000e+03 2.864117813110351562e+01 -3.131828546524047852e+00 -9.969682693481445312e-01 2.086714804172515869e-01 -2.364890277385711670e-01 -1.168252587318420410e+00
2.814000000000000000e+03 2.824715614318847656e+01 -3.380198717117309570e+00 -8.705115318298339844e-01 2.475225925445556641e-01 -1.868966817855834961e-01 -1.246356129646301270e+00
2.815000000000000000e+03 2.965728950500488281e+01 -3.311844348907470703e+00 -1.108121633529663086e+00 3.009029328823089600e-01 -2.421656101942062378e-01 -1.041430354118347168e+00
2.816000000000000000e+03 3.035905265808105469e+01 -2.524522304534912109e+00 -1.547782301902770996e+00 1.905752569437026978e-01 -4.071621000766754150e-01 -7.635799050331115723e-01
2.817000000000000000e+03 3.176554870605468750e+01 -2.582128763198852539e+00 -1.722894549369812012e+00 2.805679440498352051e-01 -4.326979815959930420e-01 -4.804108440876007080e-01
2.818000000000000000e+03 2.795488357543945312e+01 -2.594348192214965820e+00 -1.033239841461181641e+00 1.978878229856491089e-01 -2.506055831909179688e-01 -1.168745160102844238e+00
2.819000000000000000e+03 3.394561386108398438e+01 -3.038203477859497070e+00 -1.677088260650634766e+00 4.992332458496093750e-01 -3.533565104007720947e-01 -4.336969554424285889e-02
2.820000000000000000e+03 3.206575393676757812e+01 1.917159652709960938e+01 2.231966853141784668e-01 1.492409706115722656e+00 5.146819353103637695e-01 -2.580153644084930420e-01
2.821000000000000000e+03 1.270903205871582031e+01 1.580003833770751953e+01 -1.273775589652359486e-03 -8.507232996635138988e-04 -6.373496726155281067e-04 -1.681007677689194679e-03
2.822000000000000000e+03 1.151308536529541016e+01 1.720543479919433594e+01 -4.984817933291196823e-03 8.342652581632137299e-04 -1.245165709406137466e-03 -2.507642144337296486e-03
2.823000000000000000e+03 1.778741073608398438e+01 4.995414257049560547e+00 -1.074211013474268839e-05 4.991909008822403848e-05 1.175309353129705414e-05 5.869790402357466519e-05
2.824000000000000000e+03 2.655752372741699219e+01 -3.610778570175170898e+00 -7.410988807678222656e-01 3.961755633354187012e-01 -1.034769862890243530e-01 -1.156835317611694336e+00
2.825000000000000000e+03 2.684048271179199219e+01 -3.606818199157714844e+00 -7.571763396263122559e-01 3.774962425231933594e-01 -1.139040291309356689e-01 -1.228070259094238281e+00
2.826000000000000000e+03 1.304614257812500000e+01 1.321534824371337891e+01 -2.523400762584060431e-04 -1.804242347134277225e-04 -1.298292918363586068e-04 -1.252858928637579083e-04
2.827000000000000000e+03 3.348642349243164062e+01 1.627943992614746094e+01 1.037550121545791626e-01 1.826355457305908203e+00 5.790331363677978516e-01 -1.350131481885910034e-01
2.828000000000000000e+03 1.980733871459960938e+01 2.491314506530761719e+01 4.091279953718185425e-02 2.031731791794300079e-02 1.836903393268585205e-02 -4.695666581392288208e-02
2.829000000000000000e+03 1.625736427307128906e+01 6.177047729492187500e+00 4.012512363260611892e-05 1.160813844762742519e-04 4.686195097747258842e-05 4.744836405734531581e-05
2.830000000000000000e+03 3.335182189941406250e+01 -2.540980577468872070e+00 -1.848007798194885254e+00 3.546747565269470215e-01 -4.479998946189880371e-01 -1.447903960943222046e-01
2.831000000000000000e+03 3.291051101684570312e+01 -5.108581542968750000e+00 -7.387157082557678223e-01 8.830802440643310547e-01 4.330937564373016357e-02 -4.706588089466094971e-01
2.832000000000000000e+03 3.446547698974609375e+01 1.083000659942626953e+01 2.263592183589935303e-02 2.621375560760498047e+00 7.932034730911254883e-01 -1.936360895633697510e-01
2.833000000000000000e+03 1.498464012145996094e+01 9.847460746765136719e+00 -1.396646257489919662e-04 2.076709497487172484e-04 2.040189792751334608e-05 -2.288620862600510009e-06
2.834000000000000000e+03 1.493449020385742188e+01 8.672175407409667969e+00 -1.663321454543620348e-04 1.378667948301881552e-04 -8.539607733837328851e-06 7.973459287313744426e-05
2.835000000000000000e+03 3.365375137329101562e+01 1.497768306732177734e+01 9.033450484275817871e-02 2.142743587493896484e+00 6.699234247207641602e-01 -1.709695309400558472e-01
2.836000000000000000e+03 3.383061218261718750e+01 1.305382919311523438e+01 1.137135699391365051e-01 2.543719530105590820e+00 7.972298860549926758e-01 -2.051347196102142334e-01
2.837000000000000000e+03 3.447119903564453125e+01 1.357747077941894531e+01 6.377269327640533447e-02 1.963937759399414062e+00 6.083131432533264160e-01 -4.305146168917417526e-03
2.838000000000000000e+03 3.334764862060546875e+01 1.571547126770019531e+01 1.028212532401084900e-01 2.050293684005737305e+00 6.459344625473022461e-01 -2.118965536355972290e-01
2.839000000000000000e+03 3.533173370361328125e+01 9.916472434997558594e+00 -3.367643803358078003e-02 1.765527367591857910e+00 5.195552706718444824e-01 -1.539643406867980957e-01
2.840000000000000000e+03 3.491614532470703125e+01 1.040928363800048828e+01 -6.200060993432998657e-02 2.128348827362060547e+00 6.199045181274414062e-01 -1.717063635587692261e-01
2.841000000000000000e+03 3.540454483032226562e+01 1.084340572357177734e+01 -8.527628332376480103e-02 1.586677432060241699e+00 4.504203498363494873e-01 -2.662778459489345551e-02
2.842000000000000000e+03 3.390997314453125000e+01 1.215247821807861328e+01 1.022671535611152649e-01 2.769695758819580078e+00 8.615888953208923340e-01 -2.663836181163787842e-01
2.843000000000000000e+03 3.440506362915039062e+01 1.182095527648925781e+01 4.823824018239974976e-02 2.446300745010375977e+00 7.483616471290588379e-01 -1.375125944614410400e-01
2.844000000000000000e+03 3.402017593383789062e+01 -2.213265657424926758e+00 -1.996170878410339355e+00 3.105175197124481201e-01 -5.056959986686706543e-01 2.104377374053001404e-02
2.845000000000000000e+03 3.313713455200195312e+01 -2.906959772109985352e+00 -1.691109299659729004e+00 4.102419018745422363e-01 -3.842602074146270752e-01 -1.858325749635696411e-01
2.846000000000000000e+03 3.313945770263671875e+01 1.715996551513671875e+01 1.418735235929489136e-01 1.742867708206176758e+00 5.654223561286926270e-01 -1.806306391954421997e-01
2.847000000000000000e+03 3.236874389648437500e+01 1.697440719604492188e+01 2.087059915065765381e-01 1.992498159408569336e+00 6.603612303733825684e-01 -4.140275120735168457e-01
2.848000000000000000e+03 1.503825473785400391e+01 8.276729583740234375e+00 6.000421853968873620e-05 1.825053768698126078e-04 7.275287498487159610e-05 4.761547097587026656e-05
2.849000000000000000e+03 1.732639503479003906e+01 7.143130779266357422e+00 -9.641010547056794167e-05 6.076571662561036646e-05 -1.069331665348727256e-05 -4.261160574969835579e-05
2.850000000000000000e+03 1.647362899780273438e+01 7.986987113952636719e+00 3.445431502768769860e-05 1.693580561550334096e-04 6.114371353760361671e-05 5.479782703332602978e-05
2.851000000000000000e+03 3.340004730224609375e+01 1.392552471160888672e+01 1.183869019150733948e-01 2.585705518722534180e+00 8.112277388572692871e-01 -2.798519432544708252e-01
2.852000000000000000e+03 1.816530227661132812e+01 4.912801265716552734e+00 -1.762951251293998212e-05 7.676587301830295473e-06 -2.985877472383435816e-06 -3.440180807956494391e-05
2.853000000000000000e+03 3.460650634765625000e+01 8.718061447143554688e+00 1.399604231119155884e-01 2.935009479522705078e+00 9.224909543991088867e-01 -3.927021920680999756e-01
2.854000000000000000e+03 3.593631362915039062e+01 1.025358581542968750e+01 -1.744314581155776978e-01 9.714921116828918457e-01 2.391181886196136475e-01 -9.214662015438079834e-02
2.855000000000000000e+03 3.448958587646484375e+01 1.280268096923828125e+01 6.128404662013053894e-02 2.128231525421142578e+00 6.568546891212463379e-01 -4.480621591210365295e-02
2.856000000000000000e+03 3.199159812927246094e+01 1.974761199951171875e+01 2.019004821777343750e-01 1.351180791854858398e+00 4.659243822097778320e-01 -2.025755494832992554e-01
2.857000000000000000e+03 3.114002799987792969e+01 2.154777908325195312e+01 1.173629686236381531e-01 1.105562090873718262e+00 3.668775260448455811e-01 -1.693901568651199341e-01
2.858000000000000000e+03 3.639540481567382812e+01 8.717220306396484375e+00 -2.369534522294998169e-01 4.222374260425567627e-01 5.558519437909126282e-02 -3.691363632678985596e-01
2.859000000000000000e+03 3.292683029174804688e+01 1.794747543334960938e+01 1.698789894580841064e-01 1.601372480392456055e+00 5.313754081726074219e-01 -1.720135658979415894e-01
2.860000000000000000e+03 1.373108100891113281e+01 2.082987594604492188e+01 -2.017418853938579559e-02 2.633902477100491524e-03 -5.262085702270269394e-03 -3.013880224898457527e-03
2.861000000000000000e+03 3.270299911499023438e+01 1.885093879699707031e+01 1.621065139770507812e-01 1.437621951103210449e+00 4.799185395240783691e-01 -1.380649358034133911e-01
2.862000000000000000e+03 1.214982128143310547e+01 1.610320091247558594e+01 -2.085084561258554459e-03 -6.594457663595676422e-04 -8.233590633608400822e-04 -1.808497472666203976e-03
2.863000000000000000e+03 1.301523971557617188e+01 1.429916667938232422e+01 -4.158283118158578873e-04 -3.678069333545863628e-04 -2.350905851926654577e-04 -5.915959482081234455e-04
2.864000000000000000e+03 1.231707477569580078e+01 1.805395698547363281e+01 -6.744043435901403427e-03 2.878790546674281359e-04 -1.936849323101341724e-03 -4.094683565199375153e-03
2.865000000000000000e+03 1.255378627777099609e+01 1.457026576995849609e+01 -5.821611266583204269e-04 -5.380249931477010250e-04 -3.360558475833386183e-04 -6.089011440053582191e-04
2.866000000000000000e+03 3.508781433105468750e+01 8.219223976135253906e+00 1.051321178674697876e-01 2.195507764816284180e+00 6.901919245719909668e-01 -4.250214993953704834e-01
2.867000000000000000e+03 1.297168159484863281e+01 1.503874111175537109e+01 -5.889072199352085590e-04 -6.067614303901791573e-04 -3.587006067391484976e-04 -1.025388715788722038e-03
2.868000000000000000e+03 1.895346641540527344e+01 2.395622253417968750e+01 1.580581441521644592e-02 4.621887579560279846e-03 6.128310691565275192e-03 -2.546809241175651550e-02
2.869000000000000000e+03 1.433733081817626953e+01 9.932806015014648438e+00 -5.327560575096867979e-05 1.442130305804312229e-04 2.728122672124300152e-05 1.491875300416722894e-04
2.870000000000000000e+03 2.611321067810058594e+01 -3.952364444732666016e+00 -6.853062510490417480e-01 3.195287883281707764e-01 -1.097332388162612915e-01 -1.073150038719177246e+00
2.871000000000000000e+03 1.330489158630371094e+01 2.017710113525390625e+01 -1.708235777914524078e-02 2.342431340366601944e-03 -4.421977791935205460e-03 -4.406894557178020477e-03
2.872000000000000000e+03 1.240110588073730469e+01 1.969678306579589844e+01 -1.290794741362333298e-02 3.626387566328048706e-03 -2.784468000754714012e-03 -3.572100307792425156e-03
2.873000000000000000e+03 2.261816596984863281e+01 2.525623893737792969e+01 7.654369622468948364e-02 8.539536595344543457e-02 4.858171939849853516e-02 -1.130444183945655823e-01
2.874000000000000000e+03 2.377138328552246094e+01 2.528456115722656250e+01 8.949201554059982300e-02 1.357631534337997437e-01 6.757654994726181030e-02 -1.519725322723388672e-01
2.875000000000000000e+03 1.377642631530761719e+01 2.198295402526855469e+01 -1.756494678556919098e-02 5.443864967674016953e-03 -3.636324545368552208e-03 1.741161453537642956e-03
2.876000000000000000e+03 1.499568271636962891e+01 2.258008575439453125e+01 -1.669863797724246979e-02 1.685897004790604115e-03 -4.503822419792413712e-03 -1.576000795466825366e-04
2.877000000000000000e+03 2.931779479980468750e+01 2.336309051513671875e+01 5.553204193711280823e-02 7.512709498405456543e-01 2.420409023761749268e-01 -2.643288969993591309e-01
2.878000000000000000e+03 2.788090324401855469e+01 2.442383956909179688e+01 5.422047898173332214e-02 4.992160499095916748e-01 1.660309582948684692e-01 -2.609073817729949951e-01
2.879000000000000000e+03 1.412450313568115234e+01 2.163090324401855469e+01 -2.036520093679428101e-02 3.337354399263858795e-03 -5.108354147523641586e-03 -1.589578459970653057e-03
2.880000000000000000e+03 2.418905639648437500e+01 2.432852172851562500e+01 1.147105470299720764e-01 1.260328888893127441e-01 7.222303003072738647e-02 -1.564865559339523315e-01
2.881000000000000000e+03 2.312200164794921875e+01 2.344879722595214844e+01 9.869050979614257812e-02 4.735165089368820190e-02 4.381264746189117432e-02 -9.022300690412521362e-02
2.882000000000000000e+03 1.224245071411132812e+01 1.287848377227783203e+01 -3.642101073637604713e-04 -2.731706190388649702e-04 -1.912142179207876325e-04 -1.261269499082118273e-04
2.883000000000000000e+03 2.482304573059082031e+01 2.339836883544921875e+01 1.628543138504028320e-01 1.181833222508430481e-01 8.431129157543182373e-02 -1.656144112348556519e-01
2.884000000000000000e+03 1.258199977874755859e+01 1.766415405273437500e+01 -4.728914704173803329e-03 -6.984911742620170116e-04 -1.628221827559173107e-03 -3.987517673522233963e-03
2.885000000000000000e+03 1.346400547027587891e+01 1.133304691314697266e+01 -1.167771624750457704e-04 8.369371789740398526e-05 -9.925034646585118026e-06 -3.557975651347078383e-05
2.886000000000000000e+03 3.100493049621582031e+01 2.110231781005859375e+01 1.887970566749572754e-01 1.185653090476989746e+00 4.123350679874420166e-01 -2.352423220872879028e-01
2.887000000000000000e+03 1.668112754821777344e+01 6.838766574859619141e+00 -1.055994434864260256e-04 8.980547863757237792e-05 -4.738188636110862717e-06 2.988195228681433946e-05
2.888000000000000000e+03 3.163829040527343750e+01 1.840731048583984375e+01 2.889017462730407715e-01 1.773214459419250488e+00 6.186348795890808105e-01 -4.509847760200500488e-01
2.889000000000000000e+03 1.384115600585937500e+01 1.053676033020019531e+01 -5.758706538472324610e-05 2.135012764483690262e-04 4.677426113630644977e-05 1.174698700197041035e-04
2.890000000000000000e+03 2.154805946350097656e+01 2.458625221252441406e+01 6.439081579446792603e-02 3.942792862653732300e-02 3.114562481641769409e-02 -7.517979294061660767e-02
2.891000000000000000e+03 2.037409210205078125e+01 2.505714988708496094e+01 4.796683788299560547e-02 2.906448021531105042e-02 2.310939505696296692e-02 -5.803317949175834656e-02
2.892000000000000000e+03 1.419874191284179688e+01 2.223437118530273438e+01 -1.784244552254676819e-02 4.433096386492252350e-03 -4.022805020213127136e-03 6.287655560299754143e-04
2.893000000000000000e+03 2.627080917358398438e+01 -4.895838260650634766e+00 -4.589381515979766846e-01 1.436238884925842285e-01 -9.459427744150161743e-02 -1.095768332481384277e+00
2.894000000000000000e+03 1.869940567016601562e+01 2.450948524475097656e+01 2.349802479147911072e-02 9.023902937769889832e-03 9.756578132510185242e-03 -2.750975079834461212e-02
2.895000000000000000e+03 1.441803836822509766e+01 8.544027328491210938e+00 4.563828406389802694e-05 1.461568026570603251e-04 5.753852747147902846e-05 5.199805673328228295e-05
2.896000000000000000e+03 1.494826316833496094e+01 4.921406269073486328e+00 2.116618452419061214e-05 4.828015880775637925e-05 2.083390245388727635e-05 6.318101804936304688e-05
2.897000000000000000e+03 1.436559009552001953e+01 1.046691703796386719e+01 -1.614482607692480087e-04 2.968337212223559618e-04 4.061563959112390876e-05 1.716696569928899407e-04
2.898000000000000000e+03 1.262030506134033203e+01 1.219541740417480469e+01 -2.198479924118146300e-04 -1.159432795247994363e-04 -1.007373793981969357e-04 4.549604636849835515e-05
2.899000000000000000e+03 1.387541103363037109e+01 1.109167385101318359e+01 9.049296204466372728e-05 2.100808633258566260e-04 9.017214324558153749e-05 1.739816070767119527e-04
2.900000000000000000e+03 3.488270950317382812e+01 1.231540870666503906e+01 2.320068702101707458e-02 1.860796570777893066e+00 5.651991963386535645e-01 -6.836118991486728191e-04
2.901000000000000000e+03 3.062202453613281250e+01 2.118273544311523438e+01 2.201691269874572754e-01 1.106008052825927734e+00 3.978531658649444580e-01 -2.688121795654296875e-01
2.902000000000000000e+03 3.481852722167968750e+01 -2.982745885848999023e+00 -1.766318917274475098e+00 5.286514163017272949e-01 -3.713002502918243408e-01 1.295160949230194092e-01
2.903000000000000000e+03 3.634891891479492188e+01 6.383825778961181641e+00 7.469475269317626953e-02 1.682806015014648438e-01 7.289260625839233398e-02 -8.694560527801513672e-01
2.904000000000000000e+03 3.124511718750000000e+01 2.194007682800292969e+01 6.540290266275405884e-02 1.022357106208801270e+00 3.263280093669891357e-01 -1.146307364106178284e-01
2.905000000000000000e+03 3.141881561279296875e+01 2.309453773498535156e+01 -2.001770958304405212e-02 8.801926374435424805e-01 2.580524682998657227e-01 -6.094411760568618774e-02
2.906000000000000000e+03 2.999868774414062500e+01 2.287333488464355469e+01 5.219896882772445679e-02 8.774033188819885254e-01 2.788806855678558350e-01 -2.176171243190765381e-01
2.907000000000000000e+03 1.200280761718750000e+01 -5.863095760345458984e+00 -3.134590685367584229e-01 -2.322764694690704346e-01 -1.637206673622131348e-01 -1.294391453266143799e-01
2.908000000000000000e+03 2.509169387817382812e+01 -5.762090682983398438e+00 -4.132227897644042969e-01 -5.675208568572998047e-02 -1.409924626350402832e-01 -8.541173934936523438e-01
2.909000000000000000e+03 2.810048484802246094e+01 2.376022911071777344e+01 9.567750990390777588e-02 5.438190698623657227e-01 1.918489634990692139e-01 -2.969151139259338379e-01
2.910000000000000000e+03 3.586355972290039062e+01 -3.146670341491699219e+00 -1.836873412132263184e+00 6.335581541061401367e-01 -3.609945774078369141e-01 3.274548351764678955e-01
2.911000000000000000e+03 3.562718200683593750e+01 -3.646677255630493164e+00 -1.656354665756225586e+00 6.944711804389953613e-01 -2.885650694370269775e-01 1.839902251958847046e-01
2.912000000000000000e+03 3.544340133666992188e+01 5.678240299224853516e+00 3.503859639167785645e-01 1.361677050590515137e+00 5.136188864707946777e-01 -7.098545432090759277e-01
2.913000000000000000e+03 1.426903629302978516e+01 5.514429569244384766e+00 3.155564991175197065e-05 3.799029218498617411e-05 2.086378299281932414e-05 9.688246063888072968e-05
2.914000000000000000e+03 1.288411331176757812e+01 5.598770618438720703e+00 8.613960744696669281e-06 1.257827534573152661e-05 6.357670827128458768e-06 8.936211816035211086e-05
2.915000000000000000e+03 1.145746612548828125e+01 5.785311698913574219e+00 5.159007196198217571e-05 -4.946448098053224385e-05 6.376768055815773550e-07 6.899597065057605505e-05
2.916000000000000000e+03 1.219545841217041016e+01 5.689624309539794922e+00 -2.987153857247903943e-05 -3.614320303313434124e-05 -1.980442175408825278e-05 1.142717301263473928e-04
2.917000000000000000e+03 2.401829338073730469e+01 2.388576889038085938e+01 1.243031844496726990e-01 9.559103846549987793e-02 6.596826761960983276e-02 -1.366785466670989990e-01
2.918000000000000000e+03 1.005765819549560547e+01 -6.482397556304931641e+00 -3.096770644187927246e-01 -1.596263349056243896e-01 -1.407910138368606567e-01 -7.716819643974304199e-02
2.919000000000000000e+03 9.867792129516601562e+00 5.240192890167236328e+00 -2.963594852189999074e-05 -9.869073255686089396e-05 -3.849800486932508647e-05 4.269900819053873420e-05
2.920000000000000000e+03 7.735713481903076172e+00 6.396206378936767578e+00 3.857009869534522295e-05 -1.208186004078015685e-04 -2.467454942234326154e-05 4.533034370979294181e-05
2.921000000000000000e+03 1.584951972961425781e+01 -5.551715373992919922e+00 -3.617121279239654541e-01 -4.253761470317840576e-01 -2.361264824867248535e-01 -4.148451685905456543e-01
2.922000000000000000e+03 1.716335296630859375e+01 2.384697341918945312e+01 3.733847523108124733e-03 2.113127382472157478e-03 1.754092518240213394e-03 -1.074522640556097031e-02
2.923000000000000000e+03 2.893617439270019531e+01 -5.516597747802734375e+00 -1.711019724607467651e-01 4.160226583480834961e-01 7.347620278596878052e-02 -1.348428130149841309e+00
2.924000000000000000e+03 3.518909454345703125e+01 -3.299389600753784180e+00 -1.709588885307312012e+00 6.071493029594421387e-01 -3.307318985462188721e-01 2.013073861598968506e-01
2.925000000000000000e+03 7.158340454101562500e+01 -1.059249305725097656e+01 -6.626446843147277832e-01 1.816798597574234009e-01 -1.442894488573074341e-01 -4.915971159934997559e-01
2.926000000000000000e+03 6.930260467529296875e+01 -8.398995399475097656e+00 -6.701202392578125000e-01 2.840485870838165283e-01 -1.158214956521987915e-01 -7.098693847656250000e-01
2.927000000000000000e+03 3.013714408874511719e+01 -5.386360645294189453e+00 -3.114275336265563965e-01 8.047862648963928223e-01 1.480076313018798828e-01 -1.200576901435852051e+00
2.928000000000000000e+03 1.859497642517089844e+01 -5.414924621582031250e+00 -3.967494368553161621e-01 -4.694775044918060303e-01 -2.598680853843688965e-01 -6.095816493034362793e-01
2.929000000000000000e+03 1.783065795898437500e+01 -5.565430641174316406e+00 -4.115528762340545654e-01 -4.713484346866607666e-01 -2.648703753948211670e-01 -5.680152773857116699e-01
2.930000000000000000e+03 3.084737205505371094e+01 -5.307786464691162109e+00 -4.023909866809844971e-01 9.026239514350891113e-01 1.500698924064636230e-01 -1.012172341346740723e+00
2.931000000000000000e+03 3.102972602844238281e+01 -6.108455181121826172e+00 4.527029395103454590e-02 1.103841185569763184e+00 3.447334468364715576e-01 -1.041340470314025879e+00
2.932000000000000000e+03 1.697559738159179688e+01 5.463001728057861328e+00 3.901751551893539727e-05 2.585941547295078635e-05 1.946307929756585509e-05 2.121351280948147178e-05
2.933000000000000000e+03 1.656343460083007812e+01 5.916293621063232422e+00 -4.482343138079158962e-05 4.059413186041638255e-05 -1.268789901587297209e-06 -2.101507743645925075e-05
2.934000000000000000e+03 9.900654792785644531e+00 5.874826908111572266e+00 1.415422157151624560e-04 -7.468299008905887604e-05 2.005776696023531258e-05 8.722909115022048354e-05
2.935000000000000000e+03 2.624033355712890625e+01 2.425615501403808594e+01 1.338688880205154419e-01 2.863941788673400879e-01 1.260789185762405396e-01 -2.489787191152572632e-01
2.936000000000000000e+03 6.050751209259033203e+00 -5.887350559234619141e+00 -1.107814013957977295e-01 -3.254770115017890930e-02 -4.299873113632202148e-02 3.278400748968124390e-02
2.937000000000000000e+03 2.700582122802734375e+01 2.393253517150878906e+01 1.278468221426010132e-01 3.810347616672515869e-01 1.526644676923751831e-01 -2.735925912857055664e-01
2.938000000000000000e+03 6.386902809143066406e+00 6.163438320159912109e+00 1.759284059517085552e-04 -1.103170507121831179e-04 1.968340620805975050e-05 3.758709453904884867e-06
2.939000000000000000e+03 2.552775955200195312e+01 -6.494685173034667969e+00 -2.758538424968719482e-01 -1.436238139867782593e-01 -1.258433014154434204e-01 -8.247250914573669434e-01
2.940000000000000000e+03 2.624902153015136719e+01 -6.013467788696289062e+00 -2.519657015800476074e-01 -4.961831867694854736e-02 -9.047520905733108521e-02 -1.000473856925964355e+00
2.941000000000000000e+03 2.713374519348144531e+01 -4.598634243011474609e+00 -4.935677051544189453e-01 2.251918017864227295e-01 -8.051276952028274536e-02 -1.247599482536315918e+00
2.942000000000000000e+03 1.899077987670898438e+01 -7.142915248870849609e+00 -5.489238500595092773e-01 -5.425764918327331543e-01 -3.274500966072082520e-01 -6.553415060043334961e-01
2.943000000000000000e+03 1.814812088012695312e+01 2.414247512817382812e+01 1.282078679651021957e-02 4.853844176977872849e-03 5.302389152348041534e-03 -1.932481676340103149e-02
2.944000000000000000e+03 7.463191986083984375e+01 -2.243096733093261719e+01 -7.801504689268767834e-04 6.686872075079008937e-05 -2.139845164492726326e-04 -4.316600970923900604e-04
2.945000000000000000e+03 7.087409019470214844e+00 -5.898390769958496094e+00 -1.558146476745605469e-01 -5.200662091374397278e-02 -6.234638020396232605e-02 1.420688629150390625e-02
2.946000000000000000e+03 8.339590072631835938e+00 -7.655224323272705078e+00 -3.034256696701049805e-01 -1.147557646036148071e-01 -1.254544258117675781e-01 -8.177893608808517456e-02
2.947000000000000000e+03 3.971462488174438477e+00 -7.007709026336669922e+00 -8.352539688348770142e-02 6.267796736210584641e-03 -2.317727915942668915e-02 1.726914756000041962e-02
2.948000000000000000e+03 4.738961219787597656e+00 -5.143821716308593750e+00 -5.110186338424682617e-02 1.570803811773657799e-03 -1.485931780189275742e-02 6.608010828495025635e-02
2.949000000000000000e+03 7.541134834289550781e+00 5.605983734130859375e+00 7.920050848042592406e-05 -6.579206819878891110e-05 4.022531811642693356e-06 -5.889331441721878946e-05
2.950000000000000000e+03 3.739589309692382812e+01 -3.981505870819091797e+00 -1.900136947631835938e+00 7.454965114593505859e-01 -3.463921248912811279e-01 2.563512325286865234e-01
2.951000000000000000e+03 3.858754730224609375e+01 1.849127388000488281e+01 -5.291983950883150101e-03 -2.565837800502777100e-01 -7.856272906064987183e-02 2.110203206539154053e-01
2.952000000000000000e+03 3.898229980468750000e+01 1.630034065246582031e+01 -4.622113704681396484e-02 -6.545320153236389160e-01 -2.102259397506713867e-01 6.404764950275421143e-02
2.953000000000000000e+03 7.063040161132812500e+01 -1.020090389251708984e+01 -6.886179447174072266e-01 2.375784814357757568e-01 -1.353118419647216797e-01 -5.559642314910888672e-01
2.954000000000000000e+03 1.496696758270263672e+01 -6.058593273162841797e+00 -3.891720473766326904e-01 -4.292357265949249268e-01 -2.455223351716995239e-01 -3.442303240299224854e-01
2.955000000000000000e+03 1.718098640441894531e+01 -7.282432079315185547e+00 -5.345912575721740723e-01 -6.047571301460266113e-01 -3.418045043945312500e-01 -5.693380236625671387e-01
2.956000000000000000e+03 1.432785701751708984e+01 -5.707581520080566406e+00 -3.363804817199707031e-01 -3.576913475990295410e-01 -2.082215547561645508e-01 -2.788538932800292969e-01
2.957000000000000000e+03 1.273720550537109375e+01 -5.397671699523925781e+00 -2.969686090946197510e-01 -2.479057312011718750e-01 -1.634622961282730103e-01 -1.603163778781890869e-01
2.958000000000000000e+03 3.412665557861328125e+01 1.427762126922607422e+01 7.269532978534698486e-02 2.024350881576538086e+00 6.291138529777526855e-01 -6.155405193567276001e-02
2.959000000000000000e+03 7.523305892944335938e+00 1.692523574829101562e+01 -3.994395956397056580e-03 1.285244827158749104e-03 -8.127452456392347813e-04 9.416163666173815727e-04
2.960000000000000000e+03 6.150198459625244141e+00 1.871549034118652344e+01 -3.222532570362091064e-03 1.272263238206505775e-03 -5.850808229297399521e-04 3.049653721973299980e-03
2.961000000000000000e+03 6.081455230712890625e+00 1.984502983093261719e+01 -4.204508382827043533e-03 1.306779216974973679e-03 -8.693187846802175045e-04 4.084123298525810242e-03
2.962000000000000000e+03 6.194139480590820312e+00 2.213017654418945312e+01 -3.917891066521406174e-03 1.528514316305518150e-03 -7.168130832724273205e-04 6.451094988733530045e-03
2.963000000000000000e+03 7.174509048461914062e+00 -6.860194683074951172e+00 -2.008342742919921875e-01 -7.120536267757415771e-02 -8.161188662052154541e-02 -2.172072045505046844e-02
2.964000000000000000e+03 3.546363830566406250e+01 -7.304379463195800781e+00 3.305855765938758850e-02 9.480057954788208008e-01 2.943193018436431885e-01 -4.753400683403015137e-01
2.965000000000000000e+03 3.413492202758789062e+01 -6.064157962799072266e+00 -4.692945182323455811e-01 1.062446832656860352e+00 1.779456883668899536e-01 -3.812883496284484863e-01
2.966000000000000000e+03 7.417825317382812500e+01 -1.048335742950439453e+01 -3.185530602931976318e-01 -5.147057771682739258e-02 -1.110070943832397461e-01 -4.513686895370483398e-01
2.967000000000000000e+03 5.826491355895996094e+00 9.553117752075195312e+00 -9.128982492256909609e-05 -6.807692261645570397e-05 -4.781002280651591718e-05 -1.404834183631464839e-04
2.968000000000000000e+03 3.631324386596679688e+01 7.995108604431152344e+00 -1.183318719267845154e-01 4.752907752990722656e-01 1.070876717567443848e-01 -5.000729560852050781e-01
2.969000000000000000e+03 7.189128112792968750e+01 -2.308689951896667480e-01 1.840472668409347534e-01 7.742942124605178833e-02 7.844300568103790283e-02 -8.093540072441101074e-01
2.970000000000000000e+03 7.401044464111328125e+01 -4.399691104888916016e+00 -7.164604961872100830e-02 -3.228564262390136719e-01 -1.183507442474365234e-01 -8.136754631996154785e-01
2.971000000000000000e+03 1.001055526733398438e+01 -1.225217723846435547e+01 -6.374525427818298340e-01 -2.673842310905456543e-01 -2.714510262012481689e-01 -4.529649913311004639e-01
2.972000000000000000e+03 7.087160491943359375e+01 -7.910195350646972656e+00 -4.758450090885162354e-01 1.913367807865142822e-01 -8.535247296094894409e-02 -7.543689608573913574e-01
2.973000000000000000e+03 6.648235321044921875e+01 -6.284938812255859375e+00 -3.234890103340148926e-01 5.435360074043273926e-01 6.601410359144210815e-02 -5.237450003623962402e-01
2.974000000000000000e+03 3.705311965942382812e+01 -6.184158802032470703e+00 -9.907017350196838379e-01 7.692791223526000977e-01 -6.642677634954452515e-02 -2.123002260923385620e-01
2.975000000000000000e+03 3.741690063476562500e+01 -6.942997932434082031e+00 -7.785644531250000000e-01 7.583723664283752441e-01 -6.057620514184236526e-03 -4.426344335079193115e-01
2.976000000000000000e+03 8.053462982177734375e+00 -5.866911888122558594e+00 -1.815405040979385376e-01 -7.406508922576904297e-02 -7.668168097734451294e-02 2.970528788864612579e-03
2.977000000000000000e+03 3.186727714538574219e+01 -5.734703063964843750e+00 -3.301714956760406494e-01 1.045947790145874023e+00 2.147328853607177734e-01 -7.450045347213745117e-01
2.978000000000000000e+03 3.253666687011718750e+01 -6.460777759552001953e+00 -1.841215533204376698e-03 1.238457441329956055e+00 3.709848821163177490e-01 -6.798522472381591797e-01
2.979000000000000000e+03 8.558608055114746094e+00 6.119040489196777344e+00 1.002089175017317757e-05 -1.266765757463872433e-04 -3.499670492601580918e-05 -2.499264701327774674e-05
2.980000000000000000e+03 6.874705314636230469e+00 6.814319610595703125e+00 -7.518659549532458186e-05 -1.604581048013642430e-04 -7.069341518217697740e-05 -9.495225822320207953e-05
2.981000000000000000e+03 1.392009735107421875e+01 -6.374629020690917969e+00 -3.975989818572998047e-01 -3.844629228115081787e-01 -2.346185743808746338e-01 -2.587270140647888184e-01
2.982000000000000000e+03 6.691714477539062500e+01 7.520028591156005859e+00 9.318135976791381836e-01 2.866447448730468750e+00 1.139478325843811035e+00 2.124224603176116943e-01
2.983000000000000000e+03 6.603102111816406250e+01 8.380202293395996094e+00 9.044057726860046387e-01 3.524444341659545898e+00 1.328655004501342773e+00 3.364537358283996582e-01
2.984000000000000000e+03 3.713301849365234375e+01 1.036160469055175781e+01 -3.340896666049957275e-01 -4.210767447948455811e-01 -2.265499234199523926e-01 -8.410913497209548950e-02
2.985000000000000000e+03 3.587916946411132812e+01 1.132009410858154297e+01 -1.004693731665611267e-01 1.052485108375549316e+00 2.856047153472900391e-01 5.132792145013809204e-02
2.986000000000000000e+03 1.265884590148925781e+01 -6.621969699859619141e+00 -4.014799892902374268e-01 -3.066415786743164062e-01 -2.124364674091339111e-01 -1.795866936445236206e-01
2.987000000000000000e+03 1.438280105590820312e+01 -7.526872158050537109e+00 -5.292500257492065430e-01 -5.184974670410156250e-01 -3.143242597579956055e-01 -3.140254914760589600e-01
2.988000000000000000e+03 6.544607543945312500e+01 1.196180656552314758e-01 5.265560150146484375e-01 1.982516288757324219e+00 7.527216672897338867e-01 -4.623121023178100586e-02
2.989000000000000000e+03 6.265469741821289062e+01 9.364506006240844727e-01 8.493043184280395508e-01 3.026219129562377930e+00 1.162657022476196289e+00 8.594016432762145996e-01
2.990000000000000000e+03 4.267036056518554688e+01 -1.337461853027343750e+01 1.681829810142517090e+00 1.811116695404052734e+00 1.047883987426757812e+00 -6.196589469909667969e-01
2.991000000000000000e+03 3.982013320922851562e+01 -1.310084056854248047e+01 1.213476061820983887e+00 9.522752165794372559e-01 6.497253775596618652e-01 -1.347153782844543457e+00
2.992000000000000000e+03 3.588236999511718750e+01 1.235194301605224609e+01 -2.975025586783885956e-02 9.630182385444641113e-01 2.799803912639617920e-01 1.424944996833801270e-01
2.993000000000000000e+03 6.147492980957031250e+01 -6.430165767669677734e+00 -2.833425700664520264e-01 1.317455530166625977e+00 3.102338910102844238e-01 6.351296305656433105e-01
2.994000000000000000e+03 6.067564964294433594e+00 1.152962779998779297e+01 -3.785970911849290133e-04 -1.932996092364192009e-04 -1.715690159471705556e-04 -7.879742952354718000e-06
2.995000000000000000e+03 2.245005607604980469e+01 -5.381340980529785156e+00 -4.388262033462524414e-01 -2.843782007694244385e-01 -2.169613242149353027e-01 -6.718103289604187012e-01
2.996000000000000000e+03 6.965315818786621094e+00 1.568579101562500000e+01 -2.755058929324150085e-03 5.664357449859380722e-04 -6.565869553014636040e-04 5.618043360300362110e-04
2.997000000000000000e+03 5.592884063720703125e+01 -9.901348114013671875e+00 -5.014582276344299316e-01 1.548312544822692871e+00 3.140562772750854492e-01 1.818054199218750000e+00
2.998000000000000000e+03 3.868005371093750000e+01 -2.431631660461425781e+01 8.441867828369140625e-01 1.689997792243957520e+00 7.602553963661193848e-01 1.248054623603820801e+00
2.999000000000000000e+03 3.931282043457031250e+01 -2.569849205017089844e+01 6.901237368583679199e-01 1.942325949668884277e+00 7.897348999977111816e-01 1.175272822380065918e+00
3.000000000000000000e+03 6.930867004394531250e+01 1.729146194458007812e+01 6.450016498565673828e-01 1.727125644683837891e+00 7.116382122039794922e-01 6.323382854461669922e-01
3.001000000000000000e+03 1.260899543762207031e+01 -9.630300521850585938e+00 -7.250203490257263184e-01 -4.176775217056274414e-01 -3.428093791007995605e-01 -2.889908850193023682e-01
3.002000000000000000e+03 6.276356220245361328e+00 1.242594146728515625e+01 -8.390753064304590225e-04 -1.093309037969447672e-04 -2.845218405127525330e-04 1.796292490325868130e-04
3.003000000000000000e+03 7.392683410644531250e+01 -7.787581920623779297e+00 -2.498295307159423828e-01 -1.445787996053695679e-01 -1.183224990963935852e-01 -6.802111864089965820e-01
3.004000000000000000e+03 1.641578102111816406e+01 -6.412296772003173828e+00 -4.448113739490509033e-01 -5.138167738914489746e-01 -2.875884473323822021e-01 -4.809670150279998779e-01
3.005000000000000000e+03 1.714916801452636719e+01 -8.182048797607421875e+00 -6.579263806343078613e-01 -6.664137244224548340e-01 -3.973020315170288086e-01 -5.644696354866027832e-01
3.006000000000000000e+03 3.899678802490234375e+01 -1.187127017974853516e+01 1.045037269592285156e+00 6.503271460533142090e-01 5.086092948913574219e-01 -1.408322334289550781e+00
3.007000000000000000e+03 3.934898757934570312e+01 -1.087226295471191406e+01 8.372858762741088867e-01 6.377325057983398438e-01 4.425055086612701416e-01 -1.263001084327697754e+00
3.008000000000000000e+03 3.915057373046875000e+01 -8.341463088989257812e+00 -3.646527528762817383e-01 4.742184579372406006e-01 3.286971524357795715e-02 -8.018183708190917969e-01
3.009000000000000000e+03 5.610444545745849609e+00 2.483774375915527344e+01 -5.660440656356513500e-04 -5.993695231154561043e-04 -3.496240824460983276e-04 8.078915998339653015e-03
3.010000000000000000e+03 4.439065170288085938e+01 -1.056189918518066406e+01 1.856513172388076782e-01 1.151416063308715820e+00 4.011202156543731689e-01 3.571041673421859741e-02
3.011000000000000000e+03 4.438405609130859375e+01 -9.549263000488281250e+00 -4.796000123023986816e-01 8.736913204193115234e-01 1.182273998856544495e-01 -1.504833716899156570e-02
3.012000000000000000e+03 2.178005981445312500e+01 -3.835782051086425781e+00 -3.928571641445159912e-01 -3.564150631427764893e-01 -2.247816771268844604e-01 -6.520460844039916992e-01
3.013000000000000000e+03 2.176869392395019531e+01 -5.309106349945068359e+00 -4.345753490924835205e-01 -3.374208509922027588e-01 -2.315988689661026001e-01 -6.738612055778503418e-01
3.014000000000000000e+03 7.194779205322265625e+01 -2.334221458435058594e+01 -3.944100346416234970e-03 3.372823994141072035e-04 -1.082045491784811020e-03 3.184927336405962706e-04
3.015000000000000000e+03 7.452911376953125000e+01 1.408561825752258301e+00 1.405759602785110474e-01 -7.715767025947570801e-01 -1.893002092838287354e-01 -6.917733550071716309e-01
3.016000000000000000e+03 8.698753356933593750e+00 -1.434443569183349609e+01 -4.855702221393585205e-01 -2.649042606353759766e-01 -2.251423448324203491e-01 -6.450667381286621094e-01
3.017000000000000000e+03 4.110975646972656250e+01 -1.255995655059814453e+01 1.173193216323852539e+00 1.185678720474243164e+00 7.076616287231445312e-01 -1.129405140876770020e+00
3.018000000000000000e+03 7.431729888916015625e+01 -2.438425636291503906e+01 -2.921149134635925293e-03 -1.428084680810570717e-03 -1.304770121350884438e-03 1.547234831377863884e-03
3.019000000000000000e+03 1.504688262939453125e+01 -8.726594924926757812e+00 -6.999014019966125488e-01 -6.847708225250244141e-01 -4.154016673564910889e-01 -3.897526264190673828e-01
3.020000000000000000e+03 3.977618026733398438e+01 -1.889891815185546875e+01 1.371368050575256348e+00 1.970262408256530762e+00 1.002489209175109863e+00 3.737409412860870361e-01
3.021000000000000000e+03 3.904243087768554688e+01 -1.811505889892578125e+01 1.108976364135742188e+00 1.346789598464965820e+00 7.367298007011413574e-01 -1.257761418819427490e-01
3.022000000000000000e+03 8.849497795104980469e+00 3.512292861938476562e+01 3.634559223428368568e-03 2.268298901617527008e-02 7.895264774560928345e-03 -2.973561175167560577e-03
3.023000000000000000e+03 2.113245010375976562e+01 -5.368871688842773438e+00 -4.403193295001983643e-01 -3.964735567569732666e-01 -2.510378658771514893e-01 -6.680173277854919434e-01
3.024000000000000000e+03 7.610512256622314453e+00 -1.942231750488281250e+01 5.903142318129539490e-02 -5.592635869979858398e-01 -1.500696539878845215e-01 -7.849719524383544922e-01
3.025000000000000000e+03 7.649257659912109375e+01 2.049922943115234375e+01 5.902791768312454224e-02 -1.312083959579467773e+00 -3.759168088436126709e-01 5.617196559906005859e-01
3.026000000000000000e+03 2.408320236206054688e+01 -5.565443992614746094e+00 -4.601533710956573486e-01 -1.188314110040664673e-01 -1.736954301595687866e-01 -7.634136676788330078e-01
3.027000000000000000e+03 7.165981292724609375e+01 -3.577259445190429688e+01 4.093308933079242706e-03 -1.015788223594427109e-02 -1.819372177124023438e-03 2.649820968508720398e-02
3.028000000000000000e+03 4.492314529418945312e+01 -1.136727046966552734e+01 6.808064579963684082e-01 1.611304283142089844e+00 6.876332163810729980e-01 1.659061014652252197e-01
3.029000000000000000e+03 5.897908401489257812e+01 -5.633059024810791016e+00 -5.444623902440071106e-02 1.945068001747131348e+00 5.671865344047546387e-01 1.148136973381042480e+00
3.030000000000000000e+03 7.282659149169921875e+01 1.705505752563476562e+01 3.585798442363739014e-01 7.108967006206512451e-02 1.289008557796478271e-01 6.042673587799072266e-01
3.031000000000000000e+03 7.303089904785156250e+01 1.584472370147705078e+01 3.797121942043304443e-01 -5.205912515521049500e-02 9.829591959714889526e-02 5.180150866508483887e-01
3.032000000000000000e+03 6.735850524902343750e+01 1.557662487030029297e+01 8.461583852767944336e-01 2.991613864898681641e+00 1.151331663131713867e+00 3.255193829536437988e-01
3.033000000000000000e+03 3.808887863159179688e+01 -8.060777664184570312e+00 -2.344287782907485962e-01 6.480742096900939941e-01 1.240936294198036194e-01 -7.076168656349182129e-01
3.034000000000000000e+03 3.797602081298828125e+01 -4.443039417266845703e+00 -1.936622142791748047e+00 6.886396408081054688e-01 -3.743947446346282959e-01 2.198301553726196289e-01
3.035000000000000000e+03 8.592875480651855469e+00 -2.503139495849609375e+01 3.662716746330261230e-01 -6.300438642501831055e-01 -7.913164794445037842e-02 -4.986258745193481445e-01
3.036000000000000000e+03 9.815339088439941406e+00 -2.530589675903320312e+01 4.430452883243560791e-01 -4.758422076702117920e-01 -9.839078411459922791e-03 -4.969687759876251221e-01
3.037000000000000000e+03 7.476168823242187500e+01 5.072337627410888672e+00 2.405737638473510742e-01 -9.199874401092529297e-01 -2.038241028785705566e-01 -4.750827848911285400e-01
3.038000000000000000e+03 7.351152038574218750e+01 3.735563278198242188e+00 2.800223529338836670e-01 -4.498454928398132324e-01 -5.094694346189498901e-02 -5.769639015197753906e-01
3.039000000000000000e+03 6.188845443725585938e+01 -1.717911005020141602e+00 6.218022108078002930e-01 2.314732074737548828e+00 8.809602856636047363e-01 7.374891042709350586e-01
3.040000000000000000e+03 7.099936676025390625e+01 -2.322132492065429688e+01 -2.376983873546123505e-03 1.005915401037782431e-04 -6.829177145846188068e-04 -1.535565475933253765e-03
3.041000000000000000e+03 4.150286102294921875e+01 2.435525321960449219e+01 -1.380969956517219543e-02 -2.702822387218475342e-01 -8.522757887840270996e-02 1.436699777841567993e-01
3.042000000000000000e+03 6.456561279296875000e+01 -7.386753082275390625e+00 -4.920481741428375244e-01 3.871210515499114990e-01 -3.147813677787780762e-02 -1.767251789569854736e-01
3.043000000000000000e+03 6.350285720825195312e+01 -8.001838684082031250e+00 -5.735543370246887207e-01 4.123624861240386963e-01 -4.835754632949829102e-02 1.029130443930625916e-01
3.044000000000000000e+03 7.065042495727539062e+00 -1.180618953704833984e+01 -3.824259340763092041e-01 -1.675588190555572510e-01 -1.649954169988632202e-01 -3.449072241783142090e-01
3.045000000000000000e+03 6.310578346252441406e+00 -1.097413063049316406e+01 -3.119114637374877930e-01 -1.379380524158477783e-01 -1.349548548460006714e-01 -2.680857181549072266e-01
3.046000000000000000e+03 3.363678932189941406e+00 -2.441458892822265625e+01 7.179675996303558350e-02 -1.219465494155883789e+00 -3.443005979061126709e-01 -3.257947862148284912e-01
3.047000000000000000e+03 7.336226654052734375e+01 -3.488025426864624023e+00 -3.396222367882728577e-02 -2.501293420791625977e-01 -8.522746711969375610e-02 -8.489153981208801270e-01
3.048000000000000000e+03 6.926691436767578125e+01 1.434360313415527344e+01 7.622970938682556152e-01 1.933936953544616699e+00 8.088701963424682617e-01 3.767838478088378906e-01
3.049000000000000000e+03 7.183280944824218750e+01 1.563090515136718750e+01 5.021940469741821289e-01 5.162118077278137207e-01 3.055217564105987549e-01 5.064756274223327637e-01
3.050000000000000000e+03 7.303437042236328125e+01 1.346057033538818359e+01 4.099836647510528564e-01 -1.251357644796371460e-01 8.545436710119247437e-02 2.977304458618164062e-01
3.051000000000000000e+03 6.738636016845703125e+00 2.450002288818359375e+01 -2.156916772946715355e-03 2.766100456938147545e-03 1.827551022870466113e-04 8.136538788676261902e-03
3.052000000000000000e+03 6.944341278076171875e+01 2.220941925048828125e+01 1.285127997398376465e-01 1.531104207038879395e+00 4.978851079940795898e-01 9.006798267364501953e-01
3.053000000000000000e+03 4.030467224121093750e+01 2.040189743041992188e+01 -6.024009734392166138e-02 -4.247517585754394531e-01 -1.454975605010986328e-01 1.370742321014404297e-01
3.054000000000000000e+03 6.068177032470703125e+01 2.858515357971191406e+01 -5.082094669342041016e-01 1.595865368843078613e+00 3.262967765331268311e-01 -4.884776175022125244e-01
3.055000000000000000e+03 1.196064376831054688e+01 -2.820898628234863281e+01 4.552764594554901123e-01 -1.678535491228103638e-01 8.622687309980392456e-02 -3.461803793907165527e-01
3.056000000000000000e+03 7.265659332275390625e+01 -3.179179000854492188e+01 -9.197105653584003448e-03 -3.658866509795188904e-03 -3.856791649013757706e-03 1.969757489860057831e-02
3.057000000000000000e+03 3.093253135681152344e+01 -2.777555704116821289e+00 -1.539608478546142578e+00 2.743247449398040771e-01 -3.795851469039916992e-01 -6.698778271675109863e-01
3.058000000000000000e+03 2.795649719238281250e+01 -3.770137310028076172e+00 -7.361676692962646484e-01 2.863544225692749023e-01 -1.349439620971679688e-01 -1.299155473709106445e+00
3.059000000000000000e+03 2.752008819580078125e+01 -3.486958265304565430e+00 -7.957062125205993652e-01 3.122017681598663330e-01 -1.450513303279876709e-01 -1.280292153358459473e+00
3.060000000000000000e+03 3.105264091491699219e+01 -3.797994375228881836e+00 -1.090234875679016113e+00 5.265809893608093262e-01 -1.690961867570877075e-01 -7.838537096977233887e-01
3.061000000000000000e+03 2.885676956176757812e+01 -5.049785614013671875e+00 -3.855811953544616699e-01 4.025122523307800293e-01 5.079319700598716736e-03 -1.333112955093383789e+00
3.062000000000000000e+03 3.123311614990234375e+01 -3.185157537460327148e+00 -1.385333299636840820e+00 3.974795937538146973e-01 -2.963561117649078369e-01 -6.518275141716003418e-01
3.063000000000000000e+03 2.740016746520996094e+01 -3.113369941711425781e+00 -8.748546838760375977e-01 3.380085229873657227e-01 -1.610538363456726074e-01 -1.255424976348876953e+00
3.064000000000000000e+03 2.789719772338867188e+01 -3.389862537384033203e+00 -8.368965983390808105e-01 2.772146463394165039e-01 -1.679046005010604858e-01 -1.264212250709533691e+00
3.065000000000000000e+03 1.640136337280273438e+01 5.468194007873535156e+00 -6.450091314036399126e-05 9.575096919434145093e-05 9.375014997203834355e-06 5.462432818603701890e-05
3.066000000000000000e+03 3.407780838012695312e+01 1.610993576049804688e+01 7.861500233411788940e-02 1.611248970031738281e+00 5.069591999053955078e-01 -1.209358591586351395e-02
3.067000000000000000e+03 3.444144821166992188e+01 1.716687011718750000e+01 8.180386573076248169e-02 1.275294542312622070e+00 4.071295261383056641e-01 9.091766923666000366e-02
3.068000000000000000e+03 3.126716613769531250e+01 -2.789997100830078125e+00 -1.579084873199462891e+00 3.019575774669647217e-01 -3.831381797790527344e-01 -6.072372794151306152e-01
3.069000000000000000e+03 3.064304161071777344e+01 -2.827402353286743164e+00 -1.474628090858459473e+00 2.609493136405944824e-01 -3.641036450862884521e-01 -7.516887187957763672e-01
3.070000000000000000e+03 3.206821060180664062e+01 -2.762535095214843750e+00 -1.667565822601318359e+00 3.366023898124694824e-01 -3.992890417575836182e-01 -4.133918881416320801e-01
3.071000000000000000e+03 3.249447250366210938e+01 -5.761909008026123047e+00 -3.527884781360626221e-01 1.046833753585815430e+00 2.082135975360870361e-01 -6.530032157897949219e-01
3.072000000000000000e+03 1.748086929321289062e+01 5.476172447204589844e+00 -5.165932088857516646e-05 7.652102794963866472e-05 7.458512754965340719e-06 3.044755430892109871e-05
3.073000000000000000e+03 3.389397048950195312e+01 1.554176521301269531e+01 7.992186397314071655e-02 1.833659291267395020e+00 5.740743279457092285e-01 -7.297521829605102539e-02
3.074000000000000000e+03 3.493264007568359375e+01 1.323074150085449219e+01 3.913607820868492126e-02 1.630401015281677246e+00 5.008611083030700684e-01 8.413320779800415039e-02
3.075000000000000000e+03 3.488456344604492188e+01 1.133708381652832031e+01 -1.178982108831405640e-02 2.037329435348510742e+00 6.076619029045104980e-01 -7.688209414482116699e-02
3.076000000000000000e+03 3.561753463745117188e+01 9.341179847717285156e+00 -7.559178769588470459e-02 1.472223639488220215e+00 4.189895689487457275e-01 -2.442573606967926025e-01
3.077000000000000000e+03 3.630387496948242188e+01 9.510944366455078125e+00 -1.730050146579742432e-01 5.588061213493347168e-01 1.157403290271759033e-01 -1.848486810922622681e-01
3.078000000000000000e+03 3.451865768432617188e+01 1.536566734313964844e+01 6.313020735979080200e-02 1.562928795814514160e+00 4.878177046775817871e-01 6.139015033841133118e-02
3.079000000000000000e+03 3.644971084594726562e+01 1.075467300415039062e+01 -2.382160127162933350e-01 4.271377027034759521e-01 5.667650699615478516e-02 1.313667744398117065e-02
3.080000000000000000e+03 1.442144966125488281e+01 8.975483894348144531e+00 -1.178411257569678128e-04 1.429556286893785000e-04 7.534350970672676340e-06 1.738312421366572380e-04
3.081000000000000000e+03 1.496294975280761719e+01 6.854464054107666016e+00 5.303886428009718657e-05 1.006842867354862392e-04 4.611694748746231198e-05 7.719257700955495238e-05
3.082000000000000000e+03 1.250153923034667969e+01 1.657310104370117188e+01 -2.396550728008151054e-03 -8.950745104812085629e-04 -9.874876122921705246e-04 -2.562737325206398964e-03
3.083000000000000000e+03 1.220565605163574219e+01 1.408582401275634766e+01 -6.249381694942712784e-04 -3.864351892843842506e-04 -3.034120018128305674e-04 -6.820640410296618938e-04
3.084000000000000000e+03 1.414190959930419922e+01 9.398936271667480469e+00 3.001955701620317996e-05 3.617928086896426976e-05 1.985964991035871208e-05 1.520236546639353037e-04
3.085000000000000000e+03 1.473308467864990234e+01 9.676264762878417969e+00 1.273214274988276884e-05 2.946970053017139435e-04 9.222875087289139628e-05 6.749288877472281456e-05
3.086000000000000000e+03 1.237074089050292969e+01 1.533275127410888672e+01 -1.147985691204667091e-03 -6.869712378829717636e-04 -5.504870787262916565e-04 -1.135301077738404274e-03
3.087000000000000000e+03 1.905510330200195312e+01 2.544690132141113281e+01 3.754333034157752991e-02 2.299311757087707520e-02 1.816093549132347107e-02 -4.115433245897293091e-02
3.088000000000000000e+03 1.924968528747558594e+01 2.475401878356933594e+01 3.103601373732089996e-02 1.514132227748632431e-02 1.385320071130990982e-02 -3.702566027641296387e-02
3.089000000000000000e+03 1.109730625152587891e+01 1.752971458435058594e+01 -5.399102345108985901e-03 1.250929781235754490e-03 -1.244451850652694702e-03 -2.219055080786347389e-03
3.090000000000000000e+03 3.367238235473632812e+01 1.687150955200195312e+01 1.076046153903007507e-01 1.627709150314331055e+00 5.205941200256347656e-01 -7.250615209341049194e-02
3.091000000000000000e+03 3.645137023925781250e+01 1.291873455047607422e+01 -4.737317189574241638e-02 4.515618681907653809e-01 1.212566122412681580e-01 1.820349097251892090e-01
3.092000000000000000e+03 1.681112480163574219e+01 7.225399494171142578e+00 -1.073626190191134810e-04 8.843612886266782880e-05 -5.677947228832636029e-06 -1.521741342003224418e-05
3.093000000000000000e+03 1.572184276580810547e+01 5.485267162322998047e+00 3.302845288999378681e-05 3.881680822814814746e-05 2.155357833544258028e-05 4.340715167927555740e-05
3.094000000000000000e+03 3.396485900878906250e+01 1.381134033203125000e+01 1.055757477879524231e-01 2.244135618209838867e+00 7.049134373664855957e-01 -1.329705268144607544e-01
3.095000000000000000e+03 1.409754371643066406e+01 1.048341464996337891e+01 1.219360565301030874e-04 1.139234591391868889e-04 7.075785106280818582e-05 9.156532178167253733e-05
3.096000000000000000e+03 1.247413730621337891e+01 1.338012790679931641e+01 -2.954130177386105061e-04 -2.819488872773945332e-04 -1.732085656840354204e-04 -3.565228835213929415e-04
3.097000000000000000e+03 1.199903488159179688e+01 1.234582710266113281e+01 -2.359305508434772491e-04 -2.455332723911851645e-04 -1.444391527911648154e-04 -1.908761041704565287e-04
3.098000000000000000e+03 2.796159362792968750e+01 -4.958798885345458984e+00 -3.881469368934631348e-01 2.676198184490203857e-01 -3.615813702344894409e-02 -1.321715712547302246e+00
3.099000000000000000e+03 3.345694732666015625e+01 1.774429702758789062e+01 1.283703893423080444e-01 1.487252116203308105e+00 4.846867322921752930e-01 -5.948820710182189941e-02
3.100000000000000000e+03 3.264649963378906250e+01 1.744440269470214844e+01 1.856417059898376465e-01 1.800791978836059570e+00 5.959300994873046875e-01 -2.841145396232604980e-01
3.101000000000000000e+03 1.191331577301025391e+01 1.358652973175048828e+01 -5.868038861081004143e-04 -3.927034558728337288e-04 -2.938522084150463343e-04 -3.386066236998885870e-04
3.102000000000000000e+03 3.451477432250976562e+01 -3.363738059997558594e+00 -1.617521047592163086e+00 5.683708190917968750e-01 -3.147450685501098633e-01 6.829498708248138428e-02
3.103000000000000000e+03 2.521814155578613281e+01 2.397853660583496094e+01 1.456263512372970581e-01 1.768618971109390259e-01 9.674647450447082520e-02 -2.007626742124557495e-01
3.104000000000000000e+03 1.271576213836669922e+01 2.002536964416503906e+01 -1.462124940007925034e-02 3.763329703360795975e-03 -3.257375909015536308e-03 -3.290686057880520821e-03
3.105000000000000000e+03 1.178364562988281250e+01 1.562839508056640625e+01 -1.933631254360079765e-03 -3.843987360596656799e-04 -6.954089622013270855e-04 -1.630624290555715561e-03
3.106000000000000000e+03 3.537192916870117188e+01 1.183092689514160156e+01 -2.998653426766395569e-02 1.511230587959289551e+00 4.443732202053070068e-01 5.306915193796157837e-02
3.107000000000000000e+03 1.667278861999511719e+01 2.473379325866699219e+01 1.136751286685466766e-02 9.126663208007812500e-03 6.148252636194229126e-03 -1.129285991191864014e-02
3.108000000000000000e+03 3.247632217407226562e+01 1.816688537597656250e+01 2.221092879772186279e-01 1.672506928443908691e+00 5.683848857879638672e-01 -2.784193456172943115e-01
3.109000000000000000e+03 1.337001609802246094e+01 2.170346832275390625e+01 -1.707098819315433502e-02 5.951501429080963135e-03 -3.335845656692981720e-03 5.344327073544263840e-04
3.110000000000000000e+03 1.337588119506835938e+01 2.108880233764648438e+01 -1.828796789050102234e-02 4.783411975950002670e-03 -4.051366820931434631e-03 -1.722940942272543907e-03
3.111000000000000000e+03 3.204923248291015625e+01 2.039765739440917969e+01 1.453249305486679077e-01 1.223555326461791992e+00 4.106640517711639404e-01 -1.314330101013183594e-01
3.112000000000000000e+03 3.212213134765625000e+01 2.105126762390136719e+01 1.014860048890113831e-01 1.129556894302368164e+00 3.693128824234008789e-01 -6.583686172962188721e-02
3.113000000000000000e+03 1.295746517181396484e+01 1.151340866088867188e+01 -1.091060112230479717e-04 -1.858084397099446505e-05 -3.830605783150531352e-05 1.530227600596845150e-04
3.114000000000000000e+03 1.317845153808593750e+01 1.083513355255126953e+01 -3.947698860429227352e-05 2.072853249046602286e-06 -1.122124012908898294e-05 2.008992887567728758e-04
3.115000000000000000e+03 2.871762275695800781e+01 2.400754547119140625e+01 3.791280090808868408e-02 6.211708188056945801e-01 1.977250874042510986e-01 -2.528789937496185303e-01
3.116000000000000000e+03 2.152550125122070312e+01 2.527994728088378906e+01 6.133815273642539978e-02 5.514938011765480042e-02 3.494625911116600037e-02 -8.252537995576858521e-02
3.117000000000000000e+03 1.244696331024169922e+01 1.895903587341308594e+01 -1.016911771148443222e-02 1.782069914042949677e-03 -2.516114152967929840e-03 -4.746631719172000885e-03
3.118000000000000000e+03 1.200073146820068359e+01 1.484476852416992188e+01 -1.082566217519342899e-03 -4.826948861591517925e-04 -4.695783136412501335e-04 -1.110476558096706867e-03
3.119000000000000000e+03 3.047499275207519531e+01 -5.017616748809814453e+00 -5.350245237350463867e-01 7.968625426292419434e-01 7.855141162872314453e-02 -1.057722210884094238e+00
3.120000000000000000e+03 9.576128005981445312e+00 6.376914501190185547e+00 -1.045204189722426236e-04 -1.436524762539193034e-04 -7.445186929544433951e-05 -2.294111800438258797e-05
3.121000000000000000e+03 3.635161209106445312e+01 1.184785175323486328e+01 -1.148583516478538513e-01 5.731015801429748535e-01 1.374729722738265991e-01 1.307558566331863403e-01
3.122000000000000000e+03 1.621168708801269531e+01 7.614126682281494141e+00 -3.112091872026212513e-05 1.233696530107408762e-04 2.767462137853726745e-05 -1.855169648479204625e-05
3.123000000000000000e+03 1.296277713775634766e+01 1.030818557739257812e+01 -1.222721475642174482e-04 6.501918687717989087e-05 -1.717588747851550579e-05 2.134010173904243857e-05
3.124000000000000000e+03 2.180163574218750000e+01 2.589883613586425781e+01 6.467261165380477905e-02 7.866284251213073730e-02 4.300063848495483398e-02 -9.932187199592590332e-02
3.125000000000000000e+03 1.842558860778808594e+01 2.518619346618652344e+01 2.854029834270477295e-02 1.723377592861652374e-02 1.373222190886735916e-02 -3.133742511272430420e-02
3.126000000000000000e+03 1.338403511047363281e+01 2.235173797607421875e+01 -1.441503781825304031e-02 6.842323113232851028e-03 -2.271814271807670593e-03 2.444792073220014572e-03
3.127000000000000000e+03 1.296579456329345703e+01 2.204353141784667969e+01 -1.483057066798210144e-02 7.314815185964107513e-03 -2.254726598039269447e-03 3.040082054212689400e-03
3.128000000000000000e+03 2.095369148254394531e+01 2.524272727966308594e+01 5.748833715915679932e-02 4.177140444517135620e-02 2.977792173624038696e-02 -7.203117758035659790e-02
3.129000000000000000e+03 2.023444366455078125e+01 2.562938117980957031e+01 5.173524096608161926e-02 3.455669805407524109e-02 2.588758245110511780e-02 -6.213161721825599670e-02
3.130000000000000000e+03 1.968018341064453125e+01 2.553528213500976562e+01 4.349607601761817932e-02 3.088184632360935211e-02 2.231337688863277435e-02 -5.276894196867942810e-02
3.131000000000000000e+03 1.105721092224121094e+01 -6.257717132568359375e+00 -3.204625248908996582e-01 -1.924384534358978271e-01 -1.538702994585037231e-01 -9.572678059339523315e-02
3.132000000000000000e+03 9.109196662902832031e+00 -6.625874042510986328e+00 -2.770229279994964600e-01 -1.194508001208305359e-01 -1.189421117305755615e-01 -5.022922903299331665e-02
3.133000000000000000e+03 1.413913917541503906e+01 2.296391296386718750e+01 -1.107047870755195618e-02 5.635789595544338226e-03 -1.630406593903899193e-03 2.666756976395845413e-03
3.134000000000000000e+03 2.840731430053710938e+01 -5.082213401794433594e+00 -3.495668768882751465e-01 3.141826987266540527e-01 -1.061525288969278336e-02 -1.346092939376831055e+00
3.135000000000000000e+03 3.169186210632324219e+01 2.184333610534667969e+01 3.707228600978851318e-02 1.036458611488342285e+00 3.220592737197875977e-01 -6.388346105813980103e-02
3.136000000000000000e+03 2.291784667968750000e+01 2.578693389892578125e+01 7.486923038959503174e-02 1.115283444523811340e-01 5.591927096247673035e-02 -1.269731670618057251e-01
3.137000000000000000e+03 1.335310935974121094e+01 2.304959869384765625e+01 -9.794463403522968292e-03 7.745401002466678619e-03 -6.147186504676938057e-04 3.868662286549806595e-03
3.138000000000000000e+03 1.580843067169189453e+01 7.177105426788330078e+00 7.256083335960283875e-05 1.044583550537936389e-04 5.310575579642318189e-05 3.939231100957840681e-05
3.139000000000000000e+03 1.596569252014160156e+01 6.784624099731445312e+00 -1.509238936705514789e-04 8.560403512092307210e-05 -1.959595647349487990e-05 2.719686017371714115e-05
3.140000000000000000e+03 3.130963134765625000e+01 -5.557802200317382812e+00 -3.677298724651336670e-01 1.052132606506347656e+00 2.053208351135253906e-01 -9.186143279075622559e-01
3.141000000000000000e+03 2.464340209960937500e+01 -5.110652446746826172e+00 -4.685490429401397705e-01 -3.046097606420516968e-02 -1.497029960155487061e-01 -8.072997927665710449e-01
3.142000000000000000e+03 2.682325172424316406e+01 -4.021766662597656250e+00 -6.403481960296630859e-01 3.073837161064147949e-01 -9.988934546709060669e-02 -1.214619159698486328e+00
3.143000000000000000e+03 2.655466079711914062e+01 2.484950256347656250e+01 8.203998208045959473e-02 3.331703841686248779e-01 1.245631128549575806e-01 -2.381040006875991821e-01
3.144000000000000000e+03 1.355960655212402344e+01 5.526671886444091797e+00 -3.801753337029367685e-05 1.228384098794776946e-05 -7.720107532804831862e-06 8.122058352455496788e-05
3.145000000000000000e+03 2.360462760925292969e+01 2.397101593017578125e+01 1.112395003437995911e-01 8.117572218179702759e-02 5.772456899285316467e-02 -1.239976733922958374e-01
3.146000000000000000e+03 1.288861083984375000e+01 -8.815543174743652344e+00 -6.195068359375000000e-01 -4.390740096569061279e-01 -3.175742626190185547e-01 -2.466411441564559937e-01
3.147000000000000000e+03 1.351821422576904297e+01 -7.125999927520751953e+00 -4.620081782341003418e-01 -4.077275097370147705e-01 -2.609207034111022949e-01 -2.380107343196868896e-01
3.148000000000000000e+03 2.305074691772460938e+01 -5.744224548339843750e+00 -4.729120135307312012e-01 -2.373833954334259033e-01 -2.130886167287826538e-01 -6.979293823242187500e-01
3.149000000000000000e+03 8.887378692626953125e+00 6.731647491455078125e+00 7.465598901035264134e-05 -1.240751298610121012e-04 -1.482574134570313618e-05 1.102583919418975711e-04
3.150000000000000000e+03 2.945434570312500000e+01 2.412163352966308594e+01 -9.712798520922660828e-03 7.131808996200561523e-01 2.110404223203659058e-01 -2.016493380069732666e-01
3.151000000000000000e+03 1.282626247406005859e+01 1.941503143310546875e+01 -1.275538932532072067e-02 1.955763204023241997e-03 -3.239887766540050507e-03 -4.875737242400646210e-03
3.152000000000000000e+03 1.288095474243164062e+01 2.036149787902832031e+01 -1.572110131382942200e-02 4.823265131562948227e-03 -3.269350854679942131e-03 -3.067125100642442703e-03
3.153000000000000000e+03 3.130638504028320312e+01 2.243261718750000000e+01 1.890011504292488098e-02 9.698743820190429688e-01 2.966323494911193848e-01 -8.637170493602752686e-02
3.154000000000000000e+03 3.615702819824218750e+01 -4.028744697570800781e+00 -1.630132675170898438e+00 7.617496252059936523e-01 -2.605149447917938232e-01 2.144588381052017212e-01
3.155000000000000000e+03 1.065173149108886719e+01 5.895257472991943359e+00 -4.403402999741956592e-05 -9.138815221376717091e-05 -4.062665539095178246e-05 9.423249139217659831e-05
3.156000000000000000e+03 1.467644596099853516e+01 -6.751425743103027344e+00 -4.352919161319732666e-01 -4.717212617397308350e-01 -2.721039652824401855e-01 -3.270577490329742432e-01
3.157000000000000000e+03 1.619719886779785156e+01 -8.067350387573242188e+00 -6.218161582946777344e-01 -6.686733961105346680e-01 -3.871468603610992432e-01 -5.023818612098693848e-01
3.158000000000000000e+03 1.429372406005859375e+01 2.421298027038574219e+01 -2.362395171076059341e-03 8.471194654703140259e-03 1.832639914937317371e-03 2.208611695095896721e-03
3.159000000000000000e+03 1.668127059936523438e+01 6.256507873535156250e+00 -3.760891922865994275e-05 3.918114816769957542e-05 4.716691819339757785e-07 2.892344491556286812e-05
3.160000000000000000e+03 1.161805725097656250e+01 1.971443557739257812e+01 -1.148618664592504501e-02 4.695715848356485367e-03 -2.037141239270567894e-03 -1.693921745754778385e-03
3.161000000000000000e+03 3.261996841430664062e+01 1.983792114257812500e+01 1.290957182645797729e-01 1.256770491600036621e+00 4.157598316669464111e-01 -6.747394800186157227e-02
3.162000000000000000e+03 8.719971656799316406e+00 1.290414810180664062e+01 -1.051836763508617878e-03 -1.675700914347544312e-04 -3.658220521174371243e-04 -3.215454635210335255e-04
3.163000000000000000e+03 7.242643737792968750e+01 -6.340939998626708984e+00 -2.445775419473648071e-01 -8.148411288857460022e-03 -7.581778615713119507e-02 -8.254830241203308105e-01
3.164000000000000000e+03 7.025648498535156250e+01 -8.750264167785644531e+00 -5.925647616386413574e-01 2.610217034816741943e-01 -9.946291893720626831e-02 -7.325715422630310059e-01
3.165000000000000000e+03 1.718039703369140625e+01 -6.457364559173583984e+00 -4.643259048461914062e-01 -5.246618390083312988e-01 -2.966963350772857666e-01 -5.371330380439758301e-01
3.166000000000000000e+03 3.682561874389648438e+01 -4.265241622924804688e+00 -1.661330461502075195e+00 7.225694060325622559e-01 -2.816283106803894043e-01 1.752208471298217773e-01
3.167000000000000000e+03 3.696430587768554688e+01 1.360809230804443359e+01 -2.992993965744972229e-02 8.841428905725479126e-02 1.754530519247055054e-02 2.127547115087509155e-01
3.168000000000000000e+03 3.539960861206054688e+01 1.281409835815429688e+01 -5.485837347805500031e-03 1.326763510704040527e+00 3.963833153247833252e-01 1.133085414767265320e-01
3.169000000000000000e+03 5.079810619354248047e+00 -7.013014793395996094e+00 -1.209079399704933167e-01 -2.644000947475433350e-02 -4.420438408851623535e-02 2.414841903373599052e-03
3.170000000000000000e+03 3.434751129150390625e+01 -6.860295772552490234e+00 -2.587425522506237030e-03 1.064877748489379883e+00 3.186870813369750977e-01 -4.847551286220550537e-01
3.171000000000000000e+03 6.037502288818359375e+00 7.290672779083251953e+00 9.365921869175508618e-05 -1.382751361234113574e-04 -1.338477432000217959e-05 3.349306643940508366e-05
3.172000000000000000e+03 3.735168457031250000e+01 1.441446399688720703e+01 -2.269921265542507172e-02 -1.334365010261535645e-01 -4.684071615338325500e-02 1.971167325973510742e-01
3.173000000000000000e+03 3.472737121582031250e+01 1.405086517333984375e+01 5.652175843715667725e-02 1.661750435829162598e+00 5.154816508293151855e-01 8.092696964740753174e-02
3.174000000000000000e+03 7.349552631378173828e+00 -7.847900390625000000e+00 -2.710132002830505371e-01 -9.475766867399215698e-02 -1.097312569618225098e-01 -8.103553205728530884e-02
3.175000000000000000e+03 1.499850559234619141e+01 5.500260829925537109e+00 -7.105074473656713963e-05 7.495483441743999720e-05 1.171226472251873929e-06 6.713577749906107783e-05
3.176000000000000000e+03 1.422312736511230469e+01 6.055513381958007812e+00 -9.934489207807928324e-05 3.867124542011879385e-05 -1.820209399738814682e-05 6.577229942195117474e-05
3.177000000000000000e+03 7.684774398803710938e+00 2.668980598449707031e+01 4.270906792953610420e-04 5.165124312043190002e-03 1.677664462476968765e-03 7.835544645786285400e-03
3.178000000000000000e+03 7.139775753021240234e+00 2.786526298522949219e+01 2.238702261820435524e-03 4.151809960603713989e-03 1.917153713293373585e-03 6.964380852878093719e-03
3.179000000000000000e+03 3.512208175659179688e+01 -6.557281970977783203e+00 -3.572701513767242432e-01 1.033976316452026367e+00 2.030118554830551147e-01 -3.892205059528350830e-01
3.180000000000000000e+03 3.764952850341796875e+01 -5.357437610626220703e+00 -1.468295097351074219e+00 7.008538246154785156e-01 -2.302323877811431885e-01 -3.937032446265220642e-02
3.181000000000000000e+03 1.723739242553710938e+01 2.456976509094238281e+01 1.185936573892831802e-02 5.686626303941011429e-03 5.263797473162412643e-03 -1.442111097276210785e-02
3.182000000000000000e+03 3.686042404174804688e+01 1.135233497619628906e+01 -2.020994424819946289e-01 -9.594676643610000610e-02 -8.941385895013809204e-02 2.214277721941471100e-02
3.183000000000000000e+03 1.527370548248291016e+01 -7.842928886413574219e+00 -5.541784167289733887e-01 -6.060581207275390625e-01 -3.480709493160247803e-01 -3.922180831432342529e-01
3.184000000000000000e+03 4.192005157470703125e+01 -1.094601440429687500e+01 4.706339836120605469e-01 9.183843731880187988e-01 4.167055189609527588e-01 -9.106063246726989746e-01
3.185000000000000000e+03 3.336253738403320312e+01 -6.260720729827880859e+00 -1.942986547946929932e-01 1.080254077911376953e+00 2.657866477966308594e-01 -5.283609628677368164e-01
3.186000000000000000e+03 3.792682266235351562e+01 1.625013542175292969e+01 2.881294349208474159e-03 -2.652676105499267578e-01 -7.871589809656143188e-02 2.172433882951736450e-01
3.187000000000000000e+03 3.686502838134765625e+01 1.550118923187255859e+01 2.137147635221481323e-02 2.258182018995285034e-01 7.415690273046493530e-02 2.597931623458862305e-01
3.188000000000000000e+03 8.134922027587890625e+00 7.098349094390869141e+00 -8.815122419036924839e-05 -1.787630171747878194e-04 -8.007427095435559750e-05 -8.753289148444309831e-05
3.189000000000000000e+03 3.784626388549804688e+01 -1.915092277526855469e+01 5.556179881095886230e-01 8.398200869560241699e-01 4.186314344406127930e-01 2.293738275766372681e-01
3.190000000000000000e+03 4.023203277587890625e+01 -1.996386909484863281e+01 1.234497904777526855e+00 2.304389953613281250e+00 1.061666369438171387e+00 6.845495700836181641e-01
3.191000000000000000e+03 3.981207275390625000e+01 -9.825541496276855469e+00 2.621731758117675781e-01 5.363416075706481934e-01 2.395544350147247314e-01 -1.100144386291503906e+00
3.192000000000000000e+03 8.160500526428222656e+00 -6.752199649810791016e+00 -2.495535314083099365e-01 -9.515625238418579102e-02 -1.034129336476325989e-01 -4.252025112509727478e-02
3.193000000000000000e+03 7.353950500488281250e+00 7.559609889984130859e+00 7.826003275113180280e-05 -1.522776728961616755e-04 -2.220529131591320038e-05 4.306556002120487392e-05
3.194000000000000000e+03 2.714283561706542969e+01 2.544696807861328125e+01 3.374912962317466736e-02 4.092161357402801514e-01 1.328895837068557739e-01 -2.237123399972915649e-01
3.195000000000000000e+03 7.267619323730468750e+01 -7.245942115783691406e+00 -2.913165390491485596e-01 -1.075409725308418274e-02 -9.062119573354721069e-02 -7.694509029388427734e-01
3.196000000000000000e+03 3.665008926391601562e+01 -7.384921550750732422e+00 -2.651004493236541748e-01 7.875245213508605957e-01 1.567272245883941650e-01 -4.608521759510040283e-01
3.197000000000000000e+03 6.571056365966796875e+01 -4.148193836212158203e+00 4.283247888088226318e-02 1.005121827125549316e+00 3.143862783908843994e-01 -3.101098537445068359e-01
3.198000000000000000e+03 6.798657894134521484e+00 9.634056091308593750e+00 -3.497620346024632454e-04 -3.058541915379464626e-04 -1.966848649317398667e-04 4.001858542324043810e-06
3.199000000000000000e+03 7.384853839874267578e+00 1.066319179534912109e+01 -4.373138654045760632e-04 -3.922137548215687275e-04 -2.488582977093756199e-04 -1.062502851709723473e-04
3.200000000000000000e+03 1.409838676452636719e+01 -8.361428260803222656e+00 -6.089041829109191895e-01 -5.371317863464355469e-01 -3.438107669353485107e-01 -2.973294854164123535e-01
3.201000000000000000e+03 6.557296752929687500e+00 -9.171733856201171875e+00 -2.783206105232238770e-01 -9.980497509241104126e-02 -1.134376749396324158e-01 -1.440001726150512695e-01
3.202000000000000000e+03 4.037918472290039062e+01 -1.428313255310058594e+01 1.512677550315856934e+00 1.395337104797363281e+00 8.724043965339660645e-01 -1.062169313430786133e+00
3.203000000000000000e+03 4.086877059936523438e+01 -1.348468208312988281e+01 1.529386401176452637e+00 1.289571762084960938e+00 8.456874489784240723e-01 -1.091874718666076660e+00
3.204000000000000000e+03 3.648344421386718750e+01 -5.664466857910156250e+00 -1.112085700035095215e+00 8.377212285995483398e-01 -8.230934292078018188e-02 -1.287108510732650757e-01
3.205000000000000000e+03 6.838617706298828125e+01 -7.164072513580322266e+00 -4.841558635234832764e-01 3.432260751724243164e-01 -4.227893799543380737e-02 -7.242986559867858887e-01
3.206000000000000000e+03 6.776361846923828125e+01 -6.628705024719238281e+00 -4.116793274879455566e-01 4.392870664596557617e-01 8.282320573925971985e-03 -6.725166440010070801e-01
3.207000000000000000e+03 7.669986724853515625e+00 -1.488526439666748047e+01 -3.503316342830657959e-01 -2.950698733329772949e-01 -1.936204582452774048e-01 -6.449589729309082031e-01
3.208000000000000000e+03 7.152860260009765625e+01 -1.934492588043212891e+00 9.394714981317520142e-02 1.281178593635559082e-01 6.661950051784515381e-02 -8.475708365440368652e-01
3.209000000000000000e+03 7.245603179931640625e+01 -4.222193241119384766e+00 -7.805988192558288574e-02 -5.905561521649360657e-02 -4.113464802503585815e-02 -8.686425089836120605e-01
3.210000000000000000e+03 7.381608581542968750e+01 1.867392158508300781e+01 2.290216833353042603e-01 -2.926218211650848389e-01 -1.908003538846969604e-02 6.862225532531738281e-01
3.211000000000000000e+03 6.689626312255859375e+01 5.737888813018798828e+00 8.979257345199584961e-01 2.580494880676269531e+00 1.043526172637939453e+00 9.820199012756347656e-02
3.212000000000000000e+03 6.774909210205078125e+01 6.707355022430419922e+00 8.207919001579284668e-01 2.281465291976928711e+00 9.306771159172058105e-01 9.884808678179979324e-04
3.213000000000000000e+03 6.137554550170898438e+01 -8.834165573120117188e+00 -7.362795472145080566e-01 7.791438102722167969e-01 1.285928394645452499e-02 6.286407709121704102e-01
3.214000000000000000e+03 4.262092208862304688e+01 -1.008309841156005859e+01 3.456688672304153442e-02 8.847059011459350586e-01 2.757818400859832764e-01 -5.527326464653015137e-01
3.215000000000000000e+03 4.135917282104492188e+01 -1.172693920135498047e+01 9.429935216903686523e-01 9.995648264884948730e-01 5.827674865722656250e-01 -1.015650987625122070e+00
3.216000000000000000e+03 7.313784027099609375e+01 -8.845746994018554688e+00 -3.740404844284057617e-01 -3.012969857081770897e-03 -1.131160408258438110e-01 -6.209611892700195312e-01
3.217000000000000000e+03 4.071448516845703125e+01 -7.405766963958740234e+00 -1.241351604461669922e+00 2.625045180320739746e-01 -2.936541140079498291e-01 -5.016302466392517090e-01
3.218000000000000000e+03 4.225801467895507812e+01 -8.413586616516113281e+00 -8.126952052116394043e-01 4.039398133754730225e-01 -1.226266175508499146e-01 -4.496115446090698242e-01
3.219000000000000000e+03 9.174444198608398438e+00 -1.284418010711669922e+01 -5.801305174827575684e-01 -2.379953116178512573e-01 -2.454377412796020508e-01 -5.108857750892639160e-01
3.220000000000000000e+03 8.528956413269042969e+00 -1.197669601440429688e+01 -4.950207769870758057e-01 -2.075440585613250732e-01 -2.107694447040557861e-01 -3.960310816764831543e-01
3.221000000000000000e+03 5.769918441772460938e+01 -7.281608104705810547e+00 -4.260982871055603027e-01 1.900024890899658203e+00 4.421779811382293701e-01 1.430554032325744629e+00
3.222000000000000000e+03 7.124285888671875000e+01 1.780173492431640625e+01 4.451530277729034424e-01 7.971126437187194824e-01 3.726796805858612061e-01 6.829028725624084473e-01
3.223000000000000000e+03 4.201073074340820312e+01 -1.242885208129882812e+01 1.084492683410644531e+00 1.416081070899963379e+00 7.501721382141113281e-01 -8.993461728096008301e-01
3.224000000000000000e+03 7.506391143798828125e+01 -8.595006942749023438e+00 -2.033892124891281128e-01 -2.217365652322769165e-01 -1.275377273559570312e-01 -5.455196499824523926e-01
3.225000000000000000e+03 8.091844558715820312e+00 -1.603357696533203125e+01 -2.977605462074279785e-01 -3.401192128658294678e-01 -1.913639307022094727e-01 -7.501299381256103516e-01
3.226000000000000000e+03 6.505406188964843750e+01 -5.690401554107666016e+00 -1.605719476938247681e-01 7.667768597602844238e-01 1.818614602088928223e-01 -2.413895875215530396e-01
3.227000000000000000e+03 7.298146820068359375e+01 -8.073915481567382812e+00 -3.447953164577484131e-01 -1.106068305671215057e-02 -1.067568063735961914e-01 -7.267799973487854004e-01
3.228000000000000000e+03 7.321603393554687500e+01 -1.066016292572021484e+01 -4.375095963478088379e-01 5.003571137785911560e-02 -1.162421628832817078e-01 -4.402177929878234863e-01
3.229000000000000000e+03 6.399736404418945312e+01 -6.155939579010009766e+00 -1.986754685640335083e-01 8.316509723663330078e-01 1.898926496505737305e-01 -6.975448341108858585e-04
3.230000000000000000e+03 6.513743591308593750e+01 5.514183044433593750e+00 1.029343962669372559e+00 3.516356229782104492e+00 1.363710045814514160e+00 4.703330695629119873e-01
3.231000000000000000e+03 7.245613861083984375e+01 2.655603170394897461e+00 3.368140757083892822e-01 -1.345302443951368332e-02 9.700831025838851929e-02 -6.420527100563049316e-01
3.232000000000000000e+03 7.353627777099609375e+01 2.643495798110961914e+00 2.293127626180648804e-01 -4.538137912750244141e-01 -6.735030561685562134e-02 -6.545218229293823242e-01
3.233000000000000000e+03 8.768534660339355469e+00 -2.235765457153320312e+01 3.328170478343963623e-01 -5.807605385780334473e-01 -7.438304275274276733e-02 -6.907768249511718750e-01
3.234000000000000000e+03 6.544997692108154297e+00 8.124256134033203125e+00 -1.730630610836669803e-04 -1.696476392680779099e-04 -1.028132101055234671e-04 -1.107060597860254347e-04
3.235000000000000000e+03 4.312038040161132812e+01 -3.215265274047851562e+01 -1.445023566484451294e-01 2.148113489151000977e+00 6.010833382606506348e-01 2.450772970914840698e-01
3.236000000000000000e+03 7.034539031982421875e+01 -1.336223006248474121e+00 1.568726003170013428e-01 4.557926356792449951e-01 1.837995648384094238e-01 -7.877415418624877930e-01
3.237000000000000000e+03 3.867138671875000000e+01 -9.461719512939453125e+00 4.216856360435485840e-01 5.527774095535278320e-01 2.923389077186584473e-01 -1.029075860977172852e+00
3.238000000000000000e+03 4.041833114624023438e+01 -1.126794624328613281e+01 7.421209812164306641e-01 7.925579547882080078e-01 4.604036808013916016e-01 -1.210624694824218750e+00
3.239000000000000000e+03 7.191790771484375000e+01 -2.608795928955078125e+01 -1.010479498654603958e-02 2.940845210105180740e-03 -2.149184932932257652e-03 2.513067331165075302e-03
3.240000000000000000e+03 6.362321472167968750e+01 -8.730566129088401794e-03 6.459288597106933594e-01 2.445463657379150391e+00 9.274177551269531250e-01 4.114233255386352539e-01
3.241000000000000000e+03 4.030208206176757812e+01 2.203501319885253906e+01 -3.002529218792915344e-02 -2.860930263996124268e-01 -9.483549743890762329e-02 1.722131669521331787e-01
3.242000000000000000e+03 7.731726169586181641e+00 2.421300125122070312e+01 -1.852339948527514935e-03 4.340274725109338760e-03 7.463804213330149651e-04 8.032262325286865234e-03
3.243000000000000000e+03 6.274985122680664062e+01 -8.926864266395568848e-01 6.608439683914184570e-01 2.435842990875244141e+00 9.290060997009277344e-01 6.326529383659362793e-01
3.244000000000000000e+03 6.787302398681640625e+01 8.484805107116699219e+00 8.317980766296386719e-01 2.448512315750122070e+00 9.840931296348571777e-01 1.079854741692543030e-01
3.245000000000000000e+03 3.483370590209960938e+01 1.651709938049316406e+01 5.987401679158210754e-02 1.191569447517395020e+00 3.754330277442932129e-01 1.425454616546630859e-01
3.246000000000000000e+03 1.094085502624511719e+01 -9.254933357238769531e+00 -5.862627625465393066e-01 -2.639648616313934326e-01 -2.550683021545410156e-01 -2.293889969587326050e-01
3.247000000000000000e+03 1.145648002624511719e+01 -1.085638904571533203e+01 -7.217380404472351074e-01 -3.302253782749176025e-01 -3.155890405178070068e-01 -3.281820714473724365e-01
3.248000000000000000e+03 8.269892692565917969e+00 -1.332571792602539062e+01 -4.660114645957946777e-01 -2.427873015403747559e-01 -2.126396298408508301e-01 -5.343283414840698242e-01
3.249000000000000000e+03 6.903889179229736328e+00 -1.415159511566162109e+01 -3.421441316604614258e-01 -2.572318911552429199e-01 -1.798128038644790649e-01 -5.546434521675109863e-01
3.250000000000000000e+03 6.878004455566406250e+01 1.138121223449707031e+01 8.137888312339782715e-01 2.158592939376831055e+00 8.917145133018493652e-01 2.154127806425094604e-01
3.251000000000000000e+03 6.965525054931640625e+01 1.251758575439453125e+01 7.306443452835083008e-01 1.661818146705627441e+00 7.177387475967407227e-01 2.521985471248626709e-01
3.252000000000000000e+03 8.055184364318847656e+00 3.064342498779296875e+01 5.242944229394197464e-03 1.033902727067470551e-02 4.674591589719057083e-03 3.610717365518212318e-03
3.253000000000000000e+03 8.172079086303710938e+00 2.910688972473144531e+01 4.081473220139741898e-03 8.712589740753173828e-03 3.838218981400132179e-03 4.661214537918567657e-03
3.254000000000000000e+03 7.094326782226562500e+01 -2.798590660095214844e+01 -1.507921889424324036e-02 4.864248912781476974e-03 -3.064491087570786476e-03 5.865532904863357544e-03
3.255000000000000000e+03 7.300828552246093750e+01 -5.006894111633300781e+00 -1.331633627414703369e-01 -1.332137584686279297e-01 -7.991313934326171875e-02 -8.458760380744934082e-01
3.256000000000000000e+03 7.251806640625000000e+01 -2.705075502395629883e+00 -2.885423600673675537e-04 -1.048571765422821045e-01 -3.154371678829193115e-02 -8.614189028739929199e-01
3.257000000000000000e+03 4.184023284912109375e+01 2.160557937622070312e+01 -9.165107458829879761e-02 -4.912817180156707764e-01 -1.748798340559005737e-01 5.301471799612045288e-02
3.258000000000000000e+03 4.671917343139648438e+01 2.495860862731933594e+01 -1.136769205331802368e-01 -4.055720865726470947e-01 -1.557746976613998413e-01 -1.533751785755157471e-01
3.259000000000000000e+03 8.405548095703125000e+00 -2.814387702941894531e+01 2.923408150672912598e-01 -6.854068636894226074e-01 -1.179198101162910461e-01 -3.158118426799774170e-01
3.260000000000000000e+03 1.411662197113037109e+01 -2.815440177917480469e+01 5.368376374244689941e-01 1.721826940774917603e-01 2.127060890197753906e-01 -3.943026661872863770e-01
3.261000000000000000e+03 6.810188293457031250e+01 2.523305892944335938e+01 -2.849507629871368408e-01 1.690882921218872070e+00 4.217796325683593750e-01 6.999208927154541016e-01
3.262000000000000000e+03 6.703810882568359375e+01 2.312673377990722656e+01 -1.797047443687915802e-02 2.256200075149536133e+00 6.714688539505004883e-01 7.178408503532409668e-01
3.263000000000000000e+03 8.703853607177734375e+00 -2.373378372192382812e+01 3.781416118144989014e-01 -6.145287752151489258e-01 -7.091613858938217163e-02 -5.919445157051086426e-01
3.264000000000000000e+03 6.894088745117187500e+01 9.472504615783691406e+00 7.935204505920410156e-01 1.902073740959167480e+00 8.086782693862915039e-01 8.297345042228698730e-02
3.265000000000000000e+03 6.997164154052734375e+01 1.555729484558105469e+01 6.882774233818054199e-01 1.452090740203857422e+00 6.421104669570922852e-01 4.936194717884063721e-01
3.266000000000000000e+03 8.097952842712402344e+00 -2.611707878112792969e+01 3.133892118930816650e-01 -7.193633317947387695e-01 -1.217922344803810120e-01 -4.243721365928649902e-01
3.267000000000000000e+03 6.879796600341796875e+01 -3.020582962036132812e+01 -3.135280683636665344e-02 6.727745756506919861e-03 -7.387517951428890228e-03 1.933866180479526520e-02
3.268000000000000000e+03 6.980804443359375000e+01 -3.349646759033203125e+01 -9.496270678937435150e-03 -2.600350708235055208e-04 -2.926891902461647987e-03 2.995244041085243225e-02
3.269000000000000000e+03 3.094506072998046875e+01 -3.161694288253784180e+00 -1.366628885269165039e+00 3.710591495037078857e-01 -2.986709177494049072e-01 -7.325412631034851074e-01
3.270000000000000000e+03 3.118862342834472656e+01 -3.525893688201904297e+00 -1.245044350624084473e+00 4.860476851463317871e-01 -2.276989966630935669e-01 -7.100961804389953613e-01
3.271000000000000000e+03 3.066380119323730469e+01 -3.187092304229736328e+00 -1.318812727928161621e+00 3.399375677108764648e-01 -2.936625480651855469e-01 -7.929472923278808594e-01
3.272000000000000000e+03 3.038844871520996094e+01 -3.593509197235107422e+00 -1.109073758125305176e+00 4.140893816947937012e-01 -2.084953188896179199e-01 -9.182884693145751953e-01
3.273000000000000000e+03 3.131987953186035156e+01 -4.008084774017333984e+00 -1.057998538017272949e+00 6.080877780914306641e-01 -1.349732130765914917e-01 -7.435038089752197266e-01
3.274000000000000000e+03 3.193613815307617188e+01 -3.076034069061279297e+00 -1.523047685623168945e+00 4.009619057178497314e-01 -3.366257250308990479e-01 -4.931417405605316162e-01
3.275000000000000000e+03 3.161703109741210938e+01 -2.912798881530761719e+00 -1.562240481376647949e+00 3.364413082599639893e-01 -3.677397370338439941e-01 -5.293223261833190918e-01
3.276000000000000000e+03 2.716240882873535156e+01 -3.585040807723999023e+00 -7.662763595581054688e-01 3.536489903926849365e-01 -1.237882077693939209e-01 -1.251088380813598633e+00
3.277000000000000000e+03 3.406544113159179688e+01 -2.717334270477294922e+00 -1.817960023880004883e+00 4.117758274078369141e-01 -4.218552708625793457e-01 2.261345274746417999e-02
3.278000000000000000e+03 2.760661888122558594e+01 -3.943554639816284180e+00 -6.800512671470642090e-01 2.942967712879180908e-01 -1.157263591885566711e-01 -1.291143894195556641e+00
3.279000000000000000e+03 2.720442008972167969e+01 -4.058152675628662109e+00 -6.483703255653381348e-01 2.963043451309204102e-01 -1.056197956204414368e-01 -1.275923013687133789e+00
3.280000000000000000e+03 1.668704032897949219e+01 6.567490577697753906e+00 1.266204162675421685e-05 1.059558489941991866e-04 3.558536627679131925e-05 2.575717007857747376e-05
3.281000000000000000e+03 2.927206802368164062e+01 -3.171505212783813477e+00 -1.082257986068725586e+00 2.364949584007263184e-01 -2.537288963794708252e-01 -1.085800290107727051e+00
3.282000000000000000e+03 3.095011901855468750e+01 -3.502938985824584961e+00 -1.213850975036621094e+00 4.556257724761962891e-01 -2.274675667285919189e-01 -7.643546462059020996e-01
3.283000000000000000e+03 3.431603622436523438e+01 1.480074405670166016e+01 6.961523741483688354e-02 1.785249471664428711e+00 5.564594268798828125e-01 1.497093029320240021e-02
3.284000000000000000e+03 2.794027137756347656e+01 -2.967476606369018555e+00 -9.441475272178649902e-01 2.393676936626434326e-01 -2.114339470863342285e-01 -1.224444627761840820e+00
3.285000000000000000e+03 2.834754943847656250e+01 -4.274482250213623047e+00 -6.224676370620727539e-01 3.026137948036193848e-01 -9.595614671707153320e-02 -1.298501372337341309e+00
3.286000000000000000e+03 1.238250923156738281e+01 1.165829086303710938e+01 -1.279502466786652803e-04 -1.348927034996449947e-04 -7.885288505349308252e-05 -6.703112012473866343e-05
3.287000000000000000e+03 1.294848918914794922e+01 2.274495506286621094e+01 -1.152231916785240173e-02 8.148509077727794647e-03 -1.012143213301897049e-03 4.922457039356231689e-03
3.288000000000000000e+03 1.297935676574707031e+01 2.138182449340820312e+01 -1.673923805356025696e-02 6.243009585887193680e-03 -3.148868912830948830e-03 7.639184477739036083e-04
3.289000000000000000e+03 1.402584075927734375e+01 9.079081535339355469e+00 -2.531546633690595627e-04 1.781378960004076362e-04 -2.250503530376590788e-05 6.611874414375051856e-05
3.290000000000000000e+03 1.404873085021972656e+01 1.017823314666748047e+01 -1.471223076805472374e-04 1.605516590643674135e-04 4.028807325084926561e-06 8.766385872149839997e-05
3.291000000000000000e+03 1.510534763336181641e+01 6.435287952423095703e+00 -1.157099613919854164e-04 7.111227023415267467e-05 -1.337930734734982252e-05 9.291137394029647112e-05
3.292000000000000000e+03 3.419373321533203125e+01 1.321083259582519531e+01 8.990991860628128052e-02 2.231525182723999023e+00 6.964305043220520020e-01 -1.112668365240097046e-01
3.293000000000000000e+03 3.586783981323242188e+01 1.337337017059326172e+01 2.371625043451786041e-03 8.906797170639038086e-01 2.679153978824615479e-01 1.916700452566146851e-01
3.294000000000000000e+03 1.446890735626220703e+01 9.339577674865722656e+00 -7.077027112245559692e-05 2.444534620735794306e-04 5.210495510254986584e-05 5.801212864753324538e-06
3.295000000000000000e+03 1.423150157928466797e+01 9.680660247802734375e+00 -1.842765341280028224e-04 2.244298520963639021e-04 1.204599811899242923e-05 3.770828698179684579e-05
3.296000000000000000e+03 1.137308502197265625e+01 1.251668739318847656e+01 -4.615912039298564196e-04 -3.066842036787420511e-04 -2.304826193721964955e-04 -9.593654976924881339e-05
3.297000000000000000e+03 2.756453704833984375e+01 -4.710082054138183594e+00 -4.655155837535858154e-01 2.560442090034484863e-01 -6.284141540527343750e-02 -1.314766645431518555e+00
3.298000000000000000e+03 1.197437286376953125e+01 1.687525558471679688e+01 -3.601209959015250206e-03 -2.712491841521114111e-04 -1.161737716756761074e-03 -2.656384604051709175e-03
3.299000000000000000e+03 1.078930950164794922e+01 1.545010852813720703e+01 -2.343639964237809181e-03 8.026788418646901846e-05 -6.790116312913596630e-04 -1.278555719181895256e-03
3.300000000000000000e+03 1.121026992797851562e+01 1.595437049865722656e+01 -2.531286096200346947e-03 -2.975140341732185334e-05 -7.683112635277211666e-04 -1.416499377228319645e-03
3.301000000000000000e+03 1.638754463195800781e+01 7.199084281921386719e+00 -1.301830634474754333e-04 1.558000658405944705e-04 7.685098353249486536e-06 3.341982665006071329e-05
3.302000000000000000e+03 1.133703994750976562e+01 1.382121658325195312e+01 -8.380442741326987743e-04 -3.101048350799828768e-04 -3.444447356741875410e-04 -6.435142713598906994e-04
3.303000000000000000e+03 3.382422256469726562e+01 1.831370162963867188e+01 1.043113768100738525e-01 1.267209291458129883e+00 4.114561975002288818e-01 4.213291406631469727e-02
3.304000000000000000e+03 3.292881393432617188e+01 1.842024993896484375e+01 1.530744880437850952e-01 1.473517894744873047e+00 4.879777133464813232e-01 -1.113595515489578247e-01
3.305000000000000000e+03 1.621880149841308594e+01 7.006127834320068359e+00 9.482181485509499907e-05 8.266963413916528225e-05 5.324743688106536865e-05 -7.238244506879709661e-06
3.306000000000000000e+03 1.066578769683837891e+01 1.633377838134765625e+01 -3.642675001174211502e-03 6.538613233715295792e-04 -8.966440800577402115e-04 -1.557729206979274750e-03
3.307000000000000000e+03 1.385477066040039062e+01 8.396004676818847656e+00 -2.088265755446627736e-04 1.047588448273018003e-04 -3.122031921520829201e-05 1.460370986023917794e-04
3.308000000000000000e+03 1.164443016052246094e+01 1.306686496734619141e+01 -4.703072190750390291e-04 -3.043061587959527969e-04 -2.323840162716805935e-04 -3.852468216791749001e-04
3.309000000000000000e+03 1.252713108062744141e+01 2.241222000122070312e+01 -1.191966980695724487e-02 8.022606372833251953e-03 -1.169119030237197876e-03 3.680281341075897217e-03
3.310000000000000000e+03 1.305521392822265625e+01 2.073712921142578125e+01 -1.748187094926834106e-02 4.751843865960836411e-03 -3.819008357822895050e-03 -1.846479950472712517e-03
3.311000000000000000e+03 1.204997444152832031e+01 2.003948402404785156e+01 -1.275885291397571564e-02 5.241044331341981888e-03 -2.255342667922377586e-03 -1.619481598027050495e-03
3.312000000000000000e+03 1.155189990997314453e+01 1.893951797485351562e+01 -9.545639157295227051e-03 3.023015102371573448e-03 -1.956787193194031715e-03 -2.654446987435221672e-03
3.313000000000000000e+03 1.192718029022216797e+01 1.849421119689941406e+01 -8.033830672502517700e-03 1.796190510503947735e-03 -1.871292013674974442e-03 -3.518501063808798790e-03
3.314000000000000000e+03 1.216591548919677734e+01 2.132066535949707031e+01 -1.410786435008049011e-02 7.376546040177345276e-03 -2.019395586103200912e-03 1.792485476471483707e-03
3.315000000000000000e+03 1.104419803619384766e+01 1.461045742034912109e+01 -1.411801436915993690e-03 -2.343841624679043889e-04 -4.938556812703609467e-04 -9.638829506002366543e-04
3.316000000000000000e+03 1.164955425262451172e+01 1.433920669555664062e+01 -9.596386225894093513e-04 -4.193676286377012730e-04 -4.137018695473670959e-04 -6.161385099403560162e-04
3.317000000000000000e+03 2.521718406677246094e+01 2.462817382812500000e+01 1.148624569177627563e-01 2.066260576248168945e-01 9.644655138254165649e-02 -1.979219019412994385e-01
3.318000000000000000e+03 2.358154678344726562e+01 2.609320640563964844e+01 6.508915871381759644e-02 1.524146348237991333e-01 6.525114178657531738e-02 -1.453653872013092041e-01
3.319000000000000000e+03 2.984861564636230469e+01 -5.022696971893310547e+00 -4.559320807456970215e-01 6.577833294868469238e-01 6.055537238717079163e-02 -1.217237949371337891e+00
3.320000000000000000e+03 1.175480842590332031e+01 1.178930473327636719e+01 -2.921378763858228922e-04 -2.225751231890171766e-04 -1.544138940516859293e-04 3.824338273261673748e-05
3.321000000000000000e+03 3.119779777526855469e+01 -4.420172214508056641e+00 -8.662573099136352539e-01 6.872923970222473145e-01 -5.368946492671966553e-02 -7.971588373184204102e-01
3.322000000000000000e+03 2.652838706970214844e+01 -3.910408258438110352e+00 -6.702718138694763184e-01 3.156214058399200439e-01 -1.063951253890991211e-01 -1.175932526588439941e+00
3.323000000000000000e+03 2.600967597961425781e+01 -4.347138881683349609e+00 -5.939836502075195312e-01 2.388351708650588989e-01 -1.065445393323898315e-01 -1.042922139167785645e+00
3.324000000000000000e+03 2.315272140502929688e+01 2.521132469177246094e+01 8.387673646211624146e-02 1.079296469688415527e-01 5.754191428422927856e-02 -1.307137906551361084e-01
3.325000000000000000e+03 2.372719573974609375e+01 2.456773757934570312e+01 1.069134250283241272e-01 1.137442290782928467e-01 6.619729846715927124e-02 -1.426572203636169434e-01
3.326000000000000000e+03 1.802108764648437500e+01 2.580894851684570312e+01 2.952845953404903412e-02 2.114254981279373169e-02 1.520130317658185959e-02 -3.098638914525508881e-02
3.327000000000000000e+03 3.407380294799804688e+01 -5.362396717071533203e+00 -7.443857192993164062e-01 9.246867299079895020e-01 5.409029498696327209e-02 -2.915650904178619385e-01
3.328000000000000000e+03 3.236781692504882812e+01 -2.921730041503906250e+00 -1.628352999687194824e+00 3.784598112106323242e-01 -3.749679625034332275e-01 -3.754825294017791748e-01
3.329000000000000000e+03 1.369096851348876953e+01 7.181043624877929688e+00 8.443157275905832648e-05 7.406234362861141562e-05 4.754817564389668405e-05 1.366409414913505316e-04
3.330000000000000000e+03 1.571507453918457031e+01 6.046598434448242188e+00 -1.185877117677591741e-04 9.091702668229117990e-05 -8.301204616145696491e-06 5.598093048320151865e-05
3.331000000000000000e+03 1.568292713165283203e+01 8.052668571472167969e+00 7.122097304090857506e-05 1.808886881917715073e-04 7.563290273537859321e-05 3.383208604645915329e-05
3.332000000000000000e+03 2.261998176574707031e+01 2.801844215393066406e+01 3.361734375357627869e-02 1.477398127317428589e-01 5.440714582800865173e-02 -1.187944784760475159e-01
3.333000000000000000e+03 2.852299880981445312e+01 2.487984466552734375e+01 5.244212690740823746e-03 5.528566837310791016e-01 1.674302816390991211e-01 -2.272702008485794067e-01
3.334000000000000000e+03 3.561506652832031250e+01 1.433067131042480469e+01 2.848966419696807861e-02 1.015111207962036133e+00 3.130802810192108154e-01 2.072760462760925293e-01
3.335000000000000000e+03 3.489476394653320312e+01 -3.715934514999389648e+00 -1.544032335281372070e+00 6.748020648956298828e-01 -2.607690989971160889e-01 7.049652189016342163e-02
3.336000000000000000e+03 3.426308441162109375e+01 -2.997490406036376953e+00 -1.720438241958618164e+00 5.257273912429809570e-01 -3.584132492542266846e-01 2.902048826217651367e-02
3.337000000000000000e+03 1.376430797576904297e+01 2.406434249877929688e+01 -3.036197274923324585e-03 8.574256673455238342e-03 1.661417656578123569e-03 4.141389857977628708e-03
3.338000000000000000e+03 3.531109619140625000e+01 -4.094883441925048828e+00 -1.464378833770751953e+00 7.276248335838317871e-01 -2.210262119770050049e-01 1.107917279005050659e-01
3.339000000000000000e+03 2.887284660339355469e+01 -3.584041833877563477e+00 -8.963431715965270996e-01 2.646883130073547363e-01 -1.894964575767517090e-01 -1.195131063461303711e+00
3.340000000000000000e+03 1.782638931274414062e+01 2.477525329589843750e+01 1.857308857142925262e-02 8.327884599566459656e-03 8.070291951298713684e-03 -1.961053907871246338e-02
3.341000000000000000e+03 1.604415321350097656e+01 2.498167610168457031e+01 9.848409332334995270e-03 9.147495962679386139e-03 5.698771681636571884e-03 -6.783710792660713196e-03
3.342000000000000000e+03 1.557212829589843750e+01 6.561488628387451172e+00 6.907525676069781184e-05 8.065719885053113103e-05 4.491973595577292144e-05 4.138197618885897100e-05
3.343000000000000000e+03 3.620074844360351562e+01 1.712626075744628906e+01 4.187399148941040039e-02 5.479465126991271973e-01 1.769461482763290405e-01 2.767718434333801270e-01
3.344000000000000000e+03 3.469655609130859375e+01 1.594692611694335938e+01 5.560567602515220642e-02 1.353189110755920410e+00 4.226384460926055908e-01 1.173498257994651794e-01
3.345000000000000000e+03 3.312630081176757812e+01 1.973132133483886719e+01 1.039590686559677124e-01 1.206524252891540527e+00 3.931449949741363525e-01 4.647816531360149384e-03
3.346000000000000000e+03 3.069747924804687500e+01 2.398513412475585938e+01 -4.449109733104705811e-02 7.986806631088256836e-01 2.262568771839141846e-01 -1.036223173141479492e-01
3.347000000000000000e+03 3.201081085205078125e+01 2.155785560607910156e+01 6.384211033582687378e-02 1.070564985275268555e+00 3.403221070766448975e-01 -4.633266106247901917e-02
3.348000000000000000e+03 3.612395095825195312e+01 -5.131676673889160156e+00 -1.215774297714233398e+00 7.893235087394714355e-01 -1.279352456331253052e-01 1.950041949748992920e-02
3.349000000000000000e+03 3.258927536010742188e+01 1.932125282287597656e+01 1.714157909154891968e-01 1.358690142631530762e+00 4.590317904949188232e-01 -1.137159615755081177e-01
3.350000000000000000e+03 3.289025115966796875e+01 2.127736854553222656e+01 3.641131520271301270e-02 1.002227544784545898e+00 3.115916550159454346e-01 5.848472937941551208e-02
3.351000000000000000e+03 3.397462844848632812e+01 1.743991851806640625e+01 9.630326926708221436e-02 1.380678653717041016e+00 4.430945813655853271e-01 3.002413176000118256e-02
3.352000000000000000e+03 8.148970603942871094e+00 1.105577182769775391e+01 -2.137165574822574854e-04 -1.652696228120476007e-04 -1.136958526331000030e-04 7.611376349814236164e-05
3.353000000000000000e+03 1.493463802337646484e+01 2.361766433715820312e+01 -6.770169362425804138e-03 5.272832699120044708e-03 -4.492010048124939203e-04 1.487743109464645386e-03
3.354000000000000000e+03 1.159199714660644531e+01 6.403470516204833984e+00 -4.114290277357213199e-05 -4.338858707342296839e-05 -2.535944622650276870e-05 1.374592975480481982e-04
3.355000000000000000e+03 3.424654388427734375e+01 1.666181755065917969e+01 7.304500043392181396e-02 1.430943846702575684e+00 4.511966705322265625e-01 5.185049027204513550e-02
3.356000000000000000e+03 3.584913635253906250e+01 -6.146787643432617188e+00 -7.144358158111572266e-01 8.811190128326416016e-01 5.000495538115501404e-02 -2.390412837266921997e-01
3.357000000000000000e+03 3.681216812133789062e+01 -5.010980129241943359e+00 -1.433074712753295898e+00 7.976301908493041992e-01 -1.906333565711975098e-01 8.028277009725570679e-02
3.358000000000000000e+03 3.240713500976562500e+01 2.387573814392089844e+01 -8.179365843534469604e-02 7.569179534912109375e-01 2.025372833013534546e-01 6.928034871816635132e-02
3.359000000000000000e+03 1.222896289825439453e+01 2.066287612915039062e+01 -1.447150483727455139e-02 6.173268891870975494e-03 -2.489470876753330231e-03 -6.128983804956078529e-04
3.360000000000000000e+03 1.246355438232421875e+01 2.031565475463867188e+01 -1.496344339102506638e-02 5.050914827734231949e-03 -2.973758382722735405e-03 -1.950137317180633545e-03
3.361000000000000000e+03 1.598048686981201172e+01 2.429160308837890625e+01 3.661185968667268753e-03 5.195043515413999557e-03 2.656868891790509224e-03 -4.703810904175043106e-03
3.362000000000000000e+03 1.403661060333251953e+01 2.359499740600585938e+01 -6.362502928823232651e-03 7.196063175797462463e-03 2.500679984223097563e-04 3.250060603022575378e-03
3.363000000000000000e+03 8.594270706176757812e+00 7.716509342193603516e+00 9.345772559754550457e-05 -1.737200509523972869e-04 -2.407869942544493824e-05 1.036006942740641534e-04
3.364000000000000000e+03 3.485747528076171875e+01 -5.855933189392089844e+00 -6.557748913764953613e-01 9.421612620353698730e-01 8.591590821743011475e-02 -2.603380382061004639e-01
3.365000000000000000e+03 2.526179695129394531e+01 2.539439773559570312e+01 8.216662704944610596e-02 2.381851226091384888e-01 9.610552340745925903e-02 -1.996589899063110352e-01
3.366000000000000000e+03 3.772579193115234375e+01 1.528253078460693359e+01 -1.243137102574110031e-02 -2.376645207405090332e-01 -7.502876967191696167e-02 2.020204961299896240e-01
3.367000000000000000e+03 1.700262641906738281e+01 2.519036293029785156e+01 1.904224604368209839e-02 1.110792346298694611e-02 9.045050479471683502e-03 -1.575268059968948364e-02
3.368000000000000000e+03 1.199652099609375000e+01 -8.493812561035156250e+00 -5.633705854415893555e-01 -3.290118277072906494e-01 -2.677147090435028076e-01 -2.152303755283355713e-01
3.369000000000000000e+03 7.226069450378417969e+00 8.830911636352539062e+00 1.192501440527848899e-04 -1.986968127312138677e-04 -2.383399987593293190e-05 7.921340511529706419e-06
3.370000000000000000e+03 7.990922927856445312e+00 9.331547737121582031e+00 -3.669116413220763206e-04 -2.475735382176935673e-04 -1.843455538619309664e-04 -2.430603672110009938e-05
3.371000000000000000e+03 1.001975727081298828e+01 1.780859565734863281e+01 -5.948123056441545486e-03 2.184567507356405258e-03 -1.129066688008606434e-03 -5.965877790004014969e-04
3.372000000000000000e+03 1.161219310760498047e+01 1.642257118225097656e+01 -3.204304492101073265e-03 2.242424898213357665e-06 -9.606186067685484886e-04 -2.169806743040680885e-03
3.373000000000000000e+03 1.187747478485107422e+01 1.764941596984863281e+01 -5.551530979573726654e-03 6.163445650599896908e-04 -1.480555860325694084e-03 -3.339891321957111359e-03
3.374000000000000000e+03 7.048584747314453125e+01 -7.037621021270751953e+00 -4.269730150699615479e-01 2.285163551568984985e-01 -5.953699722886085510e-02 -8.005670905113220215e-01
3.375000000000000000e+03 7.904069423675537109e+00 8.211109161376953125e+00 -2.219598973169922829e-04 -2.011479664361104369e-04 -1.269323547603562474e-04 -9.150367986876517534e-05
3.376000000000000000e+03 7.843801975250244141e+00 1.428682804107666016e+01 -1.804008265025913715e-03 5.868708831258118153e-05 -5.235963617451488972e-04 -8.561267168261110783e-05
3.377000000000000000e+03 7.397625446319580078e+00 1.492850017547607422e+01 -1.603298936970531940e-03 3.513341653160750866e-04 -3.755894431378692389e-04 4.559381050057709217e-04
3.378000000000000000e+03 3.529973602294921875e+01 1.374671745300292969e+01 3.199457377195358276e-02 1.299998164176940918e+00 3.995978236198425293e-01 1.432449817657470703e-01
3.379000000000000000e+03 1.239649105072021484e+01 6.911958694458007812e+00 -6.886960909469053149e-05 -6.296299397945404053e-05 -3.954978092224337161e-05 1.861197379184886813e-04
3.380000000000000000e+03 1.300291347503662109e+01 6.198554992675781250e+00 -1.462417799302784260e-06 7.228657977975672111e-06 1.729871996758447494e-06 1.108887954615056515e-04
3.381000000000000000e+03 2.315328025817871094e+01 2.459869956970214844e+01 9.303988516330718994e-02 8.814363181591033936e-02 5.435505509376525879e-02 -1.224579438567161560e-01
3.382000000000000000e+03 4.091173171997070312e+01 -1.030779266357421875e+01 3.964058756828308105e-01 6.847091317176818848e-01 3.243345022201538086e-01 -9.706905484199523926e-01
3.383000000000000000e+03 6.367216110229492188e+01 -1.916086435317993164e+00 4.348184168338775635e-01 1.909878611564636230e+00 7.034091353416442871e-01 2.381998002529144287e-01
3.384000000000000000e+03 8.971924781799316406e+00 1.794784164428710938e+01 -5.840629339218139648e-03 2.451417967677116394e-03 -1.016763388179242611e-03 4.818861780222505331e-04
3.385000000000000000e+03 3.348185348510742188e+01 2.023065185546875000e+01 5.413353815674781799e-02 1.045087933540344238e+00 3.297664225101470947e-01 9.463396668434143066e-02
3.386000000000000000e+03 2.072117805480957031e+01 2.588767814636230469e+01 5.609856918454170227e-02 4.970854893326759338e-02 3.174213692545890808e-02 -7.422021031379699707e-02
3.387000000000000000e+03 1.841163825988769531e+01 2.653731918334960938e+01 3.697913140058517456e-02 3.194037824869155884e-02 2.067585289478302002e-02 -4.180412366986274719e-02
3.388000000000000000e+03 7.621359348297119141e+00 -8.836650848388671875e+00 -3.253469765186309814e-01 -1.200350821018218994e-01 -1.336146146059036255e-01 -1.376998573541641235e-01
3.389000000000000000e+03 1.754584312438964844e+01 2.542005729675292969e+01 2.285927720367908478e-02 1.473847683519124985e-02 1.127932593226432800e-02 -2.288558892905712128e-02
3.390000000000000000e+03 6.460218811035156250e+01 -9.714216589927673340e-01 4.970821440219879150e-01 1.943441152572631836e+00 7.321569919586181641e-01 1.206627041101455688e-01
3.391000000000000000e+03 3.847272109985351562e+01 2.110339546203613281e+01 -2.309460751712322235e-02 -5.765297263860702515e-02 -2.422427386045455933e-02 2.687652409076690674e-01
3.392000000000000000e+03 3.820022964477539062e+01 1.953823852539062500e+01 1.023342739790678024e-02 -7.065159827470779419e-02 -1.812545210123062134e-02 2.751717567443847656e-01
3.393000000000000000e+03 8.123229980468750000e+00 1.823196411132812500e+01 -5.465256050229072571e-03 2.362741855904459953e-03 -9.307542350143194199e-04 1.427828683517873287e-03
3.394000000000000000e+03 6.823304748535156250e+01 1.495355701446533203e+01 8.225526213645935059e-01 2.490779876708984375e+00 9.939997792243957520e-01 3.717628419399261475e-01
3.395000000000000000e+03 2.178865623474121094e+01 -4.559260845184326172e+00 -4.111946225166320801e-01 -3.449578881263732910e-01 -2.268457561731338501e-01 -6.581815481185913086e-01
3.396000000000000000e+03 6.295951461791992188e+01 -6.742437839508056641e+00 -3.308413028717041016e-01 9.080690741539001465e-01 1.731683313846588135e-01 2.766019105911254883e-01
3.397000000000000000e+03 6.232442092895507812e+01 -8.366382598876953125e+00 -6.763720512390136719e-01 6.227705478668212891e-01 -1.608044467866420746e-02 4.621839225292205811e-01
3.398000000000000000e+03 1.004032993316650391e+01 -8.880232810974121094e+00 -4.816014766693115234e-01 -2.176860868930816650e-01 -2.097862660884857178e-01 -1.925316452980041504e-01
3.399000000000000000e+03 3.619551086425781250e+01 1.638501739501953125e+01 4.135537147521972656e-02 5.664505362510681152e-01 1.823417842388153076e-01 2.735727131366729736e-01
3.400000000000000000e+03 8.626937866210937500e+00 2.648578834533691406e+01 2.082000020891427994e-03 6.677259691059589386e-03 2.627777867019176483e-03 7.509658113121986389e-03
3.401000000000000000e+03 7.747499942779541016e+00 1.302992439270019531e+01 -1.156082376837730408e-03 -2.211373503087088466e-04 -4.131659225095063448e-04 -2.204546763096004725e-04
3.402000000000000000e+03 6.937992858886718750e+01 -7.300518989562988281e+00 -4.558042287826538086e-01 3.195531964302062988e-01 -4.087530821561813354e-02 -7.918462157249450684e-01
3.403000000000000000e+03 1.120710754394531250e+01 -7.293347358703613281e+00 -4.237399995326995850e-01 -2.393739819526672363e-01 -1.989341974258422852e-01 -1.444357186555862427e-01
3.404000000000000000e+03 7.214145660400390625e+01 -5.532625675201416016e+00 -1.913270652294158936e-01 1.396823301911354065e-02 -5.320765078067779541e-02 -8.529872298240661621e-01
3.405000000000000000e+03 6.970348358154296875e+01 8.494218826293945312e+00 6.965786814689636230e-01 1.445019841194152832e+00 6.424795389175415039e-01 -4.954875633120536804e-02
3.406000000000000000e+03 1.631740570068359375e+01 -7.205490589141845703e+00 -5.096476674079895020e-01 -5.838515758514404297e-01 -3.280497789382934570e-01 -4.732893407344818115e-01
3.407000000000000000e+03 7.159150695800781250e+01 -8.359058380126953125e+00 -4.450091421604156494e-01 1.293905675411224365e-01 -9.468556940555572510e-02 -7.254670858383178711e-01
3.408000000000000000e+03 7.159220886230468750e+01 2.202057361602783203e+00 3.508340418338775635e-01 2.641541957855224609e-01 1.844964623451232910e-01 -6.611436009407043457e-01
3.409000000000000000e+03 3.767088317871093750e+01 1.822764968872070312e+01 2.102129161357879639e-02 -2.766144461929798126e-03 5.476543679833412170e-03 2.819500267505645752e-01
3.410000000000000000e+03 6.466717529296875000e+01 -4.477482318878173828e+00 2.887012623250484467e-02 1.097518205642700195e+00 3.379164934158325195e-01 -1.178232133388519287e-01
3.411000000000000000e+03 1.182146739959716797e+01 -9.425686836242675781e+00 -6.179075837135314941e-01 -3.541684150695800781e-01 -2.916228175163269043e-01 -2.401656210422515869e-01
3.412000000000000000e+03 6.874246215820312500e+01 4.259255409240722656e+00 6.576355695724487305e-01 1.511871814727783203e+00 6.508522033691406250e-01 -3.003282546997070312e-01
3.413000000000000000e+03 6.780275726318359375e+01 4.976062774658203125e+00 7.689429521560668945e-01 1.982553601264953613e+00 8.254489898681640625e-01 -1.609995961189270020e-01
3.414000000000000000e+03 4.106899261474609375e+01 -1.499065113067626953e+01 1.883460760116577148e+00 1.665452837944030762e+00 1.064674019813537598e+00 -8.706384301185607910e-01
3.415000000000000000e+03 6.604904937744140625e+01 -5.267666816711425781e+00 -1.417753696441650391e-01 7.830868363380432129e-01 1.923934370279312134e-01 -4.294491112232208252e-01
3.416000000000000000e+03 7.211084747314453125e+01 8.153653740882873535e-01 2.568013370037078857e-01 2.544307895004749298e-02 8.467332273721694946e-02 -7.433275580406188965e-01
3.417000000000000000e+03 7.070842742919921875e+01 -6.858772039413452148e-02 2.701343297958374023e-01 4.308079779148101807e-01 2.102826982736587524e-01 -7.478663921356201172e-01
3.418000000000000000e+03 7.797049045562744141e+00 -1.252570819854736328e+01 -4.489064514636993408e-01 -1.999760419130325317e-01 -1.946647465229034424e-01 -4.341644644737243652e-01
3.419000000000000000e+03 8.882075309753417969e+00 -9.438740730285644531e+00 -4.337670505046844482e-01 -1.691815257072448730e-01 -1.808845698833465576e-01 -1.899803280830383301e-01
3.420000000000000000e+03 6.536628723144531250e+01 1.937428593635559082e+00 6.842612624168395996e-01 2.469602108001708984e+00 9.461590647697448730e-01 9.491435438394546509e-02
3.421000000000000000e+03 7.363918304443359375e+00 2.313372993469238281e+01 -4.220462404191493988e-03 3.982292953878641129e-03 -7.145072595449164510e-05 7.408913690596818924e-03
3.422000000000000000e+03 8.587488174438476562e+00 2.388694572448730469e+01 -3.821180900558829308e-03 6.091860588639974594e-03 6.812039646320044994e-04 7.798322476446628571e-03
3.423000000000000000e+03 7.247306823730468750e+01 3.645575046539306641e+00 3.512406647205352783e-01 2.650693990290164948e-03 1.061674058437347412e-01 -5.755490660667419434e-01
3.424000000000000000e+03 7.143488311767578125e+01 4.002691268920898438e+00 4.394081532955169678e-01 3.541589975357055664e-01 2.380701452493667603e-01 -5.382000207901000977e-01
3.425000000000000000e+03 9.983147621154785156e+00 -1.081323432922363281e+01 -5.917864441871643066e-01 -2.377426773309707642e-01 -2.488587349653244019e-01 -3.142302632331848145e-01
3.426000000000000000e+03 7.007093048095703125e+01 -2.997277450561523438e+01 -1.966209337115287781e-02 6.290881894528865814e-03 -4.011363722383975983e-03 1.276768185198307037e-02
3.427000000000000000e+03 6.963571929931640625e+01 -2.847969055175781250e+01 -2.353746071457862854e-02 3.686081850901246071e-03 -5.955413449555635452e-03 1.038625836372375488e-02
3.428000000000000000e+03 7.236190795898437500e+01 -8.683069229125976562e+00 -4.539462625980377197e-01 7.180318236351013184e-02 -1.146429255604743958e-01 -6.793397068977355957e-01
3.429000000000000000e+03 6.969720458984375000e+01 -3.387857913970947266e+00 -4.497128538787364960e-03 4.550570845603942871e-01 1.351679861545562744e-01 -8.040339946746826172e-01
3.430000000000000000e+03 7.164138031005859375e+01 -4.935933589935302734e+00 -1.426079869270324707e-01 9.726189076900482178e-02 -1.360383071005344391e-02 -8.749246001243591309e-01
3.431000000000000000e+03 7.062187194824218750e+01 1.894698524475097656e+01 4.013341069221496582e-01 1.049439430236816406e+00 4.352320730686187744e-01 7.684069871902465820e-01
3.432000000000000000e+03 7.193243408203125000e+01 1.966288375854492188e+01 2.645966410636901855e-01 5.366249680519104004e-01 2.403664737939834595e-01 8.018773198127746582e-01
3.433000000000000000e+03 7.272875213623046875e+01 -2.882453536987304688e+01 -1.052768249064683914e-02 1.167805981822311878e-03 -2.807962941005825996e-03 8.614722639322280884e-03
3.434000000000000000e+03 4.256576156616210938e+01 -1.682718467712402344e+01 2.608846902847290039e+00 3.022539377212524414e+00 1.689415812492370605e+00 1.598847508430480957e-01
3.435000000000000000e+03 8.830874443054199219e+00 -2.096094322204589844e+01 2.737998366355895996e-01 -5.573604702949523926e-01 -8.506819605827331543e-02 -7.879071235656738281e-01
3.436000000000000000e+03 6.963853454589843750e+01 1.972286605834960938e+01 3.852158188819885254e-01 1.437517523765563965e+00 5.468199849128723145e-01 8.038551211357116699e-01
3.437000000000000000e+03 7.295716094970703125e+01 1.228198623657226562e+01 4.568338692188262939e-01 -1.066777631640434265e-01 1.050468310713768005e-01 1.748862713575363159e-01
3.438000000000000000e+03 6.987485504150390625e+01 1.059802341461181641e+01 7.060282230377197266e-01 1.498421430587768555e+00 6.613348722457885742e-01 8.867739140987396240e-02
3.439000000000000000e+03 6.566803741455078125e+01 2.690425491333007812e+01 -5.260930061340332031e-01 2.034538984298706055e+00 4.525337815284729004e-01 2.841490805149078369e-01
3.440000000000000000e+03 4.815581512451171875e+01 2.409642601013183594e+01 -2.231159359216690063e-01 -4.199979305267333984e-01 -1.929341554641723633e-01 -2.636677920818328857e-01
3.441000000000000000e+03 7.396506309509277344e+00 -2.093491172790527344e+01 1.697590947151184082e-01 -6.450280547142028809e-01 -1.425806879997253418e-01 -7.380761504173278809e-01
3.442000000000000000e+03 6.437946796417236328e+00 -1.904756355285644531e+01 1.906109228730201721e-02 -5.877445340156555176e-01 -1.706050336360931396e-01 -7.259310483932495117e-01
3.443000000000000000e+03 4.781314849853515625e+01 2.690891456604003906e+01 -1.994780823588371277e-02 -2.599106729030609131e-01 -8.395753800868988037e-02 -2.002250552177429199e-01
3.444000000000000000e+03 3.072332000732421875e+01 -4.681375026702880859e+00 -6.797547340393066406e-01 7.319148182868957520e-01 1.564802415668964386e-02 -9.764256477355957031e-01
3.445000000000000000e+03 3.039178657531738281e+01 -4.011561870574951172e+00 -9.251191020011901855e-01 5.425444245338439941e-01 -1.147724166512489319e-01 -9.936088919639587402e-01
3.446000000000000000e+03 3.174001312255859375e+01 -3.758813858032226562e+00 -1.209929823875427246e+00 5.461910367012023926e-01 -1.991216242313385010e-01 -6.025519967079162598e-01
3.447000000000000000e+03 3.048280334472656250e+01 -4.409258365631103516e+00 -7.919980883598327637e-01 6.309177279472351074e-01 -4.832410812377929688e-02 -1.000027656555175781e+00
3.448000000000000000e+03 3.266329956054687500e+01 -3.088903903961181641e+00 -1.568196535110473633e+00 4.368962347507476807e-01 -3.393900990486145020e-01 -3.140752911567687988e-01
3.449000000000000000e+03 2.823916244506835938e+01 -3.674773216247558594e+00 -7.970093488693237305e-01 2.744014561176300049e-01 -1.567823588848114014e-01 -1.271180629730224609e+00
3.450000000000000000e+03 3.107091140747070312e+01 -4.865790367126464844e+00 -6.726536750793457031e-01 8.438330888748168945e-01 5.135383084416389465e-02 -8.994781970977783203e-01
3.451000000000000000e+03 3.148882675170898438e+01 -5.033051490783691406e+00 -6.284350156784057617e-01 8.565034866333007812e-01 6.842055171728134155e-02 -7.755126953125000000e-01
3.452000000000000000e+03 2.926696586608886719e+01 -4.902295112609863281e+00 -4.431453049182891846e-01 4.695558249950408936e-01 7.923150435090065002e-03 -1.291461586952209473e+00
3.453000000000000000e+03 2.950830459594726562e+01 -4.374958515167236328e+00 -6.951134204864501953e-01 4.408943951129913330e-01 -7.626570016145706177e-02 -1.202166914939880371e+00
3.454000000000000000e+03 1.406546020507812500e+01 9.872777938842773438e+00 4.974177500116638839e-06 2.620982995722442865e-04 8.012174657778814435e-05 9.142090857494622469e-05
3.455000000000000000e+03 3.344721221923828125e+01 -3.160642147064208984e+00 -1.608742356300354004e+00 4.802727103233337402e-01 -3.385408818721771240e-01 -1.571858674287796021e-01
3.456000000000000000e+03 1.038568115234375000e+01 1.491103076934814453e+01 -1.838326570577919483e-03 -3.084726586166652851e-06 -5.524233565665781498e-04 -6.523875053972005844e-04
3.457000000000000000e+03 3.017387580871582031e+01 -4.680160045623779297e+00 -6.473034620285034180e-01 6.424580216407775879e-01 -1.453639357350766659e-03 -1.114365696907043457e+00
3.458000000000000000e+03 9.844274520874023438e+00 1.237416839599609375e+01 -6.298411171883344650e-04 -2.732543216552585363e-04 -2.709286345634609461e-04 -2.487458405084908009e-04
3.459000000000000000e+03 1.270888900756835938e+01 1.098327636718750000e+01 -1.204400832648389041e-04 -1.749400325934402645e-05 -4.138022632105275989e-05 -1.432248882338171825e-05
3.460000000000000000e+03 1.337301540374755859e+01 1.021425533294677734e+01 -8.571716898586601019e-05 2.170450352423358709e-05 -1.920380054798442870e-05 1.928179699461907148e-04
3.461000000000000000e+03 1.516066455841064453e+01 7.873876094818115234e+00 -1.872102147899568081e-04 1.158658706117421389e-04 -2.140330252586863935e-05 7.273168012034147978e-05
3.462000000000000000e+03 2.814698028564453125e+01 -4.566792011260986328e+00 -5.116137266159057617e-01 2.996177375316619873e-01 -6.359880417585372925e-02 -1.336783766746520996e+00
3.463000000000000000e+03 3.195878028869628906e+01 -5.150613307952880859e+00 -6.202860474586486816e-01 9.143752455711364746e-01 8.822675794363021851e-02 -7.078884840011596680e-01
3.464000000000000000e+03 3.338693618774414062e+01 1.870735549926757812e+01 1.328822076320648193e-01 1.314274549484252930e+00 4.341470301151275635e-01 -1.561232376843690872e-02
3.465000000000000000e+03 1.248867893218994141e+01 1.044017410278320312e+01 -9.314676572103053331e-05 -1.101922243833541870e-04 -6.100169775891117752e-05 1.895245950436219573e-04
3.466000000000000000e+03 1.291587924957275391e+01 7.118846893310546875e+00 5.209531809668987989e-05 9.246983972843736410e-05 4.336954589234665036e-05 1.377564767608419061e-04
3.467000000000000000e+03 1.296289920806884766e+01 7.978044509887695312e+00 7.119140354916453362e-05 1.900342977023683488e-05 2.705844963202252984e-05 1.968590804608538747e-04
3.468000000000000000e+03 3.536112213134765625e+01 1.580542087554931641e+01 4.752498120069503784e-02 1.034277796745300293e+00 3.245408236980438232e-01 2.019306719303131104e-01
3.469000000000000000e+03 3.518456649780273438e+01 1.518300628662109375e+01 4.758967086672782898e-02 1.202426075935363770e+00 3.750047385692596436e-01 1.800717860460281372e-01
3.470000000000000000e+03 3.496745300292968750e+01 1.459163761138916016e+01 4.537900164723396301e-02 1.423907637596130371e+00 4.407860040664672852e-01 1.237938180565834045e-01
3.471000000000000000e+03 2.598256492614746094e+01 2.522394943237304688e+01 8.368152379989624023e-02 2.919774055480957031e-01 1.126976758241653442e-01 -2.215532064437866211e-01
3.472000000000000000e+03 1.109599494934082031e+01 1.192999744415283203e+01 -3.298156370874494314e-04 -2.616837446112185717e-04 -1.774498086888343096e-04 -2.003460976993665099e-04
3.473000000000000000e+03 1.104800415039062500e+01 1.328493881225585938e+01 -7.436668383888900280e-04 -3.384400042705237865e-04 -3.246320411562919617e-04 -2.716145827434957027e-04
3.474000000000000000e+03 1.292886161804199219e+01 2.349537467956542969e+01 -7.048489060252904892e-03 8.869484998285770416e-03 5.462988629005849361e-04 5.701489746570587158e-03
3.475000000000000000e+03 3.436004257202148438e+01 1.795260810852050781e+01 8.487862348556518555e-02 1.150200724601745605e+00 3.705237805843353271e-01 1.191224977374076843e-01
3.476000000000000000e+03 3.245025634765625000e+01 -5.185005664825439453e+00 -6.785063147544860840e-01 9.234968423843383789e-01 7.349716126918792725e-02 -5.675134062767028809e-01
3.477000000000000000e+03 1.176982212066650391e+01 2.044447135925292969e+01 -1.326781511306762695e-02 6.142162252217531204e-03 -2.137695671990513802e-03 -2.466857258696109056e-04
3.478000000000000000e+03 1.260815429687500000e+01 2.101384925842285156e+01 -1.551758032292127609e-02 6.276062689721584320e-03 -2.772455336526036263e-03 -3.758456732612103224e-04
3.479000000000000000e+03 1.175782203674316406e+01 6.999703884124755859e+00 5.594416052190354094e-06 -6.789935287088155746e-05 -1.869148036348633468e-05 2.570351716713048518e-05
3.480000000000000000e+03 1.509915065765380859e+01 6.008688449859619141e+00 9.827223038882948458e-06 2.724071782722603530e-05 1.112038262363057584e-05 3.586669117794372141e-05
3.481000000000000000e+03 1.628741455078125000e+01 6.572268962860107422e+00 -3.396590909687802196e-05 1.049475249601528049e-04 2.129448512278031558e-05 7.694512169109657407e-05
3.482000000000000000e+03 3.577195358276367188e+01 -4.559994697570800781e+00 -1.375297665596008301e+00 8.124448657035827637e-01 -1.688558459281921387e-01 5.269063264131546021e-02
3.483000000000000000e+03 1.027557086944580078e+01 2.171836662292480469e+01 -9.696535766124725342e-03 7.541480939835309982e-03 -6.465163314715027809e-04 4.387646913528442383e-03
3.484000000000000000e+03 1.123648262023925781e+01 2.016659164428710938e+01 -1.137083582580089569e-02 6.026976276189088821e-03 -1.603157841600477695e-03 2.419433731120079756e-04
3.485000000000000000e+03 1.036964988708496094e+01 7.462635517120361328e+00 -9.568608220433816314e-05 -1.464475062675774097e-04 -7.264007581397891045e-05 1.301432621403364465e-05
3.486000000000000000e+03 1.079807662963867188e+01 6.565763950347900391e+00 1.991740464291069657e-05 -1.289738283958286047e-04 -3.271692548878490925e-05 2.008340379688888788e-05
3.487000000000000000e+03 2.914455413818359375e+01 -4.512254238128662109e+00 -6.035881042480468750e-01 4.052043557167053223e-01 -5.951511487364768982e-02 -1.275615334510803223e+00
3.488000000000000000e+03 3.379753875732421875e+01 -3.432196617126464844e+00 -1.523826837539672852e+00 5.687677860260009766e-01 -2.865177094936370850e-01 -8.137357980012893677e-02
3.489000000000000000e+03 3.466226577758789062e+01 -5.220010280609130859e+00 -9.200447201728820801e-01 9.300667643547058105e-01 3.006606828421354294e-03 -1.712063252925872803e-01
3.490000000000000000e+03 1.481007575988769531e+01 7.278299808502197266e+00 -1.820587931433692575e-04 1.021888820105232298e-04 -2.396097079326864332e-05 7.063974771881476045e-05
3.491000000000000000e+03 2.439729499816894531e+01 2.627797889709472656e+01 5.974671617150306702e-02 1.968302130699157715e-01 7.697308063507080078e-02 -1.671144962310791016e-01
3.492000000000000000e+03 2.320870208740234375e+01 2.697630119323730469e+01 5.204661563038825989e-02 1.534297317266464233e-01 6.164290383458137512e-02 -1.354453265666961670e-01
3.493000000000000000e+03 1.527869319915771484e+01 7.457704067230224609e+00 6.511624815175309777e-05 1.287417835555970669e-04 5.815740951220504940e-05 6.423544982681050897e-05
3.494000000000000000e+03 1.394455337524414062e+01 7.913787364959716797e+00 1.011057029245421290e-04 8.971419447334483266e-05 5.724596849177032709e-05 9.845307067735120654e-05
3.495000000000000000e+03 3.478458404541015625e+01 1.754314613342285156e+01 6.436613947153091431e-02 1.062037944793701172e+00 3.379212319850921631e-01 1.691694259643554688e-01
3.496000000000000000e+03 1.361133003234863281e+01 6.061195373535156250e+00 -2.143323627024074085e-06 2.453699926263652742e-05 6.718102667946368456e-06 1.084431423805654049e-04
3.497000000000000000e+03 1.355706310272216797e+01 1.067909526824951172e+01 -1.406343799317255616e-04 1.083606839529238641e-04 -9.682107702246867120e-06 3.790028495131991804e-05
3.498000000000000000e+03 3.359541320800781250e+01 -5.161026477813720703e+00 -7.868636846542358398e-01 9.095817804336547852e-01 3.681541979312896729e-02 -3.180311620235443115e-01
3.499000000000000000e+03 3.449711608886718750e+01 -4.639830589294433594e+00 -1.135643362998962402e+00 7.774714827537536621e-01 -1.074515506625175476e-01 -1.100552380084991455e-01
3.500000000000000000e+03 8.624741554260253906e+00 -8.575893402099609375e+00 -3.862462937831878662e-01 -1.418603211641311646e-01 -1.584319770336151123e-01 -1.493276655673980713e-01
3.501000000000000000e+03 1.020606422424316406e+01 -7.337180614471435547e+00 -3.748370707035064697e-01 -1.797036081552505493e-01 -1.663621962070465088e-01 -1.044033914804458618e-01
3.502000000000000000e+03 3.627169799804687500e+01 1.400810337066650391e+01 4.193656612187623978e-03 5.989862084388732910e-01 1.809539645910263062e-01 2.172951698303222656e-01
3.503000000000000000e+03 3.200739669799804688e+01 2.473138046264648438e+01 -1.059243902564048767e-01 7.153094410896301270e-01 1.828155070543289185e-01 4.151974245905876160e-02
3.504000000000000000e+03 2.242971229553222656e+01 2.645646286010742188e+01 5.831456184387207031e-02 1.109156236052513123e-01 5.076905712485313416e-02 -1.178631410002708435e-01
3.505000000000000000e+03 2.176000976562500000e+01 2.729237556457519531e+01 4.822015762329101562e-02 1.109049171209335327e-01 4.773752391338348389e-02 -1.048138961195945740e-01
3.506000000000000000e+03 1.098598575592041016e+01 1.885509681701660156e+01 -8.586212061345577240e-03 3.815474221482872963e-03 -1.431221258826553822e-03 -1.772864838130772114e-03
3.507000000000000000e+03 3.371408081054687500e+01 1.921434593200683594e+01 7.937942445278167725e-02 1.132968783378601074e+00 3.637044429779052734e-01 8.645693212747573853e-02
3.508000000000000000e+03 3.298655319213867188e+01 1.938006019592285156e+01 1.407387256622314453e-01 1.283231377601623535e+00 4.271910190582275391e-01 -4.211072996258735657e-02
3.509000000000000000e+03 1.442373180389404297e+01 2.369553756713867188e+01 -4.339154344052076340e-03 6.751627661287784576e-03 7.237418903969228268e-04 2.753305248916149139e-03
3.510000000000000000e+03 1.387588596343994141e+01 2.554709434509277344e+01 5.254323128610849380e-03 1.231064181774854660e-02 5.269489251077175140e-03 8.819878567010164261e-04
3.511000000000000000e+03 1.129835128784179688e+01 2.113279342651367188e+01 -1.199694722890853882e-02 7.385809440165758133e-03 -1.383341383188962936e-03 2.336089964956045151e-03
3.512000000000000000e+03 1.083362674713134766e+01 1.828139495849609375e+01 -7.381823845207691193e-03 2.578992163762450218e-03 -1.440849504433572292e-03 -1.569710555486381054e-03
3.513000000000000000e+03 9.712643623352050781e+00 7.846418380737304688e+00 7.003946666372939944e-05 -1.605141442269086838e-04 -2.714240326895378530e-05 1.178362144855782390e-04
3.514000000000000000e+03 3.459263992309570312e+01 1.930973434448242188e+01 4.124961048364639282e-02 9.051470756530761719e-01 2.839190065860748291e-01 2.084652781486511230e-01
3.515000000000000000e+03 1.489651393890380859e+01 2.424154281616210938e+01 7.099744980223476887e-04 7.160515524446964264e-03 2.361146965995430946e-03 3.002283046953380108e-04
3.516000000000000000e+03 1.333155155181884766e+01 2.380028343200683594e+01 -4.981644451618194580e-03 8.854646235704421997e-03 1.161900465376675129e-03 4.231642466038465500e-03
3.517000000000000000e+03 2.906520462036132812e+01 2.647386360168457031e+01 -7.420257478952407837e-02 5.464324355125427246e-01 1.416689604520797729e-01 -1.287086755037307739e-01
3.518000000000000000e+03 2.957502365112304688e+01 2.525321578979492188e+01 -6.053609400987625122e-02 6.266374588012695312e-01 1.698304116725921631e-01 -1.396297365427017212e-01
3.519000000000000000e+03 2.634655952453613281e+01 2.610736846923828125e+01 2.653561159968376160e-02 3.430440723896026611e-01 1.108739003539085388e-01 -2.025929242372512817e-01
3.520000000000000000e+03 2.670603561401367188e+01 2.882334709167480469e+01 -4.735244438052177429e-02 3.409236371517181396e-01 8.807135373353958130e-02 -1.262295097112655640e-01
3.521000000000000000e+03 3.522587966918945312e+01 2.361334037780761719e+01 -6.270667910575866699e-02 5.192852020263671875e-01 1.369735598564147949e-01 2.619296610355377197e-01
3.522000000000000000e+03 3.700276947021484375e+01 1.632571983337402344e+01 2.594035677611827850e-02 2.028643041849136353e-01 6.864140182733535767e-02 2.748151719570159912e-01
3.523000000000000000e+03 7.171511840820312500e+01 -7.525825977325439453e+00 -4.010551273822784424e-01 1.193966194987297058e-01 -8.449754863977432251e-02 -7.809165120124816895e-01
3.524000000000000000e+03 1.075864315032958984e+01 1.272081470489501953e+01 -5.987331969663500786e-04 -2.680029429029673338e-04 -2.600208390504121780e-04 -3.440007858444005251e-04
3.525000000000000000e+03 1.142691326141357422e+01 1.801719856262207031e+01 -6.795682478696107864e-03 1.879362738691270351e-03 -1.474895980209112167e-03 -2.641908358782529831e-03
3.526000000000000000e+03 2.074242973327636719e+01 2.814039802551269531e+01 3.631956875324249268e-02 9.388081729412078857e-02 3.906011581420898438e-02 -8.445169031620025635e-02
3.527000000000000000e+03 3.380934906005859375e+01 2.263243675231933594e+01 -4.232575744390487671e-02 7.459793090820312500e-01 2.110960632562637329e-01 1.736075282096862793e-01
3.528000000000000000e+03 3.218690872192382812e+01 2.298770904541015625e+01 -3.556212410330772400e-02 8.677768707275390625e-01 2.496644109487533569e-01 3.330184519290924072e-02
3.529000000000000000e+03 7.035303497314453125e+01 -5.941863536834716797e+00 -2.529137432575225830e-01 2.611322700977325439e-01 2.465557539835572243e-03 -8.389258384704589844e-01
3.530000000000000000e+03 6.916582489013671875e+01 -5.254202365875244141e+00 -1.782841086387634277e-01 4.271839559078216553e-01 7.466994971036911011e-02 -7.990234494209289551e-01
3.531000000000000000e+03 3.084189033508300781e+01 2.526002120971679688e+01 -1.028967574238777161e-01 6.827908754348754883e-01 1.739682406187057495e-01 -5.572040379047393799e-02
3.532000000000000000e+03 8.128583908081054688e+00 2.112322616577148438e+01 -5.724153481423854828e-03 4.603423643857240677e-03 -3.362189163453876972e-04 5.089702550321817398e-03
3.533000000000000000e+03 1.106564235687255859e+01 7.171250343322753906e+00 9.566227845425601117e-07 -8.790443826001137495e-05 -2.608434442663565278e-05 1.695425307843834162e-04
3.534000000000000000e+03 9.093767166137695312e+00 9.278532028198242188e+00 -3.309687890578061342e-04 -2.063288557110354304e-04 -1.611892948858439922e-04 -7.949822247610427439e-06
3.535000000000000000e+03 9.293533325195312500e+00 7.296627044677734375e+00 -1.024234661599621177e-04 -1.883448712760582566e-04 -8.723050268599763513e-05 -4.697503391071222723e-05
3.536000000000000000e+03 2.036876678466796875e+01 2.698444747924804688e+01 4.704198241233825684e-02 6.444150954484939575e-02 3.344504907727241516e-02 -7.361775636672973633e-02
3.537000000000000000e+03 1.891750907897949219e+01 2.745821380615234375e+01 3.724409639835357666e-02 5.190901830792427063e-02 2.674593403935432434e-02 -5.578747764229774475e-02
3.538000000000000000e+03 3.405196762084960938e+01 1.975099182128906250e+01 5.245235562324523926e-02 9.847108721733093262e-01 3.111489713191986084e-01 1.492212116718292236e-01
3.539000000000000000e+03 3.407195663452148438e+01 2.073125076293945312e+01 1.954041048884391785e-02 8.872054219245910645e-01 2.720237374305725098e-01 1.707777231931686401e-01
3.540000000000000000e+03 1.069542884826660156e+01 1.968938827514648438e+01 -9.949350729584693909e-03 5.200868006795644760e-03 -1.424544956535100937e-03 -2.199798836954869330e-05
3.541000000000000000e+03 8.120894432067871094e+00 2.209164619445800781e+01 -6.273377686738967896e-03 5.065457429736852646e-03 -3.623760421760380268e-04 6.132563576102256775e-03
3.542000000000000000e+03 8.458529472351074219e+00 1.763516616821289062e+01 -4.634208511561155319e-03 2.203832846134901047e-03 -7.291127112694084644e-04 1.087023760192096233e-03
3.543000000000000000e+03 7.074910163879394531e+00 2.895689010620117188e+01 3.555454313755035400e-03 4.774648230522871017e-03 2.499030670151114464e-03 6.517901550978422165e-03
3.544000000000000000e+03 9.381090164184570312e+00 3.080257415771484375e+01 6.614738609641790390e-03 1.623746566474437714e-02 6.855661515146493912e-03 -1.076693151844665408e-04
3.545000000000000000e+03 1.015415859222412109e+01 1.295188522338867188e+01 -8.010885794647037983e-04 -2.672986884135752916e-04 -3.205161774531006813e-04 -1.485079119447618723e-04
3.546000000000000000e+03 7.575751304626464844e+00 1.179581260681152344e+01 -7.575222989544272423e-04 -2.629986847750842571e-04 -3.061562892980873585e-04 -1.728593633743003011e-04
3.547000000000000000e+03 8.559958457946777344e+00 1.639692497253417969e+01 -3.892989363521337509e-03 1.155111822299659252e-03 -8.213632390834391117e-04 1.147723960457369685e-04
3.548000000000000000e+03 7.822666168212890625e+00 1.607372093200683594e+01 -2.494992688298225403e-03 8.391248993575572968e-04 -4.967603017576038837e-04 4.704926104750484228e-04
3.549000000000000000e+03 7.301501464843750000e+01 4.567667007446289062e+00 3.460123836994171143e-01 -2.348642945289611816e-01 3.334442898631095886e-02 -5.175657868385314941e-01
3.550000000000000000e+03 7.079806518554687500e+01 6.974822044372558594e+00 5.832295417785644531e-01 7.815787792205810547e-01 4.094424843788146973e-01 -2.457631975412368774e-01
3.551000000000000000e+03 3.551382446289062500e+01 -5.528184413909912109e+00 -9.620772004127502441e-01 9.199445247650146484e-01 -1.263980008661746979e-02 -1.352906078100204468e-01
3.552000000000000000e+03 3.765720367431640625e+01 2.044597625732421875e+01 6.836335174739360809e-03 8.949517458677291870e-02 2.889945171773433685e-02 2.979826927185058594e-01
3.553000000000000000e+03 3.760459136962890625e+01 2.174732589721679688e+01 -5.625479388982057571e-03 1.557827740907669067e-01 4.504719004034996033e-02 3.118329942226409912e-01
3.554000000000000000e+03 8.020496368408203125e+00 -9.773454666137695312e+00 -4.067120552062988281e-01 -1.385112106800079346e-01 -1.635669767856597900e-01 -2.106914222240447998e-01
3.555000000000000000e+03 9.281735420227050781e+00 -1.141556072235107422e+01 -5.747892856597900391e-01 -2.134814262390136719e-01 -2.364812046289443970e-01 -3.749626874923706055e-01
3.556000000000000000e+03 6.821222686767578125e+01 7.130714058876037598e-01 4.553114771842956543e-01 1.268640398979187012e+00 5.171855688095092773e-01 -4.909956455230712891e-01
3.557000000000000000e+03 6.637290191650390625e+01 1.127683639526367188e+00 6.023767590522766113e-01 1.882821202278137207e+00 7.455593943595886230e-01 -1.723515987396240234e-01
3.558000000000000000e+03 4.152030563354492188e+01 -9.281713485717773438e+00 -3.228869438171386719e-01 4.856545031070709229e-01 4.883027449250221252e-02 -7.650554180145263672e-01
3.559000000000000000e+03 4.034281158447265625e+01 -8.686717033386230469e+00 -3.478353917598724365e-01 4.537293612957000732e-01 3.176818415522575378e-02 -7.699466347694396973e-01
3.560000000000000000e+03 1.004776859283447266e+01 2.331979751586914062e+01 -6.437906064093112946e-03 8.415717631578445435e-03 5.933434586040675640e-04 6.609724834561347961e-03
3.561000000000000000e+03 6.825127410888671875e+01 -5.495547294616699219e+00 -2.347559481859207153e-01 4.980376958847045898e-01 7.898452132940292358e-02 -7.217842340469360352e-01
3.562000000000000000e+03 1.671791267395019531e+01 2.589498519897460938e+01 2.169752120971679688e-02 1.821426488459110260e-02 1.197353657335042953e-02 -1.835692115128040314e-02
3.563000000000000000e+03 1.536441326141357422e+01 2.504053878784179688e+01 8.901152759790420532e-03 9.535123594105243683e-03 5.530883092433214188e-03 -3.863946301862597466e-03
3.564000000000000000e+03 7.092457580566406250e+01 -2.882992029190063477e+00 1.692635938525199890e-02 2.534873485565185547e-01 8.112411201000213623e-02 -8.556653261184692383e-01
3.565000000000000000e+03 1.222013854980468750e+01 -7.508927822113037109e+00 -4.615624248981475830e-01 -3.169104158878326416e-01 -2.335418462753295898e-01 -1.730101406574249268e-01
3.566000000000000000e+03 1.110728836059570312e+01 -8.293051719665527344e+00 -4.922964870929718018e-01 -2.666072249412536621e-01 -2.276711165904998779e-01 -1.721103489398956299e-01
3.567000000000000000e+03 6.547048950195312500e+01 -2.901462316513061523e+00 2.222005277872085571e-01 1.353161215782165527e+00 4.726085364818572998e-01 -1.960210502147674561e-01
3.568000000000000000e+03 6.736432647705078125e+01 -5.826899051666259766e+00 -2.569544613361358643e-01 5.675326585769653320e-01 9.317346662282943726e-02 -6.517924666404724121e-01
3.569000000000000000e+03 6.328469467163085938e+01 -3.642871379852294922e+00 2.174409627914428711e-01 1.595472097396850586e+00 5.438739061355590820e-01 2.332160770893096924e-01
3.570000000000000000e+03 9.708802223205566406e+00 -9.562854766845703125e+00 -5.131919980049133301e-01 -1.916532963514328003e-01 -2.114536017179489136e-01 -2.162051796913146973e-01
3.571000000000000000e+03 3.699345397949218750e+01 1.717830276489257812e+01 2.794908173382282257e-02 1.967593729496002197e-01 6.741253286600112915e-02 2.981345653533935547e-01
3.572000000000000000e+03 6.865010070800781250e+01 7.637797355651855469e+00 8.126290440559387207e-01 1.952897667884826660e+00 8.296579718589782715e-01 -1.390025392174720764e-02
3.573000000000000000e+03 6.070765304565429688e+01 -5.587883949279785156e+00 -4.595867544412612915e-02 1.611223697662353516e+00 4.695794880390167236e-01 7.608487010002136230e-01
3.574000000000000000e+03 7.241971588134765625e+01 1.755201220512390137e+00 2.490192204713821411e-01 -3.891104459762573242e-02 6.303245574235916138e-02 -7.081999778747558594e-01
3.575000000000000000e+03 6.360880279541015625e+01 -4.867666244506835938e+00 9.522716514766216278e-03 1.235475182533264160e+00 3.734993934631347656e-01 1.457833200693130493e-01
3.576000000000000000e+03 8.638047218322753906e+00 9.752712249755859375e+00 1.754825643729418516e-05 -2.584856119938194752e-04 -7.228120375657454133e-05 3.017668677784968168e-05
3.577000000000000000e+03 9.271840095520019531e+00 -7.465800762176513672e+00 -3.464618325233459473e-01 -1.487681567668914795e-01 -1.485690027475357056e-01 -9.979575872421264648e-02
3.578000000000000000e+03 7.247325134277343750e+01 1.831333541870117188e+01 3.287084102630615234e-01 2.686197459697723389e-01 1.791984438896179199e-01 7.253797650337219238e-01
3.579000000000000000e+03 7.192579650878906250e+01 1.461427879333496094e+01 5.235607028007507324e-01 4.566415846347808838e-01 2.940607070922851562e-01 4.183351695537567139e-01
3.580000000000000000e+03 7.095288848876953125e+01 1.495348453521728516e+01 5.900055766105651855e-01 9.517865777015686035e-01 4.625376462936401367e-01 4.368946254253387451e-01
3.581000000000000000e+03 4.960692214965820312e+01 2.270768737792968750e+01 -4.689533412456512451e-01 -4.086581766605377197e-01 -2.632834613323211670e-01 -3.546172976493835449e-01
3.582000000000000000e+03 4.935652542114257812e+01 2.405315399169921875e+01 -2.555716931819915771e-01 -3.822984695434570312e-01 -1.913610398769378662e-01 -3.243857324123382568e-01
3.583000000000000000e+03 7.073155212402343750e+01 2.898574829101562500e+00 4.456194341182708740e-01 5.712595582008361816e-01 3.050636947154998779e-01 -5.727434158325195312e-01
3.584000000000000000e+03 6.766932010650634766e+00 -1.769524192810058594e+01 -8.441394567489624023e-02 -4.768174588680267334e-01 -1.683694273233413696e-01 -7.398719787597656250e-01
3.585000000000000000e+03 5.412854671478271484e+00 -1.880611228942871094e+01 -1.414325274527072906e-02 -6.104416847229003906e-01 -1.873754858970642090e-01 -6.397987008094787598e-01
3.586000000000000000e+03 4.722839355468750000e+00 -2.420336151123046875e+01 1.310376077890396118e-01 -1.045154809951782227e+00 -2.742351591587066650e-01 -4.259392321109771729e-01
3.587000000000000000e+03 7.470380306243896484e+00 -2.512979888916015625e+01 2.874523997306823730e-01 -7.904213070869445801e-01 -1.508906781673431396e-01 -4.761617481708526611e-01
3.588000000000000000e+03 9.002944946289062500e+00 2.760438537597656250e+01 3.287024796009063721e-03 9.732635691761970520e-03 3.905898192897439003e-03 5.939480382949113846e-03
3.589000000000000000e+03 6.632716369628906250e+01 -6.098760962486267090e-01 4.602686166763305664e-01 1.601822495460510254e+00 6.186273097991943359e-01 -2.345157116651535034e-01
3.590000000000000000e+03 6.470642852783203125e+01 2.373300170898437500e+01 -2.453883290290832520e-01 2.843984127044677734e+00 7.795787453651428223e-01 2.631273567676544189e-01
3.591000000000000000e+03 7.146961212158203125e+01 2.117490196228027344e+01 2.006226181983947754e-01 7.463169693946838379e-01 2.840818762779235840e-01 8.799844980239868164e-01
3.592000000000000000e+03 7.105658721923828125e+01 2.275531005859375000e+01 4.119653254747390747e-02 9.173016548156738281e-01 2.875494658946990967e-01 8.996553421020507812e-01
3.593000000000000000e+03 1.221792602539062500e+01 3.054525375366210938e+01 1.104382239282131195e-02 2.739669941365718842e-02 1.153215672820806503e-02 -6.909931544214487076e-03
3.594000000000000000e+03 1.263284969329833984e+01 3.232971191406250000e+01 1.184644829481840134e-02 3.665058687329292297e-02 1.454911008477210999e-02 -1.155993528664112091e-02
3.595000000000000000e+03 7.130854797363281250e+01 2.517237472534179688e+01 -1.425914764404296875e-01 7.769138216972351074e-01 1.902967095375061035e-01 8.674657940864562988e-01
3.596000000000000000e+03 3.144850158691406250e+01 -3.640883684158325195e+00 -1.225750446319580078e+00 4.977937340736389160e-01 -2.183870375156402588e-01 -6.502760052680969238e-01
3.597000000000000000e+03 3.076353836059570312e+01 -3.942541122436523438e+00 -1.010522484779357910e+00 5.573629140853881836e-01 -1.359478682279586792e-01 -8.604303598403930664e-01
3.598000000000000000e+03 2.941679000854492188e+01 -3.500697135925292969e+00 -9.916302561759948730e-01 2.898307144641876221e-01 -2.105398625135421753e-01 -1.115002870559692383e+00
3.599000000000000000e+03 3.203273391723632812e+01 -3.855531215667724609e+00 -1.194010853767395020e+00 5.628959536552429199e-01 -1.893344670534133911e-01 -5.286548733711242676e-01
3.600000000000000000e+03 3.212461090087890625e+01 -3.541835546493530273e+00 -1.328242778778076172e+00 5.289887785911560059e-01 -2.397761940956115723e-01 -5.056549906730651855e-01
3.601000000000000000e+03 3.009299087524414062e+01 -3.579629659652709961e+00 -1.075042486190795898e+00 3.888543546199798584e-01 -2.058564275503158569e-01 -9.876950979232788086e-01
3.602000000000000000e+03 2.962172317504882812e+01 -4.702011585235595703e+00 -5.611500740051269531e-01 5.499319434165954590e-01 -3.365442389622330666e-03 -1.238694310188293457e+00
3.603000000000000000e+03 3.241511917114257812e+01 -3.669347763061523438e+00 -1.311343193054199219e+00 5.967527627944946289e-01 -2.143771052360534668e-01 -4.280364513397216797e-01
3.604000000000000000e+03 2.876493263244628906e+01 -4.118357181549072266e+00 -7.005846500396728516e-01 3.233273029327392578e-01 -1.131771951913833618e-01 -1.263030290603637695e+00
3.605000000000000000e+03 2.851768493652343750e+01 -4.039417266845703125e+00 -6.956507563591003418e-01 3.018579483032226562e-01 -1.181378439068794250e-01 -1.285071849822998047e+00
3.606000000000000000e+03 2.966769790649414062e+01 -3.781920433044433594e+00 -9.108175039291381836e-01 3.943979144096374512e-01 -1.549258828163146973e-01 -1.113939046859741211e+00
3.607000000000000000e+03 3.286476898193359375e+01 -3.960378885269165039e+00 -1.249774694442749023e+00 6.809888482093811035e-01 -1.706357598304748535e-01 -3.673283457756042480e-01
3.608000000000000000e+03 3.159564590454101562e+01 -4.551880836486816406e+00 -8.591673970222473145e-01 7.557424902915954590e-01 -3.102746978402137756e-02 -7.286273241043090820e-01
3.609000000000000000e+03 3.082666778564453125e+01 -4.332644462585449219e+00 -8.798198103904724121e-01 6.595471501350402832e-01 -6.608180701732635498e-02 -9.038994908332824707e-01
3.610000000000000000e+03 1.213176727294921875e+01 9.459710121154785156e+00 -2.708190368139185011e-05 -1.507689157733693719e-04 -5.335524474503472447e-05 2.207367506343871355e-04
3.611000000000000000e+03 3.353327560424804688e+01 -3.763524055480957031e+00 -1.407611966133117676e+00 6.393450498580932617e-01 -2.304800599813461304e-01 -1.822999864816665649e-01
3.612000000000000000e+03 1.329522323608398438e+01 9.692252159118652344e+00 6.607318482565460727e-06 1.072978848242200911e-04 3.417156040086410940e-05 6.055435005691833794e-05
3.613000000000000000e+03 2.986256408691406250e+01 -4.398447036743164062e+00 -7.316467165946960449e-01 5.419468879699707031e-01 -5.690994113683700562e-02 -1.142398715019226074e+00
3.614000000000000000e+03 3.000235748291015625e+01 -3.984623193740844727e+00 -8.797642588615417480e-01 4.678486883640289307e-01 -1.235746666789054871e-01 -1.072474360466003418e+00
3.615000000000000000e+03 1.216319942474365234e+01 1.111811733245849609e+01 -1.589988387422636151e-04 -1.763328473316505551e-04 -1.005995072773657739e-04 1.315975678153336048e-04
3.616000000000000000e+03 1.001145076751708984e+01 6.883270263671875000e+00 5.939774928265251219e-05 -9.315723582403734326e-05 -1.012784559861756861e-05 1.278405543416738510e-04
3.617000000000000000e+03 3.223214340209960938e+01 -3.230578660964965820e+00 -1.489039897918701172e+00 4.563222825527191162e-01 -3.098152875900268555e-01 -4.207800626754760742e-01
3.618000000000000000e+03 3.202700424194335938e+01 -4.619078636169433594e+00 -8.872599601745605469e-01 7.756372094154357910e-01 -3.348682448267936707e-02 -5.944820046424865723e-01
3.619000000000000000e+03 1.451553440093994141e+01 8.106715202331542969e+00 -2.033332566497847438e-04 1.020624113152734935e-04 -3.038125396415125579e-05 1.184983193525113165e-04
3.620000000000000000e+03 8.505662918090820312e+00 1.465656757354736328e+01 -1.559018623083829880e-03 2.509388723410665989e-04 -3.924239426851272583e-04 -1.674542290857061744e-04
3.621000000000000000e+03 1.154686546325683594e+01 1.123179054260253906e+01 -1.657428947510197759e-04 -1.731060765450820327e-04 -1.016546884784474969e-04 -5.567144398810341954e-05
3.622000000000000000e+03 3.522431564331054688e+01 -4.950617313385009766e+00 -1.112344145774841309e+00 8.232289552688598633e-01 -8.673456311225891113e-02 -3.539025038480758667e-02
3.623000000000000000e+03 9.526489257812500000e+00 1.855452919006347656e+01 -6.903506815433502197e-03 3.115606959909200668e-03 -1.136369886808097363e-03 5.086896126158535480e-04
3.624000000000000000e+03 1.412660884857177734e+01 6.510317802429199219e+00 6.335739453788846731e-05 3.361541530466638505e-05 2.909184149757493287e-05 1.263317099073901772e-04
3.625000000000000000e+03 1.436464500427246094e+01 7.081737518310546875e+00 9.172670252155512571e-05 7.152090256568044424e-05 4.897428152617067099e-05 1.160580650321207941e-04
3.626000000000000000e+03 1.111692237854003906e+01 1.677535057067871094e+01 -3.756720572710037231e-03 5.143650341778993607e-04 -9.727066499181091785e-04 -1.833073794841766357e-03
3.627000000000000000e+03 3.376802444458007812e+01 -4.208790302276611328e+00 -1.213640928268432617e+00 7.149493098258972168e-01 -1.496074646711349487e-01 -1.704219579696655273e-01
3.628000000000000000e+03 9.806343078613281250e+00 1.376222610473632812e+01 -1.281125820241868496e-03 -1.621856936253607273e-04 -4.329934308771044016e-04 -2.418109070276841521e-04
3.629000000000000000e+03 1.613986015319824219e+01 7.259979724884033203e+00 -1.004366495180875063e-04 9.366051381221041083e-05 -2.032841621257830411e-06 6.367067544488236308e-05
3.630000000000000000e+03 3.608184051513671875e+01 1.566526699066162109e+01 3.132208809256553650e-02 6.651008725166320801e-01 2.089268863201141357e-01 2.694478929042816162e-01
3.631000000000000000e+03 3.537368392944335938e+01 1.773600769042968750e+01 5.288492888212203979e-02 8.345491290092468262e-01 2.662302255630493164e-01 2.297781258821487427e-01
3.632000000000000000e+03 1.072516918182373047e+01 1.407647228240966797e+01 -1.196931581944227219e-03 -2.597231359686702490e-04 -4.369964008219540119e-04 -4.802720504812896252e-04
3.633000000000000000e+03 8.429850578308105469e+00 1.400788688659667969e+01 -1.758230617269873619e-03 2.241629699710756540e-04 -4.602202971000224352e-04 -3.529956666170619428e-05
3.634000000000000000e+03 8.503782272338867188e+00 8.767540931701660156e+00 1.014993977150879800e-04 -2.419049706077203155e-04 -4.212167186778970063e-05 6.697989738313481212e-05
3.635000000000000000e+03 9.604996681213378906e+00 8.812282562255859375e+00 6.383400614140555263e-05 -2.163019235013052821e-04 -4.574037666316144168e-05 9.001388389151543379e-05
3.636000000000000000e+03 1.465547657012939453e+01 7.692552566528320312e+00 8.426178101217374206e-05 1.177773738163523376e-04 6.061174644855782390e-05 7.488163828384131193e-05
3.637000000000000000e+03 1.453724956512451172e+01 6.672328472137451172e+00 -1.492112496634945273e-04 6.313480844255536795e-05 -2.582293382147327065e-05 3.999503678642213345e-05
3.638000000000000000e+03 3.588103485107421875e+01 1.497478675842285156e+01 2.828294411301612854e-02 8.129078149795532227e-01 2.523572146892547607e-01 2.315595746040344238e-01
3.639000000000000000e+03 1.210798931121826172e+01 2.204019355773925781e+01 -1.260134484618902206e-02 8.245141245424747467e-03 -1.306861173361539841e-03 3.764998866245150566e-03
3.640000000000000000e+03 1.257367515563964844e+01 9.213871955871582031e+00 -2.143666788470000029e-04 1.172561132989358157e-05 -6.079231752664782107e-05 4.633202479453757405e-05
3.641000000000000000e+03 1.327330780029296875e+01 6.751501083374023438e+00 -1.140259919338859618e-04 -2.077186945825815201e-05 -4.043935769004747272e-05 8.353249722858890891e-05
3.642000000000000000e+03 1.415771293640136719e+01 7.480540275573730469e+00 -2.110824716510251164e-04 7.847332017263397574e-05 -3.978274617111310363e-05 9.205297101289033890e-05
3.643000000000000000e+03 3.420701980590820312e+01 1.883067893981933594e+01 7.961354404687881470e-02 1.065072536468505859e+00 3.434058427810668945e-01 1.351103484630584717e-01
3.644000000000000000e+03 1.025273895263671875e+01 -8.163561820983886719e+00 -4.577827155590057373e-01 -2.053442001342773438e-01 -1.989380717277526855e-01 -1.531806588172912598e-01
3.645000000000000000e+03 2.417673873901367188e+01 2.731409263610839844e+01 3.354718536138534546e-02 2.057388126850128174e-01 7.178580015897750854e-02 -1.487666517496109009e-01
3.646000000000000000e+03 1.233433341979980469e+01 2.453417015075683594e+01 -5.249909590929746628e-04 1.011735945940017700e-02 2.877710619941353798e-03 5.937367677688598633e-03
3.647000000000000000e+03 1.472483825683593750e+01 2.497083282470703125e+01 5.050843115895986557e-03 1.061684079468250275e-02 4.700305406004190445e-03 -1.177877536974847317e-03
3.648000000000000000e+03 1.470896148681640625e+01 6.242128849029541016e+00 2.616716665215790272e-05 1.426382514182478189e-04 5.064162178314290941e-05 1.208895409945398569e-04
3.649000000000000000e+03 1.017475700378417969e+01 1.583191299438476562e+01 -2.749528037384152412e-03 4.395175201352685690e-04 -6.930031813681125641e-04 -8.310247212648391724e-04
3.650000000000000000e+03 1.026554965972900391e+01 2.018003273010253906e+01 -9.529245086014270782e-03 5.914226174354553223e-03 -1.084505696780979633e-03 1.491646515205502510e-03
3.651000000000000000e+03 1.205856513977050781e+01 2.282084274291992188e+01 -9.721859358251094818e-03 8.843980729579925537e-03 -2.633635012898594141e-04 5.489795003086328506e-03
3.652000000000000000e+03 1.255908775329589844e+01 2.170090866088867188e+01 -1.433455292135477066e-02 7.338777650147676468e-03 -2.098732627928256989e-03 1.885161502286791801e-03
3.653000000000000000e+03 3.660608673095703125e+01 1.472263431549072266e+01 9.747311123646795750e-04 3.637347519397735596e-01 1.094128414988517761e-01 2.601493895053863525e-01
3.654000000000000000e+03 1.665283012390136719e+01 2.733964538574218750e+01 2.616015076637268066e-02 3.193274885416030884e-02 1.742786914110183716e-02 -2.521410584449768066e-02
3.655000000000000000e+03 1.738890647888183594e+01 2.607901763916015625e+01 2.830658853054046631e-02 2.229615859687328339e-02 1.518082432448863983e-02 -2.596124261617660522e-02
3.656000000000000000e+03 9.007535934448242188e+00 1.577066135406494141e+01 -2.537950873374938965e-03 6.868502241559326649e-04 -5.553302471525967121e-04 -1.802629267331212759e-04
3.657000000000000000e+03 8.390853881835937500e+00 1.338136768341064453e+01 -8.661663741804659367e-04 -4.345852721598930657e-05 -2.728874678723514080e-04 -1.277337196370353922e-05
3.658000000000000000e+03 1.195603275299072266e+01 1.057668304443359375e+01 -1.372711412841454148e-04 -8.482107659801840782e-05 -6.662766827503219247e-05 -3.405022289371117949e-05
3.659000000000000000e+03 8.258018493652343750e+00 1.237325954437255859e+01 -6.976303993724286556e-04 -5.666349534294568002e-05 -2.262881607748568058e-04 1.111302262870594859e-04
3.660000000000000000e+03 2.794725418090820312e+01 2.706741905212402344e+01 -5.209761485457420349e-02 4.415622353553771973e-01 1.168393865227699280e-01 -1.525578051805496216e-01
3.661000000000000000e+03 9.630528450012207031e+00 1.998732757568359375e+01 -8.593812584877014160e-03 5.043940152972936630e-03 -1.064961776137351990e-03 2.246723510324954987e-03
3.662000000000000000e+03 9.089541435241699219e+00 8.279870033264160156e+00 -2.114771341439336538e-04 -1.939815410878509283e-04 -1.216375967487692833e-04 -3.930685852537862957e-05
3.663000000000000000e+03 1.407635402679443359e+01 2.485291099548339844e+01 3.647258272394537926e-03 1.023701485246419907e-02 4.165282007306814194e-03 1.753673073835670948e-03
3.664000000000000000e+03 1.340292835235595703e+01 2.467384910583496094e+01 -2.764429955277591944e-04 1.016772724688053131e-02 2.967385342344641685e-03 3.373278304934501648e-03
3.665000000000000000e+03 3.679618072509765625e+01 2.195150375366210938e+01 -1.135538890957832336e-02 2.797765135765075684e-01 8.052633702754974365e-02 3.199740946292877197e-01
3.666000000000000000e+03 3.330036163330078125e+01 1.939380073547363281e+01 1.073114350438117981e-01 1.197922229766845703e+00 3.915700912475585938e-01 1.224318146705627441e-02
3.667000000000000000e+03 6.829190063476562500e+01 1.655812382698059082e+00 5.357156395912170410e-01 1.327059745788574219e+00 5.588326454162597656e-01 -4.234530627727508545e-01
3.668000000000000000e+03 3.293297576904296875e+01 2.576278877258300781e+01 -1.231142953038215637e-01 6.022029519081115723e-01 1.437266021966934204e-01 1.054494827985763550e-01
3.669000000000000000e+03 1.451526260375976562e+01 2.574191093444824219e+01 1.047405414283275604e-02 1.373312808573246002e-02 7.262154947966337204e-03 -2.768443431705236435e-03
3.670000000000000000e+03 8.202438354492187500e+00 2.295482635498046875e+01 -3.850407898426055908e-03 5.110629834234714508e-03 3.780665283557027578e-04 7.368364837020635605e-03
3.671000000000000000e+03 9.765475273132324219e+00 2.434896850585937500e+01 -2.942580962553620338e-03 8.687561377882957458e-03 1.723494031466543674e-03 7.525886408984661102e-03
3.672000000000000000e+03 8.912046432495117188e+00 1.203502368927001953e+01 -4.337253922130912542e-04 -3.663022071123123169e-04 -2.400082885287702084e-04 -1.950518926605582237e-04
3.673000000000000000e+03 9.471603393554687500e+00 1.798904800415039062e+01 -5.728751886636018753e-03 2.819366985931992531e-03 -8.728154934942722321e-04 -1.023870136123150587e-04
3.674000000000000000e+03 9.280511856079101562e+00 -1.014740180969238281e+01 -5.211209654808044434e-01 -1.947524994611740112e-01 -2.147620320320129395e-01 -2.680308520793914795e-01
3.675000000000000000e+03 5.500856876373291016e+00 -1.759524154663085938e+01 -6.749872118234634399e-02 -5.195474028587341309e-01 -1.761138290166854858e-01 -6.360155940055847168e-01
3.676000000000000000e+03 7.949770927429199219e+00 -1.802988052368164062e+01 -8.382181078195571899e-02 -4.485911130905151367e-01 -1.597238779067993164e-01 -8.233109712600708008e-01
3.677000000000000000e+03 7.177928447723388672e+00 2.208288002014160156e+01 -4.033088218420743942e-03 3.314053174108266830e-03 -2.157104172511026263e-04 6.508771330118179321e-03
3.678000000000000000e+03 7.071617603302001953e+00 1.998408317565917969e+01 -4.515917506068944931e-03 2.693359274417161942e-03 -5.467674927785992622e-04 4.124513827264308929e-03
3.679000000000000000e+03 1.131646728515625000e+01 7.720952987670898438e+00 -6.698684592265635729e-05 -1.029002887662500143e-04 -5.096614404465071857e-05 2.518663677619770169e-05
3.680000000000000000e+03 1.071101188659667969e+01 7.999343872070312500e+00 5.191645323066040874e-05 -1.436584279872477055e-04 -2.752259206317830831e-05 1.555023045511916280e-04
3.681000000000000000e+03 8.824996948242187500e+00 1.723367309570312500e+01 -4.675409756600856781e-03 1.680686953477561474e-03 -8.984168525785207748e-04 -1.000669144559651613e-04
3.682000000000000000e+03 8.234859466552734375e+00 1.533990669250488281e+01 -2.845103619620203972e-03 5.854112096130847931e-04 -6.779077230021357536e-04 1.922559204103890806e-05
3.683000000000000000e+03 7.106456756591796875e+01 7.825458526611328125e+00 5.935131311416625977e-01 7.235630750656127930e-01 3.951228559017181396e-01 -1.710380315780639648e-01
3.684000000000000000e+03 3.384852218627929688e+01 2.154629325866699219e+01 1.095230341888964176e-03 8.476918935775756836e-01 2.546361386775970459e-01 1.714724153280258179e-01
3.685000000000000000e+03 3.418968963623046875e+01 2.458379745483398438e+01 -8.904644846916198730e-02 5.744081139564514160e-01 1.456084996461868286e-01 1.893231123685836792e-01
3.686000000000000000e+03 1.940136146545410156e+01 2.865919113159179688e+01 3.255048766732215881e-02 7.918453961610794067e-02 3.352050855755805969e-02 -6.541109830141067505e-02
3.687000000000000000e+03 1.954387092590332031e+01 2.687628936767578125e+01 4.399549216032028198e-02 5.156492441892623901e-02 2.866812422871589661e-02 -6.246547028422355652e-02
3.688000000000000000e+03 3.486039352416992188e+01 2.078931427001953125e+01 1.493101380765438080e-02 6.951089501380920410e-01 2.130119949579238892e-01 2.448489367961883545e-01
3.689000000000000000e+03 6.934877014160156250e+01 -6.207182407379150391e+00 -3.281270265579223633e-01 3.658553659915924072e-01 1.131849456578493118e-02 -7.920386195182800293e-01
3.690000000000000000e+03 1.529535484313964844e+01 2.686295700073242188e+01 1.980064809322357178e-02 2.093174494802951813e-02 1.221971772611141205e-02 -1.215069741010665894e-02
3.691000000000000000e+03 3.686206436157226562e+01 1.999342536926269531e+01 1.292778924107551575e-02 2.707495093345642090e-01 8.510319143533706665e-02 3.200590312480926514e-01
3.692000000000000000e+03 6.431403350830078125e+01 -3.155448675155639648e+00 2.568373084068298340e-01 1.484224796295166016e+00 5.223186612129211426e-01 5.144650861620903015e-02
3.693000000000000000e+03 3.489197921752929688e+01 2.163666534423828125e+01 -1.970078982412815094e-02 6.483573913574218750e-01 1.885969787836074829e-01 2.521707713603973389e-01
3.694000000000000000e+03 7.447705841064453125e+01 6.804101943969726562e+00 2.610527276992797852e-01 -9.230676293373107910e-01 -1.986044794321060181e-01 -3.364838659763336182e-01
3.695000000000000000e+03 6.977580261230468750e+01 -4.151199817657470703e+00 -6.485961377620697021e-02 4.043632149696350098e-01 1.018510758876800537e-01 -8.139050006866455078e-01
3.696000000000000000e+03 6.660596466064453125e+01 -2.883090734481811523e+00 1.635514050722122192e-01 1.086060643196105957e+00 3.748835921287536621e-01 -4.327633082866668701e-01
3.697000000000000000e+03 6.702693176269531250e+01 -4.902778148651123047e+00 -1.236822903156280518e-01 7.036547660827636719e-01 1.739917397499084473e-01 -5.730494260787963867e-01
3.698000000000000000e+03 9.146397590637207031e+00 2.489836311340332031e+01 -1.027227845042943954e-03 7.451663725078105927e-03 1.927330740727484226e-03 7.648766972124576569e-03
3.699000000000000000e+03 6.989704895019531250e+01 -2.448616981506347656e+00 9.222752600908279419e-02 4.868052303791046143e-01 1.737098246812820435e-01 -7.823752164840698242e-01
3.700000000000000000e+03 7.012022399902343750e+01 -4.945217609405517578e+00 -1.727769374847412109e-01 3.221488296985626221e-01 4.481156915426254272e-02 -8.341779112815856934e-01
3.701000000000000000e+03 2.834689903259277344e+01 2.850998878479003906e+01 -7.548564672470092773e-02 4.181314110755920410e-01 1.027937307953834534e-01 -1.006153672933578491e-01
3.702000000000000000e+03 6.800010681152343750e+01 -4.604123592376708984e+00 -8.946399390697479248e-02 6.316222548484802246e-01 1.626474857330322266e-01 -6.989115476608276367e-01
3.703000000000000000e+03 6.897658538818359375e+01 2.602122068405151367e+00 5.451023578643798828e-01 1.237892031669616699e+00 5.348983407020568848e-01 -4.451082944869995117e-01
3.704000000000000000e+03 6.720744323730468750e+01 2.426110953092575073e-01 4.612861573696136475e-01 1.502676010131835938e+00 5.891886353492736816e-01 -3.540046215057373047e-01
3.705000000000000000e+03 6.955489349365234375e+01 9.555218368768692017e-02 3.340673148632049561e-01 7.582492232322692871e-01 3.276949524879455566e-01 -6.721386909484863281e-01
3.706000000000000000e+03 2.377256774902343750e+01 2.852805519104003906e+01 1.590112037956714630e-02 2.003871202468872070e-01 6.488647311925888062e-02 -1.296471804380416870e-01
3.707000000000000000e+03 7.018923187255859375e+01 6.143795967102050781e+00 6.219782829284667969e-01 1.001693487167358398e+00 4.871015548706054688e-01 -2.652864754199981689e-01
3.708000000000000000e+03 6.522312927246093750e+01 3.733533143997192383e+00 8.635189533233642578e-01 2.998117685317993164e+00 1.158491015434265137e+00 2.739507555961608887e-01
3.709000000000000000e+03 6.937941741943359375e+01 6.828454017639160156e+00 6.926349401473999023e-01 1.454133629798889160e+00 6.440305709838867188e-01 -1.807818859815597534e-01
3.710000000000000000e+03 7.116291046142578125e+01 1.009911823272705078e+01 6.093943119049072266e-01 7.666079401969909668e-01 4.128006994724273682e-01 1.717815548181533813e-02
3.711000000000000000e+03 7.158491516113281250e+01 1.125089836120605469e+01 5.670768618583679199e-01 5.947407484054565430e-01 3.485452830791473389e-01 1.037053689360618591e-01
3.712000000000000000e+03 6.948725128173828125e+01 5.225602149963378906e+00 6.429337859153747559e-01 1.241650223731994629e+00 5.653752088546752930e-01 -3.283433616161346436e-01
3.713000000000000000e+03 6.565349578857421875e+01 -1.655014395713806152e+00 3.520637154579162598e-01 1.519505858421325684e+00 5.614708662033081055e-01 -1.782632023096084595e-01
3.714000000000000000e+03 6.875559997558593750e+01 -2.459511041641235352e+00 1.115392297506332397e-01 6.936389207839965820e-01 2.415534406900405884e-01 -7.177853584289550781e-01
3.715000000000000000e+03 3.150642967224121094e+01 2.680919075012207031e+01 -1.216648221015930176e-01 5.728834867477416992e-01 1.353656053543090820e-01 1.227278448641300201e-02
3.716000000000000000e+03 6.337569046020507812e+01 2.101683616638183594e+01 4.314288496971130371e-01 4.241198062896728516e+00 1.401788115501403809e+00 -2.539430558681488037e-01
3.717000000000000000e+03 7.309521484375000000e+01 1.465467739105224609e+01 4.280677437782287598e-01 -9.926482290029525757e-02 9.864087402820587158e-02 3.923450112342834473e-01
3.718000000000000000e+03 7.032093048095703125e+01 2.414126586914062500e+01 -9.818389266729354858e-02 1.090105414390563965e+00 2.975764572620391846e-01 8.897677063941955566e-01
3.719000000000000000e+03 1.067077159881591797e+01 2.894224166870117188e+01 7.493872661143541336e-03 1.626929081976413727e-02 7.128948811441659927e-03 6.290458841249346733e-04
3.720000000000000000e+03 6.623152923583984375e+01 2.479023742675781250e+01 -3.811125457286834717e-01 2.296309947967529297e+00 5.745592117309570312e-01 4.960199296474456787e-01
3.721000000000000000e+03 6.210380077362060547e+00 -2.542147064208984375e+01 2.064401954412460327e-01 -9.293162822723388672e-01 -2.168628275394439697e-01 -4.249704778194427490e-01
3.722000000000000000e+03 3.166501998901367188e+01 -4.132676601409912109e+00 -1.035555720329284668e+00 6.503762602806091309e-01 -1.155538409948348999e-01 -6.481646299362182617e-01
3.723000000000000000e+03 2.810947608947753906e+01 -4.067143440246582031e+00 -6.769550442695617676e-01 2.966166734695434570e-01 -1.141015067696571350e-01 -1.302366852760314941e+00
3.724000000000000000e+03 2.940536880493164062e+01 -4.028301715850830078e+00 -8.024126887321472168e-01 3.882305026054382324e-01 -1.242546588182449341e-01 -1.185286521911621094e+00
3.725000000000000000e+03 3.294962310791015625e+01 -3.309987783432006836e+00 -1.509841799736022949e+00 5.146278738975524902e-01 -2.985641658306121826e-01 -2.816783785820007324e-01
3.726000000000000000e+03 3.321755218505859375e+01 -3.889614582061767578e+00 -1.313861131668090820e+00 6.271717548370361328e-01 -2.060067951679229736e-01 -2.641981840133666992e-01
3.727000000000000000e+03 3.202101516723632812e+01 -4.186723709106445312e+00 -1.041683912277221680e+00 6.583295464515686035e-01 -1.150063201785087585e-01 -5.795518755912780762e-01
3.728000000000000000e+03 1.164674568176269531e+01 9.531373977661132812e+00 1.205347580253146589e-04 -1.576040813233703375e-04 -1.112079735321458429e-05 1.800895188353024423e-05
3.729000000000000000e+03 3.325275802612304688e+01 -3.514755487442016602e+00 -1.466790676116943359e+00 5.548523068428039551e-01 -2.735815346240997314e-01 -2.068820446729660034e-01
3.730000000000000000e+03 3.259044647216796875e+01 -4.229413986206054688e+00 -1.086169481277465820e+00 6.733279824256896973e-01 -1.238524392247200012e-01 -4.358968734741210938e-01
3.731000000000000000e+03 1.152317523956298828e+01 8.183447837829589844e+00 3.431913137319497764e-05 -1.345970667898654938e-04 -3.008337989740539342e-05 2.066729502985253930e-04
3.732000000000000000e+03 1.280838966369628906e+01 9.744107246398925781e+00 -3.302564073237590492e-05 -8.365943358512595296e-05 -3.500551974866539240e-05 2.079950791085138917e-04
3.733000000000000000e+03 1.340919208526611328e+01 9.192646980285644531e+00 -2.716644376050680876e-04 4.266295218258164823e-05 -6.870045035611838102e-05 1.867354294518008828e-04
3.734000000000000000e+03 2.879766845703125000e+01 -4.655113220214843750e+00 -5.144581794738769531e-01 3.602615296840667725e-01 -4.625900089740753174e-02 -1.307768464088439941e+00
3.735000000000000000e+03 9.636462211608886719e+00 9.796714782714843750e+00 -1.966246418305672705e-05 -2.282940695295110345e-04 -7.438696047756820917e-05 5.406589843914844096e-05
3.736000000000000000e+03 3.547617340087890625e+01 1.644022750854492188e+01 4.136396199464797974e-02 9.174608588218688965e-01 2.876474559307098389e-01 2.316887974739074707e-01
3.737000000000000000e+03 1.195762252807617188e+01 7.590860366821289062e+00 -7.722063310211524367e-05 -3.559889591997489333e-05 -3.384585943422280252e-05 2.149761276086792350e-04
3.738000000000000000e+03 1.253818225860595703e+01 7.454935073852539062e+00 -8.710876136319711804e-05 -4.014109072159044445e-05 -3.817495598923414946e-05 2.016814141825307161e-05
3.739000000000000000e+03 1.336149692535400391e+01 8.462869644165039062e+00 -1.751758827595040202e-04 4.416807132656686008e-05 -3.930234379367902875e-05 7.723918679403141141e-05
3.740000000000000000e+03 3.323699569702148438e+01 -4.817214965820312500e+00 -9.099782109260559082e-01 8.842701911926269531e-01 -7.712407037615776062e-03 -3.808733522891998291e-01
3.741000000000000000e+03 3.399499130249023438e+01 -4.762658596038818359e+00 -1.065111041069030762e+00 8.424639701843261719e-01 -6.679412722587585449e-02 -2.029404789209365845e-01
3.742000000000000000e+03 1.045182037353515625e+01 1.212376785278320312e+01 -4.729974025394767523e-04 -3.062481700908392668e-04 -2.337736659683287144e-04 -5.462219633045606315e-05
3.743000000000000000e+03 1.043905925750732422e+01 1.352396202087402344e+01 -9.759051026776432991e-04 -1.906705147121101618e-04 -3.499726881273090839e-04 -5.188697832636535168e-04
3.744000000000000000e+03 1.006004905700683594e+01 1.434493637084960938e+01 -1.529101631604135036e-03 -9.079787560040131211e-06 -4.614544159267097712e-04 -6.901571177877485752e-04
3.745000000000000000e+03 9.138302803039550781e+00 1.394950389862060547e+01 -1.228424953296780586e-03 -3.493786789476871490e-05 -3.790088230744004250e-04 -3.955036518163979053e-04
3.746000000000000000e+03 1.253798103332519531e+01 8.389947891235351562e+00 -2.372893213760107756e-04 -2.398105425527319312e-05 -7.838111196178942919e-05 9.718709770822897553e-05
3.747000000000000000e+03 3.292451477050781250e+01 -4.331040859222412109e+00 -1.051427841186523438e+00 7.522063255310058594e-01 -8.976646512746810913e-02 -4.022751152515411377e-01
3.748000000000000000e+03 9.600477218627929688e+00 1.924487495422363281e+01 -7.495167199522256851e-03 4.482179880142211914e-03 -9.038962307386100292e-04 9.342527482658624649e-04
3.749000000000000000e+03 7.992715835571289062e+00 1.911849212646484375e+01 -5.202242638915777206e-03 3.103876952081918716e-03 -6.295096827670931816e-04 2.528667682781815529e-03
3.750000000000000000e+03 1.145416259765625000e+01 8.854783058166503906e+00 1.498582860222086310e-04 -1.898444024845957756e-04 -1.199583221023203805e-05 1.880077907117083669e-04
3.751000000000000000e+03 1.229977989196777344e+01 9.913435935974121094e+00 -1.045839380822144449e-04 -3.190740972058847547e-05 -4.094740506843663752e-05 3.292985638836398721e-05
3.752000000000000000e+03 1.033811569213867188e+01 1.909168243408203125e+01 -8.423016406595706940e-03 3.969565033912658691e-03 -1.336035435087978840e-03 -2.890811629185918719e-05
3.753000000000000000e+03 1.081691551208496094e+01 2.064465141296386719e+01 -1.098851021379232407e-02 6.481906864792108536e-03 -1.351981190964579582e-03 1.375037943944334984e-03
3.754000000000000000e+03 3.524460220336914062e+01 1.835053443908691406e+01 5.435776710510253906e-02 8.180403709411621094e-01 2.617194354534149170e-01 2.333570271730422974e-01
3.755000000000000000e+03 3.549621200561523438e+01 1.708700561523437500e+01 5.157350003719329834e-02 8.421233892440795898e-01 2.681090831756591797e-01 2.390639483928680420e-01
3.756000000000000000e+03 9.306688308715820312e+00 1.461114501953125000e+01 -2.010918455198407173e-03 1.446057431166991591e-04 -5.598938441835343838e-04 -1.745186600601300597e-04
3.757000000000000000e+03 1.068370628356933594e+01 9.796516418457031250e+00 4.864775473834015429e-05 -2.090662892442196608e-04 -4.812555926037020981e-05 1.480116043239831924e-04
3.758000000000000000e+03 1.140813827514648438e+01 1.071087837219238281e+01 -1.709012867650017142e-04 -3.050643135793507099e-04 -1.427896786481142044e-04 1.420292392140254378e-04
3.759000000000000000e+03 1.083386993408203125e+01 1.129529762268066406e+01 -3.791450581047683954e-04 -2.555968239903450012e-04 -1.904225646285340190e-04 4.757909482577815652e-05
3.760000000000000000e+03 1.010190391540527344e+01 1.147383785247802734e+01 -4.544739786069840193e-04 -2.563653397373855114e-04 -2.132517984136939049e-04 -1.491665316279977560e-04
3.761000000000000000e+03 1.847612190246582031e+01 3.169750213623046875e+01 1.172159612178802490e-02 9.442637860774993896e-02 3.184439241886138916e-02 -4.944536834955215454e-02
3.762000000000000000e+03 1.060554027557373047e+01 1.768930435180664062e+01 -5.562700796872377396e-03 2.063661580905318260e-03 -1.049711834639310837e-03 -1.619340269826352596e-03
3.763000000000000000e+03 9.695489883422851562e+00 1.722877693176269531e+01 -4.961536731570959091e-03 1.791896764189004898e-03 -9.508919320069253445e-04 -8.296903106383979321e-04
3.764000000000000000e+03 9.247172355651855469e+00 1.756662178039550781e+01 -5.013565532863140106e-03 2.168801380321383476e-03 -8.534291991963982582e-04 2.198978472733870149e-04
3.765000000000000000e+03 1.106158733367919922e+01 8.474791526794433594e+00 -1.964674738701432943e-04 -1.099693618016317487e-04 -9.193105506710708141e-05 2.289058465976268053e-05
3.766000000000000000e+03 8.961857795715332031e+00 1.139565372467041016e+01 -7.070638239383697510e-04 -2.767160185612738132e-04 -2.951339702121913433e-04 -1.069449790520593524e-04
3.767000000000000000e+03 9.651938438415527344e+00 1.526589488983154297e+01 -2.506259828805923462e-03 4.068424750585108995e-04 -6.298252264969050884e-04 -7.695441017858684063e-04
3.768000000000000000e+03 3.587723922729492188e+01 1.855737495422363281e+01 4.340051859617233276e-02 5.849407315254211426e-01 1.885023862123489380e-01 2.839777767658233643e-01
3.769000000000000000e+03 1.204898929595947266e+01 2.368176460266113281e+01 -6.011301185935735703e-03 9.432933293282985687e-03 1.026489539071917534e-03 6.485627032816410065e-03
3.770000000000000000e+03 1.291909694671630859e+01 2.432096099853515625e+01 -2.464577555656433105e-03 9.709426201879978180e-03 2.173454733565449715e-03 5.138950888067483902e-03
3.771000000000000000e+03 3.608781051635742188e+01 1.785977172851562500e+01 3.895590081810951233e-02 5.427033901214599609e-01 1.744977980852127075e-01 2.916279435157775879e-01
3.772000000000000000e+03 3.684323501586914062e+01 1.802145576477050781e+01 3.449228033423423767e-02 2.672612667083740234e-01 9.052606672048568726e-02 2.991921305656433105e-01
3.773000000000000000e+03 1.017758846282958984e+01 1.679325675964355469e+01 -3.978522494435310364e-03 1.146988477557897568e-03 -8.494602516293525696e-04 -1.058028661645948887e-03
3.774000000000000000e+03 2.515771484375000000e+01 2.880755805969238281e+01 -1.199332345277070999e-02 2.679531574249267578e-01 7.678794860839843750e-02 -1.348190158605575562e-01
3.775000000000000000e+03 1.082434654235839844e+01 2.148872756958007812e+01 -1.049422845244407654e-02 7.595471572130918503e-03 -8.696269360370934010e-04 3.467090660706162453e-03
3.776000000000000000e+03 9.822404861450195312e+00 2.068150329589843750e+01 -8.853528648614883423e-03 6.205368321388959885e-03 -7.944480748847126961e-04 2.964155049994587898e-03
3.777000000000000000e+03 8.010567665100097656e+00 2.008054351806640625e+01 -6.596880499273538589e-03 3.783531719818711281e-03 -8.440047386102378368e-04 3.586863400414586067e-03
3.778000000000000000e+03 8.803705215454101562e+00 1.922963333129882812e+01 -6.926783360540866852e-03 3.627617610618472099e-03 -9.897497948259115219e-04 2.031927695497870445e-03
3.779000000000000000e+03 9.367876052856445312e+00 2.901451873779296875e+01 6.946810521185398102e-03 1.204644609242677689e-02 5.697976797819137573e-03 3.747588954865932465e-03
3.780000000000000000e+03 1.494426059722900391e+01 2.956021881103515625e+01 1.733503863215446472e-02 3.855862841010093689e-02 1.676809974014759064e-02 -1.839424297213554382e-02
3.781000000000000000e+03 1.422439098358154297e+01 2.719078636169433594e+01 1.394869387149810791e-02 1.967366598546504974e-02 1.008670777082443237e-02 -6.493342109024524689e-03
3.782000000000000000e+03 2.173236083984375000e+01 2.924105453491210938e+01 2.284446544945240021e-02 1.386054754257202148e-01 4.843498393893241882e-02 -9.673745185136795044e-02
3.783000000000000000e+03 9.557209968566894531e+00 2.202519607543945312e+01 -7.292323280125856400e-03 6.909640040248632431e-03 -1.148049850598908961e-04 5.365065298974514008e-03
3.784000000000000000e+03 8.875289916992187500e+00 2.257302856445312500e+01 -6.093985401093959808e-03 6.472332403063774109e-03 1.135041748057119548e-04 6.675710435956716537e-03
3.785000000000000000e+03 1.017765522003173828e+01 1.844519615173339844e+01 -7.082715630531311035e-03 3.506630426272749901e-03 -1.072825514711439610e-03 -6.965515785850584507e-04
3.786000000000000000e+03 1.180862712860107422e+01 2.089246749877929688e+01 -1.285626832395792007e-02 6.808860227465629578e-03 -1.814222428947687149e-03 7.439514738507568836e-04
3.787000000000000000e+03 1.253655910491943359e+01 2.397265625000000000e+01 -5.012373439967632294e-03 9.402218274772167206e-03 1.316953566856682301e-03 4.936047364026308060e-03
3.788000000000000000e+03 6.820494651794433594e+00 -1.634252929687500000e+01 -1.919528841972351074e-01 -3.865764141082763672e-01 -1.735587865114212036e-01 -6.992425918579101562e-01
3.789000000000000000e+03 2.872376441955566406e+01 3.030932617187500000e+01 -9.621697664260864258e-02 3.838171362876892090e-01 8.628004789352416992e-02 -5.922745168209075928e-02
3.790000000000000000e+03 1.063233089447021484e+01 2.316295433044433594e+01 -6.381362210959196091e-03 8.654890581965446472e-03 6.820584530942142010e-04 6.283523980528116226e-03
3.791000000000000000e+03 1.039161396026611328e+01 2.407661437988281250e+01 -2.614149823784828186e-03 8.636522106826305389e-03 1.806711545214056969e-03 7.340420503169298172e-03
3.792000000000000000e+03 1.789620018005371094e+01 2.984001350402832031e+01 2.532821893692016602e-02 6.470372527837753296e-02 2.700958214700222015e-02 -4.555597156286239624e-02
3.793000000000000000e+03 1.716166877746582031e+01 2.825223350524902344e+01 2.696512825787067413e-02 4.347436502575874329e-02 2.113184705376625061e-02 -3.406957164406776428e-02
3.794000000000000000e+03 6.917182922363281250e+01 1.060559034347534180e+00 3.989419639110565186e-01 9.467693567276000977e-01 4.037133753299713135e-01 -5.732379555702209473e-01
3.795000000000000000e+03 3.554384613037109375e+01 1.920687866210937500e+01 3.244711086153984070e-02 6.580572128295898438e-01 2.071512937545776367e-01 2.680881321430206299e-01
3.796000000000000000e+03 6.971946716308593750e+01 3.575598955154418945e+00 5.597109794616699219e-01 9.971445798873901367e-01 4.670566618442535400e-01 -4.687828719615936279e-01
3.797000000000000000e+03 7.257505035400390625e+01 9.907693862915039062e+00 4.577953219413757324e-01 3.741839528083801270e-02 1.485641151666641235e-01 -4.564574733376502991e-02
3.798000000000000000e+03 7.235708618164062500e+01 8.748575210571289062e+00 4.834595024585723877e-01 1.057538166642189026e-01 1.767639964818954468e-01 -1.409896612167358398e-01
3.799000000000000000e+03 6.996617889404296875e+01 1.851563096046447754e+00 4.357227981090545654e-01 7.576317787170410156e-01 3.580063581466674805e-01 -6.039770245552062988e-01
3.800000000000000000e+03 5.564793586730957031e+00 -1.501831817626953125e+01 -1.958416253328323364e-01 -3.244581520557403564e-01 -1.560899317264556885e-01 -5.464220046997070312e-01
3.801000000000000000e+03 6.766339874267578125e+01 -2.731254577636718750e+00 1.320341229438781738e-01 9.316184520721435547e-01 3.190957605838775635e-01 -5.793005824089050293e-01
3.802000000000000000e+03 6.865776824951171875e+01 -1.682382673025131226e-01 3.722534179687500000e-01 1.069249391555786133e+00 4.324508607387542725e-01 -5.636570453643798828e-01
3.803000000000000000e+03 1.523764705657958984e+01 2.589441490173339844e+01 1.257183309644460678e-02 1.426205690950155258e-02 8.050167001783847809e-03 -6.317101418972015381e-03
3.804000000000000000e+03 6.893489074707031250e+01 -4.369453907012939453e+00 -9.695748239755630493e-02 4.982390105724334717e-01 1.203844621777534485e-01 -7.670285701751708984e-01
3.805000000000000000e+03 7.392409515380859375e+01 9.726890563964843750e+00 3.342074155807495117e-01 -6.125910878181457520e-01 -8.351511508226394653e-02 -8.016972988843917847e-02
3.806000000000000000e+03 6.798003387451171875e+01 3.263492584228515625e+00 6.651222705841064453e-01 1.657004237174987793e+00 6.966379880905151367e-01 -3.079718351364135742e-01
3.807000000000000000e+03 3.615551757812500000e+01 1.959297180175781250e+01 2.740021981298923492e-02 4.528061449527740479e-01 1.440619081258773804e-01 3.017988801002502441e-01
3.808000000000000000e+03 3.589666748046875000e+01 2.174427032470703125e+01 -2.181643992662429810e-02 4.474238455295562744e-01 1.276822239160537720e-01 3.007595241069793701e-01
3.809000000000000000e+03 1.001341342926025391e+01 2.569919967651367188e+01 1.226560212671756744e-03 9.637949988245964050e-03 3.259352874010801315e-03 7.511039264500141144e-03
3.810000000000000000e+03 1.199778270721435547e+01 2.893217277526855469e+01 1.235935743898153305e-02 2.026113495230674744e-02 9.786147624254226685e-03 -2.662925515323877335e-03
3.811000000000000000e+03 3.079535675048828125e+01 2.959788513183593750e+01 -1.188860237598419189e-01 4.400247633457183838e-01 9.634161740541458130e-02 5.934220273047685623e-03
3.812000000000000000e+03 4.006013488769531250e+01 2.385475730895996094e+01 -2.144663222134113312e-02 -1.496605277061462402e-01 -5.133214592933654785e-02 2.097224444150924683e-01
3.813000000000000000e+03 1.451967144012451172e+01 2.834576416015625000e+01 1.908485405147075653e-02 2.796273678541183472e-02 1.411427743732929230e-02 -1.333719026297330856e-02
3.814000000000000000e+03 7.169445800781250000e+01 6.579204559326171875e+00 5.037100315093994141e-01 3.738520741462707520e-01 2.632686197757720947e-01 -3.083760440349578857e-01
3.815000000000000000e+03 7.326184082031250000e+01 7.280666828155517578e+00 3.861633241176605225e-01 -3.350342810153961182e-01 1.533871516585350037e-02 -2.863630354404449463e-01
3.816000000000000000e+03 2.662713623046875000e+01 2.731022071838378906e+01 -1.386047992855310440e-02 3.567272126674652100e-01 1.028600186109542847e-01 -1.640381813049316406e-01
3.817000000000000000e+03 2.665408897399902344e+01 3.057612991333007812e+01 -5.908803269267082214e-02 3.151902556419372559e-01 7.683066278696060181e-02 -9.266985952854156494e-02
3.818000000000000000e+03 4.980822372436523438e+01 2.789906311035156250e+01 -1.889715436846017838e-03 -1.576417833566665649e-01 -4.785944893956184387e-02 -3.013046383857727051e-01
3.819000000000000000e+03 3.573066329956054688e+01 2.273192977905273438e+01 -3.768403083086013794e-02 4.590856134891510010e-01 1.264204680919647217e-01 2.839381396770477295e-01
3.820000000000000000e+03 3.537981796264648438e+01 2.562665939331054688e+01 -9.394896030426025391e-02 4.054239392280578613e-01 9.344249218702316284e-02 2.324924319982528687e-01
3.821000000000000000e+03 3.230497360229492188e+01 -4.011857509613037109e+00 -1.142174243927001953e+00 6.524384021759033203e-01 -1.469207555055618286e-01 -4.969638586044311523e-01
3.822000000000000000e+03 3.250294876098632812e+01 -3.381316184997558594e+00 -1.459778904914855957e+00 4.933467209339141846e-01 -2.899296283721923828e-01 -3.771372437477111816e-01
3.823000000000000000e+03 1.220221996307373047e+01 8.803364753723144531e+00 1.552033354528248310e-04 -1.489883143221959472e-04 1.864504724835569505e-06 1.990220625884830952e-04
3.824000000000000000e+03 1.297801017761230469e+01 8.849220275878906250e+00 9.454361861571669579e-05 2.724142177612520754e-05 3.653551175375469029e-05 1.396349543938413262e-04
3.825000000000000000e+03 3.493519973754882812e+01 -4.462530612945556641e+00 -1.295463562011718750e+00 8.141704201698303223e-01 -1.443879306316375732e-01 -2.330186218023300171e-02
3.826000000000000000e+03 1.338689804077148438e+01 7.580725193023681641e+00 -1.635747903492301702e-04 -1.665417221374809742e-05 -5.406868876889348030e-05 8.431083551840856671e-05
3.827000000000000000e+03 9.172585487365722656e+00 1.676553726196289062e+01 -3.787294495850801468e-03 1.415870967321097851e-03 -7.114270119927823544e-04 -2.128453488694503903e-04
3.828000000000000000e+03 9.506868362426757812e+00 1.181303596496582031e+01 -4.727838677354156971e-04 -1.944638934219256043e-04 -2.001743268920108676e-04 -6.917784048710018396e-05
3.829000000000000000e+03 9.255966186523437500e+00 1.262171459197998047e+01 -8.194460533559322357e-04 -1.422891364200040698e-04 -2.885205612983554602e-04 1.518337012385018170e-05
3.830000000000000000e+03 1.180623054504394531e+01 8.508069992065429688e+00 -3.022403398063033819e-04 2.309273804712574929e-05 -8.374427852686494589e-05 4.810387690667994320e-05
3.831000000000000000e+03 3.469222640991210938e+01 1.845083045959472656e+01 5.971607193350791931e-02 9.866124391555786133e-01 3.138985633850097656e-01 1.857877522706985474e-01
3.832000000000000000e+03 1.328794574737548828e+01 2.872165107727050781e+01 1.346514094620943069e-02 2.444256842136383057e-02 1.137231290340423584e-02 -6.937765516340732574e-03
3.833000000000000000e+03 1.395074081420898438e+01 2.626429748535156250e+01 1.187990605831146240e-02 1.485941931605339050e-02 8.021797053515911102e-03 -2.629911759868264198e-03
3.834000000000000000e+03 1.060109519958496094e+01 8.870788574218750000e+00 7.820051541784778237e-05 -1.829934626584872603e-04 -3.143788489978760481e-05 1.378917659167200327e-04
3.835000000000000000e+03 9.570198059082031250e+00 1.084562206268310547e+01 -1.659982517594471574e-04 -2.431150933261960745e-04 -1.227339962497353554e-04 8.183865429600700736e-05
3.836000000000000000e+03 9.082070350646972656e+00 1.025190162658691406e+01 -3.278715885244309902e-04 -2.397044445388019085e-04 -1.702728186501190066e-04 -5.544590749195776880e-05
3.837000000000000000e+03 1.110634899139404297e+01 9.301412582397460938e+00 -3.180924395564943552e-04 -1.307740749325603247e-04 -1.346599601674824953e-04 3.782933708862401545e-05
3.838000000000000000e+03 1.120333003997802734e+01 2.195836448669433594e+01 -1.083234790712594986e-02 8.299657143652439117e-03 -7.598072406835854053e-04 4.186698701232671738e-03
3.839000000000000000e+03 1.034387493133544922e+01 2.113031005859375000e+01 -9.443895891308784485e-03 7.040636613965034485e-03 -7.209778414107859135e-04 3.582035191357135773e-03
3.840000000000000000e+03 1.172656059265136719e+01 1.003653812408447266e+01 -1.645647862460464239e-04 -1.537195785203948617e-04 -9.548530942993238568e-05 2.211095998063683510e-04
3.841000000000000000e+03 1.019098091125488281e+01 1.032781982421875000e+01 -3.895391419064253569e-04 -2.873480552807450294e-04 -2.030661562457680702e-04 -3.657811612356454134e-05
3.842000000000000000e+03 1.249793434143066406e+01 2.317844200134277344e+01 -8.352207019925117493e-03 8.528719656169414520e-03 5.295392838888801634e-05 4.834521561861038208e-03
3.843000000000000000e+03 1.129759407043457031e+01 2.511620712280273438e+01 5.071438499726355076e-04 1.052645687013864517e-02 3.310080152004957199e-03 6.832663435488939285e-03
3.844000000000000000e+03 1.204979515075683594e+01 2.634652900695800781e+01 6.836665794253349304e-03 1.295313797891139984e-02 5.936941131949424744e-03 3.595707239583134651e-03
3.845000000000000000e+03 1.042998504638671875e+01 2.483628654479980469e+01 -1.731675816699862480e-03 9.209850803017616272e-03 2.243452472612261772e-03 6.528812926262617111e-03
3.846000000000000000e+03 3.506695938110351562e+01 1.977454185485839844e+01 3.901101648807525635e-02 7.500495910644531250e-01 2.367181777954101562e-01 2.384070903062820435e-01
3.847000000000000000e+03 9.092181205749511719e+00 2.103387832641601562e+01 -8.008983917534351349e-03 5.798335652798414230e-03 -6.631944561377167702e-04 4.470815882086753845e-03
3.848000000000000000e+03 1.067223739624023438e+01 2.229579544067382812e+01 -8.435201831161975861e-03 7.849968038499355316e-03 -1.755701086949557066e-04 4.852198529988527298e-03
3.849000000000000000e+03 1.015267753601074219e+01 2.269300079345703125e+01 -6.976047065109014511e-03 8.167096413671970367e-03 3.573149151634424925e-04 6.615039426833391190e-03
3.850000000000000000e+03 6.750128173828125000e+01 -1.892343044281005859e+00 2.233340591192245483e-01 1.016608834266662598e+00 3.719828724861145020e-01 -5.341255664825439453e-01
3.851000000000000000e+03 1.619471931457519531e+01 2.893592453002929688e+01 2.363127283751964569e-02 4.269853606820106506e-02 1.989894174039363861e-02 -2.815848030149936676e-02
3.852000000000000000e+03 1.565347766876220703e+01 2.787994384765625000e+01 2.070672251284122467e-02 2.936196327209472656e-02 1.502060517668724060e-02 -1.851708069443702698e-02
3.853000000000000000e+03 6.784289550781250000e+01 -6.577723622322082520e-01 3.710459470748901367e-01 1.142094492912292480e+00 4.539421200752258301e-01 -5.076075792312622070e-01
3.854000000000000000e+03 1.551070308685302734e+01 3.080372047424316406e+01 1.855588145554065704e-02 5.084307119250297546e-02 2.081968635320663452e-02 -2.574609406292438507e-02
3.855000000000000000e+03 3.629194259643554688e+01 2.082265663146972656e+01 3.437361912801861763e-03 3.992015123367309570e-01 1.207916587591171265e-01 3.082645535469055176e-01
3.856000000000000000e+03 3.778372955322265625e+01 2.496836662292480469e+01 -4.471013322472572327e-02 1.514089256525039673e-01 3.200963884592056274e-02 2.765814065933227539e-01
3.857000000000000000e+03 3.864936065673828125e+01 2.350686073303222656e+01 -1.351584587246179581e-02 9.205715730786323547e-03 -1.293039182201027870e-03 2.719793319702148438e-01
3.858000000000000000e+03 2.478313255310058594e+01 3.042442703247070312e+01 -2.850016392767429352e-02 2.522218823432922363e-01 6.711651384830474854e-02 -1.082770302891731262e-01
3.859000000000000000e+03 1.221843338012695312e+01 2.532731056213378906e+01 9.465951006859540939e-04 1.154485531151294708e-02 3.747435053810477257e-03 4.465696867555379868e-03
3.860000000000000000e+03 3.177484703063964844e+01 3.177066802978515625e+01 -1.124100089073181152e-01 3.581096827983856201e-01 7.370989769697189331e-02 4.157124832272529602e-02
3.861000000000000000e+03 3.676094818115234375e+01 2.657244491577148438e+01 -6.179182231426239014e-02 2.613546848297119141e-01 5.986886098980903625e-02 2.403920441865921021e-01
3.862000000000000000e+03 1.185716629028320312e+01 9.137444496154785156e+00 -3.337336820550262928e-04 1.789038287824951112e-05 -9.475299157202243805e-05 3.118847962468862534e-05
3.863000000000000000e+03 1.081433963775634766e+01 1.068512916564941406e+01 -1.509569665358867496e-05 -1.875088637461885810e-04 -6.078136721043847501e-05 -9.497807695879600942e-06
3.864000000000000000e+03 1.012930965423583984e+01 9.322468757629394531e+00 -2.813977480400353670e-04 -2.126102626789361238e-04 -1.482023944845423102e-04 9.872161399471224286e-07
3.865000000000000000e+03 1.310617637634277344e+01 2.545803070068359375e+01 4.875986836850643158e-03 1.155609358102083206e-02 4.929624032229185104e-03 3.127600997686386108e-03
3.866000000000000000e+03 1.103602981567382812e+01 2.378032684326171875e+01 -5.340243689715862274e-03 9.474109858274459839e-03 1.240159850567579269e-03 6.929520983248949051e-03
3.867000000000000000e+03 1.156877517700195312e+01 2.327885055541992188e+01 -6.871846038848161697e-03 9.001761674880981445e-03 6.389746558852493763e-04 5.726287141442298889e-03
3.868000000000000000e+03 1.303181934356689453e+01 2.639515304565429688e+01 7.339220028370618820e-03 1.486115064471960068e-02 6.660111248493194580e-03 5.100804264657199383e-04
3.869000000000000000e+03 9.625492095947265625e+00 1.628390121459960938e+01 -3.827836597338318825e-03 1.047887606546282768e-03 -8.339846972376108170e-04 -7.159784436225891113e-04
3.870000000000000000e+03 1.116669559478759766e+01 1.024295520782470703e+01 -2.960794081445783377e-04 -1.448076218366622925e-04 -1.322661119047552347e-04 -6.280844536377117038e-05
3.871000000000000000e+03 1.310274887084960938e+01 2.746998786926269531e+01 1.297232601791620255e-02 1.844944432377815247e-02 9.426531381905078888e-03 -2.910135313868522644e-03
3.872000000000000000e+03 8.843228340148925781e+00 1.850173568725585938e+01 -5.745158530771732330e-03 3.245866158977150917e-03 -7.497876649722456932e-04 1.081571797840297222e-03
3.873000000000000000e+03 1.670590591430664062e+01 3.003224563598632812e+01 2.007723972201347351e-02 5.679493024945259094e-02 2.306165173649787903e-02 -3.387843072414398193e-02
3.874000000000000000e+03 3.790088272094726562e+01 2.271097755432128906e+01 -1.479542441666126251e-02 1.153271794319152832e-01 3.015952743589878082e-02 2.986640632152557373e-01
3.875000000000000000e+03 7.110346984863281250e+01 5.584340095520019531e+00 5.120160579681396484e-01 5.598928928375244141e-01 3.215726912021636963e-01 -3.881088495254516602e-01
3.876000000000000000e+03 7.270360565185546875e+01 6.137324810028076172e+00 4.034864008426666260e-01 -7.946096360683441162e-02 9.720763564109802246e-02 -4.104343652725219727e-01
3.877000000000000000e+03 6.689960479736328125e+00 -1.514176845550537109e+01 -2.619292736053466797e-01 -3.130174577236175537e-01 -1.724840253591537476e-01 -6.127423048019409180e-01
3.878000000000000000e+03 7.211458587646484375e+01 7.633018016815185547e+00 5.106229186058044434e-01 2.366165816783905029e-01 2.241718471050262451e-01 -2.571323215961456299e-01
3.879000000000000000e+03 2.414073753356933594e+01 3.231872940063476562e+01 -3.656945377588272095e-02 2.297571748495101929e-01 5.795631557703018188e-02 -8.182971924543380737e-02
3.880000000000000000e+03 2.233007812500000000e+01 3.166541862487792969e+01 -9.940270334482192993e-03 1.813084036111831665e-01 5.141044035553932190e-02 -8.516740053892135620e-02
3.881000000000000000e+03 6.780191040039062500e+01 -3.662968158721923828e+00 1.805224642157554626e-02 7.504346966743469238e-01 2.305460721254348755e-01 -6.469708681106567383e-01
3.882000000000000000e+03 3.836469650268554688e+01 2.754213714599609375e+01 -3.961053863167762756e-02 1.250307410955429077e-01 2.562606334686279297e-02 2.244163602590560913e-01
3.883000000000000000e+03 1.162112426757812500e+01 2.429419326782226562e+01 -3.150284290313720703e-03 9.728257544338703156e-03 1.973391976207494736e-03 5.708001554012298584e-03
3.884000000000000000e+03 1.104209423065185547e+01 2.613568687438964844e+01 2.715285168960690498e-03 1.159467175602912903e-02 4.292986821383237839e-03 4.777323454618453979e-03
3.885000000000000000e+03 1.630517578125000000e+01 3.198221588134765625e+01 1.216608937829732895e-02 7.207729667425155640e-02 2.527301572263240814e-02 -3.308880329132080078e-02
3.886000000000000000e+03 7.206410980224609375e+01 5.083549976348876953e+00 4.218038618564605713e-01 1.459144949913024902e-01 1.703155040740966797e-01 -4.508658945560455322e-01
3.887000000000000000e+03 1.927671241760253906e+01 3.018232727050781250e+01 2.087087370455265045e-02 9.585138410329818726e-02 3.501667827367782593e-02 -6.351307034492492676e-02
3.888000000000000000e+03 4.275079345703125000e+01 2.906995391845703125e+01 2.907967939972877502e-02 -1.053628623485565186e-01 -2.288495376706123352e-02 7.903742045164108276e-02
3.889000000000000000e+03 4.024446868896484375e+01 2.863854217529296875e+01 4.580808337777853012e-03 3.973570652306079865e-03 2.566313836723566055e-03 1.583361625671386719e-01
3.890000000000000000e+03 5.656073379516601562e+01 -3.410714340209960938e+01 -1.531301881186664104e-03 1.770374365150928497e-02 4.851732868701219559e-03 1.630506105720996857e-02
3.891000000000000000e+03 7.281319427490234375e+01 1.109789466857910156e+01 4.783152341842651367e-01 -1.110440306365489960e-02 1.401632577180862427e-01 6.703165918588638306e-02
3.892000000000000000e+03 3.396685791015625000e+01 -3.528672790527343750e+01 3.922377228736877441e-01 1.240262150764465332e+00 4.897499680519104004e-01 3.556127846240997314e-01
3.893000000000000000e+03 8.178381919860839844e+00 -3.071203041076660156e+01 2.126214355230331421e-01 -7.237887978553771973e-01 -1.533502191305160522e-01 -1.962624937295913696e-01
3.894000000000000000e+03 7.775547027587890625e+01 3.710916900634765625e+01 -3.107894025743007660e-02 1.038677766919136047e-01 2.183665148913860321e-02 1.313519030809402466e-01
3.895000000000000000e+03 7.362544536590576172e+00 -2.715235328674316406e+01 2.578502893447875977e-01 -8.250933289527893066e-01 -1.701729148626327515e-01 -3.566108047962188721e-01
3.896000000000000000e+03 3.127764701843261719e+01 -3.397226333618164062e+01 5.986880660057067871e-01 9.836022257804870605e-01 4.746870696544647217e-01 3.113852441310882568e-01
3.897000000000000000e+03 1.376480007171630859e+01 -3.146531295776367188e+01 3.905578553676605225e-01 4.729935154318809509e-02 1.313571631908416748e-01 -2.464933991432189941e-01
3.898000000000000000e+03 1.295038127899169922e+01 -2.948959541320800781e+01 4.379886984825134277e-01 -5.557413212954998016e-03 1.297293901443481445e-01 -3.059283494949340820e-01
3.899000000000000000e+03 5.034417343139648438e+01 -3.356463241577148438e+01 -1.041409652680158615e-02 6.624701023101806641e-01 1.956168115139007568e-01 -3.409643173217773438e-01
3.900000000000000000e+03 1.732860946655273438e+01 3.299494552612304688e+01 8.719146251678466797e-03 8.948229998350143433e-02 2.946043200790882111e-02 -4.242509976029396057e-02
3.901000000000000000e+03 7.614190673828125000e+01 3.578237533569335938e+01 -8.249770104885101318e-02 1.389373540878295898e-01 1.693189702928066254e-02 2.366515100002288818e-01
3.902000000000000000e+03 4.486551284790039062e+01 -3.315912246704101562e+01 -1.768592745065689087e-01 1.828134655952453613e+00 4.953826069831848145e-01 -8.246777951717376709e-02
3.903000000000000000e+03 2.537390899658203125e+01 -3.500994110107421875e+01 6.255024671554565430e-01 7.060448527336120605e-01 3.994642198085784912e-01 -7.983400672674179077e-02
3.904000000000000000e+03 1.812514305114746094e+01 3.429824066162109375e+01 -5.125240422785282135e-03 1.104505807161331177e-01 3.159759938716888428e-02 -3.699235618114471436e-02
3.905000000000000000e+03 6.607202148437500000e+01 3.176322174072265625e+01 -5.867162346839904785e-01 1.368248343467712402e+00 2.344596236944198608e-01 1.996330320835113525e-01
3.906000000000000000e+03 7.021453857421875000e+01 3.065751457214355469e+01 -4.106586575508117676e-01 9.502869248390197754e-01 1.618884801864624023e-01 5.570979714393615723e-01
3.907000000000000000e+03 7.603212738037109375e+01 2.744731903076171875e+01 -7.989776134490966797e-02 -3.856816589832305908e-01 -1.396738290786743164e-01 5.834562778472900391e-01
3.908000000000000000e+03 7.586460876464843750e+01 2.884606361389160156e+01 -9.461224824190139771e-02 -2.454845309257507324e-01 -1.020290330052375793e-01 5.357054471969604492e-01
3.909000000000000000e+03 7.052272033691406250e+01 3.393004226684570312e+01 -3.809261322021484375e-01 7.572955489158630371e-01 1.129108294844627380e-01 3.831282854080200195e-01
3.910000000000000000e+03 6.980612182617187500e+01 2.547055816650390625e+01 -2.438709139823913574e-01 1.260872960090637207e+00 3.051006197929382324e-01 8.169013261795043945e-01
3.911000000000000000e+03 6.991895294189453125e+01 2.879271888732910156e+01 -3.988849818706512451e-01 1.080118775367736816e+00 2.043701261281967163e-01 6.651404500007629395e-01
3.912000000000000000e+03 3.284854507446289062e+01 1.786357164382934570e+00 4.166144847869873047e+00 3.872439146041870117e+00 2.411575317382812500e+00 3.120045900344848633e+00
3.913000000000000000e+03 2.359849357604980469e+01 -4.389241933822631836e-01 -7.424350976943969727e-01 -2.687925994396209717e-01 -3.033683001995086670e-01 -6.406376957893371582e-01
3.914000000000000000e+03 3.397627258300781250e+01 1.954172253608703613e+00 5.416098237037658691e-01 3.872191905975341797e-01 2.786487042903900146e-01 -7.474464178085327148e-01
3.915000000000000000e+03 3.424329376220703125e+01 2.292770385742187500e+00 9.222898483276367188e-01 4.367025792598724365e-01 4.076977372169494629e-01 -5.244744420051574707e-01
3.916000000000000000e+03 3.480759429931640625e+01 2.079553604125976562e+00 -4.846230149269104004e-01 -2.948474586009979248e-01 -2.338411509990692139e-01 -1.498754382133483887e+00
3.917000000000000000e+03 2.149352455139160156e+01 4.701429367065429688e+00 2.012824734265450388e-05 4.577252184390090406e-05 1.977023202925920486e-05 3.112316699116490781e-05
3.918000000000000000e+03 2.019050979614257812e+01 5.829616546630859375e+00 5.432119723991490901e-05 2.612805474200285971e-05 2.413477523077744991e-05 3.314832429168745875e-05
3.919000000000000000e+03 1.922844696044921875e+01 6.512299060821533203e+00 -3.478723010630346835e-05 -1.609276660019531846e-05 -1.526399864815175533e-05 -4.203385105938650668e-05
3.920000000000000000e+03 1.423928356170654297e+01 1.662480735778808594e+01 -6.919795414432883263e-04 -1.234079594723880291e-03 -5.778177292086184025e-04 -8.773648296482861042e-04
3.921000000000000000e+03 3.492525100708007812e+01 -1.714142918586730957e+00 -2.127892732620239258e+00 2.801996767520904541e-01 -5.543079376220703125e-01 1.867317557334899902e-01
3.922000000000000000e+03 3.443296432495117188e+01 -1.366024136543273926e+00 -2.296073436737060547e+00 1.949308812618255615e-01 -6.303427815437316895e-01 5.465437844395637512e-02
3.923000000000000000e+03 3.447143173217773438e+01 -1.752997756004333496e+00 -2.144721508026123047e+00 2.450548708438873291e-01 -5.698999762535095215e-01 9.808669239282608032e-02
3.924000000000000000e+03 3.302314758300781250e+01 -1.442141771316528320e+00 -2.372818708419799805e+00 1.033760309219360352e-01 -6.808328032493591309e-01 -1.819251477718353271e-01
3.925000000000000000e+03 3.264076614379882812e+01 -1.907229661941528320e+00 -2.120984077453613281e+00 1.903752982616424561e-01 -5.791826844215393066e-01 -2.464988678693771362e-01
3.926000000000000000e+03 3.183674621582031250e+01 -1.547812581062316895e+00 -2.265934944152832031e+00 9.239749610424041748e-02 -6.520612239837646484e-01 -3.793648183345794678e-01
3.927000000000000000e+03 3.144690704345703125e+01 -1.983419656753540039e+00 -1.996605157852172852e+00 1.402469873428344727e-01 -5.569074749946594238e-01 -4.800967872142791748e-01
3.928000000000000000e+03 3.102116775512695312e+01 -1.641995549201965332e+00 -2.137163162231445312e+00 6.906740367412567139e-02 -6.204287409782409668e-01 -5.112466216087341309e-01
3.929000000000000000e+03 3.106011581420898438e+01 -2.243277311325073242e+00 -1.813562631607055664e+00 1.869588494300842285e-01 -4.879811406135559082e-01 -5.826605558395385742e-01
3.930000000000000000e+03 3.029517364501953125e+01 -2.100401639938354492e+00 -1.774203181266784668e+00 9.719844907522201538e-02 -5.031014084815979004e-01 -6.863918304443359375e-01
3.931000000000000000e+03 2.975137519836425781e+01 -2.169687986373901367e+00 -1.611948609352111816e+00 8.877392858266830444e-02 -4.569524228572845459e-01 -7.933222651481628418e-01
3.932000000000000000e+03 2.870728302001953125e+01 -2.188814878463745117e+00 -1.326604843139648438e+00 6.549351662397384644e-02 -3.783333897590637207e-01 -9.590406417846679688e-01
3.933000000000000000e+03 2.791228866577148438e+01 -2.071322679519653320e+00 -1.146409153938293457e+00 1.111646294593811035e-01 -3.105733394622802734e-01 -1.050768256187438965e+00
3.934000000000000000e+03 2.705697822570800781e+01 -2.407271623611450195e+00 -9.580118656158447266e-01 4.569895267486572266e-01 -1.503067165613174438e-01 -1.223272204399108887e+00
3.935000000000000000e+03 3.017628669738769531e+01 1.980474090576171875e+01 5.256649255752563477e-01 1.385838866233825684e+00 5.734511017799377441e-01 -6.502954363822937012e-01
3.936000000000000000e+03 3.192866706848144531e+01 1.596365070343017578e+01 2.049356848001480103e-01 2.478667497634887695e+00 8.050809502601623535e-01 -6.644614934921264648e-01
3.937000000000000000e+03 3.288589096069335938e+01 1.265636253356933594e+01 2.214395552873611450e-01 3.481264114379882812e+00 1.110811114311218262e+00 -6.288979649543762207e-01
3.938000000000000000e+03 3.308785247802734375e+01 1.118860244750976562e+01 1.099022701382637024e-01 3.965257167816162109e+00 1.222547888755798340e+00 -6.773173213005065918e-01
3.939000000000000000e+03 3.361220550537109375e+01 8.968369483947753906e+00 1.169423684477806091e-01 4.350032329559326172e+00 1.340092420578002930e+00 -6.265648007392883301e-01
3.940000000000000000e+03 3.380216598510742188e+01 4.415502071380615234e+00 2.455018311738967896e-01 4.197245121002197266e+00 1.332824110984802246e+00 -5.277135223150253296e-02
3.941000000000000000e+03 4.229049682617187500e+01 -5.011989116668701172e+00 -3.096106290817260742e+00 -4.118121266365051270e-01 -1.052375555038452148e+00 3.923166692256927490e-01
3.942000000000000000e+03 7.514263916015625000e+01 3.768158721923828125e+01 -1.104317978024482727e-01 2.687276303768157959e-01 4.748874902725219727e-02 1.829618364572525024e-01
3.943000000000000000e+03 7.723786163330078125e+01 -1.328102397918701172e+01 -7.308548688888549805e-02 -6.060623750090599060e-02 -4.010751470923423767e-02 -1.036432757973670959e-01
3.944000000000000000e+03 3.694106578826904297e+00 -3.617702102661132812e+01 6.146522611379623413e-02 -1.571149230003356934e+00 -4.529052078723907471e-01 -3.368503972887992859e-02
3.945000000000000000e+03 1.619363212585449219e+01 -2.574793052673339844e+01 8.462307453155517578e-01 7.060462832450866699e-01 4.656831026077270508e-01 -7.157714962959289551e-01
3.946000000000000000e+03 1.456682300567626953e+01 -2.662063026428222656e+01 6.346911191940307617e-01 3.689463436603546143e-01 3.010912239551544189e-01 -4.807301163673400879e-01
3.947000000000000000e+03 3.521305465698242188e+01 -1.769312739372253418e+00 -2.134271383285522461e+00 3.463538885116577148e-01 -5.363752245903015137e-01 2.341737896203994751e-01
3.948000000000000000e+03 3.518686676025390625e+01 -2.193719625473022461e+00 -1.987406134605407715e+00 3.779910504817962646e-01 -4.828245341777801514e-01 2.320990413427352905e-01
3.949000000000000000e+03 2.232209396362304688e+01 3.284587383270263672e+00 -4.816120963369030505e-06 -2.034073986578732729e-05 -7.547057975898496807e-06 -8.066857844823971391e-06
3.950000000000000000e+03 7.787857055664062500e+01 -1.313104057312011719e+01 -6.099364534020423889e-02 -7.641923427581787109e-02 -4.122386500239372253e-02 -8.685319125652313232e-02
3.951000000000000000e+03 7.696997833251953125e+01 -1.254156589508056641e+01 -1.062985435128211975e-01 -9.897297620773315430e-02 -6.158145517110824585e-02 -1.546504199504852295e-01
3.952000000000000000e+03 4.466361999511718750e+00 -2.611339330673217773e+00 4.146406054496765137e-02 6.576358806341886520e-03 1.441212650388479233e-02 7.708520442247390747e-02
3.953000000000000000e+03 7.167263793945312500e+01 -1.894099807739257812e+01 1.316833891905844212e-03 -1.227112603373825550e-03 2.691639929253142327e-05 4.890857380814850330e-04
3.954000000000000000e+03 2.702189445495605469e+01 -2.761628150939941406e+00 -9.115784764289855957e-01 4.417408704757690430e-01 -1.409512758255004883e-01 -1.226867794990539551e+00
3.955000000000000000e+03 2.677871322631835938e+01 -3.203647851943969727e+00 -8.378428220748901367e-01 4.589851498603820801e-01 -1.136573106050491333e-01 -1.195865392684936523e+00
3.956000000000000000e+03 3.339710235595703125e+01 -1.935918807983398438e+00 -2.105305671691894531e+00 2.484054714441299438e-01 -5.570700764656066895e-01 -1.174904257059097290e-01
3.957000000000000000e+03 2.410418319702148438e+01 -3.360949325561523438e+01 8.019195795059204102e-01 6.289781332015991211e-01 4.292693138122558594e-01 -2.366684973239898682e-01
3.958000000000000000e+03 3.418755722045898438e+01 -1.970716118812561035e+00 -2.074280261993408203e+00 2.793424129486083984e-01 -5.384813547134399414e-01 3.864001110196113586e-02
3.959000000000000000e+03 3.486418533325195312e+01 -2.017283916473388672e+00 -2.069809198379516602e+00 3.488853871822357178e-01 -5.162771344184875488e-01 1.982339620590209961e-01
3.960000000000000000e+03 2.172405052185058594e+01 3.156442403793334961e+00 1.592039006936829537e-05 1.859836629591882229e-05 1.035562672768719494e-05 1.250446439371444285e-05
3.961000000000000000e+03 4.828377151489257812e+01 -3.031871032714843750e+01 1.128488257527351379e-01 1.299800753593444824e+00 4.237948954105377197e-01 -6.783143877983093262e-01
3.962000000000000000e+03 3.381949996948242188e+01 -2.495997190475463867e+00 -1.887160539627075195e+00 3.733717203140258789e-01 -4.541366398334503174e-01 -3.498912230134010315e-02
3.963000000000000000e+03 3.989563751220703125e+01 1.343308639526367188e+01 -3.432475030422210693e-01 -1.689164161682128906e+00 -6.097235083580017090e-01 -4.659630358219146729e-01
3.964000000000000000e+03 3.414762115478515625e+01 8.720590591430664062e+00 1.148182600736618042e-01 3.498214006423950195e+00 1.083909749984741211e+00 -4.562375247478485107e-01
3.965000000000000000e+03 7.794553375244140625e+01 -3.730637359619140625e+01 1.906682504341006279e-03 -2.949267439544200897e-02 -8.275797590613365173e-03 6.411880720406770706e-03
3.966000000000000000e+03 2.120216560363769531e+01 -3.756485462188720703e+00 -3.792021572589874268e-01 -3.988545835018157959e-01 -2.334170192480087280e-01 -6.523643732070922852e-01
3.967000000000000000e+03 2.732264900207519531e+01 -2.804158210754394531e+00 -9.179393649101257324e-01 3.548185527324676514e-01 -1.689362525939941406e-01 -1.246817708015441895e+00
3.968000000000000000e+03 2.764266777038574219e+01 -2.585420846939086914e+00 -9.868374466896057129e-01 2.634365856647491455e-01 -2.170202732086181641e-01 -1.210702538490295410e+00
3.969000000000000000e+03 3.300835418701171875e+01 -1.690149188041687012e+00 -2.224892139434814453e+00 1.710647940635681152e-01 -6.161482334136962891e-01 -1.803159862756729126e-01
3.970000000000000000e+03 2.991656303405761719e+01 -2.359268665313720703e+00 -1.559970021247863770e+00 1.326033174991607666e-01 -4.282099902629852295e-01 -8.048040866851806641e-01
3.971000000000000000e+03 3.043994140625000000e+01 -2.290431022644042969e+00 -1.682190775871276855e+00 1.363056600093841553e-01 -4.637655317783355713e-01 -6.934545636177062988e-01
3.972000000000000000e+03 3.129988861083984375e+01 -2.436701536178588867e+00 -1.739435791969299316e+00 2.223282158374786377e-01 -4.551322758197784424e-01 -5.432458519935607910e-01
3.973000000000000000e+03 3.123886489868164062e+01 -2.049238920211791992e+00 -1.952802896499633789e+00 1.269978582859039307e-01 -5.477415323257446289e-01 -5.099961757659912109e-01
3.974000000000000000e+03 3.206102371215820312e+01 -2.045771837234497070e+00 -2.010776281356811523e+00 1.910630017518997192e-01 -5.459139943122863770e-01 -3.738424181938171387e-01
3.975000000000000000e+03 3.195826530456542969e+01 -1.705993771553039551e+00 -2.198079109191894531e+00 1.224144026637077332e-01 -6.226994395256042480e-01 -3.683046698570251465e-01
3.976000000000000000e+03 5.055856323242187500e+01 -3.126288604736328125e+01 2.410453977063298225e-03 4.708254635334014893e-01 1.419707685708999634e-01 -3.245535492897033691e-01
3.977000000000000000e+03 2.982466316223144531e+01 -2.902654647827148438e+00 -1.301035165786743164e+00 2.238170504570007324e-01 -3.231654167175292969e-01 -9.209706783294677734e-01
3.978000000000000000e+03 3.281182479858398438e+01 1.442536354064941406e+01 1.444797813892364502e-01 2.716295242309570312e+00 8.582324981689453125e-01 -4.754967391490936279e-01
3.979000000000000000e+03 2.914219856262207031e+01 -2.203888416290283203e+00 -1.457893848419189453e+00 6.962819397449493408e-02 -4.164796769618988037e-01 -8.906108140945434570e-01
3.980000000000000000e+03 2.939542198181152344e+01 -2.445718526840209961e+00 -1.409486174583435059e+00 1.153110340237617493e-01 -3.882525265216827393e-01 -9.117056131362915039e-01
3.981000000000000000e+03 3.357132339477539062e+01 2.221816062927246094e+00 1.561901211738586426e+00 2.257839441299438477e+00 1.145922183990478516e+00 7.349446415901184082e-01
3.982000000000000000e+03 7.630524444580078125e+01 3.301374816894531250e+01 -9.054980427026748657e-02 -8.796802721917629242e-03 -2.980398200452327728e-02 3.436821997165679932e-01
3.983000000000000000e+03 7.250697326660156250e+01 3.455874252319335938e+01 -2.656921148300170898e-01 5.177135467529296875e-01 7.560642808675765991e-02 3.827809393405914307e-01
3.984000000000000000e+03 7.884684753417968750e+01 -1.963807678222656250e+01 -2.341365907341241837e-04 -2.911632509494666010e-05 -7.897587784100323915e-05 -3.752809789148159325e-05
3.985000000000000000e+03 6.243060302734375000e+01 2.281164360046386719e+01 -1.271526422351598740e-02 3.201389312744140625e+00 9.566022157669067383e-01 -3.419633507728576660e-01
3.986000000000000000e+03 3.231491088867187500e+01 -2.165757417678833008e+00 -1.964449882507324219e+00 2.209439575672149658e-01 -5.230517983436584473e-01 -3.252556920051574707e-01
3.987000000000000000e+03 2.070507621765136719e+01 4.410307884216308594e+00 -7.153549813665449619e-05 2.048442911473102868e-05 -1.531532143417280167e-05 -7.375720542768249288e-06
3.988000000000000000e+03 2.583967971801757812e+01 -3.653205633163452148e+00 -7.150775194168090820e-01 4.039293229579925537e-01 -9.334446489810943604e-02 -9.865381121635437012e-01
3.989000000000000000e+03 3.338855743408203125e+01 1.225583839416503906e+01 1.438663601875305176e-01 3.238054752349853516e+00 1.014576315879821777e+00 -4.701491296291351318e-01
3.990000000000000000e+03 3.337402725219726562e+01 1.161773014068603516e+01 6.681910157203674316e-02 3.519307374954223633e+00 1.075837969779968262e+00 -5.240182876586914062e-01
3.991000000000000000e+03 3.192481994628906250e+01 1.713479042053222656e+01 2.767862975597381592e-01 2.090371131896972656e+00 7.101472616195678711e-01 -5.447352528572082520e-01
3.992000000000000000e+03 3.117237472534179688e+01 1.781800270080566406e+01 3.947834074497222900e-01 2.026961565017700195e+00 7.265234589576721191e-01 -6.935763359069824219e-01
3.993000000000000000e+03 2.795711517333984375e+01 -3.363032150268554688e+01 7.473712563514709473e-01 6.749636530876159668e-01 4.267004728317260742e-01 6.965607404708862305e-02
3.994000000000000000e+03 2.678616523742675781e+01 2.193616294860839844e+01 3.566684126853942871e-01 1.754295825958251953e-01 1.596294045448303223e-01 -2.576240599155426025e-01
3.995000000000000000e+03 1.372399520874023438e+01 1.633064270019531250e+01 -8.791559957899153233e-04 -1.204798929393291473e-03 -6.251864833757281303e-04 -1.160854706540703773e-03
3.996000000000000000e+03 3.631896591186523438e+01 -3.008924102783203125e+01 6.535990238189697266e-01 1.303252935409545898e+00 5.870555639266967773e-01 8.005983233451843262e-01
3.997000000000000000e+03 3.762739944458007812e+01 -3.040840339660644531e+01 5.000404715538024902e-01 1.603702783584594727e+00 6.311230063438415527e-01 8.526881933212280273e-01
3.998000000000000000e+03 2.630090522766113281e+01 -3.363304519653320312e+01 8.111230134963989258e-01 6.481196880340576172e-01 4.377728104591369629e-01 -4.633438214659690857e-02
3.999000000000000000e+03 4.585950851440429688e+01 -3.134688949584960938e+01 -1.165848597884178162e-01 2.050163984298706055e+00 5.800737738609313965e-01 -1.876118183135986328e-01
4.000000000000000000e+03 4.801145172119140625e+01 -3.363704299926757812e+01 -1.090232059359550476e-01 1.266374707221984863e+00 3.472054600715637207e-01 -3.397430181503295898e-01
4.001000000000000000e+03 4.695887374877929688e+01 -3.148681831359863281e+01 -8.647959679365158081e-02 1.626956224441528320e+00 4.621430039405822754e-01 -3.706085383892059326e-01
4.002000000000000000e+03 1.828919601440429688e+01 -3.371121597290039062e+01 4.347161352634429932e-01 5.003829598426818848e-01 2.805297374725341797e-01 -2.484313994646072388e-01
4.003000000000000000e+03 1.634695816040039062e+01 3.446205520629882812e+01 1.348607242107391357e-03 8.785496652126312256e-02 2.676107175648212433e-02 -2.694000676274299622e-02
4.004000000000000000e+03 4.082965087890625000e+01 -1.660473060607910156e+01 1.908264517784118652e+00 1.928648948669433594e+00 1.151074051856994629e+00 -4.489971697330474854e-01
4.005000000000000000e+03 2.787668991088867188e+01 -2.341279029846191406e+00 -1.093546748161315918e+00 1.740534454584121704e-01 -2.758480012416839600e-01 -1.131960391998291016e+00
4.006000000000000000e+03 3.490874481201171875e+01 -3.138356018066406250e+01 6.028268337249755859e-01 1.210881471633911133e+00 5.441125035285949707e-01 6.488943696022033691e-01
4.007000000000000000e+03 2.759927177429199219e+01 -2.895481109619140625e+00 -9.113434553146362305e-01 2.892875075340270996e-01 -1.866167932748794556e-01 -1.241144180297851562e+00
4.008000000000000000e+03 3.449192047119140625e+01 3.037094354629516602e+00 1.226178526878356934e+00 1.088940143585205078e+00 6.945356130599975586e-01 -2.413734607398509979e-02
4.009000000000000000e+03 2.035318946838378906e+01 4.828732490539550781e+00 -2.843549918907228857e-05 -1.098320262826746330e-05 -1.182561027235351503e-05 8.984737860373570584e-07
4.010000000000000000e+03 6.996179962158203125e+01 -1.328086757659912109e+01 -6.809315085411071777e-01 1.792583912611007690e-01 -1.505019366741180420e-01 -2.318572625517845154e-02
4.011000000000000000e+03 2.891262435913085938e+01 -2.628437519073486328e+00 -1.212213516235351562e+00 1.333585530519485474e-01 -3.236564993858337402e-01 -1.030961990356445312e+00
4.012000000000000000e+03 2.921665763854980469e+01 -2.830092668533325195e+00 -1.189892530441284180e+00 1.765057295560836792e-01 -3.040160238742828369e-01 -1.034852504730224609e+00
4.013000000000000000e+03 3.362957763671875000e+01 -2.812824010848999023e+00 -1.745452404022216797e+00 4.394416809082031250e-01 -3.918032348155975342e-01 -8.585990965366363525e-02
4.014000000000000000e+03 2.359599304199218750e+01 -5.034806728363037109e+00 -4.506613016128540039e-01 -1.492110341787338257e-01 -1.799617111682891846e-01 -7.150258421897888184e-01
4.015000000000000000e+03 3.058596420288085938e+01 -2.492053508758544922e+00 -1.611392855644226074e+00 1.984277516603469849e-01 -4.238895475864410400e-01 -7.027273774147033691e-01
4.016000000000000000e+03 3.249695968627929688e+01 -2.598539829254150391e+00 -1.769819259643554688e+00 3.196264505386352539e-01 -4.350578188896179199e-01 -3.093491792678833008e-01
4.017000000000000000e+03 3.281708145141601562e+01 -2.720438718795776367e+00 -1.744759202003479004e+00 3.628996014595031738e-01 -4.145578742027282715e-01 -2.632663547992706299e-01
4.018000000000000000e+03 3.911078643798828125e+01 -2.030047988891601562e+01 9.165474772453308105e-01 1.661828160285949707e+00 7.735127210617065430e-01 7.261281609535217285e-01
4.019000000000000000e+03 7.099447631835937500e+01 -1.240786552429199219e+01 -6.658113598823547363e-01 1.906970143318176270e-01 -1.425343006849288940e-01 -2.247223407030105591e-01
4.020000000000000000e+03 2.955426597595214844e+01 -3.030075550079345703e+00 -1.186756849288940430e+00 2.350804805755615234e-01 -2.855029106140136719e-01 -1.015195965766906738e+00
4.021000000000000000e+03 7.518048858642578125e+01 -2.050237464904785156e+01 -1.373369246721267700e-03 -2.633682452142238617e-04 -4.910212592221796513e-04 1.829639513744041324e-04
4.022000000000000000e+03 1.737725639343261719e+01 3.093959617614746094e+01 1.981635950505733490e-02 7.270048558712005615e-02 2.775505371391773224e-02 -4.512701183557510376e-02
4.023000000000000000e+03 3.512585449218750000e+01 8.709239006042480469e+00 4.379334673285484314e-02 2.120950937271118164e+00 6.494233012199401855e-01 -3.566149175167083740e-01
4.024000000000000000e+03 2.632302474975585938e+01 -3.711500883102416992e+00 -6.960480213165283203e-01 3.655329048633575439e-01 -9.915453940629959106e-02 -1.100057601928710938e+00
4.025000000000000000e+03 3.838820266723632812e+01 -3.785226345062255859e+00 -2.273117065429687500e+00 5.861133337020874023e-01 -5.061011314392089844e-01 4.009208679199218750e-01
4.026000000000000000e+03 7.402965545654296875e+01 3.232527923583984375e+01 -2.082123160362243652e-01 3.026957213878631592e-01 2.834502235054969788e-02 4.261533021926879883e-01
4.027000000000000000e+03 7.517112731933593750e+01 3.297413635253906250e+01 -1.352994889020919800e-01 1.120165884494781494e-01 -6.984871346503496170e-03 3.990020155906677246e-01
4.028000000000000000e+03 7.485337829589843750e+01 3.195242691040039062e+01 -1.529138535261154175e-01 1.648861318826675415e-01 3.591684158891439438e-03 4.965261518955230713e-01
4.029000000000000000e+03 2.873565101623535156e+01 -2.833721637725830078e+00 -1.104482769966125488e+00 1.788865923881530762e-01 -2.776788771152496338e-01 -1.108813643455505371e+00
4.030000000000000000e+03 2.987714576721191406e+01 -3.221565008163452148e+00 -1.182682037353515625e+00 2.961100637912750244e-01 -2.659715712070465088e-01 -9.735360741615295410e-01
4.031000000000000000e+03 3.009836006164550781e+01 -2.851002931594848633e+00 -1.371506690979003906e+00 2.275757044553756714e-01 -3.431792855262756348e-01 -8.623285889625549316e-01
4.032000000000000000e+03 6.161358642578125000e+01 2.492981719970703125e+01 -3.682842850685119629e-01 2.394306421279907227e+00 6.078066825866699219e-01 -6.054120659828186035e-01
4.033000000000000000e+03 5.721515274047851562e+01 -1.000567817687988281e+01 -6.224122047424316406e-01 1.317826032638549805e+00 2.086241543292999268e-01 1.482709407806396484e+00
4.034000000000000000e+03 2.896095275878906250e+01 -3.214237689971923828e+00 -1.021867036819458008e+00 2.310022115707397461e-01 -2.372594475746154785e-01 -1.135416626930236816e+00
4.035000000000000000e+03 7.323286437988281250e+01 3.356504821777343750e+01 -2.390770465135574341e-01 4.343407452106475830e-01 5.857910960912704468e-02 4.355106353759765625e-01
4.036000000000000000e+03 3.153092956542968750e+01 -3.279144763946533203e+00 -1.385824322700500488e+00 4.232454299926757812e-01 -2.887736558914184570e-01 -6.041715741157531738e-01
4.037000000000000000e+03 3.182983970642089844e+01 -3.407905101776123047e+00 -1.362626314163208008e+00 4.520563781261444092e-01 -2.731709778308868408e-01 -5.341764688491821289e-01
4.038000000000000000e+03 1.531626701354980469e+01 2.224580383300781250e+01 -2.095715142786502838e-02 -6.770883919671177864e-04 -6.490272004157304764e-03 -5.594957619905471802e-04
4.039000000000000000e+03 1.491933345794677734e+01 2.203401947021484375e+01 -2.252596616744995117e-02 1.026865211315453053e-03 -6.449730135500431061e-03 -1.666493830271065235e-03
4.040000000000000000e+03 1.463913726806640625e+01 2.239916038513183594e+01 -1.680746302008628845e-02 2.638941165059804916e-03 -4.250556696206331253e-03 1.626104232855141163e-03
4.041000000000000000e+03 7.580735778808593750e+01 -2.036076927185058594e+01 -8.095095836324617267e-05 -1.154301804490387440e-03 -3.705758426804095507e-04 -6.794329237891361117e-05
4.042000000000000000e+03 2.634673309326171875e+01 -4.192879676818847656e+00 -5.890618562698364258e-01 2.572213709354400635e-01 -9.955213963985443115e-02 -1.113467931747436523e+00
4.043000000000000000e+03 7.300115203857421875e+01 3.233861923217773438e+01 -2.493304461240768433e-01 4.189651012420654297e-01 5.089039355516433716e-02 5.006517767906188965e-01
4.044000000000000000e+03 6.887035369873046875e+01 1.604613876342773438e+01 7.324053645133972168e-01 2.056388616561889648e+00 8.366381525993347168e-01 4.754091799259185791e-01
4.045000000000000000e+03 3.036992645263671875e+01 -2.853479623794555664e+00 -1.419422626495361328e+00 2.468429207801818848e-01 -3.517739176750183105e-01 -8.047177791595458984e-01
4.046000000000000000e+03 3.038499259948730469e+01 -3.210883140563964844e+00 -1.269309997558593750e+00 3.193863630294799805e-01 -2.849770784378051758e-01 -8.630213737487792969e-01
4.047000000000000000e+03 6.329084014892578125e+01 7.507479667663574219e+00 9.483000636100769043e-01 5.300689697265625000e+00 1.874696969985961914e+00 9.651113152503967285e-01
4.048000000000000000e+03 4.202674865722656250e+01 -2.295770072937011719e+01 9.388859272003173828e-01 3.780862092971801758e+00 1.415924429893493652e+00 1.146296262741088867e+00
4.049000000000000000e+03 3.753873062133789062e+01 1.247025394439697266e+01 -1.313652545213699341e-01 -4.101797938346862793e-01 -1.624635159969329834e-01 8.024536073207855225e-02
4.050000000000000000e+03 6.867590332031250000e+01 2.357229042053222656e+01 -8.239173144102096558e-02 1.711168527603149414e+00 4.886330366134643555e-01 8.074697256088256836e-01
4.051000000000000000e+03 3.368022537231445312e+01 1.179354476928710938e+01 7.026458531618118286e-02 3.112991809844970703e+00 9.549769163131713867e-01 -3.546609282493591309e-01
4.052000000000000000e+03 3.395462036132812500e+01 1.146990871429443359e+01 4.222904890775680542e-02 2.982095241546630859e+00 9.072972536087036133e-01 -2.912968993186950684e-01
4.053000000000000000e+03 3.313686752319335938e+01 -5.589252948760986328e+00 -5.481833219528198242e-01 1.040013313293457031e+00 1.475489884614944458e-01 -4.724738597869873047e-01
4.054000000000000000e+03 1.709908866882324219e+01 7.450045108795166016e+00 4.400400939630344510e-05 1.311820815317332745e-04 5.255582436802797019e-05 3.232475501135922968e-05
4.055000000000000000e+03 7.448509979248046875e+01 -2.932937812805175781e+01 -5.623380653560161591e-03 -3.138847649097442627e-03 -2.628668677061796188e-03 8.971199393272399902e-03
4.056000000000000000e+03 2.044635009765625000e+01 3.827313184738159180e+00 8.257230206254462246e-07 -2.145536655007163063e-06 -3.959441130518825958e-07 8.258717087983313832e-08
4.057000000000000000e+03 5.163807296752929688e+01 2.393319320678710938e+01 -2.762888967990875244e-01 -2.674832642078399658e-01 -1.631316542625427246e-01 -4.031479060649871826e-01
4.058000000000000000e+03 3.023147583007812500e+01 2.066444778442382812e+01 3.772205412387847900e-01 1.201119065284729004e+00 4.735018610954284668e-01 -4.192396998405456543e-01
4.059000000000000000e+03 3.006003379821777344e+01 2.084870529174804688e+01 3.599289655685424805e-01 1.160089254379272461e+00 4.560054540634155273e-01 -4.222210645675659180e-01
4.060000000000000000e+03 3.029889297485351562e+01 2.090142250061035156e+01 3.036042451858520508e-01 1.144487500190734863e+00 4.344275295734405518e-01 -3.585703670978546143e-01
4.061000000000000000e+03 4.823256015777587891e+00 -2.560146331787109375e+01 1.329943388700485229e-01 -1.108877420425415039e+00 -2.927649021148681641e-01 -3.625723719596862793e-01
4.062000000000000000e+03 5.934628963470458984e+00 -2.112612915039062500e+01 1.207267120480537415e-01 -7.537491917610168457e-01 -1.899067461490631104e-01 -6.394387483596801758e-01
4.063000000000000000e+03 2.856184959411621094e+01 -3.445775985717773438e+00 -8.927189707756042480e-01 2.392765283584594727e-01 -1.960327327251434326e-01 -1.212433576583862305e+00
4.064000000000000000e+03 3.068567085266113281e+01 -3.557956218719482422e+00 -1.165314555168151855e+00 4.353981018066406250e-01 -2.189749479293823242e-01 -8.436940312385559082e-01
4.065000000000000000e+03 2.847249603271484375e+01 -3.701919317245483398e+00 -8.210573792457580566e-01 2.741089761257171631e-01 -1.640845239162445068e-01 -1.260675668716430664e+00
4.066000000000000000e+03 7.306345462799072266e+00 -1.325198841094970703e+01 -3.889296650886535645e-01 -2.254890352487564087e-01 -1.843256056308746338e-01 -4.937331676483154297e-01
4.067000000000000000e+03 1.201393985748291016e+01 1.932036972045898438e+01 -1.099519059062004089e-02 3.571838606148958206e-03 -2.227005548775196075e-03 -3.062031231820583344e-03
4.068000000000000000e+03 3.220342636108398438e+01 1.861483001708984375e+01 2.192797809839248657e-01 1.606938004493713379e+00 5.478653311729431152e-01 -2.784548401832580566e-01
4.069000000000000000e+03 6.194828414916992188e+01 -7.279489994049072266e+00 -4.653877317905426025e-01 9.301778674125671387e-01 1.394370496273040771e-01 4.703221619129180908e-01
4.070000000000000000e+03 6.092467498779296875e+01 -7.160071372985839844e+00 -4.026072621345520020e-01 1.221892356872558594e+00 2.457855194807052612e-01 7.364695668220520020e-01
4.071000000000000000e+03 1.654827690124511719e+01 2.405697631835937500e+01 1.978700747713446617e-03 3.350401064381003380e-03 1.598730566911399364e-03 -6.396451964974403381e-03
4.072000000000000000e+03 7.382707595825195312e+00 -2.241149330139160156e+01 2.570328116416931152e-01 -7.224504947662353516e-01 -1.396253108978271484e-01 -6.452949643135070801e-01
4.073000000000000000e+03 1.915833854675292969e+01 2.345190811157226562e+01 6.200340110808610916e-03 5.160040454939007759e-04 2.014903351664543152e-03 -2.153930626809597015e-02
4.074000000000000000e+03 6.989292907714843750e+01 2.095836830139160156e+01 2.526027262210845947e-01 1.346578121185302734e+00 4.797542691230773926e-01 8.463828563690185547e-01
4.075000000000000000e+03 6.225543975830078125e+01 -5.849142074584960938e+00 -1.309235244989395142e-01 1.261501312255859375e+00 3.391733467578887939e-01 4.097224473953247070e-01
4.076000000000000000e+03 6.257741165161132812e+01 -4.994184017181396484e+00 1.881795190274715424e-02 1.387834787368774414e+00 4.219958484172821045e-01 3.557797968387603760e-01
4.077000000000000000e+03 1.140480327606201172e+01 1.513017654418945312e+01 -1.579629373736679554e-03 -3.289454325567930937e-04 -5.725724622607231140e-04 -9.966026991605758667e-04
4.078000000000000000e+03 1.460435104370117188e+01 2.276392936706542969e+01 -1.594062522053718567e-02 4.460438620299100876e-03 -3.444055793806910515e-03 2.142769517377018929e-03
4.079000000000000000e+03 3.055542755126953125e+01 2.086309051513671875e+01 2.834265530109405518e-01 1.160556793212890625e+00 4.331950247287750244e-01 -3.146329224109649658e-01
4.080000000000000000e+03 3.031449127197265625e+01 2.118292808532714844e+01 2.659157812595367432e-01 1.106333494186401367e+00 4.116747677326202393e-01 -3.242368400096893311e-01
4.081000000000000000e+03 2.847446632385253906e+01 -4.697614192962646484e+00 -4.854201972484588623e-01 3.306854069232940674e-01 -4.642043635249137878e-02 -1.323744893074035645e+00
4.082000000000000000e+03 4.559119796752929688e+01 -8.769819259643554688e+00 -1.082010030746459961e+00 5.660731196403503418e-01 -1.547810882329940796e-01 5.900574326515197754e-01
4.083000000000000000e+03 1.285754203796386719e+01 1.823584365844726562e+01 -6.450272165238857269e-03 -4.522136296145617962e-04 -2.070745686069130898e-03 -5.111925769597291946e-03
4.084000000000000000e+03 6.478731632232666016e+00 -2.794940567016601562e+01 1.988161057233810425e-01 -9.575006961822509766e-01 -2.276053875684738159e-01 -2.949501276016235352e-01
4.085000000000000000e+03 2.833244705200195312e+01 -3.885069370269775391e+00 -7.194103598594665527e-01 2.845227718353271484e-01 -1.304662674665451050e-01 -1.292015790939331055e+00
4.086000000000000000e+03 2.868672752380371094e+01 -3.847931385040283203e+00 -7.777518033981323242e-01 2.999764084815979004e-01 -1.433326154947280884e-01 -1.258109450340270996e+00
4.087000000000000000e+03 2.907881164550781250e+01 -4.123193264007568359e+00 -7.166598439216613770e-01 3.480571806430816650e-01 -1.105808019638061523e-01 -1.242560863494873047e+00
4.088000000000000000e+03 1.473453617095947266e+01 -5.208220481872558594e+00 -3.176202476024627686e-01 -3.436538875102996826e-01 -1.983822286128997803e-01 -3.015685379505157471e-01
4.089000000000000000e+03 2.862328720092773438e+01 -4.417220592498779297e+00 -5.943765044212341309e-01 3.320932388305664062e-01 -7.868497818708419800e-02 -1.312047362327575684e+00
4.090000000000000000e+03 2.983416938781738281e+01 -3.496698617935180664e+00 -1.060028791427612305e+00 3.548454046249389648e-01 -2.115550041198730469e-01 -1.027446627616882324e+00
4.091000000000000000e+03 3.156941604614257812e+01 2.145596122741699219e+01 1.129473149776458740e-01 1.103212594985961914e+00 3.648479580879211426e-01 -1.156073138117790222e-01
4.092000000000000000e+03 7.821918964385986328e+00 -1.115199279785156250e+01 -4.454970359802246094e-01 -1.638241261243820190e-01 -1.827963441610336304e-01 -3.214379549026489258e-01
4.093000000000000000e+03 4.327179718017578125e+01 -9.115276336669921875e+00 -5.728721618652343750e-01 5.486028790473937988e-01 -7.280784193426370621e-03 -2.924857437610626221e-01
4.094000000000000000e+03 1.435888862609863281e+01 2.331238746643066406e+01 -1.007906626909971237e-02 6.409120280295610428e-03 -1.100983819924294949e-03 3.313132096081972122e-03
4.095000000000000000e+03 2.689782524108886719e+01 2.440166664123535156e+01 9.987204521894454956e-02 3.712761104106903076e-01 1.413444578647613525e-01 -2.535133063793182373e-01
4.096000000000000000e+03 2.744692230224609375e+01 2.407739257812500000e+01 1.094376295804977417e-01 4.395142793655395508e-01 1.646855622529983521e-01 -2.888432443141937256e-01
4.097000000000000000e+03 1.120167064666748047e+01 1.933144187927246094e+01 -1.017378643155097961e-02 4.490876104682683945e-03 -1.704873167909681797e-03 -1.233203103765845299e-03
4.098000000000000000e+03 3.079708099365234375e+01 2.181937217712402344e+01 1.107799857854843140e-01 1.061182737350463867e+00 3.515888452529907227e-01 -1.975102424621582031e-01
4.099000000000000000e+03 3.155249786376953125e+01 2.390665817260742188e+01 -6.852211058139801025e-02 8.036437630653381348e-01 2.205365002155303955e-01 -2.589553222060203552e-02
4.100000000000000000e+03 1.816625595092773438e+01 4.205811500549316406e+00 2.666140790097415447e-05 6.335472426144406199e-05 2.700484037632122636e-05 -2.185799303333624266e-06
4.101000000000000000e+03 6.160322570800781250e+01 -5.057831764221191406e+00 5.823624879121780396e-02 1.668391823768615723e+00 5.179884433746337891e-01 6.395005583763122559e-01
4.102000000000000000e+03 6.847594451904296875e+01 -6.334422588348388672e+00 -3.189634382724761963e-01 4.226301610469818115e-01 3.110001794993877411e-02 -7.679733037948608398e-01
4.103000000000000000e+03 2.524739646911621094e+01 2.340063667297363281e+01 1.797188222408294678e-01 1.425972431898117065e-01 9.669481962919235229e-02 -1.873375475406646729e-01
4.104000000000000000e+03 1.574859905242919922e+01 -4.403384685516357422e+00 -2.768459022045135498e-01 -3.015621602535247803e-01 -1.735224127769470215e-01 -3.734135627746582031e-01
4.105000000000000000e+03 1.687097740173339844e+01 -5.077069759368896484e+00 -3.542032837867736816e-01 -4.074274599552154541e-01 -2.284892201423645020e-01 -4.851604998111724854e-01
4.106000000000000000e+03 3.922654390335083008e+00 2.893753242492675781e+01 1.070912927389144897e-03 -9.102572686970233917e-03 -2.409497741609811783e-03 6.541127339005470276e-03
4.107000000000000000e+03 2.917253303527832031e+01 -3.767181396484375000e+00 -8.762228488922119141e-01 3.159930706024169922e-01 -1.680689454078674316e-01 -1.179464221000671387e+00
4.108000000000000000e+03 4.209830093383789062e+01 -2.190171051025390625e+01 1.141846656799316406e+00 3.844436407089233398e+00 1.495884895324707031e+00 1.115705251693725586e+00
4.109000000000000000e+03 3.457386779785156250e+01 -4.138132572174072266e+00 -1.370173215866088867e+00 7.254069447517395020e-01 -1.934298723936080933e-01 -9.809950366616249084e-03
4.110000000000000000e+03 3.270680999755859375e+01 -3.618207931518554688e+00 -1.356759071350097656e+00 5.526165366172790527e-01 -2.412427663803100586e-01 -3.518193960189819336e-01
4.111000000000000000e+03 6.859278869628906250e+01 5.936127662658691406e+00 7.546955347061157227e-01 1.776054739952087402e+00 7.592250704765319824e-01 -1.430176943540573120e-01
4.112000000000000000e+03 3.331594848632812500e+01 -4.344096183776855469e+00 -1.108553051948547363e+00 8.011642098426818848e-01 -9.221666306257247925e-02 -2.925631105899810791e-01
4.113000000000000000e+03 1.655474662780761719e+01 7.448858737945556641e+00 7.687244760745670646e-06 1.443611690774559975e-04 4.561452442430891097e-05 2.235989450127817690e-05
4.114000000000000000e+03 1.763582420349121094e+01 6.408705234527587891e+00 -9.695395419839769602e-05 5.410203084466047585e-05 -1.285557573282858357e-05 -1.284385780309094116e-05
4.115000000000000000e+03 1.708324813842773438e+01 6.646563053131103516e+00 -9.376524394610896707e-05 5.910329855396412313e-05 -1.039858398144133389e-05 6.051257628314488102e-07
4.116000000000000000e+03 1.707437133789062500e+01 5.901750564575195312e+00 -7.688014738960191607e-05 1.022030992317013443e-04 7.596885552629828453e-06 3.115459912805818021e-05
4.117000000000000000e+03 2.740584182739257812e+01 2.465387916564941406e+01 6.118441373109817505e-02 4.450110793113708496e-01 1.518586575984954834e-01 -2.499269098043441772e-01
4.118000000000000000e+03 3.309656906127929688e+01 1.905702400207519531e+01 1.276872903108596802e-01 1.289029717445373535e+00 4.250150918960571289e-01 -4.430729523301124573e-02
4.119000000000000000e+03 3.451344680786132812e+01 2.022576332092285156e+01 2.492507360875606537e-02 8.386499285697937012e-01 2.590724825859069824e-01 2.107132226228713989e-01
4.120000000000000000e+03 3.478719711303710938e+01 2.268705940246582031e+01 -4.229138791561126709e-02 6.046658754348754883e-01 1.687123328447341919e-01 2.507541775703430176e-01
4.121000000000000000e+03 3.335048675537109375e+01 2.358247756958007812e+01 -8.317694067955017090e-02 7.205309271812438965e-01 1.912062019109725952e-01 1.525724679231643677e-01
4.122000000000000000e+03 7.166149902343750000e+01 1.229936885833740234e+01 5.828029513359069824e-01 5.967869162559509277e-01 3.538769483566284180e-01 2.010118216276168823e-01
4.123000000000000000e+03 3.294715118408203125e+01 2.268291282653808594e+01 -3.364229202270507812e-02 8.683905601501464844e-01 2.504244744777679443e-01 9.937936067581176758e-02
4.124000000000000000e+03 3.707595062255859375e+01 2.119059944152832031e+01 -1.944297738373279572e-02 2.270628958940505981e-01 6.228597834706306458e-02 3.247137963771820068e-01
4.125000000000000000e+03 1.757933044433593750e+01 2.690746688842773438e+01 2.967785485088825226e-02 3.193441405892372131e-02 1.848368160426616669e-02 -3.348299115896224976e-02
4.126000000000000000e+03 1.797596740722656250e+01 2.778606796264648438e+01 3.363644331693649292e-02 4.821754246950149536e-02 2.455619536340236664e-02 -4.345380142331123352e-02
4.127000000000000000e+03 2.805090141296386719e+01 2.589507675170898438e+01 -1.378831546753644943e-02 4.870904088020324707e-01 1.419906318187713623e-01 -1.956060081720352173e-01
4.128000000000000000e+03 3.286552047729492188e+01 -4.716786384582519531e+00 -9.241840839385986328e-01 8.030880689620971680e-01 -3.632880747318267822e-02 -4.161188304424285889e-01
4.129000000000000000e+03 7.175805664062500000e+01 -3.521638631820678711e+00 -2.913730219006538391e-02 6.318746507167816162e-02 1.021504867821931839e-02 -8.797618746757507324e-01
4.130000000000000000e+03 1.582043552398681641e+01 -4.929037570953369141e+00 -3.185489773750305176e-01 -3.688041269779205322e-01 -2.062059342861175537e-01 -3.916615247726440430e-01
4.131000000000000000e+03 3.246486663818359375e+01 -4.673123359680175781e+00 -8.942348957061767578e-01 7.797266840934753418e-01 -3.435245901346206665e-02 -5.269188284873962402e-01
4.132000000000000000e+03 3.491196441650390625e+01 1.705531883239746094e+01 5.777952075004577637e-02 1.081361770629882812e+00 3.417423665523529053e-01 1.702383011579513550e-01
4.133000000000000000e+03 1.806999969482421875e+01 2.872901344299316406e+01 2.707760222256183624e-02 5.981354415416717529e-02 2.606734447181224823e-02 -4.586253315210342407e-02
4.134000000000000000e+03 2.438278961181640625e+01 2.388286972045898438e+01 1.357738375663757324e-01 1.210716888308525085e-01 7.705365866422653198e-02 -1.568261831998825073e-01
4.135000000000000000e+03 1.907624053955078125e+01 2.621568679809570312e+01 3.860068321228027344e-02 3.403131291270256042e-02 2.178959921002388000e-02 -4.701586067676544189e-02
4.136000000000000000e+03 1.720241165161132812e+01 4.685666084289550781e+00 3.338572423672303557e-05 4.632240597857162356e-05 2.391244015598203987e-05 6.556071457453072071e-05
4.137000000000000000e+03 9.557651519775390625e+00 1.318216609954833984e+01 -9.605259401723742485e-04 -1.512312737759202719e-04 -3.335271612741053104e-04 -3.840111312456429005e-04
4.138000000000000000e+03 1.525978183746337891e+01 9.208330154418945312e+00 -1.478164631407707930e-04 1.727700146147981286e-04 7.486064987460849807e-06 6.091359864512924105e-06
4.139000000000000000e+03 1.486357307434082031e+01 9.052396774291992188e+00 2.058120844594668597e-05 2.235188294434919953e-04 7.323001045733690262e-05 5.829547444591298699e-05
4.140000000000000000e+03 1.576612758636474609e+01 7.612434387207031250e+00 -1.624797587282955647e-04 1.375076826661825180e-04 -7.491624273825436831e-06 4.089403228135779500e-05
4.141000000000000000e+03 3.502861022949218750e+01 1.886679458618164062e+01 5.053113028407096863e-02 8.256639838218688965e-01 2.628585398197174072e-01 2.233547568321228027e-01
4.142000000000000000e+03 1.540264511108398438e+01 7.022060871124267578e+00 -1.662047579884529114e-04 1.165687353932298720e-04 -1.489080750616267323e-05 5.837262506247498095e-05
4.143000000000000000e+03 9.635549545288085938e+00 2.681061172485351562e+01 3.126284573227167130e-03 9.802496060729026794e-03 3.878634190186858177e-03 5.713282153010368347e-03
4.144000000000000000e+03 6.844541931152343750e+01 -1.504079222679138184e+00 2.084090113639831543e-01 8.953386545181274414e-01 3.311243057250976562e-01 -6.316838860511779785e-01
4.145000000000000000e+03 6.927898406982421875e+01 -8.578274846076965332e-01 2.540864944458007812e-01 7.368914484977722168e-01 2.972933650016784668e-01 -6.947233080863952637e-01
4.146000000000000000e+03 1.069711494445800781e+01 1.717795562744140625e+01 -5.284140817821025848e-03 1.437685568816959858e-03 -1.153936609625816345e-03 -1.575571368448436260e-03
4.147000000000000000e+03 6.762254714965820312e+00 5.585378646850585938e+00 -6.990605470491573215e-05 -1.795630669221282005e-04 -7.484074012609198689e-05 -6.159742042655125260e-05
4.148000000000000000e+03 7.041201019287109375e+01 -3.685439586639404297e+00 -3.365234658122062683e-02 3.314477503299713135e-01 8.933861553668975830e-02 -8.411571383476257324e-01
4.149000000000000000e+03 1.169882488250732422e+01 2.162274551391601562e+01 -1.225407514721155167e-02 7.903404533863067627e-03 -1.305201207287609577e-03 2.720972523093223572e-03
4.150000000000000000e+03 1.162385940551757812e+01 2.240983963012695312e+01 -1.003543566912412643e-02 8.465097285807132721e-03 -4.711014917120337486e-04 4.417293705046176910e-03
4.151000000000000000e+03 2.463639450073242188e+01 2.459243965148925781e+01 1.157910078763961792e-01 1.629821360111236572e-01 8.363194018602371216e-02 -1.788915097713470459e-01
4.152000000000000000e+03 1.373373699188232422e+01 9.768034934997558594e+00 -1.325269695371389389e-04 3.146457675029523671e-05 -3.031871710845734924e-05 1.546385465189814568e-04
4.153000000000000000e+03 1.373235797882080078e+01 1.017294597625732422e+01 -1.971571327885612845e-05 1.379986642859876156e-04 3.548488530213944614e-05 1.128500152844935656e-04
4.154000000000000000e+03 6.664203643798828125e+01 -1.952995300292968750e+00 2.591456770896911621e-01 1.257670879364013672e+00 4.550449848175048828e-01 -3.874385654926300049e-01
4.155000000000000000e+03 1.449358844757080078e+01 9.622598648071289062e+00 -2.225784737674985081e-05 1.104559050872921944e-04 2.645941822265740484e-05 1.694242237135767937e-04
4.156000000000000000e+03 9.484012603759765625e+00 -8.289939880371093750e+00 -4.114414751529693604e-01 -1.615347564220428467e-01 -1.718928664922714233e-01 -1.315516084432601929e-01
4.157000000000000000e+03 8.863976478576660156e+00 2.007657051086425781e+01 -6.827624980360269547e-03 4.626018460839986801e-03 -6.604818627238273621e-04 2.783469622954726219e-03
4.158000000000000000e+03 8.394601821899414062e+00 1.032251262664794922e+01 -4.845275834668427706e-04 -2.851589233614504337e-04 -2.309059491381049156e-04 -7.589917368022724986e-05
4.159000000000000000e+03 6.691615104675292969e+00 1.048059558868408203e+01 -2.004583657253533602e-04 -1.160378888016566634e-04 -9.494887490291148424e-05 -4.204147990094497800e-05
4.160000000000000000e+03 2.450024032592773438e+01 2.536449813842773438e+01 8.706150203943252563e-02 1.813171505928039551e-01 8.051359653472900391e-02 -1.713217794895172119e-01
4.161000000000000000e+03 7.070557594299316406e+00 1.251715564727783203e+01 -6.183680379763245583e-04 6.574815870408201590e-06 -1.835379662225022912e-04 2.428215375402942300e-04
4.162000000000000000e+03 7.113266944885253906e+00 1.893595123291015625e+01 -5.061733070760965347e-03 2.166013466194272041e-03 -8.687158115208148956e-04 2.785832155495882034e-03
4.163000000000000000e+03 1.642334556579589844e+01 6.853163242340087891e+00 -1.321664603892713785e-04 1.627783785806968808e-04 9.183576366922352463e-06 -2.350532668060623109e-06
4.164000000000000000e+03 1.658040428161621094e+01 7.042706489562988281e+00 6.447779742302373052e-05 8.967909525381401181e-05 4.624706707545556128e-05 6.914489858900196850e-06
4.165000000000000000e+03 1.112137222290039062e+01 2.279716491699218750e+01 -8.250399492681026459e-03 8.858994580805301666e-03 1.825783110689371824e-04 6.003774702548980713e-03
4.166000000000000000e+03 1.370394229888916016e+01 8.808203697204589844e+00 1.575763017171993852e-04 2.529288758523762226e-05 5.486075679073110223e-05 1.317189016845077276e-04
4.167000000000000000e+03 9.340305328369140625e+00 2.350313377380371094e+01 -4.238105379045009613e-03 7.471041753888130188e-03 9.698809008114039898e-04 7.372085936367511749e-03
4.168000000000000000e+03 1.014451217651367188e+01 8.377971649169921875e+00 -1.895579043775796890e-04 -1.740387961035594344e-04 -1.090790101443417370e-04 9.601046258467249572e-06
4.169000000000000000e+03 1.381480312347412109e+01 9.377874374389648438e+00 5.061015690444037318e-05 1.772780087776482105e-04 6.836644752183929086e-05 6.256699271034449339e-05
4.170000000000000000e+03 8.279344558715820312e+00 1.707166290283203125e+01 -3.763921558856964111e-03 1.697453903034329414e-03 -6.199402851052582264e-04 4.949316498823463917e-04
4.171000000000000000e+03 1.396829795837402344e+01 6.856651306152343750e+00 -1.714178652036935091e-04 5.780416540801525116e-05 -3.408411066629923880e-05 5.437057552626356483e-05
4.172000000000000000e+03 1.202309703826904297e+01 8.118984222412109375e+00 1.340385933872312307e-04 -9.938739094650372863e-05 1.039535891322884709e-05 4.708530468633398414e-05
4.173000000000000000e+03 1.371197700500488281e+01 6.527252674102783203e+00 -2.400143785052932799e-05 7.776363781886175275e-05 1.612866071809548885e-05 1.289486681343987584e-04
4.174000000000000000e+03 3.914461517333984375e+01 2.359752893447875977e+00 -1.016342863440513611e-01 -7.064983248710632324e-01 -2.424397915601730347e-01 -4.031741321086883545e-01
4.175000000000000000e+03 3.842591857910156250e+01 1.450954198837280273e+00 -5.986020565032958984e-01 -2.676984667778015137e-01 -2.598901689052581787e-01 -4.447497427463531494e-01
4.176000000000000000e+03 3.827068328857421875e+01 2.174587726593017578e+00 -4.205722808837890625e-01 -7.624222636222839355e-01 -3.548983633518218994e-01 -1.011578798294067383e+00
4.177000000000000000e+03 3.930421447753906250e+01 1.637129545211791992e+00 -8.743837475776672363e-02 -1.161397472023963928e-01 -6.107343733310699463e-02 -1.463252007961273193e-01
4.178000000000000000e+03 3.970756530761718750e+01 2.307757139205932617e+00 1.366471126675605774e-02 -1.257684230804443359e-01 -3.363111242651939392e-02 3.199817240238189697e-02
4.179000000000000000e+03 3.497965240478515625e+01 5.084187984466552734e-01 -6.568020343780517578e+00 -2.993453741073608398e-01 -2.060209751129150391e+00 -9.563335180282592773e-01
4.180000000000000000e+03 3.085846710205078125e+01 2.525932788848876953e-01 3.004696130752563477e+00 8.327768325805664062e+00 3.399739265441894531e+00 4.906693935394287109e+00
4.181000000000000000e+03 2.783051872253417969e+01 5.912961363792419434e-01 -1.292862987518310547e+01 -8.362751007080078125e-01 -4.129471302032470703e+00 3.801210165023803711e+00
4.182000000000000000e+03 2.718856048583984375e+01 -1.100163459777832031e-01 1.653810381889343262e+00 8.438191562891006470e-02 5.214576721191406250e-01 -2.813697457313537598e-01
4.183000000000000000e+03 2.884320449829101562e+01 3.040135279297828674e-02 8.272391557693481445e-01 -1.738597869873046875e+00 -2.734076082706451416e-01 9.148295521736145020e-01
4.184000000000000000e+03 3.343202590942382812e+01 1.599578619003295898e+00 8.343347311019897461e-01 7.446740269660949707e-01 4.737026393413543701e-01 -1.570763997733592987e-02
4.185000000000000000e+03 2.742946815490722656e+01 -2.907027900218963623e-01 4.762482643127441406e+00 -2.061873078346252441e-01 1.366888523101806641e+00 2.703716754913330078e-01
4.186000000000000000e+03 2.615445137023925781e+01 6.092628836631774902e-01 -3.682745695114135742e+00 9.591135382652282715e-01 -8.170896768569946289e-01 -3.116169869899749756e-01
4.187000000000000000e+03 2.487162780761718750e+01 -9.057839214801788330e-02 -7.081235647201538086e-01 4.003346562385559082e-01 -9.233666211366653442e-02 -1.017410397529602051e+00
4.188000000000000000e+03 2.534515762329101562e+01 -1.250936388969421387e+00 -4.207094311714172363e-01 1.199701905250549316e+00 2.336977571249008179e-01 -2.098379731178283691e-01
4.189000000000000000e+03 2.597938728332519531e+01 -1.702976822853088379e+00 -9.448468685150146484e-01 1.425989866256713867e+00 1.443429142236709595e-01 -8.318729996681213379e-01
4.190000000000000000e+03 2.765189743041992188e+01 -4.975239932537078857e-01 -1.999784111976623535e+00 -3.965225443243980408e-02 -6.118308901786804199e-01 -2.742541432380676270e-01
4.191000000000000000e+03 2.859834480285644531e+01 -1.645921587944030762e+00 -1.553152561187744141e+00 9.285510750487446785e-04 -4.656672179698944092e-01 -7.997585535049438477e-01
4.192000000000000000e+03 2.917064666748046875e+01 -1.544091939926147461e+00 -1.806100368499755859e+00 -1.898175664246082306e-02 -5.475246310234069824e-01 -6.941838264465332031e-01
4.193000000000000000e+03 3.025635528564453125e+01 -2.657677531242370605e-01 -3.054207086563110352e+00 -4.161062836647033691e-02 -9.287452697753906250e-01 -3.619973063468933105e-01
4.194000000000000000e+03 3.020602607727050781e+01 -1.494251489639282227e+00 -2.091372489929199219e+00 2.295590937137603760e-02 -6.205249428749084473e-01 -5.774710178375244141e-01
4.195000000000000000e+03 3.108796882629394531e+01 -1.105576872825622559e+00 -2.503343105316162109e+00 1.334483828395605087e-02 -7.469994425773620605e-01 -4.233043193817138672e-01
4.196000000000000000e+03 3.374034881591796875e+01 -8.280065059661865234e-01 -2.623446464538574219e+00 4.590960219502449036e-02 -7.732610702514648438e-01 -1.308649033308029175e-01
4.197000000000000000e+03 3.136321640014648438e+01 -1.342813611030578613e+00 -2.388335943222045898e+00 4.154003784060478210e-02 -7.040387988090515137e-01 -4.192201793193817139e-01
4.198000000000000000e+03 3.197377586364746094e+01 -1.262909054756164551e+00 -2.445133924484252930e+00 5.597929283976554871e-02 -7.167463898658752441e-01 -3.404486775398254395e-01
4.199000000000000000e+03 3.415016937255859375e+01 -4.276450276374816895e-01 -2.785686492919921875e+00 4.456061497330665588e-02 -8.223378062248229980e-01 -1.498573422431945801e-01
4.200000000000000000e+03 3.251067733764648438e+01 -1.755309551954269409e-01 -3.226003885269165039e+00 -2.896339632570743561e-02 -9.764901995658874512e-01 -3.311662673950195312e-01
4.201000000000000000e+03 2.759979820251464844e+01 -1.389608263969421387e+00 -1.210452318191528320e+00 3.164444118738174438e-02 -3.536423444747924805e-01 -8.557437062263488770e-01
4.202000000000000000e+03 2.666035461425781250e+01 -1.673724293708801270e+00 -8.966636061668395996e-01 7.539581060409545898e-01 -4.281165078282356262e-02 -1.223992824554443359e+00
4.203000000000000000e+03 2.526171684265136719e+01 -1.510949373245239258e+00 -4.903050959110260010e-01 9.219435453414916992e-01 1.294915378093719482e-01 -2.747335731983184814e-01
4.204000000000000000e+03 2.509793472290039062e+01 -4.903425276279449463e-01 -3.938407003879547119e-01 5.491037964820861816e-01 4.657892137765884399e-02 -6.193332672119140625e-01
4.205000000000000000e+03 2.541004562377929688e+01 3.971476852893829346e-01 -1.990972518920898438e+00 1.219508647918701172e+00 -2.314391583204269409e-01 -1.052991628646850586e+00
4.206000000000000000e+03 2.583823013305664062e+01 5.757703185081481934e-01 -2.998695611953735352e+00 1.212980866432189941e+00 -5.357143878936767578e-01 -7.537876963615417480e-01
4.207000000000000000e+03 2.955233573913574219e+01 -1.492580864578485489e-02 1.536695837974548340e+00 -1.019710823893547058e-01 4.304174184799194336e-01 6.296301484107971191e-01
4.208000000000000000e+03 3.278035354614257812e+01 3.336142301559448242e-01 -1.636276435852050781e+01 -7.908616662025451660e-01 -5.146088123321533203e+00 -2.953033685684204102e+00
4.209000000000000000e+03 3.378126907348632812e+01 4.215936064720153809e-01 -1.082622146606445312e+01 -2.386550903320312500e-01 -3.319463014602661133e+00 -1.762158513069152832e+00
4.210000000000000000e+03 3.319015502929687500e+01 -9.086018800735473633e-01 -2.651117563247680664e+00 6.277696788311004639e-02 -7.765021920204162598e-01 -1.899018585681915283e-01
4.211000000000000000e+03 3.478961944580078125e+01 1.785219907760620117e+00 -1.013216137886047363e+00 -5.121414065361022949e-01 -4.576072692871093750e-01 -1.746765494346618652e+00
4.212000000000000000e+03 3.462230682373046875e+01 1.557263731956481934e+00 -1.697281002998352051e+00 -6.175155639648437500e-01 -6.944389939308166504e-01 -1.907495617866516113e+00
4.213000000000000000e+03 3.484508895874023438e+01 1.407129406929016113e+00 -2.518457174301147461e+00 -6.587531566619873047e-01 -9.531630873680114746e-01 -2.087496519088745117e+00
4.214000000000000000e+03 3.228043365478515625e+01 1.322455883026123047e+00 5.698786735534667969e+00 6.603388309478759766e+00 3.690652608871459961e+00 5.459231853485107422e+00
4.215000000000000000e+03 3.267113876342773438e+01 1.525410413742065430e+00 3.396306037902832031e+00 3.742268323898315430e+00 2.141572237014770508e+00 3.019301414489746094e+00
4.216000000000000000e+03 3.382086944580078125e+01 1.639750838279724121e+00 -1.506658345460891724e-01 3.734979778528213501e-02 -3.399480879306793213e-02 -9.050407409667968750e-01
4.217000000000000000e+03 3.459458541870117188e+01 1.758615374565124512e+00 -1.156228899955749512e+00 -4.082206189632415771e-01 -4.693348705768585205e-01 -1.766766190528869629e+00
4.218000000000000000e+03 3.137365150451660156e+01 1.513307839632034302e-01 -2.771124649047851562e+01 -2.464818000793457031e+00 -9.052819252014160156e+00 -3.689309120178222656e+00
4.219000000000000000e+03 3.060776519775390625e+01 7.052902877330780029e-02 -1.970608139038085938e+01 2.448273450136184692e-01 -5.838376522064208984e+00 3.265152692794799805e+00
4.220000000000000000e+03 2.976740837097167969e+01 2.101170644164085388e-02 -1.398789644241333008e+00 -1.722860574722290039e+00 -9.364950656890869141e-01 2.777225017547607422e+00
4.221000000000000000e+03 2.690042877197265625e+01 7.934620976448059082e-01 -6.375390052795410156e+00 -6.034271121025085449e-01 -2.093645095825195312e+00 2.328980922698974609e+00
4.222000000000000000e+03 2.569249725341796875e+01 5.247218608856201172e-01 -2.702175140380859375e+00 1.310472369194030762e+00 -4.175108671188354492e-01 -8.272088170051574707e-01
4.223000000000000000e+03 2.557605743408203125e+01 4.593995213508605957e-01 -2.267942667007446289e+00 1.244591355323791504e+00 -3.070053756237030029e-01 -1.036858558654785156e+00
4.224000000000000000e+03 2.503840065002441406e+01 2.483271360397338867e-01 -1.482052803039550781e+00 7.681867480278015137e-01 -2.141598165035247803e-01 -8.975226283073425293e-01
4.225000000000000000e+03 3.519505691528320312e+01 -9.831495285034179688e-01 -2.300468683242797852e+00 1.700855642557144165e-01 -6.391149759292602539e-01 1.861042827367782593e-01
4.226000000000000000e+03 3.356010055541992188e+01 -8.741940855979919434e-01 -2.623949050903320312e+00 7.843327522277832031e-02 -7.636547088623046875e-01 -1.488766968250274658e-01
4.227000000000000000e+03 3.299754714965820312e+01 -1.179041504859924316e+00 -2.488496303558349609e+00 9.503117203712463379e-02 -7.180395722389221191e-01 -1.965967714786529541e-01
4.228000000000000000e+03 3.279525375366210938e+01 -1.197362661361694336e+00 -2.506508350372314453e+00 7.064137607812881470e-02 -7.307600975036621094e-01 -2.248238772153854370e-01
4.229000000000000000e+03 3.238726043701171875e+01 -1.234587192535400391e+00 -2.485448122024536133e+00 5.547370761632919312e-02 -7.289922833442687988e-01 -2.903946638107299805e-01
4.230000000000000000e+03 3.218212127685546875e+01 -1.248970746994018555e+00 -2.475096940994262695e+00 6.845514476299285889e-02 -7.219925522804260254e-01 -3.166828155517578125e-01
4.231000000000000000e+03 3.156083488464355469e+01 -1.307502865791320801e+00 -2.403933763504028320e+00 4.309854656457901001e-02 -7.082505822181701660e-01 -3.971840441226959229e-01
4.232000000000000000e+03 3.084565353393554688e+01 -1.081365466117858887e+00 -2.484202146530151367e+00 -2.878075698390603065e-03 -7.461240887641906738e-01 -4.487929344177246094e-01
4.233000000000000000e+03 3.059788894653320312e+01 -1.143882632255554199e+00 -2.405621051788330078e+00 -6.035736878402531147e-04 -7.218673825263977051e-01 -4.791276752948760986e-01
4.234000000000000000e+03 3.000440979003906250e+01 -1.508527278900146484e+00 -2.056569099426269531e+00 9.668421000242233276e-03 -6.140701770782470703e-01 -6.100617647171020508e-01
4.235000000000000000e+03 2.980237960815429688e+01 -1.521826148033142090e+00 -2.015770435333251953e+00 1.020970940589904785e-02 -6.016682386398315430e-01 -6.316365599632263184e-01
4.236000000000000000e+03 2.959937477111816406e+01 -1.527147769927978516e+00 -1.951007127761840820e+00 4.641621839255094528e-03 -5.839096903800964355e-01 -6.612235903739929199e-01
4.237000000000000000e+03 2.938677787780761719e+01 -1.518650889396667480e+00 -1.888531088829040527e+00 -1.366483420133590698e-02 -5.706588029861450195e-01 -6.748041510581970215e-01
4.238000000000000000e+03 2.878053665161132812e+01 -1.648002743721008301e+00 -1.630113482475280762e+00 -1.071805134415626526e-03 -4.893555939197540283e-01 -7.804422974586486816e-01
4.239000000000000000e+03 2.818472099304199219e+01 -1.676033496856689453e+00 -1.397099375724792480e+00 1.827764324843883514e-02 -4.136465489864349365e-01 -8.626891374588012695e-01
4.240000000000000000e+03 2.709115791320800781e+01 -1.160602569580078125e+00 -9.536011815071105957e-01 1.099092662334442139e-01 -2.531075775623321533e-01 -8.628256320953369141e-01
4.241000000000000000e+03 2.693708610534667969e+01 -1.322255134582519531e+00 -8.313364386558532715e-01 2.876870334148406982e-01 -1.630948185920715332e-01 -1.044141888618469238e+00
4.242000000000000000e+03 2.715576553344726562e+01 -1.797590017318725586e+00 -9.622316956520080566e-01 3.132279515266418457e-01 -1.947011202573776245e-01 -1.140013456344604492e+00
4.243000000000000000e+03 3.501292037963867188e+01 2.652791142463684082e-01 -3.073353290557861328e+00 -1.311301887035369873e-01 -9.613450169563293457e-01 -3.632137477397918701e-01
4.244000000000000000e+03 3.479356002807617188e+01 -1.009671926498413086e+00 -2.357587099075317383e+00 1.077086105942726135e-01 -6.749635338783264160e-01 8.246742188930511475e-02
4.245000000000000000e+03 3.493782424926757812e+01 -1.882911771535873413e-01 -2.642532587051391602e+00 -1.506697107106447220e-02 -7.972798347473144531e-01 -1.264955103397369385e-01
4.246000000000000000e+03 3.516569519042968750e+01 -7.685910463333129883e-01 -2.363328933715820312e+00 1.424046158790588379e-01 -6.662772893905639648e-01 1.165411472320556641e-01
4.247000000000000000e+03 3.460811233520507812e+01 1.803383976221084595e-01 -3.061705827713012695e+00 -7.049226015806198120e-02 -9.396594166755676270e-01 -2.886199653148651123e-01
4.248000000000000000e+03 3.440089797973632812e+01 1.659750491380691528e-01 -3.095563888549804688e+00 4.438731819391250610e-03 -9.273375272750854492e-01 -2.871530354022979736e-01
4.249000000000000000e+03 2.805259704589843750e+01 -1.170737028121948242e+00 -1.599113225936889648e+00 -3.417482227087020874e-02 -4.899864196777343750e-01 -6.578092575073242188e-01
4.250000000000000000e+03 2.789972496032714844e+01 -7.141223549842834473e-01 -1.892878174781799316e+00 -5.445213988423347473e-02 -5.841990709304809570e-01 -4.021430313587188721e-01
4.251000000000000000e+03 2.723935890197753906e+01 -5.189613699913024902e-01 -1.770338654518127441e+00 -4.937243461608886719e-02 -5.459133386611938477e-01 -2.436219304800033569e-01
4.252000000000000000e+03 2.488740921020507812e+01 -4.923493266105651855e-01 -4.844847023487091064e-01 3.384914994239807129e-01 -4.379796236753463745e-02 -6.458691358566284180e-01
4.253000000000000000e+03 2.510225868225097656e+01 -1.226517081260681152e+00 -3.308512270450592041e-01 6.952390074729919434e-01 1.093163341283798218e-01 -2.729992866516113281e-01
4.254000000000000000e+03 2.686582565307617188e+01 -1.616035103797912598e+00 -8.600881695747375488e-01 4.780503213405609131e-01 -1.146113425493240356e-01 -1.169957399368286133e+00
4.255000000000000000e+03 2.746258735656738281e+01 -1.204390048980712891e+00 -1.184209823608398438e+00 1.986848004162311554e-02 -3.493024110794067383e-01 -7.595067620277404785e-01
4.256000000000000000e+03 2.722111320495605469e+01 -3.072260320186614990e-01 4.130048274993896484e+00 6.632542610168457031e-02 1.258912086486816406e+00 6.994134187698364258e-02
4.257000000000000000e+03 2.710257339477539062e+01 6.750146150588989258e-01 -7.798443794250488281e+00 -7.829020023345947266e-01 -2.574403762817382812e+00 1.367161154747009277e+00
4.258000000000000000e+03 2.652947998046875000e+01 5.142884850502014160e-01 -4.240894794464111328e+00 3.878747224807739258e-01 -1.155906081199645996e+00 -1.677772998809814453e-01
4.259000000000000000e+03 2.574312591552734375e+01 4.393976330757141113e-01 -2.524945735931396484e+00 1.357132554054260254e+00 -3.503439128398895264e-01 -1.073946595191955566e+00
4.260000000000000000e+03 2.520225143432617188e+01 3.371585011482238770e-01 -1.656102180480957031e+00 9.185122847557067871e-01 -2.212769836187362671e-01 -1.171213150024414062e+00
4.261000000000000000e+03 2.504243659973144531e+01 -1.091655343770980835e-01 -4.771724939346313477e-01 6.145358681678771973e-01 4.120901226997375488e-02 -1.173835396766662598e+00
4.262000000000000000e+03 2.512119102478027344e+01 -3.249709308147430420e-01 -1.428919732570648193e-01 6.293526887893676758e-01 1.459382176399230957e-01 -1.050084829330444336e+00
4.263000000000000000e+03 2.820293617248535156e+01 4.430995583534240723e-01 -1.595764732360839844e+01 -1.615463376045227051e+00 -5.271933078765869141e+00 1.979144573211669922e+00
4.264000000000000000e+03 2.798153305053710938e+01 1.738095581531524658e-01 -2.390019655227661133e+00 6.964539736509323120e-02 -6.961123347282409668e-01 -1.150271177291870117e+00
4.265000000000000000e+03 2.842415428161621094e+01 -1.145610883831977844e-01 4.966689109802246094e+00 4.145869314670562744e-01 1.614382743835449219e+00 -1.661452054977416992e-01
4.266000000000000000e+03 2.937204933166503906e+01 -7.896517217159271240e-02 2.266038894653320312e+00 4.928033351898193359e-01 8.276526331901550293e-01 4.733812808990478516e-01
4.267000000000000000e+03 2.977836418151855469e+01 2.946048676967620850e-01 -1.850448989868164062e+01 -2.257372140884399414e+00 -6.228558540344238281e+00 6.385175511240959167e-03
4.268000000000000000e+03 3.098203849792480469e+01 8.801065385341644287e-02 -3.008489608764648438e+01 -1.638639211654663086e+00 -9.517060279846191406e+00 -5.912205219268798828e+00
4.269000000000000000e+03 3.018991470336914062e+01 9.065643697977066040e-02 -7.645009994506835938e+00 3.930389881134033203e+00 -1.114385962486267090e+00 3.858535364270210266e-02
4.270000000000000000e+03 3.135852432250976562e+01 3.798707723617553711e-01 -6.623646020889282227e-01 1.655526399612426758e+00 2.979485392570495605e-01 2.020198583602905273e+00
4.271000000000000000e+03 3.203409194946289062e+01 1.071037769317626953e+00 8.447341918945312500e+00 5.918511867523193359e+00 4.309755802154541016e+00 6.604498863220214844e+00
4.272000000000000000e+03 3.417576980590820312e+01 4.537515640258789062e-01 -9.204740524291992188e+00 -2.882521748542785645e-01 -2.847897768020629883e+00 -1.537629723548889160e+00
4.273000000000000000e+03 2.677002334594726562e+01 9.445482492446899414e-01 -6.721491813659667969e+00 -1.073820471763610840e+00 -2.338593721389770508e+00 2.112566709518432617e+00
4.274000000000000000e+03 3.440096664428710938e+01 1.730544805526733398e+00 -8.967919945716857910e-01 -4.229157269001007080e-01 -3.959123194217681885e-01 -1.594228625297546387e+00
4.275000000000000000e+03 3.494606399536132812e+01 8.733666539192199707e-01 -5.221179962158203125e+00 -2.735446989536285400e-01 -1.648417472839355469e+00 -1.905601143836975098e+00
4.276000000000000000e+03 3.478384399414062500e+01 4.978152811527252197e-01 -7.113236904144287109e+00 -9.888780117034912109e-02 -2.163637399673461914e+00 -1.140797972679138184e+00
4.277000000000000000e+03 3.285703659057617188e+01 1.556148052215576172e+00 2.147863388061523438e+00 2.505831956863403320e+00 1.396108627319335938e+00 2.394342899322509766e+00
4.278000000000000000e+03 3.443548202514648438e+01 1.518883824348449707e+00 -1.853697180747985840e+00 -5.313057899475097656e-01 -7.155008912086486816e-01 -1.870565772056579590e+00
4.279000000000000000e+03 3.248872756958007812e+01 1.474511384963989258e+00 4.093458175659179688e+00 4.284010887145996094e+00 2.513240814208984375e+00 4.558287143707275391e+00
4.280000000000000000e+03 3.401485824584960938e+01 1.666105151176452637e+00 -5.189865231513977051e-01 -1.864291131496429443e-01 -2.116246968507766724e-01 -1.288978815078735352e+00
4.281000000000000000e+03 3.465157318115234375e+01 1.351907730102539062e+00 -2.872673988342285156e+00 -4.997155368328094482e-01 -1.011716842651367188e+00 -2.071611881256103516e+00
4.282000000000000000e+03 3.420777893066406250e+01 1.697824001312255859e+00 -8.143178820610046387e-01 -2.811536490917205811e-01 -3.286414742469787598e-01 -1.499330401420593262e+00
4.283000000000000000e+03 3.176918220520019531e+01 8.264210820198059082e-01 8.245160102844238281e+00 6.295207500457763672e+00 4.362110137939453125e+00 8.093696594238281250e+00
4.284000000000000000e+03 2.662365531921386719e+01 8.432342410087585449e-01 -5.366222858428955078e+00 -2.105457037687301636e-01 -1.673030495643615723e+00 1.422991871833801270e+00
4.285000000000000000e+03 2.687273979187011719e+01 3.083123266696929932e-01 -3.621891975402832031e+00 2.593954205513000488e-01 -1.008749008178710938e+00 -4.981794059276580811e-01
4.286000000000000000e+03 2.714928627014160156e+01 9.228140115737915039e-02 -1.297758936882019043e+00 -2.518391907215118408e-01 -4.648794233798980713e-01 -1.266860008239746094e+00
4.287000000000000000e+03 2.762295341491699219e+01 -2.904004454612731934e-01 5.216729640960693359e+00 1.273758262395858765e-01 1.603231549263000488e+00 4.426462352275848389e-01
4.288000000000000000e+03 2.487839889526367188e+01 -8.882301449775695801e-01 -1.334970444440841675e-01 3.220026195049285889e-01 5.655167624354362488e-02 -3.689299523830413818e-01
4.289000000000000000e+03 2.502556419372558594e+01 -3.526463210582733154e-01 -3.808123469352722168e-01 5.458613038063049316e-01 4.951469600200653076e-02 -9.147580265998840332e-01
4.290000000000000000e+03 2.645656204223632812e+01 7.357125878334045410e-01 -4.858647346496582031e+00 4.549539685249328613e-01 -1.321107983589172363e+00 6.867322325706481934e-01
4.291000000000000000e+03 2.735752296447753906e+01 -1.773170828819274902e+00 -1.022445797920227051e+00 2.175881564617156982e-01 -2.414572983980178833e-01 -1.083215594291687012e+00
4.292000000000000000e+03 2.592419433593750000e+01 -1.850934505462646484e+00 -9.875957965850830078e-01 1.214032292366027832e+00 6.793095916509628296e-02 -8.271460533142089844e-01
4.293000000000000000e+03 2.644808578491210938e+01 -1.714551925659179688e+00 -8.748797178268432617e-01 8.840065598487854004e-01 2.738061593845486641e-03 -1.189644336700439453e+00
4.294000000000000000e+03 2.507834053039550781e+01 -6.640521883964538574e-01 9.735379368066787720e-02 5.445000529289245605e-01 1.925561577081680298e-01 -4.040468633174896240e-01
4.295000000000000000e+03 2.657032966613769531e+01 -1.513668417930603027e+00 -8.099187612533569336e-01 8.043189644813537598e-01 -1.679945038631558418e-03 -1.236613750457763672e+00
4.296000000000000000e+03 2.617052268981933594e+01 -1.587328553199768066e+00 -9.137576818466186523e-01 1.364557743072509766e+00 1.352400183677673340e-01 -9.774830937385559082e-01
4.297000000000000000e+03 2.695496177673339844e+01 -1.828901767730712891e+00 -9.299927353858947754e-01 4.605402946472167969e-01 -1.408357322216033936e-01 -1.194342017173767090e+00
4.298000000000000000e+03 2.622523307800292969e+01 -1.734843730926513672e+00 -9.384480714797973633e-01 1.151327848434448242e+00 6.386392563581466675e-02 -9.712128639221191406e-01
4.299000000000000000e+03 2.560181617736816406e+01 -1.631829738616943359e+00 -7.029635906219482422e-01 1.113607406616210938e+00 1.231931596994400024e-01 -5.577425360679626465e-01
4.300000000000000000e+03 2.580617141723632812e+01 -1.554601192474365234e+00 -8.457243442535400391e-01 1.476045370101928711e+00 1.890963017940521240e-01 -6.592751741409301758e-01
4.301000000000000000e+03 2.547660636901855469e+01 -1.397851705551147461e+00 -5.139821767807006836e-01 1.313178777694702148e+00 2.397589683532714844e-01 -1.754333972930908203e-01
4.302000000000000000e+03 3.105612754821777344e+01 3.928755819797515869e-01 6.158552169799804688e+00 4.212171554565429688e+00 3.111217021942138672e+00 6.662223815917968750e+00
4.303000000000000000e+03 2.944959640502929688e+01 3.603976964950561523e-01 -1.593382453918457031e+01 9.877828955650329590e-01 -4.483812332153320312e+00 2.219834804534912109e+00
4.304000000000000000e+03 3.215697860717773438e+01 2.914857566356658936e-01 -1.983515548706054688e+01 4.854920506477355957e-01 -5.804898738861083984e+00 -4.319223403930664062e+00
4.305000000000000000e+03 3.296413803100585938e+01 7.996623516082763672e-01 -6.435052871704101562e+00 -1.121313214302062988e+00 -2.266909837722778320e+00 -2.594849824905395508e+00
4.306000000000000000e+03 3.437651443481445312e+01 4.855789840221405029e-01 -8.394805908203125000e+00 -1.665183007717132568e-01 -2.568397283554077148e+00 -1.466764092445373535e+00
4.307000000000000000e+03 3.458191299438476562e+01 5.007385015487670898e-01 -7.782420635223388672e+00 -3.678884804248809814e-01 -2.445092678070068359e+00 -1.292329430580139160e+00
4.308000000000000000e+03 2.894547653198242188e+01 2.449127733707427979e-01 -1.428683662414550781e+01 -2.090425014495849609e+00 -4.913178443908691406e+00 5.779392719268798828e-01
4.309000000000000000e+03 2.920629501342773438e+01 7.334794104099273682e-02 8.391827940940856934e-01 1.958769559860229492e+00 8.393856883049011230e-01 2.123804807662963867e+00
4.310000000000000000e+03 2.859865188598632812e+01 3.614711463451385498e-01 -1.580504989624023438e+01 6.781246066093444824e-01 -4.538077831268310547e+00 2.557738065719604492e+00
4.311000000000000000e+03 3.297511672973632812e+01 3.552640676498413086e-01 -1.478239440917968750e+01 -1.944842487573623657e-01 -4.493063449859619141e+00 -2.820841073989868164e+00
4.312000000000000000e+03 2.795978164672851562e+01 -1.998725086450576782e-01 4.440664291381835938e+00 -2.085662782192230225e-01 1.269629478454589844e+00 1.172157883644104004e+00
4.313000000000000000e+03 2.997948837280273438e+01 8.158965408802032471e-02 -6.125828742980957031e+00 1.314237952232360840e+00 -1.443477153778076172e+00 2.664807796478271484e+00
4.314000000000000000e+03 3.060984802246093750e+01 3.025691807270050049e-01 -1.909488141536712646e-01 -9.639139175415039062e-01 -3.464588224887847900e-01 5.656220912933349609e-01
4.315000000000000000e+03 3.195945739746093750e+01 2.242648303508758545e-01 -2.185589408874511719e+01 -9.764456152915954590e-01 -6.849701881408691406e+00 -3.327916383743286133e+00
4.316000000000000000e+03 3.116601562500000000e+01 1.354569941759109497e-01 -2.772201538085937500e+01 -8.140080571174621582e-01 -8.560807228088378906e+00 -5.725939273834228516e+00
4.317000000000000000e+03 3.156398963928222656e+01 1.857445389032363892e-01 -2.541742706298828125e+01 1.589381337165832520e+00 -7.148413658142089844e+00 -5.448729038238525391e+00
4.318000000000000000e+03 2.778939247131347656e+01 -2.645248770713806152e-01 5.498537063598632812e+00 -5.905238911509513855e-02 1.631845355033874512e+00 5.872768163681030273e-01
4.319000000000000000e+03 2.862314033508300781e+01 -1.503718942403793335e-01 6.527643203735351562e+00 -5.530352592468261719e-01 1.792382359504699707e+00 -1.968521811068058014e-02
4.320000000000000000e+03 2.918519210815429688e+01 -9.529566019773483276e-02 3.489369869232177734e+00 1.075981020927429199e+00 1.369605183601379395e+00 1.816452264785766602e+00
4.321000000000000000e+03 3.040019035339355469e+01 5.139936506748199463e-02 -1.133093261718750000e+01 -3.228998661041259766e+00 -4.367979526519775391e+00 1.046433568000793457e+00
4.322000000000000000e+03 3.080898666381835938e+01 6.834068894386291504e-02 -2.803542327880859375e+01 5.312327861785888672e+00 -6.816928863525390625e+00 -1.390177130699157715e+00
4.323000000000000000e+03 3.479860305786132812e+01 8.631058335304260254e-01 -5.198647975921630859e+00 -4.869900345802307129e-01 -1.705691337585449219e+00 -1.984117031097412109e+00
4.324000000000000000e+03 2.883937835693359375e+01 -3.782349526882171631e-01 -2.601754903793334961e+00 -3.551475703716278076e-02 -7.911809086799621582e-01 -3.193638622760772705e-01
4.325000000000000000e+03 2.809530448913574219e+01 -6.830736994743347168e-01 -2.020233631134033203e+00 -4.363390803337097168e-02 -6.191602349281311035e-01 -4.031178355216979980e-01
4.326000000000000000e+03 2.785331153869628906e+01 -4.730911552906036377e-01 -2.112685918807983398e+00 -3.166807070374488831e-02 -6.433061957359313965e-01 -2.870726585388183594e-01
4.327000000000000000e+03 2.906107330322265625e+01 -6.425919532775878906e-01 -2.432141304016113281e+00 -4.939297959208488464e-02 -7.444602847099304199e-01 -4.170990884304046631e-01
4.328000000000000000e+03 3.361130523681640625e+01 1.022169664502143860e-01 -3.255389213562011719e+00 -1.173957623541355133e-02 -9.801386594772338867e-01 -3.192369639873504639e-01
4.329000000000000000e+03 3.210099792480468750e+01 -4.081766009330749512e-01 -3.040535688400268555e+00 -2.200686559081077576e-02 -9.187627434730529785e-01 -3.209663331508636475e-01
4.330000000000000000e+03 3.419985198974609375e+01 1.769959330558776855e-01 -3.143634319305419922e+00 -5.332862213253974915e-02 -9.590889215469360352e-01 -2.950980365276336670e-01
4.331000000000000000e+03 3.467926025390625000e+01 -1.031102240085601807e-01 -2.808097839355468750e+00 -5.007139872759580612e-03 -8.439314961433410645e-01 -2.082067430019378662e-01
4.332000000000000000e+03 3.400617218017578125e+01 1.579311639070510864e-01 -3.192388534545898438e+00 7.946901314426213503e-05 -9.576926827430725098e-01 -3.034166395664215088e-01
4.333000000000000000e+03 3.340038299560546875e+01 -1.575764864683151245e-01 -3.101451158523559570e+00 5.404740571975708008e-03 -9.288139343261718750e-01 -2.701983749866485596e-01
4.334000000000000000e+03 3.301396179199218750e+01 6.097536906599998474e-02 -3.315763473510742188e+00 -5.427045375108718872e-02 -1.011010169982910156e+00 -3.326572775840759277e-01
4.335000000000000000e+03 3.260675811767578125e+01 1.032123714685440063e-02 -3.342187404632568359e+00 -5.265735834836959839e-02 -1.018453359603881836e+00 -3.327176570892333984e-01
4.336000000000000000e+03 3.242313766479492188e+01 6.718160584568977356e-03 -3.358675003051757812e+00 -1.223387569189071655e-02 -1.011272668838500977e+00 -3.393670320510864258e-01
4.337000000000000000e+03 3.176254463195800781e+01 -1.963563412427902222e-01 -3.254441261291503906e+00 -2.043409273028373718e-02 -9.824625849723815918e-01 -3.420540392398834229e-01
4.338000000000000000e+03 3.126503181457519531e+01 -1.334348618984222412e-01 -3.269788026809692383e+00 -3.083736263215541840e-02 -9.901875853538513184e-01 -3.634182512760162354e-01
4.339000000000000000e+03 3.085279273986816406e+01 -1.897922754287719727e-01 -3.212344646453857422e+00 -3.253333643078804016e-02 -9.734634160995483398e-01 -3.514498174190521240e-01
4.340000000000000000e+03 3.004888343811035156e+01 -2.983270287513732910e-01 -3.001513242721557617e+00 -4.513379558920860291e-02 -9.139940738677978516e-01 -3.536388576030731201e-01
4.341000000000000000e+03 2.722983932495117188e+01 -7.338331341743469238e-01 -1.431226730346679688e+00 -3.946475312113761902e-02 -4.412074387073516846e-01 -4.084331989288330078e-01
4.342000000000000000e+03 2.746215820312500000e+01 -7.657030820846557617e-01 -1.574878215789794922e+00 -5.593425408005714417e-02 -4.892437458038330078e-01 -4.202925860881805420e-01
4.343000000000000000e+03 2.777389335632324219e+01 -1.718225955963134766e+00 -1.200486660003662109e+00 7.498471438884735107e-02 -3.376505970954895020e-01 -9.537746310234069824e-01
4.344000000000000000e+03 3.379038238525390625e+01 -1.097372770309448242e+00 -2.482461214065551758e+00 1.204891875386238098e-01 -7.085915803909301758e-01 -8.668749779462814331e-02
4.345000000000000000e+03 3.074608802795410156e+01 -1.416659832000732422e+00 -2.229062795639038086e+00 2.907104976475238800e-02 -6.599974632263183594e-01 -5.109487771987915039e-01
4.346000000000000000e+03 2.839521026611328125e+01 -1.640799999237060547e+00 -1.485772252082824707e+00 8.578788838349282742e-04 -4.454742968082427979e-01 -8.219792246818542480e-01
4.347000000000000000e+03 2.794535636901855469e+01 -1.456109523773193359e+00 -1.368184328079223633e+00 2.771670930087566376e-03 -4.096238017082214355e-01 -8.062244653701782227e-01
4.348000000000000000e+03 2.637331581115722656e+01 -1.566393136978149414e+00 -8.804365992546081543e-01 1.105268955230712891e+00 6.744969636201858521e-02 -1.129796743392944336e+00
4.349000000000000000e+03 3.127375030517578125e+01 -1.079650163650512695e+00 -2.532062292098999023e+00 1.075931452214717865e-02 -7.563908696174621582e-01 -4.070369601249694824e-01
4.350000000000000000e+03 3.499341583251953125e+01 -9.969907402992248535e-01 -2.360611677169799805e+00 1.688778400421142578e-01 -6.575201749801635742e-01 1.190692707896232605e-01
4.351000000000000000e+03 3.496560668945312500e+01 -7.684254050254821777e-01 -2.393359661102294922e+00 6.308767944574356079e-02 -6.990815997123718262e-01 7.060410827398300171e-02
4.352000000000000000e+03 3.476796722412109375e+01 -7.620443105697631836e-01 -2.474261999130249023e+00 1.013445407152175903e-01 -7.118752598762512207e-01 2.267872355878353119e-02
4.353000000000000000e+03 3.439278793334960938e+01 -1.033649802207946777e+00 -2.412935733795166016e+00 9.269194304943084717e-02 -6.960731148719787598e-01 1.006401702761650085e-02
4.354000000000000000e+03 3.259152603149414062e+01 -1.217251300811767578e+00 -2.502422332763671875e+00 7.873949408531188965e-02 -7.271048426628112793e-01 -2.586700618267059326e-01
4.355000000000000000e+03 3.176413154602050781e+01 -1.280024409294128418e+00 -2.418493509292602539e+00 6.709912419319152832e-02 -7.054183483123779297e-01 -3.725052177906036377e-01
4.356000000000000000e+03 3.056808280944824219e+01 -1.470429539680480957e+00 -2.199137210845947266e+00 2.112648822367191315e-02 -6.534032225608825684e-01 -5.274807214736938477e-01
4.357000000000000000e+03 2.896629714965820312e+01 -1.602221965789794922e+00 -1.696294784545898438e+00 -1.449253782629966736e-02 -5.132362246513366699e-01 -7.388272285461425781e-01
4.358000000000000000e+03 2.675062751770019531e+01 -1.860984206199645996e+00 -9.058328270912170410e-01 6.252676248550415039e-01 -8.416956663131713867e-02 -1.188435316085815430e+00
4.359000000000000000e+03 3.509289169311523438e+01 -1.513086259365081787e-01 -2.653242588043212891e+00 1.499334257096052170e-02 -7.914747595787048340e-01 -5.646044015884399414e-02
4.360000000000000000e+03 3.486671447753906250e+01 -2.741662785410881042e-03 -2.824934005737304688e+00 -9.939012676477432251e-02 -8.772972822189331055e-01 -2.153896242380142212e-01
4.361000000000000000e+03 3.481342315673828125e+01 -2.901971340179443359e-01 -2.674526214599609375e+00 -1.496714726090431213e-02 -8.068479895591735840e-01 -9.016791731119155884e-02
4.362000000000000000e+03 3.495569992065429688e+01 -5.454663634300231934e-01 -2.502291440963745117e+00 6.414631754159927368e-02 -7.314435243606567383e-01 -8.618446066975593567e-03
4.363000000000000000e+03 2.765418815612792969e+01 -1.494556367397308350e-01 3.457985877990722656e+00 -1.883974075317382812e-01 9.808765649795532227e-01 -1.809623390436172485e-01
4.364000000000000000e+03 3.481418991088867188e+01 2.293558865785598755e-01 -3.039806604385375977e+00 -1.708960719406604767e-02 -9.170688986778259277e-01 -3.146798014640808105e-01
4.365000000000000000e+03 3.150702857971191406e+01 6.015782356262207031e-01 9.222194671630859375e+00 5.915963172912597656e+00 4.541447639465332031e+00 6.025043487548828125e+00
4.366000000000000000e+03 2.818827819824218750e+01 -1.164274439215660095e-01 4.534551620483398438e+00 8.063827157020568848e-01 1.602280378341674805e+00 3.639500439167022705e-01
4.367000000000000000e+03 3.237737655639648438e+01 3.055458366870880127e-01 -1.864211845397949219e+01 -2.358255624771118164e+00 -6.300112247467041016e+00 -3.247907400131225586e+00
4.368000000000000000e+03 2.748663139343261719e+01 7.361766099929809570e-01 -1.125955772399902344e+01 -1.642505764961242676e+00 -3.870619297027587891e+00 3.338820219039916992e+00
4.369000000000000000e+03 2.935569000244140625e+01 1.969015002250671387e-01 -1.367246913909912109e+01 1.584656476974487305e+00 -3.626343727111816406e+00 1.668199300765991211e+00
4.370000000000000000e+03 3.488093566894531250e+01 1.224270105361938477e+00 -3.362262010574340820e+00 -5.063302516937255859e-01 -1.160577654838562012e+00 -1.972394466400146484e+00
4.371000000000000000e+03 3.454531097412109375e+01 1.032976984977722168e+00 -4.580649375915527344e+00 -6.430385708808898926e-01 -1.567106366157531738e+00 -2.149305343627929688e+00
4.372000000000000000e+03 3.481593704223632812e+01 1.595614433288574219e+00 -1.925224423408508301e+00 -4.080605506896972656e-01 -6.999855041503906250e-01 -1.976914048194885254e+00
4.373000000000000000e+03 3.491946792602539062e+01 1.048536777496337891e+00 -4.216561794281005859e+00 -4.303131997585296631e-01 -1.394062399864196777e+00 -2.061852931976318359e+00
4.374000000000000000e+03 2.730887603759765625e+01 -1.321995139122009277e+00 -1.065008282661437988e+00 8.251372724771499634e-02 -2.947483658790588379e-01 -8.717449903488159180e-01
4.375000000000000000e+03 3.323971939086914062e+01 1.580831646919250488e+00 8.728367090225219727e-01 9.920619726181030273e-01 5.594695806503295898e-01 4.888055324554443359e-01
4.376000000000000000e+03 3.362592697143554688e+01 1.619721174240112305e+00 1.065028607845306396e-01 1.083862874656915665e-02 3.520244732499122620e-02 -6.889479756355285645e-01
4.377000000000000000e+03 3.304766082763671875e+01 1.570003032684326172e+00 2.196480512619018555e+00 1.807707190513610840e+00 1.201256275177001953e+00 1.076870083808898926e+00
4.378000000000000000e+03 3.259932327270507812e+01 1.184706091880798340e+00 2.718407154083251953e+00 1.624606609344482422e+00 1.302904129028320312e+00 1.578945755958557129e+00
4.379000000000000000e+03 3.425035858154296875e+01 1.454280853271484375e+00 -1.887995839118957520e+00 -5.086725950241088867e-01 -7.190005183219909668e-01 -1.836338758468627930e+00
4.380000000000000000e+03 3.340939712524414062e+01 9.161733090877532959e-02 -3.279446840286254883e+00 -4.942535981535911560e-02 -9.986616969108581543e-01 -3.205698132514953613e-01
4.381000000000000000e+03 3.317633438110351562e+01 3.899912238121032715e-01 -1.359394645690917969e+01 -5.841472744941711426e-01 -4.253427982330322266e+00 -2.665352344512939453e+00
4.382000000000000000e+03 3.244301986694335938e+01 5.644243359565734863e-01 -6.965808391571044922e+00 -1.677135705947875977e+00 -2.592883348464965820e+00 -3.970481634140014648e+00
4.383000000000000000e+03 3.358599472045898438e+01 4.041366875171661377e-01 -1.155659770965576172e+01 -3.171111047267913818e-01 -3.562112808227539062e+00 -1.854468822479248047e+00
4.384000000000000000e+03 3.345025634765625000e+01 8.929625153541564941e-01 -4.401802062988281250e+00 -7.874121665954589844e-01 -1.556764245033264160e+00 -2.299802303314208984e+00
4.385000000000000000e+03 3.318039321899414062e+01 7.050573229789733887e-01 -6.963145732879638672e+00 -7.004646062850952148e-01 -2.299083232879638672e+00 -2.610161304473876953e+00
4.386000000000000000e+03 3.258205032348632812e+01 3.162340521812438965e-01 -1.741596221923828125e+01 5.404189229011535645e-01 -5.062662601470947266e+00 -2.918442726135253906e+00
4.387000000000000000e+03 3.283589553833007812e+01 5.756878852844238281e-01 -8.000945091247558594e+00 -7.720227241516113281e-01 -2.631890535354614258e+00 -3.357207536697387695e+00
4.388000000000000000e+03 3.094952392578125000e+01 -1.383583068847656250e+00 -2.267157077789306641e+00 4.462878033518791199e-02 -6.667584776878356934e-01 -4.868794083595275879e-01
4.389000000000000000e+03 3.418913650512695312e+01 -2.296010591089725494e-02 -3.040674209594726562e+00 -2.952061407268047333e-02 -9.210584163665771484e-01 -2.744463980197906494e-01
4.390000000000000000e+03 2.813659477233886719e+01 -1.407546997070312500e+00 -1.473877191543579102e+00 -1.905125565826892853e-02 -4.478785395622253418e-01 -7.580915093421936035e-01
4.391000000000000000e+03 2.903740310668945312e+01 -3.635284602642059326e-01 -2.681634426116943359e+00 -3.494982793927192688e-02 -8.149753212928771973e-01 -3.233318924903869629e-01
4.392000000000000000e+03 2.847531318664550781e+01 -6.609474420547485352e-01 -2.218565464019775391e+00 -4.946742206811904907e-02 -6.804098486900329590e-01 -3.979664742946624756e-01
4.393000000000000000e+03 2.844533348083496094e+01 -4.114900827407836914e-01 -2.424900293350219727e+00 -3.625547140836715698e-02 -7.383466958999633789e-01 -3.018059432506561279e-01
4.394000000000000000e+03 2.824991798400878906e+01 -4.291132390499114990e-01 -2.330848455429077148e+00 -3.289764374494552612e-02 -7.091237902641296387e-01 -2.951741218566894531e-01
4.395000000000000000e+03 2.963064193725585938e+01 -3.135105967521667480e-01 -2.887386322021484375e+00 -3.815906867384910583e-02 -8.776636123657226562e-01 -3.365929722785949707e-01
4.396000000000000000e+03 3.201337051391601562e+01 -5.295051261782646179e-02 -3.366199254989624023e+00 -3.301712870597839355e-02 -1.019764900207519531e+00 -3.398333489894866943e-01
4.397000000000000000e+03 3.168121337890625000e+01 -9.496828317642211914e-01 -2.656911611557006836e+00 8.708336390554904938e-03 -7.944610118865966797e-01 -3.655934333801269531e-01
4.398000000000000000e+03 3.280782318115234375e+01 1.598932966589927673e-02 -3.329886674880981445e+00 -1.773793436586856842e-02 -1.004287362098693848e+00 -3.326485157012939453e-01
4.399000000000000000e+03 3.163924598693847656e+01 -6.446610391139984131e-02 -3.345927238464355469e+00 -3.334967419505119324e-02 -1.013783097267150879e+00 -3.575120866298675537e-01
4.400000000000000000e+03 3.145094871520996094e+01 -9.612429141998291016e-02 -3.319857835769653320e+00 -3.870834410190582275e-02 -1.007569909095764160e+00 -3.563818037509918213e-01
4.401000000000000000e+03 3.190309143066406250e+01 -6.720596551895141602e-01 -2.857413291931152344e+00 -7.547099143266677856e-03 -8.594881296157836914e-01 -3.369517028331756592e-01
4.402000000000000000e+03 3.064776039123535156e+01 -1.959051638841629028e-01 -3.178400278091430664e+00 -4.142215475440025330e-02 -9.659467339515686035e-01 -3.474194407463073730e-01
4.403000000000000000e+03 3.045162200927734375e+01 -2.163871079683303833e-01 -3.123045206069946289e+00 -2.163423970341682434e-02 -9.434038400650024414e-01 -3.596845865249633789e-01
4.404000000000000000e+03 2.963590621948242188e+01 -6.007022261619567871e-01 -2.650696754455566406e+00 -4.554400965571403503e-02 -8.088722229003906250e-01 -4.169040024280548096e-01
4.405000000000000000e+03 2.864111137390136719e+01 -3.942202925682067871e-01 -2.514381885528564453e+00 -3.819237276911735535e-02 -7.657722830772399902e-01 -3.114667236804962158e-01
4.406000000000000000e+03 3.345586395263671875e+01 -5.414713621139526367e-01 -2.846259832382202148e+00 3.948774188756942749e-03 -8.526933193206787109e-01 -2.007380723953247070e-01
4.407000000000000000e+03 3.256389999389648438e+01 -9.422822594642639160e-01 -2.661159276962280273e+00 2.102178521454334259e-02 -7.920412421226501465e-01 -2.680382430553436279e-01
4.408000000000000000e+03 2.961738395690917969e+01 -1.258655071258544922e+00 -2.117908716201782227e+00 -2.416600659489631653e-02 -6.426224112510681152e-01 -5.824287533760070801e-01
4.409000000000000000e+03 2.981223678588867188e+01 -1.275913953781127930e+00 -2.147208213806152344e+00 -1.444837264716625214e-02 -6.484969854354858398e-01 -5.751588940620422363e-01
4.410000000000000000e+03 2.707094955444335938e+01 -1.548015594482421875e+00 -9.259733557701110840e-01 3.033239841461181641e-01 -1.867948174476623535e-01 -1.090953588485717773e+00
4.411000000000000000e+03 2.834312057495117188e+01 -1.330241322517395020e+00 -1.631654977798461914e+00 -3.231564164161682129e-02 -4.991911947727203369e-01 -6.962609291076660156e-01
4.412000000000000000e+03 3.127134132385253906e+01 -7.324159741401672363e-01 -2.772892475128173828e+00 -1.713249087333679199e-02 -8.370074629783630371e-01 -3.764691650867462158e-01
4.413000000000000000e+03 3.459417724609375000e+01 -1.021949648857116699e+00 -2.402925252914428711e+00 1.414246708154678345e-01 -6.784501671791076660e-01 3.850680217146873474e-02
4.414000000000000000e+03 3.433647918701171875e+01 -8.800128847360610962e-02 -2.934102773666381836e+00 -7.057825569063425064e-03 -8.823481202125549316e-01 -2.376354485750198364e-01
4.415000000000000000e+03 2.697799301147460938e+01 5.031561851501464844e-01 -4.993400573730468750e+00 -3.518890142440795898e-01 -1.603586912155151367e+00 7.786380648612976074e-01
4.416000000000000000e+03 2.761167144775390625e+01 -1.101771950721740723e+00 -1.406865954399108887e+00 -3.389706462621688843e-02 -4.322288930416107178e-01 -6.402749419212341309e-01
4.417000000000000000e+03 2.718623542785644531e+01 -9.503151178359985352e-01 -1.171197175979614258e+00 -2.637838944792747498e-02 -3.592726588249206543e-01 -6.085057258605957031e-01
4.418000000000000000e+03 3.457165527343750000e+01 -7.581768035888671875e-01 -2.502976417541503906e+00 4.820315539836883545e-02 -7.364320158958435059e-01 -1.182343065738677979e-02
4.419000000000000000e+03 3.389588546752929688e+01 -4.390327930450439453e-01 -2.833039045333862305e+00 -6.448153406381607056e-03 -8.518461585044860840e-01 -1.765014976263046265e-01
4.420000000000000000e+03 3.418998718261718750e+01 -1.047106623649597168e+00 -2.453077316284179688e+00 1.260994672775268555e-01 -6.980934143066406250e-01 -3.034856356680393219e-02
4.421000000000000000e+03 3.273897933959960938e+01 -6.407562494277954102e-01 -2.837699890136718750e+00 -2.167581696994602680e-04 -8.513750433921813965e-01 -2.705452740192413330e-01
4.422000000000000000e+03 3.398863601684570312e+01 -1.067125320434570312e+00 -2.464241266250610352e+00 9.159793704748153687e-02 -7.117930054664611816e-01 -6.238503381609916687e-02
4.423000000000000000e+03 3.393709564208984375e+01 -7.612210512161254883e-01 -2.627176046371459961e+00 7.532611489295959473e-02 -7.655549645423889160e-01 -1.123930141329765320e-01
4.424000000000000000e+03 2.749175643920898438e+01 1.091654747724533081e-01 -4.604365527629852295e-01 -5.593460798263549805e-01 -3.059347867965698242e-01 -6.036075353622436523e-01
4.425000000000000000e+03 3.460151290893554688e+01 7.327058911323547363e-01 -6.285236358642578125e+00 -4.287100136280059814e-01 -2.014183998107910156e+00 -1.855696797370910645e+00
4.426000000000000000e+03 3.046881294250488281e+01 -7.171738743782043457e-01 -2.699884176254272461e+00 -2.898559719324111938e-02 -8.186609148979187012e-01 -4.459072649478912354e-01
4.427000000000000000e+03 3.314601898193359375e+01 -2.747429609298706055e-01 -3.075248479843139648e+00 -1.575220003724098206e-02 -9.273002147674560547e-01 -2.690241038799285889e-01
4.428000000000000000e+03 3.365212631225585938e+01 1.339674353599548340e+00 -1.339492201805114746e+00 -3.847040235996246338e-01 -5.172588825225830078e-01 -1.521170496940612793e+00
4.429000000000000000e+03 3.375146484375000000e+01 6.998932957649230957e-01 -7.747281074523925781e+00 -6.955072879791259766e-01 -2.532836437225341797e+00 -2.442509174346923828e+00
4.430000000000000000e+03 3.431595993041992188e+01 7.184964418411254883e-01 -7.001410007476806641e+00 -4.987736046314239502e-01 -2.250055074691772461e+00 -1.820604443550109863e+00
4.431000000000000000e+03 2.830699729919433594e+01 -9.161702394485473633e-01 -1.919075489044189453e+00 -5.118018016219139099e-02 -5.910766720771789551e-01 -5.107566118240356445e-01
4.432000000000000000e+03 2.769144058227539062e+01 -7.547630667686462402e-01 -1.726076126098632812e+00 -4.434035345911979675e-02 -5.311249494552612305e-01 -4.244006276130676270e-01
4.433000000000000000e+03 2.983596229553222656e+01 -3.023193478584289551e-01 -2.945259094238281250e+00 -4.219079017639160156e-02 -8.962349295616149902e-01 -3.438287973403930664e-01
4.434000000000000000e+03 3.068727111816406250e+01 -4.390374720096588135e-01 -2.967925310134887695e+00 -1.763270609080791473e-02 -8.956674337387084961e-01 -3.846606016159057617e-01
4.435000000000000000e+03 2.943079566955566406e+01 -3.261393010616302490e-01 -2.824776172637939453e+00 -3.448591008782386780e-02 -8.577786087989807129e-01 -3.336175680160522461e-01
4.436000000000000000e+03 2.869135284423828125e+01 -8.991583585739135742e-01 -2.096469879150390625e+00 -4.990702494978904724e-02 -6.439130902290344238e-01 -5.033470392227172852e-01
4.437000000000000000e+03 3.385434341430664062e+01 -1.378153115510940552e-01 -3.019389629364013672e+00 1.016352977603673935e-02 -9.027678370475769043e-01 -2.502316236495971680e-01
4.438000000000000000e+03 2.966110420227050781e+01 -1.034853816032409668e+00 -2.279665946960449219e+00 -3.667112439870834351e-02 -6.949011087417602539e-01 -5.313374400138854980e-01
4.439000000000000000e+03 3.019516754150390625e+01 -1.014371633529663086e+00 -2.421920537948608398e+00 -2.107759192585945129e-02 -7.328994274139404297e-01 -4.893576204776763916e-01
4.440000000000000000e+03 2.984343528747558594e+01 -8.325313329696655273e-01 -2.514646291732788086e+00 -4.675429314374923706e-02 -7.684202194213867188e-01 -4.636204540729522705e-01
4.441000000000000000e+03 3.145526504516601562e+01 -9.935903549194335938e-01 -2.606539011001586914e+00 1.706164516508579254e-02 -7.768432497978210449e-01 -3.904080092906951904e-01
4.442000000000000000e+03 3.113674545288085938e+01 -4.806085526943206787e-01 -2.983156681060791016e+00 -3.131642565131187439e-02 -9.043419361114501953e-01 -3.789860606193542480e-01
4.443000000000000000e+03 3.213734436035156250e+01 -6.689248085021972656e-01 -2.859477043151855469e+00 6.673934403806924820e-03 -8.558409810066223145e-01 -3.176303505897521973e-01
4.444000000000000000e+03 3.214599609375000000e+01 -9.528407454490661621e-01 -2.656455039978027344e+00 2.330762334167957306e-02 -7.899442315101623535e-01 -3.127424716949462891e-01
4.445000000000000000e+03 2.921968269348144531e+01 -1.055250406265258789e+00 -2.155330657958984375e+00 -4.296561703085899353e-02 -6.594889163970947266e-01 -5.486292839050292969e-01
4.446000000000000000e+03 3.244509506225585938e+01 -5.027458667755126953e-01 -2.955929994583129883e+00 -5.320922937244176865e-03 -8.883752822875976562e-01 -2.920134365558624268e-01
4.447000000000000000e+03 2.906314659118652344e+01 -1.257918596267700195e+00 -1.960559964179992676e+00 -3.513491153717041016e-02 -5.987084507942199707e-01 -6.192395091056823730e-01
4.448000000000000000e+03 2.772278976440429688e+01 -1.289222240447998047e+00 -1.352980017662048340e+00 -1.663804426789283752e-02 -4.108853936195373535e-01 -7.456411719322204590e-01
4.449000000000000000e+03 3.448869705200195312e+01 -2.513519525527954102e-01 -2.810256719589233398e+00 -1.712603308260440826e-02 -8.482148051261901855e-01 -1.491083800792694092e-01
4.450000000000000000e+03 2.746646881103515625e+01 -1.499281764030456543e+00 -1.140814185142517090e+00 9.659443050622940063e-02 -3.132659494876861572e-01 -9.262812733650207520e-01
4.451000000000000000e+03 3.330805206298828125e+01 -3.804629445075988770e-01 -2.958120822906494141e+00 3.165254369378089905e-03 -8.864866495132446289e-01 -2.385390698909759521e-01
4.452000000000000000e+03 3.242509841918945312e+01 1.025950431823730469e+00 3.237070322036743164e+00 1.309997558593750000e+00 1.364120364189147949e+00 1.183443307876586914e+00
4.453000000000000000e+03 3.411367034912109375e+01 9.147916436195373535e-01 -5.578922271728515625e+00 -4.968864917755126953e-01 -1.822742700576782227e+00 -2.178909778594970703e+00
4.454000000000000000e+03 3.165121269226074219e+01 -6.416243314743041992e-01 -2.873992204666137695e+00 -5.199108272790908813e-03 -8.637574315071105957e-01 -3.476518094539642334e-01
4.455000000000000000e+03 3.028437423706054688e+01 -6.732679009437561035e-01 -2.703902482986450195e+00 -2.856013365089893341e-02 -8.197387456893920898e-01 -4.204931259155273438e-01
4.456000000000000000e+03 3.447485733032226562e+01 1.325566053390502930e+00 -2.794320583343505859e+00 -7.023716568946838379e-01 -1.049007654190063477e+00 -2.148682832717895508e+00
4.457000000000000000e+03 3.327098464965820312e+01 1.289309978485107422e+00 4.347427189350128174e-02 1.464641187340021133e-02 1.743620447814464569e-02 -6.487654447555541992e-01
4.458000000000000000e+03 3.394634628295898438e+01 9.090000987052917480e-01 -5.680912494659423828e+00 -8.739963173866271973e-01 -1.966472625732421875e+00 -2.516942501068115234e+00
4.459000000000000000e+03 3.338676834106445312e+01 3.904180526733398438e-01 -1.247659206390380859e+01 -6.787120103836059570e-01 -3.946591138839721680e+00 -2.204442024230957031e+00
4.460000000000000000e+03 3.138462448120117188e+01 -5.377245545387268066e-01 -2.940858840942382812e+00 -2.552621252834796906e-02 -8.899155259132385254e-01 -3.674219548702239990e-01
4.461000000000000000e+03 3.007584762573242188e+01 -6.219970583915710449e-01 -2.722648143768310547e+00 -5.144567787647247314e-02 -8.322281241416931152e-01 -4.118113517761230469e-01
4.462000000000000000e+03 2.886875343322753906e+01 -8.670462369918823242e-01 -2.199101686477661133e+00 -5.504162982106208801e-02 -6.762430071830749512e-01 -4.872429668903350830e-01
4.463000000000000000e+03 3.036227989196777344e+01 -5.106546878814697266e-01 -2.881515741348266602e+00 -2.859316952526569366e-02 -8.730326294898986816e-01 -3.722313046455383301e-01
4.464000000000000000e+03 2.903911972045898438e+01 -8.995082974433898926e-01 -2.226434707641601562e+00 -5.268680304288864136e-02 -6.837364435195922852e-01 -5.019771456718444824e-01
4.465000000000000000e+03 2.951457214355468750e+01 -9.580535888671875000e-01 -2.321517467498779297e+00 -4.383837804198265076e-02 -7.096067070960998535e-01 -5.031344890594482422e-01
4.466000000000000000e+03 3.253649139404296875e+01 -6.964963674545288086e-01 -2.823328971862792969e+00 1.820647530257701874e-02 -8.415367603302001953e-01 -2.874169647693634033e-01
4.467000000000000000e+03 2.777289390563964844e+01 -1.002095222473144531e+00 -1.578676104545593262e+00 -4.090735688805580139e-02 -4.858750402927398682e-01 -5.718361735343933105e-01
4.468000000000000000e+03 3.265115737915039062e+01 -3.765062391757965088e-01 -3.049919843673706055e+00 -5.784449633210897446e-03 -9.167113304138183594e-01 -2.935249805450439453e-01
4.469000000000000000e+03 3.298650741577148438e+01 -8.953146934509277344e-01 -2.664570093154907227e+00 3.849613294005393982e-02 -7.878221869468688965e-01 -2.243173867464065552e-01
4.470000000000000000e+03 3.514323425292968750e+01 -5.571508407592773438e-01 -2.405481576919555664e+00 1.126406155526638031e-02 -7.182652354240417480e-01 6.052776426076889038e-02
4.471000000000000000e+03 3.512338638305664062e+01 -3.515844047069549561e-01 -2.538123369216918945e+00 3.502359613776206970e-02 -7.509298920631408691e-01 -7.146008312702178955e-02
4.472000000000000000e+03 3.505112838745117188e+01 5.174744501709938049e-02 -2.691267251968383789e+00 -6.051488220691680908e-02 -8.255346417427062988e-01 -2.267991602420806885e-01
4.473000000000000000e+03 3.436908721923828125e+01 -7.521736621856689453e-01 -2.570777893066406250e+00 8.113176375627517700e-02 -7.468938231468200684e-01 -5.394347384572029114e-02
4.474000000000000000e+03 3.415670776367187500e+01 -7.462604641914367676e-01 -2.599967479705810547e+00 3.907401114702224731e-02 -7.682680487632751465e-01 -8.354861289262771606e-02
4.475000000000000000e+03 3.337448120117187500e+01 -8.994566202163696289e-01 -2.618738889694213867e+00 4.438504204154014587e-02 -7.723061442375183105e-01 -1.749582439661026001e-01
4.476000000000000000e+03 3.359344482421875000e+01 -1.126514792442321777e+00 -2.481914520263671875e+00 9.104026108980178833e-02 -7.172622680664062500e-01 -1.260119825601577759e-01
4.477000000000000000e+03 3.339614868164062500e+01 -1.149393916130065918e+00 -2.496310710906982422e+00 1.047786474227905273e-01 -7.174596190452575684e-01 -1.456776112318038940e-01
4.478000000000000000e+03 3.319791030883789062e+01 -1.166153073310852051e+00 -2.481816053390502930e+00 7.324099540710449219e-02 -7.225725054740905762e-01 -1.817366778850555420e-01
4.479000000000000000e+03 3.381270980834960938e+01 1.265314370393753052e-01 -3.228666782379150391e+00 -4.751054942607879639e-02 -9.828531742095947266e-01 -3.115028440952301025e-01
4.480000000000000000e+03 3.362287139892578125e+01 -1.727273017168045044e-01 -3.042795896530151367e+00 -3.118076361715793610e-02 -9.221929907798767090e-01 -2.523539960384368896e-01
4.481000000000000000e+03 3.321107482910156250e+01 8.501057326793670654e-02 -3.300956964492797852e+00 -8.329735137522220612e-03 -9.927860498428344727e-01 -3.309636712074279785e-01
4.482000000000000000e+03 3.314914321899414062e+01 -5.557250976562500000e-01 -2.847332000732421875e+00 6.891013123095035553e-03 -8.521323204040527344e-01 -2.315263301134109497e-01
4.483000000000000000e+03 3.321265029907226562e+01 -1.159230768680572510e-01 -3.171206712722778320e+00 -3.486987948417663574e-02 -9.618229269981384277e-01 -2.965861260890960693e-01
4.484000000000000000e+03 3.496170043945312500e+01 6.938203573226928711e-01 -5.754621982574462891e+00 -3.189195990562438965e-01 -1.822062492370605469e+00 -1.562044501304626465e+00
4.485000000000000000e+03 3.478313064575195312e+01 6.951127648353576660e-01 -6.329087257385253906e+00 -3.029524385929107666e-01 -1.989611983299255371e+00 -1.613093256950378418e+00
4.486000000000000000e+03 3.397805404663085938e+01 4.354177117347717285e-01 -1.000457572937011719e+01 -2.530640065670013428e-01 -3.077291965484619141e+00 -1.684212088584899902e+00
4.487000000000000000e+03 3.413760757446289062e+01 6.905958652496337891e-01 -7.389228820800781250e+00 -4.858832955360412598e-01 -2.362533807754516602e+00 -2.051558732986450195e+00
4.488000000000000000e+03 3.394971466064453125e+01 6.837394833564758301e-01 -7.630156517028808594e+00 -3.938220441341400146e-01 -2.407193660736083984e+00 -2.125999927520751953e+00
4.489000000000000000e+03 3.304533767700195312e+01 1.058039188385009766e+00 -4.834162890911102295e-01 -2.882451713085174561e-01 -2.314984351396560669e-01 -1.289881110191345215e+00
4.490000000000000000e+03 3.222132492065429688e+01 8.030912876129150391e-01 -4.240775108337402344e-01 9.850001931190490723e-01 1.682768017053604126e-01 3.645986318588256836e-01
4.491000000000000000e+03 3.442811203002929688e+01 1.168118596076965332e+00 -3.698172569274902344e+00 -5.367370247840881348e-01 -1.270472884178161621e+00 -2.020689487457275391e+00
4.492000000000000000e+03 3.277175903320312500e+01 -9.174498915672302246e-01 -2.659651756286621094e+00 4.998471215367317200e-02 -7.829001545906066895e-01 -2.471630275249481201e-01
4.493000000000000000e+03 3.179264640808105469e+01 4.227966070175170898e-01 -1.109548759460449219e+01 -2.879265069961547852e+00 -4.192425727844238281e+00 -4.897314548492431641e+00
4.494000000000000000e+03 3.405699920654296875e+01 1.394199728965759277e+00 -2.013159275054931641e+00 -5.225314497947692871e-01 -7.607072591781616211e-01 -1.775841236114501953e+00
4.495000000000000000e+03 3.385250473022460938e+01 1.351515054702758789e+00 -1.902435183525085449e+00 -4.737817943096160889e-01 -7.128650546073913574e-01 -1.768294095993041992e+00
4.496000000000000000e+03 3.307202529907226562e+01 1.312269806861877441e+00 -6.710125505924224854e-02 4.108634293079376221e-01 1.031286492943763733e-01 2.317294478416442871e-01
4.497000000000000000e+03 3.276039886474609375e+01 9.656921029090881348e-01 -3.928352594375610352e-01 1.223711222410202026e-01 -8.113924413919448853e-02 -1.319252371788024902e+00
4.498000000000000000e+03 3.176112556457519531e+01 2.084426879882812500e-01 -2.347810745239257812e+01 -1.848097205162048340e+00 -7.597861766815185547e+00 -4.734280586242675781e+00
4.499000000000000000e+03 3.030782890319824219e+01 2.772413194179534912e-01 -1.384161090850830078e+01 -7.147229909896850586e-01 -4.366900444030761719e+00 4.723871231079101562e+00
4.500000000000000000e+03 2.899401855468750000e+01 -1.173314079642295837e-01 5.755803585052490234e+00 -8.411998748779296875e-01 1.474381089210510254e+00 2.342282295227050781e+00
4.501000000000000000e+03 2.881509017944335938e+01 -1.455574631690979004e-01 7.579541683197021484e+00 -3.445162251591682434e-02 2.263526916503906250e+00 5.362103581428527832e-01
4.502000000000000000e+03 2.914580345153808594e+01 3.911249339580535889e-01 -1.597540187835693359e+01 -4.185197651386260986e-01 -4.918176651000976562e+00 7.753652334213256836e-01
4.503000000000000000e+03 2.857164382934570312e+01 6.471922248601913452e-02 1.664060831069946289e+00 -3.542245626449584961e-01 3.929508626461029053e-01 3.506626784801483154e-01
4.504000000000000000e+03 2.744022941589355469e+01 -9.918360412120819092e-02 1.849175691604614258e+00 -2.255066484212875366e-01 4.871007204055786133e-01 -4.886853396892547607e-01
4.505000000000000000e+03 3.235651779174804688e+01 -9.527351856231689453e-01 -2.663287639617919922e+00 3.660824522376060486e-02 -7.880038619041442871e-01 -2.914971709251403809e-01
4.506000000000000000e+03 3.192266654968261719e+01 -9.528867602348327637e-01 -2.667027950286865234e+00 2.855305001139640808e-02 -7.915424704551696777e-01 -3.388245999813079834e-01
4.507000000000000000e+03 3.116019821166992188e+01 -1.367570161819458008e+00 -2.332655191421508789e+00 3.964039683341979980e-02 -6.879044175148010254e-01 -4.526844024658203125e-01
4.508000000000000000e+03 3.043886947631835938e+01 -1.307936549186706543e+00 -2.266860485076904297e+00 -4.818456000066362321e-05 -6.800726056098937988e-01 -5.134578943252563477e-01
4.509000000000000000e+03 3.039654731750488281e+01 -1.493999481201171875e+00 -2.129957675933837891e+00 1.989962905645370483e-02 -6.330174207687377930e-01 -5.598822832107543945e-01
4.510000000000000000e+03 3.023032379150390625e+01 -1.255676388740539551e+00 -2.266311645507812500e+00 -1.475127600133419037e-02 -6.843188405036926270e-01 -5.357311367988586426e-01
4.511000000000000000e+03 3.000951576232910156e+01 -1.059060692787170410e+00 -2.324795484542846680e+00 -2.800089865922927856e-02 -7.058389186859130859e-01 -5.058562755584716797e-01
4.512000000000000000e+03 3.001237487792968750e+01 -1.273445606231689453e+00 -2.207776546478271484e+00 -9.926402010023593903e-03 -6.653108596801757812e-01 -5.561950802803039551e-01
4.513000000000000000e+03 2.941649436950683594e+01 -1.204869627952575684e+00 -2.102011919021606445e+00 -3.306269645690917969e-02 -6.405224204063415527e-01 -5.829691290855407715e-01
4.514000000000000000e+03 2.887081527709960938e+01 -1.363606810569763184e+00 -1.807574033737182617e+00 -3.701141104102134705e-02 -5.533756613731384277e-01 -6.616384983062744141e-01
4.515000000000000000e+03 2.868659782409667969e+01 -1.461734771728515625e+00 -1.664946198463439941e+00 -2.798911370337009430e-02 -5.078805685043334961e-01 -7.143760919570922852e-01
4.516000000000000000e+03 2.855861282348632812e+01 -1.230606794357299805e+00 -1.790954351425170898e+00 -4.423340409994125366e-02 -5.505563616752624512e-01 -6.463707089424133301e-01
4.517000000000000000e+03 2.798253631591796875e+01 -1.704831480979919434e+00 -1.291097044944763184e+00 4.652193933725357056e-02 -3.733725249767303467e-01 -9.178182482719421387e-01
4.518000000000000000e+03 2.775936508178710938e+01 -1.479173421859741211e+00 -1.261776208877563477e+00 3.206593170762062073e-02 -3.689130842685699463e-01 -8.642339110374450684e-01
4.519000000000000000e+03 2.756252479553222656e+01 -1.741389513015747070e+00 -1.092934727668762207e+00 1.110115274786949158e-01 -2.945769429206848145e-01 -1.008480668067932129e+00
4.520000000000000000e+03 2.654201698303222656e+01 -1.888101458549499512e+00 -9.503834843635559082e-01 8.566684722900390625e-01 -2.811449952423572540e-02 -1.214176177978515625e+00
4.521000000000000000e+03 2.632480621337890625e+01 -1.907757997512817383e+00 -9.058224558830261230e-01 8.518370389938354492e-01 -1.619562134146690369e-02 -1.080169439315795898e+00
4.522000000000000000e+03 3.286476516723632812e+01 -2.448670119047164917e-01 -3.126228332519531250e+00 -3.321440145373344421e-02 -9.478327631950378418e-01 -2.926575839519500732e-01
4.523000000000000000e+03 3.222702789306640625e+01 -4.143608734011650085e-02 -3.362018108367919922e+00 -4.449295252561569214e-02 -1.021953344345092773e+00 -3.439069390296936035e-01
4.524000000000000000e+03 3.230618286132812500e+01 -2.994213104248046875e-01 -3.114276409149169922e+00 -2.279010601341724396e-02 -9.411199092864990234e-01 -3.218719065189361572e-01
4.525000000000000000e+03 3.181475448608398438e+01 -3.526826947927474976e-02 -3.369997978210449219e+00 -3.024892695248126984e-02 -1.020074129104614258e+00 -3.462674617767333984e-01
4.526000000000000000e+03 3.144157600402832031e+01 -3.013384342193603516e-01 -3.150225639343261719e+00 -2.888622879981994629e-02 -9.537335038185119629e-01 -3.519301712512969971e-01
4.527000000000000000e+03 3.107042503356933594e+01 -1.804026514291763306e-01 -3.241737842559814453e+00 -4.762828350067138672e-02 -9.868098497390747070e-01 -3.526504933834075928e-01
4.528000000000000000e+03 2.744645309448242188e+01 -5.140855312347412109e-01 -1.886850595474243164e+00 -2.736918441951274872e-02 -5.742659568786621094e-01 -2.662656009197235107e-01
4.529000000000000000e+03 2.805244255065917969e+01 -4.492354393005371094e-01 -2.226865291595458984e+00 -3.168805316090583801e-02 -6.775659918785095215e-01 -2.910463511943817139e-01
4.530000000000000000e+03 2.828702545166015625e+01 -6.689309477806091309e-01 -2.133511066436767578e+00 -4.385484009981155396e-02 -6.532098054885864258e-01 -3.991190493106842041e-01
4.531000000000000000e+03 2.885904312133789062e+01 -6.339110732078552246e-01 -2.360062122344970703e+00 -5.093974247574806213e-02 -7.233005166053771973e-01 -4.046104550361633301e-01
4.532000000000000000e+03 2.925465774536132812e+01 -6.165955066680908203e-01 -2.507631778717041016e+00 -4.456492885947227478e-02 -7.656589746475219727e-01 -4.144458472728729248e-01
4.533000000000000000e+03 2.923369789123535156e+01 -3.439586460590362549e-01 -2.753752708435058594e+00 -3.908856958150863647e-02 -8.378523588180541992e-01 -3.286956548690795898e-01
4.534000000000000000e+03 2.943735122680664062e+01 -5.967989563941955566e-01 -2.597336292266845703e+00 -4.473517462611198425e-02 -7.926214337348937988e-01 -4.109215438365936279e-01
4.535000000000000000e+03 2.984894943237304688e+01 -5.903468132019042969e-01 -2.708947181701660156e+00 -4.214372485876083374e-02 -8.253272175788879395e-01 -4.127528369426727295e-01
4.536000000000000000e+03 3.090167808532714844e+01 -4.833072423934936523e-01 -2.971208333969116211e+00 -5.045269802212715149e-02 -9.064982533454895020e-01 -3.808287680149078369e-01
4.537000000000000000e+03 3.051922416687011719e+01 -4.450568854808807373e-01 -2.944444894790649414e+00 -4.551000148057937622e-02 -8.969864845275878906e-01 -3.738108873367309570e-01
4.538000000000000000e+03 3.039735412597656250e+01 -9.006173610687255859e-01 -2.557878971099853516e+00 -3.880656883120536804e-02 -7.790056467056274414e-01 -4.575779736042022705e-01
4.539000000000000000e+03 2.764085006713867188e+01 3.452724516391754150e-01 -8.820081710815429688e+00 -5.286112427711486816e-01 -2.804607868194580078e+00 -4.966354966163635254e-01
4.540000000000000000e+03 2.709545326232910156e+01 3.177902102470397949e-01 -4.456891536712646484e+00 8.561582863330841064e-02 -1.311382651329040527e+00 -4.622843489050865173e-02
4.541000000000000000e+03 2.515024375915527344e+01 1.110807135701179504e-01 -9.626429080963134766e-01 6.361489892005920410e-01 -9.794817864894866943e-02 -1.086301803588867188e+00
4.542000000000000000e+03 2.546866226196289062e+01 2.943555712699890137e-01 -1.829215526580810547e+00 1.307928204536437988e+00 -1.563861817121505737e-01 -1.216479420661926270e+00
4.543000000000000000e+03 2.528532791137695312e+01 2.376448810100555420e-01 -1.557562947273254395e+00 1.023581504821777344e+00 -1.601944565773010254e-01 -1.045840501785278320e+00
4.544000000000000000e+03 2.537466621398925781e+01 1.899695992469787598e-01 -1.411351203918457031e+00 1.110195755958557129e+00 -9.034664928913116455e-02 -1.183627605438232422e+00
4.545000000000000000e+03 2.525812530517578125e+01 4.904888942837715149e-02 -7.773918509483337402e-01 8.655676841735839844e-01 2.645274624228477478e-02 -1.177072167396545410e+00
4.546000000000000000e+03 2.589808082580566406e+01 4.917999505996704102e-01 -2.899422645568847656e+00 1.491029262542724609e+00 -4.225180447101593018e-01 -5.884502530097961426e-01
4.547000000000000000e+03 2.598267936706542969e+01 5.942904949188232422e-01 -3.014222383499145508e+00 1.303123116493225098e+00 -5.133298039436340332e-01 -4.007171094417572021e-01
4.548000000000000000e+03 2.679604339599609375e+01 6.426888704299926758e-01 -6.276830673217773438e+00 2.081940509378910065e-02 -1.876803398132324219e+00 7.357541322708129883e-01
4.549000000000000000e+03 2.671165275573730469e+01 4.351333677768707275e-01 -3.615596055984497070e+00 4.916879236698150635e-01 -9.371724128723144531e-01 4.519939422607421875e-02
4.550000000000000000e+03 2.634732437133789062e+01 5.785804390907287598e-01 -3.708458662033081055e+00 9.733059406280517578e-01 -8.205458521842956543e-01 2.020709682255983353e-03
4.551000000000000000e+03 2.692527008056640625e+01 9.640149474143981934e-01 -7.417229175567626953e+00 -1.511951208114624023e+00 -2.678754091262817383e+00 3.031681299209594727e+00
4.552000000000000000e+03 2.716573905944824219e+01 8.843473792076110840e-01 -8.664969444274902344e+00 -1.069430470466613770e+00 -2.920320034027099609e+00 3.393884181976318359e+00
4.553000000000000000e+03 2.734265327453613281e+01 5.082846879959106445e-01 -6.497494697570800781e+00 -1.563695520162582397e-01 -1.996159315109252930e+00 1.353542447090148926e+00
4.554000000000000000e+03 2.516542434692382812e+01 -1.320250779390335083e-01 -4.411358535289764404e-01 6.100797057151794434e-01 5.068316310644149780e-02 -1.155782580375671387e+00
4.555000000000000000e+03 2.511616325378417969e+01 -8.984787464141845703e-01 7.870956510305404663e-02 6.497846245765686035e-01 2.185482531785964966e-01 -3.039613664150238037e-01
4.556000000000000000e+03 2.523170852661132812e+01 -1.107939600944519043e+00 -2.414512932300567627e-01 8.227905631065368652e-01 1.744017750024795532e-01 -2.264190763235092163e-01
4.557000000000000000e+03 2.597171592712402344e+01 -1.570647716522216797e+00 -9.417386651039123535e-01 1.539757609367370605e+00 1.794056892395019531e-01 -7.765922546386718750e-01
4.558000000000000000e+03 2.675744819641113281e+01 -1.431432247161865234e+00 -8.033307790756225586e-01 5.756247639656066895e-01 -6.831180304288864136e-02 -1.192994236946105957e+00
4.559000000000000000e+03 2.776940155029296875e+01 -3.620190080255270004e-03 6.199914813041687012e-01 -1.007368206977844238e+00 -1.162130087614059448e-01 8.465326577425003052e-02
4.560000000000000000e+03 3.199302291870117188e+01 5.916139483451843262e-01 -1.965611934661865234e+00 -1.354744553565979004e+00 -9.961069822311401367e-01 -1.683494329452514648e+00
4.561000000000000000e+03 3.428270339965820312e+01 9.200225472450256348e-01 -5.331897258758544922e+00 -6.437685489654541016e-01 -1.792699694633483887e+00 -2.343509197235107422e+00
4.562000000000000000e+03 3.467004776000976562e+01 9.079226255416870117e-01 -5.041433334350585938e+00 -4.068071544170379639e-01 -1.634472131729125977e+00 -1.953635811805725098e+00
4.563000000000000000e+03 3.476177597045898438e+01 -5.026172399520874023e-01 -2.561573982238769531e+00 1.268140785396099091e-02 -7.646678090095520020e-01 -5.137963593006134033e-02
4.564000000000000000e+03 3.261600494384765625e+01 7.660149931907653809e-01 -5.189490795135498047e+00 -7.882369756698608398e-01 -1.793318271636962891e+00 -2.153440713882446289e+00
4.565000000000000000e+03 3.337991714477539062e+01 6.634306311607360840e-01 -8.588203430175781250e+00 -1.039316654205322266e+00 -2.888256072998046875e+00 -2.756165742874145508e+00
4.566000000000000000e+03 2.742886543273925781e+01 -1.003054976463317871e+00 -1.324545145034790039e+00 -1.058792229741811752e-02 -4.005399048328399658e-01 -6.205560564994812012e-01
4.567000000000000000e+03 2.813661766052246094e+01 -9.029458165168762207e-01 -1.846412897109985352e+00 -5.598468333482742310e-02 -5.707193017005920410e-01 -4.934087097644805908e-01
4.568000000000000000e+03 2.849725914001464844e+01 -9.340626001358032227e-01 -1.987937331199645996e+00 -5.146153643727302551e-02 -6.118196845054626465e-01 -5.158631801605224609e-01
4.569000000000000000e+03 2.866418647766113281e+01 -6.457795500755310059e-01 -2.292430162429809570e+00 -5.135640501976013184e-02 -7.031359672546386719e-01 -3.978619277477264404e-01
4.570000000000000000e+03 2.935807228088378906e+01 -8.227571845054626465e-01 -2.385602474212646484e+00 -5.015785247087478638e-02 -7.307280898094177246e-01 -4.754204750061035156e-01
4.571000000000000000e+03 2.965937614440917969e+01 -8.392850160598754883e-01 -2.455904722213745117e+00 -4.368542507290840149e-02 -7.498770356178283691e-01 -4.639655947685241699e-01
4.572000000000000000e+03 3.437734603881835938e+01 -4.726342558860778809e-01 -2.699494838714599609e+00 -7.666617166250944138e-04 -8.100784420967102051e-01 -1.295017451047897339e-01
4.573000000000000000e+03 3.361167144775390625e+01 -6.701439023017883301e-01 -2.728028535842895508e+00 3.945805877447128296e-02 -8.065711259841918945e-01 -1.774509102106094360e-01
4.574000000000000000e+03 3.328409576416015625e+01 -7.107670903205871582e-01 -2.758481025695800781e+00 4.059315845370292664e-02 -8.153663277626037598e-01 -2.147358655929565430e-01
4.575000000000000000e+03 3.295895767211914062e+01 -6.231064200401306152e-01 -2.832983255386352539e+00 2.226420119404792786e-02 -8.432157039642333984e-01 -2.498421072959899902e-01
4.576000000000000000e+03 3.111434745788574219e+01 -8.846206068992614746e-01 -2.650612354278564453e+00 -1.309886923991143703e-03 -7.955766916275024414e-01 -4.124308228492736816e-01
4.577000000000000000e+03 2.727999305725097656e+01 -1.526096820831298828e+00 -9.912270903587341309e-01 1.554271131753921509e-01 -2.507399916648864746e-01 -1.010257005691528320e+00
4.578000000000000000e+03 3.324683761596679688e+01 9.955706000328063965e-01 -3.874382734298706055e+00 -8.998991250991821289e-01 -1.432284474372863770e+00 -2.251327276229858398e+00
4.579000000000000000e+03 3.356126022338867188e+01 6.793552637100219727e-01 -8.330813407897949219e+00 -6.204679608345031738e-01 -2.685384511947631836e+00 -2.736182928085327148e+00
4.580000000000000000e+03 3.377886199951171875e+01 9.635517597198486328e-01 -4.597852706909179688e+00 -5.651000142097473145e-01 -1.548885822296142578e+00 -2.329912424087524414e+00
4.581000000000000000e+03 3.358894348144531250e+01 1.096720695495605469e+00 -3.791070222854614258e+00 -7.979252338409423828e-01 -1.376698613166809082e+00 -2.140911817550659180e+00
4.582000000000000000e+03 3.443891525268554688e+01 8.424189090728759766e-01 -5.732990264892578125e+00 -3.091377913951873779e-01 -1.812638401985168457e+00 -2.087692499160766602e+00
4.583000000000000000e+03 3.409624481201171875e+01 1.140917420387268066e+00 -3.544294357299804688e+00 -7.210200428962707520e-01 -1.279594302177429199e+00 -2.355197668075561523e+00
4.584000000000000000e+03 2.787872886657714844e+01 -1.229575037956237793e+00 -1.462655544281005859e+00 -2.573932148516178131e-02 -4.465184509754180908e-01 -7.029471993446350098e-01
4.585000000000000000e+03 2.875874710083007812e+01 -1.140960454940795898e+00 -1.952878475189208984e+00 -4.420680180191993713e-02 -5.991255640983581543e-01 -6.010344624519348145e-01
4.586000000000000000e+03 2.892822074890136719e+01 -1.056880474090576172e+00 -2.064609527587890625e+00 -4.961905628442764282e-02 -6.342685818672180176e-01 -5.633671283721923828e-01
4.587000000000000000e+03 3.003817176818847656e+01 -8.671450018882751465e-01 -2.522870779037475586e+00 -3.116955235600471497e-02 -7.662121057510375977e-01 -4.725264906883239746e-01
4.588000000000000000e+03 3.085556030273437500e+01 -7.786089777946472168e-01 -2.705646753311157227e+00 -2.615555003285408020e-02 -8.195406794548034668e-01 -4.211692810058593750e-01
4.589000000000000000e+03 3.496460723876953125e+01 -3.518753647804260254e-01 -2.574967384338378906e+00 2.121580578386783600e-02 -7.661254405975341797e-01 -2.311390638351440430e-02
4.590000000000000000e+03 3.477560424804687500e+01 1.005535125732421875e+00 -4.674872398376464844e+00 -4.172191023826599121e-01 -1.527627348899841309e+00 -2.030697822570800781e+00
4.591000000000000000e+03 3.470461273193359375e+01 1.159476637840270996e+00 -3.602042198181152344e+00 -5.333191156387329102e-01 -1.240608453750610352e+00 -2.139261960983276367e+00
4.592000000000000000e+03 3.432859802246093750e+01 1.278363823890686035e+00 -3.082022428512573242e+00 -6.727763414382934570e-01 -1.126439571380615234e+00 -2.314385890960693359e+00
4.593000000000000000e+03 3.274507904052734375e+01 1.290951490402221680e+00 1.886669039726257324e+00 1.650857090950012207e+00 1.061257839202880859e+00 1.823971629142761230e+00
4.594000000000000000e+03 3.456898117065429688e+01 -4.900779724121093750e-01 -2.632751703262329102e+00 4.097579419612884521e-02 -7.775327563285827637e-01 -8.277767151594161987e-02
4.595000000000000000e+03 3.286769104003906250e+01 1.141752719879150391e+00 -1.642897874116897583e-01 -1.911556273698806763e-01 -1.066336259245872498e-01 2.084087729454040527e-01
4.596000000000000000e+03 3.289529418945312500e+01 1.329503417015075684e+00 1.819655060768127441e+00 1.312223076820373535e+00 9.395634531974792480e-01 5.930777192115783691e-01
4.597000000000000000e+03 3.416812515258789062e+01 -1.839302778244018555e-01 -2.914310216903686523e+00 -2.998301014304161072e-02 -8.832879662513732910e-01 -2.014067173004150391e-01
4.598000000000000000e+03 3.346554565429687500e+01 1.316551923751831055e+00 -9.764745235443115234e-01 -5.205417871475219727e-01 -4.491049051284790039e-01 -1.257527947425842285e+00
4.599000000000000000e+03 2.982996940612792969e+01 -1.049551963806152344e+00 -2.298211812973022461e+00 -3.571665287017822266e-02 -7.001785039901733398e-01 -5.210894942283630371e-01
4.600000000000000000e+03 2.796390151977539062e+01 -9.471066594123840332e-01 -1.740966200828552246e+00 -4.971105977892875671e-02 -5.372031927108764648e-01 -5.209550261497497559e-01
4.601000000000000000e+03 3.365401458740234375e+01 -4.520133137702941895e-01 -2.868211984634399414e+00 3.264834359288215637e-02 -8.506690859794616699e-01 -1.967047750949859619e-01
4.602000000000000000e+03 3.391083908081054688e+01 1.107773303985595703e+00 -3.650722742080688477e+00 -7.385089397430419922e-01 -1.316769480705261230e+00 -2.110709428787231445e+00
4.603000000000000000e+03 3.063125228881835938e+01 -6.462206244468688965e-01 -2.774497032165527344e+00 -3.361725807189941406e-02 -8.424342870712280273e-01 -4.153656959533691406e-01
4.604000000000000000e+03 3.196046829223632812e+01 -2.597903609275817871e-01 -3.179814815521240234e+00 -3.547321632504463196e-02 -9.645863771438598633e-01 -3.554552495479583740e-01
4.605000000000000000e+03 3.427735900878906250e+01 1.125316023826599121e+00 -3.847166538238525391e+00 -5.621271133422851562e-01 -1.322788119316101074e+00 -2.128268957138061523e+00
4.606000000000000000e+03 3.300806045532226562e+01 -4.179669320583343506e-01 -2.984300374984741211e+00 2.092267677653580904e-04 -8.952273726463317871e-01 -2.571089863777160645e-01
4.607000000000000000e+03 3.234791946411132812e+01 -6.905454993247985840e-01 -2.835853338241577148e+00 -2.992190653458237648e-03 -8.516536951065063477e-01 -3.002737462520599365e-01
4.608000000000000000e+03 3.403834533691406250e+01 -6.647504121065139771e-02 -3.029187679290771484e+00 -2.853453345596790314e-02 -9.173166751861572266e-01 -2.429325133562088013e-01
4.609000000000000000e+03 3.304734039306640625e+01 -1.400581896305084229e-01 -3.186624765396118164e+00 -1.282844506204128265e-02 -9.598359465599060059e-01 -3.020503520965576172e-01
4.610000000000000000e+03 3.190416336059570312e+01 -4.411832094192504883e-01 -3.012223005294799805e+00 -1.010585669428110123e-02 -9.066986441612243652e-01 -3.340789973735809326e-01
4.611000000000000000e+03 3.168546485900878906e+01 -3.850224912166595459e-01 -3.071742534637451172e+00 -2.732217498123645782e-02 -9.297194480895996094e-01 -3.537986576557159424e-01
4.612000000000000000e+03 2.822558021545410156e+01 -1.091404199600219727e+00 -1.762046813964843750e+00 -4.740365594625473022e-02 -5.428351163864135742e-01 -5.985454916954040527e-01
4.613000000000000000e+03 3.532656478881835938e+01 1.218266010284423828e+00 -3.224983930587768555e+00 -4.715634584426879883e-01 -1.108964204788208008e+00 -1.764508485794067383e+00
4.614000000000000000e+03 3.516021347045898438e+01 1.843163371086120605e+00 -1.292469501495361328e+00 -5.896242260932922363e-01 -5.646281242370605469e-01 -1.812243819236755371e+00
4.615000000000000000e+03 3.509786987304687500e+01 1.261741042137145996e+00 -3.067472219467163086e+00 -5.709257721900939941e-01 -1.091519355773925781e+00 -1.974542021751403809e+00
4.616000000000000000e+03 3.551464080810546875e+01 1.057103157043457031e+00 -3.927483558654785156e+00 -4.281257390975952148e-01 -1.306682705879211426e+00 -1.529135942459106445e+00
4.617000000000000000e+03 3.518862915039062500e+01 9.300561547279357910e-01 -4.789162635803222656e+00 -2.133803069591522217e-01 -1.500762939453125000e+00 -1.771627426147460938e+00
4.618000000000000000e+03 3.561892700195312500e+01 7.942531704902648926e-01 -4.790744781494140625e+00 -3.218447864055633545e-01 -1.533776879310607910e+00 -1.370583772659301758e+00
4.619000000000000000e+03 3.683752059936523438e+01 1.132660150527954102e+00 -2.529045104980468750e+00 -3.596225380897521973e-01 -8.666002750396728516e-01 -1.092480659484863281e+00
4.620000000000000000e+03 3.744252777099609375e+01 2.003676176071166992e+00 -8.797798752784729004e-01 -7.032193541526794434e-01 -4.748997688293457031e-01 -1.407923340797424316e+00
4.621000000000000000e+03 3.758993148803710938e+01 1.278456091880798340e+00 -1.455121874809265137e+00 -3.060723543167114258e-01 -5.283582806587219238e-01 -8.042178153991699219e-01
4.622000000000000000e+03 3.510199737548828125e+01 1.635613560676574707e+00 -1.898058295249938965e+00 -7.311730384826660156e-01 -7.887694239616394043e-01 -1.955759763717651367e+00
4.623000000000000000e+03 3.585155868530273438e+01 1.316713333129882812e+00 -2.666939496994018555e+00 -4.849288761615753174e-01 -9.455605149269104004e-01 -1.647163748741149902e+00
4.624000000000000000e+03 3.670141983032226562e+01 1.860043287277221680e+00 -1.287270545959472656e+00 -6.529440283775329590e-01 -5.820643901824951172e-01 -1.607041239738464355e+00
4.625000000000000000e+03 3.535565185546875000e+01 5.763555169105529785e-01 -5.518628120422363281e+00 -1.265584379434585571e-01 -1.693555951118469238e+00 -1.276838779449462891e+00
4.626000000000000000e+03 3.511064147949218750e+01 1.445441007614135742e+00 -2.425213098526000977e+00 -5.679735541343688965e-01 -8.979560136795043945e-01 -1.974116444587707520e+00
4.627000000000000000e+03 3.613363647460937500e+01 9.247913360595703125e-01 -3.692896604537963867e+00 -3.023239672183990479e-01 -1.198566198348999023e+00 -1.308602452278137207e+00
4.628000000000000000e+03 3.546948623657226562e+01 1.730145692825317383e+00 -1.667412996292114258e+00 -5.283389687538146973e-01 -6.587255597114562988e-01 -1.938863754272460938e+00
4.629000000000000000e+03 3.545494842529296875e+01 1.439249277114868164e+00 -2.378729820251464844e+00 -6.025492548942565918e-01 -8.943837285041809082e-01 -1.880089521408081055e+00
4.630000000000000000e+03 3.598669815063476562e+01 1.795895457267761230e+00 -1.567479610443115234e+00 -6.818863749504089355e-01 -6.748098134994506836e-01 -1.767223834991455078e+00
4.631000000000000000e+03 3.523711776733398438e+01 7.485983967781066895e-01 -5.260499477386474609e+00 -7.695570588111877441e-02 -1.601236581802368164e+00 -1.615941762924194336e+00
4.632000000000000000e+03 3.512268447875976562e+01 1.098272919654846191e+00 -4.003846168518066406e+00 -4.124918282032012939e-01 -1.324901461601257324e+00 -1.810824155807495117e+00
4.633000000000000000e+03 7.138031005859375000e+01 -1.674990081787109375e+01 7.843055645935237408e-04 7.679325644858181477e-04 4.656714445445686579e-04 1.014997615129686892e-04
4.634000000000000000e+03 7.211955261230468750e+01 -1.671120262145996094e+01 1.156246522441506386e-03 -6.872953381389379501e-04 1.406853552907705307e-04 1.629464677534997463e-04
4.635000000000000000e+03 7.071197509765625000e+01 -1.752739334106445312e+01 4.270847130101174116e-04 7.758070132695138454e-04 3.608675033319741488e-04 2.914271899498999119e-04
4.636000000000000000e+03 7.287363433837890625e+01 -1.741421890258789062e+01 1.129017327912151814e-03 -5.736867897212505341e-04 1.665991439949721098e-04 3.115051949862390757e-04
4.637000000000000000e+03 7.215311431884765625e+01 -1.745045852661132812e+01 2.825776173267513514e-04 6.046295166015625000e-04 2.661621547304093838e-04 5.788650378235615790e-05
4.638000000000000000e+03 7.143251037597656250e+01 -1.748818206787109375e+01 9.148165700025856495e-04 -9.031036170199513435e-04 3.513878937155823223e-06 3.115482104476541281e-04
4.639000000000000000e+03 7.285870361328125000e+01 -1.667398834228515625e+01 9.813986252993345261e-04 4.560320230666548014e-04 4.312291857786476612e-04 -2.799304638756439090e-05
4.640000000000000000e+03 7.064115142822265625e+01 -1.679008674621582031e+01 6.334100617095828056e-04 -9.095511632040143013e-04 -8.284233626909554005e-05 3.137844905722886324e-04
4.641000000000000000e+03 7.509190368652343750e+01 -1.672233772277832031e+01 1.099982182495296001e-03 1.490912400186061859e-04 3.747220034711062908e-04 -7.819069287506863475e-05
4.642000000000000000e+03 7.507875823974609375e+01 -1.746236038208007812e+01 5.683767958544194698e-04 -1.382956397719681263e-04 1.290243526455014944e-04 -2.127701300196349621e-04
4.643000000000000000e+03 7.583750152587890625e+01 -1.675157546997070312e+01 8.218636503443121910e-04 -2.225081843789666891e-04 1.798066368792206049e-04 -8.023478585528209805e-05
4.644000000000000000e+03 7.360292816162109375e+01 -1.740974807739257812e+01 5.038467352278530598e-04 1.369972305838018656e-04 1.922531810123473406e-04 -2.275302831549197435e-04
4.645000000000000000e+03 7.434651947021484375e+01 -1.669533538818359375e+01 1.041874871589243412e-03 -3.904440291080391034e-06 3.113911079708486795e-04 -1.330437080468982458e-04
4.646000000000000000e+03 7.581685638427734375e+01 -1.749131965637207031e+01 7.631259504705667496e-04 9.952034451998770237e-05 2.587938797660171986e-04 -3.736393991857767105e-04
4.647000000000000000e+03 7.434088134765625000e+01 -1.743563652038574219e+01 9.528070222586393356e-04 -1.371561811538413167e-04 2.446952566970139742e-04 7.904520316515117884e-05
4.648000000000000000e+03 7.360105895996093750e+01 -1.666916847229003906e+01 1.215408206917345524e-03 -2.810537116602063179e-04 2.803063252940773964e-04 7.111614104360342026e-05
4.649000000000000000e+03 7.968632507324218750e+01 -1.742419242858886719e+01 1.707257906673476100e-04 9.909013169817626476e-05 8.094478107523173094e-05 -8.427092689089477062e-05
4.650000000000000000e+03 7.850669860839843750e+01 -1.755505180358886719e+01 4.009499680250883102e-04 1.730195508571341634e-04 1.721908629406243563e-04 -3.217028279323130846e-04
4.651000000000000000e+03 7.652082824707031250e+01 -1.751028823852539062e+01 2.739961782936006784e-04 -1.426864037057384849e-04 3.939293674193322659e-05 -7.477409235434606671e-05
4.652000000000000000e+03 7.873721313476562500e+01 -1.681438636779785156e+01 1.162553235189989209e-05 -1.285294183617224917e-05 -3.682226861201343127e-07 -2.413867696304805577e-05
4.653000000000000000e+03 7.785486602783203125e+01 -1.753419113159179688e+01 -2.411450805084314197e-05 -4.497679583437275141e-06 -8.583656381233595312e-06 -1.361934555461630225e-04
4.654000000000000000e+03 7.802648925781250000e+01 -1.679383087158203125e+01 3.406685718800872564e-04 6.658738857368007302e-05 1.221767888637259603e-04 -1.458910410292446613e-04
4.655000000000000000e+03 7.718931579589843750e+01 -1.751985740661621094e+01 6.728908629156649113e-04 9.967575897462666035e-05 2.317699982086196542e-04 -5.138006526976823807e-04
4.656000000000000000e+03 7.657466888427734375e+01 -1.677053260803222656e+01 7.656470406800508499e-04 1.845072547439485788e-04 2.850462915375828743e-04 -1.967544667422771454e-04
4.657000000000000000e+03 7.909966278076171875e+01 -1.758989524841308594e+01 -1.923902600537985563e-04 8.434274604951497167e-06 -5.518679608940146863e-05 5.203349792282097042e-05
4.658000000000000000e+03 7.938906860351562500e+01 -1.684892654418945312e+01 7.137739157769829035e-05 3.167250542901456356e-05 3.091496910201385617e-05 -7.687230390729382634e-05
4.659000000000000000e+03 7.730204772949218750e+01 -1.677979850769042969e+01 3.638043999671936035e-04 -9.517466241959482431e-05 8.058892854023724794e-05 -5.135040555614978075e-05
4.660000000000000000e+03 7.943219757080078125e+01 -1.525699043273925781e+01 -2.575338818132877350e-03 1.299375086091458797e-03 -3.827890905085951090e-04 3.085735021159052849e-03
4.661000000000000000e+03 7.838642120361328125e+01 -1.516350746154785156e+01 -1.144215837121009827e-02 -1.606222055852413177e-02 -8.251314051449298859e-03 -1.166429836302995682e-02
4.662000000000000000e+03 7.780564117431640625e+01 -1.512424659729003906e+01 -2.743271179497241974e-02 -2.370381355285644531e-02 -1.534095779061317444e-02 -2.591495774686336517e-02
4.663000000000000000e+03 7.662574768066406250e+01 -1.525570678710937500e+01 -6.566902995109558105e-02 -1.799757778644561768e-02 -2.509998343884944916e-02 -4.066409915685653687e-02
4.664000000000000000e+03 7.725820159912109375e+01 -1.518011665344238281e+01 -3.907867521047592163e-02 -4.710145760327577591e-03 -1.313664671033620834e-02 -2.989982813596725464e-02
4.665000000000000000e+03 7.888636779785156250e+01 -1.611222648620605469e+01 6.207177881151437759e-03 -5.646767560392618179e-03 1.681231224210932851e-04 2.663638675585389137e-03
4.666000000000000000e+03 7.888313293457031250e+01 -1.558502388000488281e+01 1.628075959160923958e-03 -9.196703904308378696e-04 2.125216706190258265e-04 2.579138381406664848e-03
4.667000000000000000e+03 7.663484954833984375e+01 -1.599727630615234375e+01 -2.463964186608791351e-02 3.455051453784108162e-03 -6.355376914143562317e-03 -1.260309107601642609e-02
4.668000000000000000e+03 7.962244415283203125e+01 -1.590537452697753906e+01 1.426426344551146030e-03 5.242126062512397766e-03 2.000565640628337860e-03 2.610634313896298409e-03
4.669000000000000000e+03 7.827157592773437500e+01 -1.562149429321289062e+01 -8.334940299391746521e-03 -6.730910856276750565e-03 -4.519755486398935318e-03 -1.092008431442081928e-03
4.670000000000000000e+03 7.741748809814453125e+01 -1.606798362731933594e+01 -2.485395641997456551e-03 -8.029717020690441132e-03 -3.154533915221691132e-03 -8.707853034138679504e-03
4.671000000000000000e+03 7.816462707519531250e+01 -1.613920974731445312e+01 1.136881764978170395e-02 3.210884984582662582e-03 4.373910836875438690e-03 3.726815048139542341e-04
4.672000000000000000e+03 7.763186645507812500e+01 -1.553283691406250000e+01 -2.628366462886333466e-02 -1.021278742700815201e-02 -1.094893552362918854e-02 -1.756713166832923889e-02
4.673000000000000000e+03 7.896445465087890625e+01 -1.517584800720214844e+01 -6.191457156091928482e-03 -1.045520417392253876e-03 -2.171093132346868515e-03 3.427591873332858086e-03
4.674000000000000000e+03 7.435244750976562500e+01 -1.591604232788085938e+01 -1.486698240041732788e-01 -7.174741942435503006e-03 -4.675336927175521851e-02 -1.918805018067359924e-02
4.675000000000000000e+03 7.588006591796875000e+01 -1.523305606842041016e+01 -9.890826046466827393e-02 1.557561568915843964e-03 -2.920520864427089691e-02 -5.196654796600341797e-02
4.676000000000000000e+03 7.359722137451171875e+01 -1.514822292327880859e+01 -2.215685397386550903e-01 3.742950793821364641e-04 -6.635827571153640747e-02 -6.158409640192985535e-02
4.677000000000000000e+03 7.510590362548828125e+01 -1.594404602050781250e+01 -1.011188998818397522e-01 8.010349236428737640e-03 -2.793256565928459167e-02 -1.902722939848899841e-02
4.678000000000000000e+03 7.359909057617187500e+01 -1.588880252838134766e+01 -2.000618726015090942e-01 6.760593503713607788e-03 -5.799038335680961609e-02 -2.135507203638553619e-02
4.679000000000000000e+03 7.435808563232421875e+01 -1.517574119567871094e+01 -1.797596514225006104e-01 4.140275064855813980e-03 -5.268581584095954895e-02 -6.672918796539306641e-02
4.680000000000000000e+03 7.585942077636718750e+01 -1.597279930114746094e+01 -5.924904346466064453e-02 -7.812760770320892334e-03 -2.011854201555252075e-02 -1.796339638531208038e-02
4.681000000000000000e+03 7.511904144287109375e+01 -1.520402336120605469e+01 -1.370857954025268555e-01 -7.447829004377126694e-03 -4.336008802056312561e-02 -5.904092639684677124e-02
4.682000000000000000e+03 7.132652282714843750e+01 -1.597409629821777344e+01 -2.340175807476043701e-01 -3.210847266018390656e-03 -7.116852700710296631e-02 -2.831772202625870705e-03
4.683000000000000000e+03 7.056670379638671875e+01 -1.601350212097167969e+01 -1.964031159877777100e-01 2.519748359918594360e-02 -5.136169120669364929e-02 1.567983999848365784e-02
4.684000000000000000e+03 7.208541107177734375e+01 -1.593443489074707031e+01 -2.424524277448654175e-01 1.203296519815921783e-02 -6.912583857774734497e-02 -1.412196271121501923e-02
4.685000000000000000e+03 7.284317016601562500e+01 -1.589438438415527344e+01 -2.361951768398284912e-01 -6.761365570127964020e-03 -7.288696616888046265e-02 -2.029377222061157227e-02
4.686000000000000000e+03 7.282823944091796875e+01 -1.515415287017822266e+01 -2.541974484920501709e-01 1.296116318553686142e-02 -7.237088680267333984e-02 -4.909282922744750977e-02
4.687000000000000000e+03 7.049587249755859375e+01 -1.527619743347167969e+01 -2.919055521488189697e-01 5.028184503316879272e-02 -7.248710840940475464e-02 4.200787842273712158e-02
4.688000000000000000e+03 7.127433013916015625e+01 -1.523581504821777344e+01 -2.922746241092681885e-01 2.934593148529529572e-02 -7.887861132621765137e-02 5.998315755277872086e-03
4.689000000000000000e+03 7.205184173583984375e+01 -1.519517898559570312e+01 -2.881676852703094482e-01 1.990336924791336060e-02 -8.047930151224136353e-02 -2.454534359276294708e-02
4.690000000000000000e+03 6.817024993896484375e+01 -1.550610160827636719e+01 -1.006821766495704651e-01 -1.223134100437164307e-01 -6.689867377281188965e-02 1.348938792943954468e-01
4.691000000000000000e+03 6.846852111816406250e+01 -1.537384891510009766e+01 -1.743413060903549194e-01 -7.366096228361129761e-02 -7.440067827701568604e-02 1.427914053201675415e-01
4.692000000000000000e+03 6.969725036621093750e+01 -1.535203933715820312e+01 -2.792741060256958008e-01 1.044365484267473221e-02 -8.064913004636764526e-02 6.833116710186004639e-02
4.693000000000000000e+03 6.900823211669921875e+01 -1.536187553405761719e+01 -1.595464795827865601e-01 1.502997893840074539e-02 -4.335495084524154663e-02 1.212576851248741150e-01
4.694000000000000000e+03 6.970433807373046875e+01 -1.610097312927246094e+01 -1.054046228528022766e-01 -2.904505701735615730e-03 -3.249273821711540222e-02 3.284125402569770813e-02
4.695000000000000000e+03 6.807101440429687500e+01 -1.580119132995605469e+01 7.458490878343582153e-02 5.072700232267379761e-02 3.759357333183288574e-02 -2.129846438765525818e-02
4.696000000000000000e+03 6.868652343750000000e+01 -1.567752170562744141e+01 -7.808843255043029785e-02 -3.058446198701858521e-02 -3.260186687111854553e-02 1.238687783479690552e-01
4.697000000000000000e+03 6.877530670166015625e+01 -1.623340034484863281e+01 -3.466553986072540283e-02 -2.189329452812671661e-02 -1.696765050292015076e-02 -2.919440390542149544e-03
4.698000000000000000e+03 6.846734619140625000e+01 -1.765766716003417969e+01 8.829036378301680088e-04 1.093819853849709034e-03 5.930170300416648388e-04 -1.022549346089363098e-03
4.699000000000000000e+03 6.902794647216796875e+01 -1.774423980712890625e+01 5.699613830074667931e-04 6.169703556224703789e-04 3.560795157682150602e-04 3.826185711659491062e-04
4.700000000000000000e+03 6.989218139648437500e+01 -1.761616897583007812e+01 3.853964444715529680e-04 -4.606590664479881525e-04 -2.257878804812207818e-05 5.401215748861432076e-04
4.701000000000000000e+03 6.980416870117187500e+01 -1.688065528869628906e+01 3.906291094608604908e-04 9.245402179658412933e-04 3.945507924072444439e-04 -9.631764987716451287e-05
4.702000000000000000e+03 6.892420196533203125e+01 -1.701133537292480469e+01 -7.913875742815434933e-04 -1.193015486933290958e-03 -5.953209474682807922e-04 8.641171152703464031e-04
4.703000000000000000e+03 1.639982223510742188e+01 -2.317397296428680420e-01 4.837989062070846558e-02 -9.186534211039543152e-03 1.175800710916519165e-02 -5.952814221382141113e-02
4.704000000000000000e+03 1.798723983764648438e+01 -8.314419388771057129e-01 -3.058758676052093506e-01 -9.999413788318634033e-02 -1.217610016465187073e-01 -2.796162068843841553e-01
4.705000000000000000e+03 1.645354080200195312e+01 -9.699125885963439941e-01 -6.832212209701538086e-02 -6.035659462213516235e-02 -3.860361501574516296e-02 -1.807134002447128296e-01
4.706000000000000000e+03 1.875374794006347656e+01 -7.599936723709106445e-01 -4.387544095516204834e-01 -1.247186884284019470e-01 -1.690419316291809082e-01 -3.429951369762420654e-01
4.707000000000000000e+03 1.790756225585937500e+01 -9.563824534416198730e-02 -2.526163458824157715e-01 -2.045377530157566071e-02 -8.192103356122970581e-02 -1.143952682614326477e-01
4.708000000000000000e+03 1.866109085083007812e+01 -2.537456899881362915e-02 -4.604742825031280518e-01 -5.670177191495895386e-02 -1.551528126001358032e-01 -1.623750478029251099e-01
4.709000000000000000e+03 1.715376663208007812e+01 -1.644264459609985352e-01 -8.906359225511550903e-02 -2.833925187587738037e-02 -3.522085398435592651e-02 -8.260863274335861206e-02
4.710000000000000000e+03 1.722046470642089844e+01 -9.014146924018859863e-01 -1.763490736484527588e-01 -6.507452577352523804e-02 -7.242707908153533936e-02 -2.227842062711715698e-01
4.711000000000000000e+03 1.941230964660644531e+01 7.625918835401535034e-02 -6.797646284103393555e-01 -6.390176713466644287e-02 -2.230999022722244263e-01 -2.272894829511642456e-01
4.712000000000000000e+03 2.090952491760253906e+01 3.449267148971557617e-01 -1.182159543037414551e+00 -1.064013987779617310e-01 -3.865682780742645264e-01 -3.742493093013763428e-01
4.713000000000000000e+03 1.952174568176269531e+01 -6.559218764305114746e-01 -5.899696350097656250e-01 -1.726487725973129272e-01 -2.287855297327041626e-01 -4.034001529216766357e-01
4.714000000000000000e+03 2.106011390686035156e+01 -3.798714280128479004e-01 -9.360598921775817871e-01 -2.779984474182128906e-01 -3.642174899578094482e-01 -5.840863585472106934e-01
4.715000000000000000e+03 2.183077621459960938e+01 -2.417316585779190063e-01 -1.034362792968750000e+00 -3.956566751003265381e-01 -4.290058612823486328e-01 -6.746294498443603516e-01
4.716000000000000000e+03 2.165959548950195312e+01 4.794237911701202393e-01 -1.558162808418273926e+00 -2.262372374534606934e-01 -5.353199839591979980e-01 -5.214362740516662598e-01
4.717000000000000000e+03 2.016033744812011719e+01 2.105962187051773071e-01 -9.037243127822875977e-01 -9.722171723842620850e-02 -3.002838194370269775e-01 -2.902150154113769531e-01
4.718000000000000000e+03 2.029035186767578125e+01 -5.178933739662170410e-01 -7.634767889976501465e-01 -1.957154422998428345e-01 -2.877576649188995361e-01 -4.783027470111846924e-01
4.719000000000000000e+03 2.655191993713378906e+01 1.211927890777587891e+00 -5.742769718170166016e+00 -1.119846105575561523e+00 -2.058784723281860352e+00 2.835818290710449219e+00
4.720000000000000000e+03 2.642835426330566406e+01 1.133576512336730957e+00 -5.513936042785644531e+00 -3.796993494033813477e-01 -1.768090605735778809e+00 1.877738118171691895e+00
4.721000000000000000e+03 2.606766891479492188e+01 1.098246335983276367e+00 -3.948500156402587891e+00 1.687104254961013794e-01 -1.133937001228332520e+00 6.577162742614746094e-01
4.722000000000000000e+03 2.582571220397949219e+01 1.493316173553466797e+00 -2.918320894241333008e+00 -2.003098577260971069e-01 -9.355892539024353027e-01 1.211848139762878418e+00
4.723000000000000000e+03 2.501582145690917969e+01 5.861303806304931641e-01 -2.089272975921630859e+00 9.474774003028869629e-01 -3.425386846065521240e-01 -1.003743171691894531e+00
4.724000000000000000e+03 2.419348907470703125e+01 1.309267878532409668e+00 -2.360051393508911133e+00 -2.034856975078582764e-01 -7.690610885620117188e-01 -8.210918307304382324e-01
4.725000000000000000e+03 2.509922599792480469e+01 7.193784713745117188e-01 -2.204238891601562500e+00 8.620062470436096191e-01 -4.026698172092437744e-01 -8.758023977279663086e-01
4.726000000000000000e+03 2.335133743286132812e+01 9.742200970649719238e-01 -2.135978698730468750e+00 -2.929113209247589111e-01 -7.286670207977294922e-01 -8.574132323265075684e-01
4.727000000000000000e+03 2.246587944030761719e+01 6.890802979469299316e-01 -1.877374291419982910e+00 -3.335985541343688965e-01 -6.632918715476989746e-01 -7.343025207519531250e-01
4.728000000000000000e+03 2.265129470825195312e+01 -3.019443526864051819e-02 -1.162194013595581055e+00 -4.295703470706939697e-01 -4.775293171405792236e-01 -7.036647796630859375e-01
4.729000000000000000e+03 2.354462623596191406e+01 2.551128566265106201e-01 -1.339400768280029297e+00 -3.191598057746887207e-01 -4.975681900978088379e-01 -8.044584989547729492e-01
4.730000000000000000e+03 2.584380340576171875e+01 1.124831318855285645e+00 -3.624697208404541016e+00 6.587898731231689453e-01 -8.897721767425537109e-01 1.062974035739898682e-01
4.731000000000000000e+03 2.487414550781250000e+01 4.951079189777374268e-01 -1.982224822044372559e+00 7.849145531654357910e-01 -3.591930866241455078e-01 -1.010582447052001953e+00
4.732000000000000000e+03 2.494935035705566406e+01 1.589968442916870117e+00 -1.971380829811096191e+00 2.774890661239624023e-01 -5.081675052642822266e-01 -2.711442708969116211e-01
4.733000000000000000e+03 2.549102401733398438e+01 1.621851563453674316e+00 -1.894178748130798340e+00 2.613910436630249023e-01 -4.898363351821899414e-01 4.290426075458526611e-01
4.734000000000000000e+03 2.559309387207031250e+01 1.118039727210998535e+00 -3.452674865722656250e+00 9.583801627159118652e-01 -7.482883930206298828e-01 -1.165711432695388794e-01
4.735000000000000000e+03 2.540032577514648438e+01 1.009757041931152344e+00 -3.110609531402587891e+00 9.802102446556091309e-01 -6.391197443008422852e-01 -2.846029102802276611e-01
4.736000000000000000e+03 2.625621414184570312e+01 1.101973772048950195e+00 -4.797875881195068359e+00 -3.091464340686798096e-01 -1.532106637954711914e+00 1.383505344390869141e+00
4.737000000000000000e+03 2.504071807861328125e+01 1.115116357803344727e+00 -2.879375457763671875e+00 7.794069051742553711e-01 -6.299905776977539062e-01 -3.078332245349884033e-01
4.738000000000000000e+03 2.523330116271972656e+01 8.552555441856384277e-01 -2.539549350738525391e+00 9.016235470771789551e-01 -4.913777709007263184e-01 -5.844048261642456055e-01
4.739000000000000000e+03 2.457161521911621094e+01 8.719542026519775391e-01 -2.020713806152343750e+00 3.574419319629669189e-01 -4.989815652370452881e-01 -5.734017491340637207e-01
4.740000000000000000e+03 2.627415084838867188e+01 1.360334515571594238e+00 -4.322408676147460938e+00 -1.240101456642150879e+00 -1.668753027915954590e+00 2.069683790206909180e+00
4.741000000000000000e+03 2.609403038024902344e+01 1.311385989189147949e+00 -4.207430839538574219e+00 -5.269481539726257324e-01 -1.420313715934753418e+00 1.448205232620239258e+00
4.742000000000000000e+03 2.439571952819824219e+01 4.309497177600860596e-01 -1.497272729873657227e+00 1.949179321527481079e-01 -3.907064497470855713e-01 -8.143083453178405762e-01
4.743000000000000000e+03 2.488675880432128906e+01 6.897756457328796387e-01 -2.110870599746704102e+00 7.826026678085327148e-01 -3.984804153442382812e-01 -9.699768424034118652e-01
4.744000000000000000e+03 2.337566375732421875e+01 2.629750251770019531e+00 1.204583986691432074e-05 1.101940506487153471e-05 6.919573479535756633e-06 -1.571319330651022028e-06
4.745000000000000000e+03 2.201377296447753906e+01 2.125266075134277344e+00 5.119004981679609045e-06 1.771004281181376427e-05 6.848714747320627794e-06 -1.996870878429035656e-06
4.746000000000000000e+03 2.225197982788085938e+01 1.423350930213928223e+00 -2.695098146432428621e-06 -1.398845506628276780e-05 -5.005065759178251028e-06 1.371928988191939425e-06
4.747000000000000000e+03 2.309097290039062500e+01 1.672813296318054199e+00 1.858753421402070671e-06 8.741440979065373540e-06 3.180058229190763086e-06 -2.668635488589643501e-06
4.748000000000000000e+03 2.428779029846191406e+01 2.625434398651123047e+00 8.462402547593228519e-06 -4.049461495014838874e-06 1.323882315773516893e-06 -5.304716523824026808e-06
4.749000000000000000e+03 2.478089141845703125e+01 2.056442260742187500e+00 2.919385906352545135e-06 3.571269417079747654e-06 1.947196551554952748e-06 2.052536274277372286e-06
4.750000000000000000e+03 2.395736885070800781e+01 2.308834791183471680e+00 -1.723554487398359925e-05 -5.267653705232078210e-06 -6.750959528289968148e-06 -1.911826075229328126e-06
4.751000000000000000e+03 2.392651367187500000e+01 2.926619052886962891e+00 8.411047019762918353e-06 -2.130537268385523930e-06 1.884152766251645517e-06 7.047683084238087758e-06
4.752000000000000000e+03 2.456351280212402344e+01 2.352871417999267578e+00 -9.568580026098061353e-06 1.733493490974069573e-06 -2.350525846850359812e-06 -3.806741233347565867e-06
4.753000000000000000e+03 2.273927497863769531e+01 2.339991807937622070e+00 -7.083790478645823896e-06 -1.240318124473560601e-05 -5.846091426064958796e-06 3.170302989019546658e-06
4.754000000000000000e+03 2.395885276794433594e+01 1.871361255645751953e+00 3.216645609427359886e-06 -6.715114523103693500e-06 -1.049540742315002717e-06 1.229254166901228018e-06
4.755000000000000000e+03 2.075237083435058594e+01 1.106616377830505371e+00 -3.698437922139419243e-06 -2.580901127657853067e-05 -8.852234714140649885e-06 3.431876166359870695e-06
4.756000000000000000e+03 2.060178184509277344e+01 1.831414580345153809e+00 2.050457396762794815e-06 2.439081436023116112e-05 7.932381777209229767e-06 -1.307134425587719306e-06
4.757000000000000000e+03 2.130817413330078125e+01 1.960395336151123047e+00 -9.648966852182638831e-07 -2.080993544950615615e-05 -6.532449788210215047e-06 1.397357038968038978e-07
4.758000000000000000e+03 1.918785858154296875e+01 1.579434752464294434e+00 7.000531695666722953e-06 3.382387876627035439e-05 1.224732295668218285e-05 1.456387053622165695e-06
4.759000000000000000e+03 1.989505195617675781e+01 1.704050064086914062e+00 -1.741620963002787903e-06 -2.535896783228963614e-05 -8.130176865961402655e-06 3.284637614342500456e-06
4.760000000000000000e+03 1.929729461669921875e+01 8.472537398338317871e-01 -3.496919362078187987e-06 -3.250569352530874312e-05 -1.080078345694346353e-05 4.577677373163169250e-06
4.761000000000000000e+03 2.147934150695800781e+01 1.239288687705993652e+00 -9.052785117091843858e-07 2.104089071508497000e-05 6.040683274477487430e-06 -3.738093710126122460e-06
4.762000000000000000e+03 2.002506446838378906e+01 9.755603671073913574e-01 -6.534564818139187992e-07 2.982592377520631999e-05 8.751740097068250179e-06 -4.607572918757796288e-06
4.763000000000000000e+03 1.701650238037109375e+01 1.350294589996337891e+00 1.066467666532844305e-05 -3.313421257189475000e-05 -6.740860499121481553e-06 1.636280103411991149e-05
4.764000000000000000e+03 1.708320045471191406e+01 6.133062839508056641e-01 1.540356061013881117e-05 4.456860551727004349e-05 1.799164965632371604e-05 2.053047865047119558e-06
4.765000000000000000e+03 1.634315681457519531e+01 5.465459823608398438e-01 2.116317045874893665e-05 -4.436245944816619158e-05 -6.959786333027295768e-06 1.048071771947434172e-05
4.766000000000000000e+03 1.782329559326171875e+01 6.808430552482604980e-01 4.427600288181565702e-06 -3.882848977809771895e-05 -1.032026648317696527e-05 7.397691661026328802e-06
4.767000000000000000e+03 1.847070503234863281e+01 1.483781576156616211e+00 1.257284679923031945e-06 -2.912204399763140827e-05 -8.359427738469094038e-06 7.962735253386199474e-06
4.768000000000000000e+03 1.856336212158203125e+01 7.491624951362609863e-01 2.804506266329553910e-06 3.763838321901857853e-05 1.213286668644286692e-05 -1.703763246041489765e-06
4.769000000000000000e+03 1.628943824768066406e+01 1.284718871116638184e+00 2.924382533819880337e-05 4.623339555109851062e-05 2.264316754008177668e-05 1.581901960889808834e-05
4.770000000000000000e+03 1.774361801147460938e+01 1.416646718978881836e+00 1.283115852857008576e-05 4.060890569235198200e-05 1.603201963007450104e-05 7.818683116056490690e-06
4.771000000000000000e+03 1.408120155334472656e+01 1.187072157859802246e+00 5.450738899526186287e-05 -4.269205237505957484e-05 3.544601895555388182e-06 3.212758019799366593e-05
4.772000000000000000e+03 1.410851097106933594e+01 4.475762248039245605e-01 7.353987894020974636e-05 5.183585381018929183e-05 3.761272091651335359e-05 9.116685760091058910e-06
4.773000000000000000e+03 1.336430931091308594e+01 4.183164834976196289e-01 8.708857058081775904e-05 -5.177357888896949589e-05 1.059449823515024036e-05 1.439145762560656294e-05
4.774000000000000000e+03 1.485382461547851562e+01 4.748390913009643555e-01 5.114114173920825124e-05 -4.845248986384831369e-05 8.065956649261352140e-07 1.386077656206907704e-05
4.775000000000000000e+03 1.555697250366210938e+01 1.239178419113159180e+00 2.994811620737891644e-05 -3.764758002944290638e-05 -2.309838691871846095e-06 2.537279578973539174e-05
4.776000000000000000e+03 1.560021686553955078e+01 5.002670884132385254e-01 3.805700544035062194e-05 4.921141589875333011e-05 2.618052712932694703e-05 6.151884917926508933e-06
4.777000000000000000e+03 1.334496879577636719e+01 1.158104777336120605e+00 8.419166988460347056e-05 4.691210415330715477e-05 3.933113111997954547e-05 2.541737922001630068e-05
4.778000000000000000e+03 1.481854820251464844e+01 1.214042663574218750e+00 5.196955316932871938e-05 4.768773214891552925e-05 2.989718632306903601e-05 2.273830614285543561e-05
4.779000000000000000e+03 1.111325168609619141e+01 1.138490676879882812e+00 1.120045781135559082e-04 -5.007974323234520853e-05 1.857745155575685203e-05 2.909637260017916560e-05
4.780000000000000000e+03 1.186833381652832031e+01 4.020517766475677490e-01 1.279783173231408000e-04 -5.301005148794502020e-05 2.249047975055873394e-05 1.297317612625192851e-05
4.781000000000000000e+03 1.037295722961425781e+01 3.924405574798583984e-01 1.597975351614877582e-04 -5.312652501743286848e-05 3.200130231562070549e-05 9.041094926942605525e-06
4.782000000000000000e+03 1.260390949249267578e+01 1.143149375915527344e+00 8.647885988466441631e-05 -4.742168312077410519e-05 1.171715302916709334e-05 3.367005410837009549e-05
4.783000000000000000e+03 1.261756992340087891e+01 4.032067656517028809e-01 1.117542560677975416e-04 5.209353548707440495e-05 4.915433601127006114e-05 9.147576747636776417e-06
4.784000000000000000e+03 1.036947441101074219e+01 1.132432341575622559e+00 1.402493217028677464e-04 3.861913501168601215e-05 5.366053665056824684e-05 1.044571672537131235e-05
4.785000000000000000e+03 1.185806560516357422e+01 1.142010807991027832e+00 1.140047825174406171e-04 4.367137444205582142e-05 4.730284854304045439e-05 2.198166657763067633e-05
4.786000000000000000e+03 1.112012767791748047e+01 3.985152244567871094e-01 1.514325704192742705e-04 5.154788959771394730e-05 6.089413727750070393e-05 6.479204785136971623e-06
4.787000000000000000e+03 8.771651268005371094e+00 3.881228864192962646e-01 1.744763430906459689e-04 -4.489789716899394989e-05 3.887353159370832145e-05 2.153132527382695116e-06
4.788000000000000000e+03 8.818146705627441406e+00 1.128122925758361816e+00 1.529300643596798182e-04 2.874513120332267135e-05 5.450255775940604508e-05 -7.252159775816835463e-06
4.789000000000000000e+03 7.953170776367187500e+00 3.921383917331695557e-01 1.792594266589730978e-04 3.722329711308702826e-05 6.494481931440532207e-05 -3.963139988627517596e-06
4.790000000000000000e+03 6.319846630096435547e+00 3.892590403556823730e-01 1.534537732368335128e-04 2.680139914446044713e-05 5.407655407907441258e-05 -8.267837074527051300e-06
4.791000000000000000e+03 5.502897262573242188e+00 3.910058438777923584e-01 1.202890707645565271e-04 -2.453455454087816179e-05 2.872635559469927102e-05 -1.201030408992664889e-05
4.792000000000000000e+03 4.685476779937744141e+00 3.909447193145751953e-01 1.046307079377584159e-04 1.959510154847521335e-05 3.726774230017326772e-05 -1.110781249735737219e-05
4.793000000000000000e+03 3.050973415374755859e+00 3.907458484172821045e-01 4.413196438690647483e-05 1.341654024145100266e-05 1.726455229800194502e-05 -1.381061520078219473e-05
4.794000000000000000e+03 2.234469175338745117e+00 3.876248300075531006e-01 3.550798282958567142e-05 5.058039732830366120e-06 1.216980672325007617e-05 9.747074727783910930e-06
4.795000000000000000e+03 2.538473606109619141e+00 1.127624869346618652e+00 1.360261103400262073e-05 8.084172804956324399e-06 6.506035333586623892e-06 -5.305106242303736508e-05
4.796000000000000000e+03 1.768125653266906738e+00 1.127171397209167480e+00 4.398386590764857829e-05 -2.259341727040009573e-06 1.251735739060677588e-05 2.586133268778212368e-05
4.797000000000000000e+03 1.067988038063049316e+00 1.148616075515747070e+00 -6.950501119717955589e-05 6.933306576684117317e-05 -5.158322124998448999e-08 -4.971694943378679454e-05
4.798000000000000000e+03 6.996063590049743652e-01 4.086160361766815186e-01 1.328791113337501884e-04 9.908005449688062072e-05 6.958775338716804981e-05 1.111500023398548365e-04
4.799000000000000000e+03 3.732481598854064941e-01 9.636608362197875977e-01 -1.282360171899199486e-04 -7.639677642146125436e-05 -6.138983735581859946e-05 -6.297863728832453489e-05
4.800000000000000000e+03 3.322789192199707031e+00 1.130745887756347656e+00 5.125065217725932598e-05 7.710634235991165042e-06 1.768838592397514731e-05 -1.310635434492724016e-05
4.801000000000000000e+03 3.868146419525146484e+00 3.889868557453155518e-01 6.370309711201116443e-05 -1.732547571009490639e-05 1.391328714817063883e-05 -1.435450212738942355e-05
4.802000000000000000e+03 5.678146839141845703e+00 1.131005883216857910e+00 1.201933555421419442e-04 1.137279195972951129e-05 3.946984361391514540e-05 -4.081877341377548873e-05
4.803000000000000000e+03 7.247090816497802734e+00 1.132560849189758301e+00 1.472364674555137753e-04 2.033099372056312859e-05 5.027023871662095189e-05 -2.645697350089903921e-05
4.804000000000000000e+03 7.136218547821044922e+00 3.925608992576599121e-01 1.608299644431099296e-04 -3.455520345596596599e-05 3.788242975133471191e-05 -5.472668362926924601e-06
4.805000000000000000e+03 8.031854629516601562e+00 1.132138371467590332e+00 1.313269749516621232e-04 -3.904032564605586231e-05 2.768599551927763969e-05 3.780617134907515720e-06
4.806000000000000000e+03 9.590107917785644531e+00 3.879971206188201904e-01 1.766411733115091920e-04 4.490378705668263137e-05 6.646348629146814346e-05 1.948606268342700787e-06
4.807000000000000000e+03 9.604414939880371094e+00 1.127997159957885742e+00 1.306790363742038608e-04 -4.557367356028407812e-05 2.553160993556957692e-05 1.834710019466001540e-05
4.808000000000000000e+03 6.462907791137695312e+00 1.129258990287780762e+00 1.114485057769343257e-04 -2.772081097646150738e-05 2.511830825824290514e-05 -1.324595723417587578e-05
4.809000000000000000e+03 4.892915248870849609e+00 1.130944728851318359e+00 7.671389903407543898e-05 -1.182780215458478779e-05 1.946582960954401642e-05 -2.276336272188927978e-05
4.810000000000000000e+03 4.107773303985595703e+00 1.128986835479736328e+00 8.033333870116621256e-05 1.581960418661765289e-06 2.457458867866080254e-05 -4.962164894095622003e-05
4.811000000000000000e+03 1.431932568550109863e+00 3.871713578701019287e-01 -1.198555582959670573e-05 -3.185313471476547420e-05 -1.315160716330865398e-05 -4.377084042062051594e-05
4.812000000000000000e+03 1.338494110107421875e+01 -3.624081611633300781e-01 3.535805344581604004e-01 -8.701660408405587077e-05 1.060480624437332153e-01 -6.629719398915767670e-03
4.813000000000000000e+03 1.492772197723388672e+01 -1.047161340713500977e+00 9.915892034769058228e-02 -3.719507902860641479e-02 1.858915202319622040e-02 -1.020660027861595154e-01
4.814000000000000000e+03 1.340428161621093750e+01 -1.102196455001831055e+00 1.978081315755844116e-01 -2.160506695508956909e-02 5.286091938614845276e-02 -4.734121635556221008e-02
4.815000000000000000e+03 1.489244556427001953e+01 -3.079577088356018066e-01 2.445246428251266479e-01 -3.482705214992165565e-03 7.231257855892181396e-02 -2.674811147153377533e-02
4.816000000000000000e+03 1.568929195404052734e+01 -1.018365263938903809e+00 2.245775610208511353e-02 -3.788360580801963806e-02 -4.627754911780357361e-03 -1.375145018100738525e-01
4.817000000000000000e+03 1.564604759216308594e+01 -2.794539332389831543e-01 1.605449020862579346e-01 -1.474918890744447708e-02 4.373871535062789917e-02 -4.201801866292953491e-02
4.818000000000000000e+03 1.413872909545898438e+01 -3.356079757213592529e-01 3.068929016590118408e-01 -9.374862536787986755e-03 8.925541490316390991e-02 -1.512783952057361603e-02
4.819000000000000000e+03 1.416603755950927734e+01 -1.075103878974914551e+00 1.580925732851028442e-01 -2.268987149000167847e-02 4.062081128358840942e-02 -7.067813724279403687e-02
4.820000000000000000e+03 1.037684440612792969e+01 -3.884835243225097656e-01 3.679169416427612305e-01 -1.002491568215191364e-03 1.100743338465690613e-01 1.028120145201683044e-02
4.821000000000000000e+03 1.189073276519775391e+01 -1.121461629867553711e+00 2.460150867700576782e-01 -1.424500811845064163e-02 6.953102350234985352e-02 -5.634502042084932327e-03
4.822000000000000000e+03 1.038032817840576172e+01 -1.128475308418273926e+00 2.501479685306549072e-01 -9.071765467524528503e-03 7.232286036014556885e-02 1.965941116213798523e-02
4.823000000000000000e+03 1.264584636688232422e+01 -1.117530822753906250e+00 2.270713150501251221e-01 -1.193353440612554550e-02 6.454133242368698120e-02 -2.202530205249786377e-02
4.824000000000000000e+03 1.188046455383300781e+01 -3.815026283264160156e-01 3.841491341590881348e-01 -1.195517950691282749e-03 1.148860901594161987e-01 1.930862199515104294e-03
4.825000000000000000e+03 1.263218593597412109e+01 -3.775882422924041748e-01 3.786373734474182129e-01 -3.695394610986113548e-03 1.124825924634933472e-01 -3.049839287996292114e-03
4.826000000000000000e+03 1.112868118286132812e+01 -3.851337432861328125e-01 3.800769448280334473e-01 -2.950018737465143204e-03 1.131380796432495117e-01 6.117326207458972931e-03
4.827000000000000000e+03 1.113555717468261719e+01 -1.125109195709228516e+00 2.528623640537261963e-01 -8.908640593290328979e-03 7.318612188100814819e-02 9.640676900744438171e-03
4.828000000000000000e+03 9.624593734741210938e+00 -1.131355285644531250e+00 2.424596250057220459e-01 -5.015010945498943329e-03 7.123338431119918823e-02 2.984528429806232452e-02
4.829000000000000000e+03 9.636611938476562500e+00 -3.913553059101104736e-01 3.476372063159942627e-01 -1.218046178109943867e-03 1.039257496595382690e-01 1.245901547372341156e-02
4.830000000000000000e+03 8.908035278320312500e+00 -3.932945430278778076e-01 3.225014209747314453e-01 -9.699809597805142403e-04 9.645942598581314087e-02 1.467756647616624832e-02
4.831000000000000000e+03 8.179648399353027344e+00 -3.947979807853698730e-01 2.934681475162506104e-01 -5.878806696273386478e-04 8.786407858133316040e-02 1.613482274115085602e-02
4.832000000000000000e+03 7.451354026794433594e+00 -3.965992927551269531e-01 2.624479234218597412e-01 -6.478471332229673862e-04 7.854002714157104492e-02 1.741961017251014709e-02
4.833000000000000000e+03 6.723036766052246094e+00 -3.981454968452453613e-01 2.290294468402862549e-01 -2.025820140261203051e-04 6.864805519580841064e-02 1.823738962411880493e-02
4.834000000000000000e+03 5.994731426239013672e+00 -3.993945717811584473e-01 1.948690414428710938e-01 -2.645161002874374390e-04 5.838136002421379089e-02 1.878417655825614929e-02
4.835000000000000000e+03 5.266466140747070312e+00 -4.014726877212524414e-01 1.594998389482498169e-01 9.155809675576165318e-05 4.787741973996162415e-02 1.897606067359447479e-02
4.836000000000000000e+03 4.538172721862792969e+00 -4.045463800430297852e-01 1.248107478022575378e-01 3.857665287796407938e-04 3.755895420908927917e-02 1.872204616665840149e-02
4.837000000000000000e+03 3.810027122497558594e+00 -4.076895117759704590e-01 9.084733575582504272e-02 9.644003584980964661e-04 2.754352055490016937e-02 1.759081520140171051e-02
4.838000000000000000e+03 3.082192897796630859e+00 -4.105251729488372803e-01 6.015368551015853882e-02 1.461161882616579533e-03 1.848445460200309753e-02 1.563362218439579010e-02
4.839000000000000000e+03 2.355662584304809570e+00 -4.111475944519042969e-01 3.347750008106231689e-02 3.003800753504037857e-03 1.094438973814249039e-02 1.205393765121698380e-02
4.840000000000000000e+03 1.642585277557373047e+00 -4.047921001911163330e-01 1.443216018378734589e-02 2.318346872925758362e-03 5.025152117013931274e-03 7.014233153313398361e-03
4.841000000000000000e+03 6.508445143699645996e-01 -1.120625138282775879e+00 4.743652883917093277e-03 6.141523830592632294e-03 3.265553154051303864e-03 5.858565215021371841e-03
4.842000000000000000e+03 8.868407249450683594e+00 -1.133294582366943359e+00 2.277754843235015869e-01 -5.025203805416822433e-03 6.682508438825607300e-02 3.560420870780944824e-02
4.843000000000000000e+03 8.112410545349121094e+00 -1.134797930717468262e+00 2.107982933521270752e-01 -3.041171468794345856e-03 6.232713907957077026e-02 4.128802940249443054e-02
4.844000000000000000e+03 7.356505870819091797e+00 -1.136599302291870117e+00 1.886886954307556152e-01 -2.411805093288421631e-03 5.588306486606597900e-02 4.445721954107284546e-02
4.845000000000000000e+03 6.600578308105468750e+00 -1.138145565986633301e+00 1.663648337125778198e-01 -1.391549478285014629e-03 4.949198290705680847e-02 4.730798304080963135e-02
4.846000000000000000e+03 5.844663143157958984e+00 -1.139394640922546387e+00 1.409960091114044189e-01 -6.768811726942658424e-04 4.209573939442634583e-02 4.859109222888946533e-02
4.847000000000000000e+03 5.088787555694580078e+00 -1.141472697257995605e+00 1.166452839970588684e-01 8.106368477456271648e-04 3.523677587509155273e-02 4.906223341822624207e-02
4.848000000000000000e+03 4.332883834838867188e+00 -1.144546389579772949e+00 9.114421159029006958e-02 2.624046290293335915e-03 2.813047915697097778e-02 4.720774665474891663e-02
4.849000000000000000e+03 3.577128171920776367e+00 -1.147689461708068848e+00 6.912262737751007080e-02 3.900543088093400002e-03 2.190694957971572876e-02 4.430726543068885803e-02
4.850000000000000000e+03 2.821683883666992188e+00 -1.150525212287902832e+00 4.691108688712120056e-02 7.242723368108272552e-03 1.624614372849464417e-02 3.888811171054840088e-02
4.851000000000000000e+03 2.067543268203735352e+00 -1.151147603988647461e+00 2.853526547551155090e-02 1.134308427572250366e-02 1.196350529789924622e-02 3.047057427465915680e-02
4.852000000000000000e+03 1.326855897903442383e+00 -1.144792079925537109e+00 1.190915796905755997e-02 1.191113609820604324e-02 7.146088406443595886e-03 1.729510910809040070e-02
4.853000000000000000e+03 9.941840171813964844e-01 -3.806251585483551025e-01 3.387996461242437363e-03 1.769766560755670071e-03 1.547328894957900047e-03 2.911813324317336082e-03
4.854000000000000000e+03 3.480942845344543457e-01 -5.610816478729248047e-01 2.236190048279240727e-04 7.219410617835819721e-04 2.836680214386433363e-04 3.604065568652004004e-04
4.855000000000000000e+03 2.623828697204589844e+01 -5.017127990722656250e-01 4.076982498168945312e+00 1.432602167129516602e+00 1.652875304222106934e+00 1.212403535842895508e+00
4.856000000000000000e+03 2.623249626159667969e+01 -4.830971956253051758e-01 3.589560031890869141e+00 1.587993383407592773e+00 1.553266048431396484e+00 1.790251016616821289e+00
4.857000000000000000e+03 2.622318840026855469e+01 -4.659676551818847656e-01 2.963544130325317383e+00 2.441826343536376953e+00 1.621611118316650391e+00 2.210912466049194336e+00
4.858000000000000000e+03 2.621071815490722656e+01 -4.509815871715545654e-01 3.495809793472290039e+00 3.805724382400512695e+00 2.190460205078125000e+00 1.900558590888977051e+00
4.859000000000000000e+03 2.619556617736816406e+01 -4.387140870094299316e-01 1.792705416679382324e+00 4.345443248748779297e+00 1.841444611549377441e+00 1.895335793495178223e+00
4.860000000000000000e+03 2.617831420898437500e+01 -4.296358823776245117e-01 2.671020269393920898e+00 5.302659988403320312e+00 2.392104148864746094e+00 1.421474575996398926e+00
4.861000000000000000e+03 2.615962219238281250e+01 -4.240954220294952393e-01 1.352939367294311523e+00 5.534537792205810547e+00 2.066243171691894531e+00 6.210649013519287109e-01
4.862000000000000000e+03 2.614020919799804688e+01 -4.223052561283111572e-01 1.964042663574218750e+00 5.902131080627441406e+00 2.359852075576782227e+00 1.988992840051651001e-01
4.863000000000000000e+03 2.612081909179687500e+01 -4.243341088294982910e-01 1.533148646354675293e+00 5.459674358367919922e+00 2.097846984863281250e+00 -6.615627408027648926e-01
4.864000000000000000e+03 2.610219764709472656e+01 -4.301041364669799805e-01 2.063207864761352539e+00 5.402628421783447266e+00 2.239750862121582031e+00 -9.209355711936950684e-01
4.865000000000000000e+03 2.608505821228027344e+01 -4.393938779830932617e-01 2.234708786010742188e+00 4.652985572814941406e+00 2.066308259963989258e+00 -1.357537627220153809e+00
4.866000000000000000e+03 2.607005882263183594e+01 -4.518468976020812988e-01 2.702868223190307617e+00 4.395076274871826172e+00 2.129383325576782227e+00 -1.382086277008056641e+00
4.867000000000000000e+03 2.605777359008789062e+01 -4.669852256774902344e-01 3.026613473892211914e+00 3.768791913986206055e+00 2.038621664047241211e+00 -1.343259453773498535e+00
4.868000000000000000e+03 2.604867744445800781e+01 -4.842279851436614990e-01 3.411708116531372070e+00 3.547920703887939453e+00 2.087888717651367188e+00 -1.095667958259582520e+00
4.869000000000000000e+03 2.604311561584472656e+01 -5.029134154319763184e-01 3.599341630935668945e+00 3.225448608398437500e+00 2.047436952590942383e+00 -7.535661458969116211e-01
4.870000000000000000e+03 2.604130363464355469e+01 -5.223245024681091309e-01 3.715462446212768555e+00 3.232084989547729492e+00 2.084264278411865234e+00 -3.277131021022796631e-01
4.871000000000000000e+03 2.604331207275390625e+01 -5.417163372039794922e-01 3.628399372100830078e+00 3.338336944580078125e+00 2.090020895004272461e+00 1.131603941321372986e-01
4.872000000000000000e+03 2.604906082153320312e+01 -5.603447556495666504e-01 3.355134248733520508e+00 3.612420320510864258e+00 2.090266227722167969e+00 5.131434798240661621e-01
4.873000000000000000e+03 2.605833053588867188e+01 -5.774948596954345703e-01 2.977143049240112305e+00 4.068567276000976562e+00 2.113713026046752930e+00 7.669524550437927246e-01
4.874000000000000000e+03 2.607076835632324219e+01 -5.925084948539733887e-01 2.394083976745605469e+00 4.549479961395263672e+00 2.083069324493408203e+00 8.880527615547180176e-01
4.875000000000000000e+03 2.608589172363281250e+01 -6.048095226287841797e-01 1.883707880973815918e+00 5.075387954711914062e+00 2.087728738784790039e+00 7.766602039337158203e-01
4.876000000000000000e+03 2.610312461853027344e+01 -6.139258742332458496e-01 1.273724436759948730e+00 5.480358600616455078e+00 2.026224851608276367e+00 4.805081486701965332e-01
4.877000000000000000e+03 2.612180519104003906e+01 -6.195077300071716309e-01 8.717464804649353027e-01 5.744700431823730469e+00 1.984934091567993164e+00 2.282659150660037994e-02
4.878000000000000000e+03 2.614121246337890625e+01 -6.213409304618835449e-01 5.527317523956298828e-01 5.766045570373535156e+00 1.895633220672607422e+00 -5.513862967491149902e-01
4.879000000000000000e+03 2.616060638427734375e+01 -6.193549633026123047e-01 4.394730031490325928e-01 5.546213150024414062e+00 1.795705914497375488e+00 -1.139463782310485840e+00
4.880000000000000000e+03 2.617924118041992188e+01 -6.136261820793151855e-01 4.865465164184570312e-01 5.078666687011718750e+00 1.669564008712768555e+00 -1.669282674789428711e+00
4.881000000000000000e+03 2.619640159606933594e+01 -6.043744087219238281e-01 6.615487337112426758e-01 4.398556232452392578e+00 1.518031477928161621e+00 -2.072577238082885742e+00
4.882000000000000000e+03 2.621142959594726562e+01 -5.919546484947204590e-01 9.187959432601928711e-01 3.582586526870727539e+00 1.350414752960205078e+00 -2.290432929992675781e+00
4.883000000000000000e+03 2.622374725341796875e+01 -5.768435597419738770e-01 1.157942295074462891e+00 2.680372714996337891e+00 1.151494503021240234e+00 -2.309748411178588867e+00
4.884000000000000000e+03 2.623288345336914062e+01 -5.596209764480590820e-01 1.389312624931335449e+00 1.790573477745056152e+00 9.539658427238464355e-01 -2.090997457504272461e+00
4.885000000000000000e+03 2.623848533630371094e+01 -5.409478545188903809e-01 1.455160975456237793e+00 9.467462897300720215e-01 7.205721735954284668e-01 -1.687053203582763672e+00
4.886000000000000000e+03 2.624034118652343750e+01 -5.215408205986022949e-01 1.440318822860717773e+00 2.738938927650451660e-01 5.142638087272644043e-01 -7.241207361221313477e-01
