# el_label, x, y, sXX, sYY, sZZ, sXY
1.000000000000000000e+00 1.570236206054687500e+01 8.243887871503829956e-02 -2.880218982696533203e+00 -2.429751396179199219e+00 -1.592991113662719727e+00 -2.469323158264160156e+00
2.000000000000000000e+00 1.550530433654785156e+01 5.440777912735939026e-02 1.058669090270996094e+00 9.002269506454467773e-01 5.876688361167907715e-01 5.996984243392944336e-01
3.000000000000000000e+00 1.530824756622314453e+01 2.637667767703533173e-02 2.207572907209396362e-01 -4.020875990390777588e-01 -5.439909175038337708e-02 1.306601241230964661e-02
4.000000000000000000e+00 1.511118984222412109e+01 -1.654420047998428345e-03 -5.007826723158359528e-03 2.255459427833557129e-01 6.616143137216567993e-02 1.514288485050201416e-01
5.000000000000000000e+00 1.571620368957519531e+01 2.569812722504138947e-02 9.909440040588378906e+00 -2.078796863555908203e+00 2.349192857742309570e+00 1.742406487464904785e+00
6.000000000000000000e+00 1.552837371826171875e+01 -4.016013815999031067e-02 4.206666946411132812e+00 2.726418972015380859e-01 1.343792557716369629e+00 1.100464701652526855e+00
7.000000000000000000e+00 1.534054374694824219e+01 -1.060184016823768616e-01 4.070854187011718750e+00 7.762355804443359375e-01 1.454126954078674316e+00 1.803871989250183105e+00
8.000000000000000000e+00 1.515271377563476562e+01 -1.718766689300537109e-01 3.146351814270019531e+00 2.093792259693145752e-01 1.006719350814819336e+00 1.197279691696166992e+00
9.000000000000000000e+00 1.574082660675048828e+01 -2.726230956614017487e-02 1.386633872985839844e+01 2.532499790191650391e+00 4.919651508331298828e+00 7.576844692230224609e+00
1.000000000000000000e+01 1.556941127777099609e+01 -1.284275352954864502e-01 8.837145805358886719e+00 1.436598777770996094e+00 3.082123517990112305e+00 4.425448417663574219e+00
1.100000000000000000e+01 1.539799690246582031e+01 -2.295927554368972778e-01 6.250388145446777344e+00 1.864128708839416504e+00 2.434355020523071289e+00 3.457126855850219727e+00
1.200000000000000000e+01 1.522658252716064453e+01 -3.307579755783081055e-01 5.375362396240234375e+00 1.746869087219238281e+00 2.136669397354125977e+00 3.304665565490722656e+00
1.300000000000000000e+01 1.577528858184814453e+01 -7.441578805446624756e-02 1.489883136749267578e+01 8.632710456848144531e+00 7.059462547302246094e+00 1.192811012268066406e+01
1.400000000000000000e+01 1.562684822082519531e+01 -2.070166617631912231e-01 9.941540718078613281e+00 5.322072505950927734e+00 4.579083919525146484e+00 7.745179176330566406e+00
1.500000000000000000e+01 1.547840881347656250e+01 -3.396175503730773926e-01 7.921611309051513672e+00 4.293044090270996094e+00 3.664396524429321289e+00 6.103011131286621094e+00
1.600000000000000000e+01 1.532996940612792969e+01 -4.722184240818023682e-01 6.315648078918457031e+00 3.847291231155395508e+00 3.048881769180297852e+00 5.182536602020263672e+00
1.700000000000000000e+01 1.581827068328857422e+01 -1.139578819274902344e-01 1.313269996643066406e+01 1.612912368774414062e+01 8.778547286987304688e+00 1.434427165985107422e+01
1.800000000000000000e+01 1.569848632812500000e+01 -2.729201614856719971e-01 9.692852973937988281e+00 1.038917541503906250e+01 6.024608612060546875e+00 1.004576492309570312e+01
1.900000000000000000e+01 1.557870197296142578e+01 -4.318824112415313721e-01 7.619551181793212891e+00 8.174078941345214844e+00 4.738089084625244141e+00 7.983190059661865234e+00
2.000000000000000000e+01 1.545891761779785156e+01 -5.908446907997131348e-01 6.422616004943847656e+00 6.986459732055664062e+00 4.022722721099853516e+00 6.964962959289550781e+00
2.100000000000000000e+01 1.586812973022460938e+01 -1.443754136562347412e-01 1.066512775421142578e+01 2.370457267761230469e+01 1.031091022491455078e+01 1.448918056488037109e+01
2.200000000000000000e+01 1.578158473968505859e+01 -3.236160576343536377e-01 8.080038070678710938e+00 1.605459403991699219e+01 7.240389823913574219e+00 1.065611362457275391e+01
2.300000000000000000e+01 1.569503879547119141e+01 -5.028566718101501465e-01 6.650064945220947266e+00 1.273040676116943359e+01 5.814141273498535156e+00 8.862227439880371094e+00
2.400000000000000000e+01 1.560849285125732422e+01 -6.820973157882690430e-01 5.418025016784667969e+00 1.080543708801269531e+01 4.867038726806640625e+00 7.611882686614990234e+00
2.500000000000000000e+01 1.592295551300048828e+01 -1.645044237375259399e-01 8.086363792419433594e+00 3.046027374267578125e+01 1.156399154663085938e+01 1.235663223266601562e+01
2.600000000000000000e+01 1.587296104431152344e+01 -3.571643829345703125e-01 6.508793354034423828e+00 2.145601081848144531e+01 8.389441490173339844e+00 9.732544898986816406e+00
2.700000000000000000e+01 1.582296657562255859e+01 -5.498243570327758789e-01 5.171549320220947266e+00 1.721800231933593750e+01 6.716865539550781250e+00 8.209983825683593750e+00
2.800000000000000000e+01 1.577297210693359375e+01 -7.424843311309814453e-01 4.303376197814941406e+00 1.480642604827880859e+01 5.732940673828125000e+00 7.314929962158203125e+00
2.900000000000000000e+01 1.598065185546875000e+01 -1.735745966434478760e-01 6.807497978210449219e+00 3.560098266601562500e+01 1.272254371643066406e+01 8.613704681396484375e+00
3.000000000000000000e+01 1.596912097930908203e+01 -3.722813427448272705e-01 5.238567352294921875e+00 2.582938385009765625e+01 9.320384979248046875e+00 7.370839118957519531e+00
3.100000000000000000e+01 1.595759105682373047e+01 -5.709881186485290527e-01 4.181900978088378906e+00 2.118205261230468750e+01 7.609186172485351562e+00 6.421265602111816406e+00
3.200000000000000000e+01 1.594606018066406250e+01 -7.696948647499084473e-01 3.376797914505004883e+00 1.809871673583984375e+01 6.442654132843017578e+00 5.738109588623046875e+00
3.300000000000000000e+01 1.603900909423828125e+01 -1.712388545274734497e-01 6.967653274536132812e+00 3.853019714355468750e+01 1.364935493469238281e+01 3.995698928833007812e+00
3.400000000000000000e+01 1.606638526916503906e+01 -3.683884441852569580e-01 5.131175518035888672e+00 2.886754226684570312e+01 1.019961547851562500e+01 4.185816764831542969e+00
3.500000000000000000e+01 1.609375953674316406e+01 -5.655380487442016602e-01 3.852870941162109375e+00 2.387487411499023438e+01 8.318323135375976562e+00 3.767975807189941406e+00
3.600000000000000000e+01 1.612113380432128906e+01 -7.626876235008239746e-01 3.157254695892333984e+00 2.076643371582031250e+01 7.177106380462646484e+00 3.378538131713867188e+00
3.700000000000000000e+01 1.609579658508300781e+01 -1.575865894556045532e-01 8.889666557312011719e+00 3.934216690063476562e+01 1.446955013275146484e+01 -4.500704407691955566e-01
3.800000000000000000e+01 1.616102981567382812e+01 -3.456346690654754639e-01 6.159891605377197266e+00 3.024103355407714844e+01 1.092027759552001953e+01 6.971213221549987793e-01
3.900000000000000000e+01 1.622626113891601562e+01 -5.336827635765075684e-01 4.650760173797607422e+00 2.526600074768066406e+01 8.975028038024902344e+00 8.201882839202880859e-01
4.000000000000000000e+01 1.629149246215820312e+01 -7.217308282852172852e-01 3.734349727630615234e+00 2.203846549987792969e+01 7.731844425201416016e+00 8.250348567962646484e-01
4.100000000000000000e+01 1.614883804321289062e+01 -1.331402361392974854e-01 1.221293830871582031e+01 3.834851455688476562e+01 1.516843509674072266e+01 -4.026675701141357422e+00
4.200000000000000000e+01 1.624943161010742188e+01 -3.048907220363616943e-01 8.278555870056152344e+00 3.010610008239746094e+01 1.151539707183837891e+01 -2.410898923873901367e+00
4.300000000000000000e+01 1.635002517700195312e+01 -4.766412377357482910e-01 6.515634536743164062e+00 2.530899238586425781e+01 9.547388076782226562e+00 -1.886402606964111328e+00
4.400000000000000000e+01 1.645062065124511719e+01 -6.483917236328125000e-01 5.273479938507080078e+00 2.196763801574707031e+01 8.172335624694824219e+00 -1.636387705802917480e+00
4.500000000000000000e+01 1.619610595703125000e+01 -9.883526712656021118e-02 1.611081314086914062e+01 3.616513061523437500e+01 1.568278408050537109e+01 -6.244582176208496094e+00
4.600000000000000000e+01 1.632821273803710938e+01 -2.477158010005950928e-01 1.136877250671386719e+01 2.882505035400390625e+01 1.205814647674560547e+01 -4.608538150787353516e+00
4.700000000000000000e+01 1.646031761169433594e+01 -3.965963125228881836e-01 9.008253097534179688e+00 2.419883346557617188e+01 9.962125778198242188e+00 -3.924979686737060547e+00
4.800000000000000000e+01 1.659242439270019531e+01 -5.454768538475036621e-01 7.638556480407714844e+00 2.115814399719238281e+01 8.639010429382324219e+00 -3.523292541503906250e+00
4.900000000000000000e+01 1.623579216003417969e+01 -5.598444491624832153e-02 2.020852279663085938e+01 3.364414215087890625e+01 1.615579986572265625e+01 -6.894762039184570312e+00
5.000000000000000000e+01 1.639435386657714844e+01 -1.762977689504623413e-01 1.464008998870849609e+01 2.677039718627929688e+01 1.242314624786376953e+01 -5.673572540283203125e+00
5.100000000000000000e+01 1.655291557312011719e+01 -2.966110706329345703e-01 1.198537445068359375e+01 2.254702186584472656e+01 1.035971832275390625e+01 -4.906937599182128906e+00
5.200000000000000000e+01 1.671147918701171875e+01 -4.169243574142456055e-01 1.013909912109375000e+01 1.966836738586425781e+01 8.942239761352539062e+00 -4.449151992797851562e+00
5.300000000000000000e+01 1.626637458801269531e+01 -6.227552425116300583e-03 2.360186767578125000e+01 3.121610260009765625e+01 1.644539070129394531e+01 -6.248430252075195312e+00
5.400000000000000000e+01 1.644532585144042969e+01 -9.336960315704345703e-02 1.782427978515625000e+01 2.469877433776855469e+01 1.275691604614257812e+01 -5.429291248321533203e+00
5.500000000000000000e+01 1.662427711486816406e+01 -1.805116534233093262e-01 1.465261268615722656e+01 2.068860054016113281e+01 1.060236454010009766e+01 -4.820770740509033203e+00
5.600000000000000000e+01 1.680322837829589844e+01 -2.676537036895751953e-01 1.269463348388671875e+01 1.799120903015136719e+01 9.205752372741699219e+00 -4.317985057830810547e+00
5.700000000000000000e+01 1.628668594360351562e+01 4.853135719895362854e-02 2.610688972473144531e+01 2.953004264831542969e+01 1.669108009338378906e+01 -4.543941020965576172e+00
5.800000000000000000e+01 1.647917938232421875e+01 -2.104757353663444519e-03 2.015483474731445312e+01 2.296820068359375000e+01 1.293691062927246094e+01 -4.167143821716308594e+00
5.900000000000000000e+01 1.667167091369628906e+01 -5.274087190628051758e-02 1.679981422424316406e+01 1.922231101989746094e+01 1.080663681030273438e+01 -3.684555768966674805e+00
6.000000000000000000e+01 1.686416435241699219e+01 -1.033769845962524414e-01 1.454735279083251953e+01 1.657038688659667969e+01 9.335322380065917969e+00 -3.410389661788940430e+00
6.100000000000000000e+01 1.629594802856445312e+01 1.061968132853507996e-01 2.731377601623535156e+01 2.866084861755371094e+01 1.679238700866699219e+01 -2.314825534820556641e+00
6.200000000000000000e+01 1.649461555480957031e+01 9.400434046983718872e-02 2.141788291931152344e+01 2.213254737854003906e+01 1.306512832641601562e+01 -2.137629985809326172e+00
6.300000000000000000e+01 1.669328308105468750e+01 8.181186765432357788e-02 1.787831878662109375e+01 1.839740562438964844e+01 1.088271808624267578e+01 -1.984427690505981445e+00
6.400000000000000000e+01 1.689195060729980469e+01 6.961939483880996704e-02 1.555040550231933594e+01 1.587118244171142578e+01 9.426476478576660156e+00 -1.813856840133666992e+00
6.500000000000000000e+01 1.629380798339843750e+01 1.645621061325073242e-01 2.723504829406738281e+01 2.884667205810546875e+01 1.682451629638671875e+01 9.396995604038238525e-02
6.600000000000000000e+01 1.649104690551757812e+01 1.912798136472702026e-01 2.133358001708984375e+01 2.225153732299804688e+01 1.307553577423095703e+01 4.918196797370910645e-02
6.700000000000000000e+01 1.668828582763671875e+01 2.179975360631942749e-01 1.778689956665039062e+01 1.854070281982421875e+01 1.089828109741210938e+01 -2.608282119035720825e-02
6.800000000000000000e+01 1.688552665710449219e+01 2.447152584791183472e-01 1.543811893463134766e+01 1.595027160644531250e+01 9.416517257690429688e+00 -1.196661517024040222e-01
6.900000000000000000e+01 1.628034591674804688e+01 2.213937491178512573e-01 2.589010429382324219e+01 2.998817634582519531e+01 1.676348304748535156e+01 2.187392950057983398e+00
7.000000000000000000e+01 1.646860885620117188e+01 2.859992384910583496e-01 1.994289016723632812e+01 2.336646842956542969e+01 1.299280738830566406e+01 1.959187150001525879e+00
7.100000000000000000e+01 1.665687179565429688e+01 3.506047129631042480e-01 1.654171180725097656e+01 1.955307960510253906e+01 1.082843685150146484e+01 1.583363175392150879e+00
7.200000000000000000e+01 1.684513664245605469e+01 4.152101874351501465e-01 1.425958347320556641e+01 1.687489128112792969e+01 9.340342521667480469e+00 1.373689770698547363e+00
7.300000000000000000e+01 1.625607490539550781e+01 2.745169997215270996e-01 2.336461639404296875e+01 3.188979721069335938e+01 1.657632446289062500e+01 3.636553287506103516e+00
7.400000000000000000e+01 1.642815971374511719e+01 3.745380043983459473e-01 1.755743789672851562e+01 2.525959014892578125e+01 1.284510803222656250e+01 3.023062229156494141e+00
7.500000000000000000e+01 1.660024261474609375e+01 4.745589792728424072e-01 1.431339263916015625e+01 2.117892837524414062e+01 1.064769649505615234e+01 2.542216062545776367e+00
7.600000000000000000e+01 1.677232933044433594e+01 5.745799541473388672e-01 1.227740192413330078e+01 1.843067932128906250e+01 9.212424278259277344e+00 2.113931417465209961e+00
7.700000000000000000e+01 1.622192764282226562e+01 3.218989968299865723e-01 2.011027908325195312e+01 3.435680389404296875e+01 1.634012603759765625e+01 3.963180541992187500e+00
7.800000000000000000e+01 1.637124633789062500e+01 4.535079598426818848e-01 1.444554710388183594e+01 2.740507507324218750e+01 1.255518627166748047e+01 3.045588016510009766e+00
7.900000000000000000e+01 1.652056694030761719e+01 5.851169824600219727e-01 1.166458892822265625e+01 2.310243034362792969e+01 1.043010520935058594e+01 2.405218124389648438e+00
8.000000000000000000e+01 1.666988754272460938e+01 7.167259454727172852e-01 9.663352966308593750e+00 2.015667533874511719e+01 8.946007728576660156e+00 2.053243875503540039e+00
8.100000000000000000e+01 1.617920875549316406e+01 3.617265522480010986e-01 1.632072257995605469e+01 3.680344390869140625e+01 1.593725013732910156e+01 2.998238563537597656e+00
8.200000000000000000e+01 1.630005073547363281e+01 5.198872089385986328e-01 1.139945793151855469e+01 2.934644317626953125e+01 1.222377109527587891e+01 1.779006242752075195e+00
8.300000000000000000e+01 1.642089080810546875e+01 6.780478954315185547e-01 8.809402465820312500e+00 2.477333641052246094e+01 1.007482147216796875e+01 1.250985622406005859e+00
8.400000000000000000e+01 1.654173088073730469e+01 8.362085819244384766e-01 7.247581481933593750e+00 2.162973976135253906e+01 8.663196563720703125e+00 9.418861269950866699e-01
8.500000000000000000e+01 1.612955474853515625e+01 3.924755752086639404e-01 1.290992927551269531e+01 3.871166229248046875e+01 1.548647689819335938e+01 5.775388479232788086e-01
8.600000000000000000e+01 1.621729278564453125e+01 5.711355805397033691e-01 8.639862060546875000e+00 3.045577621459960938e+01 1.172869205474853516e+01 -5.737583637237548828e-01
8.700000000000000000e+01 1.630503082275390625e+01 7.497956156730651855e-01 6.585165977478027344e+00 2.568924140930175781e+01 9.682322502136230469e+00 -8.620095252990722656e-01
8.800000000000000000e+01 1.639276695251464844e+01 9.284556508064270020e-01 5.136582374572753906e+00 2.247607994079589844e+01 8.283798217773437500e+00 -9.930809140205383301e-01
8.900000000000000000e+01 1.607486343383789062e+01 4.129693806171417236e-01 1.014939498901367188e+01 3.930843734741210938e+01 1.483734989166259766e+01 -3.057891368865966797e+00
9.000000000000000000e+01 1.612614059448242188e+01 6.052919626235961914e-01 6.987491607666015625e+00 3.033257675170898438e+01 1.119602012634277344e+01 -3.695896148681640625e+00
9.100000000000000000e+01 1.617741775512695312e+01 7.976145744323730469e-01 5.035471916198730469e+00 2.540938377380371094e+01 9.133457183837890625e+00 -3.566911935806274414e+00
9.200000000000000000e+01 1.622869491577148438e+01 9.899371266365051270e-01 3.974967718124389648e+00 2.224575805664062500e+01 7.866217613220214844e+00 -3.426185131072998047e+00
9.300000000000000000e+01 1.601722908020019531e+01 4.224238097667694092e-01 8.986689567565917969e+00 3.811944961547851562e+01 1.413184165954589844e+01 -7.378701686859130859e+00
9.400000000000000000e+01 1.603008460998535156e+01 6.210493445396423340e-01 6.303338527679443359e+00 2.862171554565429688e+01 1.047751617431640625e+01 -7.048510074615478516e+00
9.500000000000000000e+01 1.604293823242187500e+01 8.196747899055480957e-01 4.752358436584472656e+00 2.377585220336914062e+01 8.558463096618652344e+00 -6.387165069580078125e+00
9.600000000000000000e+01 1.605579376220703125e+01 1.018300294876098633e+00 3.523772954940795898e+00 2.067611122131347656e+01 7.259964942932128906e+00 -5.930904865264892578e+00
9.700000000000000000e+01 1.595885753631591797e+01 4.204769730567932129e-01 9.316143989562988281e+00 3.475662231445312500e+01 1.322183036804199219e+01 -1.169467449188232422e+01
9.800000000000000000e+01 1.593279743194580078e+01 6.178045868873596191e-01 6.979242324829101562e+00 2.532841491699218750e+01 9.692296981811523438e+00 -9.926378250122070312e+00
9.900000000000000000e+01 1.590673732757568359e+01 8.151322007179260254e-01 5.283882141113281250e+00 2.080046272277832031e+01 7.825303077697753906e+00 -8.819972991943359375e+00
1.000000000000000000e+02 1.588067626953125000e+01 1.012459754943847656e+00 4.153815746307373047e+00 1.798399734497070312e+01 6.641343593597412109e+00 -7.969849586486816406e+00
1.010000000000000000e+02 1.590198135375976562e+01 4.072033762931823730e-01 1.118158435821533203e+01 2.939160919189453125e+01 1.217195796966552734e+01 -1.493548679351806641e+01
1.020000000000000000e+02 1.583800411224365234e+01 5.956819653511047363e-01 8.537665367126464844e+00 2.067067718505859375e+01 8.762502670288085938e+00 -1.190415382385253906e+01
1.030000000000000000e+02 1.577402591705322266e+01 7.841605544090270996e-01 6.580194950103759766e+00 1.674069023132324219e+01 6.996265411376953125e+00 -1.018746852874755859e+01
1.040000000000000000e+02 1.571004772186279297e+01 9.726390838623046875e-01 5.301226615905761719e+00 1.448320388793945312e+01 5.935328960418701172e+00 -9.165109634399414062e+00
1.050000000000000000e+02 1.584877777099609375e+01 3.831110298633575439e-01 1.405800437927246094e+01 2.244598007202148438e+01 1.095119476318359375e+01 -1.649603462219238281e+01
1.060000000000000000e+02 1.574933052062988281e+01 5.555280447006225586e-01 1.037785053253173828e+01 1.522181606292724609e+01 7.679900169372558594e+00 -1.233101654052734375e+01
1.070000000000000000e+02 1.564988327026367188e+01 7.279450297355651855e-01 8.193528175354003906e+00 1.213221168518066406e+01 6.097722053527832031e+00 -1.036647987365722656e+01
1.080000000000000000e+02 1.555043601989746094e+01 9.003620743751525879e-01 6.533234596252441406e+00 1.035052776336669922e+01 5.065128803253173828e+00 -9.070493698120117188e+00
1.090000000000000000e+02 1.580128192901611328e+01 3.491218388080596924e-01 1.676251602172851562e+01 1.493421649932861328e+01 9.509019851684570312e+00 -1.572787380218505859e+01
1.100000000000000000e+02 1.567017173767089844e+01 4.988794028759002686e-01 1.198821067810058594e+01 9.573650360107421875e+00 6.468558311462402344e+00 -1.119845867156982422e+01
1.110000000000000000e+02 1.553906059265136719e+01 6.486369371414184570e-01 9.260319709777832031e+00 7.628022193908691406e+00 5.066502571105957031e+00 -9.048243522644042969e+00
1.120000000000000000e+02 1.540794944763183594e+01 7.983945012092590332e-01 7.484797477722167969e+00 6.525005817413330078e+00 4.202940940856933594e+00 -8.047801971435546875e+00
1.130000000000000000e+02 1.576131248474121094e+01 3.065364658832550049e-01 1.845917510986328125e+01 7.564839839935302734e+00 7.807204723358154297e+00 -1.272638702392578125e+01
1.140000000000000000e+02 1.560355567932128906e+01 4.279037714004516602e-01 1.218237209320068359e+01 4.779197692871093750e+00 5.088470935821533203e+00 -8.406030654907226562e+00
1.150000000000000000e+02 1.544579792022705078e+01 5.492710471153259277e-01 9.397848129272460938e+00 3.835676431655883789e+00 3.970057487487792969e+00 -6.858707427978515625e+00
1.160000000000000000e+02 1.528804111480712891e+01 6.706383228302001953e-01 7.405219078063964844e+00 3.557008743286132812e+00 3.288668394088745117e+00 -5.905084609985351562e+00
1.170000000000000000e+02 1.573039817810058594e+01 2.569845318794250488e-01 1.728430366516113281e+01 1.891860723495483398e+00 5.752849102020263672e+00 -7.882507324218750000e+00
1.180000000000000000e+02 1.555203151702880859e+01 3.453172147274017334e-01 1.082341575622558594e+01 1.143414258956909180e+00 3.590049028396606445e+00 -4.768267631530761719e+00
1.190000000000000000e+02 1.537366485595703125e+01 4.336498677730560303e-01 7.545550346374511719e+00 1.703340053558349609e+00 2.774667263031005859e+00 -3.968221664428710938e+00
1.200000000000000000e+02 1.519529819488525391e+01 5.219825506210327148e-01 6.320620536804199219e+00 1.474947452545166016e+00 2.338670492172241211e+00 -3.855544090270996094e+00
1.210000000000000000e+02 1.570972156524658203e+01 2.023622542619705200e-01 1.292776584625244141e+01 -2.220686674118041992e+00 3.212123632431030273e+00 -1.700956821441650391e+00
1.220000000000000000e+02 1.551757144927978516e+01 2.542800605297088623e-01 5.993733882904052734e+00 3.504238724708557129e-01 1.903247237205505371e+00 -1.450307846069335938e+00
1.230000000000000000e+02 1.532542037963867188e+01 3.061978816986083984e-01 5.311977863311767578e+00 6.131281852722167969e-01 1.777531862258911133e+00 -2.119842767715454102e+00
1.240000000000000000e+02 1.513327026367187500e+01 3.581156730651855469e-01 3.788697719573974609e+00 1.325730681419372559e-01 1.176381230354309082e+00 -1.499957442283630371e+00
1.250000000000000000e+02 1.570007514953613281e+01 1.447598487138748169e-01 6.405967473983764648e-02 -2.072163343429565430e+00 -6.024310588836669922e-01 2.123958587646484375e+00
1.260000000000000000e+02 1.550149345397949219e+01 1.582760661840438843e-01 2.947027683258056641e+00 8.197407126426696777e-01 1.130030512809753418e+00 -8.254246711730957031e-01
1.270000000000000000e+02 1.530291271209716797e+01 1.717922836542129517e-01 1.260785698890686035e+00 -3.678663671016693115e-01 2.678757905960083008e-01 -1.338490545749664307e-01
1.280000000000000000e+02 1.510433101654052734e+01 1.853085011243820190e-01 5.860705375671386719e-01 1.599522531032562256e-01 2.238068431615829468e-01 -3.426848351955413818e-01
1.290000000000000000e+02 1.227655887603759766e+01 -8.521636724472045898e-01 -7.290285229682922363e-01 9.341802448034286499e-02 -1.906831413507461548e-01 3.706354796886444092e-01
1.300000000000000000e+02 1.287456226348876953e+01 -1.136649250984191895e+00 5.018039345741271973e-01 1.518609672784805298e-01 1.960994750261306763e-01 9.162244796752929688e-01
1.310000000000000000e+02 1.043653774261474609e+01 -1.195918202400207520e+00 -9.272282123565673828e-01 1.346005648374557495e-01 -2.377882897853851318e-01 1.026234701275825500e-01
1.320000000000000000e+02 1.274449539184570312e+01 -1.356498122215270996e+00 6.320908069610595703e-01 3.658960759639739990e-01 2.993960678577423096e-01 1.033211231231689453e+00
1.330000000000000000e+02 1.264800453186035156e+01 -7.733333706855773926e-01 -5.940945744514465332e-01 8.345656841993331909e-02 -1.531914025545120239e-01 4.896106421947479248e-01
1.340000000000000000e+02 1.290242671966552734e+01 -9.537816643714904785e-01 8.930052816867828369e-02 1.864933520555496216e-01 8.273816108703613281e-02 7.031482458114624023e-01
1.350000000000000000e+02 1.289008712768554688e+01 -7.671707868576049805e-01 -5.413710325956344604e-02 1.607140451669692993e-01 3.197308257222175598e-02 4.763053059577941895e-01
1.360000000000000000e+02 1.277633857727050781e+01 -3.828453421592712402e-01 -9.473792314529418945e-01 9.086617082357406616e-02 -2.569539248943328857e-01 9.202169626951217651e-02
1.370000000000000000e+02 1.241064929962158203e+01 -1.165222287178039551e+00 1.583561301231384277e-01 3.740499317646026611e-01 1.597218215465545654e-01 7.193707823753356934e-01
1.380000000000000000e+02 1.127538681030273438e+01 -1.147393822669982910e+00 -6.520854234695434570e-01 1.166078001260757446e-01 -1.606432795524597168e-01 2.741225361824035645e-01
1.390000000000000000e+02 1.040313243865966797e+01 -6.829674839973449707e-01 -1.479648113250732422e+00 3.433556854724884033e-02 -4.335937500000000000e-01 8.440199308097362518e-03
1.400000000000000000e+02 1.268470764160156250e+01 -1.000010132789611816e+00 2.063611522316932678e-02 8.937780559062957764e-02 3.300417587161064148e-02 7.901976108551025391e-01
1.410000000000000000e+02 1.283127784729003906e+01 -5.928550958633422852e-01 -6.768656373023986816e-01 1.526102721691131592e-01 -1.572766155004501343e-01 2.259368896484375000e-01
1.420000000000000000e+02 1.270178699493408203e+01 -1.307864636182785034e-01 -1.950747013092041016e+00 1.287939492613077164e-02 -5.813602805137634277e-01 1.936110481619834900e-02
1.430000000000000000e+02 1.229645538330078125e+01 -4.287932217121124268e-01 -1.363056778907775879e+00 -6.084806472063064575e-02 -4.271714389324188232e-01 4.246843233704566956e-02
1.440000000000000000e+02 1.195866870880126953e+01 -1.218713879585266113e+00 -2.145232409238815308e-01 1.172555685043334961e-01 -2.918030321598052979e-02 5.486916303634643555e-01
1.450000000000000000e+02 1.164355182647705078e+01 -4.056064188480377197e-01 -1.683651089668273926e+00 8.335321210324764252e-03 -5.025947093963623047e-01 7.683180272579193115e-02
1.460000000000000000e+02 1.034516811370849609e+01 -2.452291250228881836e-01 -2.052050113677978516e+00 -1.675187796354293823e-02 -6.206405758857727051e-01 2.267665695399045944e-03
1.470000000000000000e+02 1.096480083465576172e+01 -3.102495670318603516e-01 -1.863761663436889648e+00 3.763455152511596680e-02 -5.478381514549255371e-01 5.368002131581306458e-02
1.480000000000000000e+02 1.473871421813964844e+01 -1.271939516067504883e+00 3.559357166290283203e+00 3.544587612152099609e+00 2.131183385848999023e+00 4.226813793182373047e+00
1.490000000000000000e+02 1.677906608581542969e+01 -8.716213107109069824e-01 5.455112457275390625e+00 1.752180099487304688e+01 6.893074035644531250e+00 -2.614237070083618164e+00
1.500000000000000000e+02 1.704958534240722656e+01 3.098134994506835938e-01 1.392990779876708984e+01 1.441965007781982422e+01 8.504867553710937500e+00 3.111936338245868683e-02
1.510000000000000000e+02 1.699423599243164062e+01 1.054501652717590332e+00 6.701889514923095703e+00 1.599720001220703125e+01 6.809726715087890625e+00 1.366969823837280273e+00
1.520000000000000000e+02 1.653205680847167969e+01 1.110251784324645996e+00 4.374522686004638672e+00 1.993980979919433594e+01 7.294300079345703125e+00 -7.932034134864807129e-01
1.530000000000000000e+02 1.447454643249511719e+01 1.406116604804992676e+00 3.195050954818725586e+00 2.705070972442626953e+00 1.770036578178405762e+00 -4.424489021301269531e+00
1.540000000000000000e+02 1.605597305297851562e+01 1.241747140884399414e+00 2.749368667602539062e+00 1.832531929016113281e+01 6.322406291961669922e+00 -5.662204265594482422e+00
1.550000000000000000e+02 1.312979698181152344e+01 -1.373363852500915527e+00 1.098440289497375488e+00 7.302819490432739258e-01 5.486167073249816895e-01 1.480879664421081543e+00
1.560000000000000000e+02 1.333176517486572266e+01 -1.359582304954528809e+00 1.294973611831665039e+00 6.996701955795288086e-01 5.983931422233581543e-01 1.558405995368957520e+00
1.570000000000000000e+02 1.353422069549560547e+01 -1.344478964805603027e+00 1.647624015808105469e+00 9.576753973960876465e-01 7.815898060798645020e-01 1.816137552261352539e+00
1.580000000000000000e+02 1.610317802429199219e+01 -9.773097038269042969e-01 2.516513109207153320e+00 1.802503967285156250e+01 6.162465572357177734e+00 3.527225971221923828e+00
1.590000000000000000e+02 1.570906829833984375e+01 -9.227672815322875977e-01 3.805324316024780273e+00 1.295141696929931641e+01 5.027022361755371094e+00 6.605525493621826172e+00
1.600000000000000000e+02 1.532753562927246094e+01 -7.763264775276184082e-01 5.372236251831054688e+00 6.150846481323242188e+00 3.456924915313720703e+00 6.049569129943847656e+00
1.610000000000000000e+02 1.469029712677001953e+01 -9.948143959045410156e-01 3.689789295196533203e+00 2.412555456161499023e+00 1.830703377723693848e+00 3.508278608322143555e+00
1.620000000000000000e+02 1.373590469360351562e+01 -1.329977989196777344e+00 1.953818082809448242e+00 1.079581379890441895e+00 9.100198149681091309e-01 2.105147123336791992e+00
1.630000000000000000e+02 1.682333374023437500e+01 8.697755932807922363e-01 8.235598564147949219e+00 1.801106262207031250e+01 7.873998165130615234e+00 1.691128373146057129e+00
1.640000000000000000e+02 1.722341346740722656e+01 7.667032480239868164e-01 9.510876655578613281e+00 1.378859424591064453e+01 6.989840984344482422e+00 1.562759160995483398e+00
1.650000000000000000e+02 1.694117736816406250e+01 7.239992618560791016e-01 1.024052143096923828e+01 1.652326202392578125e+01 8.029134750366210938e+00 1.870073437690734863e+00
1.660000000000000000e+02 1.737335205078125000e+01 7.195591181516647339e-02 1.206226444244384766e+01 1.181314277648925781e+01 7.162621974945068359e+00 -1.540988206863403320e+00
1.670000000000000000e+02 1.713534736633300781e+01 -2.989697158336639404e-01 1.147647476196289062e+01 1.430143070220947266e+01 7.733371734619140625e+00 -3.477794170379638672e+00
1.680000000000000000e+02 1.308631801605224609e+01 1.392792940139770508e+00 4.877614974975585938e-01 8.632214665412902832e-01 4.052948653697967529e-01 -1.761875987052917480e+00
1.690000000000000000e+02 1.510854434967041016e+01 8.226779699325561523e-01 5.999993324279785156e+00 3.189770221710205078e+00 2.756929159164428711e+00 -5.565907001495361328e+00
1.700000000000000000e+02 1.526145172119140625e+01 9.712936282157897949e-01 6.107748031616210938e+00 5.847253799438476562e+00 3.586500644683837891e+00 -7.093444347381591797e+00
1.710000000000000000e+02 1.309738922119140625e+01 1.446493864059448242e-01 -2.779613018035888672e+00 -8.798067271709442139e-02 -8.602780699729919434e-01 -1.362390071153640747e-01
1.720000000000000000e+02 1.307933425903320312e+01 1.176448464393615723e+00 8.117458969354629517e-02 6.028226613998413086e-01 2.051991671323776245e-01 -1.316666126251220703e+00
1.730000000000000000e+02 1.397327804565429688e+01 3.602649867534637451e-01 -9.239891171455383301e-01 3.775796666741371155e-02 -2.658693492412567139e-01 -4.709141552448272705e-01
1.740000000000000000e+02 1.448506736755371094e+01 5.097079277038574219e-01 1.452599406242370605e+00 2.565837204456329346e-01 5.127549767494201660e-01 -1.289466381072998047e+00
1.750000000000000000e+02 1.490250205993652344e+01 2.021676450967788696e-01 -3.570282831788063049e-02 -6.930036097764968872e-02 -3.150095418095588684e-02 -2.592846155166625977e-01
1.760000000000000000e+02 1.705727005004882812e+01 6.155905723571777344e-01 1.128859329223632812e+01 1.513921642303466797e+01 7.928342819213867188e+00 1.544701457023620605e+00
1.770000000000000000e+02 1.568226051330566406e+01 1.277493238449096680e+00 3.637306451797485352e+00 1.342581081390380859e+01 5.118935108184814453e+00 -7.861967563629150391e+00
1.780000000000000000e+02 1.533949661254882812e+01 1.258103609085083008e+00 4.682844161987304688e+00 8.388473510742187500e+00 3.921395301818847656e+00 -7.619885921478271484e+00
1.790000000000000000e+02 1.493054676055908203e+01 4.218598604202270508e-01 3.012899398803710938e+00 3.636732995510101318e-01 1.012971758842468262e+00 -1.664874911308288574e+00
1.800000000000000000e+02 1.491251373291015625e+01 -2.793997153639793396e-02 -2.517212629318237305e-01 -9.630718082189559937e-02 -1.044085323810577393e-01 8.187086135149002075e-02
1.810000000000000000e+02 1.516628551483154297e+01 -6.333076953887939453e-01 5.413512229919433594e+00 3.576301813125610352e+00 2.696944236755371094e+00 4.848502159118652344e+00
1.820000000000000000e+02 1.563451385498046875e+01 -1.098830819129943848e+00 3.446828842163085938e+00 1.146829986572265625e+01 4.474538803100585938e+00 6.135744571685791016e+00
1.830000000000000000e+02 1.630949211120605469e+01 -1.226986169815063477e+00 2.074602365493774414e+00 1.661202239990234375e+01 5.605987548828125000e+00 1.918453693389892578e+00
1.840000000000000000e+02 1.654104995727539062e+01 -8.006827831268310547e-01 4.607193470001220703e+00 1.995176696777343750e+01 7.367688179016113281e+00 -1.514656662940979004e+00
1.850000000000000000e+02 1.671628761291503906e+01 -7.035101056098937988e-01 6.465706825256347656e+00 1.887621498107910156e+01 7.602576732635498047e+00 -3.182642459869384766e+00
1.860000000000000000e+02 1.414607524871826172e+01 -4.344778060913085938e-01 8.481416106224060059e-01 2.023408561944961548e-01 3.151447474956512451e-01 7.166409492492675781e-01
1.870000000000000000e+02 1.392976474761962891e+01 -1.044133543968200684e+00 2.010938644409179688e+00 8.274975419044494629e-01 8.515308499336242676e-01 1.879784464836120605e+00
1.880000000000000000e+02 1.390677547454833984e+01 -1.189277023077011108e-01 -1.158496022224426270e+00 -1.559486333280801773e-02 -3.522272706031799316e-01 4.917988553643226624e-02
1.890000000000000000e+02 1.329344940185546875e+01 -3.227574825286865234e-01 -9.848252534866333008e-01 3.001646697521209717e-02 -2.864426374435424805e-01 1.537747383117675781e-01
1.900000000000000000e+02 1.310231399536132812e+01 -3.212393522262573242e-01 -1.192751765251159668e+00 -1.173342838883399963e-01 -3.930258154869079590e-01 2.162252366542816162e-01
1.910000000000000000e+02 1.310154914855957031e+01 -1.083987802267074585e-01 -1.724139571189880371e+00 -7.007334381341934204e-02 -5.382638573646545410e-01 -1.618277397938072681e-03
1.920000000000000000e+02 1.656106948852539062e+01 1.402268171310424805e+00 2.938176393508911133e+00 1.773706817626953125e+01 6.202573299407958984e+00 -1.353436350822448730e+00
1.930000000000000000e+02 1.668364143371582031e+01 1.001522898674011230e+00 6.119116783142089844e+00 1.925761032104492188e+01 7.613018035888671875e+00 7.823764681816101074e-01
1.940000000000000000e+02 1.586600971221923828e+01 1.242887139320373535e+00 3.166901588439941406e+00 1.612074661254882812e+01 5.786294460296630859e+00 -7.232943058013916016e+00
1.950000000000000000e+02 1.546898174285888672e+01 1.498328447341918945e+00 3.351296186447143555e+00 1.019581508636474609e+01 4.064133644104003906e+00 -7.420044898986816406e+00
1.960000000000000000e+02 1.425719261169433594e+01 1.398473978042602539e+00 2.724482774734497070e+00 2.092081546783447266e+00 1.444969296455383301e+00 -3.798601150512695312e+00
1.970000000000000000e+02 1.685402870178222656e+01 1.186507225036621094e+00 5.169218540191650391e+00 1.690663909912109375e+01 6.622757434844970703e+00 6.617656946182250977e-01
1.980000000000000000e+02 1.551237392425537109e+01 1.300569415092468262e+00 4.041629791259765625e+00 1.058361816406250000e+01 4.387574195861816406e+00 -7.823067665100097656e+00
1.990000000000000000e+02 1.590544223785400391e+01 -9.561879634857177734e-01 2.899509906768798828e+00 1.595267581939697266e+01 5.655655860900878906e+00 5.496912002563476562e+00
2.000000000000000000e+02 1.628809928894042969e+01 -1.013103485107421875e+00 2.645750045776367188e+00 1.855251884460449219e+01 6.359480857849121094e+00 1.800732731819152832e+00
2.010000000000000000e+02 1.660786819458007812e+01 -9.464001655578613281e-01 3.994527101516723633e+00 1.855308341979980469e+01 6.764283180236816406e+00 -1.264608740806579590e+00
2.020000000000000000e+02 1.551603889465332031e+01 -8.632931113243103027e-01 4.793325424194335938e+00 9.633177757263183594e+00 4.327950954437255859e+00 6.883629322052001953e+00
2.030000000000000000e+02 1.735534477233886719e+01 -1.106108650565147400e-01 1.163488578796386719e+01 1.196185493469238281e+01 7.079022407531738281e+00 -2.454566240310668945e+00
2.040000000000000000e+02 1.709770202636718750e+01 -1.182066723704338074e-01 1.305101490020751953e+01 1.430365657806396484e+01 8.206401824951171875e+00 -2.972189426422119141e+00
2.050000000000000000e+02 1.411236190795898438e+01 -1.127316355705261230e-01 -1.025709033012390137e+00 1.584987342357635498e-02 -3.029577434062957764e-01 4.447233676910400391e-02
2.060000000000000000e+02 1.644938087463378906e+01 -1.012041330337524414e+00 3.105998277664184570e+00 1.818727111816406250e+01 6.387980937957763672e+00 1.535051763057708740e-01
2.070000000000000000e+02 1.670540428161621094e+01 1.300694704055786133e+00 3.786465883255004883e+00 1.727216148376464844e+01 6.317587852478027344e+00 -3.296082019805908203e-01
2.080000000000000000e+02 1.717423057556152344e+01 -5.853945016860961914e-01 8.796344757080078125e+00 1.405330848693847656e+01 6.854896068572998047e+00 -3.730632781982421875e+00
2.090000000000000000e+02 1.624136924743652344e+01 1.220860362052917480e+00 2.864334106445312500e+00 1.961520385742187500e+01 6.743861198425292969e+00 -3.670790195465087891e+00
2.100000000000000000e+02 1.604537200927734375e+01 1.493267655372619629e+00 1.983548402786254883e+00 1.611513710021972656e+01 5.429605484008789062e+00 -5.443335056304931641e+00
2.110000000000000000e+02 1.642131233215332031e+01 1.259971141815185547e+00 3.221876144409179688e+00 1.903390693664550781e+01 6.676734924316406250e+00 -2.150251865386962891e+00
2.120000000000000000e+02 1.737916183471679688e+01 2.559645175933837891e-01 1.209186840057373047e+01 1.180439472198486328e+01 7.168879032135009766e+00 -5.787532925605773926e-01
2.130000000000000000e+02 1.714789581298828125e+01 5.171129107475280762e-01 1.163091850280761719e+01 1.377478408813476562e+01 7.621710777282714844e+00 9.208750128746032715e-01
2.140000000000000000e+02 1.730712127685546875e+01 6.101651191711425781e-01 1.066459655761718750e+01 1.286493110656738281e+01 7.058858394622802734e+00 9.337170720100402832e-01
2.150000000000000000e+02 1.712193489074707031e+01 6.300883740186691284e-02 1.372813796997070312e+01 1.377225017547607422e+01 8.250116348266601562e+00 -1.728826165199279785e+00
2.160000000000000000e+02 1.716797256469726562e+01 2.344321608543395996e-01 1.341888713836669922e+01 1.344548416137695312e+01 8.059311866760253906e+00 -6.000024676322937012e-01
2.170000000000000000e+02 1.649811744689941406e+01 -1.182319283485412598e+00 2.657807588577270508e+00 1.734354972839355469e+01 6.000407218933105469e+00 2.049047201871871948e-01
2.180000000000000000e+02 1.694650268554687500e+01 -8.999702334403991699e-01 5.876153469085693359e+00 1.636605262756347656e+01 6.672662258148193359e+00 -3.053529977798461914e+00
2.190000000000000000e+02 1.733482170104980469e+01 -2.850822806358337402e-01 1.119872665405273438e+01 1.249229049682617188e+01 7.107305049896240234e+00 -3.203254699707031250e+00
2.200000000000000000e+02 1.687151145935058594e+01 -5.700175762176513672e-01 8.614091873168945312e+00 1.745631408691406250e+01 7.821121692657470703e+00 -3.965408086776733398e+00
2.210000000000000000e+02 1.705549049377441406e+01 -7.417232990264892578e-01 7.291427612304687500e+00 1.548112773895263672e+01 6.831766605377197266e+00 -3.572639465332031250e+00
2.220000000000000000e+02 1.711757087707519531e+01 9.122675657272338867e-01 8.124711990356445312e+00 1.483513164520263672e+01 6.887953281402587891e+00 1.603329777717590332e+00
2.230000000000000000e+02 1.488026428222656250e+01 1.448214530944824219e+00 3.787246227264404297e+00 4.904318809509277344e+00 2.607469558715820312e+00 -5.953483581542968750e+00
2.240000000000000000e+02 1.440566921234130859e+01 1.012530922889709473e+00 2.763278007507324219e+00 1.398615717887878418e+00 1.248568177223205566e+00 -3.064656734466552734e+00
2.250000000000000000e+02 1.330175399780273438e+01 1.399039387702941895e+00 7.153536081314086914e-01 8.429260253906250000e-01 4.674838781356811523e-01 -1.917944669723510742e+00
2.260000000000000000e+02 1.408018016815185547e+01 1.935063004493713379e-01 -1.639515519142150879e+00 3.825446590781211853e-02 -4.803782999515533447e-01 -2.579103112220764160e-01
2.270000000000000000e+02 1.348109054565429688e+01 7.871670722961425781e-01 -1.854319274425506592e-01 2.402299940586090088e-01 1.643942110240459442e-02 -1.001907825469970703e+00
2.280000000000000000e+02 1.328767013549804688e+01 3.724415004253387451e-01 -1.847313761711120605e+00 1.616867072880268097e-02 -5.493435263633728027e-01 -3.179078996181488037e-01
2.290000000000000000e+02 1.527466392517089844e+01 1.481574296951293945e+00 3.605385303497314453e+00 8.037273406982421875e+00 3.492797613143920898e+00 -7.165238380432128906e+00
2.300000000000000000e+02 1.566261959075927734e+01 1.500783324241638184e+00 2.737810134887695312e+00 1.283165264129638672e+01 4.670838832855224609e+00 -7.204042911529541016e+00
2.310000000000000000e+02 1.348522281646728516e+01 1.443168282508850098e+00 1.065141439437866211e+00 1.029169797897338867e+00 6.282933950424194336e-01 -2.209120988845825195e+00
2.320000000000000000e+02 1.384033679962158203e+01 1.424916386604309082e+00 1.807411551475524902e+00 1.478386163711547852e+00 9.857392907142639160e-01 -2.888039112091064453e+00
2.330000000000000000e+02 1.585409450531005859e+01 1.497245311737060547e+00 2.282161235809326172e+00 1.453050804138183594e+01 5.043800830841064453e+00 -6.510668277740478516e+00
2.340000000000000000e+02 1.389756679534912109e+01 1.796147078275680542e-01 -2.039775371551513672e+00 8.291071862913668156e-04 -6.116839051246643066e-01 -2.036732584238052368e-01
2.350000000000000000e+02 1.427787399291992188e+01 2.236915230751037598e-01 -1.305908799171447754e+00 2.672312594950199127e-02 -3.837557137012481689e-01 -3.039195835590362549e-01
2.360000000000000000e+02 1.309240055084228516e+01 3.585068881511688232e-01 -2.122017621994018555e+00 -5.993549898266792297e-02 -6.545858979225158691e-01 -3.272319138050079346e-01
2.370000000000000000e+02 1.370034027099609375e+01 1.854270249605178833e-01 -2.248639106750488281e+00 2.735541760921478271e-02 -6.663851141929626465e-01 -1.777522265911102295e-01
2.380000000000000000e+02 1.449048137664794922e+01 2.231199592351913452e-01 -9.096603393554687500e-01 -1.882669143378734589e-02 -2.785460948944091797e-01 -3.155977427959442139e-01
2.390000000000000000e+02 1.471033191680908203e+01 4.911389946937561035e-01 2.229581832885742188e+00 2.288207411766052246e-01 7.375208139419555664e-01 -1.510811805725097656e+00
2.400000000000000000e+02 1.390801811218261719e+01 -4.336294531822204590e-01 3.023151755332946777e-01 1.400377154350280762e-01 1.327058672904968262e-01 5.173674225807189941e-01
2.410000000000000000e+02 1.310202121734619141e+01 -5.309717655181884766e-01 -3.657066226005554199e-01 -2.067388035356998444e-02 -1.159141510725021362e-01 2.252328097820281982e-01
2.420000000000000000e+02 1.451391315460205078e+01 -6.477525830268859863e-02 -6.814215779304504395e-01 -3.936321660876274109e-02 -2.162354439496994019e-01 1.039488241076469421e-01
2.430000000000000000e+02 1.311441802978515625e+01 -9.475373029708862305e-01 4.905073344707489014e-01 2.396440356969833374e-01 2.190454155206680298e-01 7.489241361618041992e-01
2.440000000000000000e+02 1.413396644592285156e+01 -1.311805248260498047e+00 2.445085763931274414e+00 1.612354397773742676e+00 1.217232108116149902e+00 2.603314399719238281e+00
2.450000000000000000e+02 1.432028388977050781e+01 -1.056730985641479492e+00 2.652752399444580078e+00 1.466355323791503906e+00 1.235732316970825195e+00 2.550247430801391602e+00
2.460000000000000000e+02 1.516700363159179688e+01 -1.273663520812988281e+00 3.741181373596191406e+00 6.380955219268798828e+00 3.036640882492065430e+00 5.418588638305664062e+00
2.470000000000000000e+02 1.543071460723876953e+01 -1.060447454452514648e+00 4.134546279907226562e+00 8.681424140930175781e+00 3.844791173934936523e+00 6.282951831817626953e+00
2.480000000000000000e+02 1.601767349243164062e+01 -1.163784861564636230e+00 2.233064413070678711e+00 1.560251235961914062e+01 5.350673198699951172e+00 4.093404293060302734e+00
2.490000000000000000e+02 1.583276939392089844e+01 -1.127352595329284668e+00 2.796122789382934570e+00 1.402181148529052734e+01 5.045380115509033203e+00 5.388122558593750000e+00
2.500000000000000000e+02 1.503564167022705078e+01 -4.482830762863159180e-01 4.329178810119628906e+00 1.288519144058227539e+00 1.685309410095214844e+00 2.783844709396362305e+00
2.510000000000000000e+02 1.495535278320312500e+01 -1.263933300971984863e+00 3.723955392837524414e+00 4.791282176971435547e+00 2.554571390151977539e+00 4.870266437530517578e+00
2.520000000000000000e+02 1.332308864593505859e+01 -1.135514020919799805e+00 1.043062806129455566e+00 5.639063119888305664e-01 4.820907115936279297e-01 1.250494956970214844e+00
2.530000000000000000e+02 1.370306015014648438e+01 -1.142318248748779297e-01 -1.296812891960144043e+00 4.456358030438423157e-02 -3.756747841835021973e-01 3.072155267000198364e-02
2.540000000000000000e+02 1.412906169891357422e+01 -1.039802432060241699e+00 2.410623550415039062e+00 1.212043881416320801e+00 1.086800217628479004e+00 2.303395986557006836e+00
2.550000000000000000e+02 1.537120819091796875e+01 -1.283200621604919434e+00 3.475611925125122070e+00 8.358149528503417969e+00 3.550128221511840820e+00 5.710541248321533203e+00
2.560000000000000000e+02 1.484870624542236328e+01 -6.013420820236206055e-01 3.849860429763793945e+00 1.576118707656860352e+00 1.627793788909912109e+00 2.772538423538208008e+00
2.570000000000000000e+02 1.350080108642578125e+01 -1.065008491277694702e-01 -1.442370057106018066e+00 -2.455891110002994537e-02 -4.400786757469177246e-01 1.814479194581508636e-02
2.580000000000000000e+02 1.612813377380371094e+01 -1.276118874549865723e+00 1.904957532882690430e+00 1.559520626068115234e+01 5.250049114227294922e+00 3.334450721740722656e+00
2.590000000000000000e+02 1.329662036895751953e+01 1.540953218936920166e-01 -2.636795043945312500e+00 7.721407711505889893e-02 -7.678743004798889160e-01 -1.353206634521484375e-01
2.600000000000000000e+02 1.327923679351806641e+01 5.891731977462768555e-01 -1.139092206954956055e+00 6.073216348886489868e-02 -3.235080242156982422e-01 -5.678829550743103027e-01
2.610000000000000000e+02 1.306790924072265625e+01 9.884682297706604004e-01 -3.251779377460479736e-01 2.696997821331024170e-01 -1.664344593882560730e-02 -9.078091979026794434e-01
2.620000000000000000e+02 1.330451107025146484e+01 -9.235674142837524414e-01 5.791155695915222168e-01 3.436063230037689209e-01 2.768165767192840576e-01 9.174399971961975098e-01
2.630000000000000000e+02 1.494938945770263672e+01 -2.444023489952087402e-01 2.538783311843872070e+00 4.260394871234893799e-01 8.894468545913696289e-01 1.236152648925781250e+00
2.640000000000000000e+02 1.471242523193359375e+01 -4.576774686574935913e-02 -4.510567784309387207e-01 6.120365858078002930e-02 -1.169559359550476074e-01 1.000807434320449829e-01
2.650000000000000000e+02 1.560605525970458984e+01 1.138325572013854980e+00 4.610156536102294922e+00 1.245368766784667969e+01 5.119153499603271484e+00 -8.429426193237304688e+00
2.660000000000000000e+02 1.404304027557373047e+01 1.409641981124877930e+00 2.172208070755004883e+00 1.706457376480102539e+00 1.163599610328674316e+00 -3.263558387756347656e+00
2.670000000000000000e+02 1.342211151123046875e+01 1.159672498703002930e+00 6.472743153572082520e-01 6.241269111633300781e-01 3.814203739166259766e-01 -1.652699470520019531e+00
2.680000000000000000e+02 1.349609279632568359e+01 1.663230359554290771e-01 -2.458155393600463867e+00 -3.409062698483467102e-02 -7.476738095283508301e-01 -1.748017370700836182e-01
2.690000000000000000e+02 1.347964954376220703e+01 3.916582763195037842e-01 -1.583633065223693848e+00 5.610783398151397705e-02 -4.582575857639312744e-01 -3.353501260280609131e-01
2.700000000000000000e+02 1.330010128021240234e+01 -1.047641336917877197e-01 -1.581048250198364258e+00 5.948265269398689270e-02 -4.564696848392486572e-01 -1.098820287734270096e-02
2.710000000000000000e+02 1.522183227539062500e+01 -1.010944008827209473e+00 4.451403141021728516e+00 6.182933330535888672e+00 3.190300941467285156e+00 5.644878387451171875e+00
2.720000000000000000e+02 1.365493774414062500e+01 1.450863957405090332e+00 1.413801789283752441e+00 1.189894556999206543e+00 7.811089158058166504e-01 -2.516335964202880859e+00
2.730000000000000000e+02 1.312360954284667969e+01 -1.158560514450073242e+00 6.457959413528442383e-01 5.050686001777648926e-01 3.452593684196472168e-01 1.064489722251892090e+00
2.740000000000000000e+02 1.455505084991455078e+01 1.114573240280151367e+00 3.566481828689575195e+00 1.948660612106323242e+00 1.654542684555053711e+00 -3.937948942184448242e+00
2.750000000000000000e+02 1.419144535064697266e+01 8.715649247169494629e-01 1.982232928276062012e+00 6.041259765625000000e-01 7.759076952934265137e-01 -2.128908872604370117e+00
2.760000000000000000e+02 1.477558231353759766e+01 7.597949504852294922e-01 4.134151458740234375e+00 1.223946809768676758e+00 1.607429504394531250e+00 -3.312463521957397461e+00
2.770000000000000000e+02 1.468032550811767578e+01 1.432674169540405273e+00 3.686630487442016602e+00 3.532737016677856445e+00 2.165810346603393555e+00 -5.218814373016357422e+00
2.780000000000000000e+02 1.399751472473144531e+01 8.390409350395202637e-01 1.244501113891601562e+00 4.587162733078002930e-01 5.109652280807495117e-01 -1.637357115745544434e+00
2.790000000000000000e+02 1.404184055328369141e+01 5.597321391105651855e-01 1.772986501455307007e-01 1.648027896881103516e-01 1.026304364204406738e-01 -9.441402554512023926e-01
2.800000000000000000e+02 1.369837856292724609e+01 -8.050449490547180176e-01 9.824844002723693848e-01 3.396481573581695557e-01 3.966397643089294434e-01 1.034990906715393066e+00
2.810000000000000000e+02 1.425740718841552734e+01 5.210152864456176758e-01 6.024177670478820801e-01 1.767460107803344727e-01 2.337491214275360107e-01 -9.975475072860717773e-01
2.820000000000000000e+02 1.377956104278564453e+01 7.622475624084472656e-01 3.600220084190368652e-01 2.880453765392303467e-01 1.944202184677124023e-01 -1.206333756446838379e+00
2.830000000000000000e+02 1.431535530090332031e+01 -9.261174499988555908e-02 -8.819853067398071289e-01 5.870303511619567871e-02 -2.469846755266189575e-01 8.346205204725265503e-02
2.840000000000000000e+02 1.484719562530517578e+01 -9.079707264900207520e-01 4.074571132659912109e+00 2.818217754364013672e+00 2.067836523056030273e+00 3.893819093704223633e+00
2.850000000000000000e+02 1.449932479858398438e+01 -1.032837271690368652e+00 3.203918218612670898e+00 1.896794915199279785e+00 1.530213952064514160e+00 3.000470876693725586e+00
2.860000000000000000e+02 1.372896766662597656e+01 -1.069550633430480957e+00 1.657701373100280762e+00 7.249109745025634766e-01 7.147837281227111816e-01 1.593750476837158203e+00
2.870000000000000000e+02 1.328147029876708984e+01 -5.271937251091003418e-01 -3.643310368061065674e-01 2.724723145365715027e-02 -1.011251434683799744e-01 3.847425282001495361e-01
2.880000000000000000e+02 1.493678760528564453e+01 1.185012340545654297e+00 4.784844398498535156e+00 4.145156383514404297e+00 2.679000139236450195e+00 -5.867838859558105469e+00
2.890000000000000000e+02 1.457058048248291016e+01 8.772902488708496094e-01 3.433064699172973633e+00 1.235662341117858887e+00 1.400618076324462891e+00 -3.115638732910156250e+00
2.900000000000000000e+02 1.456035995483398438e+01 -2.966661453247070312e-01 1.172587871551513672e+00 2.234891802072525024e-01 4.188231229782104492e-01 7.540781497955322266e-01
2.910000000000000000e+02 1.324025344848632812e+01 1.043531179428100586e+00 1.002439558506011963e-01 4.805303514003753662e-01 1.742322891950607300e-01 -1.304837107658386230e+00
2.920000000000000000e+02 1.328459262847900391e+01 -7.234460115432739258e-01 2.960080504417419434e-01 1.396999657154083252e-01 1.307124048471450806e-01 5.538862347602844238e-01
2.930000000000000000e+02 1.310579872131347656e+01 -7.390533685684204102e-01 -4.674046114087104797e-02 1.255274415016174316e-01 2.363609336316585541e-02 5.182062983512878418e-01
2.940000000000000000e+02 1.352588653564453125e+01 -1.105067133903503418e+00 1.269485116004943848e+00 5.629684925079345703e-01 5.497360825538635254e-01 1.374414086341857910e+00
2.950000000000000000e+02 1.393560314178466797e+01 -1.318501710891723633e+00 2.298397541046142578e+00 1.377200007438659668e+00 1.102679252624511719e+00 2.402151346206665039e+00
2.960000000000000000e+02 1.433287811279296875e+01 -1.307554483413696289e+00 2.794686317443847656e+00 2.102992296218872070e+00 1.469303607940673828e+00 3.088820695877075195e+00
2.970000000000000000e+02 1.453208637237548828e+01 -1.295259237289428711e+00 3.179465293884277344e+00 2.738872289657592773e+00 1.775501251220703125e+00 3.666772603988647461e+00
2.980000000000000000e+02 1.437179851531982422e+01 -8.312104344367980957e-01 2.709686756134033203e+00 1.091418266296386719e+00 1.140331506729125977e+00 2.166666269302368164e+00
2.990000000000000000e+02 1.308368778228759766e+01 7.857810854911804199e-01 -8.009061217308044434e-01 2.091066390275955200e-01 -1.775398403406143188e-01 -7.021638154983520508e-01
3.000000000000000000e+02 1.328712558746337891e+01 8.147909045219421387e-01 -2.521410882472991943e-01 2.473646551370620728e-01 -1.432932680472731590e-03 -8.693598508834838867e-01
3.010000000000000000e+02 1.358340454101562500e+01 1.292644739151000977e+00 1.126807808876037598e+00 8.980612754821777344e-01 6.074607372283935547e-01 -2.118031740188598633e+00
3.020000000000000000e+02 1.421951389312744141e+01 1.108071923255920410e+00 2.434934139251708984e+00 1.260103344917297363e+00 1.108511209487915039e+00 -2.918408155441284180e+00
3.030000000000000000e+02 1.367344760894775391e+01 4.325800538063049316e-01 -9.929035902023315430e-01 5.548094213008880615e-02 -2.812268137931823730e-01 -5.177000164985656738e-01
3.040000000000000000e+02 1.469735813140869141e+01 2.181027531623840332e-01 -4.883185029029846191e-01 -3.998179920017719269e-03 -1.476950049400329590e-01 -3.067997694015502930e-01
3.050000000000000000e+02 1.308753871917724609e+01 5.725688934326171875e-01 -1.239159822463989258e+00 5.762844532728195190e-02 -3.544594049453735352e-01 -3.902955651283264160e-01
3.060000000000000000e+02 1.500040626525878906e+01 6.303078532218933105e-01 5.016273498535156250e+00 1.170722126960754395e+00 1.856098651885986328e+00 -3.377101659774780273e+00
3.070000000000000000e+02 1.489606666564941406e+01 9.725490212440490723e-01 4.802820205688476562e+00 2.880391597747802734e+00 2.304963588714599609e+00 -4.882352352142333984e+00
3.080000000000000000e+02 1.348804187774658203e+01 -3.401795029640197754e-01 -7.198784947395324707e-01 7.142900675535202026e-02 -1.945348531007766724e-01 2.116806805133819580e-01
3.090000000000000000e+02 1.437175083160400391e+01 -3.846561014652252197e-01 1.121767759323120117e+00 1.750047504901885986e-01 3.890317380428314209e-01 7.390833497047424316e-01
3.100000000000000000e+02 1.474235725402832031e+01 -2.711611986160278320e-01 1.795221686363220215e+00 2.122804820537567139e-01 6.022506356239318848e-01 9.526877403259277344e-01
3.110000000000000000e+02 1.500815010070800781e+01 -9.889019727706909180e-01 4.479560375213623047e+00 4.086378574371337891e+00 2.569781541824340820e+00 4.828975200653076172e+00
3.120000000000000000e+02 1.557408428192138672e+01 -1.291962504386901855e+00 3.025073051452636719e+00 1.036189842224121094e+01 4.016091346740722656e+00 5.740064144134521484e+00
3.130000000000000000e+02 1.577285385131835938e+01 -1.298485159873962402e+00 2.356402397155761719e+00 1.243467903137207031e+01 4.437324523925781250e+00 5.077558040618896484e+00
3.140000000000000000e+02 1.474534511566162109e+01 1.160109519958496094e+00 4.051420211791992188e+00 2.852117300033569336e+00 2.071061134338378906e+00 -4.741209983825683594e+00
3.150000000000000000e+02 1.543968582153320312e+01 1.068822979927062988e+00 5.582958698272705078e+00 9.252003669738769531e+00 4.450488567352294922e+00 -8.353735923767089844e+00
3.160000000000000000e+02 1.507945251464843750e+01 1.461580991744995117e+00 3.823935031890869141e+00 6.483360290527343750e+00 3.092188596725463867e+00 -6.616940498352050781e+00
3.170000000000000000e+02 1.623217010498046875e+01 1.478927373886108398e+00 1.908202648162841797e+00 1.686307334899902344e+01 5.631382942199707031e+00 -4.049036979675292969e+00
3.180000000000000000e+02 1.640717887878417969e+01 1.460119009017944336e+00 2.049789905548095703e+00 1.754663658142089844e+01 5.878927707672119141e+00 -2.930426120758056641e+00
3.190000000000000000e+02 1.719068717956542969e+01 3.828479945659637451e-01 1.226130104064941406e+01 1.327174377441406250e+01 7.659913539886474609e+00 3.772472739219665527e-01
3.200000000000000000e+02 1.736031723022460938e+01 4.371324479579925537e-01 1.137939453125000000e+01 1.226840782165527344e+01 7.094340801239013672e+00 3.225008845329284668e-01
3.210000000000000000e+02 1.727659034729003906e+01 -4.394025206565856934e-01 9.959319114685058594e+00 1.329073143005371094e+01 6.975015163421630859e+00 -3.746829271316528320e+00
3.220000000000000000e+02 1.682931137084960938e+01 -1.022431254386901855e+00 4.397913932800292969e+00 1.654137992858886719e+01 6.281787872314453125e+00 -2.054913759231567383e+00
3.230000000000000000e+02 1.667164230346679688e+01 -1.109235286712646484e+00 3.473614454269409180e+00 1.685726737976074219e+01 6.099264621734619141e+00 -9.886128306388854980e-01
3.240000000000000000e+02 1.637867546081542969e+01 -8.747372627258300781e-01 3.304136276245117188e+00 1.997644233703613281e+01 6.984173297882080078e+00 5.559189319610595703e-01
3.250000000000000000e+02 1.595801353454589844e+01 -1.306207180023193359e+00 1.964168787002563477e+00 1.416810894012451172e+01 4.839683532714843750e+00 4.398710250854492188e+00
3.260000000000000000e+02 1.514434814453125000e+01 1.200866937637329102e+00 4.875232219696044922e+00 5.873929977416992188e+00 3.224748611450195312e+00 -6.829379081726074219e+00
3.270000000000000000e+02 1.700876426696777344e+01 4.593315720558166504e-01 1.297122097015380859e+01 1.529707622528076172e+01 8.480488777160644531e+00 1.124449729919433594e+00
3.280000000000000000e+02 1.698451614379882812e+01 -4.105584025382995605e-01 1.075719642639160156e+01 1.594413661956787109e+01 8.010399818420410156e+00 -4.068884372711181641e+00
3.290000000000000000e+02 1.345349121093750000e+01 -5.347161293029785156e-01 -1.464754343032836914e-01 7.628376781940460205e-02 -2.105749770998954773e-02 3.662688136100769043e-01
3.300000000000000000e+02 1.345625495910644531e+01 -6.973037123680114746e-01 4.248474538326263428e-01 1.825671643018722534e-01 1.822243779897689819e-01 7.333905696868896484e-01
3.310000000000000000e+02 1.360558700561523438e+01 -6.072039008140563965e-01 3.893196284770965576e-01 2.053958177566528320e-01 1.784146279096603394e-01 6.093054413795471191e-01
3.320000000000000000e+02 1.368912601470947266e+01 -3.936599791049957275e-01 -2.093393802642822266e-01 8.111234754323959351e-02 -3.846811130642890930e-02 3.675222992897033691e-01
3.330000000000000000e+02 1.468158340454101562e+01 -4.614850878715515137e-01 2.764379024505615234e+00 4.785716235637664795e-01 9.728851914405822754e-01 1.575449228286743164e+00
3.340000000000000000e+02 1.391408252716064453e+01 -7.496383190155029297e-01 1.319314360618591309e+00 4.122484326362609863e-01 5.194688439369201660e-01 1.142668604850769043e+00
3.350000000000000000e+02 1.376852035522460938e+01 1.178637742996215820e+00 1.380355119705200195e+00 8.601052165031433105e-01 6.721380949020385742e-01 -2.175985336303710938e+00
3.360000000000000000e+02 1.399426937103271484e+01 1.123157620429992676e+00 1.829401135444641113e+00 1.001118421554565430e+00 8.491559028625488281e-01 -2.482657432556152344e+00
3.370000000000000000e+02 1.498846435546875000e+01 -7.745447754859924316e-01 4.740464210510253906e+00 3.149651050567626953e+00 2.367034673690795898e+00 4.277096748352050781e+00
3.380000000000000000e+02 1.470682334899902344e+01 -7.778784036636352539e-01 3.542644262313842773e+00 1.784747838973999023e+00 1.598217606544494629e+00 2.999996662139892578e+00
3.390000000000000000e+02 1.349904155731201172e+01 -8.822159767150878906e-01 8.364164829254150391e-01 4.120828509330749512e-01 3.745497763156890869e-01 1.000504374504089355e+00
3.400000000000000000e+02 1.345406913757324219e+01 5.962644219398498535e-01 -7.821847796440124512e-01 7.875753939151763916e-02 -2.110281735658645630e-01 -6.584686040878295898e-01
3.410000000000000000e+02 1.360823726654052734e+01 6.458387970924377441e-01 -3.311105966567993164e-01 2.336813658475875854e-01 -2.922876551747322083e-02 -8.764153122901916504e-01
3.420000000000000000e+02 1.385666942596435547e+01 5.177681446075439453e-01 -3.464294373989105225e-01 1.583705097436904907e-01 -5.641767382621765137e-02 -7.707703113555908203e-01
3.430000000000000000e+02 1.361892890930175781e+01 9.682490229606628418e-01 6.852817535400390625e-01 4.497523605823516846e-01 3.405102193355560303e-01 -1.498489499092102051e+00
3.440000000000000000e+02 1.414814090728759766e+01 -7.510196566581726074e-01 1.970672845840454102e+00 5.178287625312805176e-01 7.465505003929138184e-01 1.466189384460449219e+00
3.450000000000000000e+02 1.428375720977783203e+01 7.293866872787475586e-01 1.708567976951599121e+00 4.390719830989837646e-01 6.442919969558715820e-01 -1.685135602951049805e+00
3.460000000000000000e+02 1.433497905731201172e+01 8.533712625503540039e-01 2.696016073226928711e+00 9.530084133148193359e-01 1.094707369804382324e+00 -2.562854766845703125e+00
3.470000000000000000e+02 1.451620769500732422e+01 -6.335434317588806152e-01 2.774736404418945312e+00 7.881369590759277344e-01 1.068862080574035645e+00 1.939521312713623047e+00
3.480000000000000000e+02 1.444557380676269531e+01 7.326160669326782227e-01 2.439740896224975586e+00 6.754768490791320801e-01 9.345653057098388672e-01 -2.182737588882446289e+00
3.490000000000000000e+02 1.108943080902099609e+01 7.713558673858642578e-01 -2.244548320770263672e+00 7.986912131309509277e-02 -6.494037508964538574e-01 -1.102104559540748596e-01
3.500000000000000000e+02 1.036627388000488281e+01 1.256230473518371582e+00 -1.693301081657409668e+00 1.317712962627410889e-01 -4.684589505195617676e-01 -8.315432816743850708e-02
3.510000000000000000e+02 1.037122917175292969e+01 2.683545053005218506e-01 -3.214561223983764648e+00 2.033445052802562714e-02 -9.582680463790893555e-01 3.002014756202697754e-02
3.520000000000000000e+02 1.234701919555664062e+01 4.003183245658874512e-01 -2.613905191421508789e+00 -6.238996610045433044e-02 -8.028885722160339355e-01 -1.236637979745864868e-01
3.530000000000000000e+02 1.284074115753173828e+01 3.882190585136413574e-01 -2.069135189056396484e+00 1.906865090131759644e-01 -5.635345578193664551e-01 -2.656469047069549561e-01
3.540000000000000000e+02 1.287048244476318359e+01 5.736601948738098145e-01 -1.459014773368835449e+00 1.426592022180557251e-01 -3.949066996574401855e-01 -4.291728138923645020e-01
3.550000000000000000e+02 1.286444282531738281e+01 7.650042772293090820e-01 -1.049254059791564941e+00 9.417185932397842407e-02 -2.865246534347534180e-01 -5.459121465682983398e-01
3.560000000000000000e+02 1.264760017395019531e+01 5.422984361648559570e-01 -1.837642312049865723e+00 2.408973276615142822e-01 -4.790235161781311035e-01 -3.915098309516906738e-01
3.570000000000000000e+02 1.276757907867431641e+01 1.158046364784240723e+00 -3.069888949394226074e-01 1.847740858793258667e-01 -3.666444495320320129e-02 -1.018014907836914062e+00
3.580000000000000000e+02 1.235092353820800781e+01 1.192958235740661621e+00 -6.869786977767944336e-01 3.967694640159606934e-01 -8.706276863813400269e-02 -8.501223921775817871e-01
3.590000000000000000e+02 1.263051795959472656e+01 7.875721454620361328e-01 -1.291912794113159180e+00 2.356489300727844238e-01 -3.168791830539703369e-01 -6.452840566635131836e-01
3.600000000000000000e+02 1.268252182006835938e+01 1.393890976905822754e+00 -9.335659444332122803e-02 4.670323729515075684e-01 1.121027320623397827e-01 -1.271549105644226074e+00
3.610000000000000000e+02 1.281707859039306641e+01 9.506074786186218262e-01 -7.202779054641723633e-01 1.602028459310531616e-01 -1.680225282907485962e-01 -8.584288358688354492e-01
3.620000000000000000e+02 1.180207347869873047e+01 1.267305970191955566e+00 -1.045489430427551270e+00 2.708842456340789795e-01 -2.323815375566482544e-01 -6.231663227081298828e-01
3.630000000000000000e+02 1.228599357604980469e+01 8.080779314041137695e-01 -1.582032918930053711e+00 1.113034412264823914e-01 -4.412188529968261719e-01 -4.846007525920867920e-01
3.640000000000000000e+02 1.036608505249023438e+01 7.627816200256347656e-01 -2.445962667465209961e+00 5.622792243957519531e-02 -7.169204354286193848e-01 1.902917516417801380e-03
3.650000000000000000e+02 1.110854816436767578e+01 2.734310328960418701e-01 -3.225515365600585938e+00 8.307510055601596832e-03 -9.651623368263244629e-01 -1.342725474387407303e-02
3.660000000000000000e+02 1.181260871887207031e+01 2.885816395282745361e-01 -3.080395936965942383e+00 2.742390334606170654e-02 -9.158916473388671875e-01 -6.765320152044296265e-02
3.670000000000000000e+02 1.175024986267089844e+01 7.868710756301879883e-01 -1.913274645805358887e+00 9.620341658592224121e-02 -5.451213717460632324e-01 -2.599446177482604980e-01
3.680000000000000000e+02 1.271362018585205078e+01 1.657341569662094116e-01 -2.996997594833374023e+00 5.355620756745338440e-02 -8.830324411392211914e-01 -3.264274448156356812e-02
3.690000000000000000e+02 1.109880733489990234e+01 1.263334751129150391e+00 -1.451392531394958496e+00 2.421524375677108765e-01 -3.627720475196838379e-01 -3.211949467658996582e-01
3.700000000000000000e+02 8.383767127990722656e+00 8.264935612678527832e-01 -2.141429662704467773e+00 -2.295176032930612564e-03 -6.431174874305725098e-01 2.513217628002166748e-01
3.710000000000000000e+02 8.003996849060058594e+00 2.909340262413024902e-01 -2.603384971618652344e+00 3.792678005993366241e-03 -7.798777222633361816e-01 9.034905582666397095e-02
3.720000000000000000e+02 9.622347831726074219e+00 1.267841100692749023e+00 -1.729571819305419922e+00 1.754548847675323486e-01 -4.662350714206695557e-01 1.337093710899353027e-01
3.730000000000000000e+02 9.587612152099609375e+00 8.167340159416198730e-01 -2.385594129562377930e+00 4.587627947330474854e-02 -7.019153237342834473e-01 7.811308652162551880e-02
3.740000000000000000e+02 6.454916477203369141e+00 3.856300711631774902e-01 -1.929841637611389160e+00 1.106159668415784836e-02 -5.756340026855468750e-01 1.827479600906372070e-01
3.750000000000000000e+02 6.039213657379150391e+00 1.132988929748535156e+00 -1.343506813049316406e+00 1.791120506823062897e-02 -3.976786732673645020e-01 4.585634768009185791e-01
3.760000000000000000e+02 3.912823677062988281e+00 3.901121318340301514e-01 -7.745683193206787109e-01 -1.491075102239847183e-02 -2.368437200784683228e-01 1.669064760208129883e-01
3.770000000000000000e+02 3.579488277435302734e+00 1.216939210891723633e+00 -5.813317894935607910e-01 -6.740468740463256836e-02 -1.946209371089935303e-01 4.154058992862701416e-01
3.780000000000000000e+02 2.150594472885131836e+00 2.907074093818664551e-01 -1.765701919794082642e-01 -7.888449355959892273e-03 -5.533759295940399170e-02 7.719507068395614624e-02
3.790000000000000000e+02 2.249405622482299805e+00 7.934753298759460449e-01 -2.963605821132659912e-01 -2.273777872323989868e-02 -9.572950750589370728e-02 1.844207495450973511e-01
3.800000000000000000e+02 1.118146657943725586e+00 1.130232691764831543e+00 -8.374752849340438843e-02 -1.011384725570678711e-01 -5.546579882502555847e-02 1.165941506624221802e-01
3.810000000000000000e+02 7.017054557800292969e-01 3.902327418327331543e-01 -1.918112672865390778e-02 -6.125197280198335648e-03 -7.591897156089544296e-03 1.124614733271300793e-03
3.820000000000000000e+02 3.953980803489685059e-01 9.591032266616821289e-01 -7.894005626440048218e-03 -2.580108866095542908e-02 -1.010852772742509842e-02 2.801535092294216156e-02
3.830000000000000000e+02 3.006611585617065430e+00 3.382206559181213379e-01 -4.719411730766296387e-01 -2.356876246631145477e-02 -1.486529856920242310e-01 1.206053942441940308e-01
3.840000000000000000e+02 4.783449172973632812e+00 3.935074508190155029e-01 -1.150757908821105957e+00 6.623324006795883179e-03 -3.432403802871704102e-01 1.848877221345901489e-01
3.850000000000000000e+02 4.328669071197509766e+00 1.130112171173095703e+00 -8.234831690788269043e-01 -1.644262671470642090e-02 -2.519777417182922363e-01 4.375035166740417480e-01
3.860000000000000000e+02 5.199145793914794922e+00 1.133507490158081055e+00 -1.093455195426940918e+00 -9.674997068941593170e-03 -3.309390544891357422e-01 4.598358869552612305e-01
3.870000000000000000e+02 5.623666286468505859e+00 3.929888606071472168e-01 -1.544777631759643555e+00 -8.301527239382266998e-03 -4.659237563610076904e-01 1.775413453578948975e-01
3.880000000000000000e+02 6.870315074920654297e+00 1.125630021095275879e+00 -1.568132162094116211e+00 3.110938705503940582e-02 -4.611068367958068848e-01 4.091639816761016846e-01
3.890000000000000000e+02 7.677897930145263672e+00 1.105313658714294434e+00 -1.777022600173950195e+00 8.295059949159622192e-02 -5.082216262817382812e-01 3.800645470619201660e-01
3.900000000000000000e+02 8.723080635070800781e+00 2.913233637809753418e-01 -2.902917146682739258e+00 -4.299101419746875763e-03 -8.721648454666137695e-01 9.059873968362808228e-02
3.910000000000000000e+02 8.961945533752441406e+00 1.186733961105346680e+00 -1.896477460861206055e+00 8.717966824769973755e-02 -5.427893400192260742e-01 2.525322735309600830e-01
3.920000000000000000e+02 9.546838760375976562e+00 3.088928461074829102e-01 -3.071703672409057617e+00 1.043028663843870163e-02 -9.183819890022277832e-01 7.839103043079376221e-02
3.930000000000000000e+02 2.181761980056762695e+00 1.262767910957336426e+00 -2.604115605354309082e-01 -1.126400306820869446e-01 -1.119154766201972961e-01 2.922455668449401855e-01
3.940000000000000000e+02 1.682251453399658203e+00 9.469181299209594727e-01 -1.712589263916015625e-01 -8.248823136091232300e-02 -7.612414658069610596e-02 1.619203984737396240e-01
3.950000000000000000e+02 7.262648582458496094e+00 3.653136789798736572e-01 -2.308392286300659180e+00 2.897463738918304443e-02 -6.838253140449523926e-01 1.456744819879531860e-01
3.960000000000000000e+02 1.391242384910583496e+00 3.277232348918914795e-01 -3.773704916238784790e-02 -2.247768081724643707e-02 -1.806441880762577057e-02 2.570465765893459320e-02
3.970000000000000000e+02 2.995070219039916992e+00 8.646259903907775879e-01 -4.629659056663513184e-01 -5.155381932854652405e-02 -1.543559283018112183e-01 2.822012305259704590e-01
3.980000000000000000e+02 2.904589891433715820e+00 1.286405324935913086e+00 -3.899369537830352783e-01 -1.049204319715499878e-01 -1.484572142362594604e-01 3.957779407501220703e-01
3.990000000000000000e+02 7.387826919555664062e+00 -1.228147029876708984e+00 -1.007934570312500000e+00 3.282200545072555542e-02 -2.925337851047515869e-01 -2.141975611448287964e-01
4.000000000000000000e+02 6.722123026847839355e-01 -1.112654924392700195e+00 -2.728554606437683105e-02 -3.360207378864288330e-02 -1.826628670096397400e-02 -3.304885327816009521e-02
4.010000000000000000e+02 9.614300727844238281e+00 -1.243852138519287109e+00 -1.030826807022094727e+00 6.988648325204849243e-02 -2.882820963859558105e-01 -4.940101411193609238e-03
4.020000000000000000e+02 8.277483940124511719e+00 -3.257921636104583740e-01 -1.702660202980041504e+00 3.490873426198959351e-02 -5.003254413604736328e-01 -8.490466326475143433e-02
4.030000000000000000e+02 8.811197280883789062e+00 -1.196964621543884277e+00 -1.085397481918334961e+00 8.852462470531463623e-02 -2.990618646144866943e-01 -1.331432014703750610e-01
4.040000000000000000e+02 8.857983589172363281e+00 -6.811586022377014160e-01 -1.497514009475708008e+00 -9.105213917791843414e-03 -4.519857764244079590e-01 -9.781324118375778198e-02
4.050000000000000000e+02 8.053976058959960938e+00 -1.222316265106201172e+00 -1.123731970787048340e+00 3.860696405172348022e-02 -3.255375027656555176e-01 -1.875866949558258057e-01
4.060000000000000000e+02 7.738002777099609375e+00 -6.879261136054992676e-01 -1.420027017593383789e+00 2.185133844614028931e-02 -4.194526970386505127e-01 -1.394139975309371948e-01
4.070000000000000000e+02 5.910375118255615234e+00 -1.139167428016662598e+00 -8.434346914291381836e-01 -7.376412861049175262e-03 -2.552433311939239502e-01 -2.929759323596954346e-01
4.080000000000000000e+02 4.240605831146240234e+00 -7.381610870361328125e-01 -5.731888413429260254e-01 5.592064466327428818e-03 -1.702790260314941406e-01 -1.992572546005249023e-01
4.090000000000000000e+02 3.477531433105468750e+00 -1.253017783164978027e+00 -3.796566128730773926e-01 -2.571778930723667145e-02 -1.216123178601264954e-01 -2.801035642623901367e-01
4.100000000000000000e+02 1.719033598899841309e+00 -4.114045798778533936e-01 -9.221957623958587646e-02 -1.642667315900325775e-02 -3.259387239813804626e-02 -4.437570273876190186e-02
4.110000000000000000e+02 9.619897842407226562e+00 -7.453664541244506836e-01 -1.399834752082824707e+00 6.416784226894378662e-02 -4.007000625133514404e-01 -4.990860074758529663e-02
4.120000000000000000e+02 9.622746467590332031e+00 -2.615142762660980225e-01 -2.043816089630126953e+00 4.146772250533103943e-02 -6.007044911384582520e-01 -3.760877251625061035e-02
4.130000000000000000e+02 6.693691253662109375e+00 -1.157715439796447754e+00 -9.325078129768371582e-01 6.326103582978248596e-03 -2.778545022010803223e-01 -2.607719302177429199e-01
4.140000000000000000e+02 7.077139854431152344e+00 -4.177154004573822021e-01 -1.460978627204895020e+00 -8.871624246239662170e-03 -4.409550726413726807e-01 -1.199633479118347168e-01
4.150000000000000000e+02 5.601684570312500000e+00 -3.065902888774871826e-01 -1.050007820129394531e+00 -2.748538181185722351e-02 -3.232479393482208252e-01 -7.537975907325744629e-02
4.160000000000000000e+02 4.243069171905517578e+00 -1.240236163139343262e+00 -5.162308812141418457e-01 -1.568734645843505859e-02 -1.595754623413085938e-01 -3.021784126758575439e-01
4.170000000000000000e+02 2.830248117446899414e+00 -7.497942447662353516e-01 -3.013923764228820801e-01 -1.952853612601757050e-02 -9.627627581357955933e-02 -1.709064841270446777e-01
4.180000000000000000e+02 2.028330087661743164e+00 -1.203356742858886719e+00 -1.422319561243057251e-01 -7.655593752861022949e-02 -6.563636660575866699e-02 -1.779966354370117188e-01
4.190000000000000000e+02 2.786607265472412109e+00 -2.630856931209564209e-01 -2.528565824031829834e-01 4.120965953916311264e-03 -7.462068647146224976e-02 -5.609294772148132324e-02
4.200000000000000000e+02 1.056760787963867188e+00 -3.726549148559570312e-01 -1.843494363129138947e-02 -1.022483967244625092e-02 -8.597934618592262268e-03 -1.467798557132482529e-02
4.210000000000000000e+02 3.718193769454956055e-01 -5.559452772140502930e-01 -3.603970981203019619e-04 -1.175176468677818775e-03 -4.606720758602023125e-04 -5.658152513206005096e-04
4.220000000000000000e+02 6.293961048126220703e+00 -3.991674184799194336e-01 -1.241497039794921875e+00 -1.096088904887437820e-02 -3.757373988628387451e-01 -1.021901741623878479e-01
4.230000000000000000e+02 5.064516544342041016e+00 -1.182326912879943848e+00 -6.776095628738403320e-01 1.165403984487056732e-02 -1.997866630554199219e-01 -3.022382557392120361e-01
4.240000000000000000e+02 2.736442804336547852e+00 -1.246708512306213379e+00 -2.625817358493804932e-01 -6.062854081392288208e-02 -9.696308523416519165e-02 -2.444741576910018921e-01
4.250000000000000000e+02 2.296998500823974609e+00 -5.852273702621459961e-01 -1.861167699098587036e-01 -2.384516969323158264e-02 -6.298857927322387695e-02 -9.189781546592712402e-02
4.260000000000000000e+02 8.894563674926757812e+00 -2.441940158605575562e-01 -1.931272506713867188e+00 -3.085036575794219971e-02 -5.886368751525878906e-01 -5.069141089916229248e-02
4.270000000000000000e+02 1.334622621536254883e+00 -1.151404619216918945e+00 -6.749089807271957397e-02 -7.518564909696578979e-02 -4.280296340584754944e-02 -1.037317961454391479e-01
4.280000000000000000e+02 3.496969223022460938e+00 -7.549724578857421875e-01 -4.162611663341522217e-01 -2.328041382133960724e-02 -1.318624764680862427e-01 -1.947336941957473755e-01
4.290000000000000000e+02 3.481611728668212891e+00 -2.619546651840209961e-01 -4.431245326995849609e-01 -1.362371630966663361e-02 -1.370244771242141724e-01 -6.734839826822280884e-02
4.300000000000000000e+02 4.229082584381103516e+00 -2.579249441623687744e-01 -6.629860997200012207e-01 8.433696813881397247e-03 -1.963657289743423462e-01 -7.574916630983352661e-02
4.310000000000000000e+02 4.964435100555419922e+00 -2.367138117551803589e-01 -8.376958370208740234e-01 1.428577955812215805e-02 -2.470230162143707275e-01 -3.706424683332443237e-02
4.320000000000000000e+02 5.028033733367919922e+00 -6.590407490730285645e-01 -8.283970952033996582e-01 2.154026925563812256e-02 -2.420570552349090576e-01 -2.040413171052932739e-01
4.330000000000000000e+02 2.691045761108398438e+00 -1.873134374618530273e+00 -2.207833081483840942e-01 -9.149450808763504028e-02 -9.368334710597991943e-02 -3.208235204219818115e-01
4.340000000000000000e+02 3.443126678466796875e+00 -1.880019187927246094e+00 -3.147513866424560547e-01 -6.284338980913162231e-02 -1.132784336805343628e-01 -3.651677668094635010e-01
4.350000000000000000e+02 1.047687053680419922e+01 -2.380536317825317383e+00 -1.185582764446735382e-02 4.856595098972320557e-01 1.421411037445068359e-01 5.180747509002685547e-01
4.360000000000000000e+02 1.188897895812988281e+01 -1.716847658157348633e+00 2.371671199798583984e-01 3.476282656192779541e-01 1.754386126995086670e-01 8.246646523475646973e-01
4.370000000000000000e+02 5.459768772125244141e-01 -1.064791393280029297e+01 3.976560663431882858e-03 -2.137873888015747070e+00 -6.401692032814025879e-01 -9.539167582988739014e-02
4.380000000000000000e+02 1.201228332519531250e+01 -1.817115211486816406e+01 1.624493837356567383e+00 7.032760143280029297e+00 2.597176313400268555e+00 8.181716203689575195e-01
4.390000000000000000e+02 1.432773303985595703e+01 -1.975980186462402344e+01 7.784999012947082520e-01 1.154198741912841797e+01 3.696146249771118164e+00 -8.833394050598144531e-01
4.400000000000000000e+02 1.344074344635009766e+01 -1.733609199523925781e+01 1.452209472656250000e+00 1.046038722991943359e+01 3.573779106140136719e+00 1.280136942863464355e+00
4.410000000000000000e+02 1.411107921600341797e+01 -1.847347450256347656e+01 6.319715976715087891e-01 1.165250587463378906e+01 3.685343265533447266e+00 3.864811360836029053e-01
4.420000000000000000e+02 1.333488178253173828e+01 -1.550328063964843750e+01 2.156323671340942383e+00 8.363686561584472656e+00 3.156002998352050781e+00 1.294096350669860840e+00
4.430000000000000000e+02 1.685293388366699219e+01 -1.256734085083007812e+01 2.082873582839965820e+00 4.283134460449218750e+00 1.909802317619323730e+00 2.980285167694091797e+00
4.440000000000000000e+02 1.944551277160644531e+01 -1.148583316802978516e+01 -2.080523967742919922e+00 4.162944555282592773e-01 -4.992688596248626709e-01 2.311241626739501953e-01
4.450000000000000000e+02 2.344242858886718750e+01 -1.055705642700195312e+01 -2.530478715896606445e+00 -2.369378358125686646e-01 -8.302249908447265625e-01 -1.014828801155090332e+00
4.460000000000000000e+02 2.581226730346679688e+01 -9.423444747924804688e+00 -2.620930910110473633e+00 -9.111835956573486328e-01 -1.059634327888488770e+00 -1.536590933799743652e+00
4.470000000000000000e+02 2.688681221008300781e+01 -8.832492828369140625e+00 -3.376498460769653320e+00 -9.356912970542907715e-01 -1.293656945228576660e+00 -1.570234060287475586e+00
4.480000000000000000e+02 2.855619812011718750e+01 -8.138118743896484375e+00 -3.770994901657104492e+00 -6.203121542930603027e-01 -1.317392110824584961e+00 -6.850574016571044922e-01
4.490000000000000000e+02 3.135752868652343750e+01 -8.692537307739257812e+00 1.141192689538002014e-01 2.948888301849365234e+00 9.189022183418273926e-01 -1.731737136840820312e+00
4.500000000000000000e+02 3.260439682006835938e+01 -9.707304000854492188e+00 1.768523335456848145e+00 5.491034507751464844e+00 2.177867412567138672e+00 -3.260079860687255859e+00
4.510000000000000000e+02 3.355001068115234375e+01 -1.090735816955566406e+01 3.026626348495483398e+00 9.414422035217285156e+00 3.732314586639404297e+00 -4.987063407897949219e+00
4.520000000000000000e+02 3.431166076660156250e+01 -1.215339756011962891e+01 2.984207868576049805e+00 1.298444747924804688e+01 4.790596485137939453e+00 -5.231595039367675781e+00
4.530000000000000000e+02 4.475806808471679688e+01 -1.589382362365722656e+01 1.617289662361145020e+00 6.738173007965087891e+00 2.506638765335083008e+00 6.100745797157287598e-01
4.540000000000000000e+02 4.647954177856445312e+01 -1.689215278625488281e+01 2.688777923583984375e+00 6.025550842285156250e+00 2.614298582077026367e+00 3.056339263916015625e+00
4.550000000000000000e+02 4.754067230224609375e+01 -1.610614967346191406e+01 3.231683492660522461e+00 2.657803058624267578e+00 1.766845941543579102e+00 2.610137701034545898e+00
4.560000000000000000e+02 4.877690124511718750e+01 -1.549940681457519531e+01 2.858077764511108398e+00 1.279406070709228516e+00 1.241245150566101074e+00 1.500878810882568359e+00
4.570000000000000000e+02 5.015967178344726562e+01 -1.508086872100830078e+01 1.389341831207275391e+00 1.138207241892814636e-01 4.509487450122833252e-01 8.273984193801879883e-01
4.580000000000000000e+02 5.968283081054687500e+01 -1.388905906677246094e+01 -2.381298780441284180e+00 2.504028566181659698e-02 -7.068775296211242676e-01 -6.463101506233215332e-01
4.590000000000000000e+02 6.022968292236328125e+01 -1.229552650451660156e+01 -2.501735687255859375e+00 4.621127247810363770e-01 -6.118868589401245117e-01 -3.113180100917816162e-01
4.600000000000000000e+02 6.491439819335937500e+01 -1.043345737457275391e+01 -1.057111740112304688e+00 1.718463778495788574e+00 1.984056234359741211e-01 -2.309724092483520508e+00
4.610000000000000000e+02 6.648868560791015625e+01 -1.312090301513671875e+01 1.440032839775085449e+00 4.037395477294921875e+00 1.643228530883789062e+00 -2.284102201461791992e+00
4.620000000000000000e+02 6.751699829101562500e+01 -1.406777858734130859e+01 2.591749668121337891e+00 7.941462039947509766e+00 3.159963369369506836e+00 -4.565305709838867188e+00
4.630000000000000000e+02 6.820729827880859375e+01 -1.309712219238281250e+01 -2.044954597949981689e-01 9.978384017944335938e+00 2.932166576385498047e+00 -2.359441757202148438e+00
4.640000000000000000e+02 6.890575408935546875e+01 -1.205740833282470703e+01 -1.643859148025512695e+00 9.389160156250000000e+00 2.323590278625488281e+00 -1.202197790145874023e+00
4.650000000000000000e+02 6.967017364501953125e+01 -1.599591636657714844e+01 2.553145647048950195e+00 1.476384830474853516e+01 5.195097923278808594e+00 -1.678254961967468262e+00
4.660000000000000000e+02 7.056861877441406250e+01 -1.803252601623535156e+01 2.403661012649536133e+00 1.290749168395996094e+01 4.593346118927001953e+00 -7.141695618629455566e-01
4.670000000000000000e+02 6.871265411376953125e+01 -2.000786209106445312e+01 9.720448851585388184e-01 1.721689987182617188e+01 5.456683635711669922e+00 2.039533615112304688e+00
4.680000000000000000e+02 6.974162292480468750e+01 -2.053091430664062500e+01 1.514505982398986816e+00 1.394822597503662109e+01 4.638819694519042969e+00 8.507719635963439941e-01
4.690000000000000000e+02 6.818807983398437500e+01 -2.484452247619628906e+01 -3.169007897377014160e-01 8.051324844360351562e+00 2.320327281951904297e+00 1.369208335876464844e+00
4.700000000000000000e+02 6.259250259399414062e+01 -3.051973533630371094e+01 -1.268503069877624512e+00 1.080337762832641602e+00 -5.644960328936576843e-02 4.384290874004364014e-01
4.710000000000000000e+02 6.117689132690429688e+01 -3.122667884826660156e+01 -1.208218812942504883e+00 5.698574781417846680e-01 -1.915083974599838257e-01 1.332165002822875977e-01
4.720000000000000000e+02 5.614917755126953125e+01 -3.459759902954101562e+01 -1.372216455638408661e-02 3.653354346752166748e-01 1.054839789867401123e-01 -6.514972448348999023e-01
4.730000000000000000e+02 5.224528121948242188e+01 -3.072708511352539062e+01 -7.019348740577697754e-01 5.812181234359741211e-01 -3.621501848101615906e-02 -7.854722738265991211e-01
4.740000000000000000e+02 5.037075042724609375e+01 -3.417942810058593750e+01 -3.716266155242919922e-01 2.702997922897338867e+00 6.994113922119140625e-01 -1.774247050285339355e+00
4.750000000000000000e+02 4.998753356933593750e+01 -3.007568931579589844e+01 8.091383576393127441e-01 1.685829401016235352e+00 7.484903335571289062e-01 -1.814767718315124512e+00
4.760000000000000000e+02 4.950972747802734375e+01 -3.266056442260742188e+01 -2.592683732509613037e-01 3.619930744171142578e+00 1.008198738098144531e+00 -2.323189735412597656e+00
4.770000000000000000e+02 4.508863449096679688e+01 -3.181700515747070312e+01 -8.602948784828186035e-01 6.769312381744384766e+00 1.772705197334289551e+00 -1.276739954948425293e+00
4.780000000000000000e+02 3.976329803466796875e+01 -3.061666870117187500e+01 -6.958823800086975098e-01 7.146162509918212891e+00 1.935084104537963867e+00 3.273327946662902832e-01
4.790000000000000000e+02 3.332026672363281250e+01 -2.612777137756347656e+01 1.282126545906066895e+00 3.179939746856689453e+00 1.338619828224182129e+00 2.032459259033203125e+00
4.800000000000000000e+02 3.078040313720703125e+01 -3.041446876525878906e+01 -8.780305385589599609e-01 1.780273556709289551e+00 2.706729173660278320e-01 1.182364225387573242e+00
4.810000000000000000e+02 2.871236038208007812e+01 -2.943677330017089844e+01 -1.859928250312805176e+00 1.457663476467132568e-01 -5.142485499382019043e-01 3.813306987285614014e-02
4.820000000000000000e+02 2.761716842651367188e+01 -3.118022727966308594e+01 -1.338150739669799805e+00 2.297295480966567993e-01 -3.325263261795043945e-01 5.098720192909240723e-01
4.830000000000000000e+02 2.465797424316406250e+01 -2.986563491821289062e+01 -2.750045299530029297e+00 -1.765839755535125732e-01 -8.779888153076171875e-01 2.021860331296920776e-01
4.840000000000000000e+02 2.232526588439941406e+01 -2.948801422119140625e+01 -1.993822455406188965e+00 -1.465773731470108032e-01 -6.421199440956115723e-01 2.600806951522827148e-01
4.850000000000000000e+02 2.119203376770019531e+01 -2.857540130615234375e+01 -1.105403423309326172e+00 1.208342239260673523e-01 -2.953707873821258545e-01 2.707838118076324463e-01
4.860000000000000000e+02 1.784314537048339844e+01 -2.765196037292480469e+01 -6.487157344818115234e-01 1.866840124130249023e+00 3.654372990131378174e-01 -4.918896257877349854e-01
4.870000000000000000e+02 1.541218376159667969e+01 -2.229244422912597656e+01 1.537562370300292969e+00 5.597681999206542969e+00 2.140573263168334961e+00 -2.667646884918212891e+00
4.880000000000000000e+02 1.471015167236328125e+01 -2.107081031799316406e+01 1.646479368209838867e+00 1.020719337463378906e+01 3.556101799011230469e+00 -2.402710437774658203e+00
4.890000000000000000e+02 2.603360176086425781e+00 -3.826397323608398438e+01 -5.209064111113548279e-02 2.832218647003173828e+00 8.340384364128112793e-01 1.256026327610015869e-01
4.900000000000000000e+02 8.051788806915283203e-01 -3.743044662475585938e+01 -1.295954268425703049e-02 2.913194894790649414e+00 8.700705766677856445e-01 4.877092316746711731e-02
4.910000000000000000e+02 7.736431360244750977e-01 -3.041689109802246094e+01 7.642435841262340546e-03 1.780562162399291992e+00 5.364613533020019531e-01 2.162937819957733154e-01
4.920000000000000000e+02 6.421596407890319824e-01 -2.335017585754394531e+01 -8.797676302492618561e-03 -7.272736430168151855e-01 -2.208213955163955688e-01 2.383710592985153198e-01
4.930000000000000000e+02 6.064372062683105469e-01 -1.769913673400878906e+01 2.802070602774620056e-02 -2.384132623672485352e+00 -7.068336009979248047e-01 9.416595846414566040e-02
4.940000000000000000e+02 1.637425184249877930e+00 -1.056982326507568359e+01 3.738446161150932312e-02 -1.412338972091674805e+00 -4.124863445758819580e-01 -2.723914086818695068e-01
4.950000000000000000e+02 6.484961509704589844e-01 -2.476226425170898438e+01 1.986890099942684174e-02 -1.880074590444564819e-01 -5.044156685471534729e-02 2.531443238258361816e-01
4.960000000000000000e+02 8.427423834800720215e-01 -3.184422302246093750e+01 -3.475866839289665222e-02 2.133151769638061523e+00 6.295179128646850586e-01 1.895960122346878052e-01
4.970000000000000000e+02 6.230767250061035156e+00 -3.205841445922851562e+01 -4.598014354705810547e-01 2.617990970611572266e+00 6.474568247795104980e-01 7.837837338447570801e-01
4.980000000000000000e+02 1.182481288909912109e+01 -2.610695838928222656e+01 -7.606489062309265137e-01 4.430689334869384766e+00 1.101012229919433594e+00 7.836370468139648438e-01
4.990000000000000000e+02 1.259025669097900391e+01 -1.926403999328613281e+01 1.582966804504394531e+00 7.840152263641357422e+00 2.826935768127441406e+00 7.169622778892517090e-01
5.000000000000000000e+02 1.637801170349121094e+01 -3.812095260620117188e+01 -5.197582244873046875e-01 1.771210789680480957e+00 3.754357695579528809e-01 -1.939439177513122559e-01
5.010000000000000000e+02 1.725743675231933594e+01 -4.101538467407226562e+01 -3.526219129562377930e-01 1.584443569183349609e+00 3.695465028285980225e-01 -6.801324337720870972e-02
5.020000000000000000e+02 1.834764862060546875e+01 -3.136134910583496094e+01 -1.050660729408264160e+00 1.707623839378356934e+00 1.970889419317245483e-01 -5.646403431892395020e-01
5.030000000000000000e+02 1.692783927917480469e+01 -2.651828575134277344e+01 -3.559322059154510498e-01 2.429804801940917969e+00 6.221617460250854492e-01 -6.958318948745727539e-01
5.040000000000000000e+02 2.460930824279785156e+01 -3.969458770751953125e+01 -1.282092630863189697e-01 1.111040472984313965e+00 2.948493659496307373e-01 3.067987225949764252e-02
5.050000000000000000e+02 2.177945899963378906e+01 -3.818712234497070312e+01 -2.494063079357147217e-01 1.024040699005126953e+00 2.323902994394302368e-01 -1.477080285549163818e-01
5.060000000000000000e+02 2.874707412719726562e+01 -3.795553970336914062e+01 -4.200379848480224609e-01 1.799185633659362793e+00 4.137443006038665771e-01 4.750739634037017822e-01
5.070000000000000000e+02 3.737675857543945312e+01 -4.089245223999023438e+01 -1.631856560707092285e+00 4.936253070831298828e+00 9.913189411163330078e-01 2.278545647859573364e-01
5.080000000000000000e+02 4.225475692749023438e+01 -4.077885818481445312e+01 -1.813628911972045898e+00 5.525304794311523438e+00 1.113502740859985352e+00 -9.303386509418487549e-02
5.090000000000000000e+02 4.723197174072265625e+01 -4.070194244384765625e+01 -1.152284741401672363e+00 4.377646923065185547e+00 9.676086902618408203e-01 -3.765621781349182129e-01
5.100000000000000000e+02 5.961658096313476562e+01 -3.931889724731445312e+01 8.162021636962890625e-01 1.184141755104064941e+00 6.001031398773193359e-01 1.424858532845973969e-02
5.110000000000000000e+02 6.117444992065429688e+01 -3.681837081909179688e+01 4.791283607482910156e-01 1.468823313713073730e+00 5.843855142593383789e-01 2.481262981891632080e-01
5.120000000000000000e+02 7.193621063232421875e+01 -4.104326629638671875e+01 6.546269357204437256e-02 6.882335186004638672e+00 2.084339380264282227e+00 4.929780587553977966e-02
5.130000000000000000e+02 7.795493316650390625e+01 -4.165907287597656250e+01 1.979154497385025024e-01 9.980245590209960938e+00 3.053448438644409180e+00 5.567385628819465637e-02
5.140000000000000000e+02 7.745987701416015625e+01 -3.675011062622070312e+01 -9.430048614740371704e-02 9.701813697814941406e+00 2.882253885269165039e+00 -4.980069585144519806e-03
5.150000000000000000e+02 7.929078674316406250e+01 -3.323255920410156250e+01 -7.873406633734703064e-03 1.034870433807373047e+01 3.102249145507812500e+00 -9.840352088212966919e-02
5.160000000000000000e+02 7.804093170166015625e+01 -3.013762855529785156e+01 -1.222912520170211792e-01 9.391879081726074219e+00 2.780876159667968750e+00 -4.686785936355590820e-01
5.170000000000000000e+02 7.936431121826171875e+01 -2.631205749511718750e+01 -2.225298807024955750e-02 8.433514595031738281e+00 2.523378372192382812e+00 -2.977977395057678223e-01
5.180000000000000000e+02 6.881618499755859375e+01 -2.333359718322753906e+01 4.912229776382446289e-01 1.022609233856201172e+01 3.215194702148437500e+00 1.242222070693969727e+00
5.190000000000000000e+02 7.818415832519531250e+01 -2.318124771118164062e+01 4.407714679837226868e-02 7.487561702728271484e+00 2.259491682052612305e+00 -7.784546613693237305e-01
5.200000000000000000e+02 7.942325592041015625e+01 -2.214372444152832031e+01 5.869588255882263184e-02 6.454944133758544922e+00 1.954092025756835938e+00 -2.788366377353668213e-01
5.210000000000000000e+02 7.821051788330078125e+01 -1.644793891906738281e+01 1.704508662223815918e-01 6.458157062530517578e+00 1.988582372665405273e+00 2.647529244422912598e-01
5.220000000000000000e+02 7.805925750732421875e+01 -9.493836402893066406e+00 -1.325496584177017212e-01 7.686654090881347656e+00 2.266231298446655273e+00 3.923238813877105713e-01
5.230000000000000000e+02 7.807779693603515625e+01 -2.476319313049316406e+00 -3.630233928561210632e-02 7.636011123657226562e+00 2.279912710189819336e+00 -2.366090863943099976e-01
5.240000000000000000e+02 7.811764526367187500e+01 4.433362483978271484e+00 2.010619640350341797e-02 6.748723983764648438e+00 2.030649185180664062e+00 -2.694279849529266357e-01
5.250000000000000000e+02 7.804549407958984375e+01 1.134552001953125000e+01 5.662639439105987549e-02 6.296321868896484375e+00 1.905884504318237305e+00 -6.489042192697525024e-03
5.260000000000000000e+02 7.809391784667968750e+01 1.979504013061523438e+01 1.764265634119510651e-02 6.903519153594970703e+00 2.076348543167114258e+00 3.071730732917785645e-01
5.270000000000000000e+02 7.679203796386718750e+01 2.262588310241699219e+01 -3.608197346329689026e-02 7.242009162902832031e+00 2.161778211593627930e+00 4.442881345748901367e-01
5.280000000000000000e+02 7.931640625000000000e+01 3.214066314697265625e+01 -2.660040918271988630e-04 8.350565910339355469e+00 2.505089759826660156e+00 2.199772559106349945e-02
5.290000000000000000e+02 7.938542938232421875e+01 3.753816223144531250e+01 -3.135645017027854919e-02 8.356949806213378906e+00 2.497678041458129883e+00 -3.365708515048027039e-02
5.300000000000000000e+02 7.098692321777343750e+01 3.791238784790039062e+01 -4.848765209317207336e-02 6.530895233154296875e+00 1.944722294807434082e+00 -2.676121518015861511e-02
5.310000000000000000e+02 7.166951751708984375e+01 2.700745964050292969e+01 -3.902063369750976562e-01 7.035390853881835938e+00 1.993555426597595215e+00 3.388912379741668701e-01
5.320000000000000000e+02 7.429613494873046875e+01 2.229981803894042969e+01 -7.367910444736480713e-02 7.182603359222412109e+00 2.132677316665649414e+00 6.302446126937866211e-01
5.330000000000000000e+02 7.143605804443359375e+01 1.711459732055664062e+01 4.183413982391357422e-01 7.123025417327880859e+00 2.262410163879394531e+00 6.012958884239196777e-01
5.340000000000000000e+02 6.674767303466796875e+01 9.515756607055664062e+00 9.704416394233703613e-01 7.780449867248535156e+00 2.625267505645751953e+00 2.103404402732849121e-01
5.350000000000000000e+02 7.281929779052734375e+01 9.960697293281555176e-01 3.980827704071998596e-02 6.948180198669433594e+00 2.096396446228027344e+00 -7.569962739944458008e-01
5.360000000000000000e+02 5.979876708984375000e+01 -2.191369056701660156e+00 1.511009335517883301e+00 3.193066835403442383e+00 1.411222815513610840e+00 1.337198495864868164e+00
5.370000000000000000e+02 6.320405197143554688e+01 -1.215244293212890625e+01 -4.848359584808349609e+00 -6.965011358261108398e-01 -1.663458228111267090e+00 -1.304588198661804199e+00
5.380000000000000000e+02 5.967051696777343750e+01 3.853199005126953125e+01 3.196580111980438232e-01 3.724711179733276367e+00 1.213310718536376953e+00 -1.178114935755729675e-01
5.390000000000000000e+02 6.320310211181640625e+01 4.050862884521484375e+01 2.271555215120315552e-01 4.489262580871582031e+00 1.414925336837768555e+00 -7.018259167671203613e-02
5.400000000000000000e+02 6.522446441650390625e+01 2.933587265014648438e+01 -5.527694821357727051e-01 5.595199584960937500e+00 1.512729048728942871e+00 -4.080885052680969238e-01
5.410000000000000000e+02 6.163815307617187500e+01 1.997558593750000000e+01 1.138672947883605957e+00 7.194439411163330078e+00 2.499933719635009766e+00 -2.031569242477416992e+00
5.420000000000000000e+02 6.076623535156250000e+01 2.104471969604492188e+01 -5.020557641983032227e-01 3.461130380630493164e+00 8.877223730087280273e-01 -1.766042828559875488e+00
5.430000000000000000e+02 6.297784042358398438e+01 1.915110397338867188e+01 1.011535048484802246e+00 8.694267272949218750e+00 2.911740779876708984e+00 -1.074011921882629395e+00
5.440000000000000000e+02 6.251118469238281250e+01 1.644595527648925781e+01 3.446242213249206543e-01 1.124199676513671875e+01 3.475986480712890625e+00 -6.662346124649047852e-01
5.450000000000000000e+02 6.425135803222656250e+01 1.732268905639648438e+01 1.081861376762390137e+00 8.430479049682617188e+00 2.853702068328857422e+00 -1.468284279108047485e-01
5.460000000000000000e+02 6.227143859863281250e+01 1.226802635192871094e+01 2.908532023429870605e-01 1.101325511932373047e+01 3.391232490539550781e+00 8.379380106925964355e-01
5.470000000000000000e+02 6.184857177734375000e+01 9.476852416992187500e+00 8.219885826110839844e-01 1.058041000366210938e+01 3.420719623565673828e+00 2.012041807174682617e+00
5.480000000000000000e+02 6.147542953491210938e+01 8.105038642883300781e+00 7.635841369628906250e-01 9.210197448730468750e+00 2.992134332656860352e+00 2.484056711196899414e+00
5.490000000000000000e+02 6.191665649414062500e+01 3.219348192214965820e+00 1.034455060958862305e+00 6.042141437530517578e+00 2.122978925704956055e+00 1.419389605522155762e+00
5.500000000000000000e+02 5.891251373291015625e+01 3.072132825851440430e+00 1.716020941734313965e+00 4.019547462463378906e+00 1.720670580863952637e+00 2.549355983734130859e+00
5.510000000000000000e+02 5.651231002807617188e+01 -4.053121805191040039e-01 2.105353593826293945e+00 3.577434778213500977e+00 1.704836487770080566e+00 2.563359737396240234e+00
5.520000000000000000e+02 5.563352966308593750e+01 -1.522389650344848633e+00 2.445796489715576172e+00 3.203055620193481445e+00 1.694655656814575195e+00 2.654517650604248047e+00
5.530000000000000000e+02 5.496621322631835938e+01 -4.501520633697509766e+00 2.050273180007934570e+00 2.337152242660522461e+00 1.316227674484252930e+00 2.034459829330444336e+00
5.540000000000000000e+02 5.376272201538085938e+01 -3.642328500747680664e+00 2.666504621505737305e+00 2.774891614913940430e+00 1.632418870925903320e+00 2.652757406234741211e+00
5.550000000000000000e+02 5.075437927246093750e+01 -5.429802894592285156e+00 1.118251562118530273e+00 8.373695015907287598e-01 5.866863131523132324e-01 1.619831323623657227e+00
5.560000000000000000e+02 4.942801666259765625e+01 -5.337458610534667969e+00 -1.772173166275024414e+00 -2.913048267364501953e-01 -6.190434098243713379e-01 9.251379370689392090e-01
5.570000000000000000e+02 4.674825668334960938e+01 -4.749806404113769531e+00 -3.983610153198242188e+00 -4.962513446807861328e-01 -1.343958497047424316e+00 1.261798143386840820e+00
5.580000000000000000e+02 4.302451705932617188e+01 -5.546509742736816406e+00 -1.441908121109008789e+00 2.924341201782226562e+00 4.447298943996429443e-01 -1.445778608322143555e+00
5.590000000000000000e+02 4.287581253051757812e+01 -3.840029954910278320e+00 -1.923947215080261230e+00 1.474958300590515137e+00 -1.346966773271560669e-01 -5.195447206497192383e-01
5.600000000000000000e+02 4.038349914550781250e+01 -1.315766692161560059e+00 1.963595271110534668e+00 9.060664176940917969e+00 3.307277917861938477e+00 -3.553181171417236328e+00
5.610000000000000000e+02 3.991268157958984375e+01 -3.146757364273071289e+00 -1.206884503364562988e+00 8.367242813110351562e+00 2.148107528686523438e+00 -1.792631387710571289e+00
5.620000000000000000e+02 2.803614044189453125e+01 -9.014989137649536133e-01 5.221589088439941406e+00 2.116677463054656982e-01 1.629977107048034668e+00 -1.713775843381881714e-01
5.630000000000000000e+02 2.822551918029785156e+01 1.658943593502044678e-01 5.901536464691162109e+00 4.794310331344604492e-01 1.914290189743041992e+00 -9.247056245803833008e-01
5.640000000000000000e+02 2.693243026733398438e+01 5.590550899505615234e-01 4.246380329132080078e+00 2.085488885641098022e-01 1.336478710174560547e+00 -1.024962186813354492e+00
5.650000000000000000e+02 2.331510543823242188e+01 3.232814073562622070e+00 -1.481047987937927246e+00 -2.353077888488769531e+00 -1.150237798690795898e+00 2.107419013977050781e+00
5.660000000000000000e+02 1.658834838867187500e+01 -1.447745203971862793e+00 2.023620128631591797e+00 1.525082302093505859e+01 5.182332992553710938e+00 4.403534233570098877e-01
5.670000000000000000e+02 1.804981613159179688e+01 -1.187666511535644531e+01 -3.657446205615997314e-01 1.280642390251159668e+00 2.744693160057067871e-01 1.263729572296142578e+00
5.680000000000000000e+02 5.648783493041992188e+01 4.047201156616210938e+01 3.983624875545501709e-01 3.242349863052368164e+00 1.092213749885559082e+00 7.795787882059812546e-03
5.690000000000000000e+02 5.851445388793945312e+01 2.949539566040039062e+01 2.804953232407569885e-02 2.726719617843627930e+00 8.264307975769042969e-01 -5.336929559707641602e-01
5.700000000000000000e+02 5.605228805541992188e+01 2.160970115661621094e+01 -3.299586296081542969e+00 1.332026571035385132e-01 -9.499151110649108887e-01 -3.604965806007385254e-01
5.710000000000000000e+02 5.459039306640625000e+01 2.147642707824707031e+01 -2.922367095947265625e+00 -1.260799914598464966e-01 -9.145340919494628906e-01 -2.459349483251571655e-01
5.720000000000000000e+02 5.994421386718750000e+01 2.263880729675292969e+01 -1.414797782897949219e+00 2.483111143112182617e+00 3.204939961433410645e-01 -1.402501225471496582e+00
5.730000000000000000e+02 5.212435531616210938e+01 4.074309158325195312e+01 3.091289401054382324e-01 2.775825500488281250e+00 9.254863262176513672e-01 7.078173011541366577e-02
5.740000000000000000e+02 5.159072875976562500e+01 3.742746734619140625e+01 2.513252198696136475e-01 2.739020824432373047e+00 8.971037864685058594e-01 2.396071255207061768e-01
5.750000000000000000e+02 4.892506790161132812e+01 3.199361038208007812e+01 -8.288411051034927368e-02 2.499554872512817383e+00 7.250012755393981934e-01 8.124695420265197754e-01
5.760000000000000000e+02 4.978187561035156250e+01 2.102758026123046875e+01 -8.131306767463684082e-01 9.344190359115600586e-01 3.638650476932525635e-02 7.719355821609497070e-01
5.770000000000000000e+02 4.923643493652343750e+01 1.921800613403320312e+01 1.530347042717039585e-03 5.205945968627929688e-01 1.566374748945236206e-01 4.201936423778533936e-01
5.780000000000000000e+02 5.176573562622070312e+01 2.050183105468750000e+01 -1.646292567253112793e+00 4.611169174313545227e-02 -4.800542593002319336e-01 -1.392270177602767944e-01
5.790000000000000000e+02 4.230592727661132812e+01 4.015694427490234375e+01 -3.736985921859741211e-01 2.971166610717773438e+00 7.792403697967529297e-01 1.537825316190719604e-01
5.800000000000000000e+02 4.335245513916015625e+01 3.339378738403320312e+01 -5.632296204566955566e-01 3.162774801254272461e+00 7.798635363578796387e-01 6.899936199188232422e-01
5.810000000000000000e+02 4.403087615966796875e+01 2.286673736572265625e+01 -6.368935704231262207e-01 3.745238304138183594e+00 9.325034022331237793e-01 1.549540162086486816e+00
5.820000000000000000e+02 4.476926040649414062e+01 1.581080532073974609e+01 2.013304948806762695e+00 2.522671937942504883e+00 1.360792994499206543e+00 2.244019985198974609e+00
5.830000000000000000e+02 3.429419708251953125e+01 1.109777545928955078e+01 6.676983237266540527e-01 9.742105484008789062e+00 3.122941017150878906e+00 -1.235556125640869141e+00
5.840000000000000000e+02 4.268029785156250000e+01 1.387344360351562500e+01 2.696899890899658203e+00 4.803705692291259766e+00 2.250181674957275391e+00 3.421901226043701172e+00
5.850000000000000000e+02 3.722048950195312500e+01 4.029737472534179688e+01 -5.891666412353515625e-01 3.027660608291625977e+00 7.315481901168823242e-01 4.640458524227142334e-02
5.860000000000000000e+02 4.230387115478515625e+01 3.616132736206054688e+01 -4.836587309837341309e-01 3.093536853790283203e+00 7.829633951187133789e-01 4.157876968383789062e-01
5.870000000000000000e+02 3.264870452880859375e+01 3.001547622680664062e+01 -1.013735771179199219e+00 3.464381694793701172e+00 7.351937890052795410e-01 -4.242534041404724121e-01
5.880000000000000000e+02 3.418811416625976562e+01 1.719356155395507812e+01 4.202406406402587891e-01 6.848634719848632812e+00 2.180662631988525391e+00 -1.070421695709228516e+00
5.890000000000000000e+02 3.373159027099609375e+01 3.928745508193969727e+00 1.375338792800903320e+00 1.723811340332031250e+01 5.584035873413085938e+00 2.150374889373779297e+00
5.900000000000000000e+02 3.932786560058593750e+01 1.152253746986389160e+00 1.094665527343750000e+00 1.285852146148681641e+01 4.185956001281738281e+00 -2.338168859481811523e+00
5.910000000000000000e+02 3.231470108032226562e+01 4.065647888183593750e+01 -5.706074833869934082e-01 2.785720109939575195e+00 6.645337939262390137e-01 -7.307703047990798950e-02
5.920000000000000000e+02 3.179696464538574219e+01 3.704136276245117188e+01 -6.142659187316894531e-01 2.815739154815673828e+00 6.604419946670532227e-01 -1.861894577741622925e-01
5.930000000000000000e+02 2.970162391662597656e+01 2.890367698669433594e+01 -8.711314797401428223e-01 2.896166801452636719e+00 6.075105667114257812e-01 -8.334729671478271484e-01
5.940000000000000000e+02 2.718799018859863281e+01 2.149959373474121094e+01 -6.837188005447387695e-01 4.103105962276458740e-01 -8.202247321605682373e-02 -3.231384456157684326e-01
5.950000000000000000e+02 2.588631248474121094e+01 2.196689414978027344e+01 -1.520480871200561523e+00 1.250879615545272827e-01 -4.186178743839263916e-01 -4.252030514180660248e-03
5.960000000000000000e+02 2.846773147583007812e+01 2.092462730407714844e+01 5.830044150352478027e-01 1.532593965530395508e+00 6.346794962882995605e-01 -1.194406032562255859e+00
5.970000000000000000e+02 2.965599250793457031e+01 2.008625984191894531e+01 1.443777084350585938e+00 3.916239500045776367e+00 1.608005046844482422e+00 -2.015170574188232422e+00
5.980000000000000000e+02 3.055644798278808594e+01 1.890099334716796875e+01 1.294185876846313477e+00 5.436437606811523438e+00 2.019186973571777344e+00 -2.346918344497680664e+00
5.990000000000000000e+02 3.211248779296875000e+01 1.487623977661132812e+01 7.606958746910095215e-01 7.553185939788818359e+00 2.494164466857910156e+00 -2.236786365509033203e+00
6.000000000000000000e+02 3.251420593261718750e+01 1.352967739105224609e+01 7.233932018280029297e-01 8.298531532287597656e+00 2.706577301025390625e+00 -2.178390026092529297e+00
6.010000000000000000e+02 3.341419982910156250e+01 9.417711257934570312e+00 5.133503079414367676e-01 9.984385490417480469e+00 3.149320840835571289e+00 -1.342872619628906250e+00
6.020000000000000000e+02 3.693409729003906250e+01 2.886336803436279297e+00 2.157367467880249023e+00 1.246120357513427734e+01 4.385571479797363281e+00 6.442580223083496094e-01
6.030000000000000000e+02 3.272968673706054688e+01 1.023454666137695312e+00 5.232219696044921875e+00 8.736101150512695312e+00 4.190495967864990234e+00 5.250169277191162109e+00
6.040000000000000000e+02 3.090795135498046875e+01 -5.898401141166687012e-02 7.858183383941650391e+00 2.891766786575317383e+00 3.224985122680664062e+00 2.692966461181640625e+00
6.050000000000000000e+02 2.243643951416015625e+01 4.059680938720703125e+01 -2.485947906970977783e-01 2.139020919799804688e+00 5.671278238296508789e-01 -3.290642052888870239e-02
6.060000000000000000e+02 2.316951942443847656e+01 3.352610015869140625e+01 -2.686182558536529541e-01 1.833248019218444824e+00 4.693889319896697998e-01 -1.730659306049346924e-01
6.070000000000000000e+02 1.967754173278808594e+01 2.249002456665039062e+01 -2.180926322937011719e+00 1.501906663179397583e-01 -6.092206835746765137e-01 -1.992311328649520874e-01
6.080000000000000000e+02 2.328788566589355469e+01 2.565415763854980469e+01 -7.110731005668640137e-01 4.199689328670501709e-01 -8.733124285936355591e-02 -3.091295063495635986e-01
6.090000000000000000e+02 2.459115791320800781e+01 2.240630340576171875e+01 -1.988898754119873047e+00 6.454253196716308594e-02 -5.773068666458129883e-01 1.765593439340591431e-01
6.100000000000000000e+02 1.740326309204101562e+01 4.079472351074218750e+01 -2.336902916431427002e-01 2.169222593307495117e+00 5.806596875190734863e-01 2.388029359281063080e-02
6.110000000000000000e+02 1.561619281768798828e+01 3.184093856811523438e+01 -6.449456214904785156e-01 2.464862585067749023e+00 5.459750890731811523e-01 2.611306607723236084e-01
6.120000000000000000e+02 1.838987922668457031e+01 2.206263732910156250e+01 -1.612472772598266602e+00 6.735854595899581909e-02 -4.635342657566070557e-01 9.263105690479278564e-02
6.130000000000000000e+02 1.883904457092285156e+01 2.382190895080566406e+01 -1.378467559814453125e+00 6.478919982910156250e-01 -2.191726714372634888e-01 8.036046624183654785e-01
6.140000000000000000e+02 8.172127723693847656e+00 4.117988586425781250e+01 -1.703487485647201538e-01 2.533519506454467773e+00 7.089511752128601074e-01 -3.306829929351806641e-02
6.150000000000000000e+02 7.164264678955078125e+00 3.606435012817382812e+01 -2.820445597171783447e-01 2.613180160522460938e+00 6.993407011032104492e-01 -2.469925582408905029e-01
6.160000000000000000e+02 6.184648036956787109e+00 2.997839164733886719e+01 -4.465004503726959229e-01 2.624456405639648438e+00 6.533867716789245605e-01 -7.407192587852478027e-01
6.170000000000000000e+02 7.354241847991943359e+00 2.318649482727050781e+01 -3.763978481292724609e-01 3.053555488586425781e+00 8.031473159790039062e-01 -1.556101799011230469e+00
6.180000000000000000e+02 1.307075023651123047e+01 1.485651969909667969e+01 1.508385777473449707e+00 9.641057014465332031e+00 3.344832897186279297e+00 -1.481595039367675781e+00
6.190000000000000000e+02 1.376599121093750000e+01 9.020291328430175781e+00 3.831119239330291748e-01 7.364522933959960938e+00 2.324290275573730469e+00 -1.797804951667785645e+00
6.200000000000000000e+02 4.938301444053649902e-01 3.620520353317260742e+00 -2.890136837959289551e-02 -6.745187640190124512e-01 -2.110260426998138428e-01 1.813926249742507935e-01
6.210000000000000000e+02 1.032709789276123047e+01 1.806279182434082031e+00 -1.075120449066162109e+00 3.708208799362182617e-01 -2.112898826599121094e-01 -1.878233700990676880e-01
6.220000000000000000e+02 1.106455516815185547e+01 1.790060758590698242e+00 -8.441823720932006836e-01 4.279627203941345215e-01 -1.248658895492553711e-01 -5.287629961967468262e-01
6.230000000000000000e+02 1.546731376647949219e+01 1.741085171699523926e+00 2.336461305618286133e+00 1.011964797973632812e+01 3.736832857131958008e+00 -6.897340774536132812e+00
6.240000000000000000e+02 1.689867973327636719e+01 1.540467143058776855e+00 3.182306528091430664e+00 1.544164562225341797e+01 5.587185382843017578e+00 -2.907639443874359131e-01
6.250000000000000000e+02 2.033085584640502930e+00 4.163485717773437500e+01 6.407707114703953266e-04 2.830349445343017578e+00 8.492971062660217285e-01 2.653602859936654568e-04
6.260000000000000000e+02 4.733497619628906250e+00 3.754446792602539062e+01 -1.239810734987258911e-01 2.621371984481811523e+00 7.492172718048095703e-01 -1.865989267826080322e-01
6.270000000000000000e+02 2.195771217346191406e+00 3.578802108764648438e+01 -4.306107014417648315e-02 2.630595922470092773e+00 7.762604951858520508e-01 -1.265467554330825806e-01
6.280000000000000000e+02 1.964181900024414062e+00 2.901399230957031250e+01 -6.636827439069747925e-02 1.859412312507629395e+00 5.379132032394409180e-01 -4.328899383544921875e-01
6.290000000000000000e+02 2.018707990646362305e+00 2.330559539794921875e+01 -2.264162339270114899e-02 4.416670501232147217e-01 1.257076263427734375e-01 -7.547398209571838379e-01
6.300000000000000000e+02 1.733514070510864258e+00 1.758933448791503906e+01 1.103560104966163635e-01 -1.424580335617065430e+00 -3.942672908306121826e-01 -4.977014362812042236e-01
6.310000000000000000e+02 1.670904636383056641e+00 1.214754199981689453e+01 1.254489570856094360e-01 -2.061886787414550781e+00 -5.809313058853149414e-01 9.954451024532318115e-02
6.320000000000000000e+02 1.730273962020874023e+00 9.371454238891601562e+00 9.743088483810424805e-02 -1.771308660507202148e+00 -5.021633505821228027e-01 3.545183539390563965e-01
6.330000000000000000e+02 1.459906959533691406e+01 1.390231513977050781e+01 1.020435452461242676e+00 1.369648075103759766e+01 4.415074825286865234e+00 -2.693096399307250977e+00
6.340000000000000000e+02 1.430451107025146484e+01 1.528097057342529297e+01 8.361835479736328125e-01 1.325426101684570312e+01 4.227133274078369141e+00 -1.224789977073669434e+00
6.350000000000000000e+02 1.419421577453613281e+01 1.804467010498046875e+01 1.145643353462219238e+00 1.202218532562255859e+01 3.950348615646362305e+00 7.054045796394348145e-01
6.360000000000000000e+02 1.184795570373535156e+01 1.726573944091796875e+01 1.515427827835083008e+00 6.885582923889160156e+00 2.520303249359130859e+00 -1.319230437278747559e+00
6.370000000000000000e+02 1.486150169372558594e+01 2.007732582092285156e+01 1.740164995193481445e+00 8.453593254089355469e+00 3.058127403259277344e+00 2.490091800689697266e+00
6.380000000000000000e+02 1.587551403045654297e+01 2.093025398254394531e+01 1.104413866996765137e+00 3.044574737548828125e+00 1.244696617126464844e+00 2.085619926452636719e+00
6.390000000000000000e+02 1.766959571838378906e+01 2.321980476379394531e+01 -1.009677648544311523e+00 1.427282333374023438e+00 1.252814084291458130e-01 1.001949191093444824e+00
6.400000000000000000e+02 6.251505851745605469e+00 2.281553459167480469e+01 -1.180185377597808838e-01 2.528313875198364258e+00 7.230885624885559082e-01 -1.552018165588378906e+00
6.410000000000000000e+02 3.313545608520507812e+01 1.080251121520996094e+01 3.461279273033142090e-01 9.082736968994140625e+00 2.828659296035766602e+00 -1.685823082923889160e+00
6.420000000000000000e+02 4.408166885375976562e+01 1.695800399780273438e+01 1.207939982414245605e+00 3.503061532974243164e+00 1.413300395011901855e+00 2.173074722290039062e+00
6.430000000000000000e+02 4.693719100952148438e+01 1.760637855529785156e+01 1.196672201156616211e+00 1.380726933479309082e+00 7.732197642326354980e-01 1.313721179962158203e+00
6.440000000000000000e+02 6.701683044433593750e+01 -2.392598915100097656e+01 1.478244543075561523e+00 5.450241565704345703e+00 2.078545808792114258e+00 2.904543876647949219e+00
6.450000000000000000e+02 6.405148315429687500e+01 -2.713355255126953125e+01 -4.183158874511718750e-01 1.040877103805541992e+00 1.867683678865432739e-01 2.228149175643920898e-01
6.460000000000000000e+02 4.888491058349609375e+01 -2.929398155212402344e+01 2.410890340805053711e+00 3.369426488876342773e+00 1.734094977378845215e+00 -2.659839868545532227e+00
6.470000000000000000e+02 4.550414276123046875e+01 -2.479783821105957031e+01 2.176309108734130859e+00 1.402141761779785156e+01 4.859318256378173828e+00 -3.624226093292236328e+00
6.480000000000000000e+02 4.513874053955078125e+01 -2.263786697387695312e+01 8.768194913864135742e-01 1.371763992309570312e+01 4.378337860107421875e+00 -1.368715405464172363e+00
6.490000000000000000e+02 3.524304199218750000e+01 -2.317248344421386719e+01 1.233408212661743164e+00 9.430495262145996094e+00 3.199171066284179688e+00 2.405132293701171875e+00
6.500000000000000000e+02 3.428913497924804688e+01 -2.515410804748535156e+01 1.664027929306030273e+00 5.743077278137207031e+00 2.222131490707397461e+00 2.511389493942260742e+00
6.510000000000000000e+02 3.645698547363281250e+01 -2.570792770385742188e+01 7.665319442749023438e-01 7.224603176116943359e+00 2.397340536117553711e+00 7.639591693878173828e-01
6.520000000000000000e+02 3.555746459960937500e+01 -2.443424415588378906e+01 1.455661058425903320e+00 7.889741897583007812e+00 2.803620815277099609e+00 1.803316473960876465e+00
6.530000000000000000e+02 4.178669357299804688e+01 -2.237331771850585938e+01 2.074264287948608398e+00 9.879603385925292969e+00 3.586160421371459961e+00 -1.553184866905212402e+00
6.540000000000000000e+02 4.542948913574218750e+01 -2.007718658447265625e+01 4.438201487064361572e-01 1.232762813568115234e+01 3.831434488296508789e+00 4.466376900672912598e-01
6.550000000000000000e+02 4.531801605224609375e+01 -2.137301635742187500e+01 1.296964138746261597e-01 1.207688045501708984e+01 3.661972999572753906e+00 -1.790917217731475830e-01
6.560000000000000000e+02 3.686973190307617188e+01 -1.768232345581054688e+01 1.069564700126647949e+00 1.214249992370605469e+01 3.963619470596313477e+00 -1.736199378967285156e+00
6.570000000000000000e+02 3.550547027587890625e+01 -1.632279014587402344e+01 7.180211544036865234e-01 1.443375492095947266e+01 4.545532703399658203e+00 -2.123626947402954102e+00
6.580000000000000000e+02 3.616506576538085938e+01 -1.304130077362060547e+01 2.136261701583862305e+00 1.168939495086669922e+01 4.147696971893310547e+00 -2.934083223342895508e+00
6.590000000000000000e+02 3.559082794189453125e+01 -2.054043388366699219e+01 4.953705072402954102e-01 1.240406799316406250e+01 3.869831562042236328e+00 4.017965495586395264e-01
6.600000000000000000e+02 5.748914337158203125e+01 -3.677785110473632812e+01 4.813396930694580078e-01 6.557399034500122070e-01 3.411238789558410645e-01 -2.810087203979492188e-01
6.610000000000000000e+02 5.634915542602539062e+01 -3.063438224792480469e+01 -2.930709838867187500e+00 -1.846428811550140381e-01 -9.346058368682861328e-01 -5.113925337791442871e-01
6.620000000000000000e+02 4.807603836059570312e+01 -5.089630603790283203e+00 -3.476084470748901367e+00 -2.568764090538024902e-01 -1.119888305664062500e+00 1.222939491271972656e+00
6.630000000000000000e+02 4.868278503417968750e+01 -7.618955135345458984e+00 8.563387393951416016e-02 3.548243641853332520e-01 1.321374773979187012e-01 2.301166534423828125e+00
6.640000000000000000e+02 5.841232681274414062e+01 -1.421032238006591797e+01 -2.311580419540405273e+00 3.139682114124298096e-02 -6.840550303459167480e-01 -3.047402203083038330e-01
6.650000000000000000e+02 5.709811019897460938e+01 -1.440258789062500000e+01 -2.267044305801391602e+00 6.986609846353530884e-02 -6.591534614562988281e-01 -1.344974040985107422e-01
6.660000000000000000e+02 5.799615478515625000e+01 -1.301323795318603516e+01 -1.907103896141052246e+00 3.694154918193817139e-01 -4.613065123558044434e-01 -4.757886752486228943e-02
6.670000000000000000e+02 1.329203605651855469e+01 -1.307858848571777344e+01 7.839592099189758301e-01 6.997064113616943359e+00 2.334306955337524414e+00 1.017750263214111328e+00
6.680000000000000000e+02 1.252210712432861328e+01 -1.460154247283935547e+01 1.551987409591674805e+00 6.873080253601074219e+00 2.527520179748535156e+00 8.689644336700439453e-01
6.690000000000000000e+02 1.566318702697753906e+01 -1.294672966003417969e+01 1.782563328742980957e+00 6.856741905212402344e+00 2.591791629791259766e+00 3.177655220031738281e+00
6.700000000000000000e+02 2.369850921630859375e+01 -5.651518821716308594e+00 1.723581075668334961e+00 1.319212168455123901e-01 5.566506981849670410e-01 -2.950939536094665527e-01
6.710000000000000000e+02 2.678842353820800781e+01 -5.556228756904602051e-01 4.554025173187255859e+00 -4.680728912353515625e-01 1.225785732269287109e+00 1.936859935522079468e-01
6.720000000000000000e+02 2.416939735412597656e+01 2.287419557571411133e+00 -1.436046510934829712e-01 -1.864474654197692871e+00 -6.024237871170043945e-01 1.173020958900451660e+00
6.730000000000000000e+02 2.959272956848144531e+01 -7.784512639045715332e-02 7.318135261535644531e+00 3.380766510963439941e-01 2.296863555908203125e+00 -1.189336627721786499e-01
6.740000000000000000e+02 2.991748046875000000e+01 -8.172537803649902344e+00 -2.441965818405151367e+00 4.162881076335906982e-01 -6.077033281326293945e-01 -4.246793687343597412e-01
6.750000000000000000e+02 3.490089035034179688e+01 -1.348710823059082031e+01 1.955850601196289062e+00 1.465162277221679688e+01 4.982242107391357422e+00 -4.436725616455078125e+00
6.760000000000000000e+02 3.565599822998046875e+01 7.286188602447509766e-01 2.370062351226806641e+00 1.089028644561767578e+01 3.978104591369628906e+00 5.199947953224182129e-01
6.770000000000000000e+02 4.740276718139648438e+01 -1.195868396759033203e+01 1.049567222595214844e+00 2.623392105102539062e+00 1.101887822151184082e+00 1.749407887458801270e+00
6.780000000000000000e+02 4.436515808105468750e+01 -6.939580440521240234e+00 -8.402357101440429688e-01 2.101486444473266602e+00 3.783752322196960449e-01 -5.024646520614624023e-01
6.790000000000000000e+02 5.050476837158203125e+01 -1.294229793548583984e+01 9.857598543167114258e-01 7.805061340332031250e-01 5.298798084259033203e-01 1.865738511085510254e+00
6.800000000000000000e+02 7.935137176513671875e+01 -5.468814849853515625e+00 -4.198843240737915039e-02 8.034274101257324219e+00 2.397685766220092773e+00 1.815885538235306740e-03
6.810000000000000000e+02 7.095885467529296875e+01 -3.127687215805053711e+00 -4.140380024909973145e-01 6.907737255096435547e+00 1.948109865188598633e+00 -9.517219066619873047e-01
6.820000000000000000e+02 7.152952575683593750e+01 -6.823680400848388672e+00 -1.057164669036865234e+00 7.708320617675781250e+00 1.995346903800964355e+00 -8.302302360534667969e-01
6.830000000000000000e+02 1.040619277954101562e+01 -1.789989113807678223e+00 -3.682075440883636475e-01 2.616808116436004639e-01 -3.195801749825477600e-02 2.834042012691497803e-01
6.840000000000000000e+02 7.937889099121093750e+01 -1.245556354522705078e+01 3.658990142866969109e-03 6.645681381225585938e+00 1.994802117347717285e+00 2.355245798826217651e-01
6.850000000000000000e+02 1.251784896850585938e+01 -2.243369102478027344e+01 4.280631840229034424e-01 6.224530696868896484e+00 1.995778083801269531e+00 7.288177013397216797e-01
6.860000000000000000e+02 1.439363193511962891e+01 -2.297016525268554688e+01 1.639282852411270142e-01 6.499530315399169922e+00 1.999037623405456543e+00 -7.558413147926330566e-01
6.870000000000000000e+02 7.221632957458496094e+00 -2.933501052856445312e+01 -5.168067216873168945e-01 2.796375513076782227e+00 6.838706731796264648e-01 1.102572441101074219e+00
6.880000000000000000e+02 1.739960479736328125e+01 -2.992982482910156250e+01 -1.149276375770568848e+00 2.164166688919067383e+00 3.044671416282653809e-01 -4.304442405700683594e-01
6.890000000000000000e+02 3.764144134521484375e+01 -3.512651062011718750e+01 -1.472476124763488770e+00 5.564060688018798828e+00 1.227475404739379883e+00 7.156838178634643555e-01
6.900000000000000000e+02 3.515603637695312500e+01 -2.844927024841308594e+01 -2.891572713851928711e-01 5.487990379333496094e+00 1.559649944305419922e+00 1.198442697525024414e+00
6.910000000000000000e+02 4.173930740356445312e+01 -3.053222846984863281e+01 -5.298752784729003906e-01 7.546920299530029297e+00 2.105113506317138672e+00 -2.124468088150024414e-01
6.920000000000000000e+02 5.144424057006835938e+01 -3.589558792114257812e+01 -2.093965411186218262e-01 2.164140462875366211e+00 5.864231586456298828e-01 -1.545539259910583496e+00
6.930000000000000000e+02 6.385470199584960938e+01 -3.772642898559570312e+01 4.121445119380950928e-01 2.698734521865844727e+00 9.332637190818786621e-01 4.025096893310546875e-01
6.940000000000000000e+02 6.049582290649414062e+01 -2.958452796936035156e+01 -2.589770555496215820e+00 -2.816167175769805908e-01 -8.614162206649780273e-01 -7.611930370330810547e-01
6.950000000000000000e+02 7.276705169677734375e+01 -3.225979614257812500e+01 -6.101446151733398438e-01 7.921154499053955078e+00 2.193302869796752930e+00 -1.805169731378555298e-01
6.960000000000000000e+02 7.175446319580078125e+01 -3.852759170532226562e+01 -5.378466472029685974e-02 6.749412059783935547e+00 2.008688211441040039e+00 1.605504155158996582e-01
6.970000000000000000e+02 1.983972167968750000e+01 -3.004300117492675781e+01 -1.349933266639709473e+00 1.135058760643005371e+00 -6.446235626935958862e-02 -3.581065237522125244e-01
6.980000000000000000e+02 7.347640991210937500e+01 5.063325405120849609e+00 2.284516096115112305e-01 6.852331638336181641e+00 2.124234914779663086e+00 -5.413708686828613281e-01
6.990000000000000000e+02 7.937028503417968750e+01 2.875451803207397461e+00 -5.352669861167669296e-03 6.920406818389892578e+00 2.074516296386718750e+00 -1.052392646670341492e-01
7.000000000000000000e+02 6.076384735107421875e+01 3.728205680847167969e+00 1.264027595520019531e+00 5.932691097259521484e+00 2.159015655517578125e+00 2.182024002075195312e+00
7.010000000000000000e+02 5.899578475952148438e+01 -3.303138971328735352e+00 1.550297021865844727e+00 2.721292018890380859e+00 1.281476736068725586e+00 1.349252223968505859e+00
7.020000000000000000e+02 6.611580657958984375e+01 1.257326793670654297e+01 9.941056966781616211e-01 8.372399330139160156e+00 2.809951543807983398e+00 2.827476263046264648e-01
7.030000000000000000e+02 7.936129760742187500e+01 8.433670997619628906e+00 8.684921078383922577e-03 6.157658100128173828e+00 1.849902987480163574e+00 -4.694024473428726196e-02
7.040000000000000000e+02 6.831297302246093750e+01 1.588017177581787109e+01 7.786596417427062988e-01 7.570549011230468750e+00 2.504762649536132812e+00 4.570037424564361572e-01
7.050000000000000000e+02 7.933897399902343750e+01 1.681309127807617188e+01 6.373999640345573425e-03 6.378818511962890625e+00 1.915557861328125000e+00 9.311484545469284058e-02
7.060000000000000000e+02 7.933549499511718750e+01 2.377828598022460938e+01 3.150454023852944374e-03 7.513268947601318359e+00 2.254925727844238281e+00 1.142788603901863098e-01
7.070000000000000000e+02 3.465949249267578125e+01 1.571182250976562500e+01 5.692750215530395508e-01 7.572793006896972656e+00 2.442620515823364258e+00 -1.043100237846374512e+00
7.080000000000000000e+02 3.504999160766601562e+01 6.527685642242431641e+00 7.302079200744628906e-01 1.300150299072265625e+01 4.119513511657714844e+00 7.832562327384948730e-01
7.090000000000000000e+02 6.771022033691406250e+01 2.905496978759765625e+01 -5.537399649620056152e-01 6.328592300415039062e+00 1.732455611228942871e+00 -1.124017015099525452e-01
7.100000000000000000e+02 7.930990600585937500e+01 2.936179351806640625e+01 5.468883085995912552e-03 8.184256553649902344e+00 2.456917762756347656e+00 6.404668092727661133e-02
7.110000000000000000e+02 5.911787796020507812e+01 2.458695983886718750e+01 -8.588525056838989258e-01 2.071593523025512695e+00 3.638223111629486084e-01 -1.325621843338012695e+00
7.120000000000000000e+02 5.654347991943359375e+01 2.284664916992187500e+01 -1.746401429176330566e+00 -3.617309965193271637e-03 -5.250056385993957520e-01 -3.112448938190937042e-02
7.130000000000000000e+02 5.102814865112304688e+01 2.179191589355468750e+01 -1.130104541778564453e+00 6.694731712341308594e-01 -1.381894052028656006e-01 6.228833198547363281e-01
7.140000000000000000e+02 3.608143997192382812e+01 2.065158271789550781e+01 -5.753646492958068848e-01 5.823316574096679688e+00 1.574385523796081543e+00 7.337179780006408691e-02
7.150000000000000000e+02 5.151052856445312500e+01 2.795963287353515625e+01 -9.403657913208007812e-02 1.711760759353637695e+00 4.853172600269317627e-01 8.562120795249938965e-01
7.160000000000000000e+02 3.426222610473632812e+01 3.264062118530273438e+01 -9.156601428985595703e-01 3.368332147598266602e+00 7.358016371726989746e-01 -1.430125832557678223e-01
7.170000000000000000e+02 3.045675086975097656e+01 3.106072998046875000e+01 -8.108918666839599609e-01 2.898805141448974609e+00 6.263740062713623047e-01 -5.588126182556152344e-01
7.180000000000000000e+02 2.044806289672851562e+01 3.302335357666015625e+01 -2.847134172916412354e-01 1.849349498748779297e+00 4.693908095359802246e-01 1.176746189594268799e-01
7.190000000000000000e+02 1.837740135192871094e+01 3.202742004394531250e+01 -4.334165453910827637e-01 1.975071668624877930e+00 4.624965488910675049e-01 2.739940881729125977e-01
7.200000000000000000e+02 6.940184116363525391e+00 3.238565063476562500e+01 -3.923503160476684570e-01 2.633154153823852539e+00 6.722411513328552246e-01 -4.678257703781127930e-01
7.210000000000000000e+02 2.088525295257568359e+00 3.174344253540039062e+01 -6.241582706570625305e-02 2.283607006072998047e+00 6.663573980331420898e-01 -2.938179373741149902e-01
7.220000000000000000e+02 1.544548511505126953e+01 1.123443889617919922e+01 2.614668607711791992e+00 1.108216762542724609e+01 4.109050750732421875e+00 -4.572293758392333984e+00
7.230000000000000000e+02 1.687132716178894043e+00 1.623723793029785156e+01 8.973331749439239502e-02 -1.735843777656555176e+00 -4.938331544399261475e-01 -3.320729732513427734e-01
7.240000000000000000e+02 3.903493499755859375e+01 4.708333015441894531e+00 1.097645834088325500e-01 1.480521392822265625e+01 4.474493503570556641e+00 6.178869009017944336e-01
7.250000000000000000e+02 3.457599639892578125e+01 9.677134513854980469e+00 5.987527966499328613e-01 1.057651901245117188e+01 3.352581501007080078e+00 -8.040796518325805664e-01
7.260000000000000000e+02 4.607631301879882812e+01 -2.602179336547851562e+01 2.717259407043457031e+00 1.184818363189697266e+01 4.369633197784423828e+00 -4.893076419830322266e+00
7.270000000000000000e+02 1.812265157699584961e+00 -1.758307266235351562e+01 1.089272052049636841e-01 -1.360100865364074707e+00 -3.753521144390106201e-01 2.491533756256103516e-01
7.280000000000000000e+02 9.646011352539062500e+00 -1.823485851287841797e+00 -5.767745375633239746e-01 1.884046494960784912e-01 -1.165109574794769287e-01 7.461787760257720947e-02
7.290000000000000000e+02 8.876468658447265625e+00 -1.853317975997924805e+00 -6.825339198112487793e-01 1.817005276679992676e-01 -1.502500176429748535e-01 -6.408606469631195068e-02
7.300000000000000000e+02 8.103007316589355469e+00 -1.878612041473388672e+00 -7.087418437004089355e-01 1.141018047928810120e-01 -1.783920079469680786e-01 -1.755829602479934692e-01
7.310000000000000000e+02 7.325384616851806641e+00 -1.897983908653259277e+00 -7.108613252639770508e-01 8.086442202329635620e-02 -1.889990568161010742e-01 -2.810503542423248291e-01
7.320000000000000000e+02 5.760853767395019531e+00 -1.916847944259643555e+00 -5.556378960609436035e-01 3.318206965923309326e-02 -1.567367464303970337e-01 -4.011714756488800049e-01
7.330000000000000000e+02 4.205722332000732422e+00 -1.901045203208923340e+00 -4.068213999271392822e-01 -2.774204127490520477e-02 -1.303690373897552490e-01 -3.958347737789154053e-01
7.340000000000000000e+02 1.590580344200134277e+00 -7.814343452453613281e+00 2.181362919509410858e-02 -1.058978557586669922e+00 -3.111494779586791992e-01 -3.382974565029144287e-01
7.350000000000000000e+02 1.945294141769409180e+00 -1.930312514305114746e+00 -1.291625499725341797e-01 -1.497802883386611938e-01 -8.368285000324249268e-02 -2.634374201297760010e-01
7.360000000000000000e+02 1.186622977256774902e+00 -2.055700302124023438e+00 -5.409364029765129089e-02 -1.916771829128265381e-01 -7.373124361038208008e-02 -1.596826016902923584e-01
7.370000000000000000e+02 3.996135890483856201e-01 -2.167754888534545898e+00 -1.136604137718677521e-02 -1.392008215188980103e-01 -4.517006129026412964e-02 -5.397138744592666626e-02
7.380000000000000000e+02 1.999240756034851074e+00 -4.164646530151367188e+01 1.815362775232642889e-04 3.012046337127685547e+00 9.036683440208435059e-01 -1.796310825739055872e-04
7.390000000000000000e+02 9.108113288879394531e+00 -3.845764160156250000e+01 -4.560167789459228516e-01 2.535171270370483398e+00 6.237463951110839844e-01 2.062995433807373047e-01
7.400000000000000000e+02 9.485767483711242676e-01 -3.877070617675781250e+01 3.053850377909839153e-04 2.984026670455932617e+00 8.952996134757995605e-01 4.014899581670761108e-02
7.410000000000000000e+02 8.670967817306518555e-01 -3.468744659423828125e+01 -2.474521845579147339e-02 2.621679067611694336e+00 7.790801525115966797e-01 1.261754035949707031e-01
7.420000000000000000e+02 8.934316039085388184e-01 -3.327287673950195312e+01 -1.050173584371805191e-02 2.405861854553222656e+00 7.186080813407897949e-01 1.537654995918273926e-01
7.430000000000000000e+02 7.166087031364440918e-01 -2.899802207946777344e+01 -2.417735196650028229e-02 1.357705473899841309e+00 4.000584185123443604e-01 2.296324074268341064e-01
7.440000000000000000e+02 6.792940497398376465e-01 -2.758524513244628906e+01 1.390933059155941010e-02 8.765836954116821289e-01 2.671479284763336182e-01 2.438634037971496582e-01
7.450000000000000000e+02 6.585735678672790527e-01 -2.617353820800781250e+01 -2.080976590514183044e-02 3.554452061653137207e-01 1.003906354308128357e-01 2.480774223804473877e-01
7.460000000000000000e+02 6.350777149200439453e-01 -2.193763923645019531e+01 2.021044306457042694e-02 -1.243985891342163086e+00 -3.671326339244842529e-01 2.283801585435867310e-01
7.470000000000000000e+02 6.259500980377197266e-01 -2.052533149719238281e+01 1.340735796838998795e-02 -1.713983654975891113e+00 -5.101729035377502441e-01 1.899644434452056885e-01
7.480000000000000000e+02 1.877846598625183105e+00 -2.040230560302734375e+01 8.183593302965164185e-02 -8.087947964668273926e-01 -2.180876433849334717e-01 5.304148793220520020e-01
7.490000000000000000e+02 5.979342460632324219e-01 -1.628734016418457031e+01 1.495329849421977997e-02 -2.539103269577026367e+00 -7.572450041770935059e-01 4.207931086421012878e-02
7.500000000000000000e+02 5.874122381210327148e-01 -1.487854099273681641e+01 2.163732610642910004e-02 -2.579731464385986328e+00 -7.674282193183898926e-01 -7.279384881258010864e-04
7.510000000000000000e+02 5.746388435363769531e-01 -1.346785831451416016e+01 9.760083630681037903e-03 -2.518043994903564453e+00 -7.524851560592651367e-01 -3.994590044021606445e-02
7.520000000000000000e+02 1.718493103981018066e+00 -1.337199115753173828e+01 6.756590306758880615e-02 -1.589568495750427246e+00 -4.566007554531097412e-01 -1.198460683226585388e-01
7.530000000000000000e+02 5.341082811355590820e-01 -9.242060661315917969e+00 8.860908448696136475e-03 -1.851483225822448730e+00 -5.527867078781127930e-01 -1.104933023452758789e-01
7.540000000000000000e+02 5.262129306793212891e-01 -7.840969085693359375e+00 -1.342182076768949628e-04 -1.524289846420288086e+00 -4.573272168636322021e-01 -1.216922774910926819e-01
7.550000000000000000e+02 2.082376956939697266e+00 -2.719669342041015625e+00 -1.125566661357879639e-01 -2.057768404483795166e-01 -9.550005197525024414e-02 -3.447389602661132812e-01
7.560000000000000000e+02 5.301960110664367676e-01 -6.435985088348388672e+00 1.254409644752740860e-02 -1.162903904914855957e+00 -3.451079428195953369e-01 -1.362394690513610840e-01
7.570000000000000000e+02 7.395596313476562500e+01 -3.876301956176757812e+01 -9.983928501605987549e-02 7.769654273986816406e+00 2.300944566726684570e+00 -1.351972818374633789e-01
7.580000000000000000e+02 5.212537002563476562e+01 -4.089824676513671875e+01 -6.338656879961490631e-03 2.320858716964721680e+00 6.943560242652893066e-01 -3.984138369560241699e-01
7.590000000000000000e+02 3.255710983276367188e+01 -4.093770217895507812e+01 -9.708219170570373535e-01 3.339530229568481445e+00 7.106124758720397949e-01 2.162892818450927734e-01
7.600000000000000000e+02 7.875315856933593750e+01 3.994809722900390625e+01 -4.706316068768501282e-02 8.177407264709472656e+00 2.439103126525878906e+00 -7.546451687812805176e-02
7.610000000000000000e+02 7.924384307861328125e+01 3.871514892578125000e+01 2.627234160900115967e-02 8.277517318725585938e+00 2.491137027740478516e+00 -2.496260404586791992e-02
7.620000000000000000e+02 7.813830566406250000e+01 3.765810012817382812e+01 -7.930765859782695770e-03 8.096246719360351562e+00 2.426494598388671875e+00 -3.507164865732192993e-02
7.630000000000000000e+02 7.935753631591796875e+01 3.488526535034179688e+01 -1.220077183097600937e-02 8.404666900634765625e+00 2.517740011215209961e+00 8.718797005712985992e-03
7.640000000000000000e+02 7.932518005371093750e+01 3.351651382446289062e+01 -5.926255835220217705e-04 8.382149696350097656e+00 2.514467239379882812e+00 2.138471044600009918e-02
7.650000000000000000e+02 7.931764221191406250e+01 3.075201988220214844e+01 -2.335251681506633759e-02 8.286705970764160156e+00 2.479006052017211914e+00 4.995406046509742737e-02
7.660000000000000000e+02 7.643153381347656250e+01 2.835433959960937500e+01 -1.051570773124694824e-01 7.614581108093261719e+00 2.252827167510986328e+00 2.690167427062988281e-01
7.670000000000000000e+02 7.930632019042968750e+01 2.657413291931152344e+01 1.168287592008709908e-03 7.903502941131591797e+00 2.371401309967041016e+00 9.051295369863510132e-02
7.680000000000000000e+02 7.653365325927734375e+01 2.543752098083496094e+01 -6.980366259813308716e-02 7.454837799072265625e+00 2.215510368347167969e+00 3.853915035724639893e-01
7.690000000000000000e+02 7.931765747070312500e+01 2.517447090148925781e+01 -1.358390040695667267e-02 7.722087860107421875e+00 2.312551259994506836e+00 1.055231168866157532e-01
7.700000000000000000e+02 7.936459350585937500e+01 2.099981880187988281e+01 4.638339858502149582e-03 7.039731979370117188e+00 2.113311052322387695e+00 1.207965239882469177e-01
7.710000000000000000e+02 7.936056518554687500e+01 1.960597419738769531e+01 -5.990067147649824619e-04 6.797881603240966797e+00 2.039184808731079102e+00 1.175408288836479187e-01
7.720000000000000000e+02 7.934844207763671875e+01 1.820986175537109375e+01 8.285848423838615417e-03 6.573307037353515625e+00 1.974477887153625488e+00 1.081509888172149658e-01
7.730000000000000000e+02 7.933948516845703125e+01 1.401647663116455078e+01 1.230069063603878021e-02 6.105622291564941406e+00 1.835376858711242676e+00 4.995597898960113525e-02
7.740000000000000000e+02 7.934278106689453125e+01 1.261645889282226562e+01 1.134982705116271973e-02 6.041115760803222656e+00 1.815739631652832031e+00 2.506340667605400085e-02
7.750000000000000000e+02 7.934769439697265625e+01 1.121949291229248047e+01 1.241238601505756378e-02 6.028365612030029297e+00 1.812233328819274902e+00 -3.830282657872885466e-04
7.760000000000000000e+02 7.936779785156250000e+01 7.045123577117919922e+00 1.119569782167673111e-02 6.294730186462402344e+00 1.891777753829956055e+00 -6.918857246637344360e-02
7.770000000000000000e+02 7.937180328369140625e+01 5.656518936157226562e+00 2.833804581314325333e-03 6.472665309906005859e+00 1.942649722099304199e+00 -8.377626538276672363e-02
7.780000000000000000e+02 7.937207031250000000e+01 4.266846179962158203e+00 1.134557649493217468e-02 6.685562133789062500e+00 2.009072303771972656e+00 -1.008126735687255859e-01
7.790000000000000000e+02 7.936692810058593750e+01 9.704391658306121826e-02 -1.557626668363809586e-02 7.414352416992187500e+00 2.219632863998413086e+00 -1.047460064291954041e-01
7.800000000000000000e+02 7.936500549316406250e+01 -1.292752623558044434e+00 8.374495431780815125e-03 7.645422935485839844e+00 2.296139240264892578e+00 -1.005296781659126282e-01
7.810000000000000000e+02 7.806961822509765625e+01 -3.860623836517333984e+00 -8.913818746805191040e-02 7.764675617218017578e+00 2.302661180496215820e+00 -1.523190140724182129e-01
7.820000000000000000e+02 7.935790252685546875e+01 -4.073061943054199219e+00 1.005087513476610184e-03 7.979751110076904297e+00 2.394227027893066406e+00 -4.951595142483711243e-02
7.830000000000000000e+02 7.934656524658203125e+01 -8.265343666076660156e+00 -5.125872790813446045e-02 7.821401119232177734e+00 2.331042766571044922e+00 1.130379885435104370e-01
7.840000000000000000e+02 7.810578155517578125e+01 -1.089690208435058594e+01 -7.467046380043029785e-02 7.453749656677246094e+00 2.213723659515380859e+00 5.267313122749328613e-01
7.850000000000000000e+02 7.936655426025390625e+01 -1.105765914916992188e+01 -3.231107443571090698e-02 7.131648063659667969e+00 2.129801273345947266e+00 2.075233161449432373e-01
7.860000000000000000e+02 7.939458465576171875e+01 -1.524108695983886719e+01 -2.068603178486227989e-03 5.724350929260253906e+00 1.716684699058532715e+00 1.848450601100921631e-01
7.870000000000000000e+02 7.821846771240234375e+01 -1.779555892944335938e+01 2.678049802780151367e-01 6.393684864044189453e+00 1.998446941375732422e+00 -5.013477429747581482e-02
7.880000000000000000e+02 7.941002655029296875e+01 -1.800707435607910156e+01 1.567116379737854004e-02 5.362446784973144531e+00 1.613435387611389160e+00 -1.739605143666267395e-02
7.890000000000000000e+02 7.939841461181640625e+01 -2.352826309204101562e+01 -1.588497497141361237e-02 7.131016731262207031e+00 2.134539604187011719e+00 -3.086685538291931152e-01
7.900000000000000000e+02 7.810993194580078125e+01 -2.455870056152343750e+01 -1.562308985739946365e-02 7.933192729949951172e+00 2.375270843505859375e+00 -8.232223987579345703e-01
7.910000000000000000e+02 7.937434387207031250e+01 -2.491439628601074219e+01 1.612418517470359802e-02 7.801156997680664062e+00 2.345184326171875000e+00 -3.163276612758636475e-01
7.920000000000000000e+02 7.936006164550781250e+01 -2.910076522827148438e+01 -3.833531588315963745e-02 9.504111289978027344e+00 2.839732885360717773e+00 -2.224896252155303955e-01
7.930000000000000000e+02 7.796800994873046875e+01 -3.147212791442871094e+01 -8.762007951736450195e-02 9.569599151611328125e+00 2.844593763351440430e+00 -3.596058189868927002e-01
7.940000000000000000e+02 7.932595825195312500e+01 -3.186219978332519531e+01 -2.945390157401561737e-02 1.016045379638671875e+01 3.039299726486206055e+00 -1.304968297481536865e-01
7.950000000000000000e+02 7.919568634033203125e+01 -3.597510910034179688e+01 -7.258437690325081348e-04 1.045363044738769531e+01 3.135871171951293945e+00 -1.310855243355035782e-02
7.960000000000000000e+02 7.910823822021484375e+01 -3.734400939941406250e+01 -6.222784146666526794e-02 1.037905597686767578e+01 3.095048427581787109e+00 5.878549441695213318e-02
7.970000000000000000e+02 7.894172668457031250e+01 -3.871176910400390625e+01 -1.127966307103633881e-02 1.023921871185302734e+01 3.068381786346435547e+00 9.754771739244461060e-02
7.980000000000000000e+02 7.862003326416015625e+01 -4.010751342773437500e+01 -6.855012476444244385e-02 1.006328296661376953e+01 2.998419761657714844e+00 1.604135334491729736e-01
7.990000000000000000e+02 9.145195007324218750e+00 3.860149765014648438e+01 -2.587269842624664307e-01 2.537128210067749023e+00 6.835203766822814941e-01 -1.093489974737167358e-01
8.000000000000000000e+02 2.744261360168457031e+01 4.072322082519531250e+01 -3.785316050052642822e-01 2.376471042633056641e+00 5.993818044662475586e-01 -6.097149103879928589e-02
8.010000000000000000e+02 4.737501144409179688e+01 4.052717208862304688e+01 -1.799614354968070984e-02 2.802887201309204102e+00 8.354672789573669434e-01 1.616736501455307007e-01
8.020000000000000000e+02 4.283802509307861328e-01 2.192960977554321289e+00 -2.710151858627796173e-02 -2.289547920227050781e-01 -7.681689411401748657e-02 8.866484463214874268e-02
8.030000000000000000e+02 3.082109689712524414e+00 2.914287090301513672e+00 -2.748567759990692139e-01 -2.521999478340148926e-01 -1.581170111894607544e-01 6.761632561683654785e-01
8.040000000000000000e+02 5.466169834136962891e+00 2.680698871612548828e+00 -6.019496321678161621e-01 1.864947751164436340e-02 -1.749900579452514648e-01 7.678343057632446289e-01
8.050000000000000000e+02 2.288040161132812500e+00 5.328405857086181641e+00 8.218233473598957062e-03 -7.883149981498718262e-01 -2.340290397405624390e-01 6.935551166534423828e-01
8.060000000000000000e+02 5.710418224334716797e-01 9.303545951843261719e+00 4.012362565845251083e-03 -2.613107919692993164e+00 -7.827286720275878906e-01 1.356995552778244019e-01
8.070000000000000000e+02 5.578172802925109863e-01 1.211215496063232422e+01 6.278906017541885376e-03 -3.096551418304443359e+00 -9.270817041397094727e-01 3.457069396972656250e-02
8.080000000000000000e+02 5.639356374740600586e-01 1.630865859985351562e+01 4.285571724176406860e-02 -2.776360988616943359e+00 -8.200516104698181152e-01 -1.340581178665161133e-01
8.090000000000000000e+02 5.773835182189941406e-01 1.770423507690429688e+01 -5.215610377490520477e-03 -2.393320083618164062e+00 -7.195607423782348633e-01 -1.776426285505294800e-01
8.100000000000000000e+02 6.613477468490600586e-01 2.194118309020996094e+01 1.682718098163604736e-02 -7.372970581054687500e-01 -2.161409556865692139e-01 -2.818556427955627441e-01
8.110000000000000000e+02 6.752309203147888184e-01 2.337541770935058594e+01 -1.411625184118747711e-02 -1.458513289690017700e-01 -4.799027368426322937e-02 -2.828658521175384521e-01
8.120000000000000000e+02 6.672502160072326660e-01 2.481138992309570312e+01 -1.011635921895503998e-02 4.179028570652008057e-01 1.223359480500221252e-01 -2.571055889129638672e-01
8.130000000000000000e+02 6.521622538566589355e-01 2.905184936523437500e+01 -9.367326274514198303e-03 1.768878340721130371e+00 5.278533101081848145e-01 -1.572313010692596436e-01
8.140000000000000000e+02 6.677888631820678711e-01 3.045151901245117188e+01 -1.865183562040328979e-02 2.071057319641113281e+00 6.157217025756835938e-01 -1.261793226003646851e-01
8.150000000000000000e+02 2.018229246139526367e+00 3.037808227539062500e+01 -6.810783594846725464e-02 2.093077421188354492e+00 6.074908971786499023e-01 -3.651593923568725586e-01
8.160000000000000000e+02 6.882587671279907227e-01 3.184933471679687500e+01 -4.546636715531349182e-03 2.307440757751464844e+00 6.908682584762573242e-01 -1.030954197049140930e-01
8.170000000000000000e+02 7.319301962852478027e-01 3.601282882690429688e+01 -3.845263272523880005e-03 2.718505620956420898e+00 8.143981099128723145e-01 -4.590289667248725891e-02
8.180000000000000000e+02 3.413320302963256836e+00 3.704312515258789062e+01 -8.252243697643280029e-02 2.665866851806640625e+00 7.750033140182495117e-01 -1.450787782669067383e-01
8.190000000000000000e+02 9.518948793411254883e-01 3.872006988525390625e+01 1.311895321123301983e-03 2.819708585739135742e+00 8.463061451911926270e-01 -1.867462880909442902e-02
8.200000000000000000e+02 1.326789259910583496e+00 4.007442474365234375e+01 -1.700598560273647308e-02 2.830044269561767578e+00 8.439114689826965332e-01 -3.856086172163486481e-03
8.210000000000000000e+02 9.547419548034667969e+00 1.821804404258728027e+00 -1.290039062500000000e+00 2.696862816810607910e-01 -3.061058223247528076e-01 6.287569552659988403e-02
8.220000000000000000e+02 8.729054450988769531e+00 1.837845087051391602e+00 -1.296972393989562988e+00 1.910672038793563843e-01 -3.317715525627136230e-01 2.595595121383666992e-01
8.230000000000000000e+02 7.904993534088134766e+00 1.854034900665283203e+00 -1.236862659454345703e+00 1.374807208776473999e-01 -3.298145830631256104e-01 4.562460780143737793e-01
8.240000000000000000e+02 5.429134368896484375e+00 1.891311049461364746e+00 -8.873332142829895020e-01 1.072920486330986023e-02 -2.629812061786651611e-01 6.499239802360534668e-01
8.250000000000000000e+02 4.605903148651123047e+00 1.906440973281860352e+00 -7.182886600494384766e-01 -4.718085005879402161e-02 -2.296408414840698242e-01 6.562916636466979980e-01
8.260000000000000000e+02 3.782171249389648438e+00 1.933312892913818359e+00 -5.575394630432128906e-01 -8.277914673089981079e-02 -1.920955926179885864e-01 5.924964547157287598e-01
8.270000000000000000e+02 2.955648183822631836e+00 1.979316115379333496e+00 -3.635296821594238281e-01 -1.610051989555358887e-01 -1.573604643344879150e-01 5.261677503585815430e-01
8.280000000000000000e+02 1.280011773109436035e+00 2.135371446609497070e+00 -1.069495230913162231e-01 -2.774870693683624268e-01 -1.153309717774391174e-01 2.705502510070800781e-01
8.290000000000000000e+02 1.178461170196533203e+01 1.778077721595764160e+00 -4.376963376998901367e-01 5.679853558540344238e-01 3.908670321106910706e-02 -9.418954849243164062e-01
8.300000000000000000e+02 1.247790336608886719e+01 1.784560441970825195e+00 1.566388309001922607e-01 8.397136926651000977e-01 2.989057600498199463e-01 -1.549212574958801270e+00
8.310000000000000000e+02 1.296016502380371094e+01 1.759672760963439941e+00 6.644867658615112305e-01 1.044027447700500488e+00 5.125542879104614258e-01 -2.035137653350830078e+00
8.320000000000000000e+02 1.366172790527343750e+01 1.741200685501098633e+00 1.677187204360961914e+00 1.746103167533874512e+00 1.026987075805664062e+00 -3.057367086410522461e+00
8.330000000000000000e+02 1.446978187561035156e+01 2.088491678237915039e+00 2.208786487579345703e+00 4.496873855590820312e+00 2.011698007583618164e+00 -5.182432174682617188e+00
8.340000000000000000e+02 1.346189689636230469e+01 2.227192401885986328e+00 1.274103283882141113e+00 2.272341251373291016e+00 1.063933372497558594e+00 -3.270224094390869141e+00
8.350000000000000000e+02 1.446416664123535156e+01 1.743260025978088379e+00 2.746787309646606445e+00 3.681210756301879883e+00 1.928399443626403809e+00 -4.948410511016845703e+00
8.360000000000000000e+02 1.588214683532714844e+01 1.832755327224731445e+00 1.331975340843200684e+00 1.329194736480712891e+01 4.387176513671875000e+00 -5.729604244232177734e+00
8.370000000000000000e+02 1.610793304443359375e+01 1.831601262092590332e+00 1.068541169166564941e+00 1.433670806884765625e+01 4.621574878692626953e+00 -4.758558273315429688e+00
8.380000000000000000e+02 1.652404594421386719e+01 1.736486196517944336e+00 1.469484090805053711e+00 1.578048419952392578e+01 5.174990653991699219e+00 -2.533956289291381836e+00
8.390000000000000000e+02 1.632179450988769531e+01 1.798521280288696289e+00 1.105992078781127930e+00 1.528044414520263672e+01 4.915930747985839844e+00 -3.723959207534790039e+00
8.400000000000000000e+02 1.762586212158203125e+01 1.301407098770141602e+00 5.786448955535888672e+00 1.145579147338867188e+01 5.172672271728515625e+00 9.878861904144287109e-01
8.410000000000000000e+02 1.745828819274902344e+01 9.211963415145874023e-01 8.115027427673339844e+00 1.219190883636474609e+01 6.092081069946289062e+00 1.263404726982116699e+00
8.420000000000000000e+02 1.766984367370605469e+01 3.146935999393463135e-01 1.057634353637695312e+01 1.026130294799804688e+01 6.251294136047363281e+00 -4.518924355506896973e-01
8.430000000000000000e+02 1.762959480285644531e+01 5.270117521286010742e-01 1.018428039550781250e+01 1.058834552764892578e+01 6.231788158416748047e+00 2.777731418609619141e-01
8.440000000000000000e+02 1.759308052062988281e+01 -3.315358459949493408e-01 1.007051658630371094e+01 1.087587261199951172e+01 6.283916950225830078e+00 -2.959943056106567383e+00
8.450000000000000000e+02 1.518095970153808594e+01 -1.972284078598022461e+00 2.078053474426269531e+00 7.274587154388427734e+00 2.805792093276977539e+00 4.692342281341552734e+00
8.460000000000000000e+02 1.434412956237792969e+01 -1.605801343917846680e+00 2.789961814880371094e+00 2.878991127014160156e+00 1.700685858726501465e+00 3.616867542266845703e+00
8.470000000000000000e+02 1.330347537994384766e+01 -1.612449645996093750e+00 1.461797356605529785e+00 1.030863046646118164e+00 7.477980852127075195e-01 1.868934035301208496e+00
8.480000000000000000e+02 1.349146175384521484e+01 -1.612521171569824219e+00 1.695198655128479004e+00 1.230749964714050293e+00 8.777845501899719238e-01 2.140521049499511719e+00
8.490000000000000000e+02 1.306477546691894531e+01 -1.653317451477050781e+00 1.260040163993835449e+00 7.650477886199951172e-01 6.075263619422912598e-01 1.648727774620056152e+00
8.500000000000000000e+02 1.115408134460449219e+01 -1.753888607025146484e+00 -1.148498058319091797e-01 3.350004851818084717e-01 6.604520976543426514e-02 5.153163671493530273e-01
8.510000000000000000e+02 3.116994857788085938e+01 1.755424690246582031e+01 1.110792279243469238e+00 6.607101440429687500e+00 2.315368175506591797e+00 -2.393801450729370117e+00
8.520000000000000000e+02 3.166975975036621094e+01 1.621574211120605469e+01 8.489306569099426270e-01 7.119496822357177734e+00 2.390528202056884766e+00 -2.296259164810180664e+00
8.530000000000000000e+02 3.365717697143554688e+01 7.997517108917236328e+00 2.928003072738647461e-01 1.128321933746337891e+01 3.472805976867675781e+00 -8.665776252746582031e-01
8.540000000000000000e+02 3.881795501708984375e+01 9.047643661499023438e+00 2.183075189590454102e+00 1.410298538208007812e+01 4.885818004608154297e+00 2.586273908615112305e+00
8.550000000000000000e+02 3.607846069335937500e+01 4.687478542327880859e+00 1.616489648818969727e+00 1.338410377502441406e+01 4.500177860260009766e+00 1.720070838928222656e+00
8.560000000000000000e+02 3.917958831787109375e+01 6.048073291778564453e+00 4.938693642616271973e-01 1.637542533874511719e+01 5.060788631439208984e+00 1.132314443588256836e+00
8.570000000000000000e+02 2.576154899597167969e+01 1.044628620147705078e+00 2.138407230377197266e+00 -6.112040281295776367e-01 4.581609964370727539e-01 -1.414963006973266602e-01
8.580000000000000000e+02 2.464545440673828125e+01 1.110068798065185547e+00 2.154176235198974609e+00 -1.644219398498535156e+00 1.529870331287384033e-01 3.435148596763610840e-01
8.590000000000000000e+02 2.237285804748535156e+01 4.152813911437988281e+00 -2.341300964355468750e+00 -2.152146100997924805e+00 -1.348034143447875977e+00 2.433404922485351562e+00
8.600000000000000000e+02 2.073237419128417969e+01 4.104005813598632812e+00 -9.397588968276977539e-01 6.638370752334594727e-01 -8.277655392885208130e-02 1.019367694854736328e+00
8.610000000000000000e+02 1.713772392272949219e+01 1.826628327369689941e+00 2.405078411102294922e+00 1.337201786041259766e+01 4.733128547668457031e+00 -2.894021868705749512e-01
8.620000000000000000e+02 1.817625427246093750e+01 7.848277091979980469e+00 3.205858767032623291e-01 3.176012277603149414e+00 1.048979401588439941e+00 -1.620684027671813965e+00
8.630000000000000000e+02 1.620346450805664062e+01 1.000433254241943359e+01 2.699448347091674805e+00 8.275753021240234375e+00 3.292560577392578125e+00 -4.294668197631835938e+00
8.640000000000000000e+02 1.422226428985595703e+01 1.669196701049804688e+01 3.356125950813293457e-02 1.189317512512207031e+01 3.578020811080932617e+00 -5.519306063652038574e-01
8.650000000000000000e+02 1.368816471099853516e+01 1.940904426574707031e+01 1.613449811935424805e+00 9.591492652893066406e+00 3.361482620239257812e+00 4.784414470195770264e-01
8.660000000000000000e+02 2.093490982055664062e+01 2.289989471435546875e+01 -2.647641420364379883e+00 -2.051854282617568970e-01 -8.558480739593505859e-01 8.766403421759605408e-03
8.670000000000000000e+02 6.245898818969726562e+01 1.505992603302001953e+01 2.119433134794235229e-01 1.101243305206298828e+01 3.367313146591186523e+00 -1.213740333914756775e-01
8.680000000000000000e+02 6.239019012451171875e+01 1.366522598266601562e+01 2.115326821804046631e-01 1.115645694732666016e+01 3.410396814346313477e+00 3.470893800258636475e-01
8.690000000000000000e+02 6.341839599609375000e+01 1.196337509155273438e+01 5.668820142745971680e-01 1.001638412475585938e+01 3.174979925155639648e+00 6.865698695182800293e-01
8.700000000000000000e+02 6.102718353271484375e+01 6.752182483673095703e+00 1.322235345840454102e+00 8.554437637329101562e+00 2.963001966476440430e+00 2.809853553771972656e+00
8.710000000000000000e+02 5.810219573974609375e+01 1.927375674247741699e+00 1.516573786735534668e+00 3.476405143737792969e+00 1.497893691062927246e+00 2.308103084564208984e+00
8.720000000000000000e+02 5.731634902954101562e+01 7.614920139312744141e-01 1.623353481292724609e+00 3.511744499206542969e+00 1.540529370307922363e+00 2.340029001235961914e+00
8.730000000000000000e+02 5.470491790771484375e+01 -2.595470905303955078e+00 2.500601291656494141e+00 2.856231689453125000e+00 1.607049942016601562e+00 2.623654127120971680e+00
8.740000000000000000e+02 5.279349136352539062e+01 -4.604327678680419922e+00 2.943388462066650391e+00 2.530588150024414062e+00 1.642193078994750977e+00 2.543551921844482422e+00
8.750000000000000000e+02 4.412274932861328125e+01 -4.133012771606445312e+00 -3.431128740310668945e+00 1.695670187473297119e-02 -1.024251580238342285e+00 6.141386032104492188e-01
8.760000000000000000e+02 4.163370132446289062e+01 -3.959025859832763672e+00 -1.178557038307189941e+00 4.186035633087158203e+00 9.022436738014221191e-01 -1.696532011032104492e+00
8.770000000000000000e+02 3.981945037841796875e+01 -6.535039097070693970e-02 1.405042052268981934e+00 1.133135128021240234e+01 3.820917844772338867e+00 -3.330813884735107422e+00
8.780000000000000000e+02 3.833396148681640625e+01 2.151760101318359375e+00 1.543627858161926270e+00 1.320809459686279297e+01 4.425516605377197266e+00 -8.487908244132995605e-01
8.790000000000000000e+02 3.378251266479492188e+01 5.184248924255371094e+00 3.039926849305629730e-02 1.406642341613769531e+01 4.229046821594238281e+00 2.882100045680999756e-01
8.800000000000000000e+02 3.377485656738281250e+01 6.566351890563964844e+00 4.042720496654510498e-01 1.232548236846923828e+01 3.818926334381103516e+00 -2.415242642164230347e-01
8.810000000000000000e+02 3.969163513183593750e+01 8.753436088562011719e+00 2.214643001556396484e+00 1.696957778930664062e+01 5.755266666412353516e+00 4.632641315460205078e+00
8.820000000000000000e+02 4.074544143676757812e+01 1.149916172027587891e+01 2.693196535110473633e+00 9.382444381713867188e+00 3.622692108154296875e+00 4.490207195281982422e+00
8.830000000000000000e+02 4.161231231689453125e+01 1.279755496978759766e+01 2.864372491836547852e+00 7.120752811431884766e+00 2.995537519454956055e+00 3.939202070236206055e+00
8.840000000000000000e+02 4.371529769897460938e+01 1.486869907379150391e+01 2.452368497848510742e+00 3.558228015899658203e+00 1.803178906440734863e+00 2.811061859130859375e+00
8.850000000000000000e+02 4.806587219238281250e+01 1.843573570251464844e+01 6.732835769653320312e-01 9.437345266342163086e-01 4.851054251194000244e-01 8.546073436737060547e-01
8.860000000000000000e+02 5.046788787841796875e+01 1.992614746093750000e+01 -8.838700056076049805e-01 2.091891318559646606e-01 -2.024042606353759766e-01 6.685343384742736816e-02
8.870000000000000000e+02 5.312667083740234375e+01 2.099739456176757812e+01 -2.233202219009399414e+00 2.174686174839735031e-03 -6.693082451820373535e-01 -2.788213491439819336e-01
8.880000000000000000e+02 5.734347915649414062e+01 2.171394538879394531e+01 -3.750716447830200195e+00 -2.095150202512741089e-01 -1.188069462776184082e+00 -3.275991082191467285e-01
8.890000000000000000e+02 6.838152313232421875e+01 -1.511321067810058594e+01 2.832637548446655273e+00 1.453209304809570312e+01 5.209419250488281250e+00 -4.295303821563720703e+00
8.900000000000000000e+02 6.894680023193359375e+01 -1.864815711975097656e+01 5.778459906578063965e-01 1.831189155578613281e+01 5.666921138763427734e+00 6.243882775306701660e-01
8.910000000000000000e+02 6.780779266357421875e+01 -2.270334053039550781e+01 2.247438669204711914e+00 1.016452884674072266e+01 3.723590135574340820e+00 3.853636026382446289e+00
8.920000000000000000e+02 6.608538055419921875e+01 -2.503758049011230469e+01 7.664490342140197754e-01 3.331402301788330078e+00 1.229355454444885254e+00 1.710913777351379395e+00
8.930000000000000000e+02 6.297729492187500000e+01 -2.811710739135742188e+01 -1.222051382064819336e+00 2.762242853641510010e-01 -2.837481200695037842e-01 -2.350326180458068848e-01
8.940000000000000000e+02 6.179387283325195312e+01 -2.893410873413085938e+01 -2.001572132110595703e+00 -7.699254900217056274e-02 -6.235693693161010742e-01 -6.165822148323059082e-01
8.950000000000000000e+02 5.913257980346679688e+01 -3.008316230773925781e+01 -2.864598035812377930e+00 -2.583831548690795898e-01 -9.368943572044372559e-01 -7.586169838905334473e-01
8.960000000000000000e+02 5.496296310424804688e+01 -3.074916458129882812e+01 -2.438448667526245117e+00 -9.484219551086425781e-02 -7.599872946739196777e-01 -3.270682394504547119e-01
8.970000000000000000e+02 5.088690567016601562e+01 -3.141192626953125000e+01 -6.684171408414840698e-02 1.608223319053649902e+00 4.624145030975341797e-01 -1.509937167167663574e+00
8.980000000000000000e+02 4.772540664672851562e+01 -2.842878723144531250e+01 3.056530237197875977e+00 5.949364185333251953e+00 2.701768398284912109e+00 -3.742675065994262695e+00
8.990000000000000000e+02 4.674982452392578125e+01 -2.732126426696777344e+01 3.195936918258666992e+00 8.823771476745605469e+00 3.605912446975708008e+00 -4.478257656097412109e+00
9.000000000000000000e+02 4.444879913330078125e+01 -2.384177017211914062e+01 2.251031875610351562e+00 1.270934963226318359e+01 4.488114356994628906e+00 -2.326057672500610352e+00
9.010000000000000000e+02 4.527553939819335938e+01 -1.738325309753417969e+01 2.183320999145507812e+00 8.426366806030273438e+00 3.182906389236450195e+00 1.716730475425720215e+00
9.020000000000000000e+02 5.304143524169921875e+01 -1.478653144836425781e+01 -5.167824029922485352e-01 8.048869669437408447e-02 -1.308881193399429321e-01 3.251618146896362305e-01
9.030000000000000000e+02 5.441222763061523438e+01 -1.469330501556396484e+01 -1.293524861335754395e+00 1.107678338885307312e-01 -3.548271059989929199e-01 1.486609280109405518e-01
9.040000000000000000e+02 5.576212310791015625e+01 -1.456077384948730469e+01 -1.913194894790649414e+00 2.511222660541534424e-02 -5.664247870445251465e-01 1.008802466094493866e-02
9.050000000000000000e+02 3.562057113647460938e+01 -1.914506340026855469e+01 2.612126469612121582e-01 1.269172477722167969e+01 3.885881185531616211e+00 -5.071820020675659180e-01
9.060000000000000000e+02 3.232830047607421875e+01 -2.712234497070312500e+01 8.221762776374816895e-01 2.218912363052368164e+00 9.123265743255615234e-01 1.406168341636657715e+00
9.070000000000000000e+02 3.128662490844726562e+01 -2.811717796325683594e+01 2.027196586132049561e-01 1.442779064178466797e+00 4.936496019363403320e-01 8.677256703376770020e-01
9.080000000000000000e+02 2.730382156372070312e+01 -2.967778015136718750e+01 -2.634728908538818359e+00 -2.360166050493717194e-02 -7.974991798400878906e-01 -1.990021020174026489e-02
9.090000000000000000e+02 2.012927627563476562e+01 -2.757641410827636719e+01 -5.484783649444580078e-01 3.764497041702270508e-01 -5.160859227180480957e-02 -1.860675029456615448e-02
9.100000000000000000e+02 1.910343742370605469e+01 -2.657479667663574219e+01 -8.616586774587631226e-02 7.439429163932800293e-01 1.973331272602081299e-01 -3.477198183536529541e-01
9.110000000000000000e+02 1.627569961547851562e+01 -2.342239761352539062e+01 1.069526076316833496e+00 3.167459011077880859e+00 1.271095514297485352e+00 -1.801683068275451660e+00
9.120000000000000000e+02 1.442649364471435547e+01 -1.630653953552246094e+01 1.536337137222290039e+00 1.285267353057861328e+01 4.316703319549560547e+00 2.336616992950439453e+00
9.130000000000000000e+02 1.549049091339111328e+01 -1.405361938476562500e+01 2.888678789138793945e+00 8.581675529479980469e+00 3.441106319427490234e+00 4.332559108734130859e+00
9.140000000000000000e+02 2.085034751892089844e+01 -1.128408145904541016e+01 -2.660586595535278320e+00 1.513928472995758057e-01 -7.527580857276916504e-01 -4.477618038654327393e-01
9.150000000000000000e+02 2.216741371154785156e+01 -1.096244525909423828e+01 -2.723166942596435547e+00 -1.288389414548873901e-01 -8.556017875671386719e-01 -7.957505583763122559e-01
9.160000000000000000e+02 2.466449165344238281e+01 -1.004812622070312500e+01 -2.326502799987792969e+00 -5.056974887847900391e-01 -8.496600389480590820e-01 -1.263158798217773438e+00
9.170000000000000000e+02 1.699330902099609375e+01 -1.257083892822265625e+00 3.797213077545166016e+00 1.476255607604980469e+01 5.567930698394775391e+00 -1.910447478294372559e+00
9.180000000000000000e+02 1.671611404418945312e+01 1.649284124374389648e+00 2.124298095703125000e+00 1.578962707519531250e+01 5.374177455902099609e+00 -1.303968429565429688e+00
9.190000000000000000e+02 1.721725845336914062e+01 1.266264915466308594e+00 5.537946701049804688e+00 1.395977210998535156e+01 5.849315643310546875e+00 1.087185978889465332e+00
9.200000000000000000e+02 1.850162506103515625e+01 6.262608051300048828e+00 -2.003819942474365234e+00 3.986900091171264648e+00 5.949240326881408691e-01 -9.782474040985107422e-01
9.210000000000000000e+02 1.732893943786621094e+01 1.676166653633117676e+00 3.555688619613647461e+00 1.280648517608642578e+01 4.908651828765869141e+00 4.337824285030364990e-01
9.220000000000000000e+02 1.767055702209472656e+01 9.391534328460693359e-02 1.065727138519287109e+01 1.013643932342529297e+01 6.238113403320312500e+00 -1.389608979225158691e+00
9.230000000000000000e+02 1.755429458618164062e+01 7.287024259567260742e-01 9.262105941772460938e+00 1.125381946563720703e+01 6.154778003692626953e+00 9.001240134239196777e-01
9.240000000000000000e+02 1.798287582397460938e+01 -1.523735225200653076e-01 9.403115272521972656e+00 8.820928573608398438e+00 5.467213153839111328e+00 -2.057586908340454102e+00
9.250000000000000000e+02 1.632790565490722656e+01 -1.737876653671264648e+00 1.263548851013183594e+00 1.362799930572509766e+01 4.467464447021484375e+00 2.009785890579223633e+00
9.260000000000000000e+02 1.742488288879394531e+01 -7.254940271377563477e-01 7.866300106048583984e+00 1.242369461059570312e+01 6.086998462677001953e+00 -3.608037948608398438e+00
9.270000000000000000e+02 1.618225097656250000e+01 -1.508746027946472168e+00 1.570353984832763672e+00 1.428939723968505859e+01 4.757925510406494141e+00 2.921023130416870117e+00
9.280000000000000000e+02 1.733216476440429688e+01 -9.319955706596374512e-01 6.367708683013916016e+00 1.299144649505615234e+01 5.807746410369873047e+00 -3.266886234283447266e+00
9.290000000000000000e+02 1.751783370971679688e+01 -5.306648015975952148e-01 9.192087173461914062e+00 1.168164157867431641e+01 6.262118339538574219e+00 -3.488319873809814453e+00
9.300000000000000000e+02 2.021824264526367188e+01 5.937391757965087891e+00 -2.562295198440551758e+00 -4.413827061653137207e-01 -9.011033773422241211e-01 1.453158855438232422e+00
9.310000000000000000e+02 2.172739791870117188e+01 3.413280487060546875e+00 -2.649767994880676270e-01 -9.205322265625000000e-01 -3.556527197360992432e-01 1.350025534629821777e+00
9.320000000000000000e+02 1.734650039672851562e+01 1.101409673690795898e+00 6.848599910736083984e+00 1.313560962677001953e+01 5.995263099670410156e+00 1.373543858528137207e+00
9.330000000000000000e+02 1.320782947540283203e+01 1.764238357543945312e+00 1.005506992340087891e+00 1.392192006111145020e+00 7.193096876144409180e-01 -2.390240430831909180e+00
9.340000000000000000e+02 1.486020565032958984e+01 2.203281164169311523e+00 1.789785146713256836e+00 6.491646766662597656e+00 2.484429597854614258e+00 -5.734736442565917969e+00
9.350000000000000000e+02 1.566145038604736328e+01 1.777690649032592773e+00 1.788381457328796387e+00 1.184244632720947266e+01 4.089248180389404297e+00 -6.450131893157958984e+00
9.360000000000000000e+02 1.527231407165527344e+01 1.763790488243103027e+00 2.746706962585449219e+00 8.547340393066406250e+00 3.388214349746704102e+00 -6.800760746002197266e+00
9.370000000000000000e+02 1.557658195495605469e+01 1.987975597381591797e+00 1.556783199310302734e+00 1.093511676788330078e+01 3.747569799423217773e+00 -6.262048721313476562e+00
9.380000000000000000e+02 1.467219924926757812e+01 1.759398818016052246e+00 2.843156576156616211e+00 4.619639873504638672e+00 2.238838911056518555e+00 -5.504608631134033203e+00
9.390000000000000000e+02 1.390103054046630859e+01 2.027967453002929688e+00 1.855319619178771973e+00 2.733934879302978516e+00 1.376776337623596191e+00 -3.899564981460571289e+00
9.400000000000000000e+02 1.499549865722656250e+01 1.987812876701354980e+00 2.208225488662719727e+00 7.058050632476806641e+00 2.779882907867431641e+00 -6.188486099243164062e+00
9.410000000000000000e+02 1.259117889404296875e+01 -1.684563040733337402e+00 7.432445287704467773e-01 6.342830061912536621e-01 4.132582545280456543e-01 1.283406138420104980e+00
9.420000000000000000e+02 1.494930744171142578e+01 -1.592458367347717285e+00 2.975592851638793945e+00 5.512160778045654297e+00 2.546325922012329102e+00 4.782654762268066406e+00
9.430000000000000000e+02 1.537609004974365234e+01 -1.592689990997314453e+00 2.582417249679565430e+00 8.268953323364257812e+00 3.255411148071289062e+00 5.150770664215087891e+00
9.440000000000000000e+02 1.454370498657226562e+01 -1.583472490310668945e+00 3.004423141479492188e+00 3.435583114624023438e+00 1.932001829147338867e+00 4.019971370697021484e+00
9.450000000000000000e+02 1.413257217407226562e+01 -1.668500900268554688e+00 2.468658924102783203e+00 2.386107206344604492e+00 1.456429839134216309e+00 3.174019575119018555e+00
9.460000000000000000e+02 1.367700767517089844e+01 -1.659293293952941895e+00 1.961121439933776855e+00 1.543348431587219238e+00 1.051340937614440918e+00 2.446621656417846680e+00
9.470000000000000000e+02 1.332913017272949219e+01 -1.850649356842041016e+00 1.593140959739685059e+00 1.331160902976989746e+00 8.772905468940734863e-01 2.154624462127685547e+00
9.480000000000000000e+02 1.541814994812011719e+01 -1.964823365211486816e+00 1.849557757377624512e+00 8.534000396728515625e+00 3.115067481994628906e+00 4.763623714447021484e+00
9.490000000000000000e+02 1.453216552734375000e+01 -1.859146833419799805e+00 2.509064674377441406e+00 4.108680725097656250e+00 1.985323548316955566e+00 4.019571304321289062e+00
9.500000000000000000e+02 1.437271118164062500e+01 -1.874339222908020020e+00 2.575963258743286133e+00 3.209539890289306641e+00 1.735650897026062012e+00 3.817221164703369141e+00
9.510000000000000000e+02 1.348615741729736328e+01 -2.051996707916259766e+00 1.741427421569824219e+00 1.765632271766662598e+00 1.052117943763732910e+00 2.559890985488891602e+00
9.520000000000000000e+02 1.092035388946533203e+01 2.996779203414916992e+00 -6.136116012930870056e-02 1.183222174644470215e+00 3.365582823753356934e-01 -9.781566858291625977e-01
9.530000000000000000e+02 1.098052597045898438e+01 2.376430273056030273e+00 -3.555239737033843994e-01 7.804987430572509766e-01 1.274924278259277344e-01 -7.451724410057067871e-01
9.540000000000000000e+02 1.224832630157470703e+01 2.327793836593627930e+00 3.420016467571258545e-01 1.284034252166748047e+00 4.878107905387878418e-01 -1.782131314277648926e+00
9.550000000000000000e+02 1.407684421539306641e+01 2.014386653900146484e+00 2.007426500320434570e+00 3.239611387252807617e+00 1.574111342430114746e+00 -4.284843921661376953e+00
9.560000000000000000e+02 1.285451793670654297e+01 2.702543020248413086e+00 7.896522283554077148e-01 2.192999601364135742e+00 8.947955369949340820e-01 -2.731675863265991211e+00
9.570000000000000000e+02 1.190361785888671875e+01 -2.191366434097290039e+00 6.031788587570190430e-01 6.916915774345397949e-01 3.884611427783966064e-01 1.168902039527893066e+00
9.580000000000000000e+02 9.721120834350585938e+00 -2.474869489669799805e+00 -1.782857328653335571e-01 3.992562890052795410e-01 6.629116833209991455e-02 2.648384869098663330e-01
9.590000000000000000e+02 1.120722198486328125e+01 -2.285933017730712891e+00 2.488993555307388306e-01 5.584400892257690430e-01 2.422018349170684814e-01 7.910816669464111328e-01
9.600000000000000000e+02 1.059075355529785156e+01 -2.978390693664550781e+00 2.655740082263946533e-01 7.687893509864807129e-01 3.103090226650238037e-01 7.736288309097290039e-01
9.610000000000000000e+02 2.694708108901977539e+00 -2.581476449966430664e+00 -1.738722026348114014e-01 -1.461956501007080078e-01 -9.602035582065582275e-02 -3.880205452442169189e-01
9.620000000000000000e+02 5.738842964172363281e+00 -2.746941804885864258e+00 -3.654060959815979004e-01 7.123699039220809937e-02 -8.825073391199111938e-02 -4.528290033340454102e-01
9.630000000000000000e+02 6.543999671936035156e+00 -1.911015033721923828e+00 -6.429306864738464355e-01 5.309244617819786072e-02 -1.769514828920364380e-01 -3.420778512954711914e-01
9.640000000000000000e+02 8.161080360412597656e+00 -2.637019157409667969e+00 -3.681661784648895264e-01 2.665291726589202881e-01 -3.049110062420368195e-02 -1.211114525794982910e-01
9.650000000000000000e+02 7.362095832824707031e+00 -2.690463066101074219e+00 -3.807843029499053955e-01 1.892185062170028687e-01 -5.746973678469657898e-02 -2.669254541397094727e-01
9.660000000000000000e+02 6.553186893463134766e+00 -2.726978063583374023e+00 -3.849876821041107178e-01 1.364486068487167358e-01 -7.456172257661819458e-02 -3.923445641994476318e-01
9.670000000000000000e+02 4.980003833770751953e+00 -1.914112091064453125e+00 -4.969249069690704346e-01 -1.096296007744967937e-03 -1.494063585996627808e-01 -4.161814153194427490e-01
9.680000000000000000e+02 4.135508060455322266e+00 -2.713788747787475586e+00 -2.719625532627105713e-01 -6.083922833204269409e-02 -9.984053671360015869e-02 -4.789602160453796387e-01
9.690000000000000000e+02 4.030907630920410156e+00 -3.557872533798217773e+00 -1.560495644807815552e-01 -9.301628917455673218e-02 -7.471975684165954590e-02 -5.239923000335693359e-01
9.700000000000000000e+02 5.044291615486145020e-01 -3.539977550506591797e+00 -2.422438375651836395e-02 -4.496007561683654785e-01 -1.421475410461425781e-01 -1.181736364960670471e-01
9.710000000000000000e+02 5.653620958328247070e-01 -4.988086223602294922e+00 -2.531337784603238106e-03 -7.772214412689208984e-01 -2.339258193969726562e-01 -1.485273241996765137e-01
9.720000000000000000e+02 6.253424644470214844e+00 1.880047202110290527e+00 -1.032630562782287598e+00 4.255582019686698914e-02 -2.970224022865295410e-01 6.184771060943603516e-01
9.730000000000000000e+02 1.699155449867248535e+00 7.948900699615478516e+00 5.532118305563926697e-02 -1.543607234954833984e+00 -4.464857876300811768e-01 4.735594689846038818e-01
9.740000000000000000e+02 2.578186750411987305e+00 4.065252304077148438e+00 -8.642590045928955078e-02 -4.987064003944396973e-01 -1.755396872758865356e-01 6.893919706344604492e-01
9.750000000000000000e+02 5.570418834686279297e+00 4.301855087280273438e+00 -1.335990726947784424e-01 1.300142705440521240e-01 -1.075439387932419777e-03 8.403366208076477051e-01
9.760000000000000000e+02 1.430343627929687500e+00 3.425372838973999023e+00 -6.143772229552268982e-02 -5.460681915283203125e-01 -1.822517812252044678e-01 4.227468669414520264e-01
9.770000000000000000e+02 2.279001235961914062e+00 3.110751390457153320e+00 -1.576607823371887207e-01 -3.972839713096618652e-01 -1.664834320545196533e-01 5.865771770477294922e-01
9.780000000000000000e+02 2.122384309768676758e+00 2.049830913543701172e+00 -2.175489217042922974e-01 -2.399330437183380127e-01 -1.372445970773696899e-01 4.164823889732360840e-01
9.790000000000000000e+02 9.494961738586425781e+00 2.476361513137817383e+00 -7.234798669815063477e-01 5.002593994140625000e-01 -6.696613878011703491e-02 -3.525418788194656372e-02
9.800000000000000000e+02 7.082916736602783203e+00 2.611535549163818359e+00 -7.546865940093994141e-01 1.854610145092010498e-01 -1.707676798105239868e-01 6.177965998649597168e-01
9.810000000000000000e+02 7.079084396362304688e+00 1.868111610412597656e+00 -1.181589365005493164e+00 1.137472987174987793e-01 -3.203526437282562256e-01 5.527499914169311523e-01
9.820000000000000000e+02 1.025869750976562500e+01 2.428009986877441406e+00 -6.118765473365783691e-01 6.201878190040588379e-01 2.493382897228002548e-03 -3.644040822982788086e-01
9.830000000000000000e+02 5.542018508911132812e+01 2.407487487792968750e+01 -9.432305693626403809e-01 3.712359666824340820e-01 -1.715983897447586060e-01 4.827110469341278076e-02
9.840000000000000000e+02 1.521404933929443359e+01 2.200649642944335938e+01 -8.510996699333190918e-01 5.455433845520019531e+00 1.381300210952758789e+00 1.581768274307250977e+00
9.850000000000000000e+02 4.552740097045898438e+01 -1.879610824584960938e+01 1.510658979415893555e+00 1.116236305236816406e+01 3.801906585693359375e+00 2.092981338500976562e+00
9.860000000000000000e+02 6.533444976806640625e+01 -1.233127498626708984e+01 -2.647024631500244141e+00 8.974615335464477539e-01 -5.248689055442810059e-01 -1.200178980827331543e+00
9.870000000000000000e+02 6.206826782226562500e+01 -1.275955104827880859e+01 -3.700804233551025391e+00 -5.187280774116516113e-01 -1.265859723091125488e+00 -1.446339607238769531e+00
9.880000000000000000e+02 2.879677581787109375e+01 2.380525779724121094e+01 -9.266702532768249512e-01 2.688815116882324219e+00 5.286434888839721680e-01 -1.343697786331176758e+00
9.890000000000000000e+02 2.755579566955566406e+01 2.443558120727539062e+01 -9.449997544288635254e-01 1.844823598861694336e+00 2.699471712112426758e-01 -1.275067567825317383e+00
9.900000000000000000e+02 2.938743972778320312e+01 -1.202999711036682129e+00 5.664736270904541016e+00 1.417174816131591797e+00 2.124573469161987305e+00 7.107017636299133301e-01
9.910000000000000000e+02 2.967658233642578125e+01 -6.160000801086425781e+00 7.163040637969970703e-01 1.299203157424926758e+00 6.046521663665771484e-01 -9.853689670562744141e-01
9.920000000000000000e+02 3.039188385009765625e+01 2.114944076538085938e+01 -8.233155310153961182e-02 4.294263362884521484e+00 1.263579607009887695e+00 -1.288940548896789551e+00
9.930000000000000000e+02 1.714625167846679688e+01 8.865837097167968750e+00 1.675651550292968750e+00 5.378307342529296875e+00 2.116187810897827148e+00 -3.207765340805053711e+00
9.940000000000000000e+02 1.497107982635498047e+01 1.255975532531738281e+01 1.772737264633178711e+00 1.301962184906005859e+01 4.437707424163818359e+00 -3.885679721832275391e+00
9.950000000000000000e+02 2.628459930419921875e+01 -7.166346073150634766e+00 -4.687807261943817139e-01 -6.087485551834106445e-01 -3.232587873935699463e-01 -3.526343405246734619e-01
9.960000000000000000e+02 2.333260154724121094e+01 2.286471939086914062e+01 -2.482442855834960938e+00 -1.098969206213951111e-01 -7.777019739151000977e-01 8.519533276557922363e-02
9.970000000000000000e+02 3.210103988647460938e+01 -2.934509086608886719e+01 -4.300684630870819092e-01 2.690358877182006836e+00 6.780871152877807617e-01 1.281509041786193848e+00
9.980000000000000000e+02 3.008155250549316406e+01 -2.893707656860351562e+01 -8.479101657867431641e-01 6.026589870452880859e-01 -7.357536256313323975e-02 3.809767663478851318e-01
9.990000000000000000e+02 1.644923210144042969e+01 2.263270759582519531e+01 -8.041093349456787109e-01 2.463278532028198242e+00 4.977507591247558594e-01 1.527461528778076172e+00
1.000000000000000000e+03 1.709718132019042969e+01 2.158516502380371094e+01 -3.894126713275909424e-01 1.033416152000427246e+00 1.932010501623153687e-01 6.031925678253173828e-01
1.001000000000000000e+03 4.709371185302734375e+01 -1.495581626892089844e+01 2.086437225341796875e+00 3.894764661788940430e+00 1.794360518455505371e+00 2.070111751556396484e+00
1.002000000000000000e+03 5.161064529418945312e+01 -1.485587596893310547e+01 4.283497333526611328e-01 3.179280161857604980e-01 2.238833308219909668e-01 5.873613357543945312e-01
1.003000000000000000e+03 1.404409980773925781e+01 2.137958908081054688e+01 -8.672394752502441406e-01 6.819208621978759766e+00 1.785590767860412598e+00 -5.225401371717453003e-02
1.004000000000000000e+03 3.344054794311523438e+01 2.094298601150512695e+00 3.561410903930664062e+00 1.411520481109619141e+01 5.302984714508056641e+00 5.064723491668701172e+00
1.005000000000000000e+03 2.517067718505859375e+01 -7.474268913269042969e+00 -3.886656761169433594e-01 -2.828972041606903076e-01 -2.014688551425933838e-01 -3.920951485633850098e-01
1.006000000000000000e+03 3.372418975830078125e+01 1.388790416717529297e+01 7.336466312408447266e-01 8.225763320922851562e+00 2.687823057174682617e+00 -1.569864511489868164e+00
1.007000000000000000e+03 3.240783309936523438e+01 1.809586143493652344e+01 7.544549703598022461e-01 6.201006412506103516e+00 2.086638450622558594e+00 -1.605132341384887695e+00
1.008000000000000000e+03 1.898072052001953125e+01 2.567459297180175781e+01 -7.929812073707580566e-01 1.025583505630493164e+00 6.978069990873336792e-02 7.605523467063903809e-01
1.009000000000000000e+03 3.703163909912109375e+01 9.117171287536621094e+00 1.708486914634704590e+00 1.221196079254150391e+01 4.176134109497070312e+00 1.067661643028259277e+00
1.010000000000000000e+03 2.319194984436035156e+01 1.728220820426940918e+00 2.289848327636718750e+00 -1.812350988388061523e+00 1.432492136955261230e-01 4.372851252555847168e-01
1.011000000000000000e+03 1.287181472778320312e+01 2.080768585205078125e+01 6.388225406408309937e-02 6.401114463806152344e+00 1.939499020576477051e+00 -8.464788794517517090e-01
1.012000000000000000e+03 1.946425247192382812e+01 -1.023835659027099609e+01 -1.154991269111633301e+00 1.396384954452514648e+00 7.241809368133544922e-02 9.184222221374511719e-01
1.013000000000000000e+03 1.443132781982421875e+01 -1.297934532165527344e+01 7.195842862129211426e-01 7.995826244354248047e+00 2.614623069763183594e+00 1.848490357398986816e+00
1.014000000000000000e+03 1.993574523925781250e+01 2.452177429199218750e+01 -9.800293445587158203e-01 4.892231225967407227e-01 -1.472418606281280518e-01 6.220076680183410645e-01
1.015000000000000000e+03 2.100115966796875000e+01 2.558842277526855469e+01 -7.336822152137756348e-01 4.085164964199066162e-01 -9.754971414804458618e-02 3.106458187103271484e-01
1.016000000000000000e+03 2.213852882385253906e+01 2.399797821044921875e+01 -1.879348874092102051e+00 -5.461963266134262085e-02 -5.801905393600463867e-01 -1.878818869590759277e-02
1.017000000000000000e+03 3.492336654663085938e+01 8.135892868041992188e+00 9.870812296867370605e-01 1.173246765136718750e+01 3.815864562988281250e+00 1.187837049365043640e-01
1.018000000000000000e+03 3.937451553344726562e+01 7.394294261932373047e+00 9.912592768669128418e-01 1.818737983703613281e+01 5.753591537475585938e+00 2.675631046295166016e+00
1.019000000000000000e+03 4.593389511108398438e+01 -1.547381782531738281e+01 1.711167812347412109e+00 5.715007781982421875e+00 2.227852582931518555e+00 1.455173730850219727e+00
1.020000000000000000e+03 2.795195770263671875e+01 2.261460876464843750e+01 -6.649591326713562012e-01 1.736974596977233887e+00 3.216046392917633057e-01 -1.269562959671020508e+00
1.021000000000000000e+03 3.189070129394531250e+01 1.952581405639648438e+01 5.629184842109680176e-01 5.481861591339111328e+00 1.813434004783630371e+00 -1.282496452331542969e+00
1.022000000000000000e+03 2.129502487182617188e+01 5.014232635498046875e+00 -2.724463939666748047e+00 -1.289485812187194824e+00 -1.204185009002685547e+00 2.228309154510498047e+00
1.023000000000000000e+03 2.254162788391113281e+01 2.603889226913452148e+00 7.311670184135437012e-01 -1.422710418701171875e+00 -2.074630111455917358e-01 9.490801095962524414e-01
1.024000000000000000e+03 1.923359680175781250e+01 6.919269084930419922e+00 -1.265490055084228516e+00 1.034753084182739258e+00 -6.922107189893722534e-02 1.454261839389801025e-01
1.025000000000000000e+03 1.194880485534667969e+01 1.431947612762451172e+01 1.807698965072631836e+00 7.690671443939208984e+00 2.849511146545410156e+00 -1.320363998413085938e+00
1.026000000000000000e+03 2.549653816223144531e+01 2.385299491882324219e+01 -1.313492894172668457e+00 6.419798731803894043e-01 -2.014539092779159546e-01 -6.869768500328063965e-01
1.027000000000000000e+03 3.336283493041992188e+01 1.529954147338867188e+01 6.343191266059875488e-01 7.646548748016357422e+00 2.484260320663452148e+00 -1.734470486640930176e+00
1.028000000000000000e+03 1.527195739746093750e+01 9.343673706054687500e+00 9.106213450431823730e-01 8.299921989440917969e+00 2.763162851333618164e+00 -2.724306821823120117e+00
1.029000000000000000e+03 1.461402511596679688e+01 8.608487129211425781e+00 -6.785908341407775879e-02 7.691272735595703125e+00 2.287024021148681641e+00 -2.089603900909423828e+00
1.030000000000000000e+03 1.753710556030273438e+01 7.034729480743408203e+00 -1.236096024513244629e+00 5.518538475036621094e+00 1.284732818603515625e+00 -1.935608744621276855e+00
1.031000000000000000e+03 1.536833286285400391e+01 2.071888923645019531e+00 1.484021544456481934e+00 9.248954772949218750e+00 3.219892740249633789e+00 -6.290178775787353516e+00
1.032000000000000000e+03 3.291441726684570312e+01 1.669964218139648438e+01 7.643218636512756348e-01 6.947007179260253906e+00 2.313398838043212891e+00 -1.742170929908752441e+00
1.033000000000000000e+03 3.284712982177734375e+01 1.217014884948730469e+01 6.260759830474853516e-01 8.760720252990722656e+00 2.816038846969604492e+00 -1.866669535636901855e+00
1.034000000000000000e+03 1.282760810852050781e+01 1.782161140441894531e+01 1.289485216140747070e+00 8.574492454528808594e+00 2.959193229675292969e+00 -2.045045644044876099e-01
1.035000000000000000e+03 4.433652114868164062e+01 -2.567621612548828125e+01 2.415243864059448242e+00 1.035197257995605469e+01 3.830164909362792969e+00 -1.973927378654479980e+00
1.036000000000000000e+03 6.910543823242187500e+01 -1.732158470153808594e+01 1.490750193595886230e+00 1.837601089477539062e+01 5.960028648376464844e+00 -1.605518698692321777e+00
1.037000000000000000e+03 2.742135238647460938e+01 -8.073884963989257812e+00 -2.713411092758178711e+00 -7.660509347915649414e-01 -1.043838620185852051e+00 -9.834391474723815918e-01
1.038000000000000000e+03 6.836682128906250000e+01 -2.137739562988281250e+01 1.635082960128784180e+00 1.485983371734619141e+01 4.948475360870361328e+00 3.601349592208862305e+00
1.039000000000000000e+03 3.546693038940429688e+01 -2.190408897399902344e+01 8.168193101882934570e-01 1.155596160888671875e+01 3.711834192276000977e+00 1.606353998184204102e+00
1.040000000000000000e+03 6.603205108642578125e+01 -1.132594108581542969e+01 -1.752524495124816895e+00 3.938019514083862305e+00 6.556484699249267578e-01 -3.013187170028686523e+00
1.041000000000000000e+03 6.956162261962890625e+01 -2.541797447204589844e+01 -7.329240441322326660e-01 8.700285911560058594e+00 2.390208721160888672e+00 3.036333024501800537e-01
1.042000000000000000e+03 7.121036529541015625e+01 -1.686421775817871094e+01 2.081139087677001953e+00 1.162140083312988281e+01 4.110762119293212891e+00 -1.950938836671411991e-03
1.043000000000000000e+03 6.785542297363281250e+01 -1.118873023986816406e+01 -1.803888082504272461e+00 7.740530490875244141e+00 1.780992627143859863e+00 -2.547832489013671875e+00
1.044000000000000000e+03 5.774496459960937500e+01 -3.041157341003417969e+01 -2.988084077835083008e+00 -2.393643856048583984e-01 -9.682344794273376465e-01 -6.720461249351501465e-01
1.045000000000000000e+03 2.340872192382812500e+01 -3.080270195007324219e+01 -1.903632283210754395e+00 -1.123741567134857178e-01 -6.048019528388977051e-01 4.466333240270614624e-02
1.046000000000000000e+03 2.592926216125488281e+01 -2.977239036560058594e+01 -2.922085046768188477e+00 -1.169181149452924728e-02 -8.801330327987670898e-01 1.174170058220624924e-02
1.047000000000000000e+03 4.783958053588867188e+01 -3.051075935363769531e+01 1.842828541994094849e-01 5.450054168701171875e+00 1.690301060676574707e+00 -2.618368387222290039e+00
1.048000000000000000e+03 6.385522842407226562e+01 -2.959364318847656250e+01 -1.173310518264770508e+00 1.864494562149047852e+00 2.073552161455154419e-01 5.633143782615661621e-01
1.049000000000000000e+03 5.275077056884765625e+01 -3.255491638183593750e+01 -4.129568338394165039e-01 9.067763090133666992e-01 1.481458544731140137e-01 -1.433082103729248047e+00
1.050000000000000000e+03 6.499121856689453125e+01 -2.846100425720214844e+01 -9.334795475006103516e-01 2.741047859191894531e+00 5.422704815864562988e-01 7.419291734695434570e-01
1.051000000000000000e+03 5.358293533325195312e+01 -3.074151420593261719e+01 -1.803627490997314453e+00 6.375385820865631104e-02 -5.219620466232299805e-01 -3.165521919727325439e-01
1.052000000000000000e+03 4.957871246337890625e+01 -1.384252262115478516e+01 1.448734521865844727e+00 1.236324071884155273e+00 8.055175542831420898e-01 1.757585644721984863e+00
1.053000000000000000e+03 5.321686553955078125e+01 -6.310562133789062500e+00 9.754078388214111328e-01 2.316977262496948242e+00 9.877155423164367676e-01 2.099210023880004883e+00
1.054000000000000000e+03 6.089973068237304688e+01 -1.338917160034179688e+01 -2.799157142639160156e+00 -2.724938094615936279e-01 -9.214952588081359863e-01 -1.005846977233886719e+00
1.055000000000000000e+03 1.492668247222900391e+01 -1.515663909912109375e+01 2.234780311584472656e+00 1.197712326049804688e+01 4.263571262359619141e+00 4.308869361877441406e+00
1.056000000000000000e+03 5.759316635131835938e+01 -1.179273033142089844e+01 -1.365331292152404785e+00 6.557070612907409668e-01 -2.128872722387313843e-01 5.173203349113464355e-01
1.057000000000000000e+03 2.645415306091308594e+01 -8.105895042419433594e+00 -1.598137974739074707e+00 -6.772273778915405273e-01 -6.826096177101135254e-01 -6.416493058204650879e-01
1.058000000000000000e+03 2.315605163574218750e+01 -9.372799873352050781e+00 -1.575816869735717773e+00 7.041832059621810913e-02 -4.516195654869079590e-01 -7.841817140579223633e-01
1.059000000000000000e+03 5.538367462158203125e+01 -3.259291839599609375e+01 -9.651904106140136719e-01 -2.632271265611052513e-03 -2.903468012809753418e-01 -8.088190555572509766e-01
1.060000000000000000e+03 6.125730514526367188e+01 -1.170739650726318359e+01 -2.813959360122680664e+00 3.634277582168579102e-01 -7.351594567298889160e-01 -1.076337099075317383e-01
1.061000000000000000e+03 5.675291061401367188e+01 -3.223470306396484375e+01 -1.245501518249511719e+00 -1.976527273654937744e-01 -4.329462945461273193e-01 -4.773183465003967285e-01
1.062000000000000000e+03 7.012574005126953125e+01 -1.924281311035156250e+01 1.648593544960021973e+00 1.459449672698974609e+01 4.872927188873291016e+00 -3.230395019054412842e-01
1.063000000000000000e+03 3.648261642456054688e+01 -1.098965930938720703e+01 8.804198503494262695e-01 1.034044742584228516e+01 3.366260051727294922e+00 -2.040029287338256836e+00
1.064000000000000000e+03 3.459116744995117188e+01 -1.034343338012695312e+01 9.758818149566650391e-01 1.006753540039062500e+01 3.313024997711181641e+00 -2.913051366806030273e+00
1.065000000000000000e+03 5.035114669799804688e+01 -6.712915897369384766e+00 5.280491337180137634e-02 8.416782021522521973e-01 2.683449387550354004e-01 2.750754356384277344e+00
1.066000000000000000e+03 1.830840110778808594e+01 -9.972410202026367188e+00 -9.105540513992309570e-01 2.739922523498535156e+00 5.488106012344360352e-01 1.913000941276550293e+00
1.067000000000000000e+03 1.646861648559570312e+01 -1.152056980133056641e+01 -7.540972232818603516e-01 5.386837005615234375e+00 1.389821887016296387e+00 2.472983598709106445e+00
1.068000000000000000e+03 4.301025772094726562e+01 -2.311510848999023438e+01 2.069653511047363281e+00 1.015810203552246094e+01 3.668326616287231445e+00 -1.679505109786987305e+00
1.069000000000000000e+03 6.220088577270507812e+01 -1.104430866241455078e+01 -1.775868177413940430e+00 2.007973045110702515e-01 -4.725212752819061279e-01 -5.823566764593124390e-02
1.070000000000000000e+03 5.961067581176757812e+01 -1.132951927185058594e+01 -1.879032373428344727e+00 6.668066382408142090e-01 -3.636676967144012451e-01 2.728018760681152344e-01
1.071000000000000000e+03 7.121147918701171875e+01 -1.992858123779296875e+01 1.942553758621215820e+00 1.160149478912353516e+01 4.063214302062988281e+00 -4.634957015514373779e-01
1.072000000000000000e+03 5.558225250244140625e+01 -1.345392799377441406e+01 -1.268633008003234863e+00 2.860319316387176514e-01 -2.947803139686584473e-01 4.865241646766662598e-01
1.073000000000000000e+03 5.680790328979492188e+01 -1.325961112976074219e+01 -1.612275958061218262e+00 2.612001597881317139e-01 -4.053227305412292480e-01 2.447840422391891479e-01
1.074000000000000000e+03 6.823228454589843750e+01 -2.754616928100585938e+01 -1.061161994934082031e+00 6.723683834075927734e+00 1.698756575584411621e+00 7.981796264648437500e-01
1.075000000000000000e+03 5.304561996459960938e+01 -1.359563732147216797e+01 -2.202171534299850464e-01 3.813863396644592285e-01 4.835075512528419495e-02 9.838961362838745117e-01
1.076000000000000000e+03 2.629794120788574219e+01 -3.113652992248535156e+01 -1.646803617477416992e+00 -1.856310293078422546e-02 -4.996100366115570068e-01 3.295073807239532471e-01
1.077000000000000000e+03 5.964945983886718750e+01 -3.191036033630371094e+01 -1.130599141120910645e+00 4.705044254660606384e-02 -3.250645995140075684e-01 -1.287008076906204224e-01
1.078000000000000000e+03 5.395417022705078125e+01 -3.253325653076171875e+01 -5.583063364028930664e-01 2.978432476520538330e-01 -7.813891768455505371e-02 -1.120510816574096680e+00
1.079000000000000000e+03 4.440343856811523438e+01 -1.985992240905761719e+01 1.426743745803833008e+00 1.071228122711181641e+01 3.641707658767700195e+00 5.526905655860900879e-01
1.080000000000000000e+03 4.407843017578125000e+01 -2.090107345581054688e+01 1.011605620384216309e+00 1.188775825500488281e+01 3.869809150695800781e+00 -7.246415615081787109e-01
1.081000000000000000e+03 6.508016204833984375e+01 -2.609123802185058594e+01 1.290538609027862549e-01 1.934391021728515625e+00 6.190334558486938477e-01 9.024292230606079102e-01
1.082000000000000000e+03 3.423249053955078125e+01 -2.733370590209960938e+01 2.394357323646545410e-01 4.963770389556884766e+00 1.560961842536926270e+00 1.759674072265625000e+00
1.083000000000000000e+03 6.609487152099609375e+01 -2.730766677856445312e+01 -5.953278541564941406e-01 3.952705860137939453e+00 1.007213473320007324e+00 1.051968932151794434e+00
1.084000000000000000e+03 4.364284515380859375e+01 -2.198056411743164062e+01 1.678752422332763672e+00 1.091253471374511719e+01 3.777386188507080078e+00 -1.799928069114685059e+00
1.085000000000000000e+03 2.441930198669433594e+01 -3.223596954345703125e+01 -1.073074221611022949e+00 2.180587034672498703e-03 -3.212680816650390625e-01 -9.374742209911346436e-02
1.086000000000000000e+03 2.075505638122558594e+01 -1.008511829376220703e+01 -1.527327656745910645e+00 6.324369311332702637e-01 -2.684672176837921143e-01 -2.016419358551502228e-02
1.087000000000000000e+03 3.529608917236328125e+01 -1.489132595062255859e+01 1.372755408287048340e+00 1.501002502441406250e+01 4.914834022521972656e+00 -3.278322458267211914e+00
1.088000000000000000e+03 3.840715408325195312e+01 -1.318905735015869141e+01 1.697782874107360840e+00 9.599609375000000000e+00 3.389217615127563477e+00 -1.968811869621276855e+00
1.089000000000000000e+03 3.376728057861328125e+01 -9.009493827819824219e+00 -2.197589576244354248e-01 8.366319656372070312e+00 2.443968296051025391e+00 -2.756425857543945312e+00
1.090000000000000000e+03 3.538675689697265625e+01 -1.163923072814941406e+01 1.823246598243713379e+00 1.119321918487548828e+01 3.904939651489257812e+00 -3.012969255447387695e+00
1.091000000000000000e+03 3.559694671630859375e+01 -1.774158096313476562e+01 4.313218891620635986e-01 1.339916801452636719e+01 4.149147033691406250e+00 -1.204330682754516602e+00
1.092000000000000000e+03 3.682149887084960938e+01 -1.620357704162597656e+01 1.534466505050659180e+00 1.215092086791992188e+01 4.105616092681884766e+00 -2.375744581222534180e+00
1.093000000000000000e+03 3.180403137207031250e+01 -7.425290584564208984e+00 -6.136850714683532715e-01 4.742024421691894531e+00 1.238501787185668945e+00 -2.224354743957519531e+00
1.094000000000000000e+03 5.858714294433593750e+01 2.195938873291015625e+01 -2.528860330581665039e+00 5.135180950164794922e-01 -6.046026945114135742e-01 -7.368570566177368164e-01
1.095000000000000000e+03 5.462945938110351562e+01 2.775189208984375000e+01 8.756397292017936707e-03 1.427221417427062988e+00 4.307933449745178223e-01 2.361420094966888428e-01
1.096000000000000000e+03 3.322269821166992188e+01 -2.832092475891113281e+01 5.952807515859603882e-02 3.488775730133056641e+00 1.064491152763366699e+00 1.498006224632263184e+00
1.097000000000000000e+03 1.810870552062988281e+01 -2.556933784484863281e+01 3.260790109634399414e-01 1.332458257675170898e+00 4.975611865520477295e-01 -7.528841495513916016e-01
1.098000000000000000e+03 1.716876602172851562e+01 -2.451792907714843750e+01 7.000936269760131836e-01 2.110931158065795898e+00 8.433074951171875000e-01 -1.241845130920410156e+00
1.099000000000000000e+03 3.793409729003906250e+01 -2.047062110900878906e+01 1.572853922843933105e+00 1.035777854919433594e+01 3.579189777374267578e+00 -8.310053348541259766e-01
1.100000000000000000e+03 3.682379150390625000e+01 -1.910037231445312500e+01 9.433007240295410156e-01 1.179158782958984375e+01 3.820466756820678711e+00 -9.291540980339050293e-01
1.101000000000000000e+03 1.521201610565185547e+01 -2.419502449035644531e+01 2.889429964125156403e-02 4.505165100097656250e+00 1.360217809677124023e+00 -1.189780354499816895e+00
1.102000000000000000e+03 7.711999511718750000e+01 -3.800486373901367188e+01 -1.516586393117904663e-01 9.577643394470214844e+00 2.827795505523681641e+00 9.976005554199218750e-02
1.103000000000000000e+03 7.924936676025390625e+01 -3.460291290283203125e+01 -4.260547459125518799e-02 1.043742370605468750e+01 3.118445396423339844e+00 -3.932831436395645142e-02
1.104000000000000000e+03 7.936284637451171875e+01 -2.771113586425781250e+01 -1.147090108133852482e-03 9.012619972229003906e+00 2.703441858291625977e+00 -2.761386632919311523e-01
1.105000000000000000e+03 7.791143035888671875e+01 3.231867599487304688e+01 -5.490515381097793579e-02 8.051874160766601562e+00 2.399090766906738281e+00 8.502945303916931152e-02
1.106000000000000000e+03 7.935392761230468750e+01 3.623512268066406250e+01 2.845259383320808411e-03 8.402139663696289062e+00 2.521495580673217773e+00 -2.463847864419221878e-03
1.107000000000000000e+03 7.942464447021484375e+01 -2.076558113098144531e+01 6.090957671403884888e-03 5.887569427490234375e+00 1.768098115921020508e+00 -1.858207285404205322e-01
1.108000000000000000e+03 7.809365844726562500e+01 -2.740672492980957031e+01 -9.169380366802215576e-02 8.805488586425781250e+00 2.614138364791870117e+00 -6.904747486114501953e-01
1.109000000000000000e+03 7.809869384765625000e+01 -2.599041175842285156e+01 -3.440019115805625916e-02 8.396879196166992188e+00 2.508743762969970703e+00 -7.917855381965637207e-01
1.110000000000000000e+03 7.934912872314453125e+01 -3.048473739624023438e+01 -9.207818657159805298e-03 9.883322715759277344e+00 2.962234497070312500e+00 -1.774428039789199829e-01
1.111000000000000000e+03 7.775403594970703125e+01 -3.411476898193359375e+01 -8.883136510848999023e-02 9.714882850646972656e+00 2.887815475463867188e+00 -1.851236075162887573e-01
1.112000000000000000e+03 7.786360931396484375e+01 -3.278763198852539062e+01 -1.120070591568946838e-01 9.649773597717285156e+00 2.861330032348632812e+00 -2.512588202953338623e-01
1.113000000000000000e+03 7.512626647949218750e+01 -3.818835449218750000e+01 -1.671475172042846680e-01 8.722442626953125000e+00 2.566588401794433594e+00 -2.519607543945312500e-01
1.114000000000000000e+03 7.641698455810546875e+01 -3.924026870727539062e+01 -5.548083409667015076e-02 9.576062202453613281e+00 2.856174468994140625e+00 -5.842962767928838730e-03
1.115000000000000000e+03 7.802060699462890625e+01 1.416366958618164062e+01 5.623071640729904175e-02 6.371620178222656250e+00 1.928355336189270020e+00 1.331721544265747070e-01
1.116000000000000000e+03 7.933714294433593750e+01 1.541552066802978516e+01 1.089392323046922684e-02 6.220057964324951172e+00 1.869285583496093750e+00 7.451021671295166016e-02
1.117000000000000000e+03 7.810673522949218750e+01 2.117621612548828125e+01 -2.646273002028465271e-03 7.087445735931396484e+00 2.125439882278442383e+00 3.154376745223999023e-01
1.118000000000000000e+03 7.935456085205078125e+01 2.238873291015625000e+01 -6.774371489882469177e-03 7.283200263977050781e+00 2.182927846908569336e+00 1.199242025613784790e-01
1.119000000000000000e+03 7.793782806396484375e+01 3.093945884704589844e+01 -3.123613633215427399e-02 7.972620010375976562e+00 2.382415294647216797e+00 1.199926957488059998e-01
1.120000000000000000e+03 7.789160919189453125e+01 2.817183303833007812e+01 -3.057601302862167358e-02 7.825889110565185547e+00 2.338593959808349609e+00 1.902520954608917236e-01
1.121000000000000000e+03 7.930377197265625000e+01 2.797141647338867188e+01 -1.596894301474094391e-02 8.056272506713867188e+00 2.412091255187988281e+00 7.815384119749069214e-02
1.122000000000000000e+03 7.794094848632812500e+01 2.533406066894531250e+01 -2.346466109156608582e-02 7.575766086578369141e+00 2.265690326690673828e+00 2.725883424282073975e-01
1.123000000000000000e+03 7.800061798095703125e+01 2.392759132385253906e+01 -2.527343295514583588e-02 7.430506706237792969e+00 2.221570014953613281e+00 2.926170527935028076e-01
1.124000000000000000e+03 7.804678344726562500e+01 1.840053367614746094e+01 2.348736859858036041e-02 6.737959861755371094e+00 2.028434276580810547e+00 2.851839065551757812e-01
1.125000000000000000e+03 7.801104736328125000e+01 1.557893276214599609e+01 4.642222821712493896e-02 6.465656280517578125e+00 1.953623652458190918e+00 1.950077116489410400e-01
1.126000000000000000e+03 7.801388549804687500e+01 1.699347496032714844e+01 4.092684388160705566e-02 6.589416503906250000e+00 1.989102959632873535e+00 2.504010200500488281e-01
1.127000000000000000e+03 7.803131866455078125e+01 1.274927425384521484e+01 5.542255938053131104e-02 6.313336849212646484e+00 1.910627841949462891e+00 6.333330273628234863e-02
1.128000000000000000e+03 7.675008392333984375e+01 1.143066406250000000e+01 1.323378384113311768e-01 6.494450092315673828e+00 1.988036394119262695e+00 -6.692988681606948376e-04
1.129000000000000000e+03 7.808695983886718750e+01 8.562561988830566406e+00 4.956328123807907104e-02 6.375640869140625000e+00 1.927561163902282715e+00 -1.361982971429824829e-01
1.130000000000000000e+03 7.935420989990234375e+01 9.824948310852050781e+00 1.112779323011636734e-02 6.068228721618652344e+00 1.823807001113891602e+00 -2.560475654900074005e-02
1.131000000000000000e+03 7.941242980957031250e+01 -1.939005851745605469e+01 6.149455159902572632e-02 5.527709484100341797e+00 1.676761269569396973e+00 -1.176132038235664368e-01
1.132000000000000000e+03 7.934648895263671875e+01 -6.867269992828369141e+00 -4.788418766111135483e-03 7.987107276916503906e+00 2.394695520401000977e+00 4.649434611201286316e-02
1.133000000000000000e+03 7.938743591308593750e+01 -1.385160636901855469e+01 2.201785892248153687e-02 6.161321640014648438e+00 1.855001807212829590e+00 2.034373730421066284e-01
1.134000000000000000e+03 7.808890533447265625e+01 2.856583297252655029e-01 -2.964162558782845736e-04 7.296946525573730469e+00 2.188995122909545898e+00 -3.110388815402984619e-01
1.135000000000000000e+03 7.936848449707031250e+01 1.485671877861022949e+00 1.090991869568824768e-02 7.168556213378906250e+00 2.153839826583862305e+00 -1.137460246682167053e-01
1.136000000000000000e+03 7.685836029052734375e+01 7.294145107269287109e+00 1.025813296437263489e-01 6.602069377899169922e+00 2.011395215988159180e+00 -2.741817235946655273e-01
1.137000000000000000e+03 7.790550231933593750e+01 2.956118202209472656e+01 -3.210925310850143433e-02 7.906468868255615234e+00 2.362307786941528320e+00 1.492268294095993042e-01
1.138000000000000000e+03 7.797920227050781250e+01 4.157063293457031250e+01 7.985140383243560791e-02 8.146242141723632812e+00 2.467828035354614258e+00 -2.241970971226692200e-02
1.139000000000000000e+03 7.676692199707031250e+01 3.849848175048828125e+01 -3.746435791254043579e-02 7.978494167327880859e+00 2.382308959960937500e+00 -2.025835961103439331e-02
1.140000000000000000e+03 7.806475830078125000e+01 9.949759483337402344e+00 5.127280578017234802e-02 6.316029071807861328e+00 1.910190582275390625e+00 -7.125648856163024902e-02
1.141000000000000000e+03 7.678252410888671875e+01 4.637908637523651123e-01 -3.220556303858757019e-02 7.207068920135498047e+00 2.152458906173706055e+00 -4.592687189579010010e-01
1.142000000000000000e+03 7.810777282714843750e+01 3.047564983367919922e+00 2.208585850894451141e-02 6.925868034362792969e+00 2.084386110305786133e+00 -3.041463792324066162e-01
1.143000000000000000e+03 7.808301544189453125e+01 -1.096243739128112793e+00 -4.146423935890197754e-02 7.476763248443603516e+00 2.230589628219604492e+00 -2.771542072296142578e-01
1.144000000000000000e+03 7.936243438720703125e+01 -2.682162284851074219e+00 -2.754228189587593079e-02 7.840646266937255859e+00 2.343931198120117188e+00 -7.389505952596664429e-02
1.145000000000000000e+03 7.803513336181640625e+01 -8.085492134094238281e+00 -1.185403242707252502e-01 7.806876182556152344e+00 2.306500911712646484e+00 2.442014813423156738e-01
1.146000000000000000e+03 7.805425262451171875e+01 -5.261199474334716797e+00 -8.815792202949523926e-02 7.846593856811523438e+00 2.327530860900878906e+00 -4.979165643453598022e-02
1.147000000000000000e+03 7.935377502441406250e+01 -9.661877632141113281e+00 -2.975010545924305916e-03 7.529565811157226562e+00 2.257977247238159180e+00 1.650500893592834473e-01
1.148000000000000000e+03 7.817298889160156250e+01 -1.508217716217041016e+01 1.107189431786537170e-01 6.631052017211914062e+00 2.022531270980834961e+00 4.178464412689208984e-01
1.149000000000000000e+03 7.814619445800781250e+01 -1.230133247375488281e+01 -2.600063011050224304e-02 7.194263935089111328e+00 2.150479078292846680e+00 5.561921596527099609e-01
1.150000000000000000e+03 7.940517425537109375e+01 -1.662496376037597656e+01 7.868837565183639526e-02 5.427928447723388672e+00 1.651985049247741699e+00 8.302421867847442627e-02
1.151000000000000000e+03 7.827288055419921875e+01 -2.051604270935058594e+01 2.152794301509857178e-01 6.673925876617431641e+00 2.066761493682861328e+00 -4.934872388839721680e-01
1.152000000000000000e+03 7.820960235595703125e+01 -1.916202163696289062e+01 1.165276020765304565e-01 6.494887828826904297e+00 1.983424663543701172e+00 -2.701856791973114014e-01
1.153000000000000000e+03 2.936328315734863281e+01 -3.311708831787109375e+01 -7.610944509506225586e-01 1.417717099189758301e+00 1.969868093729019165e-01 1.065098166465759277e+00
1.154000000000000000e+03 2.431443214416503906e+01 -8.951422691345214844e+00 -1.655391573905944824e+00 -9.545850008726119995e-02 -5.252550244331359863e-01 -8.844331502914428711e-01
1.155000000000000000e+03 2.197142982482910156e+01 -9.762971878051757812e+00 -1.591570615768432617e+00 3.704432845115661621e-01 -3.663381934165954590e-01 -4.511736333370208740e-01
1.156000000000000000e+03 2.531190681457519531e+01 -3.140665054321289062e+01 -1.395605206489562988e+00 -8.900722116231918335e-02 -4.453837275505065918e-01 8.831411600112915039e-02
1.157000000000000000e+03 3.662817001342773438e+01 -2.295132827758789062e+01 1.414580464363098145e+00 9.401387214660644531e+00 3.244790077209472656e+00 3.731073439121246338e-01
1.158000000000000000e+03 3.670376205444335938e+01 -2.180492782592773438e+01 1.406461596488952637e+00 1.012571620941162109e+01 3.459653139114379883e+00 3.147289752960205078e-01
1.159000000000000000e+03 1.605653762817382812e+01 -2.537451744079589844e+01 -1.316744089126586914e-01 3.227383136749267578e+00 9.287126660346984863e-01 -9.154509305953979492e-01
1.160000000000000000e+03 1.242256546020507812e+01 -1.632534980773925781e+01 2.026817083358764648e+00 7.460232257843017578e+00 2.846114873886108398e+00 1.250876307487487793e+00
1.161000000000000000e+03 5.203655242919921875e+01 -5.734056472778320312e+00 1.696409106254577637e+00 2.102505445480346680e+00 1.139674305915832520e+00 2.226378679275512695e+00
1.162000000000000000e+03 5.441743087768554688e+01 -6.525800228118896484e+00 1.077534556388854980e+00 2.070038080215454102e+00 9.442718029022216797e-01 1.915337324142456055e+00
1.163000000000000000e+03 6.211551666259765625e+01 2.229528999328613281e+01 -1.687609434127807617e+00 6.466193199157714844e+00 1.433575153350830078e+00 -1.164993286132812500e+00
1.164000000000000000e+03 6.466149902343750000e+01 1.858716201782226562e+01 6.671615839004516602e-01 8.147294044494628906e+00 2.644336700439453125e+00 1.953321248292922974e-01
1.165000000000000000e+03 6.250250625610351562e+01 1.778184700012207031e+01 9.143136143684387207e-01 1.055070972442626953e+01 3.439507007598876953e+00 -1.501065254211425781e+00
1.166000000000000000e+03 3.938384628295898438e+01 -1.922603845596313477e+00 2.326728701591491699e-01 9.000266075134277344e+00 2.769881725311279297e+00 -1.628818750381469727e+00
1.167000000000000000e+03 5.390967941284179688e+01 2.315550613403320312e+01 -1.287033796310424805e+00 2.691121697425842285e-01 -3.053764700889587402e-01 4.289603829383850098e-01
1.168000000000000000e+03 4.109794235229492188e+01 -2.480188369750976562e+00 4.325463175773620605e-01 5.234011650085449219e+00 1.699967384338378906e+00 -2.494181871414184570e+00
1.169000000000000000e+03 5.679118728637695312e+01 2.519441223144531250e+01 -4.992108047008514404e-01 1.051627993583679199e+00 1.657251715660095215e-01 -4.427429139614105225e-01
1.170000000000000000e+03 4.016146087646484375e+01 1.009595203399658203e+01 2.506561279296875000e+00 1.271214294433593750e+01 4.565611362457275391e+00 5.134152412414550781e+00
1.171000000000000000e+03 4.786885452270507812e+01 -6.107909679412841797e+00 -1.416256785392761230e+00 -4.133518338203430176e-01 -5.488826036453247070e-01 1.386384248733520508e+00
1.172000000000000000e+03 6.044583511352539062e+01 5.451125621795654297e+00 1.892880916595458984e+00 7.117630481719970703e+00 2.703153371810913086e+00 3.189036607742309570e+00
1.173000000000000000e+03 5.970977783203125000e+01 4.234890460968017578e+00 1.864358782768249512e+00 5.101161479949951172e+00 2.089656114578247070e+00 2.930299282073974609e+00
1.174000000000000000e+03 6.209806442260742188e+01 1.087027645111083984e+01 3.389621973037719727e-01 1.084990501403808594e+01 3.356660127639770508e+00 1.350939154624938965e+00
1.175000000000000000e+03 5.757706451416015625e+01 -9.918876886367797852e-01 2.014192581176757812e+00 3.140752077102661133e+00 1.546483397483825684e+00 2.127994298934936523e+00
1.176000000000000000e+03 3.891156005859375000e+01 3.382773399353027344e+00 7.268759012222290039e-01 1.426172733306884766e+01 4.496581077575683594e+00 -3.897544443607330322e-01
1.177000000000000000e+03 3.824582672119140625e+01 2.388693839311599731e-01 1.470771670341491699e+00 1.131022930145263672e+01 3.834300279617309570e+00 -1.242206335067749023e+00
1.178000000000000000e+03 3.739106750488281250e+01 1.067549943923950195e+00 1.980530261993408203e+00 1.127830791473388672e+01 3.977651596069335938e+00 -5.908159017562866211e-01
1.179000000000000000e+03 3.769647979736328125e+01 5.346344947814941406e+00 1.122318148612976074e+00 1.452791976928710938e+01 4.695071220397949219e+00 1.527105331420898438e+00
1.180000000000000000e+03 4.418569946289062500e+01 -5.558968544006347656e+00 -1.376127719879150391e+00 1.223561406135559082e+00 -4.576989635825157166e-02 -3.602857589721679688e-01
1.181000000000000000e+03 5.922380447387695312e+01 1.335151433944702148e+00 1.469999313354492188e+00 4.094076156616210938e+00 1.669222712516784668e+00 2.264329195022583008e+00
1.182000000000000000e+03 6.318516921997070312e+01 1.056990146636962891e+01 8.283607959747314453e-01 9.820418357849121094e+00 3.194633722305297852e+00 1.115719795227050781e+00
1.183000000000000000e+03 4.543460083007812500e+01 -4.408796310424804688e+00 -3.791119098663330078e+00 -5.238042771816253662e-02 -1.153049826622009277e+00 1.065152287483215332e+00
1.184000000000000000e+03 4.663303375244140625e+01 -5.822125434875488281e+00 -1.998963952064514160e+00 2.199483104050159454e-02 -5.930907726287841797e-01 9.526724815368652344e-01
1.185000000000000000e+03 3.784249877929687500e+01 1.328303718566894531e+01 8.272221088409423828e-01 9.445122718811035156e+00 3.081703424453735352e+00 7.553071975708007812e-01
1.186000000000000000e+03 6.145056533813476562e+01 5.017655849456787109e+00 1.355768561363220215e+00 6.897774696350097656e+00 2.476063013076782227e+00 1.947004437446594238e+00
1.187000000000000000e+03 6.203451538085937500e+01 6.373549938201904297e+00 1.298969030380249023e+00 7.788630485534667969e+00 2.726279973983764648e+00 2.031646490097045898e+00
1.188000000000000000e+03 4.341272735595703125e+01 1.818921661376953125e+01 4.921327829360961914e-01 4.097221851348876953e+00 1.376806378364562988e+00 1.967563748359680176e+00
1.189000000000000000e+03 4.299165725708007812e+01 1.606091499328613281e+01 1.378007769584655762e+00 4.405622005462646484e+00 1.735088944435119629e+00 2.469602108001708984e+00
1.190000000000000000e+03 5.585158920288085938e+01 -3.308212518692016602e+00 2.137001991271972656e+00 2.657172441482543945e+00 1.438252329826354980e+00 2.171249628067016602e+00
1.191000000000000000e+03 4.583910369873046875e+01 1.672734451293945312e+01 1.633631348609924316e+00 1.948121666908264160e+00 1.074525952339172363e+00 1.745967984199523926e+00
1.192000000000000000e+03 5.238885116577148438e+01 2.248493003845214844e+01 -1.472998380661010742e+00 4.552666544914245605e-01 -3.053194880485534668e-01 5.778796076774597168e-01
1.193000000000000000e+03 3.928766250610351562e+01 1.354201889038085938e+01 1.045429825782775879e+00 8.638336181640625000e+00 2.905129909515380859e+00 1.852368831634521484e+00
1.194000000000000000e+03 3.937662887573242188e+01 1.191756439208984375e+01 1.662641286849975586e+00 1.021756362915039062e+01 3.564061641693115234e+00 2.616030931472778320e+00
1.195000000000000000e+03 4.860665512084960938e+01 2.021818161010742188e+01 -3.515236079692840576e-01 1.300287723541259766e+00 2.846292257308959961e-01 9.042555689811706543e-01
1.196000000000000000e+03 4.548991394042968750e+01 -6.898900032043457031e+00 -6.002430319786071777e-01 9.983385205268859863e-01 1.194286495447158813e-01 2.960252165794372559e-01
1.197000000000000000e+03 6.250712203979492188e+01 7.761112689971923828e+00 9.720159769058227539e-01 8.892460823059082031e+00 2.959343194961547852e+00 1.714889287948608398e+00
1.198000000000000000e+03 6.400137329101562500e+01 1.604990005493164062e+01 8.954582810401916504e-01 9.382944107055664062e+00 3.083520650863647461e+00 -4.579261839389801025e-01
1.199000000000000000e+03 6.001225662231445312e+01 2.509259223937988281e+00 1.306038260459899902e+00 4.832653045654296875e+00 1.841607332229614258e+00 2.228107452392578125e+00
1.200000000000000000e+03 5.671953582763671875e+01 -2.149144172668457031e+00 2.099510908126831055e+00 2.966238260269165039e+00 1.519724726676940918e+00 2.124063730239868164e+00
1.201000000000000000e+03 4.067545700073242188e+01 1.416548633575439453e+01 1.348705172538757324e+00 7.492599010467529297e+00 2.652391195297241211e+00 2.537660598754882812e+00
1.202000000000000000e+03 5.841294479370117188e+01 1.725986748933792114e-01 1.777108073234558105e+00 3.485938310623168945e+00 1.578913927078247070e+00 2.232943773269653320e+00
1.203000000000000000e+03 6.361497497558593750e+01 1.334509372711181641e+01 6.147514581680297852e-01 9.988086700439453125e+00 3.180851459503173828e+00 3.394553959369659424e-01
1.204000000000000000e+03 3.737551116943359375e+01 4.079864978790283203e+00 1.505726218223571777e+00 1.355012035369873047e+01 4.516754150390625000e+00 9.969990253448486328e-01
1.205000000000000000e+03 6.036794662475585938e+01 7.367684245109558105e-01 1.324523568153381348e+00 4.372390270233154297e+00 1.709074139595031738e+00 1.774567484855651855e+00
1.206000000000000000e+03 1.273589849472045898e+00 -4.011582946777343750e+01 -3.459291532635688782e-02 3.010651350021362305e+00 8.928175568580627441e-01 9.736902080476284027e-03
1.207000000000000000e+03 7.778759598731994629e-01 3.738077926635742188e+01 -1.448297407478094101e-02 2.783183336257934570e+00 8.306101560592651367e-01 -2.662869170308113098e-02
1.208000000000000000e+03 7.199041843414306641e-01 3.463273620605468750e+01 -7.601689547300338745e-03 2.620845794677734375e+00 7.839732170104980469e-01 -5.690944567322731018e-02
1.209000000000000000e+03 7.071068882942199707e-01 3.324385833740234375e+01 -1.695434749126434326e-02 2.489471673965454102e+00 7.417551875114440918e-01 -7.987643033266067505e-02
1.210000000000000000e+03 6.466619372367858887e-01 2.765016365051269531e+01 -1.937489584088325500e-02 1.392663836479187012e+00 4.119866788387298584e-01 -1.881910711526870728e-01
1.211000000000000000e+03 6.531089544296264648e-01 2.623865127563476562e+01 -1.685243658721446991e-02 9.381943345069885254e-01 2.764025628566741943e-01 -2.284705340862274170e-01
1.212000000000000000e+03 7.937690615653991699e-01 -3.607341766357421875e+01 -2.544930391013622284e-02 2.796266794204711914e+00 8.312452435493469238e-01 8.252283930778503418e-02
1.213000000000000000e+03 2.767689943313598633e+00 -3.320364379882812500e+01 -1.281495541334152222e-01 2.393874883651733398e+00 6.797176003456115723e-01 4.527229964733123779e-01
1.214000000000000000e+03 3.209664344787597656e+00 2.628959083557128906e+01 -1.815060228109359741e-01 1.625339984893798828e+00 4.331502020359039307e-01 -8.815783858299255371e-01
1.215000000000000000e+03 3.252473115921020508e+00 2.483995819091796875e+01 -1.120671555399894714e-01 1.379942536354064941e+00 3.803626298904418945e-01 -9.963111877441406250e-01
1.216000000000000000e+03 2.193792343139648438e+00 3.446086883544921875e+01 -5.234293267130851746e-02 2.547889709472656250e+00 7.486640214920043945e-01 -1.856380701065063477e-01
1.217000000000000000e+03 2.154892444610595703e+00 3.310600280761718750e+01 -5.573568493127822876e-02 2.425458669662475586e+00 7.109168767929077148e-01 -2.340440452098846436e-01
1.218000000000000000e+03 2.555435895919799805e+00 3.807215881347656250e+01 -5.162552744150161743e-02 2.716522216796875000e+00 7.994689941406250000e-01 -7.721234858036041260e-02
1.219000000000000000e+03 3.483590126037597656e+00 3.907615280151367188e+01 -5.288339778780937195e-02 2.736342191696166992e+00 8.050376772880554199e-01 -9.086663275957107544e-02
1.220000000000000000e+03 2.125713586807250977e+00 -2.883012008666992188e+01 -4.305598139762878418e-02 1.547410011291503906e+00 4.513062238693237305e-01 6.228019595146179199e-01
1.221000000000000000e+03 1.971229672431945801e+00 -2.603596115112304688e+01 -3.781901672482490540e-03 7.700572013854980469e-01 2.298825979232788086e-01 6.864337921142578125e-01
1.222000000000000000e+03 1.608927130699157715e+00 -9.183398246765136719e+00 2.339776791632175446e-02 -1.250417470932006836e+00 -3.681059181690216064e-01 -3.103795647621154785e-01
1.223000000000000000e+03 2.298199653625488281e+00 -3.716727447509765625e+01 -5.354348942637443542e-02 2.813096046447753906e+00 8.278657793998718262e-01 1.546289622783660889e-01
1.224000000000000000e+03 1.789195299148559570e+00 -1.617644882202148438e+01 9.510146081447601318e-02 -1.515158295631408691e+00 -4.260170459747314453e-01 1.059706956148147583e-01
1.225000000000000000e+03 6.308187842369079590e-01 2.051619911193847656e+01 -4.346445668488740921e-03 -1.335570812225341797e+00 -4.019751846790313721e-01 -2.662196457386016846e-01
1.226000000000000000e+03 6.005589962005615234e-01 1.910441970825195312e+01 4.219093918800354004e-02 -1.906440496444702148e+00 -5.592748522758483887e-01 -2.275245040655136108e-01
1.227000000000000000e+03 5.563119053840637207e-01 1.491172218322753906e+01 2.618882339447736740e-03 -3.027424812316894531e+00 -9.074417948722839355e-01 -7.435080409049987793e-02
1.228000000000000000e+03 5.530939102172851562e-01 1.351129627227783203e+01 3.843626379966735840e-02 -3.135047912597656250e+00 -9.289835095405578613e-01 -2.249204553663730621e-02
1.229000000000000000e+03 5.568997859954833984e-01 7.894794464111328125e+00 1.494455616921186447e-02 -2.225149631500244141e+00 -6.630614995956420898e-01 1.579171419143676758e-01
1.230000000000000000e+03 5.231425166130065918e-01 6.495655536651611328e+00 6.750125903636217117e-03 -1.757186889648437500e+00 -5.251310467720031738e-01 1.837843358516693115e-01
1.231000000000000000e+03 3.278660058975219727e+00 -3.926525115966796875e+01 -9.323079884052276611e-02 2.881264209747314453e+00 8.364099860191345215e-01 1.524530202150344849e-01
1.232000000000000000e+03 5.501668453216552734e+00 -3.426858139038085938e+01 -3.378278017044067383e-01 2.582762241363525391e+00 6.734803318977355957e-01 5.630615353584289551e-01
1.233000000000000000e+03 2.692898511886596680e+00 -3.473832321166992188e+01 -1.014967858791351318e-01 2.555902242660522461e+00 7.363216280937194824e-01 3.376804590225219727e-01
1.234000000000000000e+03 2.513175487518310547e+00 -3.168169784545898438e+01 -8.816561847925186157e-02 2.155365467071533203e+00 6.201599240303039551e-01 5.227540731430053711e-01
1.235000000000000000e+03 2.024451494216918945e+00 -2.743484115600585938e+01 -5.529608204960823059e-02 1.177466154098510742e+00 3.366510272026062012e-01 6.594558358192443848e-01
1.236000000000000000e+03 3.339588165283203125e+00 -2.727555847167968750e+01 -8.751612156629562378e-02 1.532664418220520020e+00 4.335444867610931396e-01 9.635430574417114258e-01
1.237000000000000000e+03 1.910384178161621094e+00 -2.181272315979003906e+01 4.269738867878913879e-02 -4.470466077327728271e-01 -1.213047653436660767e-01 6.009432077407836914e-01
1.238000000000000000e+03 1.948495626449584961e+00 -2.463222694396972656e+01 -7.859124802052974701e-03 3.612207472324371338e-01 1.060084924101829529e-01 6.839806437492370605e-01
1.239000000000000000e+03 3.135972023010253906e+00 -2.026723670959472656e+01 1.892201155424118042e-01 7.234727498143911362e-03 5.893645435571670532e-02 7.536235451698303223e-01
1.240000000000000000e+03 6.154279708862304688e-01 -1.911287689208984375e+01 2.128818072378635406e-02 -2.101646900177001953e+00 -6.241075992584228516e-01 1.508031636476516724e-01
1.241000000000000000e+03 1.840926408767700195e+00 -1.899372291564941406e+01 1.042924299836158752e-01 -1.132679343223571777e+00 -3.085160553455352783e-01 3.899092078208923340e-01
1.242000000000000000e+03 1.675146102905273438e+00 -1.196829414367675781e+01 5.749048665165901184e-02 -1.532417297363281250e+00 -4.424780607223510742e-01 -2.085133939981460571e-01
1.243000000000000000e+03 5.598357915878295898e-01 -1.205758762359619141e+01 1.544401980936527252e-02 -2.366465568542480469e+00 -7.053064703941345215e-01 -7.011040300130844116e-02
1.244000000000000000e+03 2.682800531387329102e+00 -7.817321300506591797e+00 4.555625841021537781e-02 -6.018874645233154297e-01 -1.668993681669235229e-01 -4.675896465778350830e-01
1.245000000000000000e+03 1.688404440879821777e+00 -5.097025871276855469e+00 -5.669006146490573883e-03 -5.964567065238952637e-01 -1.806377023458480835e-01 -3.687759637832641602e-01
1.246000000000000000e+03 2.047490119934082031e+00 -3.970858573913574219e+00 -5.086990445852279663e-02 -3.725794851779937744e-01 -1.270348131656646729e-01 -3.978700339794158936e-01
1.247000000000000000e+03 5.247737169265747070e-01 5.077164649963378906e+00 1.172858383506536484e-02 -1.186964273452758789e+00 -3.525706827640533447e-01 2.074470221996307373e-01
1.248000000000000000e+03 1.851634621620178223e+00 4.446592807769775391e+00 -6.838478147983551025e-02 -7.479453682899475098e-01 -2.448990494012832642e-01 5.590817332267761230e-01
1.249000000000000000e+03 1.709370732307434082e+00 1.077939224243164062e+01 7.629086822271347046e-02 -1.933453083038330078e+00 -5.571486949920654297e-01 2.408850938081741333e-01
1.250000000000000000e+03 5.672253966331481934e-01 1.071206855773925781e+01 3.635188564658164978e-02 -2.917220115661621094e+00 -8.642604947090148926e-01 8.825036138296127319e-02
1.251000000000000000e+03 1.652144193649291992e+00 1.350837516784667969e+01 9.258543699979782104e-02 -2.063728094100952148e+00 -5.913428068161010742e-01 -6.313469260931015015e-02
1.252000000000000000e+03 1.800634503364562988e+00 1.895737266540527344e+01 4.391446337103843689e-02 -9.859328866004943848e-01 -2.826055288314819336e-01 -6.106041669845581055e-01
1.253000000000000000e+03 1.983038425445556641e+00 2.479866218566894531e+01 -5.928521603345870972e-02 8.722162246704101562e-01 2.438793033361434937e-01 -7.066820859909057617e-01
1.254000000000000000e+03 3.402490997314453125e+01 1.248773384094238281e+01 6.783341765403747559e-01 8.882589340209960938e+00 2.868277072906494141e+00 -1.595321774482727051e+00
1.255000000000000000e+03 3.071013069152832031e+01 -1.389479279518127441e+00 4.496780395507812500e+00 3.699011325836181641e+00 2.458737611770629883e+00 1.114331603050231934e+00
1.256000000000000000e+03 3.220018386840820312e+01 -2.142068594694137573e-01 5.447878360748291016e+00 6.280687808990478516e+00 3.518569946289062500e+00 3.009519100189208984e+00
1.257000000000000000e+03 1.718883323669433594e+01 -1.119288086891174316e+00 5.085342884063720703e+00 1.388805961608886719e+01 5.692020416259765625e+00 -2.858202695846557617e+00
1.258000000000000000e+03 1.455963993072509766e+01 2.892166137695312500e+00 7.455931305885314941e-01 6.113163948059082031e+00 2.057627201080322266e+00 -5.026068687438964844e+00
1.259000000000000000e+03 1.597199726104736328e+01 2.301456928253173828e+00 3.549167513847351074e-01 1.203850364685058594e+01 3.718025922775268555e+00 -4.887347698211669922e+00
1.260000000000000000e+03 1.467251396179199219e+01 2.094065904617309570e+00 2.208597660064697266e+00 5.425618171691894531e+00 2.290264844894409180e+00 -5.612377643585205078e+00
1.261000000000000000e+03 1.487245464324951172e+01 1.744096755981445312e+00 2.929306507110595703e+00 5.627903938293457031e+00 2.567163228988647461e+00 -5.957839488983154297e+00
1.262000000000000000e+03 1.401844215393066406e+01 -2.328840732574462891e+00 1.957600235939025879e+00 3.207410573959350586e+00 1.549503207206726074e+00 3.467968940734863281e+00
1.263000000000000000e+03 1.580056190490722656e+01 -1.557886481285095215e+00 1.965998291969299316e+00 1.188874053955078125e+01 4.156421661376953125e+00 4.687716007232666016e+00
1.264000000000000000e+03 1.559997940063476562e+01 -1.594018220901489258e+00 2.210134267807006836e+00 1.027046108245849609e+01 3.744178533554077148e+00 4.936839103698730469e+00
1.265000000000000000e+03 1.596272754669189453e+01 -1.774024486541748047e+00 1.372438549995422363e+00 1.213642597198486328e+01 4.052659511566162109e+00 3.708970546722412109e+00
1.266000000000000000e+03 1.516156101226806641e+01 -1.595793485641479492e+00 2.808056592941284180e+00 6.814141750335693359e+00 2.886659622192382812e+00 5.081182956695556641e+00
1.267000000000000000e+03 1.598849296569824219e+01 -1.529700756072998047e+00 1.710798621177673340e+00 1.337945747375488281e+01 4.527076721191406250e+00 3.983103752136230469e+00
1.268000000000000000e+03 1.570081424713134766e+01 2.303460836410522461e+00 5.508459806442260742e-01 1.091534519195556641e+01 3.439857244491577148e+00 -5.512086391448974609e+00
1.269000000000000000e+03 1.637774085998535156e+01 -1.483994841575622559e+00 1.648801684379577637e+00 1.502691173553466797e+01 5.002714157104492188e+00 1.577730059623718262e+00
1.270000000000000000e+03 1.774033737182617188e+01 1.093278288841247559e+00 7.085481166839599609e+00 1.051075363159179688e+01 5.278870582580566406e+00 1.060638427734375000e+00
1.271000000000000000e+03 1.694014549255371094e+01 -2.028329849243164062e+00 1.554887056350708008e+00 1.221988868713378906e+01 4.132432460784912109e+00 -7.689669728279113770e-02
1.272000000000000000e+03 1.695708656311035156e+01 -1.705456018447875977e+00 2.278000116348266602e+00 1.324456119537353516e+01 4.656768321990966797e+00 -7.276039719581604004e-01
1.273000000000000000e+03 1.786014747619628906e+01 8.803598880767822266e-01 8.016329765319824219e+00 9.734920501708984375e+00 5.325375080108642578e+00 8.466982245445251465e-01
1.274000000000000000e+03 1.928557777404785156e+01 5.339373111724853516e+00 -1.954050660133361816e+00 3.064815998077392578e+00 3.332296013832092285e-01 -1.222302392125129700e-01
1.275000000000000000e+03 1.625684165954589844e+01 2.275171279907226562e+00 2.195817977190017700e-01 1.306461334228515625e+01 3.985258579254150391e+00 -3.923957824707031250e+00
1.276000000000000000e+03 1.343351173400878906e+01 1.779610037803649902e+00 1.307517170906066895e+00 1.471465229988098145e+00 8.336946964263916016e-01 -2.683015346527099609e+00
1.277000000000000000e+03 1.165387153625488281e+01 2.333143949508666992e+00 -3.494499623775482178e-02 9.423696398735046387e-01 2.722273766994476318e-01 -1.238829016685485840e+00
1.278000000000000000e+03 1.316686534881591797e+01 2.434056282043457031e+00 1.033129692077636719e+00 2.260189056396484375e+00 9.879956245422363281e-01 -2.998450517654418945e+00
1.279000000000000000e+03 1.019614696502685547e+01 3.743555068969726562e+00 3.556296462193131447e-03 1.390091538429260254e+00 4.180943369865417480e-01 -6.504483819007873535e-01
1.280000000000000000e+03 1.021590518951416016e+01 3.075112104415893555e+00 -2.235129624605178833e-01 9.849168062210083008e-01 2.284211516380310059e-01 -5.223604440689086914e-01
1.281000000000000000e+03 1.265589427947998047e+01 2.434539556503295898e+00 6.775072813034057617e-01 1.623321652412414551e+00 6.902486681938171387e-01 -2.255492687225341797e+00
1.282000000000000000e+03 1.210198402404785156e+01 2.879339218139648438e+00 3.743555843830108643e-01 1.747037529945373535e+00 6.364179253578186035e-01 -1.961295962333679199e+00
1.283000000000000000e+03 1.130461692810058594e+01 -2.835961341857910156e+00 4.999765455722808838e-01 9.032820463180541992e-01 4.209775626659393311e-01 1.119236946105957031e+00
1.284000000000000000e+03 8.947649002075195312e+00 -2.563629150390625000e+00 -2.989064455032348633e-01 3.209309875965118408e-01 6.607360206544399261e-03 4.985098913311958313e-02
1.285000000000000000e+03 9.838536262512207031e+00 -3.128202915191650391e+00 8.309657871723175049e-02 6.761846542358398438e-01 2.277843654155731201e-01 4.792574644088745117e-01
1.286000000000000000e+03 1.197486782073974609e+01 -2.693401336669921875e+00 7.756715416908264160e-01 1.107339620590209961e+00 5.649033784866333008e-01 1.505240440368652344e+00
1.287000000000000000e+03 1.253569221496582031e+01 -2.101870536804199219e+00 9.729261398315429688e-01 9.416702389717102051e-01 5.743789076805114746e-01 1.581624627113342285e+00
1.288000000000000000e+03 1.074190139770507812e+01 -3.572106361389160156e+00 4.065037667751312256e-01 1.133526444435119629e+00 4.620090723037719727e-01 1.038091778755187988e+00
1.289000000000000000e+03 1.600378036499023438e+00 -6.458075046539306641e+00 1.578159257769584656e-02 -8.425145745277404785e-01 -2.480198889970779419e-01 -3.578677475452423096e-01
1.290000000000000000e+03 3.378868103027343750e+00 -2.650809526443481445e+00 -2.207589745521545410e-01 -1.062387749552726746e-01 -9.809932857751846313e-02 -4.372578859329223633e-01
1.291000000000000000e+03 7.407887935638427734e+00 -3.482150554656982422e+00 -1.662577241659164429e-01 3.635700345039367676e-01 5.919368937611579895e-02 -2.259105443954467773e-01
1.292000000000000000e+03 9.053584098815917969e+00 -3.282103538513183594e+00 -3.469309955835342407e-02 5.640156269073486328e-01 1.587967574596405029e-01 2.044730633497238159e-01
1.293000000000000000e+03 6.566551685333251953e+00 -3.540153741836547852e+00 -1.862938106060028076e-01 2.383260428905487061e-01 1.560966577380895615e-02 -3.726126849651336670e-01
1.294000000000000000e+03 4.929253578186035156e+00 -2.745413780212402344e+00 -3.162063062191009521e-01 3.563516074791550636e-03 -9.379283338785171509e-02 -4.820008873939514160e-01
1.295000000000000000e+03 5.717947483062744141e+00 -3.580765247344970703e+00 -1.926082223653793335e-01 1.286557763814926147e-01 -1.918573305010795593e-02 -4.713822007179260254e-01
1.296000000000000000e+03 4.869679450988769531e+00 -3.593340635299682617e+00 -1.833413243293762207e-01 2.033920772373676300e-02 -4.890063405036926270e-02 -5.226182341575622559e-01
1.297000000000000000e+03 4.811041831970214844e+00 -5.467499256134033203e+00 1.205223985016345978e-02 9.951630979776382446e-02 3.347056359052658081e-02 -5.231660008430480957e-01
1.298000000000000000e+03 7.894946098327636719e+00 2.569793939590454102e+00 -8.110140562057495117e-01 2.946896851062774658e-01 -1.548973023891448975e-01 4.558766782283782959e-01
1.299000000000000000e+03 3.876094341278076172e+00 2.791658878326416016e+00 -3.787093162536621094e-01 -1.646534502506256104e-01 -1.630088388919830322e-01 7.595956921577453613e-01
1.300000000000000000e+03 4.669044494628906250e+00 2.721304178237915039e+00 -5.143999457359313965e-01 -4.631839692592620850e-02 -1.682154983282089233e-01 7.706467509269714355e-01
1.301000000000000000e+03 6.271571159362792969e+00 2.647550344467163086e+00 -7.020364999771118164e-01 1.163542270660400391e-01 -1.757046729326248169e-01 7.109044194221496582e-01
1.302000000000000000e+03 5.515493869781494141e+00 3.483405828475952148e+00 -3.631185889244079590e-01 7.318644225597381592e-02 -8.697964251041412354e-02 8.165911436080932617e-01
1.303000000000000000e+03 3.289628267288208008e+00 3.793703794479370117e+00 -1.514868736267089844e-01 -3.675788342952728271e-01 -1.557197123765945435e-01 7.990086674690246582e-01
1.304000000000000000e+03 6.302468299865722656e+00 3.428538560867309570e+00 -3.937937319278717041e-01 1.886344254016876221e-01 -6.154778972268104553e-02 7.536717057228088379e-01
1.305000000000000000e+03 8.701188087463378906e+00 2.523134708404541016e+00 -7.941752672195434570e-01 3.689949810504913330e-01 -1.275540739297866821e-01 2.620135247707366943e-01
1.306000000000000000e+03 7.100668430328369141e+00 3.367253065109252930e+00 -4.345975816249847412e-01 3.393824100494384766e-01 -2.856455184519290924e-02 6.149755716323852539e-01
1.307000000000000000e+03 8.689254760742187500e+00 3.225286722183227539e+00 -4.133284687995910645e-01 6.274853944778442383e-01 6.424707174301147461e-02 1.822647154331207275e-01
1.308000000000000000e+03 5.913781738281250000e+01 -1.271928215026855469e+01 -2.206484556198120117e+00 3.845423758029937744e-01 -5.465826988220214844e-01 -1.826301515102386475e-01
1.309000000000000000e+03 5.551166915893554688e+01 -8.172999382019042969e+00 3.318642377853393555e-01 1.613482356071472168e+00 5.836039781570434570e-01 1.602130293846130371e+00
1.310000000000000000e+03 2.174138641357421875e+01 -8.602300643920898438e+00 -6.934939622879028320e-01 8.631360530853271484e-01 5.089263990521430969e-02 -1.918948739767074585e-01
1.311000000000000000e+03 2.543083190917968750e+01 -8.501141548156738281e+00 -1.721074700355529785e+00 -4.046622514724731445e-01 -6.377210617065429688e-01 -7.810955047607421875e-01
1.312000000000000000e+03 5.171020507812500000e+01 -1.347945022583007812e+01 4.554653465747833252e-01 4.459660649299621582e-01 2.704294323921203613e-01 1.271731257438659668e+00
1.313000000000000000e+03 5.432873535156250000e+01 -1.357337284088134766e+01 -8.292235732078552246e-01 2.399829924106597900e-01 -1.767721772193908691e-01 6.984686255455017090e-01
1.314000000000000000e+03 6.042199325561523438e+01 -1.074219989776611328e+01 -1.367026686668395996e+00 6.203925013542175293e-01 -2.239902615547180176e-01 2.868703603744506836e-01
1.315000000000000000e+03 3.729795455932617188e+01 1.603766822814941406e+01 3.043440282344818115e-01 7.568475246429443359e+00 2.361845731735229492e+00 2.717322111129760742e-01
1.316000000000000000e+03 2.405098915100097656e+01 -7.839094638824462891e+00 -4.944102466106414795e-01 2.642772160470485687e-02 -1.403947621583938599e-01 -4.822600483894348145e-01
1.317000000000000000e+03 1.386923885345458984e+01 1.233351039886474609e+01 2.004603385925292969e+00 1.019009876251220703e+01 3.658410787582397461e+00 -2.511721849441528320e+00
1.318000000000000000e+03 1.289730930328369141e+01 1.677085113525390625e+01 1.314893364906311035e+00 9.911511421203613281e+00 3.367921590805053711e+00 -3.163372278213500977e-01
1.319000000000000000e+03 2.066442871093750000e+01 -9.001973152160644531e+00 -7.837083339691162109e-01 1.390868663787841797e+00 1.821480840444564819e-01 3.624980747699737549e-01
1.320000000000000000e+03 1.963020896911621094e+01 -9.129537582397460938e+00 -8.738966584205627441e-01 2.219215869903564453e+00 4.035957157611846924e-01 9.966586232185363770e-01
1.321000000000000000e+03 6.124831008911132812e+01 -1.007854461669921875e+01 -1.167159438133239746e+00 6.672655344009399414e-01 -1.499681621789932251e-01 -4.172018915414810181e-02
1.322000000000000000e+03 2.116959381103515625e+01 2.703725099563598633e+00 1.532401561737060547e+00 4.726225435733795166e-01 6.015072464942932129e-01 5.281536579132080078e-01
1.323000000000000000e+03 5.882614135742187500e+01 -1.064859390258789062e+01 -1.054013848304748535e+00 8.131510019302368164e-01 -7.225887477397918701e-02 6.276838779449462891e-01
1.324000000000000000e+03 2.289118576049804688e+01 -8.182721138000488281e+00 -5.770905017852783203e-01 5.326009392738342285e-01 -1.334687136113643646e-02 -4.080033898353576660e-01
1.325000000000000000e+03 5.007173538208007812e+01 2.309002304077148438e+01 -8.428992629051208496e-01 1.295196294784545898e+00 1.356891095638275146e-01 1.137517094612121582e+00
1.326000000000000000e+03 1.947000694274902344e+01 -3.291490554809570312e+01 -8.755281567573547363e-01 1.280019283294677734e+00 1.213473603129386902e-01 -4.883971214294433594e-01
1.327000000000000000e+03 3.489413833618164062e+01 5.073684215545654297e+00 1.358995318412780762e+00 1.400564002990722656e+01 4.609390735626220703e+00 1.835586786270141602e+00
1.328000000000000000e+03 3.468733596801757812e+01 3.885885000228881836e+00 2.122231245040893555e+00 1.339877891540527344e+01 4.656302928924560547e+00 2.151972055435180664e+00
1.329000000000000000e+03 4.347593307495117188e+01 -8.333202362060546875e+00 -2.201121002435684204e-01 3.697913885116577148e+00 1.043340563774108887e+00 -7.173281908035278320e-01
1.330000000000000000e+03 6.204754638671875000e+01 -9.355744361877441406e+00 -7.138068675994873047e-01 1.001106500625610352e+00 8.618989586830139160e-02 -1.488650143146514893e-01
1.331000000000000000e+03 6.415161132812500000e+01 -1.139648628234863281e+01 -3.178425073623657227e+00 -1.710901707410812378e-01 -1.004854559898376465e+00 -1.268800854682922363e+00
1.332000000000000000e+03 5.812626266479492188e+01 -3.213970184326171875e+01 -1.220918655395507812e+00 -1.451458036899566650e-01 -4.098193645477294922e-01 -2.707574665546417236e-01
1.333000000000000000e+03 5.705702972412109375e+01 -3.920538187026977539e+00 1.786428689956665039e+00 2.473795413970947266e+00 1.278067231178283691e+00 1.709117412567138672e+00
1.334000000000000000e+03 1.407833480834960938e+01 -2.494606208801269531e+01 -5.859894752502441406e-01 4.941950798034667969e+00 1.306788325309753418e+00 -1.675251573324203491e-01
1.335000000000000000e+03 6.117583847045898438e+01 1.943800926208496094e+00 1.092969179153442383e+00 5.237082004547119141e+00 1.899015307426452637e+00 1.672869324684143066e+00
1.336000000000000000e+03 3.416496658325195312e+01 3.004860162734985352e+00 3.089220285415649414e+00 1.575072002410888672e+01 5.651982307434082031e+00 2.771323919296264648e+00
1.337000000000000000e+03 6.461181640625000000e+01 1.161018848419189453e+01 9.060584902763366699e-01 9.093795776367187500e+00 2.999956369400024414e+00 5.575117468833923340e-01
1.338000000000000000e+03 6.379887390136718750e+01 1.471061897277832031e+01 5.815506577491760254e-01 9.989155769348144531e+00 3.171211957931518555e+00 -1.178370043635368347e-02
1.339000000000000000e+03 2.567915916442871094e+01 2.798896408081054688e+01 -5.066974163055419922e-01 1.502653717994689941e+00 2.987869083881378174e-01 -7.264590263366699219e-01
1.340000000000000000e+03 2.438424110412597656e+01 2.458466911315917969e+01 -9.856133460998535156e-01 4.425651431083679199e-01 -1.629144698381423950e-01 -6.453981399536132812e-01
1.341000000000000000e+03 4.488811492919921875e+01 -2.673527336120605469e+01 2.214213848114013672e+00 1.024349498748779297e+01 3.737312793731689453e+00 -2.356295108795166016e+00
1.342000000000000000e+03 4.244248580932617188e+01 -2.126990890502929688e+01 1.920118451118469238e+00 1.008124160766601562e+01 3.600408077239990234e+00 -1.195949316024780273e+00
1.343000000000000000e+03 6.725106811523437500e+01 -2.618038558959960938e+01 -5.142835378646850586e-01 5.746347904205322266e+00 1.569619297981262207e+00 1.407486557960510254e+00
1.344000000000000000e+03 7.479805755615234375e+01 -3.314096450805664062e+01 -3.845719993114471436e-01 8.576540946960449219e+00 2.457590818405151367e+00 -2.936970889568328857e-01
1.345000000000000000e+03 7.598739624023437500e+01 -3.622355270385742188e+01 -2.524416148662567139e-01 8.997608184814453125e+00 2.623549938201904297e+00 -7.506904751062393188e-02
1.346000000000000000e+03 7.409669494628906250e+01 -2.345507621765136719e+01 1.722193658351898193e-01 9.017398834228515625e+00 2.756885290145874023e+00 -1.429673075675964355e+00
1.347000000000000000e+03 7.807680511474609375e+01 -2.878160858154296875e+01 -8.544284105300903320e-02 9.122014045715332031e+00 2.710971355438232422e+00 -5.874601602554321289e-01
1.348000000000000000e+03 7.543192291259765625e+01 1.433254814147949219e+01 2.323822081089019775e-01 6.714303016662597656e+00 2.084005594253540039e+00 2.590647637844085693e-01
1.349000000000000000e+03 7.669087219238281250e+01 1.571019744873046875e+01 1.198260784149169922e-01 6.644620895385742188e+00 2.029334068298339844e+00 2.984777987003326416e-01
1.350000000000000000e+03 7.807702636718750000e+01 3.501132202148437500e+01 -7.634065579622983932e-03 8.097610473632812500e+00 2.426992893218994141e+00 1.353679876774549484e-02
1.351000000000000000e+03 7.642691802978515625e+01 3.239756774902343750e+01 -8.872736245393753052e-02 7.681375980377197266e+00 2.277794599533081055e+00 1.178863272070884705e-01
1.352000000000000000e+03 7.828308105468750000e+01 -2.184443855285644531e+01 9.592257440090179443e-02 7.057355880737304688e+00 2.145983695983886719e+00 -6.915092468261718750e-01
1.353000000000000000e+03 7.681318664550781250e+01 -2.418568611145019531e+01 2.435971796512603760e-02 8.213278770446777344e+00 2.471291542053222656e+00 -1.169639229774475098e+00
1.354000000000000000e+03 7.659109497070312500e+01 -3.104727554321289062e+01 -2.788901925086975098e-01 9.110854148864746094e+00 2.649589300155639648e+00 -5.120221376419067383e-01
1.355000000000000000e+03 7.673338317871093750e+01 -2.978400802612304688e+01 -2.493536472320556641e-01 9.054778099060058594e+00 2.641627311706542969e+00 -6.923552155494689941e-01
1.356000000000000000e+03 7.683928680419921875e+01 -2.712334442138671875e+01 -1.827797293663024902e-01 8.733590126037597656e+00 2.565243244171142578e+00 -9.658027291297912598e-01
1.357000000000000000e+03 7.687720489501953125e+01 -2.571074867248535156e+01 -1.254961788654327393e-01 8.514917373657226562e+00 2.516826152801513672e+00 -1.103139996528625488e+00
1.358000000000000000e+03 7.640123748779296875e+01 -3.229572296142578125e+01 -2.149107605218887329e-01 9.134120941162109375e+00 2.675763130187988281e+00 -4.001936912536621094e-01
1.359000000000000000e+03 7.605896759033203125e+01 -3.494717407226562500e+01 -2.067101001739501953e-01 9.014118194580078125e+00 2.642222404479980469e+00 -1.727310568094253540e-01
1.360000000000000000e+03 7.522931671142578125e+01 -3.053976058959960938e+01 -4.688196182250976562e-01 8.792451858520507812e+00 2.497089624404907227e+00 -6.078453063964843750e-01
1.361000000000000000e+03 7.503657531738281250e+01 -4.051551818847656250e+01 6.254567205905914307e-02 8.677233695983886719e+00 2.621933937072753906e+00 -1.664403378963470459e-01
1.362000000000000000e+03 7.806726074218750000e+01 2.254690361022949219e+01 -1.113028824329376221e-02 7.267681121826171875e+00 2.176965236663818359e+00 3.116161525249481201e-01
1.363000000000000000e+03 7.686148071289062500e+01 1.997951316833496094e+01 3.171283379197120667e-02 6.978958606719970703e+00 2.103201389312744141e+00 4.525689780712127686e-01
1.364000000000000000e+03 7.553468322753906250e+01 2.256950569152832031e+01 -5.581114441156387329e-02 7.211701869964599609e+00 2.146767139434814453e+00 5.479176640510559082e-01
1.365000000000000000e+03 7.689270782470703125e+01 2.130037307739257812e+01 -6.942557636648416519e-03 7.119892597198486328e+00 2.133884906768798828e+00 4.581049680709838867e-01
1.366000000000000000e+03 7.672793579101562500e+01 1.284321022033691406e+01 1.370133906602859497e-01 6.517876625061035156e+00 1.996466994285583496e+00 1.003544628620147705e-01
1.367000000000000000e+03 7.557051086425781250e+01 8.688581466674804688e+00 2.032468616962432861e-01 6.668155193328857422e+00 2.061420679092407227e+00 -2.331285625696182251e-01
1.368000000000000000e+03 7.671311187744140625e+01 1.427049732208251953e+01 1.273122131824493408e-01 6.564052104949951172e+00 2.007409334182739258e+00 1.991542577743530273e-01
1.369000000000000000e+03 7.665246582031250000e+01 2.399823951721191406e+01 -5.397983640432357788e-02 7.354148387908935547e+00 2.190050601959228516e+00 4.271315038204193115e-01
1.370000000000000000e+03 7.790541839599609375e+01 2.675584983825683594e+01 -4.464081674814224243e-02 7.713442802429199219e+00 2.300640583038330078e+00 2.366640120744705200e-01
1.371000000000000000e+03 7.691900634765625000e+01 -2.274017524719238281e+01 1.517638415098190308e-01 7.890340328216552734e+00 2.412631273269653320e+00 -1.091205358505249023e+00
1.372000000000000000e+03 7.569613647460937500e+01 -1.889381408691406250e+01 8.421183824539184570e-01 8.076290130615234375e+00 2.675522565841674805e+00 -4.313066899776458740e-01
1.373000000000000000e+03 7.721463012695312500e+01 -2.154032516479492188e+01 2.470476478338241577e-01 7.529906272888183594e+00 2.333086252212524414e+00 -8.784014582633972168e-01
1.374000000000000000e+03 7.542257690429687500e+01 -9.334906578063964844e+00 -5.188036561012268066e-01 8.168148040771484375e+00 2.294803142547607422e+00 3.817881941795349121e-01
1.375000000000000000e+03 7.695751190185546875e+01 -1.356560134887695312e+01 1.076703593134880066e-01 7.522763729095458984e+00 2.289130210876464844e+00 7.118350863456726074e-01
1.376000000000000000e+03 7.542768859863281250e+01 -2.123111724853515625e+00 -1.609855741262435913e-01 7.373350143432617188e+00 2.163709402084350586e+00 -5.292447805404663086e-01
1.377000000000000000e+03 7.670787811279296875e+01 -7.928968429565429688e+00 -3.112807571887969971e-01 7.909456729888916016e+00 2.279452800750732422e+00 2.508170306682586670e-01
1.378000000000000000e+03 7.811946868896484375e+01 5.812017917633056641e+00 3.820630535483360291e-02 6.595948219299316406e+00 1.990246415138244629e+00 -2.384914904832839966e-01
1.379000000000000000e+03 7.684241485595703125e+01 3.212497711181640625e+00 3.444984927773475647e-02 6.922605991363525391e+00 2.087116718292236328e+00 -4.346361756324768066e-01
1.380000000000000000e+03 7.548257446289062500e+01 3.650261306762695312e+01 -5.604339763522148132e-02 7.586234569549560547e+00 2.259057283401489258e+00 7.786042243242263794e-02
1.381000000000000000e+03 7.799398040771484375e+01 3.626554107666015625e+01 -5.052538961172103882e-02 8.071004867553710938e+00 2.406143903732299805e+00 -3.203611075878143311e-02
1.382000000000000000e+03 7.810784912109375000e+01 7.185797691345214844e+00 3.855991736054420471e-02 6.468162059783935547e+00 1.952016592025756836e+00 -1.861051470041275024e-01
1.383000000000000000e+03 7.688068389892578125e+01 5.946745872497558594e+00 8.019787818193435669e-02 6.685239315032958984e+00 2.029631137847900391e+00 -3.344824612140655518e-01
1.384000000000000000e+03 7.677036285400390625e+01 -2.282868146896362305e+00 -1.243466511368751526e-01 7.497030258178710938e+00 2.211805105209350586e+00 -3.757619261741638184e-01
1.385000000000000000e+03 7.675545501708984375e+01 -9.370734214782714844e+00 -2.908143401145935059e-01 7.887541294097900391e+00 2.279018163681030273e+00 4.723625481128692627e-01
1.386000000000000000e+03 7.702014160156250000e+01 -1.633465003967285156e+01 4.448167681694030762e-01 7.210649013519287109e+00 2.296639680862426758e+00 3.548239767551422119e-01
1.387000000000000000e+03 7.462506103515625000e+01 3.446997833251953125e+01 -8.949358761310577393e-02 7.314695358276367188e+00 2.167560577392578125e+00 5.833005532622337341e-02
1.388000000000000000e+03 7.284382629394531250e+01 3.522270584106445312e+01 -8.686915785074234009e-02 6.982255935668945312e+00 2.068616151809692383e+00 4.622210562229156494e-02
1.389000000000000000e+03 7.657130432128906250e+01 3.110884857177734375e+01 -7.037667185068130493e-02 7.723263263702392578e+00 2.295866012573242188e+00 1.561736613512039185e-01
1.390000000000000000e+03 7.673934173583984375e+01 1.860557937622070312e+01 6.436407566070556641e-02 6.854193687438964844e+00 2.075567245483398438e+00 4.230410754680633545e-01
1.391000000000000000e+03 7.678448486328125000e+01 1.003196716308593750e+01 1.294788569211959839e-01 6.504264354705810547e+00 1.990122914314270020e+00 -1.021453291177749634e-01
1.392000000000000000e+03 7.803851318359375000e+01 -6.672924518585205078e+00 -1.337697803974151611e-01 7.866288185119628906e+00 2.319755554199218750e+00 9.504337608814239502e-02
1.393000000000000000e+03 7.816474914550781250e+01 -1.369968223571777344e+01 5.100407823920249939e-02 6.877092361450195312e+00 2.078428983688354492e+00 5.712091326713562012e-01
1.394000000000000000e+03 7.690802764892578125e+01 -1.496442985534667969e+01 2.400253117084503174e-01 7.393416881561279297e+00 2.290032625198364258e+00 6.321713924407958984e-01
1.395000000000000000e+03 7.809676361083984375e+01 1.664965391159057617e+00 -6.511055864393711090e-03 7.110033512115478516e+00 2.131056785583496094e+00 -3.066148161888122559e-01
1.396000000000000000e+03 7.677081298828125000e+01 -9.131184220314025879e-01 -5.000822618603706360e-02 7.350272655487060547e+00 2.190079450607299805e+00 -4.437285661697387695e-01
1.397000000000000000e+03 7.689406585693359375e+01 3.554808425903320312e+01 -6.336309760808944702e-02 7.919511318206787109e+00 2.356844425201416016e+00 -7.787138223648071289e-03
1.398000000000000000e+03 7.687479400634765625e+01 4.586387634277343750e+00 6.868226081132888794e-02 6.798399925231933594e+00 2.060124635696411133e+00 -4.022534489631652832e-01
1.399000000000000000e+03 7.676055908203125000e+01 -5.064039707183837891e+00 -2.383687794208526611e-01 7.753126144409179688e+00 2.254427194595336914e+00 -1.435046195983886719e-01
1.400000000000000000e+03 7.677273559570312500e+01 -3.660669088363647461e+00 -1.544502079486846924e-01 7.627940177917480469e+00 2.242047071456909180e+00 -2.853032052516937256e-01
1.401000000000000000e+03 7.686620330810546875e+01 -1.078878402709960938e+01 -2.118656188249588013e-01 7.846499919891357422e+00 2.290390253067016602e+00 6.442018747329711914e-01
1.402000000000000000e+03 7.579307556152343750e+01 -1.210729598999023438e+01 -9.974391758441925049e-02 8.184163093566894531e+00 2.425325870513916016e+00 8.274793028831481934e-01
1.403000000000000000e+03 7.715855407714843750e+01 -2.037876510620117188e+01 3.897793889045715332e-01 7.412449836730957031e+00 2.340668916702270508e+00 -7.086203694343566895e-01
1.404000000000000000e+03 1.130734348297119141e+01 -2.001257514953613281e+01 1.505839705467224121e+00 5.747251510620117188e+00 2.175927400588989258e+00 9.595568180084228516e-01
1.405000000000000000e+03 6.702511596679687500e+01 -2.849964141845703125e+01 -1.048361659049987793e+00 5.069258213043212891e+00 1.206269025802612305e+00 1.014928579330444336e+00
1.406000000000000000e+03 3.806416702270507812e+01 6.582494258880615234e+00 1.388108730316162109e+00 1.482837486267089844e+01 4.864944934844970703e+00 2.207605123519897461e+00
1.407000000000000000e+03 5.778496170043945312e+01 2.370204544067382812e+01 -7.278996706008911133e-01 8.259215950965881348e-01 2.940658666193485260e-02 -9.030641317367553711e-01
1.408000000000000000e+03 5.441898727416992188e+01 2.551078796386718750e+01 -3.834689557552337646e-01 8.464530110359191895e-01 1.388952136039733887e-01 3.638112545013427734e-01
1.409000000000000000e+03 6.361241149902343750e+01 7.397578239440917969e+00 1.069976091384887695e+00 8.079668045043945312e+00 2.744893312454223633e+00 1.098119735717773438e+00
1.410000000000000000e+03 6.539602661132812500e+01 1.558732795715332031e+01 9.584879875183105469e-01 8.495371818542480469e+00 2.836157798767089844e+00 1.849345564842224121e-01
1.411000000000000000e+03 4.745886230468750000e+01 1.945550155639648438e+01 1.906388550996780396e-01 1.670037508010864258e+00 5.582029223442077637e-01 1.162770509719848633e+00
1.412000000000000000e+03 4.686621093750000000e+01 2.055868339538574219e+01 -2.135355770587921143e-01 2.282990455627441406e+00 6.208364367485046387e-01 1.373859643936157227e+00
1.413000000000000000e+03 2.569569396972656250e+01 -2.697165906429290771e-01 4.657040596008300781e+00 -1.382167100906372070e+00 9.824619889259338379e-01 1.058738753199577332e-01
1.414000000000000000e+03 2.592888450622558594e+01 -4.874770164489746094e+00 2.558148622512817383e+00 -6.580961942672729492e-01 5.700157284736633301e-01 2.630484476685523987e-02
1.415000000000000000e+03 4.518989944458007812e+01 1.783357620239257812e+01 9.287378191947937012e-01 2.700061082839965820e+00 1.088639616966247559e+00 1.788640975952148438e+00
1.416000000000000000e+03 4.119410705566406250e+01 1.645479583740234375e+01 5.844436287879943848e-01 6.042059421539306641e+00 1.987950921058654785e+00 1.985577583312988281e+00
1.417000000000000000e+03 1.938521027565002441e+00 2.764673995971679688e+01 -7.989263534545898438e-02 1.579858779907226562e+00 4.499898552894592285e-01 -5.239705443382263184e-01
1.418000000000000000e+03 3.394989013671875000e+00 3.027525711059570312e+01 -1.604613959789276123e-01 2.209567546844482422e+00 6.147318482398986816e-01 -5.412150025367736816e-01
1.419000000000000000e+03 1.945683598518371582e+00 2.624915885925292969e+01 -6.374809145927429199e-02 1.255241155624389648e+00 3.574479222297668457e-01 -6.081646084785461426e-01
1.420000000000000000e+03 3.230906724929809570e+00 2.764902114868164062e+01 -1.567436158657073975e-01 1.846937537193298340e+00 5.070581436157226562e-01 -7.500478029251098633e-01
1.421000000000000000e+03 5.412810325622558594e+00 3.424565505981445312e+01 -2.276993244886398315e-01 2.565300703048706055e+00 7.012804150581359863e-01 -3.472519516944885254e-01
1.422000000000000000e+03 3.530452728271484375e+00 3.160756301879882812e+01 -1.618119776248931885e-01 2.339296102523803711e+00 6.532452106475830078e-01 -4.528501927852630615e-01
1.423000000000000000e+03 3.294734001159667969e+00 2.896147918701171875e+01 -1.822871118783950806e-01 2.039880990982055664e+00 5.572782158851623535e-01 -6.574566960334777832e-01
1.424000000000000000e+03 3.748572111129760742e+00 3.433703613281250000e+01 -1.251892298460006714e-01 2.518766164779663086e+00 7.180730700492858887e-01 -2.852051556110382080e-01
1.425000000000000000e+03 6.157278537750244141e+00 2.878789329528808594e+01 -4.659792482852935791e-01 2.550205707550048828e+00 6.252679228782653809e-01 -8.782613277435302734e-01
1.426000000000000000e+03 3.567025423049926758e+00 -3.662348175048828125e+01 -1.437728404998779297e-01 2.679025173187255859e+00 7.605757117271423340e-01 2.945538759231567383e-01
1.427000000000000000e+03 2.288804769515991211e+00 -3.023938369750976562e+01 -8.894766867160797119e-02 1.877424359321594238e+00 5.365430116653442383e-01 5.770295858383178711e-01
1.428000000000000000e+03 3.477322816848754883e+00 -2.861950302124023438e+01 -1.520662605762481689e-01 1.811821103096008301e+00 4.979264736175537109e-01 9.015366435050964355e-01
1.429000000000000000e+03 3.274664402008056641e+00 -2.590673828125000000e+01 -5.769292265176773071e-02 1.244928002357482910e+00 3.561705052852630615e-01 1.007540464401245117e+00
1.430000000000000000e+03 1.978660106658935547e+00 2.181612777709960938e+01 4.282444424461573362e-04 -2.326986379921436310e-02 -6.852485705167055130e-03 -7.674829959869384766e-01
1.431000000000000000e+03 3.377992868423461914e+00 2.325732421875000000e+01 -8.483827859163284302e-02 1.083947658538818359e+00 2.997328042984008789e-01 -1.113829374313354492e+00
1.432000000000000000e+03 2.724196672439575195e+00 -1.051033592224121094e+01 8.237443119287490845e-02 -7.444524168968200684e-01 -1.986234039068222046e-01 -3.670504391193389893e-01
1.433000000000000000e+03 1.882216334342956543e+00 2.036491012573242188e+01 6.216363608837127686e-02 -5.284456610679626465e-01 -1.398846209049224854e-01 -6.884852051734924316e-01
1.434000000000000000e+03 3.310185670852661133e+00 2.166297531127929688e+01 3.921129181981086731e-02 7.310932278633117676e-01 2.310913652181625366e-01 -1.117056131362915039e+00
1.435000000000000000e+03 2.777225255966186523e+00 1.223742580413818359e+01 2.619844675064086914e-01 -1.137249469757080078e+00 -2.625795006752014160e-01 1.002944558858871460e-01
1.436000000000000000e+03 2.883826971054077148e+00 1.745988273620605469e+01 2.306891083717346191e-01 -4.916930794715881348e-01 -7.830119132995605469e-02 -7.338884472846984863e-01
1.437000000000000000e+03 2.998526811599731445e+00 -1.747419357299804688e+01 2.585214972496032715e-01 -4.898381531238555908e-01 -6.939499080181121826e-02 3.583287596702575684e-01
1.438000000000000000e+03 1.757986545562744141e+00 -1.477748680114746094e+01 8.046064525842666626e-02 -1.585268735885620117e+00 -4.514424204826354980e-01 -1.804649829864501953e-02
1.439000000000000000e+03 4.819020748138427734e+00 -4.487224578857421875e+00 -6.783664971590042114e-02 4.254696890711784363e-02 -7.586903870105743408e-03 -5.307147502899169922e-01
1.440000000000000000e+03 3.052778005599975586e+00 -1.886926078796386719e+01 2.581546604633331299e-01 -2.567882239818572998e-01 4.099347570445388556e-04 5.881645083427429199e-01
1.441000000000000000e+03 2.847685337066650391e+00 -1.328329753875732422e+01 1.764017343521118164e-01 -7.725576162338256836e-01 -1.788467615842819214e-01 -1.630258858203887939e-01
1.442000000000000000e+03 2.912981748580932617e+00 7.963459491729736328e+00 1.662704795598983765e-01 -8.556168079376220703e-01 -2.068039029836654663e-01 6.401939392089843750e-01
1.443000000000000000e+03 1.581214427947998047e+00 6.572446823120117188e+00 4.281188920140266418e-02 -1.298672199249267578e+00 -3.767580986022949219e-01 4.993903040885925293e-01
1.444000000000000000e+03 1.661854743957519531e+00 1.487849330902099609e+01 1.005749255418777466e-01 -1.936289668083190918e+00 -5.507144331932067871e-01 -2.047941237688064575e-01
1.445000000000000000e+03 2.796419858932495117e+00 1.616540527343750000e+01 2.744356691837310791e-01 -8.256795406341552734e-01 -1.653731614351272583e-01 -5.095151066780090332e-01
1.446000000000000000e+03 2.981233835220336914e+00 -4.311875820159912109e+00 -6.056650355458259583e-02 -2.844414710998535156e-01 -1.035023927688598633e-01 -5.063838958740234375e-01
1.447000000000000000e+03 2.919063091278076172e+00 9.480989456176757812e+00 2.236374169588088989e-01 -9.662482142448425293e-01 -2.227832376956939697e-01 4.909926950931549072e-01
1.448000000000000000e+03 3.208314895629882812e+00 -2.168001556396484375e+01 1.341566741466522217e-01 3.140358030796051025e-01 1.344577372074127197e-01 9.092912673950195312e-01
1.449000000000000000e+03 2.695930004119873047e+00 -9.148245811462402344e+00 5.978326126933097839e-02 -6.888063549995422363e-01 -1.887069344520568848e-01 -4.261156916618347168e-01
1.450000000000000000e+03 4.052734375000000000e+00 -3.790974044799804688e+01 -1.430327147245407104e-01 2.757397890090942383e+00 7.843095660209655762e-01 2.759331166744232178e-01
1.451000000000000000e+03 1.933213472366333008e+00 -2.322351646423339844e+01 3.747875615954399109e-02 -5.480938032269477844e-02 -5.199186969548463821e-03 6.713075041770935059e-01
1.452000000000000000e+03 2.970985412597656250e+00 -1.607736968994140625e+01 2.266132086515426636e-01 -6.042543053627014160e-01 -1.132923290133476257e-01 1.588628292083740234e-01
1.453000000000000000e+03 2.922420740127563477e+00 -1.468456077575683594e+01 1.854812651872634888e-01 -7.059588432312011719e-01 -1.561432629823684692e-01 -2.471244893968105316e-03
1.454000000000000000e+03 2.313130617141723633e+00 -3.605727005004882812e+01 -9.616740792989730835e-02 2.705060482025146484e+00 7.826678752899169922e-01 2.288799881935119629e-01
1.455000000000000000e+03 4.617986202239990234e+00 -3.281809234619140625e+01 -2.558100223541259766e-01 2.457278728485107422e+00 6.604405641555786133e-01 6.511415839195251465e-01
1.456000000000000000e+03 4.563555717468261719e+00 -2.581153869628906250e+01 -7.959922403097152710e-02 1.732276201248168945e+00 4.958030879497528076e-01 1.238635182380676270e+00
1.457000000000000000e+03 2.774800539016723633e+00 -1.188968181610107422e+01 1.235624775290489197e-01 -7.746458053588867188e-01 -1.953249871730804443e-01 -2.931257188320159912e-01
1.458000000000000000e+03 2.878186941146850586e+00 1.091551780700683594e+01 2.211319357156753540e-01 -1.097133994102478027e+00 -2.628006041049957275e-01 2.799459695816040039e-01
1.459000000000000000e+03 3.879925966262817383e+00 1.247450160980224609e+01 4.563671946525573730e-01 -3.031319379806518555e-01 4.597058147192001343e-02 3.483954444527626038e-02
1.460000000000000000e+03 2.719352960586547852e+00 1.352567386627197266e+01 2.583530247211456299e-01 -1.122267961502075195e+00 -2.591744959354400635e-01 -1.206109523773193359e-01
1.461000000000000000e+03 3.870223522186279297e+00 1.610468673706054688e+01 4.284739494323730469e-01 1.620681397616863251e-02 1.334042251110076904e-01 -6.747382879257202148e-01
1.462000000000000000e+03 3.910528945922851562e+01 1.040472221374511719e+01 1.851858258247375488e+00 1.247264575958251953e+01 4.297351360321044922e+00 2.812403917312622070e+00
1.463000000000000000e+03 2.541633796691894531e+01 2.589765930175781250e+01 -7.034316658973693848e-01 9.859252572059631348e-01 8.474808186292648315e-02 -7.338839173316955566e-01
1.464000000000000000e+03 2.669695472717285156e+01 2.322273063659667969e+01 -9.594234228134155273e-01 9.710397124290466309e-01 3.484876826405525208e-03 -8.351001739501953125e-01
1.465000000000000000e+03 6.963530731201171875e+01 -2.706992340087890625e+01 -1.064031600952148438e+00 7.889101028442382812e+00 2.047520875930786133e+00 2.325825542211532593e-01
1.466000000000000000e+03 5.538665390014648438e+01 -1.234284782409667969e+01 -8.638986945152282715e-01 5.062182545661926270e-01 -1.073041334748268127e-01 8.984457254409790039e-01
1.467000000000000000e+03 3.758716201782226562e+01 8.282708168029785156e+00 1.898015379905700684e+00 1.316802978515625000e+01 4.519813537597656250e+00 1.631985425949096680e+00
1.468000000000000000e+03 4.026942062377929688e+01 -1.700318145751953125e+01 2.025894165039062500e+00 9.318659782409667969e+00 3.403366088867187500e+00 -1.694231986999511719e+00
1.469000000000000000e+03 3.665798187255859375e+01 -1.461180210113525391e+01 1.904374599456787109e+00 1.192845535278320312e+01 4.149848937988281250e+00 -2.727946281433105469e+00
1.470000000000000000e+03 4.230002212524414062e+01 1.735262870788574219e+01 6.088560223579406738e-01 4.922603607177734375e+00 1.659437894821166992e+00 2.099537372589111328e+00
1.471000000000000000e+03 1.483353328704833984e+01 -2.621125411987304688e+01 -6.867960095405578613e-01 3.880874156951904297e+00 9.582234025001525879e-01 -4.240974187850952148e-01
1.472000000000000000e+03 2.472957038879394531e+01 -1.788591146469116211e-01 4.477279663085937500e+00 -1.524083375930786133e+00 8.859589695930480957e-01 -9.518686681985855103e-02
1.473000000000000000e+03 3.676327514648437500e+01 -2.048450469970703125e+01 1.173673272132873535e+00 1.108469676971435547e+01 3.677510976791381836e+00 -1.458363682031631470e-01
1.474000000000000000e+03 4.139760589599609375e+01 -2.053561973571777344e+01 2.098697185516357422e+00 9.624162673950195312e+00 3.516858100891113281e+00 -1.494966864585876465e+00
1.475000000000000000e+03 5.868208694458007812e+01 -1.584230184555053711e+00 1.777852654457092285e+00 3.142455101013183594e+00 1.476092338562011719e+00 1.787863492965698242e+00
1.476000000000000000e+03 3.805332183837890625e+01 -1.914052963256835938e+01 1.538367748260498047e+00 1.071057891845703125e+01 3.674683809280395508e+00 -1.263028502464294434e+00
1.477000000000000000e+03 1.797037315368652344e+01 2.496072387695312500e+01 -8.310433030128479004e-01 1.601970911026000977e+00 2.312782704830169678e-01 1.112309575080871582e+00
1.478000000000000000e+03 2.642408752441406250e+01 2.510035133361816406e+01 -7.480303645133972168e-01 1.288637995719909668e+00 1.621823012828826904e-01 -1.062840342521667480e+00
1.479000000000000000e+03 3.691803741455078125e+01 -2.389904403686523438e+01 1.128825068473815918e+00 8.862730026245117188e+00 2.997466564178466797e+00 3.957085907459259033e-01
1.480000000000000000e+03 3.526353454589843750e+01 -2.645138740539550781e+01 2.749729752540588379e-01 6.390204429626464844e+00 1.999553203582763672e+00 1.282063841819763184e+00
1.481000000000000000e+03 3.367127990722656250e+01 1.858619689941406250e+01 3.377131521701812744e-01 6.187642574310302734e+00 1.957606673240661621e+00 -9.211650490760803223e-01
1.482000000000000000e+03 3.667680358886718750e+01 1.165608406066894531e+01 1.014180064201354980e+00 1.035127067565917969e+01 3.409635305404663086e+00 8.132595568895339966e-02
1.483000000000000000e+03 6.496857452392578125e+01 -3.124005699157714844e+01 -8.845181465148925781e-01 3.087339162826538086e+00 6.608462929725646973e-01 9.137873053550720215e-01
1.484000000000000000e+03 6.670941162109375000e+01 1.512734794616699219e+01 9.203535318374633789e-01 8.075295448303222656e+00 2.698694467544555664e+00 2.743726074695587158e-01
1.485000000000000000e+03 6.572295379638671875e+01 1.682908630371093750e+01 8.244982361793518066e-01 8.255599975585937500e+00 2.724029302597045898e+00 2.185717076063156128e-01
1.486000000000000000e+03 1.688055419921875000e+01 2.435207939147949219e+01 -1.148793220520019531e+00 2.307878494262695312e+00 3.477255403995513916e-01 1.295690417289733887e+00
1.487000000000000000e+03 3.637960052490234375e+01 6.091840267181396484e+00 1.515961408615112305e+00 1.335771369934082031e+01 4.462102413177490234e+00 1.700912714004516602e+00
1.488000000000000000e+03 3.691739273071289062e+01 7.352388858795166016e+00 1.595224499702453613e+00 1.336385345458984375e+01 4.487723350524902344e+00 1.610359907150268555e+00
1.489000000000000000e+03 1.613256454467773438e+01 8.354232788085937500e+00 2.751808613538742065e-02 7.337609291076660156e+00 2.209538221359252930e+00 -2.786942720413208008e+00
1.490000000000000000e+03 6.598798370361328125e+01 -2.970770645141601562e+01 -1.013471603393554688e+00 4.065301418304443359e+00 9.155489206314086914e-01 9.086679816246032715e-01
1.491000000000000000e+03 1.418208599090576172e+01 1.106089305877685547e+01 1.869899153709411621e+00 9.150849342346191406e+00 3.306224584579467773e+00 -2.362480640411376953e+00
1.492000000000000000e+03 3.732580184936523438e+01 -1.226448440551757812e+01 1.488823294639587402e+00 1.014979362487792969e+01 3.491585016250610352e+00 -2.112948179244995117e+00
1.493000000000000000e+03 6.257186889648437500e+01 4.571727275848388672e+00 1.091230988502502441e+00 6.771561622619628906e+00 2.358837842941284180e+00 1.358938097953796387e+00
1.494000000000000000e+03 4.188007736206054688e+01 1.512483978271484375e+01 1.496937513351440430e+00 5.752589702606201172e+00 2.174858093261718750e+00 2.745815753936767578e+00
1.495000000000000000e+03 6.288878250122070312e+01 9.164181709289550781e+00 8.694217801094055176e-01 9.260750770568847656e+00 3.039051771163940430e+00 1.322337150573730469e+00
1.496000000000000000e+03 5.952783584594726562e+01 -4.309494197368621826e-01 1.569996833801269531e+00 3.683661937713623047e+00 1.576097607612609863e+00 1.808890700340270996e+00
1.497000000000000000e+03 4.889336013793945312e+01 2.211678123474121094e+01 -6.641082167625427246e-01 1.595274925231933594e+00 2.793499827384948730e-01 1.183480143547058105e+00
1.498000000000000000e+03 4.790294265747070312e+01 2.117603492736816406e+01 -4.704292714595794678e-01 1.814126372337341309e+00 4.031091332435607910e-01 1.247926354408264160e+00
1.499000000000000000e+03 3.183979797363281250e+01 -3.171217727661132812e+01 -8.899037837982177734e-01 2.673588991165161133e+00 5.351055860519409180e-01 1.389657855033874512e+00
1.500000000000000000e+03 2.920849037170410156e+01 -3.107740402221679688e+01 -1.076161265373229980e+00 9.157629013061523438e-01 -4.811949282884597778e-02 9.563621878623962402e-01
1.501000000000000000e+03 1.522854042053222656e+01 7.963998794555664062e+00 -5.931926369667053223e-01 7.853903770446777344e+00 2.178213357925415039e+00 -2.427418708801269531e+00
1.502000000000000000e+03 5.437224197387695312e+01 -3.527339935302734375e+01 -5.761556327342987061e-03 9.521953463554382324e-01 2.839301526546478271e-01 -1.095863461494445801e+00
1.503000000000000000e+03 5.785234069824218750e+01 -2.737290143966674805e+00 1.857719779014587402e+00 2.748777627944946289e+00 1.381949186325073242e+00 1.747363209724426270e+00
1.504000000000000000e+03 2.188081169128417969e+01 -5.994895458221435547e+00 1.214710235595703125e+00 1.388416528701782227e+00 7.809380292892456055e-01 -3.224826753139495850e-01
1.505000000000000000e+03 5.763605499267578125e+01 -3.364404678344726562e+01 -3.645240962505340576e-01 -2.484930446371436119e-04 -1.094317808747291565e-01 -3.228471279144287109e-01
1.506000000000000000e+03 3.823977661132812500e+01 -1.619111251831054688e+01 1.867544293403625488e+00 1.059755802154541016e+01 3.739530563354492188e+00 -2.144930601119995117e+00
1.507000000000000000e+03 3.810977172851562500e+01 -1.459069633483886719e+01 1.947298645973205566e+00 1.021351051330566406e+01 3.648242950439453125e+00 -2.267188549041748047e+00
1.508000000000000000e+03 6.932836151123046875e+01 -2.189445686340332031e+01 1.495025753974914551e+00 1.241971588134765625e+01 4.174422740936279297e+00 1.135529875755310059e+00
1.509000000000000000e+03 3.330635833740234375e+01 1.996525382995605469e+01 -6.540825217962265015e-02 5.713637828826904297e+00 1.694468975067138672e+00 -7.345535755157470703e-01
1.510000000000000000e+03 3.313314819335937500e+01 -1.848395586013793945e+00 2.317200660705566406e+00 7.549985885620117188e+00 2.960155963897705078e+00 7.340158224105834961e-01
1.511000000000000000e+03 6.486481475830078125e+01 1.296631336212158203e+01 7.897222042083740234e-01 9.132351875305175781e+00 2.976622104644775391e+00 3.140212595462799072e-01
1.512000000000000000e+03 6.511682891845703125e+01 1.429629135131835938e+01 9.322481155395507812e-01 8.869756698608398438e+00 2.940601587295532227e+00 9.206219017505645752e-02
1.513000000000000000e+03 1.158441162109375000e+01 -1.533711814880371094e+01 1.671194791793823242e+00 6.085057258605957031e+00 2.326875448226928711e+00 6.300608515739440918e-01
1.514000000000000000e+03 1.074794960021972656e+01 -1.889266204833984375e+01 1.590645074844360352e+00 5.515593051910400391e+00 2.131871461868286133e+00 1.026875495910644531e+00
1.515000000000000000e+03 7.402439880371093750e+01 -1.988057518005371094e+01 1.187365651130676270e+00 9.152993202209472656e+00 3.102107524871826172e+00 -7.954630255699157715e-01
1.516000000000000000e+03 3.545959854125976562e+01 1.138979339599609375e+01 8.052667975425720215e-01 9.970558166503906250e+00 3.232747554779052734e+00 -7.617635726928710938e-01
1.517000000000000000e+03 7.030812835693359375e+01 -1.471136760711669922e+01 1.268727421760559082e+00 1.115456295013427734e+01 3.726987123489379883e+00 -7.907139509916305542e-02
1.518000000000000000e+03 4.956744003295898438e+01 -1.214180183410644531e+01 1.039306163787841797e+00 1.385763049125671387e+00 7.275207638740539551e-01 2.118688583374023438e+00
1.519000000000000000e+03 2.921256446838378906e+01 2.193808937072753906e+01 -4.124672114849090576e-01 3.139795541763305664e+00 8.181985020637512207e-01 -1.460198998451232910e+00
1.520000000000000000e+03 5.397279739379882812e+01 -5.442288398742675781e+00 1.426906228065490723e+00 2.287389993667602539e+00 1.114288806915283203e+00 1.864105701446533203e+00
1.521000000000000000e+03 5.631905364990234375e+01 -5.204443454742431641e+00 1.428942561149597168e+00 2.202341794967651367e+00 1.089385390281677246e+00 1.611200451850891113e+00
1.522000000000000000e+03 3.569744873046875000e+01 9.999253273010253906e+00 1.026914477348327637e+00 1.095643615722656250e+01 3.595005035400390625e+00 -1.638428419828414917e-01
1.523000000000000000e+03 2.739985847473144531e+01 -7.042714595794677734e+00 -5.845435261726379395e-01 -7.086011171340942383e-01 -3.879434168338775635e-01 -1.704629659652709961e-01
1.524000000000000000e+03 1.647881698608398438e+01 -2.865638542175292969e+01 -9.378187060356140137e-01 2.621170759201049805e+00 5.050055980682373047e-01 -4.102852046489715576e-01
1.525000000000000000e+03 1.881224060058593750e+01 -2.881914520263671875e+01 -9.090861082077026367e-01 1.417677760124206543e+00 1.525775045156478882e-01 -3.341041505336761475e-01
1.526000000000000000e+03 3.572068786621093750e+01 3.461287975311279297e+00 2.422796964645385742e+00 1.340726089477539062e+01 4.749017238616943359e+00 1.684951901435852051e+00
1.527000000000000000e+03 3.631400299072265625e+01 1.769429683685302734e+00 2.439578771591186523e+00 1.199986457824707031e+01 4.331832885742187500e+00 3.382732868194580078e-01
1.528000000000000000e+03 3.015622329711914062e+01 2.312992477416992188e+01 -9.235926866531372070e-01 3.762758731842041016e+00 8.517498373985290527e-01 -1.180560946464538574e+00
1.529000000000000000e+03 2.753871917724609375e+01 -3.288439178466796875e+01 -7.821680307388305664e-01 5.892714858055114746e-01 -5.786896869540214539e-02 6.819261312484741211e-01
1.530000000000000000e+03 2.311804771423339844e+01 -3.579217147827148438e+01 -3.393730521202087402e-01 6.746460199356079102e-01 1.005818843841552734e-01 -1.876775473356246948e-01
1.531000000000000000e+03 2.381565475463867188e+01 -3.369340133666992188e+01 -7.196007966995239258e-01 3.098518550395965576e-01 -1.229246780276298523e-01 -9.371548891067504883e-02
1.532000000000000000e+03 6.049252700805664062e+01 -3.368561935424804688e+01 -3.139265775680541992e-01 6.686689257621765137e-01 1.064227148890495300e-01 2.223352044820785522e-01
1.533000000000000000e+03 6.993892669677734375e+01 -2.385624694824218750e+01 -1.394003443419933319e-02 1.011063766479492188e+01 3.029009342193603516e+00 3.498825803399085999e-02
1.534000000000000000e+03 4.553538894653320312e+01 -1.416385650634765625e+01 1.481000900268554688e+00 5.036858558654785156e+00 1.955357909202575684e+00 9.546248912811279297e-01
1.535000000000000000e+03 4.387365341186523438e+01 -1.766878890991210938e+01 1.822681784629821777e+00 8.886704444885253906e+00 3.212815761566162109e+00 -1.637318581342697144e-01
1.536000000000000000e+03 3.095705223083496094e+01 -5.883312702178955078e+00 3.367534279823303223e-01 3.485542535781860352e+00 1.146688818931579590e+00 -1.837232112884521484e+00
1.537000000000000000e+03 3.775326156616210938e+01 -2.304961776733398438e+01 1.580741763114929199e+00 9.216272354125976562e+00 3.239104270935058594e+00 -1.838944852352142334e-01
1.538000000000000000e+03 5.914806365966796875e+01 -3.518263244628906250e+01 1.878102868795394897e-01 4.899342060089111328e-01 2.033233493566513062e-01 -3.050290606915950775e-02
1.539000000000000000e+03 3.983925247192382812e+01 -2.264550590515136719e+01 1.937663674354553223e+00 9.354188919067382812e+00 3.387555837631225586e+00 -1.049137949943542480e+00
1.540000000000000000e+03 3.881079864501953125e+01 -2.378890800476074219e+01 1.533396244049072266e+00 8.785027503967285156e+00 3.095526933670043945e+00 -5.748718380928039551e-01
1.541000000000000000e+03 3.587641143798828125e+01 -7.057719707489013672e+00 -1.421805024147033691e+00 9.495071411132812500e+00 2.421980142593383789e+00 -1.750380396842956543e+00
1.542000000000000000e+03 3.885462188720703125e+01 -7.595612406730651855e-01 1.278006672859191895e+00 1.037163257598876953e+01 3.494891643524169922e+00 -1.926125049591064453e+00
1.543000000000000000e+03 6.392508316040039062e+01 2.055599784851074219e+01 -2.065842151641845703e-01 7.154844760894775391e+00 2.084478139877319336e+00 1.114894896745681763e-01
1.544000000000000000e+03 3.505683517456054688e+01 -8.592752456665039062e+00 -8.944246768951416016e-01 9.524498939514160156e+00 2.589022397994995117e+00 -2.078348159790039062e+00
1.545000000000000000e+03 1.331983852386474609e+01 -1.211296081542968750e+01 7.491165399551391602e-02 6.706579685211181641e+00 2.034447431564331055e+00 1.046633720397949219e+00
1.546000000000000000e+03 6.676221466064453125e+01 -1.033252811431884766e+01 -1.482350945472717285e+00 5.161748409271240234e+00 1.103819251060485840e+00 -2.655474424362182617e+00
1.547000000000000000e+03 6.714433288574218750e+01 -1.219151687622070312e+01 -1.497762680053710938e+00 6.407476902008056641e+00 1.472914338111877441e+00 -2.619979143142700195e+00
1.548000000000000000e+03 6.304776382446289062e+01 -1.031200218200683594e+01 -1.138313174247741699e+00 2.844006419181823730e-01 -2.561737596988677979e-01 -8.001895546913146973e-01
1.549000000000000000e+03 2.855058479309082031e+01 -7.076745510101318359e+00 -5.228680968284606934e-01 -6.349182128906250000e-01 -3.473359048366546631e-01 -5.654673576354980469e-01
1.550000000000000000e+03 4.865895843505859375e+01 -3.148002433776855469e+01 -1.386659741401672363e-01 4.642255306243896484e+00 1.351076841354370117e+00 -2.593072652816772461e+00
1.551000000000000000e+03 3.847007751464843750e+01 7.778629779815673828e+00 1.985272765159606934e+00 1.495828056335449219e+01 5.083065986633300781e+00 2.435935735702514648e+00
1.552000000000000000e+03 3.797087860107421875e+01 1.047709178924560547e+01 1.682790398597717285e+00 1.169290828704833984e+01 4.012709617614746094e+00 1.396092653274536133e+00
1.553000000000000000e+03 5.315515518188476562e+01 -1.245705032348632812e+01 -7.422217726707458496e-02 5.442416667938232422e-01 1.410058438777923584e-01 1.426732897758483887e+00
1.554000000000000000e+03 5.106486129760742188e+01 -1.185658454895019531e+01 5.336410403251647949e-01 9.306882023811340332e-01 4.392987489700317383e-01 2.043957233428955078e+00
1.555000000000000000e+03 1.292804718017578125e+01 1.006174945831298828e+01 1.186380863189697266e+00 7.190285205841064453e+00 2.512999773025512695e+00 -1.338636517524719238e+00
1.556000000000000000e+03 1.502552032470703125e+01 -2.968824195861816406e+01 -1.149088859558105469e+00 3.050495862960815430e+00 5.704221129417419434e-01 -1.666014343500137329e-01
1.557000000000000000e+03 6.920116424560546875e+01 -1.397468757629394531e+01 1.871554106473922729e-01 1.163944816589355469e+01 3.547981023788452148e+00 -8.532435894012451172e-01
1.558000000000000000e+03 6.965454101562500000e+01 -1.102294349670410156e+01 -1.548988461494445801e+00 9.029238700866699219e+00 2.244075059890747070e+00 -1.227660179138183594e+00
1.559000000000000000e+03 1.606635475158691406e+01 -1.065792465209960938e+01 -1.026933073997497559e+00 5.451921463012695312e+00 1.327496528625488281e+00 2.433230876922607422e+00
1.560000000000000000e+03 1.752604293823242188e+01 -1.089467906951904297e+01 -8.606476187705993652e-01 3.549600124359130859e+00 8.066858053207397461e-01 2.458484888076782227e+00
1.561000000000000000e+03 6.313796615600585938e+01 5.975983619689941406e+00 1.079924106597900391e+00 7.565649032592773438e+00 2.593672037124633789e+00 1.173280119895935059e+00
1.562000000000000000e+03 4.189059066772460938e+01 -5.674360752105712891e+00 -1.802558302879333496e+00 4.675159931182861328e+00 8.617804646492004395e-01 -1.675058722496032715e+00
1.563000000000000000e+03 4.324903869628906250e+01 -7.009428501129150391e+00 -8.844625353813171387e-01 3.359514951705932617e+00 7.425157427787780762e-01 -8.371368050575256348e-01
1.564000000000000000e+03 6.290335845947265625e+01 2.513213157653808594e+01 -1.204370975494384766e+00 5.606483936309814453e+00 1.320633888244628906e+00 -9.634639620780944824e-01
1.565000000000000000e+03 6.206314086914062500e+01 2.679792594909667969e+01 -8.017066121101379395e-01 4.624145030975341797e+00 1.146731615066528320e+00 -1.100179553031921387e+00
1.566000000000000000e+03 2.445206451416015625e+01 2.696463012695312500e+01 -6.159525513648986816e-01 9.806087017059326172e-01 1.093968525528907776e-01 -5.786941647529602051e-01
1.567000000000000000e+03 2.210762214660644531e+01 2.716737747192382812e+01 -5.463414788246154785e-01 6.868745088577270508e-01 4.215991497039794922e-02 -2.650139853358268738e-02
1.568000000000000000e+03 5.206603240966796875e+01 -1.229212665557861328e+01 3.361021280288696289e-01 7.462779283523559570e-01 3.247140347957611084e-01 1.815976738929748535e+00
1.569000000000000000e+03 5.154892730712890625e+01 -7.032426357269287109e+00 1.587630361318588257e-01 1.604528903961181641e+00 5.289875864982604980e-01 2.537190437316894531e+00
1.570000000000000000e+03 4.070626068115234375e+01 -5.962328910827636719e+00 -1.615645170211791992e+00 6.418787002563476562e+00 1.440942525863647461e+00 -1.887084007263183594e+00
1.571000000000000000e+03 4.215585708618164062e+01 -2.442685317993164062e+01 2.291122436523437500e+00 9.655063629150390625e+00 3.583855867385864258e+00 -1.431577086448669434e+00
1.572000000000000000e+03 4.274844360351562500e+01 -1.840600776672363281e+01 2.044857025146484375e+00 9.117588996887207031e+00 3.348733663558959961e+00 -8.376483917236328125e-01
1.573000000000000000e+03 4.299663925170898438e+01 -2.024540901184082031e+01 2.032882452011108398e+00 9.791486740112304688e+00 3.547310829162597656e+00 -1.082635045051574707e+00
1.574000000000000000e+03 3.732685089111328125e+01 -2.701307678222656250e+01 2.703794538974761963e-01 7.265580654144287109e+00 2.260787963867187500e+00 6.068084239959716797e-01
1.575000000000000000e+03 3.771642684936523438e+01 -2.488762855529785156e+01 1.223955512046813965e+00 8.277503967285156250e+00 2.850437879562377930e+00 2.118944376707077026e-01
1.576000000000000000e+03 2.094654464721679688e+01 -3.129249954223632812e+01 -1.159934759140014648e+00 7.989711165428161621e-01 -1.082890927791595459e-01 -5.504995584487915039e-01
1.577000000000000000e+03 2.531040573120117188e+01 -3.351904678344726562e+01 -6.812673807144165039e-01 3.326164186000823975e-01 -1.045952811837196350e-01 1.381187289953231812e-01
1.578000000000000000e+03 4.539985656738281250e+01 -5.648851394653320312e+00 -2.042071580886840820e+00 2.402065098285675049e-01 -5.405595302581787109e-01 4.842519462108612061e-01
1.579000000000000000e+03 1.349719333648681641e+01 1.360511207580566406e+01 1.787621378898620605e+00 1.058006668090820312e+01 3.710306406021118164e+00 -1.850951671600341797e+00
1.580000000000000000e+03 3.317472839355468750e+01 -6.237501621246337891e+00 -7.740108370780944824e-01 6.868607997894287109e+00 1.828379273414611816e+00 -1.960334300994873047e+00
1.581000000000000000e+03 7.037720489501953125e+01 -2.242805671691894531e+01 7.986499667167663574e-01 1.108820629119873047e+01 3.566056728363037109e+00 -2.038596421480178833e-01
1.582000000000000000e+03 7.222302246093750000e+01 -1.586133766174316406e+01 1.683661818504333496e+00 1.070739746093750000e+01 3.717317819595336914e+00 2.625880241394042969e-01
1.583000000000000000e+03 2.362563323974609375e+01 7.586076259613037109e-01 3.421667337417602539e+00 -1.820734620094299316e+00 4.802798330783843994e-01 1.705561429262161255e-01
1.584000000000000000e+03 2.386625289916992188e+01 -6.731647968292236328e+00 6.537440419197082520e-01 1.233687251806259155e-01 2.331338226795196533e-01 -2.915274202823638916e-01
1.585000000000000000e+03 1.573696804046630859e+01 2.376511383056640625e+01 -1.285158872604370117e+00 3.870409965515136719e+00 7.755753397941589355e-01 1.360938072204589844e+00
1.586000000000000000e+03 1.336907577514648438e+01 2.269834899902343750e+01 -1.013203144073486328e+00 5.501280307769775391e+00 1.346423149108886719e+00 -1.121302470564842224e-01
1.587000000000000000e+03 3.744997024536132812e+01 -5.341249704360961914e-01 1.485095858573913574e+00 1.030016994476318359e+01 3.535579919815063477e+00 -8.483884930610656738e-01
1.588000000000000000e+03 3.876509475708007812e+01 -3.658639430999755859e+00 -1.182080864906311035e+00 9.042938232421875000e+00 2.358257293701171875e+00 -1.625207901000976562e+00
1.589000000000000000e+03 6.528520202636718750e+01 1.992558479309082031e+01 2.465790510177612305e-01 7.736298084259033203e+00 2.394863128662109375e+00 3.275229036808013916e-01
1.590000000000000000e+03 1.499112606048583984e+01 -1.013089656829833984e+01 -1.120758414268493652e+00 5.924439907073974609e+00 1.441104412078857422e+00 2.138235807418823242e+00
1.591000000000000000e+03 4.439712524414062500e+01 -1.453544425964355469e+01 1.496246337890625000e+00 6.270082473754882812e+00 2.329898595809936523e+00 3.760043978691101074e-01
1.592000000000000000e+03 4.342739486694335938e+01 -1.623916435241699219e+01 1.857646465301513672e+00 7.914000988006591797e+00 2.931494235992431641e+00 -2.880287170410156250e-01
1.593000000000000000e+03 1.366532707214355469e+01 -2.169636344909667969e+01 9.691443443298339844e-01 7.370996952056884766e+00 2.502042293548583984e+00 -3.489131852984428406e-02
1.594000000000000000e+03 1.308544635772705078e+01 -2.043470764160156250e+01 1.490416288375854492e+00 8.096516609191894531e+00 2.876079797744750977e+00 2.039237767457962036e-01
1.595000000000000000e+03 3.424403381347656250e+01 -2.954290390014648438e+01 -5.365806818008422852e-01 4.690478801727294922e+00 1.246169447898864746e+00 1.400693416595458984e+00
1.596000000000000000e+03 6.145400238037109375e+01 2.385987663269042969e+01 -1.154144883155822754e+00 4.718284130096435547e+00 1.069241762161254883e+00 -1.557137608528137207e+00
1.597000000000000000e+03 5.573778915405273438e+01 2.659405899047851562e+01 -1.227554455399513245e-01 1.224319458007812500e+00 3.304691910743713379e-01 -4.664805904030799866e-02
1.598000000000000000e+03 3.293639373779296875e+01 -2.914020538330078125e+00 1.384309053421020508e+00 6.946393966674804688e+00 2.499211072921752930e+00 -1.163343191146850586e-01
1.599000000000000000e+03 3.124829101562500000e+01 2.220290374755859375e+01 -7.142921090126037598e-01 4.461024761199951172e+00 1.124019742012023926e+00 -9.740771055221557617e-01
1.600000000000000000e+03 2.976589584350585938e+01 -7.158055305480957031e+00 -5.366487503051757812e-01 7.713409662246704102e-01 7.040765881538391113e-02 -1.360025167465209961e+00
1.601000000000000000e+03 1.158161735534667969e+01 2.022713851928710938e+01 7.181799411773681641e-01 6.295578002929687500e+00 2.104127407073974609e+00 -1.263833999633789062e+00
1.602000000000000000e+03 1.231162834167480469e+01 -1.209731006622314453e+01 2.652947604656219482e-01 5.939245700836181641e+00 1.861362099647521973e+00 7.348009347915649414e-01
1.603000000000000000e+03 1.344057083129882812e+01 -1.401667690277099609e+01 1.306722640991210938e+00 7.603971004486083984e+00 2.673207998275756836e+00 1.005902886390686035e+00
1.604000000000000000e+03 6.056539154052734375e+01 2.567608070373535156e+01 -7.932406067848205566e-01 3.468062400817871094e+00 8.024464845657348633e-01 -1.317038059234619141e+00
1.605000000000000000e+03 4.892590522766113281e+00 -4.037948989868164062e+01 -1.536719948053359985e-01 2.752753734588623047e+00 7.797244787216186523e-01 1.366777718067169189e-01
1.606000000000000000e+03 8.135146141052246094e+00 -4.115654373168945312e+01 -3.165425658226013184e-01 2.519959926605224609e+00 6.610251665115356445e-01 7.890839874744415283e-02
1.607000000000000000e+03 5.050879001617431641e+00 4.036523437500000000e+01 -8.537199348211288452e-02 2.632671356201171875e+00 7.641897797584533691e-01 -8.087768405675888062e-02
1.608000000000000000e+03 1.470727157592773438e+01 2.390169382095336914e+00 1.468748927116394043e+00 5.987784385681152344e+00 2.236959934234619141e+00 -5.410325050354003906e+00
1.609000000000000000e+03 1.547916412353515625e+01 2.357649803161621094e+00 8.191552758216857910e-01 9.659032821655273438e+00 3.143456459045410156e+00 -5.808799266815185547e+00
1.610000000000000000e+03 1.712581634521484375e+01 6.236395359039306641e+00 -2.117607355117797852e+00 6.880079746246337891e+00 1.428741693496704102e+00 -2.175780534744262695e+00
1.611000000000000000e+03 1.512235069274902344e+01 -2.326180219650268555e+00 1.601470351219177246e+00 6.973514080047607422e+00 2.572495222091674805e+00 4.408772945404052734e+00
1.612000000000000000e+03 1.488212013244628906e+01 -2.243778228759765625e+00 1.907170057296752930e+00 5.905885696411132812e+00 2.343916654586791992e+00 4.425151824951171875e+00
1.613000000000000000e+03 1.513795566558837891e+01 2.991569042205810547e+00 2.022601962089538574e-01 8.045128822326660156e+00 2.474216461181640625e+00 -5.197360038757324219e+00
1.614000000000000000e+03 1.617592430114746094e+01 -1.980095505714416504e+00 1.096159696578979492e+00 1.196371841430664062e+01 3.917963504791259766e+00 2.694377660751342773e+00
1.615000000000000000e+03 1.794132614135742188e+01 -9.611060619354248047e-01 6.785399436950683594e+00 9.572710990905761719e+00 4.907433032989501953e+00 -3.159772396087646484e+00
1.616000000000000000e+03 1.802462959289550781e+01 1.061393618583679199e-01 9.467633247375488281e+00 8.463272094726562500e+00 5.379271507263183594e+00 -1.208303451538085938e+00
1.617000000000000000e+03 1.694048881530761719e+01 1.969083905220031738e+00 1.462017536163330078e+00 1.383822441101074219e+01 4.590072631835937500e+00 -1.182927370071411133e+00
1.618000000000000000e+03 1.799491310119628906e+01 6.564463376998901367e-01 8.631787300109863281e+00 8.844206809997558594e+00 5.242798328399658203e+00 2.208012193441390991e-01
1.619000000000000000e+03 1.721093940734863281e+01 -1.624674677848815918e+00 2.995602846145629883e+00 1.280994129180908203e+01 4.741662979125976562e+00 -1.695642948150634766e+00
1.620000000000000000e+03 2.040051460266113281e+01 3.241873741149902344e+00 7.541417479515075684e-01 2.175849437713623047e+00 8.789973855018615723e-01 5.992376804351806641e-01
1.621000000000000000e+03 1.766610908508300781e+01 -1.045689940452575684e+00 6.222108840942382812e+00 1.113179111480712891e+01 5.206170082092285156e+00 -3.219623804092407227e+00
1.622000000000000000e+03 1.737842941284179688e+01 2.114997625350952148e+00 1.922222852706909180e+00 1.179352188110351562e+01 4.114723205566406250e+00 -2.369450628757476807e-01
1.623000000000000000e+03 1.406736087799072266e+01 1.717162013053894043e+00 2.338505268096923828e+00 2.499557018280029297e+00 1.451418638229370117e+00 -3.921970605850219727e+00
1.624000000000000000e+03 1.390097141265869141e+01 -1.696366906166076660e+00 2.160753488540649414e+00 1.889691710472106934e+00 1.215133547782897949e+00 2.777103185653686523e+00
1.625000000000000000e+03 1.258812904357910156e+01 -2.542917251586914062e+00 1.106898546218872070e+00 1.358018636703491211e+00 7.394751310348510742e-01 1.929737210273742676e+00
1.626000000000000000e+03 1.155838680267333984e+01 2.925720453262329102e+00 1.678428947925567627e-01 1.461839079856872559e+00 4.889045953750610352e-01 -1.463286995887756348e+00
1.627000000000000000e+03 1.090029716491699219e+01 4.318732261657714844e+00 1.793695539236068726e-01 2.214937210083007812e+00 7.182920575141906738e-01 -1.235670089721679688e+00
1.628000000000000000e+03 9.465587615966796875e+00 3.151338815689086914e+00 -3.487035632133483887e-01 7.828434705734252930e-01 1.302419751882553101e-01 -1.241775751113891602e-01
1.629000000000000000e+03 8.240174293518066406e+00 -3.403840780258178711e+00 -1.080907136201858521e-01 4.555169343948364258e-01 1.042278632521629333e-01 -2.269335836172103882e-02
1.630000000000000000e+03 8.335837364196777344e+00 -4.195061683654785156e+00 4.885262623429298401e-02 7.423873543739318848e-01 2.373719960451126099e-01 9.578116238117218018e-02
1.631000000000000000e+03 7.451653003692626953e+00 -4.282379627227783203e+00 -1.460544951260089874e-02 5.456686019897460938e-01 1.593189388513565063e-01 -1.659641116857528687e-01
1.632000000000000000e+03 6.586910724639892578e+00 -4.367056846618652344e+00 -5.557962879538536072e-02 3.792356252670288086e-01 9.709680080413818359e-02 -3.378200232982635498e-01
1.633000000000000000e+03 5.709839344024658203e+00 -4.442030906677246094e+00 -6.710833311080932617e-02 2.174725681543350220e-01 4.510926827788352966e-02 -4.674376845359802246e-01
1.634000000000000000e+03 3.789624691009521484e+00 -9.150103569030761719e+00 1.078253835439682007e-01 -1.359229087829589844e-01 -8.429259061813354492e-03 -4.561173319816589355e-01
1.635000000000000000e+03 3.225589036941528320e+00 -3.447801589965820312e+00 -1.298000365495681763e-01 -1.802737265825271606e-01 -9.302212297916412354e-02 -4.841356873512268066e-01
1.636000000000000000e+03 3.802543878555297852e+00 -6.596661567687988281e+00 4.836881533265113831e-02 -1.388779729604721069e-01 -2.715274877846240997e-02 -5.448773503303527832e-01
1.637000000000000000e+03 2.777566909790039062e+00 -5.340611457824707031e+00 -3.087328048422932625e-03 -3.799034655094146729e-01 -1.148972362279891968e-01 -5.163967013359069824e-01
1.638000000000000000e+03 9.205372810363769531e+00 -4.009024620056152344e+00 1.354279220104217529e-01 8.808883428573608398e-01 3.048948943614959717e-01 3.901492655277252197e-01
1.639000000000000000e+03 1.021122169494628906e+01 -4.368674278259277344e+00 3.036867380142211914e-01 1.353709578514099121e+00 4.972188770771026611e-01 9.079157710075378418e-01
1.640000000000000000e+03 1.152718544006347656e+01 3.550952434539794922e+00 2.308883368968963623e-01 1.988316893577575684e+00 6.657615900039672852e-01 -1.648416399955749512e+00
1.641000000000000000e+03 7.899104118347167969e+00 3.298473834991455078e+00 -4.261441528797149658e-01 4.540622532367706299e-01 8.375423960387706757e-03 4.445595741271972656e-01
1.642000000000000000e+03 6.346890449523925781e+00 4.216265201568603516e+00 -1.574154496192932129e-01 3.283012807369232178e-01 5.126574635505676270e-02 7.319493889808654785e-01
1.643000000000000000e+03 7.132368564605712891e+00 4.128843307495117188e+00 -1.472177207469940186e-01 4.846429526805877686e-01 1.012275740504264832e-01 6.011543273925781250e-01
1.644000000000000000e+03 5.736352443695068359e+00 6.517909049987792969e+00 2.517524957656860352e-01 4.084360599517822266e-01 1.980565637350082397e-01 7.096874117851257324e-01
1.645000000000000000e+03 4.753483772277832031e+00 3.539564847946166992e+00 -2.944782674312591553e-01 -5.860866606235504150e-02 -1.059260815382003784e-01 8.492663502693176270e-01
1.646000000000000000e+03 2.663939714431762695e+00 6.513419628143310547e+00 9.171848744153976440e-02 -8.065026402473449707e-01 -2.144352346658706665e-01 7.365806102752685547e-01
1.647000000000000000e+03 4.157861709594726562e+00 4.415353298187255859e+00 -9.425653517246246338e-02 -1.626977920532226562e-01 -7.708629965782165527e-02 8.787312507629394531e-01
1.648000000000000000e+03 3.588304758071899414e+00 6.010384082794189453e+00 9.516392648220062256e-02 -4.160773158073425293e-01 -9.627401828765869141e-02 8.173483610153198242e-01
1.649000000000000000e+03 1.487954258918762207e+00 5.288250446319580078e+00 1.440428756177425385e-02 -9.806296229362487793e-01 -2.898676097393035889e-01 5.261074900627136230e-01
1.650000000000000000e+03 9.455302238464355469e+00 3.841435194015502930e+00 -7.872303575277328491e-02 1.147018194198608398e+00 3.204885423183441162e-01 -2.315846532583236694e-01
1.651000000000000000e+03 8.694095611572265625e+00 3.939563989639282227e+00 -1.197004392743110657e-01 8.898028731346130371e-01 2.310307323932647705e-01 1.245580539107322693e-01
1.652000000000000000e+03 5.740827178955078125e+01 -6.877688884735107422e+00 7.457082271575927734e-01 1.776367068290710449e+00 7.566226124763488770e-01 1.309525012969970703e+00
1.653000000000000000e+03 2.277683830261230469e+01 -6.991534709930419922e+00 4.348280131816864014e-01 7.147096991539001465e-01 3.448612987995147705e-01 -3.103520274162292480e-01
1.654000000000000000e+03 4.050817871093750000e+01 1.773698616027832031e+01 1.075041219592094421e-01 5.940104961395263672e+00 1.814282774925231934e+00 1.494833588600158691e+00
1.655000000000000000e+03 2.912089157104492188e+01 -2.457259178161621094e+00 3.941475868225097656e+00 1.555672883987426758e+00 1.649144649505615234e+00 2.899364829063415527e-01
1.656000000000000000e+03 1.236284542083740234e+01 1.324865150451660156e+01 1.984630703926086426e+00 7.780020713806152344e+00 2.929395437240600586e+00 -1.459767699241638184e+00
1.657000000000000000e+03 1.270069122314453125e+01 1.212528324127197266e+01 1.903045177459716797e+00 7.932484149932861328e+00 2.950658798217773438e+00 -1.329077720642089844e+00
1.658000000000000000e+03 2.046945762634277344e+01 -8.109431266784667969e+00 -4.664048552513122559e-01 2.051567077636718750e+00 4.755486547946929932e-01 4.332440197467803955e-01
1.659000000000000000e+03 1.971196174621582031e+01 -8.269476890563964844e+00 -6.573947072029113770e-01 2.612434387207031250e+00 5.865118503570556641e-01 8.345079421997070312e-01
1.660000000000000000e+03 1.963179397583007812e+01 4.352280616760253906e+00 -1.178140282630920410e+00 3.030534267425537109e+00 5.557181835174560547e-01 1.825790852308273315e-01
1.661000000000000000e+03 1.835612106323242188e+01 4.932260036468505859e+00 -1.771715998649597168e+00 6.061857223510742188e+00 1.287042379379272461e+00 -1.117873549461364746e+00
1.662000000000000000e+03 4.631893157958984375e+01 1.868628692626953125e+01 5.670253038406372070e-01 2.144819259643554688e+00 8.135533928871154785e-01 1.447106719017028809e+00
1.663000000000000000e+03 2.184276390075683594e+01 -6.957005023956298828e+00 4.282432198524475098e-01 1.279898047447204590e+00 5.124424099922180176e-01 -1.580560803413391113e-01
1.664000000000000000e+03 1.553304195404052734e+01 7.243050575256347656e+00 -1.047591090202331543e+00 7.756105422973632812e+00 2.012554168701171875e+00 -2.665521383285522461e+00
1.665000000000000000e+03 1.646615791320800781e+01 7.361293792724609375e+00 -1.004967927932739258e+00 6.901220798492431641e+00 1.768875837326049805e+00 -2.562035322189331055e+00
1.666000000000000000e+03 1.519436168670654297e+01 -1.097079753875732422e+01 -9.624426364898681641e-01 6.297504901885986328e+00 1.600518703460693359e+00 2.190170288085937500e+00
1.667000000000000000e+03 1.408384037017822266e+01 -9.504081726074218750e+00 -1.024298548698425293e+00 5.757369518280029297e+00 1.419921278953552246e+00 1.968935608863830566e+00
1.668000000000000000e+03 1.412846755981445312e+01 9.929679870605468750e+00 1.175412774085998535e+00 8.348581314086914062e+00 2.857198238372802734e+00 -2.058431625366210938e+00
1.669000000000000000e+03 1.413299655914306641e+01 7.976601600646972656e+00 -3.017001450061798096e-01 7.191662311553955078e+00 2.066988706588745117e+00 -2.128101587295532227e+00
1.670000000000000000e+03 1.459034347534179688e+01 7.592330455780029297e+00 -6.097381114959716797e-01 7.397544860839843750e+00 2.036341905593872070e+00 -2.327036142349243164e+00
1.671000000000000000e+03 2.869704627990722656e+01 -3.634047269821166992e+00 3.191618442535400391e+00 9.306272268295288086e-01 1.236673712730407715e+00 1.644725352525711060e-02
1.672000000000000000e+03 2.384131813049316406e+01 -2.768355011940002441e-01 4.335390090942382812e+00 -1.638916969299316406e+00 8.089419603347778320e-01 -2.387245148420333862e-01
1.673000000000000000e+03 2.183374977111816406e+01 2.011923313140869141e+00 2.609575748443603516e+00 -5.994845628738403320e-01 6.030273437500000000e-01 3.840706944465637207e-01
1.674000000000000000e+03 4.460462570190429688e+01 -8.258343696594238281e+00 -1.484417822211980820e-02 2.578527927398681641e+00 7.691050767898559570e-01 8.178388699889183044e-03
1.675000000000000000e+03 1.186318492889404297e+01 -2.120196533203125000e+01 1.066898226737976074e+00 6.018466472625732422e+00 2.125609397888183594e+00 1.122122168540954590e+00
1.676000000000000000e+03 1.865206336975097656e+01 4.163840770721435547e+00 -1.129398107528686523e+00 6.001614093780517578e+00 1.461664676666259766e+00 -6.294002532958984375e-01
1.677000000000000000e+03 1.238573932647705078e+01 1.582079505920410156e+01 1.413977861404418945e+00 8.992411613464355469e+00 3.121916770935058594e+00 -1.239382028579711914e+00
1.678000000000000000e+03 1.189231109619140625e+01 1.001437187194824219e+01 1.072660803794860840e+00 6.091430664062500000e+00 2.149227380752563477e+00 -9.980849623680114746e-01
1.679000000000000000e+03 2.238302612304687500e+01 1.246346354484558105e+00 3.423446655273437500e+00 -1.034273982048034668e+00 7.167518138885498047e-01 9.578894078731536865e-02
1.680000000000000000e+03 2.278919601440429688e+01 4.180471003055572510e-01 4.191456317901611328e+00 -1.227965831756591797e+00 8.890470862388610840e-01 -2.734950184822082520e-01
1.681000000000000000e+03 5.609503936767578125e+01 -1.098612689971923828e+01 -6.917793154716491699e-01 8.674149513244628906e-01 5.269068479537963867e-02 1.136590480804443359e+00
1.682000000000000000e+03 5.704873275756835938e+01 -1.066078758239746094e+01 -7.557475566864013672e-01 9.881898760795593262e-01 6.973270326852798462e-02 9.085193276405334473e-01
1.683000000000000000e+03 1.543274974822998047e+01 -1.188517665863037109e+01 -1.374870389699935913e-01 6.378832817077636719e+00 1.872403621673583984e+00 2.042708396911621094e+00
1.684000000000000000e+03 1.228618431091308594e+01 1.893550300598144531e+01 1.241775751113891602e+00 7.121618747711181641e+00 2.509018421173095703e+00 -9.836694002151489258e-01
1.685000000000000000e+03 2.169837570190429688e+01 7.956321835517883301e-01 4.422356128692626953e+00 -1.527642458677291870e-01 1.280877590179443359e+00 -3.449284136295318604e-01
1.686000000000000000e+03 3.797700500488281250e+01 1.184775924682617188e+01 1.088283658027648926e+00 1.045432472229003906e+01 3.462782382965087891e+00 9.349560737609863281e-01
1.687000000000000000e+03 7.543040466308593750e+01 1.289641666412353516e+01 2.347212582826614380e-01 6.668181419372558594e+00 2.070870876312255859e+00 1.294575482606887817e-01
1.688000000000000000e+03 7.540975189208984375e+01 -7.541201114654541016e-01 -1.076036617159843445e-01 7.250545024871826172e+00 2.142882347106933594e+00 -5.727087259292602539e-01
1.689000000000000000e+03 7.569136810302734375e+01 -1.469116497039794922e+01 4.207769036293029785e-01 8.052508354187011719e+00 2.541985750198364258e+00 6.816427111625671387e-01
1.690000000000000000e+03 7.158331298828125000e+01 -1.286886787414550781e+01 -2.459375560283660889e-01 1.004989719390869141e+01 2.941187858581542969e+00 2.855666577816009521e-01
1.691000000000000000e+03 7.576187133789062500e+01 -1.341291046142578125e+01 1.224284395575523376e-01 8.036570549011230469e+00 2.447699546813964844e+00 9.019720554351806641e-01
1.692000000000000000e+03 7.694420623779296875e+01 -1.218517684936523438e+01 -5.938851088285446167e-02 7.648417472839355469e+00 2.276708602905273438e+00 7.871125936508178711e-01
1.693000000000000000e+03 7.673143005371093750e+01 -6.489315509796142578e+00 -2.726441919803619385e-01 7.844500541687011719e+00 2.271556854248046875e+00 3.990015760064125061e-02
1.694000000000000000e+03 7.534089660644531250e+01 -7.796035289764404297e+00 -5.207942128181457520e-01 8.009108543395996094e+00 2.246494293212890625e+00 1.477614194154739380e-01
1.695000000000000000e+03 7.547683715820312500e+01 -3.494858264923095703e+00 -2.811064124107360840e-01 7.532429695129394531e+00 2.175396919250488281e+00 -4.282034039497375488e-01
1.696000000000000000e+03 7.548724365234375000e+01 -4.889695167541503906e+00 -3.519805967807769775e-01 7.681760787963867188e+00 2.198934078216552734e+00 -2.850948870182037354e-01
1.697000000000000000e+03 7.680602264404296875e+01 1.839132666587829590e+00 1.993022859096527100e-02 7.062418937683105469e+00 2.124704837799072266e+00 -4.722169339656829834e-01
1.698000000000000000e+03 7.549225616455078125e+01 2.022770643234252930e+00 2.876380831003189087e-02 7.011123657226562500e+00 2.111966133117675781e+00 -5.703344941139221191e-01
1.699000000000000000e+03 7.566899108886718750e+01 6.055090904235839844e+00 1.541834473609924316e-01 6.755567550659179688e+00 2.072925329208374023e+00 -4.126701653003692627e-01
1.700000000000000000e+03 7.557639312744140625e+01 3.387221813201904297e+00 8.436597138643264771e-02 6.920688629150390625e+00 2.101516246795654297e+00 -5.472607612609863281e-01
1.701000000000000000e+03 7.544262695312500000e+01 6.357368826866149902e-01 -1.283761672675609589e-02 7.119763374328613281e+00 2.132077693939208984e+00 -6.051498651504516602e-01
1.702000000000000000e+03 7.565853881835937500e+01 4.735358238220214844e+00 1.140393614768981934e-01 6.825549125671386719e+00 2.081876516342163086e+00 -4.741212725639343262e-01
1.703000000000000000e+03 7.430533599853515625e+01 3.607953548431396484e+00 1.319450139999389648e-01 6.895180225372314453e+00 2.108137607574462891e+00 -5.901899933815002441e-01
1.704000000000000000e+03 7.602986145019531250e+01 -1.678330039978027344e+01 7.231965065002441406e-01 7.881505489349365234e+00 2.581410646438598633e+00 2.114711254835128784e-01
1.705000000000000000e+03 7.495387268066406250e+01 -2.279298210144042969e+01 3.049296438694000244e-01 8.660592079162597656e+00 2.689656496047973633e+00 -1.327371597290039062e+00
1.706000000000000000e+03 7.691175842285156250e+01 -1.895944976806640625e+01 4.719698727130889893e-01 7.349222660064697266e+00 2.346357822418212891e+00 -3.676373362541198730e-01
1.707000000000000000e+03 7.476698303222656250e+01 -2.089222145080566406e+01 7.819108963012695312e-01 8.681744575500488281e+00 2.839096546173095703e+00 -1.043949365615844727e+00
1.708000000000000000e+03 7.701219940185546875e+01 -1.757092666625976562e+01 5.218482613563537598e-01 7.216782093048095703e+00 2.321589231491088867e+00 -2.056975476443767548e-02
1.709000000000000000e+03 7.517752075195312500e+01 -1.565931892395019531e+01 7.985494732856750488e-01 8.264138221740722656e+00 2.718806266784667969e+00 6.157306432723999023e-01
1.710000000000000000e+03 7.682251739501953125e+01 8.651325225830078125e+00 1.130427643656730652e-01 6.537895202636718750e+00 1.995281338691711426e+00 -1.893102824687957764e-01
1.711000000000000000e+03 7.562390899658203125e+01 7.358297824859619141e+00 1.740758717060089111e-01 6.699139595031738281e+00 2.061964511871337891e+00 -3.193714320659637451e-01
1.712000000000000000e+03 7.193802642822265625e+01 3.347464370727539062e+01 -1.866370886564254761e-01 6.770688533782958984e+00 1.975215435028076172e+00 2.887951396405696869e-02
1.713000000000000000e+03 7.531231689453125000e+01 3.165278625488281250e+01 -1.106549575924873352e-01 7.490820884704589844e+00 2.214049816131591797e+00 1.458262354135513306e-01
1.714000000000000000e+03 7.551757049560546875e+01 1.006137943267822266e+01 2.274862080812454224e-01 6.644340038299560547e+00 2.061547756195068359e+00 -1.164058521389961243e-01
1.715000000000000000e+03 7.432509613037109375e+01 8.666245460510253906e+00 3.041906058788299561e-01 6.758927345275878906e+00 2.118935346603393555e+00 -2.499685138463973999e-01
1.716000000000000000e+03 7.540154266357421875e+01 1.578712558746337891e+01 1.928868442773818970e-01 6.776883125305175781e+00 2.090930938720703125e+00 3.678788542747497559e-01
1.717000000000000000e+03 7.438095855712890625e+01 -2.955000305175781250e+01 -5.857162475585937500e-01 8.686225891113281250e+00 2.430152893066406250e+00 -7.318248152732849121e-01
1.718000000000000000e+03 7.678344726562500000e+01 -2.846746444702148438e+01 -2.146645337343215942e-01 8.924207687377929688e+00 2.612862825393676758e+00 -8.399403691291809082e-01
1.719000000000000000e+03 7.563918304443359375e+01 -2.412611579895019531e+01 2.236206457018852234e-02 8.572982788085937500e+00 2.578603506088256836e+00 -1.339263677597045898e+00
1.720000000000000000e+03 7.667874145507812500e+01 1.716465187072753906e+01 8.475106954574584961e-02 6.749103546142578125e+00 2.050156354904174805e+00 3.726626932621002197e-01
1.721000000000000000e+03 7.532858276367187500e+01 1.730877876281738281e+01 1.642754375934600830e-01 6.862417221069335938e+00 2.108007907867431641e+00 4.758681058883666992e-01
1.722000000000000000e+03 7.569515228271484375e+01 2.022186851501464844e+01 4.128132760524749756e-02 7.043819427490234375e+00 2.125530242919921875e+00 5.579319596290588379e-01
1.723000000000000000e+03 7.298789215087890625e+01 1.741492080688476562e+01 3.017082214355468750e-01 7.015801906585693359e+00 2.195253133773803711e+00 5.809551477432250977e-01
1.724000000000000000e+03 7.578105926513671875e+01 2.133658790588378906e+01 -1.862056367099285126e-02 7.127727508544921875e+00 2.132732152938842773e+00 5.478456020355224609e-01
1.725000000000000000e+03 7.487187957763671875e+01 -2.534998893737792969e+01 -2.334077954292297363e-01 8.825274467468261719e+00 2.577559947967529297e+00 -1.328002452850341797e+00
1.726000000000000000e+03 7.572992706298828125e+01 -2.193343925476074219e+01 4.359546601772308350e-01 8.336747169494628906e+00 2.631810665130615234e+00 -1.195496559143066406e+00
1.727000000000000000e+03 7.453923797607421875e+01 -2.631657028198242188e+01 -3.699894845485687256e-01 8.812165260314941406e+00 2.532652616500854492e+00 -1.235931754112243652e+00
1.728000000000000000e+03 7.530323791503906250e+01 2.394821929931640625e+01 -9.859507530927658081e-02 7.287246227264404297e+00 2.156595230102539062e+00 5.197545289993286133e-01
1.729000000000000000e+03 7.648007202148437500e+01 2.690126609802246094e+01 -8.937025070190429688e-02 7.534295082092285156e+00 2.233477592468261719e+00 3.404486179351806641e-01
1.730000000000000000e+03 7.505772399902343750e+01 2.700665092468261719e+01 -1.612208485603332520e-01 7.395302295684814453e+00 2.170224428176879883e+00 3.899438381195068359e-01
1.731000000000000000e+03 7.642695617675781250e+01 2.978097534179687500e+01 -6.897975504398345947e-02 7.676675796508789062e+00 2.282308816909790039e+00 2.009107023477554321e-01
1.732000000000000000e+03 7.491807556152343750e+01 2.844355010986328125e+01 -1.756071746349334717e-01 7.385102272033691406e+00 2.162848472595214844e+00 3.039856851100921631e-01
1.733000000000000000e+03 7.378279876708984375e+01 2.769905090332031250e+01 -2.266512364149093628e-01 7.265139102935791016e+00 2.111546277999877930e+00 3.555197417736053467e-01
1.734000000000000000e+03 7.406320190429687500e+01 -3.745204925537109375e+01 -1.224288791418075562e-01 7.825400352478027344e+00 2.310891389846801758e+00 -6.080599129199981689e-02
1.735000000000000000e+03 7.625971221923828125e+01 -3.360610580444335938e+01 -2.525417208671569824e-01 9.078122138977050781e+00 2.647674083709716797e+00 -2.459351867437362671e-01
1.736000000000000000e+03 7.548556518554687500e+01 -2.946887588500976562e+01 -4.115628600120544434e-01 8.871248245239257812e+00 2.537905693054199219e+00 -7.851696014404296875e-01
1.737000000000000000e+03 7.458195495605468750e+01 -3.435097122192382812e+01 -3.078651726245880127e-01 8.364827156066894531e+00 2.417088747024536133e+00 -1.669581085443496704e-01
1.738000000000000000e+03 7.482463836669921875e+01 -3.645308685302734375e+01 -2.074112445116043091e-01 8.360278129577636719e+00 2.445859909057617188e+00 -1.784494072198867798e-01
1.739000000000000000e+03 7.481256866455078125e+01 3.004817581176757812e+01 -1.572177559137344360e-01 7.391954898834228516e+00 2.170421123504638672e+00 2.342860549688339233e-01
1.740000000000000000e+03 1.867942047119140625e+01 -8.961522102355957031e+00 -9.542446732521057129e-01 3.031192541122436523e+00 6.230843663215637207e-01 1.514053463935852051e+00
1.741000000000000000e+03 2.854802513122558594e+01 -5.925943851470947266e+00 1.193343281745910645e+00 8.821414411067962646e-02 3.844672441482543945e-01 -5.936709046363830566e-01
1.742000000000000000e+03 2.660495948791503906e+01 -1.715635895729064941e+00 4.755581855773925781e+00 -7.424109578132629395e-01 1.203951239585876465e+00 1.305487006902694702e-01
1.743000000000000000e+03 6.065399932861328125e+01 -1.064132690429687500e+00 1.346489071846008301e+00 3.808985233306884766e+00 1.546642303466796875e+00 1.287463307380676270e+00
1.744000000000000000e+03 6.241885375976562500e+01 1.346966028213500977e+00 9.485360980033874512e-01 5.364344596862792969e+00 1.893864154815673828e+00 9.997006058692932129e-01
1.745000000000000000e+03 4.074532699584960938e+01 -2.159716224670410156e+01 2.044087886810302734e+00 9.453823089599609375e+00 3.449373245239257812e+00 -1.326382279396057129e+00
1.746000000000000000e+03 4.154444694519042969e+00 -1.599831104278564453e+01 3.623545169830322266e-01 1.992068290710449219e-01 1.684684008359909058e-01 2.259025871753692627e-01
1.747000000000000000e+03 4.581819534301757812e+00 2.118322944641113281e+01 8.223529160022735596e-02 1.374256491661071777e+00 4.369475245475769043e-01 -1.359051227569580078e+00
1.748000000000000000e+03 3.100047826766967773e+00 2.018614006042480469e+01 1.191720366477966309e-01 2.270434945821762085e-01 1.038646548986434937e-01 -1.029463887214660645e+00
1.749000000000000000e+03 5.322263717651367188e+00 2.219953536987304688e+01 -2.348273247480392456e-02 1.846378684043884277e+00 5.468688011169433594e-01 -1.450729489326477051e+00
1.750000000000000000e+03 4.242742061614990234e+00 -1.871637344360351562e+01 4.449322223663330078e-01 5.062035918235778809e-01 2.853407561779022217e-01 7.090948820114135742e-01
1.751000000000000000e+03 4.155504703521728516e+00 -1.737533760070800781e+01 4.672799110412597656e-01 3.392044901847839355e-01 2.419453114271163940e-01 4.474027156829833984e-01
1.752000000000000000e+03 4.666085243225097656e+00 2.888286590576171875e+01 -2.931138277053833008e-01 2.289690494537353516e+00 5.989729762077331543e-01 -7.771447896957397461e-01
1.753000000000000000e+03 4.023486137390136719e+00 1.727718544006347656e+01 4.032053053379058838e-01 3.287002742290496826e-01 2.195716798305511475e-01 -8.962897658348083496e-01
1.754000000000000000e+03 4.244557857513427734e+00 1.858458900451660156e+01 3.041901886463165283e-01 6.691902279853820801e-01 2.920141220092773438e-01 -1.090553283691406250e+00
1.755000000000000000e+03 2.998964309692382812e+00 1.878866386413574219e+01 1.379673629999160767e-01 -1.949058622121810913e-01 -1.708155311644077301e-02 -8.786123394966125488e-01
1.756000000000000000e+03 4.241380691528320312e+00 1.997360801696777344e+01 1.817954927682876587e-01 8.737581372261047363e-01 3.166660964488983154e-01 -1.221994638442993164e+00
1.757000000000000000e+03 4.766106128692626953e+00 -2.839645385742187500e+01 -2.259110659360885620e-01 2.112772226333618164e+00 5.660583376884460449e-01 1.085600376129150391e+00
1.758000000000000000e+03 3.247514486312866211e+00 -2.309830474853515625e+01 6.429909914731979370e-02 6.279339790344238281e-01 2.076699286699295044e-01 9.736114144325256348e-01
1.759000000000000000e+03 4.605820178985595703e+00 -2.298344230651855469e+01 1.480970084667205811e-01 1.303361773490905762e+00 4.354376494884490967e-01 1.240448951721191406e+00
1.760000000000000000e+03 2.752258777618408203e+00 1.485230255126953125e+01 1.859566122293472290e-01 -1.026458740234375000e+00 -2.521506249904632568e-01 -2.991611659526824951e-01
1.761000000000000000e+03 3.700801134109497070e+00 1.355612850189208984e+01 3.711262643337249756e-01 -4.103837311267852783e-01 -1.177723612636327744e-02 -1.420874893665313721e-01
1.762000000000000000e+03 4.555711746215820312e+00 -2.152350807189941406e+01 2.521595656871795654e-01 1.068048357963562012e+00 3.960623741149902344e-01 1.101866960525512695e+00
1.763000000000000000e+03 9.461688995361328125e+00 -1.670850372314453125e+01 1.567696452140808105e+00 4.213624954223632812e+00 1.734396338462829590e+00 6.456218361854553223e-01
1.764000000000000000e+03 4.463893890380859375e+00 2.496594238281250000e+01 -2.598128616809844971e-01 1.853146314620971680e+00 4.780000448226928711e-01 -1.198311686515808105e+00
1.765000000000000000e+03 5.606711387634277344e+00 2.513246154785156250e+01 -3.300073742866516113e-01 2.351778984069824219e+00 6.065315008163452148e-01 -1.296214818954467773e+00
1.766000000000000000e+03 5.890589237213134766e+00 -2.441720962524414062e+01 2.704480849206447601e-02 2.133428812026977539e+00 6.481420993804931641e-01 1.433794498443603516e+00
1.767000000000000000e+03 4.576210975646972656e+00 -2.442233276367187500e+01 1.808613538742065430e-02 1.550207972526550293e+00 4.704882204532623291e-01 1.261769533157348633e+00
1.768000000000000000e+03 3.257599592208862305e+00 -2.451109313964843750e+01 2.559894695878028870e-02 9.238456487655639648e-01 2.848333716392517090e-01 1.025206685066223145e+00
1.769000000000000000e+03 3.800727367401123047e+00 -1.048324680328369141e+01 1.297928094863891602e-01 -1.226346418261528015e-01 2.147450344637036324e-03 -3.966452181339263916e-01
1.770000000000000000e+03 4.088194847106933594e+00 -1.459910202026367188e+01 3.602668642997741699e-01 9.418919682502746582e-02 1.363368183374404907e-01 1.966357976198196411e-02
1.771000000000000000e+03 5.444667339324951172e+00 1.141833209991455078e+01 6.889083981513977051e-01 7.371405959129333496e-01 4.278147220611572266e-01 1.009468361735343933e-01
1.772000000000000000e+03 3.716746330261230469e+00 -2.996800041198730469e+01 -1.644970476627349854e-01 2.062186956405639648e+00 5.693069696426391602e-01 8.302253484725952148e-01
1.773000000000000000e+03 5.018319606781005859e+00 -2.962378120422363281e+01 -2.982719242572784424e-01 2.293244123458862305e+00 5.984916687011718750e-01 1.001134395599365234e+00
1.774000000000000000e+03 5.296963214874267578e+00 3.586796188354492188e+01 -1.777902245521545410e-01 2.571465492248535156e+00 7.181025743484497070e-01 -2.538804709911346436e-01
1.775000000000000000e+03 3.690534591674804688e+00 3.572692489624023438e+01 -1.074348017573356628e-01 2.597674608230590820e+00 7.470719218254089355e-01 -2.267231941223144531e-01
1.776000000000000000e+03 4.125100135803222656e+00 1.120253753662109375e+01 4.317862689495086670e-01 -1.535247862339019775e-01 8.347844332456588745e-02 2.377126365900039673e-01
1.777000000000000000e+03 6.628287792205810547e+00 -5.225389480590820312e+00 4.271693527698516846e-02 5.756250619888305664e-01 1.855026036500930786e-01 -2.937998175621032715e-01
1.778000000000000000e+03 3.849225521087646484e+00 -1.182606029510498047e+01 1.948007494211196899e-01 -8.082892745733261108e-02 3.419154882431030273e-02 -3.178777098655700684e-01
1.779000000000000000e+03 7.569353580474853516e+00 -3.112273025512695312e+01 -5.693315863609313965e-01 2.805193424224853516e+00 6.707585453987121582e-01 8.955718874931335449e-01
1.780000000000000000e+03 5.491285800933837891e+00 -3.083016777038574219e+01 -3.418282866477966309e-01 2.470909595489501953e+00 6.387243866920471191e-01 9.106768965721130371e-01
1.781000000000000000e+03 4.092813491821289062e+00 -3.134651184082031250e+01 -2.324103266000747681e-01 2.289792060852050781e+00 6.172145605087280273e-01 7.512412667274475098e-01
1.782000000000000000e+03 4.162127017974853516e+00 8.157812118530273438e+00 2.844439744949340820e-01 -2.160368561744689941e-01 2.052213624119758606e-02 6.826707720756530762e-01
1.783000000000000000e+03 5.257469654083251953e+00 3.276007080078125000e+01 -2.693177461624145508e-01 2.517841339111328125e+00 6.745570898056030273e-01 -4.481250941753387451e-01
1.784000000000000000e+03 3.671051025390625000e+00 3.295675277709960938e+01 -1.426529884338378906e-01 2.451842546463012695e+00 6.927568912506103516e-01 -3.637160956859588623e-01
1.785000000000000000e+03 4.789237022399902344e+00 3.013304138183593750e+01 -3.074888885021209717e-01 2.377017259597778320e+00 6.208584904670715332e-01 -6.773914694786071777e-01
1.786000000000000000e+03 6.407814025878906250e+00 4.994467258453369141e+00 6.329175829887390137e-02 4.389609694480895996e-01 1.506758183240890503e-01 7.142744064331054688e-01
1.787000000000000000e+03 3.821331977844238281e+00 -5.461304187774658203e+00 3.468128619715571404e-03 -1.401024609804153442e-01 -4.099029675126075745e-02 -5.469537973403930664e-01
1.788000000000000000e+03 2.694909095764160156e+00 -6.535045623779296875e+00 2.669536322355270386e-02 -4.993328452110290527e-01 -1.417912393808364868e-01 -4.902542531490325928e-01
1.789000000000000000e+03 4.395732879638671875e+00 -3.542607879638671875e+01 -2.123530358076095581e-01 2.586027860641479492e+00 7.121024131774902344e-01 4.315310120582580566e-01
1.790000000000000000e+03 3.519540023803710938e+01 2.377474546432495117e+00 3.183815956115722656e+00 1.211982440948486328e+01 4.591092109680175781e+00 1.684701919555664062e+00
1.791000000000000000e+03 5.769606399536132812e+01 -5.595580101013183594e+00 1.075571060180664062e+00 2.108164310455322266e+00 9.551206231117248535e-01 1.332425713539123535e+00
1.792000000000000000e+03 6.886682891845703125e+01 -2.903521537780761719e+01 -1.222708463668823242e+00 6.651089191436767578e+00 1.628514289855957031e+00 4.426664113998413086e-01
1.793000000000000000e+03 1.781932067871093750e+01 5.662259578704833984e+00 -2.123894691467285156e+00 6.301428318023681641e+00 1.253260135650634766e+00 -1.765641689300537109e+00
1.794000000000000000e+03 4.834735107421875000e+01 -8.831048011779785156e+00 5.475118160247802734e-01 9.166778922080993652e-01 4.392569065093994141e-01 2.067869663238525391e+00
1.795000000000000000e+03 4.832709503173828125e+01 -1.441680145263671875e+01 1.823686599731445312e+00 2.011781454086303711e+00 1.150640487670898438e+00 1.892570495605468750e+00
1.796000000000000000e+03 1.560688304901123047e+01 -2.745383834838867188e+01 -8.627406954765319824e-01 3.190661191940307617e+00 6.983761191368103027e-01 -4.187244772911071777e-01
1.797000000000000000e+03 1.328976345062255859e+01 -2.368250656127929688e+01 -1.126995533704757690e-01 5.620110988616943359e+00 1.652223467826843262e+00 2.957749366760253906e-01
1.798000000000000000e+03 6.459207153320312500e+01 -8.593596458435058594e+00 -3.290598392486572266e-01 2.417190074920654297e+00 6.264390349388122559e-01 -1.825807690620422363e+00
1.799000000000000000e+03 2.316847991943359375e+01 -1.339129328727722168e+00 4.844062805175781250e+00 -9.905611276626586914e-01 1.156050562858581543e+00 -6.247364878654479980e-01
1.800000000000000000e+03 4.455606079101562500e+01 1.898409271240234375e+01 3.221776187419891357e-01 3.403262853622436523e+00 1.117632150650024414e+00 1.783352613449096680e+00
1.801000000000000000e+03 4.155238723754882812e+01 1.875393486022949219e+01 -6.944736093282699585e-02 5.183948993682861328e+00 1.534350514411926270e+00 1.632866740226745605e+00
1.802000000000000000e+03 3.307334899902343750e+01 -3.059758186340332031e+01 -7.618058323860168457e-01 3.491608858108520508e+00 8.189409375190734863e-01 1.428245663642883301e+00
1.803000000000000000e+03 3.664021682739257812e+01 9.730077534914016724e-02 1.682019472122192383e+00 1.083997154235839844e+01 3.756597280502319336e+00 -4.000743031501770020e-01
1.804000000000000000e+03 3.347119140625000000e+01 -7.436090111732482910e-01 2.568035364151000977e+00 8.727499008178710938e+00 3.388660430908203125e+00 1.603687524795532227e+00
1.805000000000000000e+03 3.180184173583984375e+01 -2.760927915573120117e+00 2.265345096588134766e+00 5.459016323089599609e+00 2.317308425903320312e+00 1.302208602428436279e-01
1.806000000000000000e+03 3.194858932495117188e+01 -1.558751106262207031e+00 3.509524106979370117e+00 5.505757331848144531e+00 2.704584360122680664e+00 9.063749909400939941e-01
1.807000000000000000e+03 3.608273315429687500e+01 8.551101684570312500e+00 1.278728127479553223e+00 1.194316387176513672e+01 3.966567516326904297e+00 4.964773654937744141e-01
1.808000000000000000e+03 3.681922531127929688e+01 1.032102298736572266e+01 1.262791752815246582e+00 1.123923969268798828e+01 3.750609397888183594e+00 3.376871645450592041e-01
1.809000000000000000e+03 3.824333190917968750e+01 -1.772806739807128906e+01 1.647596001625061035e+00 1.070392131805419922e+01 3.705455303192138672e+00 -1.807562828063964844e+00
1.810000000000000000e+03 4.437487792968750000e+01 -1.884828758239746094e+01 2.033152103424072266e+00 9.482119560241699219e+00 3.454581499099731445e+00 3.019729554653167725e-01
1.811000000000000000e+03 6.705820465087890625e+01 1.634661102294921875e+01 8.583861589431762695e-01 7.787710189819335938e+00 2.593828916549682617e+00 3.883497714996337891e-01
1.812000000000000000e+03 4.782081604003906250e+01 -1.324997711181640625e+01 1.424550294876098633e+00 2.668549299240112305e+00 1.227929949760437012e+00 1.997069716453552246e+00
1.813000000000000000e+03 4.326037216186523438e+01 -2.618342590332031250e+01 2.060505867004394531e+00 9.390693664550781250e+00 3.435359716415405273e+00 -1.551033139228820801e+00
1.814000000000000000e+03 2.778182792663574219e+01 -2.080184936523437500e+00 4.647121906280517578e+00 2.867491915822029114e-02 1.402739048004150391e+00 4.534640610218048096e-01
1.815000000000000000e+03 1.226907634735107422e+01 -1.301999568939208984e+01 7.203397154808044434e-01 6.312626838684082031e+00 2.109889984130859375e+00 5.893094539642333984e-01
1.816000000000000000e+03 5.427939224243164062e+01 -1.247247028350830078e+01 -4.679271280765533447e-01 5.626894831657409668e-01 2.842870913445949554e-02 1.182356834411621094e+00
1.817000000000000000e+03 5.278296279907226562e+01 -7.439921855926513672e+00 5.929774045944213867e-01 2.028710365295410156e+00 7.865063548088073730e-01 2.316704511642456055e+00
1.818000000000000000e+03 5.294606781005859375e+01 2.469934272766113281e+01 -6.214039921760559082e-01 8.043561577796936035e-01 5.488564819097518921e-02 6.979818940162658691e-01
1.819000000000000000e+03 4.897442626953125000e+01 -1.050780677795410156e+01 8.242894411087036133e-01 1.485451817512512207e+00 6.929224133491516113e-01 2.218617916107177734e+00
1.820000000000000000e+03 2.835928344726562500e+01 2.570704269409179688e+01 -8.755040764808654785e-01 2.386203289031982422e+00 4.532097876071929932e-01 -1.227210402488708496e+00
1.821000000000000000e+03 6.433363342285156250e+01 1.022674369812011719e+01 9.157704114913940430e-01 8.884021759033203125e+00 2.939937591552734375e+00 6.927554607391357422e-01
1.822000000000000000e+03 4.037350082397460938e+01 -1.986146545410156250e+01 2.033946990966796875e+00 9.567361831665039062e+00 3.480392694473266602e+00 -1.426813483238220215e+00
1.823000000000000000e+03 2.559925460815429688e+01 -1.401686668395996094e+00 4.618079185485839844e+00 -1.115865111351013184e+00 1.050664305686950684e+00 1.459258645772933960e-01
1.824000000000000000e+03 2.732255744934082031e+01 -5.922722816467285156e+00 1.238409757614135742e+00 -6.519241929054260254e-01 1.759456843137741089e-01 -1.866848468780517578e-01
1.825000000000000000e+03 3.199192428588867188e+01 -6.155236721038818359e+00 -2.904832363128662109e-01 5.333493232727050781e+00 1.512902975082397461e+00 -1.948336005210876465e+00
1.826000000000000000e+03 3.062282562255859375e+01 -3.932602882385253906e+00 2.027087926864624023e+00 3.395721435546875000e+00 1.626842737197875977e+00 -5.653769373893737793e-01
1.827000000000000000e+03 5.814128875732421875e+00 -2.577854347229003906e+01 -1.548679620027542114e-01 2.263490915298461914e+00 6.325868964195251465e-01 1.379287481307983398e+00
1.828000000000000000e+03 6.640062713623046875e+01 1.387103843688964844e+01 9.457574486732482910e-01 8.244245529174804688e+00 2.757000923156738281e+00 2.821494042873382568e-01
1.829000000000000000e+03 1.349653625488281250e+01 -2.695490837097167969e+01 -9.686194658279418945e-01 4.158560752868652344e+00 9.569823145866394043e-01 1.899470537900924683e-01
1.830000000000000000e+03 1.408353519439697266e+01 -2.843964195251464844e+01 -1.054803013801574707e+00 3.522166013717651367e+00 7.402089238166809082e-01 -1.866924203932285309e-02
1.831000000000000000e+03 5.589617919921875000e+01 -6.696735382080078125e+00 7.864378094673156738e-01 1.969780325889587402e+00 8.268654346466064453e-01 1.631963610649108887e+00
1.832000000000000000e+03 7.068595123291015625e+01 1.004606723785400391e+01 7.088196873664855957e-01 7.087391853332519531e+00 2.338863372802734375e+00 -6.302983313798904419e-02
1.833000000000000000e+03 3.527720260620117188e+01 1.781351661682128906e+01 1.633342355489730835e-01 6.755155086517333984e+00 2.075546741485595703e+00 -4.747145473957061768e-01
1.834000000000000000e+03 1.129856681823730469e+01 -1.709862518310546875e+01 1.864391684532165527e+00 6.324532985687255859e+00 2.456677436828613281e+00 8.883264064788818359e-01
1.835000000000000000e+03 5.035607147216796875e+01 2.554880905151367188e+01 -4.644765257835388184e-01 1.606769561767578125e+00 3.426879048347473145e-01 1.191951394081115723e+00
1.836000000000000000e+03 1.776563835144042969e+01 2.746670722961425781e+01 -7.642773389816284180e-01 1.946078896522521973e+00 3.545404672622680664e-01 7.213736176490783691e-01
1.837000000000000000e+03 1.817099952697753906e+01 2.655858993530273438e+01 -7.739837765693664551e-01 1.739828467369079590e+00 2.897534072399139404e-01 9.176685214042663574e-01
1.838000000000000000e+03 6.034056854248046875e+01 -9.231698989868164062e+00 -5.033062696456909180e-01 1.086405515670776367e+00 1.749297976493835449e-01 4.702033996582031250e-01
1.839000000000000000e+03 5.827319717407226562e+01 -4.426819324493408203e+00 1.442933678627014160e+00 2.336282491683959961e+00 1.133764863014221191e+00 1.320962548255920410e+00
1.840000000000000000e+03 1.921493339538574219e+01 -7.348230838775634766e+00 -3.645266294479370117e-01 3.585509538650512695e+00 9.662948250770568848e-01 8.967277407646179199e-01
1.841000000000000000e+03 3.949044799804687500e+01 -1.474962997436523438e+01 1.822046518325805664e+00 9.178602218627929688e+00 3.300194501876831055e+00 -1.764424681663513184e+00
1.842000000000000000e+03 6.200683975219726562e+01 -3.470487213134765625e+01 9.945906931534409523e-04 1.522429227828979492e+00 4.570271372795104980e-01 5.090112686157226562e-01
1.843000000000000000e+03 1.880887031555175781e+01 2.735848426818847656e+01 -5.666722655296325684e-01 1.456570625305175781e+00 2.669694721698760986e-01 7.400681376457214355e-01
1.844000000000000000e+03 5.356479644775390625e+01 2.681242561340332031e+01 -1.383104622364044189e-01 1.216301083564758301e+00 3.233971893787384033e-01 5.075954794883728027e-01
1.845000000000000000e+03 2.957079887390136719e+01 2.512543296813964844e+01 -1.062610507011413574e+00 3.113167285919189453e+00 6.151670217514038086e-01 -1.209232568740844727e+00
1.846000000000000000e+03 2.647825622558593750e+01 2.702129745483398438e+01 -6.754136681556701660e-01 1.655804038047790527e+00 2.941170930862426758e-01 -9.452698230743408203e-01
1.847000000000000000e+03 3.490684509277343750e+01 1.903731727600097656e+01 -1.037687435746192932e-01 6.259993553161621094e+00 1.846867442131042480e+00 -4.554943740367889404e-01
1.848000000000000000e+03 3.467261505126953125e+01 2.034867095947265625e+01 -3.212638199329376221e-01 5.877140045166015625e+00 1.666762828826904297e+00 -3.271324634552001953e-01
1.849000000000000000e+03 3.496793746948242188e+01 1.420893669128417969e+01 5.794848799705505371e-01 8.378964424133300781e+00 2.687534809112548828e+00 -1.099551916122436523e+00
1.850000000000000000e+03 3.963940811157226562e+01 -1.356103229522705078e+01 1.582232117652893066e+00 8.720320701599121094e+00 3.090765953063964844e+00 -1.665648341178894043e+00
1.851000000000000000e+03 4.213605880737304688e+01 -7.142400741577148438e+00 -8.650108575820922852e-01 4.742774009704589844e+00 1.163328886032104492e+00 -1.417570829391479492e+00
1.852000000000000000e+03 4.012649917602539062e+01 -9.018281936645507812e+00 -5.604056715965270996e-01 7.399877548217773438e+00 2.051841735839843750e+00 -1.526820063591003418e+00
1.853000000000000000e+03 6.011491394042968750e+01 -3.886273384094238281e+00 1.261958718299865723e+00 2.714549779891967773e+00 1.192952513694763184e+00 9.064650535583496094e-01
1.854000000000000000e+03 2.221888542175292969e+01 -3.258535766601562500e+01 -8.421407341957092285e-01 4.444955885410308838e-01 -1.192935407161712646e-01 -4.154451489448547363e-01
1.855000000000000000e+03 3.910599899291992188e+01 -2.161081504821777344e+01 1.781119227409362793e+00 9.520347595214843750e+00 3.390439987182617188e+00 -9.939202070236206055e-01
1.856000000000000000e+03 3.795880508422851562e+01 -2.180932617187500000e+01 1.630506753921508789e+00 9.693220138549804688e+00 3.397118091583251953e+00 -5.360643267631530762e-01
1.857000000000000000e+03 3.625111007690429688e+01 1.446195125579833984e+01 5.851135253906250000e-01 8.490544319152832031e+00 2.722697257995605469e+00 -3.718554079532623291e-01
1.858000000000000000e+03 3.523269271850585938e+01 1.278161048889160156e+01 7.421693205833435059e-01 9.211355209350585938e+00 2.986057281494140625e+00 -9.034535288810729980e-01
1.859000000000000000e+03 1.217470645904541016e+01 2.221702194213867188e+01 -7.909338474273681641e-01 5.873831272125244141e+00 1.524869203567504883e+00 -8.025755882263183594e-01
1.860000000000000000e+03 4.756708526611328125e+01 -7.167291164398193359e+00 -2.316997945308685303e-01 2.701010704040527344e-01 1.152037922292947769e-02 1.623832225799560547e+00
1.861000000000000000e+03 4.610248565673828125e+01 -9.383215904235839844e+00 5.742101073265075684e-01 2.184663772583007812e+00 8.276621699333190918e-01 9.810435771942138672e-01
1.862000000000000000e+03 6.518460845947265625e+01 8.460230827331542969e+00 1.006946563720703125e+00 8.009931564331054688e+00 2.705063343048095703e+00 5.211002826690673828e-01
1.863000000000000000e+03 6.552642059326171875e+01 9.866225242614746094e+00 9.908818602561950684e-01 8.307863235473632812e+00 2.789623498916625977e+00 4.509032964706420898e-01
1.864000000000000000e+03 6.379644393920898438e+01 4.131696224212646484e+00 8.965817093849182129e-01 6.719307899475097656e+00 2.284766912460327148e+00 6.945242881774902344e-01
1.865000000000000000e+03 6.432863616943359375e+01 5.584289550781250000e+00 9.708262681961059570e-01 7.225599288940429688e+00 2.458927631378173828e+00 6.712474226951599121e-01
1.866000000000000000e+03 3.982590103149414062e+01 -1.164444637298583984e+01 7.397983074188232422e-01 8.082945823669433594e+00 2.646823167800903320e+00 -1.400241255760192871e+00
1.867000000000000000e+03 3.903901672363281250e+01 -1.217863368988037109e+01 1.124670863151550293e+00 8.818538665771484375e+00 2.982962846755981445e+00 -1.632562756538391113e+00
1.868000000000000000e+03 6.189946746826171875e+01 -3.291987991333007812e+01 -5.560116767883300781e-01 1.230826497077941895e+00 2.024444490671157837e-01 4.633367955684661865e-01
1.869000000000000000e+03 7.080690002441406250e+01 -2.112587547302246094e+01 1.512317419052124023e+00 1.184993076324462891e+01 4.008674621582031250e+00 -4.352290332317352295e-01
1.870000000000000000e+03 7.411801147460937500e+01 -1.815640068054199219e+01 1.424469113349914551e+00 9.139801979064941406e+00 3.169281482696533203e+00 -2.753185033798217773e-01
1.871000000000000000e+03 6.746339416503906250e+01 1.756052970886230469e+01 6.392188668251037598e-01 7.618092536926269531e+00 2.477193355560302734e+00 5.361040234565734863e-01
1.872000000000000000e+03 4.667689895629882812e+01 -1.372101402282714844e+01 1.329863429069519043e+00 3.874787330627441406e+00 1.561395287513732910e+00 1.520712137222290039e+00
1.873000000000000000e+03 3.456407546997070312e+01 1.362106084823608398e+00 3.113401174545288086e+00 1.144076919555664062e+01 4.366250991821289062e+00 1.441740989685058594e+00
1.874000000000000000e+03 2.348538017272949219e+01 2.849523353576660156e+01 -3.470114469528198242e-01 1.112217783927917480e+00 2.295618951320648193e-01 -3.205596208572387695e-01
1.875000000000000000e+03 7.509949493408203125e+01 -1.753959655761718750e+01 1.020812869071960449e+00 8.336195945739746094e+00 2.807102680206298828e+00 4.144544946029782295e-04
1.876000000000000000e+03 7.170246124267578125e+01 -1.883641052246093750e+01 1.984468340873718262e+00 1.131373405456542969e+01 3.989460706710815430e+00 -3.341318964958190918e-01
1.877000000000000000e+03 4.356472778320312500e+01 -1.933634376525878906e+01 1.622414588928222656e+00 1.008756637573242188e+01 3.512994289398193359e+00 -5.600215792655944824e-01
1.878000000000000000e+03 4.200261688232421875e+01 -1.947849464416503906e+01 1.970845103263854980e+00 9.586976051330566406e+00 3.467346429824829102e+00 -1.220802545547485352e+00
1.879000000000000000e+03 3.291171646118164062e+01 -3.302678680419921875e+01 -9.225472211837768555e-01 3.491782903671264648e+00 7.707706689834594727e-01 1.317778944969177246e+00
1.880000000000000000e+03 4.093590927124023438e+01 -2.356928825378417969e+01 1.944806933403015137e+00 9.073773384094238281e+00 3.305574178695678711e+00 -1.250620603561401367e+00
1.881000000000000000e+03 2.954180145263671875e+01 -4.388751983642578125e+00 2.265776872634887695e+00 1.725762128829956055e+00 1.197461724281311035e+00 -3.695294260978698730e-01
1.882000000000000000e+03 3.292073059082031250e+01 -3.959722042083740234e+00 6.239968538284301758e-01 6.750373840332031250e+00 2.212311267852783203e+00 -8.128085732460021973e-01
1.883000000000000000e+03 6.642320251464843750e+01 -3.480337142944335938e+01 -3.211905658245086670e-01 4.115678787231445312e+00 1.138346433639526367e+00 7.442591190338134766e-01
1.884000000000000000e+03 6.354859542846679688e+01 -3.241389465332031250e+01 -6.875734329223632812e-01 2.258522987365722656e+00 4.712848365306854248e-01 7.550830245018005371e-01
1.885000000000000000e+03 4.734949493408203125e+01 2.530253219604492188e+01 -5.799835920333862305e-01 2.484498500823974609e+00 5.713544487953186035e-01 1.447543859481811523e+00
1.886000000000000000e+03 6.317748260498046875e+01 2.698745965957641602e+00 8.899579644203186035e-01 6.038401603698730469e+00 2.078507900238037109e+00 8.849182128906250000e-01
1.887000000000000000e+03 5.336435317993164062e+01 -1.023852920532226562e+01 -5.576479062438011169e-02 1.220328807830810547e+00 3.493691980838775635e-01 2.059421539306640625e+00
1.888000000000000000e+03 4.991364288330078125e+01 -7.931675910949707031e+00 2.867620885372161865e-01 8.034414649009704590e-01 3.270610570907592773e-01 2.573550701141357422e+00
1.889000000000000000e+03 3.725523757934570312e+01 -8.110757827758789062e+00 -1.176585674285888672e+00 9.418020248413085938e+00 2.472430229187011719e+00 -1.629946947097778320e+00
1.890000000000000000e+03 5.275221633911132812e+01 -3.483441162109375000e+01 -1.418408453464508057e-01 1.508891582489013672e+00 4.101152122020721436e-01 -1.406846880912780762e+00
1.891000000000000000e+03 3.528147125244140625e+01 -2.813793182373046875e+00 6.145985797047615051e-02 9.346440315246582031e+00 2.822370052337646484e+00 -7.323197722434997559e-01
1.892000000000000000e+03 2.066702270507812500e+01 2.828199195861816406e+01 -3.814236819744110107e-01 1.144283771514892578e+00 2.288580238819122314e-01 3.175079822540283203e-01
1.893000000000000000e+03 1.988299369812011719e+01 2.671173095703125000e+01 -6.810266971588134766e-01 1.014030814170837402e+00 9.990124404430389404e-02 5.097607970237731934e-01
1.894000000000000000e+03 3.756839752197265625e+01 1.470687103271484375e+01 4.769577980041503906e-01 8.282057762145996094e+00 2.627704620361328125e+00 4.340986907482147217e-01
1.895000000000000000e+03 1.087346076965332031e+01 -1.434437847137451172e+01 1.285849809646606445e+00 5.118743896484375000e+00 1.921378135681152344e+00 4.003330469131469727e-01
1.896000000000000000e+03 1.055973052978515625e+01 -1.603036499023437500e+01 1.665671706199645996e+00 5.081742286682128906e+00 2.024224281311035156e+00 6.404678225517272949e-01
1.897000000000000000e+03 3.395962905883789062e+01 3.348503708839416504e-01 2.801964044570922852e+00 1.050165653228759766e+01 3.991086006164550781e+00 1.710814356803894043e+00
1.898000000000000000e+03 3.830193328857421875e+01 -2.454354047775268555e+00 -4.910168349742889404e-01 9.771610260009765625e+00 2.784178018569946289e+00 -1.317183375358581543e+00
1.899000000000000000e+03 3.570932388305664062e+01 -9.794783592224121094e+00 -8.621776103973388672e-02 1.001597976684570312e+01 2.978928565979003906e+00 -2.094291210174560547e+00
1.900000000000000000e+03 5.231986236572265625e+01 -1.038471221923828125e+01 2.347402274608612061e-01 1.152390241622924805e+00 4.161391258239746094e-01 2.326804161071777344e+00
1.901000000000000000e+03 5.784620666503906250e+01 -9.905677795410156250e+00 -6.741164922714233398e-01 1.036283254623413086e+00 1.086500287055969238e-01 8.519947528839111328e-01
1.902000000000000000e+03 7.343179321289062500e+01 -2.424893760681152344e+01 -6.149375811219215393e-02 9.258739471435546875e+00 2.759173631668090820e+00 -1.332651019096374512e+00
1.903000000000000000e+03 7.146765136718750000e+01 -2.294633865356445312e+01 4.391618072986602783e-01 1.029320049285888672e+01 3.219708681106567383e+00 -9.083529114723205566e-01
1.904000000000000000e+03 5.815321350097656250e+01 2.633477210998535156e+01 -2.625040411949157715e-01 1.989188075065612793e+00 5.180051922798156738e-01 -7.537788152694702148e-01
1.905000000000000000e+03 5.553528594970703125e+01 2.939200019836425781e+01 1.727779358625411987e-01 1.933264851570129395e+00 6.318128108978271484e-01 2.524221502244472504e-02
1.906000000000000000e+03 1.394830799102783203e+01 2.441576957702636719e+01 -1.345875978469848633e+00 4.548305988311767578e+00 9.607290029525756836e-01 4.948852956295013428e-01
1.907000000000000000e+03 3.558739471435546875e+01 -3.271352005004882812e+01 -1.106602668762207031e+00 5.111905097961425781e+00 1.201590776443481445e+00 1.121280908584594727e+00
1.908000000000000000e+03 7.049333190917968750e+01 -1.001264476776123047e+01 -1.523000121116638184e+00 8.645061492919921875e+00 2.136618375778198242e+00 -7.468295097351074219e-01
1.909000000000000000e+03 6.860960388183593750e+01 -1.014469337463378906e+01 -1.770216941833496094e+00 7.722567081451416016e+00 1.785704970359802246e+00 -1.728881359100341797e+00
1.910000000000000000e+03 7.149033355712890625e+01 -1.466465282440185547e+01 1.266574382781982422e+00 1.084962844848632812e+01 3.634860992431640625e+00 3.451391160488128662e-01
1.911000000000000000e+03 7.237053680419921875e+01 -1.787536811828613281e+01 1.907403707504272461e+00 1.061907005310058594e+01 3.757942199707031250e+00 -3.039547801017761230e-01
1.912000000000000000e+03 7.108590698242187500e+01 -2.699768638610839844e+01 -9.734518527984619141e-01 8.694519996643066406e+00 2.316320419311523438e+00 -3.962274491786956787e-01
1.913000000000000000e+03 7.107570648193359375e+01 -2.424145889282226562e+01 -1.999693661928176880e-01 9.696912765502929688e+00 2.849082946777343750e+00 -6.957128047943115234e-01
1.914000000000000000e+03 3.991706848144531250e+01 -2.720700836181640625e+01 5.942186713218688965e-01 7.994992256164550781e+00 2.576763391494750977e+00 -9.200173616409301758e-02
1.915000000000000000e+03 3.989896011352539062e+01 -2.482583045959472656e+01 1.685879945755004883e+00 8.711562156677246094e+00 3.119232416152954102e+00 -6.899107694625854492e-01
1.916000000000000000e+03 2.096111297607421875e+01 -3.448625183105468750e+01 -6.633175611495971680e-01 9.074164032936096191e-01 7.322965562343597412e-02 -4.283256530761718750e-01
1.917000000000000000e+03 7.082479095458984375e+01 -1.370149517059326172e+01 3.105057403445243835e-03 1.054633522033691406e+01 3.164832115173339844e+00 5.995049700140953064e-02
1.918000000000000000e+03 7.473409271240234375e+01 -1.204105281829833984e+01 -2.700942754745483398e-01 8.551770210266113281e+00 2.484502792358398438e+00 8.869134187698364258e-01
1.919000000000000000e+03 4.098598480224609375e+01 -7.376895904541015625e+00 -1.141214013099670410e+00 6.302411079406738281e+00 1.548359036445617676e+00 -1.684937000274658203e+00
1.920000000000000000e+03 3.565148544311523438e+01 -1.800371408462524414e+00 6.480520963668823242e-01 9.724167823791503906e+00 3.111665964126586914e+00 -3.913335204124450684e-01
1.921000000000000000e+03 5.648195648193359375e+01 -1.211186313629150391e+01 -1.090931415557861328e+00 6.258643865585327148e-01 -1.395200937986373901e-01 6.706017255783081055e-01
1.922000000000000000e+03 6.612884521484375000e+01 1.806704139709472656e+01 7.075167894363403320e-01 7.809036731719970703e+00 2.554965972900390625e+00 3.397724330425262451e-01
1.923000000000000000e+03 4.322374343872070312e+01 -1.481263351440429688e+01 1.459079980850219727e+00 7.005846977233886719e+00 2.539478063583374023e+00 -3.588834404945373535e-01
1.924000000000000000e+03 5.070041656494140625e+01 -9.365262031555175781e+00 4.266243278980255127e-01 1.158344030380249023e+00 4.754905104637145996e-01 2.589190959930419922e+00
1.925000000000000000e+03 1.490317630767822266e+01 -2.521113157272338867e+00 1.544878602027893066e+00 6.230411529541015625e+00 2.332587003707885742e+00 4.253542900085449219e+00
1.926000000000000000e+03 1.610264968872070312e+01 2.810072898864746094e+00 -5.202155113220214844e-01 1.111978435516357422e+01 3.179870605468750000e+00 -4.205641269683837891e+00
1.927000000000000000e+03 1.460038280487060547e+01 -2.205508708953857422e+00 2.069973707199096680e+00 4.734850883483886719e+00 2.041447401046752930e+00 4.163041591644287109e+00
1.928000000000000000e+03 1.456005859375000000e+01 -2.554355621337890625e+00 1.737308621406555176e+00 4.908198356628417969e+00 1.993652105331420898e+00 4.019563198089599609e+00
1.929000000000000000e+03 1.566328144073486328e+01 -2.544873237609863281e+00 7.997998595237731934e-01 8.884825706481933594e+00 2.905387639999389648e+00 3.739548444747924805e+00
1.930000000000000000e+03 1.555311298370361328e+01 -2.242504358291625977e+00 1.293956756591796875e+00 8.874258041381835938e+00 3.050464630126953125e+00 4.187612533569335938e+00
1.931000000000000000e+03 1.595004653930664062e+01 -2.083170652389526367e+00 1.130396723747253418e+00 1.096295070648193359e+01 3.628004312515258789e+00 3.433168411254882812e+00
1.932000000000000000e+03 1.600296783447265625e+01 -2.599674463272094727e+00 6.212239265441894531e-01 9.698382377624511719e+00 3.095881700515747070e+00 3.003429412841796875e+00
1.933000000000000000e+03 1.796909141540527344e+01 -1.679154276847839355e+00 4.201091289520263672e+00 9.622644424438476562e+00 4.147120952606201172e+00 -2.561744451522827148e+00
1.934000000000000000e+03 1.673893737792968750e+01 2.101774454116821289e+00 7.086997032165527344e-01 1.385378932952880859e+01 4.368746757507324219e+00 -2.034132719039916992e+00
1.935000000000000000e+03 1.616342735290527344e+01 4.804607391357421875e+00 -1.836293697357177734e+00 8.456216812133789062e+00 1.985976934432983398e+00 -3.205708503723144531e+00
1.936000000000000000e+03 1.768543243408203125e+01 -1.782214760780334473e+00 3.476828098297119141e+00 1.073741722106933594e+01 4.264273643493652344e+00 -2.194388628005981445e+00
1.937000000000000000e+03 1.829452896118164062e+01 -4.684500992298126221e-01 8.145225524902343750e+00 7.758453845977783203e+00 4.771103858947753906e+00 -2.435294151306152344e+00
1.938000000000000000e+03 1.749509429931640625e+01 1.500492215156555176e+00 4.610036849975585938e+00 1.228392219543457031e+01 5.068187713623046875e+00 8.928999304771423340e-01
1.939000000000000000e+03 1.752611351013183594e+01 2.457260847091674805e+00 9.484022259712219238e-01 1.068883228302001953e+01 3.491170406341552734e+00 -5.258445143699645996e-01
1.940000000000000000e+03 1.887191581726074219e+01 -1.141570687294006348e+00 6.106135368347167969e+00 6.317303180694580078e+00 3.727031469345092773e+00 -2.577803611755371094e+00
1.941000000000000000e+03 1.801051712036132812e+01 1.253362178802490234e+00 6.450365543365478516e+00 9.430598258972167969e+00 4.764289379119873047e+00 9.970127940177917480e-01
1.942000000000000000e+03 1.782578086853027344e+01 1.744127869606018066e+00 3.850554943084716797e+00 1.033672714233398438e+01 4.256184577941894531e+00 6.396502852439880371e-01
1.943000000000000000e+03 1.956980514526367188e+01 3.499354124069213867e+00 1.585735231637954712e-01 3.822328329086303711e+00 1.194270610809326172e+00 2.636422812938690186e-01
1.944000000000000000e+03 1.374474430084228516e+01 -2.161323547363281250e+00 1.992615818977355957e+00 2.301985979080200195e+00 1.288380503654479980e+00 3.008519411087036133e+00
1.945000000000000000e+03 1.144071960449218750e+01 -3.392658948898315430e+00 6.013019680976867676e-01 1.334452271461486816e+00 5.807262659072875977e-01 1.415089249610900879e+00
1.946000000000000000e+03 1.360743236541748047e+01 2.600386619567871094e+00 1.224799990653991699e+00 3.245131254196166992e+00 1.340979337692260742e+00 -3.823052883148193359e+00
1.947000000000000000e+03 1.089396190643310547e+01 3.646636009216308594e+00 1.133402809500694275e-01 1.702751755714416504e+00 5.448275804519653320e-01 -1.138528704643249512e+00
1.948000000000000000e+03 4.909773349761962891e+00 -6.594780445098876953e+00 7.118790596723556519e-02 2.219572663307189941e-01 8.794355392456054688e-02 -4.820297658443450928e-01
1.949000000000000000e+03 9.462873458862304688e+00 4.540611743927001953e+00 1.113353967666625977e-01 1.502482175827026367e+00 4.841452836990356445e-01 -2.933262586593627930e-01
1.950000000000000000e+03 1.000184059143066406e+01 -3.763287544250488281e+00 2.525814771652221680e-01 9.941908121109008789e-01 3.740316927433013916e-01 7.018465399742126465e-01
1.951000000000000000e+03 9.499139785766601562e+00 -4.625140190124511719e+00 2.103117555379867554e-01 1.229128479957580566e+00 4.318320751190185547e-01 5.841638445854187012e-01
1.952000000000000000e+03 7.483121871948242188e+00 -5.102081298828125000e+00 7.516160607337951660e-02 7.388039827346801758e-01 2.441896796226501465e-01 -9.617350250482559204e-02
1.953000000000000000e+03 8.335860252380371094e+00 -4.999130249023437500e+00 1.149037629365921021e-01 1.005883336067199707e+00 3.362361490726470947e-01 1.457959860563278198e-01
1.954000000000000000e+03 1.481572055816650391e+01 7.042902469635009766e+00 -9.852610230445861816e-01 7.466241359710693359e+00 1.944294095039367676e+00 -2.510295867919921875e+00
1.955000000000000000e+03 3.572241783142089844e+00 4.603731632232666016e+00 -6.394331157207489014e-02 -3.426075875759124756e-01 -1.219652742147445679e-01 8.655000925064086914e-01
1.956000000000000000e+03 4.831273078918457031e+00 4.378993034362792969e+00 -1.329451352357864380e-01 -3.046287409961223602e-02 -4.902240261435508728e-02 8.635339736938476562e-01
1.957000000000000000e+03 1.404354095458984375e+01 7.399113178253173828e+00 -5.643599629402160645e-01 6.982388496398925781e+00 1.925408601760864258e+00 -2.239405155181884766e+00
1.958000000000000000e+03 7.918015956878662109e+00 4.036422252655029297e+00 -1.555979549884796143e-01 6.979029774665832520e-01 1.626915037631988525e-01 3.822669088840484619e-01
1.959000000000000000e+03 1.345442008972167969e+01 8.232225418090820312e+00 -9.511760622262954712e-02 6.910411834716796875e+00 2.044588327407836914e+00 -1.833781719207763672e+00
1.960000000000000000e+03 4.495541095733642578e+00 6.873616695404052734e+00 2.312763184309005737e-01 -1.288266927003860474e-01 3.073488734662532806e-02 7.863278388977050781e-01
1.961000000000000000e+03 5.639489173889160156e+00 5.112059593200683594e+00 4.575737193226814270e-02 2.574519515037536621e-01 9.096279740333557129e-02 7.925768494606018066e-01
1.962000000000000000e+03 2.145702552795410156e+01 -2.360391765832901001e-01 5.257861137390136719e+00 4.402062892913818359e-01 1.709420204162597656e+00 -9.524927735328674316e-01
1.963000000000000000e+03 7.176176071166992188e+00 4.891584873199462891e+00 4.389690980315208435e-02 7.016143798828125000e-01 2.236533910036087036e-01 5.512391328811645508e-01
1.964000000000000000e+03 1.290447711944580078e+01 1.104000854492187500e+01 1.460912346839904785e+00 7.653995513916015625e+00 2.734472274780273438e+00 -1.445178031921386719e+00
1.965000000000000000e+03 1.282675170898437500e+01 9.184524536132812500e+00 6.390168666839599609e-01 6.823156833648681641e+00 2.238652229309082031e+00 -1.363212466239929199e+00
1.966000000000000000e+03 7.951720714569091797e+00 4.782864093780517578e+00 6.859976798295974731e-02 9.380826354026794434e-01 3.020047247409820557e-01 3.378432989120483398e-01
1.967000000000000000e+03 1.019567680358886719e+01 4.423722743988037109e+00 1.330083012580871582e-01 1.865900278091430664e+00 5.996725559234619141e-01 -7.386560440063476562e-01
1.968000000000000000e+03 2.026287269592285156e+01 -4.737011909484863281e+00 1.677068591117858887e+00 3.439297676086425781e+00 1.534909844398498535e+00 -6.794577240943908691e-01
1.969000000000000000e+03 1.091933345794677734e+01 -4.162148952484130859e+00 4.351562857627868652e-01 1.573291063308715820e+00 6.025341749191284180e-01 1.273378014564514160e+00
1.970000000000000000e+03 1.020888042449951172e+01 5.102705478668212891e+00 2.238360792398452759e-01 2.299538850784301758e+00 7.570124268531799316e-01 -7.649781107902526855e-01
1.971000000000000000e+03 2.497133255004882812e+01 -6.395071983337402344e+00 8.648649454116821289e-01 -3.089204132556915283e-01 1.667833626270294189e-01 -1.932292878627777100e-01
1.972000000000000000e+03 2.612698173522949219e+01 -6.082012653350830078e+00 1.070432066917419434e+00 -5.623096227645874023e-01 1.524367183446884155e-01 -1.552409771829843521e-02
1.973000000000000000e+03 2.472075462341308594e+01 -1.265860915184020996e+00 4.720933437347412109e+00 -1.380524396896362305e+00 1.002122640609741211e+00 -2.534772455692291260e-02
1.974000000000000000e+03 1.684427833557128906e+01 -1.013912105560302734e+01 -1.158277630805969238e+00 4.867787361145019531e+00 1.112852811813354492e+00 2.374708175659179688e+00
1.975000000000000000e+03 1.743259048461914062e+01 -9.417963981628417969e+00 -1.128165841102600098e+00 4.409753799438476562e+00 9.844764471054077148e-01 2.379558324813842773e+00
1.976000000000000000e+03 1.894097900390625000e+01 -8.097461700439453125e+00 -6.776544451713562012e-01 3.328130722045898438e+00 7.951428890228271484e-01 1.250746488571166992e+00
1.977000000000000000e+03 1.849675750732421875e+01 -7.076549530029296875e+00 -4.844626784324645996e-01 4.319990158081054688e+00 1.150658249855041504e+00 1.234107851982116699e+00
1.978000000000000000e+03 2.131225585937500000e+01 -7.677386760711669922e+00 -1.226417496800422668e-01 1.604320764541625977e+00 4.445037245750427246e-01 7.494170963764190674e-02
1.979000000000000000e+03 8.576666831970214844e+00 1.689278984069824219e+01 1.179014563560485840e+00 3.665543079376220703e+00 1.453367233276367188e+00 -1.257368922233581543e+00
1.980000000000000000e+03 2.063409805297851562e+01 2.078155994415283203e+00 3.136007308959960938e+00 1.722339630126953125e+00 1.457504153251647949e+00 3.219230175018310547e-01
1.981000000000000000e+03 2.118351364135742188e+01 1.449461817741394043e+00 3.816921472549438477e+00 6.365522146224975586e-01 1.336042165756225586e+00 -3.882466629147529602e-02
1.982000000000000000e+03 1.635455131530761719e+01 6.537147521972656250e+00 -1.775118470191955566e+00 7.245495319366455078e+00 1.641112923622131348e+00 -2.561891555786132812e+00
1.983000000000000000e+03 4.091551208496093750e+01 -1.875471878051757812e+01 2.085568666458129883e+00 9.400846481323242188e+00 3.445924520492553711e+00 -1.463164925575256348e+00
1.984000000000000000e+03 1.995704650878906250e+01 -7.589768409729003906e+00 -2.596138119697570801e-01 2.729426860809326172e+00 7.409439086914062500e-01 6.048704981803894043e-01
1.985000000000000000e+03 2.105150985717773438e+01 -6.894772052764892578e+00 3.718438148498535156e-01 2.127346754074096680e+00 7.497571706771850586e-01 1.805711910128593445e-02
1.986000000000000000e+03 1.021907615661621094e+01 1.953928756713867188e+01 7.719841599464416504e-01 4.908311367034912109e+00 1.704088687896728516e+00 -1.540617227554321289e+00
1.987000000000000000e+03 1.426747035980224609e+01 -1.114306545257568359e+01 -6.840298771858215332e-01 6.468186378479003906e+00 1.735246896743774414e+00 1.629922389984130859e+00
1.988000000000000000e+03 2.347206115722656250e+01 -4.622255802154541016e+00 2.755481243133544922e+00 1.197940930724143982e-01 8.625826239585876465e-01 -3.667294085025787354e-01
1.989000000000000000e+03 1.018990802764892578e+01 1.617950248718261719e+01 1.596393346786499023e+00 5.244507312774658203e+00 2.052270174026489258e+00 -1.162295103073120117e+00
1.990000000000000000e+03 1.150991916656494141e+01 1.528950786590576172e+01 1.635929822921752930e+00 7.043331623077392578e+00 2.603778600692749023e+00 -1.180943608283996582e+00
1.991000000000000000e+03 3.060655212402343750e+01 -6.759293556213378906e+00 -2.506184279918670654e-01 2.242687940597534180e+00 5.976208448410034180e-01 -1.986910700798034668e+00
1.992000000000000000e+03 4.005423736572265625e+01 1.564627265930175781e+01 5.965895056724548340e-01 6.984266757965087891e+00 2.274256944656372070e+00 1.636642336845397949e+00
1.993000000000000000e+03 1.331323623657226562e+01 -1.121558570861816406e+01 -3.669810891151428223e-01 6.272205352783203125e+00 1.771567344665527344e+00 1.279479384422302246e+00
1.994000000000000000e+03 5.948184490203857422e+00 -1.059161472320556641e+01 2.294769883155822754e-01 1.105425000190734863e+00 4.004706144332885742e-01 -2.913522720336914062e-01
1.995000000000000000e+03 5.250380516052246094e+00 -1.731578636169433594e+01 5.986662507057189941e-01 1.012266635894775391e+00 4.832798838615417480e-01 5.297667384147644043e-01
1.996000000000000000e+03 1.011559581756591797e+01 -2.067377853393554688e+01 1.087026000022888184e+00 4.641912460327148438e+00 1.718681454658508301e+00 1.375123381614685059e+00
1.997000000000000000e+03 3.507953643798828125e+01 -2.759530246257781982e-01 1.961357235908508301e+00 1.012783336639404297e+01 3.626757144927978516e+00 3.513062596321105957e-01
1.998000000000000000e+03 2.487615013122558594e+01 -2.975493192672729492e+00 4.219852447509765625e+00 -9.114106297492980957e-01 9.925324916839599609e-01 -4.941765218973159790e-02
1.999000000000000000e+03 3.885086822509765625e+01 1.506483268737792969e+01 5.846807360649108887e-01 7.809691429138183594e+00 2.518311738967895508e+00 1.181434988975524902e+00
2.000000000000000000e+03 1.123415756225585938e+01 1.288299465179443359e+01 1.803825855255126953e+00 6.218908786773681641e+00 2.406820535659790039e+00 -9.525993466377258301e-01
2.001000000000000000e+03 2.849812889099121094e+01 -4.738325595855712891e+00 2.283600091934204102e+00 4.565183520317077637e-01 8.220355510711669922e-01 -3.508768081665039062e-01
2.002000000000000000e+03 3.608156585693359375e+01 1.718218803405761719e+01 2.547145783901214600e-01 6.997518539428710938e+00 2.175669908523559570e+00 -2.638213038444519043e-01
2.003000000000000000e+03 3.463879776000976562e+01 -7.338880062103271484e+00 -1.229489922523498535e+00 9.042803764343261719e+00 2.343994140625000000e+00 -2.091732025146484375e+00
2.004000000000000000e+03 3.526980590820312500e+01 -4.639104366302490234e+00 -9.290688037872314453e-01 9.087650299072265625e+00 2.447574615478515625e+00 -1.335209727287292480e+00
2.005000000000000000e+03 3.182898521423339844e+01 -3.902219772338867188e+00 1.347760081291198730e+00 5.334496974945068359e+00 2.004677057266235352e+00 -6.301928162574768066e-01
2.006000000000000000e+03 7.358148956298828125e+01 -3.336186218261718750e+01 -4.649936854839324951e-01 8.068758010864257812e+00 2.281129360198974609e+00 -1.667438894510269165e-01
2.007000000000000000e+03 7.484000396728515625e+01 -3.174333381652832031e+01 -4.525683224201202393e-01 8.632060050964355469e+00 2.453847646713256836e+00 -4.334225952625274658e-01
2.008000000000000000e+03 7.543141174316406250e+01 -2.817455482482910156e+01 -3.960149884223937988e-01 8.841338157653808594e+00 2.533596992492675781e+00 -9.827187061309814453e-01
2.009000000000000000e+03 7.485312652587890625e+01 2.099431228637695312e+01 6.860996596515178680e-03 7.111736297607421875e+00 2.135579109191894531e+00 6.166226267814636230e-01
2.010000000000000000e+03 7.538933563232421875e+01 1.889044952392578125e+01 9.739518910646438599e-02 6.964350223541259766e+00 2.118523597717285156e+00 5.439279675483703613e-01
2.011000000000000000e+03 7.632533264160156250e+01 -2.086878585815429688e+01 4.547034502029418945e-01 7.859229564666748047e+00 2.494179964065551758e+00 -8.828268647193908691e-01
2.012000000000000000e+03 7.392403411865234375e+01 -2.163131141662597656e+01 7.957341074943542480e-01 9.193097114562988281e+00 2.996649265289306641e+00 -1.230508089065551758e+00
2.013000000000000000e+03 7.545764160156250000e+01 1.146959781646728516e+01 2.394611835479736328e-01 6.652530670166015625e+00 2.067597389221191406e+00 7.794317323714494705e-03
2.014000000000000000e+03 7.419209289550781250e+01 1.437076282501220703e+01 3.291136622428894043e-01 6.830024242401123047e+00 2.147741317749023438e+00 2.976388037204742432e-01
2.015000000000000000e+03 7.450145721435546875e+01 4.895746707916259766e+00 1.842056959867477417e-01 6.853239536285400391e+00 2.111233711242675781e+00 -5.352919697761535645e-01
2.016000000000000000e+03 7.420619964599609375e+01 -1.631748962402343750e+01 1.268703937530517578e+00 9.008500099182128906e+00 3.083161115646362305e+00 3.238013684749603271e-01
2.017000000000000000e+03 7.322932434082031250e+01 -1.703565788269042969e+01 1.559056401252746582e+00 9.621515274047851562e+00 3.354171514511108398e+00 8.781293779611587524e-02
2.018000000000000000e+03 7.396643829345703125e+01 -6.320099234580993652e-01 -9.752945601940155029e-02 7.120679378509521484e+00 2.106945037841796875e+00 -7.121450901031494141e-01
2.019000000000000000e+03 7.414472961425781250e+01 2.233912706375122070e+00 9.002827107906341553e-02 6.958226680755615234e+00 2.114476442337036133e+00 -6.667364835739135742e-01
2.020000000000000000e+03 7.066665649414062500e+01 1.502712535858154297e+01 6.533553004264831543e-01 7.197797775268554688e+00 2.355345964431762695e+00 4.298861026763916016e-01
2.021000000000000000e+03 7.399774932861328125e+01 -7.453948020935058594e+00 -7.738392353057861328e-01 8.106745719909667969e+00 2.199872016906738281e+00 -8.823021501302719116e-02
2.022000000000000000e+03 7.544239044189453125e+01 -6.308859825134277344e+00 -4.708552062511444092e-01 7.861389160156250000e+00 2.217160224914550781e+00 -1.029510647058486938e-01
2.023000000000000000e+03 7.215514373779296875e+01 -1.036112689971923828e+01 -1.193535208702087402e+00 9.033038139343261719e+00 2.351850986480712891e+00 3.260303288698196411e-02
2.024000000000000000e+03 7.453802490234375000e+01 -1.456087684631347656e+01 5.301541090011596680e-01 8.791707038879394531e+00 2.796558380126953125e+00 8.402587771415710449e-01
2.025000000000000000e+03 7.568031311035156250e+01 -1.077365112304687500e+01 -4.045947194099426270e-01 8.183022499084472656e+00 2.333528280258178711e+00 7.093040943145751953e-01
2.026000000000000000e+03 7.306454467773437500e+01 -1.001062774658203125e+01 -9.960913062095642090e-01 8.772448539733886719e+00 2.332907199859619141e+00 1.094525903463363647e-01
2.027000000000000000e+03 7.421811676025390625e+01 -3.411640882492065430e+00 -3.495943844318389893e-01 7.421689033508300781e+00 2.121628522872924805e+00 -5.822420120239257812e-01
2.028000000000000000e+03 7.425294494628906250e+01 -4.747601509094238281e+00 -5.000166893005371094e-01 7.627279281616210938e+00 2.138178825378417969e+00 -4.579631686210632324e-01
2.029000000000000000e+03 7.417996978759765625e+01 -6.089959621429443359e+00 -6.074778437614440918e-01 7.813633441925048828e+00 2.161846637725830078e+00 -2.995609641075134277e-01
2.030000000000000000e+03 7.549257659912109375e+01 -2.005362510681152344e+01 6.940662264823913574e-01 8.245127677917480469e+00 2.681758165359497070e+00 -8.141978383064270020e-01
2.031000000000000000e+03 7.350654602050781250e+01 -8.526228904724121094e+00 -8.401542305946350098e-01 8.268415451049804688e+00 2.228478431701660156e+00 -5.667426809668540955e-02
2.032000000000000000e+03 6.918092346191406250e+01 1.823497962951660156e+01 4.278983175754547119e-01 7.324474811553955078e+00 2.325711965560913086e+00 6.625880002975463867e-01
2.033000000000000000e+03 7.414099884033203125e+01 1.579566192626953125e+01 2.902048528194427490e-01 6.885041236877441406e+00 2.152573823928833008e+00 4.259992539882659912e-01
2.034000000000000000e+03 7.577726745605468750e+01 -2.552059364318847656e+01 -1.748582571744918823e-01 8.619335174560546875e+00 2.533343076705932617e+00 -1.256353855133056641e+00
2.035000000000000000e+03 7.448764038085937500e+01 6.125217914581298828e+00 2.244789153337478638e-01 6.805299758911132812e+00 2.108933448791503906e+00 -4.422331452369689941e-01
2.036000000000000000e+03 7.395745086669921875e+01 2.374765586853027344e+01 -1.533644646406173706e-01 7.233261108398437500e+00 2.123969078063964844e+00 5.905703306198120117e-01
2.037000000000000000e+03 7.507404327392578125e+01 2.548941421508789062e+01 -1.324960142374038696e-01 7.345907688140869141e+00 2.164023399353027344e+00 4.633438885211944580e-01
2.038000000000000000e+03 7.300691223144531250e+01 2.638259696960449219e+01 -2.877100110054016113e-01 7.197496891021728516e+00 2.072936058044433594e+00 4.447624385356903076e-01
2.039000000000000000e+03 7.376418304443359375e+01 2.525967216491699219e+01 -2.008253037929534912e-01 7.256447315216064453e+00 2.116686582565307617e+00 5.055001378059387207e-01
2.040000000000000000e+03 7.427679443359375000e+01 1.002635288238525391e+01 3.399856984615325928e-01 6.764562129974365234e+00 2.131364345550537109e+00 -1.299018114805221558e-01
2.041000000000000000e+03 7.411166381835937500e+01 1.293242549896240234e+01 3.673166930675506592e-01 6.810207843780517578e+00 2.153257369995117188e+00 1.633496433496475220e-01
2.042000000000000000e+03 7.414906311035156250e+01 1.145470428466796875e+01 3.630061447620391846e-01 6.778369426727294922e+00 2.142412662506103516e+00 1.797311380505561829e-02
2.043000000000000000e+03 7.381098937988281250e+01 3.254526138305664062e+01 -1.651461273431777954e-01 7.208474159240722656e+00 2.112998485565185547e+00 1.141452193260192871e-01
2.044000000000000000e+03 7.106523132324218750e+01 3.155491447448730469e+01 -2.688524723052978516e-01 6.713671684265136719e+00 1.933445692062377930e+00 4.469311237335205078e-02
2.045000000000000000e+03 7.094783782958984375e+01 -3.161235427856445312e+01 -8.706329464912414551e-01 7.297705650329589844e+00 1.928121805191040039e+00 3.645326197147369385e-02
2.046000000000000000e+03 7.413394165039062500e+01 1.926627349853515625e+01 1.207660511136054993e-01 7.038255691528320312e+00 2.147706508636474609e+00 6.217768788337707520e-01
2.047000000000000000e+03 7.407258605957031250e+01 1.722224998474121094e+01 2.355098277330398560e-01 6.948340892791748047e+00 2.155155181884765625e+00 5.278014540672302246e-01
2.048000000000000000e+03 6.566370391845703125e+01 -9.473073005676269531e+00 -1.124540448188781738e+00 3.653827190399169922e+00 7.587860226631164551e-01 -2.466141462326049805e+00
2.049000000000000000e+03 6.281806182861328125e+01 -8.569563865661621094e+00 -1.395453512668609619e-01 1.391934156417846680e+00 3.757166266441345215e-01 -5.972537398338317871e-01
2.050000000000000000e+03 7.557687377929687500e+01 -2.683461189270019531e+01 -3.121161460876464844e-01 8.776378631591796875e+00 2.539278745651245117e+00 -1.155202388763427734e+00
2.051000000000000000e+03 7.303843688964843750e+01 3.064348411560058594e+01 -2.179076224565505981e-01 7.099738121032714844e+00 2.064549207687377930e+00 1.688093245029449463e-01
2.052000000000000000e+03 4.886204147338867188e+01 -1.281509399414062500e+01 1.264556884765625000e+00 1.766150951385498047e+00 9.092124104499816895e-01 2.000382184982299805e+00
2.053000000000000000e+03 5.011978530883789062e+01 -1.112692260742187500e+01 8.276409506797790527e-01 1.052203178405761719e+00 5.639532208442687988e-01 2.370363473892211914e+00
2.054000000000000000e+03 6.422026157379150391e+00 3.108375167846679688e+01 -4.531641900539398193e-01 2.632526159286499023e+00 6.538085937500000000e-01 -5.830199718475341797e-01
2.055000000000000000e+03 6.161772251129150391e+00 -2.929193305969238281e+01 -3.766639530658721924e-01 2.531732320785522461e+00 6.465204954147338867e-01 1.107293605804443359e+00
2.056000000000000000e+03 3.663147735595703125e+01 -2.246633052825927734e+00 1.697936952114105225e-01 9.817940711975097656e+00 2.996320486068725586e+00 -8.096600174903869629e-01
2.057000000000000000e+03 4.547856807708740234e+00 2.763737106323242188e+01 -3.250320553779602051e-01 2.170817136764526367e+00 5.537355542182922363e-01 -9.287594556808471680e-01
2.058000000000000000e+03 5.924738407135009766e+00 2.756174850463867188e+01 -4.346190989017486572e-01 2.513855457305908203e+00 6.237708926200866699e-01 -9.523086547851562500e-01
2.059000000000000000e+03 4.624989032745361328e+00 -2.713577079772949219e+01 -1.851038336753845215e-01 1.940190792083740234e+00 5.265260934829711914e-01 1.169879913330078125e+00
2.060000000000000000e+03 4.888743400573730469e+00 -1.178191661834716797e+01 2.618106603622436523e-01 5.456218123435974121e-01 2.422297447919845581e-01 -2.972557246685028076e-01
2.061000000000000000e+03 4.864764690399169922e+00 -1.050291824340820312e+01 1.844186186790466309e-01 4.755831956863403320e-01 1.980005502700805664e-01 -3.727731704711914062e-01
2.062000000000000000e+03 5.949554061889648438e+01 -8.457040786743164062e+00 -1.014611497521400452e-01 1.319228053092956543e+00 3.653300702571868896e-01 6.189635992050170898e-01
2.063000000000000000e+03 6.045913219451904297e+00 -2.291140747070312500e+01 2.077172845602035522e-01 2.091860294342041016e+00 6.898732781410217285e-01 1.394650936126708984e+00
2.064000000000000000e+03 4.667376041412353516e+00 2.348964500427246094e+01 -1.092771291732788086e-01 1.741302609443664551e+00 4.896076321601867676e-01 -1.336707234382629395e+00
2.065000000000000000e+03 6.920690536499023438e+00 2.429106330871582031e+01 -3.777354657649993896e-01 2.893395900726318359e+00 7.546981573104858398e-01 -1.400874257087707520e+00
2.066000000000000000e+03 1.072229957580566406e+01 2.540371894836425781e+01 -1.149531483650207520e+00 4.152156829833984375e+00 9.007875919342041016e-01 -7.900946140289306641e-01
2.067000000000000000e+03 5.389154434204101562e+00 -1.596921539306640625e+01 6.250250935554504395e-01 1.019622683525085449e+00 4.933943450450897217e-01 2.853680551052093506e-01
2.068000000000000000e+03 4.413354396820068359e+00 -2.008531379699707031e+01 3.564870059490203857e-01 8.026748299598693848e-01 3.477485477924346924e-01 9.450464844703674316e-01
2.069000000000000000e+03 3.846808910369873047e+00 1.482145595550537109e+01 4.268121719360351562e-01 -1.988505423069000244e-01 6.838849186897277832e-02 -4.303310215473175049e-01
2.070000000000000000e+03 1.137672424316406250e+01 1.628733634948730469e+01 1.603856325149536133e+00 7.030419349670410156e+00 2.590282678604125977e+00 -9.381439089775085449e-01
2.071000000000000000e+03 5.865525245666503906e+00 1.723215293884277344e+01 6.959967613220214844e-01 1.652339220046997070e+00 7.045007944107055664e-01 -1.132806420326232910e+00
2.072000000000000000e+03 8.993414878845214844e+00 -1.847101020812988281e+01 1.361760377883911133e+00 3.861577033996582031e+00 1.567001223564147949e+00 9.895525574684143066e-01
2.073000000000000000e+03 7.507785320281982422e+00 -2.317144012451171875e+01 2.550856471061706543e-01 2.805692195892333984e+00 9.182333946228027344e-01 1.527248859405517578e+00
2.074000000000000000e+03 4.451396942138671875e+00 2.634343147277832031e+01 -2.543181180953979492e-01 2.020091533660888672e+00 5.297320485115051270e-01 -1.033921122550964355e+00
2.075000000000000000e+03 1.126414108276367188e+01 -2.514132118225097656e+01 -4.315308630466461182e-01 4.509857654571533203e+00 1.223497986793518066e+00 1.085406661033630371e+00
2.076000000000000000e+03 4.574479103088378906e+00 1.329481220245361328e+01 5.589643716812133789e-01 2.164776325225830078e-01 2.326325923204421997e-01 -1.729515045881271362e-01
2.077000000000000000e+03 5.379730701446533203e+00 1.545545864105224609e+01 7.124979496002197266e-01 1.114511728286743164e+00 5.481029152870178223e-01 -7.314697504043579102e-01
2.078000000000000000e+03 3.953564167022705078e+00 -1.319759750366210938e+01 2.983962297439575195e-01 -1.954673090949654579e-03 8.893246203660964966e-02 -1.903871893882751465e-01
2.079000000000000000e+03 1.251807975769042969e+01 -9.534255981445312500e+00 -6.301194429397583008e-01 5.186090469360351562e+00 1.366791367530822754e+00 1.361634254455566406e+00
2.080000000000000000e+03 4.993121147155761719e+00 3.141323089599609375e+01 -2.786657512187957764e-01 2.473307132720947266e+00 6.583924293518066406e-01 -5.482588410377502441e-01
2.081000000000000000e+03 6.447044372558593750e+00 2.172972106933593750e+01 -4.580967128276824951e-03 2.438686370849609375e+00 7.302316427230834961e-01 -1.597371339797973633e+00
2.082000000000000000e+03 5.511941909790039062e+00 1.865832710266113281e+01 4.826617240905761719e-01 1.571431040763854980e+00 6.162278056144714355e-01 -1.268669247627258301e+00
2.083000000000000000e+03 5.304214000701904297e+00 2.010140228271484375e+01 2.147437185049057007e-01 1.638941884040832520e+00 5.561056733131408691e-01 -1.427986860275268555e+00
2.084000000000000000e+03 5.975524902343750000e+00 -2.132893371582031250e+01 4.350967407226562500e-01 1.891363263130187988e+00 6.979380249977111816e-01 1.306006550788879395e+00
2.085000000000000000e+03 5.396677970886230469e+00 -1.846564102172851562e+01 6.966900825500488281e-01 1.284331202507019043e+00 5.943064093589782715e-01 7.782186865806579590e-01
2.086000000000000000e+03 7.180694103240966797e+00 -3.340843963623046875e+01 -4.718270897865295410e-01 2.651614189147949219e+00 6.539361476898193359e-01 6.463116407394409180e-01
2.087000000000000000e+03 5.513735961914062500e+01 -1.124133014678955078e+01 -4.742965698242187500e-01 8.961111903190612793e-01 1.265444010496139526e-01 1.281576514244079590e+00
2.088000000000000000e+03 5.234865188598632812e+01 -1.129478073120117188e+01 1.346601545810699463e-01 9.539304375648498535e-01 3.265771865844726562e-01 1.968137502670288086e+00
2.089000000000000000e+03 5.109404373168945312e+01 -8.221169471740722656e+00 3.978323638439178467e-01 1.187510013580322266e+00 4.756027162075042725e-01 2.803879499435424805e+00
2.090000000000000000e+03 6.030634880065917969e+00 -2.821273422241210938e+01 -3.477648496627807617e-01 2.444284439086914062e+00 6.289558410644531250e-01 1.191521883010864258e+00
2.091000000000000000e+03 8.788459777832031250e+00 9.624949455261230469e+00 9.244553446769714355e-01 3.009979248046875000e+00 1.180330395698547363e+00 -1.192665696144104004e-01
2.092000000000000000e+03 4.132765293121337891e+00 9.667887687683105469e+00 3.982088565826416016e-01 -2.130763679742813110e-01 5.553974583745002747e-02 4.738446176052093506e-01
2.093000000000000000e+03 5.328165531158447266e+00 9.843412399291992188e+00 5.493050813674926758e-01 5.372650623321533203e-01 3.259710371494293213e-01 4.158673286437988281e-01
2.094000000000000000e+03 3.800836563110351562e+00 -7.841468334197998047e+00 7.755032181739807129e-02 -1.488786935806274414e-01 -2.139851078391075134e-02 -5.081536769866943359e-01
2.095000000000000000e+03 6.639409637451171875e+01 -8.501018524169921875e+00 -8.606464266777038574e-01 4.584517002105712891e+00 1.117161154747009277e+00 -2.241607666015625000e+00
2.096000000000000000e+03 5.286997318267822266e+00 -1.449601745605468750e+01 5.403506755828857422e-01 9.359893798828125000e-01 4.429020285606384277e-01 1.202979870140552521e-02
2.097000000000000000e+03 5.362562179565429688e+00 8.472908973693847656e+00 4.754523038864135742e-01 4.324318468570709229e-01 2.723652422428131104e-01 5.741421580314636230e-01
2.098000000000000000e+03 9.581253051757812500e+00 -1.955225944519042969e+01 1.393160104751586914e+00 4.202363014221191406e+00 1.678656935691833496e+00 1.160839438438415527e+00
2.099000000000000000e+03 5.880064487457275391e+00 -6.346560955047607422e+00 8.620571345090866089e-02 5.115951895713806152e-01 1.793402731418609619e-01 -4.065205156803131104e-01
2.100000000000000000e+03 4.869799613952636719e+00 -9.198803901672363281e+00 1.453537046909332275e-01 4.174038469791412354e-01 1.688272655010223389e-01 -4.237149059772491455e-01
2.101000000000000000e+03 6.383382034301757812e+01 -9.485601425170898438e+00 -8.376541733741760254e-01 1.068247556686401367e+00 6.917799264192581177e-02 -1.319157361984252930e+00
2.102000000000000000e+03 6.111562347412109375e+01 -8.509932518005371094e+00 -1.306254118680953979e-01 1.218055129051208496e+00 3.262289166450500488e-01 1.169179677963256836e-01
2.103000000000000000e+03 6.154323196411132812e+01 1.032789573073387146e-01 1.121610164642333984e+00 4.571633338928222656e+00 1.707973003387451172e+00 1.192773938179016113e+00
2.104000000000000000e+03 4.237241363525390625e+01 -8.440507888793945312e+00 -4.303691387176513672e-01 5.001713275909423828e+00 1.371403217315673828e+00 -1.025584459304809570e+00
2.105000000000000000e+03 4.480430984497070312e+01 -1.078003120422363281e+01 8.180142045021057129e-01 3.818701744079589844e+00 1.391014814376831055e+00 5.137083530426025391e-01
2.106000000000000000e+03 1.455857944488525391e+01 2.319414329528808594e+01 -1.486464142799377441e+00 4.921461582183837891e+00 1.030499219894409180e+00 5.298157930374145508e-01
2.107000000000000000e+03 1.156906700134277344e+01 2.381474113464355469e+01 -1.054250836372375488e+00 4.713744163513183594e+00 1.097847938537597656e+00 -8.127872347831726074e-01
2.108000000000000000e+03 4.159314346313476562e+01 -1.759289360046386719e+01 2.030014276504516602e+00 8.952495574951171875e+00 3.294752836227416992e+00 -1.260338664054870605e+00
2.109000000000000000e+03 1.220099544525146484e+01 -3.112672805786132812e+01 -1.032679200172424316e+00 3.158587455749511719e+00 6.377725005149841309e-01 3.027259111404418945e-01
2.110000000000000000e+03 1.662527656555175781e+01 -3.248465347290039062e+01 -1.009687900543212891e+00 2.178537130355834961e+00 3.506548106670379639e-01 -3.705854117870330811e-01
2.111000000000000000e+03 4.570434570312500000e+01 1.989104652404785156e+01 3.257326036691665649e-02 2.736756086349487305e+00 8.307988047599792480e-01 1.554439544677734375e+00
2.112000000000000000e+03 1.292316913604736328e+01 -2.562082672119140625e+01 -6.751053333282470703e-01 4.612833499908447266e+00 1.181318402290344238e+00 4.157404005527496338e-01
2.113000000000000000e+03 1.180597019195556641e+01 -1.378302192687988281e+01 1.044605374336242676e+00 5.911838054656982422e+00 2.086933135986328125e+00 5.011117458343505859e-01
2.114000000000000000e+03 4.692171859741210938e+01 2.178631401062011719e+01 -4.567796587944030762e-01 2.421653270721435547e+00 5.894620418548583984e-01 1.481027722358703613e+00
2.115000000000000000e+03 4.129864883422851562e+01 2.145349311828613281e+01 -6.365290284156799316e-01 4.828354358673095703e+00 1.257547616958618164e+00 1.318916440010070801e+00
2.116000000000000000e+03 3.706917190551757812e+01 -6.833561897277832031e+00 -1.559404492378234863e+00 9.479085922241210938e+00 2.375904321670532227e+00 -1.688536047935485840e+00
2.117000000000000000e+03 6.457857513427734375e+01 2.168675184249877930e+00 7.186779975891113281e-01 6.096928119659423828e+00 2.044681787490844727e+00 2.540128827095031738e-01
2.118000000000000000e+03 5.859201049804687500e+01 -6.850707054138183594e+00 5.362821221351623535e-01 1.772786259651184082e+00 6.927204728126525879e-01 9.680986404418945312e-01
2.119000000000000000e+03 1.083781433105468750e+01 1.389237308502197266e+01 1.809373617172241211e+00 5.834134101867675781e+00 2.293052434921264648e+00 -1.058920025825500488e+00
2.120000000000000000e+03 5.409429168701171875e+01 -7.798512935638427734e+00 3.751691579818725586e-01 1.913998842239379883e+00 6.867504119873046875e-01 1.975101470947265625e+00
2.121000000000000000e+03 1.060774421691894531e+01 -2.736102485656738281e+01 -7.937816381454467773e-01 3.798084497451782227e+00 9.012908339500427246e-01 9.979048967361450195e-01
2.122000000000000000e+03 7.092710113525390625e+01 -2.559282875061035156e+01 -7.049223184585571289e-01 9.158153533935546875e+00 2.535969257354736328e+00 -5.485181808471679688e-01
2.123000000000000000e+03 5.889477920532226562e+01 -5.913200855255126953e+00 9.353576898574829102e-01 1.960046529769897461e+00 8.686212897300720215e-01 1.006269335746765137e+00
2.124000000000000000e+03 7.331642150878906250e+01 -1.279036045074462891e+01 -4.046475514769554138e-02 9.162446975708007812e+00 2.736594676971435547e+00 7.897121310234069824e-01
2.125000000000000000e+03 6.989190673828125000e+01 -1.290968513488769531e+01 -3.952871263027191162e-01 1.021917057037353516e+01 2.947165012359619141e+00 -4.957188367843627930e-01
2.126000000000000000e+03 4.276012039184570312e+01 1.957316780090332031e+01 -9.000401943922042847e-02 4.409029006958007812e+00 1.295707583427429199e+00 1.708019614219665527e+00
2.127000000000000000e+03 3.800732421875000000e+01 1.755425453186035156e+01 -1.481068041175603867e-02 6.779077053070068359e+00 2.029279947280883789e+00 6.215738654136657715e-01
2.128000000000000000e+03 3.964439773559570312e+01 -1.810605049133300781e+01 1.950065135955810547e+00 9.752552986145019531e+00 3.510785579681396484e+00 -1.644251585006713867e+00
2.129000000000000000e+03 3.792660140991210938e+01 -1.351710677146911621e+00 5.676521062850952148e-01 1.001349449157714844e+01 3.174344062805175781e+00 -9.141535758972167969e-01
2.130000000000000000e+03 3.608197402954101562e+01 -8.442393541336059570e-01 1.297728776931762695e+00 1.012491893768310547e+01 3.426794290542602539e+00 -1.930717378854751587e-01
2.131000000000000000e+03 3.915538787841796875e+01 -4.938977241516113281e+00 -1.711183667182922363e+00 8.542634010314941406e+00 2.049435138702392578e+00 -1.682535767555236816e+00
2.132000000000000000e+03 3.729337692260742188e+01 -2.959200859069824219e+00 -5.695354342460632324e-01 9.729235649108886719e+00 2.747910022735595703e+00 -1.127312183380126953e+00
2.133000000000000000e+03 4.036805725097656250e+01 -4.493208885192871094e+00 -1.551025867462158203e+00 7.360461711883544922e+00 1.742830753326416016e+00 -2.136893749237060547e+00
2.134000000000000000e+03 7.254814910888671875e+01 -1.385194110870361328e+01 3.454017639160156250e-01 9.941942214965820312e+00 3.086203336715698242e+00 7.868079543113708496e-01
2.135000000000000000e+03 9.867607116699218750e+00 -1.493494987487792969e+01 1.291421055793762207e+00 4.410254478454589844e+00 1.710502743721008301e+00 3.486402928829193115e-01
2.136000000000000000e+03 6.735394287109375000e+01 1.219703292846679688e+01 9.587473869323730469e-01 7.865584373474121094e+00 2.647299528121948242e+00 2.376816868782043457e-01
2.137000000000000000e+03 3.768889999389648438e+01 -2.990233039855957031e+01 -5.313430428504943848e-01 6.703537940979003906e+00 1.851658463478088379e+00 7.678351998329162598e-01
2.138000000000000000e+03 3.603433227539062500e+01 -2.758271408081054688e+01 1.050155237317085266e-01 6.261357307434082031e+00 1.909911870956420898e+00 1.070536017417907715e+00
2.139000000000000000e+03 6.583131408691406250e+01 1.123861217498779297e+01 9.545270204544067383e-01 8.378275871276855469e+00 2.799840927124023438e+00 3.453535437583923340e-01
2.140000000000000000e+03 7.307757568359375000e+01 9.935764312744140625e+00 4.467776715755462646e-01 6.854700088500976562e+00 2.190443277359008789e+00 -1.281969100236892700e-01
2.141000000000000000e+03 4.070814514160156250e+01 -1.599756336212158203e+01 1.907540321350097656e+00 8.759982109069824219e+00 3.200256824493408203e+00 -1.506880402565002441e+00
2.142000000000000000e+03 6.624443054199218750e+01 2.493678665161132812e+01 -9.404338002204895020e-01 6.665178298950195312e+00 1.717423319816589355e+00 -4.812991246581077576e-02
2.143000000000000000e+03 4.378263854980468750e+01 -2.966214370727539062e+01 8.102164417505264282e-02 8.046854019165039062e+00 2.438362598419189453e+00 -1.031215071678161621e+00
2.144000000000000000e+03 4.533967208862304688e+01 -2.806878852844238281e+01 1.274693846702575684e+00 8.727475166320800781e+00 3.000650644302368164e+00 -2.162015199661254883e+00
2.145000000000000000e+03 1.611104965209960938e+01 2.552764320373535156e+01 -1.137600302696228027e+00 3.077706575393676758e+00 5.820318460464477539e-01 1.092641592025756836e+00
2.146000000000000000e+03 1.282861423492431641e+01 2.415007019042968750e+01 -1.351728558540344238e+00 4.908328056335449219e+00 1.066979885101318359e+00 -1.876833885908126831e-01
2.147000000000000000e+03 4.107933044433593750e+01 -2.582246780395507812e+01 1.551466941833496094e+00 8.540748596191406250e+00 3.027664661407470703e+00 -7.813590168952941895e-01
2.148000000000000000e+03 5.144274902343750000e+01 2.395539855957031250e+01 -7.327666878700256348e-01 9.661704301834106445e-01 7.002113014459609985e-02 1.008078455924987793e+00
2.149000000000000000e+03 2.903695297241210938e+01 2.716150283813476562e+01 -9.447958469390869141e-01 2.759886980056762695e+00 5.445273518562316895e-01 -1.034200191497802734e+00
2.150000000000000000e+03 6.796310424804687500e+01 1.469199085235595703e+01 8.888401985168457031e-01 7.675070285797119141e+00 2.569173097610473633e+00 3.594395518302917480e-01
2.151000000000000000e+03 7.195460510253906250e+01 1.808402252197265625e+01 2.976917028427124023e-01 7.116898536682128906e+00 2.224377155303955078e+00 6.514261364936828613e-01
2.152000000000000000e+03 3.899161911010742188e+01 -2.051773262023925781e+01 1.822856664657592773e+00 9.879566192626953125e+00 3.510726928710937500e+00 -1.129998207092285156e+00
2.153000000000000000e+03 3.987509536743164062e+01 -2.088068008422851562e+01 1.974429011344909668e+00 9.653713226318359375e+00 3.488442659378051758e+00 -1.366601586341857910e+00
2.154000000000000000e+03 6.478942871093750000e+01 7.029298305511474609e+00 9.827489256858825684e-01 7.742544174194335938e+00 2.617588043212890625e+00 5.790668129920959473e-01
2.155000000000000000e+03 6.641098022460937500e+01 8.111992835998535156e+00 9.460049867630004883e-01 7.660105705261230469e+00 2.581833362579345703e+00 2.069071233272552490e-01
2.156000000000000000e+03 1.633847236633300781e+01 2.974254608154296875e+01 -7.397797703742980957e-01 2.455866813659667969e+00 5.148261189460754395e-01 5.308938622474670410e-01
2.157000000000000000e+03 1.769828033447265625e+01 2.859978485107421875e+01 -6.552371978759765625e-01 2.069722414016723633e+00 4.243455529212951660e-01 7.257353067398071289e-01
2.158000000000000000e+03 6.559640502929687500e+01 5.225953102111816406e+00 8.307906389236450195e-01 7.085524559020996094e+00 2.374894618988037109e+00 2.140655368566513062e-01
2.159000000000000000e+03 6.603056335449218750e+01 6.677794456481933594e+00 9.137898683547973633e-01 7.360764980316162109e+00 2.482366561889648438e+00 2.267596125602722168e-01
2.160000000000000000e+03 6.156274032592773438e+01 -6.140194892883300781e+00 5.488824844360351562e-01 2.259892225265502930e+00 8.426324129104614258e-01 1.119549199938774109e-01
2.161000000000000000e+03 6.705831146240234375e+01 1.087853908538818359e+01 9.841745495796203613e-01 7.894437313079833984e+00 2.663583517074584961e+00 2.166900038719177246e-01
2.162000000000000000e+03 3.927723312377929688e+01 -3.269591522216796875e+01 -1.198109984397888184e+00 6.536535263061523438e+00 1.601527571678161621e+00 5.001465082168579102e-01
2.163000000000000000e+03 3.051593208312988281e+01 -2.680724143981933594e+00 3.289943218231201172e+00 3.260598659515380859e+00 1.965162634849548340e+00 2.022056281566619873e-01
2.164000000000000000e+03 2.298461723327636719e+01 3.072059440612792969e+01 -2.795695364475250244e-01 1.431330323219299316e+00 3.455282449722290039e-01 -1.701137870550155640e-01
2.165000000000000000e+03 2.636800765991210938e+01 2.928365135192871094e+01 -5.194801688194274902e-01 1.877557873725891113e+00 4.074233174324035645e-01 -7.514409422874450684e-01
2.166000000000000000e+03 5.327846527099609375e+01 -1.135948371887207031e+01 5.794778931885957718e-03 8.362699747085571289e-01 2.526194155216217041e-01 1.789805173873901367e+00
2.167000000000000000e+03 5.171561431884765625e+01 -9.639114379882812500e+00 3.246298134326934814e-01 1.175305962562561035e+00 4.499807357788085938e-01 2.479551315307617188e+00
2.168000000000000000e+03 7.009930419921875000e+01 -2.866094589233398438e+01 -1.170203447341918945e+00 7.518062114715576172e+00 1.904357552528381348e+00 1.163547784090042114e-01
2.169000000000000000e+03 6.702208709716796875e+01 -3.060466384887695312e+01 -1.070678710937500000e+00 4.845893383026123047e+00 1.132564306259155273e+00 9.226461052894592285e-01
2.170000000000000000e+03 5.700401306152343750e+01 2.796907806396484375e+01 3.890683874487876892e-03 1.923589468002319336e+00 5.782440304756164551e-01 -4.089548289775848389e-01
2.171000000000000000e+03 6.175912857055664062e+01 -1.747324585914611816e+00 1.122291684150695801e+00 3.901571512222290039e+00 1.507158994674682617e+00 7.544131875038146973e-01
2.172000000000000000e+03 4.274209213256835938e+01 -1.237024116516113281e+01 1.052751541137695312e+00 6.031187534332275391e+00 2.125181674957275391e+00 -5.277144908905029297e-01
2.173000000000000000e+03 3.623624801635742188e+01 1.821086502075195312e+01 -1.101790219545364380e-01 6.516386032104492188e+00 1.921862125396728516e+00 -2.526407875120639801e-02
2.174000000000000000e+03 2.740319252014160156e+01 -3.339175462722778320e+00 3.741693019866943359e+00 -8.783271163702011108e-02 1.096158027648925781e+00 2.009043544530868530e-01
2.175000000000000000e+03 2.546163558959960938e+01 -3.784818172454833984e+00 3.599588632583618164e+00 -7.198932766914367676e-01 8.639085888862609863e-01 3.489448502659797668e-02
2.176000000000000000e+03 5.507141113281250000e+01 -3.773177337646484375e+01 3.627074360847473145e-01 1.193772196769714355e+00 4.669438898563385010e-01 -6.137116551399230957e-01
2.177000000000000000e+03 5.655580139160156250e+01 -4.081871414184570312e+01 7.457825541496276855e-01 1.246558547019958496e+00 5.977023243904113770e-01 -1.160632744431495667e-01
2.178000000000000000e+03 7.226855468750000000e+01 -2.054086494445800781e+01 1.478621721267700195e+00 1.046532154083251953e+01 3.583183050155639648e+00 -8.529195189476013184e-01
2.179000000000000000e+03 6.511152648925781250e+01 3.740920305252075195e+00 7.712715268135070801e-01 6.639833450317382812e+00 2.223331451416015625e+00 2.712981402873992920e-01
2.180000000000000000e+03 4.729767608642578125e+01 -3.263373947143554688e+01 -7.889618277549743652e-01 5.586645603179931641e+00 1.439305186271667480e+00 -2.018376827239990234e+00
2.181000000000000000e+03 4.894039154052734375e+01 -3.505242156982421875e+01 -8.643390536308288574e-01 4.170816421508789062e+00 9.919432997703552246e-01 -1.728597164154052734e+00
2.182000000000000000e+03 6.606094837188720703e+00 -1.625853919982910156e+01 9.358182549476623535e-01 1.883814573287963867e+00 8.458898663520812988e-01 3.910209238529205322e-01
2.183000000000000000e+03 1.012638378143310547e+01 -1.780045509338378906e+01 1.567746758460998535e+00 4.762664318084716797e+00 1.899123311042785645e+00 8.977098464965820312e-01
2.184000000000000000e+03 4.403091049194335938e+01 -2.825785827636718750e+01 8.143012523651123047e-01 8.777251243591308594e+00 2.877465724945068359e+00 -1.131001591682434082e+00
2.185000000000000000e+03 4.532779693603515625e+01 -2.974615287780761719e+01 2.896177768707275391e-01 7.896859169006347656e+00 2.455943107604980469e+00 -1.676777362823486328e+00
2.186000000000000000e+03 3.940828704833984375e+01 -1.066085624694824219e+01 2.991989850997924805e-01 8.251229286193847656e+00 2.565128326416015625e+00 -1.436070561408996582e+00
2.187000000000000000e+03 3.832878112792968750e+01 -1.132112979888916016e+01 7.225368022918701172e-01 9.077085494995117188e+00 2.939886569976806641e+00 -1.645112752914428711e+00
2.188000000000000000e+03 4.573301315307617188e+01 -8.122313499450683594e+00 2.288428507745265961e-02 1.692765593528747559e+00 5.146949887275695801e-01 5.096207261085510254e-01
2.189000000000000000e+03 4.783842086791992188e+01 -9.894490242004394531e+00 7.884085774421691895e-01 1.542762637138366699e+00 6.993513703346252441e-01 1.932041525840759277e+00
2.190000000000000000e+03 7.186192321777343750e+01 4.091915893554687500e+01 7.516803219914436340e-03 6.728238105773925781e+00 2.020726442337036133e+00 -1.046040002256631851e-02
2.191000000000000000e+03 7.499583435058593750e+01 3.998748016357421875e+01 1.299330219626426697e-02 7.480015277862548828e+00 2.247902631759643555e+00 6.878782808780670166e-02
2.192000000000000000e+03 4.516954421997070312e+01 -1.293302345275878906e+01 1.140731453895568848e+00 4.798505306243896484e+00 1.781770944595336914e+00 7.199316620826721191e-01
2.193000000000000000e+03 4.301792526245117188e+01 -1.354204368591308594e+01 1.371538877487182617e+00 6.480568408966064453e+00 2.355632066726684570e+00 -3.537861704826354980e-01
2.194000000000000000e+03 1.664618301391601562e+01 2.719095230102539062e+01 -9.083905816078186035e-01 2.547330141067504883e+00 4.916818439960479736e-01 8.944135904312133789e-01
2.195000000000000000e+03 1.720006942749023438e+01 2.603504753112792969e+01 -9.922632575035095215e-01 2.143393754959106445e+00 3.453391194343566895e-01 9.716327190399169922e-01
2.196000000000000000e+03 6.810601043701171875e+01 -3.079738426208496094e+01 -1.131489157676696777e+00 5.715950489044189453e+00 1.375338435173034668e+00 6.079769134521484375e-01
2.197000000000000000e+03 6.649206542968750000e+01 -3.232960128784179688e+01 -7.799475789070129395e-01 4.271640777587890625e+00 1.047507882118225098e+00 8.337025642395019531e-01
2.198000000000000000e+03 3.977685165405273438e+01 -7.697063922882080078e+00 -1.186695694923400879e+00 7.615103721618652344e+00 1.928522348403930664e+00 -1.709573626518249512e+00
2.199000000000000000e+03 5.955081176757812500e+01 -9.917163848876953125e+00 -9.071568846702575684e-01 9.450882077217102051e-01 1.137938071042299271e-02 4.598331451416015625e-01
2.200000000000000000e+03 1.833598327636718750e+01 -1.854928880929946899e-01 8.535875320434570312e+00 7.409869670867919922e+00 4.783723354339599609e+00 -1.874418258666992188e+00
2.201000000000000000e+03 1.846787071228027344e+01 3.889899551868438721e-01 8.264101982116699219e+00 7.006916999816894531e+00 4.581305503845214844e+00 -5.472973585128784180e-01
2.202000000000000000e+03 1.725896453857421875e+01 -2.273473978042602539e+00 1.647527337074279785e+00 1.101917457580566406e+01 3.800010681152343750e+00 -5.591704845428466797e-01
2.203000000000000000e+03 1.640021705627441406e+01 -2.673567056655883789e+00 5.394187569618225098e-01 1.040355110168457031e+01 3.282890796661376953e+00 2.069074630737304688e+00
2.204000000000000000e+03 1.933183097839355469e+01 1.380983471870422363e+00 5.213710784912109375e+00 4.708287239074707031e+00 2.976599454879760742e+00 3.092350959777832031e-01
2.205000000000000000e+03 1.701619720458984375e+01 2.480331182479858398e+00 2.688417434692382812e-01 1.236039543151855469e+01 3.788771152496337891e+00 -1.668888092041015625e+00
2.206000000000000000e+03 1.623649215698242188e+01 3.282425403594970703e+00 -1.042737960815429688e+00 1.035953617095947266e+01 2.795039415359497070e+00 -3.680177211761474609e+00
2.207000000000000000e+03 1.816129112243652344e+01 2.041702508926391602e+00 3.063038349151611328e+00 8.730997085571289062e+00 3.538210630416870117e+00 5.000892877578735352e-01
2.208000000000000000e+03 1.812745666503906250e+01 1.050134778022766113e+00 7.023639678955078125e+00 8.955745697021484375e+00 4.793815612792968750e+00 7.546722292900085449e-01
2.209000000000000000e+03 1.285901260375976562e+01 -3.488178014755249023e+00 9.805728793144226074e-01 2.467388629913330078e+00 1.034388422966003418e+00 2.537849664688110352e+00
2.210000000000000000e+03 1.420770454406738281e+01 -2.700569868087768555e+00 1.623752593994140625e+00 4.048190116882324219e+00 1.701582789421081543e+00 3.690469264984130859e+00
2.211000000000000000e+03 1.839066123962402344e+01 1.174590229988098145e+00 6.176287651062011719e+00 7.551331996917724609e+00 4.118286132812500000e+00 5.869266986846923828e-01
2.212000000000000000e+03 2.007034873962402344e+01 2.588826894760131836e+00 2.036360263824462891e+00 3.005456924438476562e+00 1.512545228004455566e+00 4.476718306541442871e-01
2.213000000000000000e+03 1.762234687805175781e+01 4.557232379913330078e+00 -1.805407285690307617e+00 7.799083709716796875e+00 1.798102974891662598e+00 -1.797769546508789062e+00
2.214000000000000000e+03 1.848538780212402344e+01 1.756318330764770508e+00 4.315791606903076172e+00 7.503500461578369141e+00 3.545787572860717773e+00 6.764420270919799805e-01
2.215000000000000000e+03 1.787769508361816406e+01 2.350571393966674805e+00 1.691286921501159668e+00 9.766863822937011719e+00 3.437445163726806641e+00 -4.032205790281295776e-02
2.216000000000000000e+03 1.368958282470703125e+01 -2.575420856475830078e+00 1.585820317268371582e+00 2.782471656799316406e+00 1.310487627983093262e+00 3.121375799179077148e+00
2.217000000000000000e+03 1.718365097045898438e+01 5.133995056152343750e+00 -2.060847282409667969e+00 7.735672473907470703e+00 1.702447533607482910e+00 -2.244294643402099609e+00
2.218000000000000000e+03 1.324862384796142578e+01 -2.768172502517700195e+00 1.387959837913513184e+00 2.290430068969726562e+00 1.103516936302185059e+00 2.720098257064819336e+00
2.219000000000000000e+03 1.209615135192871094e+01 -3.206439256668090820e+00 8.354331851005554199e-01 1.571549654006958008e+00 7.220948338508605957e-01 1.823908209800720215e+00
2.220000000000000000e+03 1.401206302642822266e+01 2.244103431701660156e+00 1.689651012420654297e+00 3.485371351242065430e+00 1.552506685256958008e+00 -4.274942398071289062e+00
2.221000000000000000e+03 1.384023952484130859e+01 2.421880722045898438e+00 1.456410765647888184e+00 3.347566843032836914e+00 1.441193342208862305e+00 -4.120247840881347656e+00
2.222000000000000000e+03 1.270333862304687500e+01 -3.002798795700073242e+00 1.085741639137268066e+00 1.882940649986267090e+00 8.906046748161315918e-01 2.249317169189453125e+00
2.223000000000000000e+03 1.493722248077392578e+01 6.477449893951416016e+00 -1.274183750152587891e+00 7.503962039947509766e+00 1.868933558464050293e+00 -2.800210475921630859e+00
2.224000000000000000e+03 2.009253883361816406e+01 1.121792793273925781e+00 5.003202915191650391e+00 2.720987319946289062e+00 2.317257165908813477e+00 -1.609602123498916626e-01
2.225000000000000000e+03 2.112312316894531250e+01 3.632677495479583740e-01 5.093926906585693359e+00 7.550831437110900879e-01 1.754703044891357422e+00 -7.047395110130310059e-01
2.226000000000000000e+03 1.618899345397949219e+01 5.909171104431152344e+00 -1.965699076652526855e+00 7.618840694427490234e+00 1.695942521095275879e+00 -2.826122999191284180e+00
2.227000000000000000e+03 1.208691024780273438e+01 3.448781728744506836e+00 3.635409176349639893e-01 2.321665525436401367e+00 8.055619001388549805e-01 -2.108964920043945312e+00
2.228000000000000000e+03 2.304200935363769531e+01 -4.572310745716094971e-01 4.703100681304931641e+00 -1.149216413497924805e+00 1.066165328025817871e+00 -4.895932674407958984e-01
2.229000000000000000e+03 1.669930839538574219e+01 5.624228954315185547e+00 -2.067715644836425781e+00 7.641504287719726562e+00 1.672136545181274414e+00 -2.624266624450683594e+00
2.230000000000000000e+03 7.559508323669433594e+00 -5.969975471496582031e+00 1.295398920774459839e-01 1.013455867767333984e+00 3.428987264633178711e-01 -4.838628694415092468e-02
2.231000000000000000e+03 5.740831851959228516e+00 -5.359875202178955078e+00 2.201677858829498291e-02 3.282245993614196777e-01 1.050724089145660400e-01 -4.442429244518280029e-01
2.232000000000000000e+03 8.295338630676269531e+00 -5.720131874084472656e+00 1.320255100727081299e-01 1.262973546981811523e+00 4.184997379779815674e-01 1.973060071468353271e-01
2.233000000000000000e+03 1.041368675231933594e+01 -4.968113422393798828e+00 2.900967597961425781e-01 1.795922517776489258e+00 6.258057951927185059e-01 1.091133236885070801e+00
2.234000000000000000e+03 9.086564064025878906e+00 -5.128578186035156250e+00 1.748679578304290771e-01 1.307016611099243164e+00 4.445653557777404785e-01 4.731318950653076172e-01
2.235000000000000000e+03 7.923555374145507812e+00 -6.703556060791015625e+00 1.125480905175209045e-01 1.408486723899841309e+00 4.563104510307312012e-01 5.451166629791259766e-02
2.236000000000000000e+03 9.738180160522460938e+00 -5.180108070373535156e+00 2.334122806787490845e-01 1.621682047843933105e+00 5.565283298492431641e-01 7.753408551216125488e-01
2.237000000000000000e+03 1.416817569732666016e+01 -1.028756046295166016e+01 -9.579202532768249512e-01 6.106859683990478516e+00 1.544681787490844727e+00 1.884827852249145508e+00
2.238000000000000000e+03 1.572308444976806641e+01 -9.936739921569824219e+00 -1.204709768295288086e+00 5.712095260620117188e+00 1.352215647697448730e+00 2.362730503082275391e+00
2.239000000000000000e+03 5.521299362182617188e+00 7.347974777221679688e+00 3.600730001926422119e-01 4.500134587287902832e-01 2.430259287357330322e-01 6.993286013603210449e-01
2.240000000000000000e+03 4.854985713958740234e+00 5.291331291198730469e+00 5.940648540854454041e-02 -3.089147852733731270e-03 1.689520105719566345e-02 8.700281977653503418e-01
2.241000000000000000e+03 7.223589897155761719e+00 5.662911415100097656e+00 2.245716303586959839e-01 8.981201648712158203e-01 3.368075191974639893e-01 5.251146554946899414e-01
2.242000000000000000e+03 1.155921173095703125e+01 4.206430435180664062e+00 2.272256910800933838e-01 2.624984264373779297e+00 8.556630015373229980e-01 -1.761959195137023926e+00
2.243000000000000000e+03 1.162574958801269531e+01 4.908400058746337891e+00 1.622743010520935059e-01 3.225921392440795898e+00 1.016458749771118164e+00 -1.786744356155395508e+00
2.244000000000000000e+03 6.474644184112548828e+00 5.764189243316650391e+00 1.862782388925552368e-01 5.982603430747985840e-01 2.353615760803222656e-01 6.549288034439086914e-01
2.245000000000000000e+03 8.717395782470703125e+00 4.664538860321044922e+00 7.625878602266311646e-02 1.224445104598999023e+00 3.902111649513244629e-01 3.953040018677711487e-02
2.246000000000000000e+03 1.076762104034423828e+01 6.507619380950927734e+00 2.529709041118621826e-01 3.543634891510009766e+00 1.138981699943542480e+00 -9.965029358863830566e-01
2.247000000000000000e+03 8.051558494567871094e+00 6.311799526214599609e+00 3.766385316848754883e-01 1.550597071647644043e+00 5.781707167625427246e-01 2.423844337463378906e-01
2.248000000000000000e+03 9.495087623596191406e+00 5.244016170501708984e+00 2.201152741909027100e-01 1.907582402229309082e+00 6.383092999458312988e-01 -3.507454395294189453e-01
2.249000000000000000e+03 2.274220085144042969e+01 -5.883915424346923828e+00 1.483703255653381348e+00 7.858476638793945312e-01 6.808652877807617188e-01 -3.463450968265533447e-01
2.250000000000000000e+03 1.110271453857421875e+01 -4.758916854858398438e+00 3.773089051246643066e-01 2.019960403442382812e+00 7.191807627677917480e-01 1.463962435722351074e+00
2.251000000000000000e+03 1.785530090332031250e+01 3.884666919708251953e+00 -1.188989520072937012e+00 8.166451454162597656e+00 2.093238353729248047e+00 -1.252783894538879395e+00
2.252000000000000000e+03 8.514811515808105469e+00 -6.245211601257324219e+00 1.280085146427154541e-01 1.506952047348022461e+00 4.904881715774536133e-01 2.902777194976806641e-01
2.253000000000000000e+03 1.944797706604003906e+01 2.855069637298583984e+00 1.486601114273071289e+00 4.409886837005615234e+00 1.768946409225463867e+00 4.115498960018157959e-01
2.254000000000000000e+03 1.876953506469726562e+01 3.467145919799804688e+00 -1.479066908359527588e-01 5.926266193389892578e+00 1.733507871627807617e+00 -2.308040857315063477e-01
2.255000000000000000e+03 2.233225822448730469e+01 -6.716141104698181152e-01 4.979041099548339844e+00 -5.043204426765441895e-01 1.342416167259216309e+00 -8.196590542793273926e-01
2.256000000000000000e+03 2.390048789978027344e+01 -2.282718896865844727e+00 4.553163051605224609e+00 -8.914735317230224609e-01 1.098506808280944824e+00 -3.944809138774871826e-01
2.257000000000000000e+03 1.955469703674316406e+01 -9.409517049789428711e-01 6.172943115234375000e+00 4.254969120025634766e+00 3.128373622894287109e+00 -2.075051546096801758e+00
2.258000000000000000e+03 1.662065505981445312e+01 3.226415157318115234e+00 -1.067698717117309570e+00 1.068630218505859375e+01 2.885581016540527344e+00 -3.011946916580200195e+00
2.259000000000000000e+03 2.034057426452636719e+01 -6.081278800964355469e+00 6.685780882835388184e-01 3.052969455718994141e+00 1.116464257240295410e+00 -6.092571839690208435e-02
2.260000000000000000e+03 1.242871475219726562e+01 -1.035165977478027344e+01 -4.760812819004058838e-01 5.445470333099365234e+00 1.490816712379455566e+00 1.123799562454223633e+00
2.261000000000000000e+03 1.235913753509521484e+01 -1.120990562438964844e+01 -1.844132989645004272e-01 5.746111869812011719e+00 1.668509602546691895e+00 8.598067760467529297e-01
2.262000000000000000e+03 2.024186325073242188e+01 -6.865739345550537109e+00 1.802854090929031372e-01 2.845838785171508789e+00 9.078372716903686523e-01 2.606544792652130127e-01
2.263000000000000000e+03 3.461573410034179688e+01 -1.276801109313964844e+00 1.477280616760253906e+00 9.519701957702636719e+00 3.299094676971435547e+00 2.310048490762710571e-01
2.264000000000000000e+03 3.391314697265625000e+01 -3.970929384231567383e+00 -1.329543441534042358e-02 7.954694747924804688e+00 2.382419824600219727e+00 -9.461910128593444824e-01
2.265000000000000000e+03 1.783935546875000000e+01 -8.605508804321289062e+00 -9.822795391082763672e-01 4.066226959228515625e+00 9.251842498779296875e-01 2.021644353866577148e+00
2.266000000000000000e+03 3.826540374755859375e+01 -6.616529464721679688e+00 -1.645100235939025879e+00 8.944242477416992188e+00 2.189742565155029297e+00 -1.663629412651062012e+00
2.267000000000000000e+03 3.700953674316406250e+01 -1.358347892761230469e+00 4.994277358055114746e-01 1.018932151794433594e+01 3.206624746322631836e+00 -7.279892563819885254e-01
2.268000000000000000e+03 1.421037197113037109e+01 6.858815193176269531e+00 -7.849061489105224609e-01 6.947607517242431641e+00 1.848810434341430664e+00 -2.517297506332397461e+00
2.269000000000000000e+03 1.434068775177001953e+01 6.341165065765380859e+00 -9.786103367805480957e-01 6.967280864715576172e+00 1.796601176261901855e+00 -2.776757478713989258e+00
2.270000000000000000e+03 5.945903778076171875e+01 -7.143593311309814453e+00 4.711334407329559326e-01 1.671597838401794434e+00 6.428193449974060059e-01 7.561818361282348633e-01
2.271000000000000000e+03 7.252750396728515625e+01 -2.353430938720703125e+01 1.908398717641830444e-01 9.565888404846191406e+00 2.927018404006958008e+00 -1.241437435150146484e+00
2.272000000000000000e+03 2.474970626831054688e+01 -5.307731628417968750e+00 2.119210481643676758e+00 -3.735334277153015137e-01 5.237030982971191406e-01 -1.187583506107330322e-01
2.273000000000000000e+03 2.466723251342773438e+01 -2.196101188659667969e+00 4.610105514526367188e+00 -1.050189495086669922e+00 1.067974805831909180e+00 -1.243011876940727234e-01
2.274000000000000000e+03 7.209632873535156250e+01 -2.457009887695312500e+01 -2.728494107723236084e-01 9.560278892517089844e+00 2.786228895187377930e+00 -1.059660673141479492e+00
2.275000000000000000e+03 7.415071868896484375e+01 -2.494055747985839844e+01 -1.584967076778411865e-01 8.959617614746093750e+00 2.640336275100708008e+00 -1.368854045867919922e+00
2.276000000000000000e+03 2.207779502868652344e+01 8.469279855489730835e-02 4.768321990966796875e+00 -4.424819052219390869e-01 1.297751903533935547e+00 -5.913310050964355469e-01
2.277000000000000000e+03 6.941633605957031250e+01 -9.051648139953613281e+00 -1.509691238403320312e+00 7.824956893920898438e+00 1.894579648971557617e+00 -1.523907065391540527e+00
2.278000000000000000e+03 7.062680053710937500e+01 -1.194360923767089844e+01 -1.198268294334411621e+00 9.715616226196289062e+00 2.555204153060913086e+00 -2.105763256549835205e-01
2.279000000000000000e+03 3.418034362792968750e+01 2.475963020324707031e+01 -1.177690982818603516e+00 4.741054058074951172e+00 1.069008827209472656e+00 -2.584316134452819824e-01
2.280000000000000000e+03 3.449727249145507812e+01 2.174957466125488281e+01 -7.080698609352111816e-01 5.459609031677246094e+00 1.425461769104003906e+00 -2.337875813245773315e-01
2.281000000000000000e+03 3.304443740844726562e+01 -5.044202327728271484e+00 -1.310638487339019775e-01 6.827746391296386719e+00 2.009004831314086914e+00 -1.456780672073364258e+00
2.282000000000000000e+03 7.339705657958984375e+01 -1.505241489410400391e+01 9.747387170791625977e-01 9.246465682983398438e+00 3.066361427307128906e+00 6.926935911178588867e-01
2.283000000000000000e+03 1.587797832489013672e+01 -3.094443559646606445e+00 3.871017992496490479e-01 8.645963668823242188e+00 2.709919452667236328e+00 3.001487731933593750e+00
2.284000000000000000e+03 7.294290924072265625e+01 -1.103143310546875000e+01 -7.369650006294250488e-01 8.966722488403320312e+00 2.468927145004272461e+00 3.759764134883880615e-01
2.285000000000000000e+03 3.013258171081542969e+01 -5.346024036407470703e+00 1.212201595306396484e+00 1.964512109756469727e+00 9.530140757560729980e-01 -1.149041652679443359e+00
2.286000000000000000e+03 7.997822761535644531e+00 5.542340278625488281e+00 2.166467607021331787e-01 1.255837082862854004e+00 4.417451322078704834e-01 2.687726020812988281e-01
2.287000000000000000e+03 3.415120315551757812e+01 -4.952996253967285156e+00 -5.726900100708007812e-01 8.016803741455078125e+00 2.233233928680419922e+00 -1.452279567718505859e+00
2.288000000000000000e+03 8.289256095886230469e+00 -1.739138221740722656e+01 1.230530977249145508e+00 3.121564865112304688e+00 1.305628776550292969e+00 7.355460524559020996e-01
2.289000000000000000e+03 7.298752307891845703e+00 -2.086706733703613281e+01 6.683396100997924805e-01 2.560275316238403320e+00 9.685844779014587402e-01 1.335530281066894531e+00
2.290000000000000000e+03 7.197894573211669922e+00 -2.460036087036132812e+01 -5.220898985862731934e-02 2.767245054244995117e+00 8.145108222961425781e-01 1.515959024429321289e+00
2.291000000000000000e+03 9.148825645446777344e+00 -1.170302104949951172e+01 3.990365862846374512e-01 3.406671047210693359e+00 1.141712307929992676e+00 1.203118041157722473e-01
2.292000000000000000e+03 1.135246086120605469e+01 -1.299361324310302734e+01 7.267591953277587891e-01 5.225475311279296875e+00 1.785670399665832520e+00 4.493766725063323975e-01
2.293000000000000000e+03 1.330434036254882812e+01 -9.569461822509765625e+00 -8.317806124687194824e-01 5.567145347595214844e+00 1.420609354972839355e+00 1.696219205856323242e+00
2.294000000000000000e+03 5.880249023437500000e+01 -7.686631202697753906e+00 3.403976857662200928e-01 1.581022143363952637e+00 5.764259696006774902e-01 9.245863556861877441e-01
2.295000000000000000e+03 5.680527877807617188e+01 -8.905200958251953125e+00 -3.197079990059137344e-03 1.415979623794555664e+00 4.238347411155700684e-01 1.324620604515075684e+00
2.296000000000000000e+03 1.045557403564453125e+01 1.495834159851074219e+01 1.740717053413391113e+00 5.820571422576904297e+00 2.268386602401733398e+00 -1.046384692192077637e+00
2.297000000000000000e+03 6.895816326141357422e+00 1.334075069427490234e+01 1.123921871185302734e+00 1.970687627792358398e+00 9.283828735351562500e-01 -3.918881416320800781e-01
2.298000000000000000e+03 4.940736770629882812e+00 -7.872878074645996094e+00 1.136156246066093445e-01 3.532698154449462891e-01 1.400656253099441528e-01 -4.549344182014465332e-01
2.299000000000000000e+03 7.155470275878906250e+01 1.355802059173583984e+01 6.217961907386779785e-01 7.081204414367675781e+00 2.310900211334228516e+00 2.776669263839721680e-01
2.300000000000000000e+03 6.764860534667968750e+01 1.346797466278076172e+01 9.518939852714538574e-01 7.815759658813476562e+00 2.630296230316162109e+00 2.753490507602691650e-01
2.301000000000000000e+03 7.143424987792968750e+01 -2.844661331176757812e+01 -1.047604322433471680e+00 8.223239898681640625e+00 2.152690649032592773e+00 -3.574986159801483154e-01
2.302000000000000000e+03 6.760647773742675781e+00 1.899648857116699219e+01 5.723356604576110840e-01 2.486108303070068359e+00 9.175331592559814453e-01 -1.500214695930480957e+00
2.303000000000000000e+03 7.157892608642578125e+01 -3.299260330200195312e+01 -6.479859948158264160e-01 7.336432456970214844e+00 2.006533861160278320e+00 5.916078016161918640e-02
2.304000000000000000e+03 7.372112274169921875e+01 -3.544921875000000000e+01 -2.712037563323974609e-01 7.963535308837890625e+00 2.307699441909790039e+00 -6.016994640231132507e-02
2.305000000000000000e+03 7.395325469970703125e+01 2.049040794372558594e+01 3.857417404651641846e-02 7.099794864654541016e+00 2.141510725021362305e+00 6.560454964637756348e-01
2.306000000000000000e+03 7.259114074707031250e+01 2.512774085998535156e+01 -2.682298719882965088e-01 7.156653881072998047e+00 2.066527128219604492e+00 5.185295343399047852e-01
2.307000000000000000e+03 6.616298675537109375e+00 -3.020565414428710938e+01 -4.828020036220550537e-01 2.660291671752929688e+00 6.532468795776367188e-01 9.944913387298583984e-01
2.308000000000000000e+03 1.206423759460449219e+01 -2.739466285705566406e+01 -9.132980108261108398e-01 4.029365062713623047e+00 9.348200559616088867e-01 5.937039256095886230e-01
2.309000000000000000e+03 7.312354278564453125e+01 -2.249111747741699219e+01 5.867244601249694824e-01 9.545406341552734375e+00 3.039638996124267578e+00 -1.252337813377380371e+00
2.310000000000000000e+03 7.474623107910156250e+01 -2.440554428100585938e+01 -1.193442475050687790e-02 8.825958251953125000e+00 2.644207000732421875e+00 -1.365135788917541504e+00
2.311000000000000000e+03 7.136865234375000000e+01 2.367945671081542969e+01 -3.312091827392578125e-01 7.158961296081542969e+00 2.048325538635253906e+00 5.881680846214294434e-01
2.312000000000000000e+03 7.355733489990234375e+01 1.828276062011718750e+01 1.883163005113601685e-01 7.022195339202880859e+00 2.163153409957885742e+00 6.110435128211975098e-01
2.313000000000000000e+03 7.368836212158203125e+01 -2.576577758789062500e+01 -4.225468039512634277e-01 9.061578750610351562e+00 2.591709375381469727e+00 -1.250650644302368164e+00
2.314000000000000000e+03 3.948797607421875000e+01 1.695260047912597656e+01 1.829147934913635254e-01 6.714099407196044922e+00 2.069104433059692383e+00 1.231755971908569336e+00
2.315000000000000000e+03 3.912714767456054688e+01 2.080725097656250000e+01 -6.688317060470581055e-01 5.515148639678955078e+00 1.453895092010498047e+00 8.691237568855285645e-01
2.316000000000000000e+03 6.798471832275390625e+01 9.198672294616699219e+00 9.004155993461608887e-01 7.481469154357910156e+00 2.514565467834472656e+00 2.994853258132934570e-02
2.317000000000000000e+03 4.857745742797851562e+01 -1.173444652557373047e+01 1.091320872306823730e+00 1.843252301216125488e+00 8.803719282150268555e-01 2.123265504837036133e+00
2.318000000000000000e+03 4.085887145996093750e+01 -1.258147716522216797e+01 1.190876126289367676e+00 7.572138786315917969e+00 2.628904581069946289e+00 -1.149930715560913086e+00
2.319000000000000000e+03 4.076110458374023438e+01 -1.484315299987792969e+01 1.704419255256652832e+00 8.383098602294921875e+00 3.026255130767822266e+00 -1.428414702415466309e+00
2.320000000000000000e+03 7.438816833496093750e+01 7.360742568969726562e+00 2.683331072330474854e-01 6.782928466796875000e+00 2.115378618240356445e+00 -3.671586513519287109e-01
2.321000000000000000e+03 7.329667663574218750e+01 -1.886264610290527344e+01 1.688108563423156738e+00 9.609858512878417969e+00 3.389389991760253906e+00 -4.184290766716003418e-01
2.322000000000000000e+03 7.478346252441406250e+01 -1.923239517211914062e+01 1.160769224166870117e+00 8.621705055236816406e+00 2.934742212295532227e+00 -5.799131393432617188e-01
2.323000000000000000e+03 7.416400146484375000e+01 -9.655195236206054688e+00 -7.464928030967712402e-01 8.413426399230957031e+00 2.300080060958862305e+00 3.598542809486389160e-01
2.324000000000000000e+03 7.273381042480468750e+01 -7.042082309722900391e+00 -9.318214654922485352e-01 7.961148738861083984e+00 2.108798265457153320e+00 -4.987861216068267822e-01
2.325000000000000000e+03 6.992292785644531250e+01 4.538256168365478516e+00 4.647430479526519775e-01 6.838718414306640625e+00 2.191038608551025391e+00 -5.022410154342651367e-01
2.326000000000000000e+03 7.281666564941406250e+01 2.306426763534545898e+00 1.196293458342552185e-01 6.914422512054443359e+00 2.110215425491333008e+00 -6.934879422187805176e-01
2.327000000000000000e+03 7.383203125000000000e+01 -1.162426471710205078e+01 -5.762838721275329590e-01 8.922716140747070312e+00 2.503929615020751953e+00 6.616166830062866211e-01
2.328000000000000000e+03 7.459236907958984375e+01 -1.093360614776611328e+01 -4.949505031108856201e-01 8.514351844787597656e+00 2.405820369720458984e+00 5.787356495857238770e-01
2.329000000000000000e+03 7.263784027099609375e+01 -9.018332481384277344e+00 -1.033908486366271973e+00 8.443525314331054688e+00 2.222884893417358398e+00 -7.656344026327133179e-02
2.330000000000000000e+03 7.308411407470703125e+01 -3.458471536636352539e+00 -4.305604398250579834e-01 7.342698574066162109e+00 2.073641300201416016e+00 -7.017616629600524902e-01
2.331000000000000000e+03 7.305628967285156250e+01 -4.625169754028320312e+00 -5.558530092239379883e-01 7.476048946380615234e+00 2.076058864593505859e+00 -6.563124656677246094e-01
2.332000000000000000e+03 7.402186584472656250e+01 -2.052737474441528320e+00 -2.452811300754547119e-01 7.256590843200683594e+00 2.103393077850341797e+00 -6.757583022117614746e-01
2.333000000000000000e+03 7.273416137695312500e+01 -2.394038200378417969e+00 -2.911260128021240234e-01 7.124561786651611328e+00 2.050030708312988281e+00 -7.850946784019470215e-01
2.334000000000000000e+03 7.233143615722656250e+01 4.417587757110595703e+00 3.046321272850036621e-01 6.859586715698242188e+00 2.149265766143798828e+00 -5.855150818824768066e-01
2.335000000000000000e+03 7.148013305664062500e+01 1.378591656684875488e-01 6.531935650855302811e-04 6.836571693420410156e+00 2.051167488098144531e+00 -8.380497694015502930e-01
2.336000000000000000e+03 7.121516418457031250e+01 1.244756793975830078e+01 6.546158790588378906e-01 7.090907573699951172e+00 2.323657035827636719e+00 1.676896810531616211e-01
2.337000000000000000e+03 5.015055179595947266e+00 -1.308698463439941406e+01 4.024947583675384521e-01 7.158672809600830078e-01 3.355086147785186768e-01 -1.701031923294067383e-01
2.338000000000000000e+03 7.243688201904296875e+01 -2.689586639404296875e+01 -7.536716461181640625e-01 8.871709823608398438e+00 2.435411453247070312e+00 -8.877565264701843262e-01
2.339000000000000000e+03 7.407884216308593750e+01 -2.813288879394531250e+01 -6.288306713104248047e-01 8.765436172485351562e+00 2.440981864929199219e+00 -9.607276320457458496e-01
2.340000000000000000e+03 7.318428802490234375e+01 2.167251014709472656e+01 -5.889820307493209839e-02 7.163870334625244141e+00 2.131491661071777344e+00 6.829626560211181641e-01
2.341000000000000000e+03 5.495990753173828125e+01 -9.454099655151367188e+00 -8.475193381309509277e-02 1.353420495986938477e+00 3.806005716323852539e-01 1.677907824516296387e+00
2.342000000000000000e+03 5.828663825988769531e+00 2.391743469238281250e+01 -2.900973558425903320e-01 2.409675121307373047e+00 6.358733773231506348e-01 -1.438399195671081543e+00
2.343000000000000000e+03 1.029894256591796875e+01 2.308798027038574219e+01 -6.612123847007751465e-01 4.595564365386962891e+00 1.180305600166320801e+00 -1.279862523078918457e+00
2.344000000000000000e+03 7.121942138671875000e+01 2.525583648681640625e+01 -3.875848054885864258e-01 7.114022254943847656e+00 2.017931222915649414e+00 4.634441137313842773e-01
2.345000000000000000e+03 8.725003242492675781e+00 3.158908271789550781e+01 -6.241621375083923340e-01 2.835215330123901367e+00 6.633159518241882324e-01 -4.870034158229827881e-01
2.346000000000000000e+03 7.250660419464111328e+00 3.408933639526367188e+01 -3.562351465225219727e-01 2.613146305084228516e+00 6.770733594894409180e-01 -3.681333661079406738e-01
2.347000000000000000e+03 5.899408817291259766e+00 -9.299928665161132812e+00 1.767408698797225952e-01 9.480528831481933594e-01 3.374381363391876221e-01 -3.294204175472259521e-01
2.348000000000000000e+03 5.660435199737548828e+00 2.635461425781250000e+01 -4.660429358482360840e-01 2.454350948333740234e+00 5.964924097061157227e-01 -1.149638533592224121e+00
2.349000000000000000e+03 6.612607479095458984e+00 2.528498649597167969e+01 -5.298799872398376465e-01 2.783881187438964844e+00 6.762003302574157715e-01 -1.311922430992126465e+00
2.350000000000000000e+03 3.843738174438476562e+01 1.639298057556152344e+01 2.011828124523162842e-01 7.195403099060058594e+00 2.218975782394409180e+00 7.892451286315917969e-01
2.351000000000000000e+03 3.600648880004882812e+01 1.591785335540771484e+01 3.078914582729339600e-01 7.642121791839599609e+00 2.385003805160522461e+00 -4.215331673622131348e-01
2.352000000000000000e+03 2.538786125183105469e+01 -2.359834909439086914e+00 4.522872924804687500e+00 -1.068205118179321289e+00 1.036400437355041504e+00 3.500786051154136658e-02
2.353000000000000000e+03 7.737373828887939453e+00 -1.623224830627441406e+01 1.159852147102355957e+00 2.739157199859619141e+00 1.169702887535095215e+00 4.624252915382385254e-01
2.354000000000000000e+03 5.888696193695068359e+00 -2.703740119934082031e+01 -2.645707726478576660e-01 2.351377725601196289e+00 6.260421276092529297e-01 1.283751845359802246e+00
2.355000000000000000e+03 5.721262931823730469e+00 -1.977535247802734375e+01 5.914955139160156250e-01 1.539944291114807129e+00 6.394319534301757812e-01 1.015553593635559082e+00
2.356000000000000000e+03 6.269007682800292969e+00 -1.764069938659667969e+01 7.997839450836181641e-01 1.737255930900573730e+00 7.611119747161865234e-01 7.027311921119689941e-01
2.357000000000000000e+03 4.835980892181396484e+00 1.653617668151855469e+01 5.499949455261230469e-01 8.511093258857727051e-01 4.203312993049621582e-01 -8.415402770042419434e-01
2.358000000000000000e+03 1.102459812164306641e+01 1.823517799377441406e+01 1.247941017150878906e+00 6.193781375885009766e+00 2.232516765594482422e+00 -1.114767193794250488e+00
2.359000000000000000e+03 8.134061813354492188e+00 1.393348407745361328e+01 1.355945110321044922e+00 3.156280755996704102e+00 1.353667736053466797e+00 -6.466022729873657227e-01
2.360000000000000000e+03 7.248818969726562500e+01 -3.430734252929687500e+01 -4.394097924232482910e-01 7.532348155975341797e+00 2.127881526947021484e+00 2.378152869641780853e-02
2.361000000000000000e+03 6.673847198486328125e+00 1.468691921234130859e+01 9.917966723442077637e-01 1.970314860343933105e+00 8.886334896087646484e-01 -6.763511896133422852e-01
2.362000000000000000e+03 5.621522426605224609e+00 1.303037738800048828e+01 7.906749248504638672e-01 1.087683081626892090e+00 5.635073781013488770e-01 -1.953738629817962646e-01
2.363000000000000000e+03 4.819020748138427734e+00 1.456122970581054688e+01 6.567365527153015137e-01 6.429198384284973145e-01 3.898968994617462158e-01 -4.863239228725433350e-01
2.364000000000000000e+03 6.281262969970703125e+01 -2.495582342147827148e+00 8.770856261253356934e-01 3.991338729858398438e+00 1.460527300834655762e+00 2.098615765571594238e-01
2.365000000000000000e+03 8.447785377502441406e+00 -2.988732719421386719e+01 -6.605117321014404297e-01 2.994782447814941406e+00 7.002812027931213379e-01 9.760411977767944336e-01
2.366000000000000000e+03 8.454585075378417969e+00 -2.019145393371582031e+01 9.836498498916625977e-01 3.504361867904663086e+00 1.346403479576110840e+00 1.314920902252197266e+00
2.367000000000000000e+03 6.452275276184082031e+00 -1.409009170532226562e+01 6.769780516624450684e-01 1.678271532058715820e+00 7.065748572349548340e-01 2.108487300574779510e-02
2.368000000000000000e+03 2.248631286621093750e+01 -1.442327737808227539e+00 4.902669906616210938e+00 -2.686940133571624756e-01 1.390192747116088867e+00 -9.297694563865661621e-01
2.369000000000000000e+03 6.722041606903076172e+00 2.621952247619628906e+01 -5.152791142463684082e-01 2.761104345321655273e+00 6.737475395202636719e-01 -1.178850769996643066e+00
2.370000000000000000e+03 8.883922576904296875e+00 7.052250385284423828e+00 4.936037957668304443e-01 2.282509326934814453e+00 8.328339457511901855e-01 -5.872580036520957947e-02
2.371000000000000000e+03 6.510188579559326172e+00 8.619792938232421875e+00 5.997200608253479004e-01 1.164013147354125977e+00 5.291199684143066406e-01 4.548312127590179443e-01
2.372000000000000000e+03 6.578232765197753906e+00 1.125539970397949219e+01 8.860012888908386230e-01 1.578852772712707520e+00 7.394562363624572754e-01 7.941254228353500366e-02
2.373000000000000000e+03 9.310999870300292969e+00 3.375819015502929688e+01 -5.162079930305480957e-01 2.743899822235107422e+00 6.683075428009033203e-01 -2.655096948146820068e-01
2.374000000000000000e+03 1.090768432617187500e+01 2.163122749328613281e+01 -3.012326061725616455e-01 5.148988246917724609e+00 1.454326629638671875e+00 -1.464249014854431152e+00
2.375000000000000000e+03 8.492659568786621094e+00 2.370119667053222656e+01 -5.152319669723510742e-01 3.662300586700439453e+00 9.441205263137817383e-01 -1.430199503898620605e+00
2.376000000000000000e+03 1.081567955017089844e+01 1.070077419281005859e+01 1.327343225479125977e+00 5.067876338958740234e+00 1.918565869331359863e+00 -6.890877485275268555e-01
2.377000000000000000e+03 1.157059574127197266e+01 1.188196277618408203e+01 1.656050324440002441e+00 6.227739810943603516e+00 2.365137100219726562e+00 -9.960767626762390137e-01
2.378000000000000000e+03 1.021339130401611328e+01 -1.206631183624267578e+01 4.327532947063446045e-01 4.146445751190185547e+00 1.373759746551513672e+00 2.553067803382873535e-01
2.379000000000000000e+03 6.768502712249755859e+00 -1.233184719085693359e+01 4.349702894687652588e-01 1.812676548957824707e+00 6.742940545082092285e-01 -1.683108657598495483e-01
2.380000000000000000e+03 6.033970355987548828e+00 -8.055182456970214844e+00 1.351751089096069336e-01 8.259459137916564941e-01 2.883363068103790283e-01 -3.300817608833312988e-01
2.381000000000000000e+03 6.089705657958984375e+01 -2.833678483963012695e+00 1.231043696403503418e+00 3.260921001434326172e+00 1.347589492797851562e+00 8.412055373191833496e-01
2.382000000000000000e+03 6.471407413482666016e+00 -7.015252590179443359e+00 1.236940994858741760e-01 8.430895209312438965e-01 2.900350987911224365e-01 -2.664580941200256348e-01
2.383000000000000000e+03 3.414720916748046875e+01 -3.195155715942382812e+01 -9.926275610923767090e-01 4.252842426300048828e+00 9.780644774436950684e-01 1.312913894653320312e+00
2.384000000000000000e+03 3.881266784667968750e+01 -3.118309783935546875e+01 -9.360875487327575684e-01 6.671195030212402344e+00 1.720532178878784180e+00 5.447507500648498535e-01
2.385000000000000000e+03 4.200445556640625000e+01 -1.491174983978271484e+01 1.642642378807067871e+00 7.763074874877929688e+00 2.821715116500854492e+00 -9.358274936676025391e-01
2.386000000000000000e+03 5.424335861206054688e+01 -1.143304252624511719e+01 -3.015862703323364258e-01 7.854869365692138672e-01 1.451701968908309937e-01 1.533478856086730957e+00
2.387000000000000000e+03 5.363214874267578125e+01 -9.041499137878417969e+00 1.862211674451828003e-01 1.569558978080749512e+00 5.267340540885925293e-01 2.082387208938598633e+00
2.388000000000000000e+03 3.870484161376953125e+01 -2.609145545959472656e+01 8.359935879707336426e-01 7.900250911712646484e+00 2.620873451232910156e+00 -3.799895942211151123e-02
2.389000000000000000e+03 3.628958511352539062e+01 -2.880139732360839844e+01 -4.310534894466400146e-01 6.161611557006835938e+00 1.719167351722717285e+00 1.010327219963073730e+00
2.390000000000000000e+03 1.178978633880615234e+01 1.091608715057373047e+01 1.455438852310180664e+00 6.261078357696533203e+00 2.314955234527587891e+00 -8.624887466430664062e-01
2.391000000000000000e+03 6.601043701171875000e+01 2.132449913024902344e+01 -4.619041979312896729e-01 7.299308776855468750e+00 2.051221370697021484e+00 4.638979732990264893e-01
2.392000000000000000e+03 3.761055374145507812e+01 -1.015854740142822266e+01 -1.525734085589647293e-02 9.467973709106445312e+00 2.835814952850341797e+00 -1.640542626380920410e+00
2.393000000000000000e+03 5.090110778808593750e+01 -1.031578636169433594e+01 5.087031126022338867e-01 1.085335850715637207e+00 4.782117009162902832e-01 2.480314970016479492e+00
2.394000000000000000e+03 4.952539443969726562e+01 -9.208795547485351562e+00 5.585608482360839844e-01 9.040725827217102051e-01 4.387900233268737793e-01 2.590281724929809570e+00
2.395000000000000000e+03 4.484782791137695312e+01 -9.579401969909667969e+00 4.365084171295166016e-01 3.155324459075927734e+00 1.077549815177917480e+00 2.683804333209991455e-01
2.396000000000000000e+03 4.408180236816406250e+01 -1.326530170440673828e+01 1.199826955795288086e+00 5.696839809417724609e+00 2.069000005722045898e+00 1.126348078250885010e-01
2.397000000000000000e+03 4.572328948974609375e+01 -1.134016609191894531e+01 8.743060231208801270e-01 3.452423334121704102e+00 1.298018813133239746e+00 9.100898504257202148e-01
2.398000000000000000e+03 4.491355895996093750e+01 2.091552925109863281e+01 -2.716244161128997803e-01 3.286733627319335938e+00 9.045327901840209961e-01 1.600855231285095215e+00
2.399000000000000000e+03 4.255058670043945312e+01 2.109890174865722656e+01 -4.780587852001190186e-01 4.423007011413574219e+00 1.183484435081481934e+00 1.583517909049987793e+00
2.400000000000000000e+03 4.750120925903320312e+01 2.699135780334472656e+01 -4.810702204704284668e-01 2.481466054916381836e+00 6.001188158988952637e-01 1.355234861373901367e+00
2.401000000000000000e+03 4.380657196044921875e+01 -2.720428085327148438e+01 1.380996227264404297e+00 8.894141197204589844e+00 3.082540988922119141e+00 -1.177751779556274414e+00
2.402000000000000000e+03 5.865422058105468750e+01 -9.111395835876464844e+00 -2.965013086795806885e-01 1.183096647262573242e+00 2.659786045551300049e-01 8.766070604324340820e-01
2.403000000000000000e+03 5.994961929321289062e+01 -6.362064838409423828e+00 6.091224551200866699e-01 1.972809195518493652e+00 7.745794653892517090e-01 6.521921753883361816e-01
2.404000000000000000e+03 1.219385337829589844e+01 -2.440306854248046875e+01 -3.750105202198028564e-01 5.097188949584960938e+00 1.416653513908386230e+00 7.851771116256713867e-01
2.405000000000000000e+03 1.027191352844238281e+01 -2.429622650146484375e+01 -1.186634302139282227e-01 4.271203994750976562e+00 1.245762109756469727e+00 1.308576107025146484e+00
2.406000000000000000e+03 4.886442947387695312e+01 2.441653823852539062e+01 -5.696696043014526367e-01 1.909219145774841309e+00 4.018648564815521240e-01 1.398021578788757324e+00
2.407000000000000000e+03 1.308857536315917969e+01 2.547568702697753906e+01 -1.475346088409423828e+00 4.261925697326660156e+00 8.359739184379577637e-01 -6.671810150146484375e-02
2.408000000000000000e+03 6.750105285644531250e+01 -9.319653511047363281e+00 -1.500346183776855469e+00 6.309635639190673828e+00 1.442786931991577148e+00 -2.387555599212646484e+00
2.409000000000000000e+03 4.086846542358398438e+01 -1.146151828765869141e+01 7.161011695861816406e-01 7.212248802185058594e+00 2.378504991531372070e+00 -1.110345482826232910e+00
2.410000000000000000e+03 1.592699050903320312e+01 -3.087353134155273438e+01 -1.091181516647338867e+00 2.524270296096801758e+00 4.299266636371612549e-01 -3.683777749538421631e-01
2.411000000000000000e+03 3.948493194580078125e+01 -6.311359882354736328e+00 -1.661598682403564453e+00 8.162775039672851562e+00 1.950352787971496582e+00 -1.856553792953491211e+00
2.412000000000000000e+03 9.523466110229492188e+00 2.098001480102539062e+01 2.704001069068908691e-01 4.433450222015380859e+00 1.411155104637145996e+00 -1.642125725746154785e+00
2.413000000000000000e+03 7.419469833374023438e+00 1.639924240112304688e+01 1.034915447235107422e+00 2.725131034851074219e+00 1.128013968467712402e+00 -1.136382937431335449e+00
2.414000000000000000e+03 4.200431060791015625e+01 -1.627048301696777344e+01 1.865054249763488770e+00 8.358757019042968750e+00 3.067143440246582031e+00 -1.055771827697753906e+00
2.415000000000000000e+03 3.094581413269042969e+01 -4.993494987487792969e+00 1.002175331115722656e+00 3.783794641494750977e+00 1.435791015625000000e+00 -1.274069666862487793e+00
2.416000000000000000e+03 1.429398441314697266e+01 -3.119679069519042969e+01 -1.095336675643920898e+00 2.930884361267089844e+00 5.506643056869506836e-01 -5.499075353145599365e-02
2.417000000000000000e+03 5.943159866333007812e+01 -4.915111541748046875e+00 1.097476243972778320e+00 2.332656145095825195e+00 1.029039740562438965e+00 9.620631337165832520e-01
2.418000000000000000e+03 6.052620697021484375e+01 -5.476251602172851562e+00 8.783712387084960938e-01 2.267768859863281250e+00 9.438420534133911133e-01 5.580373406410217285e-01
2.419000000000000000e+03 6.652043914794921875e+01 3.469539642333984375e+00 6.459870934486389160e-01 6.647048473358154297e+00 2.187910556793212891e+00 -1.210841834545135498e-01
2.420000000000000000e+03 6.374932479858398438e+01 6.722989678382873535e-01 7.838456630706787109e-01 5.414712429046630859e+00 1.859567403793334961e+00 4.055996835231781006e-01
2.421000000000000000e+03 6.886502075195312500e+01 1.310034465789794922e+01 8.707492351531982422e-01 7.480307102203369141e+00 2.505316972732543945e+00 2.594396471977233887e-01
2.422000000000000000e+03 7.306787872314453125e+01 8.607407569885253906e+00 4.295278191566467285e-01 6.858978271484375000e+00 2.186551809310913086e+00 -2.656398117542266846e-01
2.423000000000000000e+03 3.094068336486816406e+01 2.455089378356933594e+01 -1.074529409408569336e+00 3.827826261520385742e+00 8.259890675544738770e-01 -9.909101128578186035e-01
2.424000000000000000e+03 3.028401565551757812e+01 2.660247802734375000e+01 -1.040070891380310059e+00 3.268743515014648438e+00 6.686018109321594238e-01 -9.970490336418151855e-01
2.425000000000000000e+03 6.767484283447265625e+01 7.799538612365722656e+00 8.657228946685791016e-01 7.327245235443115234e+00 2.457890510559082031e+00 -1.458813063800334930e-02
2.426000000000000000e+03 6.827790069580078125e+01 1.055204200744628906e+01 9.123926758766174316e-01 7.509725093841552734e+00 2.526635169982910156e+00 9.940970689058303833e-02
2.427000000000000000e+03 4.074164962768554688e+01 -3.186674118041992188e+01 -9.959364533424377441e-01 7.054028987884521484e+00 1.817427754402160645e+00 1.417557895183563232e-01
2.428000000000000000e+03 3.125022888183593750e+01 -3.328605270385742188e+01 -8.187487125396728516e-01 2.388567686080932617e+00 4.709456562995910645e-01 1.286690950393676758e+00
2.429000000000000000e+03 5.964788055419921875e+01 2.757238960266113281e+01 -2.920105755329132080e-01 2.980265378952026367e+00 8.064764142036437988e-01 -9.481828212738037109e-01
2.430000000000000000e+03 8.823690414428710938e+00 -1.558666038513183594e+01 1.252926111221313477e+00 3.483232736587524414e+00 1.420847654342651367e+00 3.971183300018310547e-01
2.431000000000000000e+03 7.147936344146728516e+00 -1.517828845977783203e+01 8.498982191085815430e-01 2.181111574172973633e+00 9.093029499053955078e-01 2.039553374052047729e-01
2.432000000000000000e+03 4.127469635009765625e+01 -8.671378135681152344e+00 -4.916037917137145996e-01 6.226186752319335938e+00 1.720374822616577148e+00 -1.326986789703369141e+00
2.433000000000000000e+03 7.196099090576171875e+01 -2.171801567077636719e+01 1.092655301094055176e+00 1.027351856231689453e+01 3.409852266311645508e+00 -9.943054914474487305e-01
2.434000000000000000e+03 6.473381805419921875e+01 -2.332693099975585938e+00 5.011615753173828125e-01 4.807328224182128906e+00 1.592546939849853516e+00 -3.991110920906066895e-01
2.435000000000000000e+03 6.488304901123046875e+01 -2.933444082736968994e-01 5.928642749786376953e-01 5.437399864196777344e+00 1.809079170227050781e+00 -1.009801551699638367e-01
2.436000000000000000e+03 3.617824172973632812e+01 -8.199387550354003906e+00 -1.123932123184204102e+00 9.733911514282226562e+00 2.582993745803833008e+00 -1.846093177795410156e+00
2.437000000000000000e+03 3.679022598266601562e+01 -9.135392189025878906e+00 -6.771040558815002441e-01 9.702966690063476562e+00 2.707758665084838867e+00 -1.757648468017578125e+00
2.438000000000000000e+03 4.822520446777343750e+01 -3.374181747436523438e+01 -8.208720088005065918e-01 4.804224491119384766e+00 1.195005774497985840e+00 -1.966121554374694824e+00
2.439000000000000000e+03 4.574082946777343750e+01 -3.385409927368164062e+01 -1.174733400344848633e+00 6.054988384246826172e+00 1.464076519012451172e+00 -1.388092756271362305e+00
2.440000000000000000e+03 7.409758758544921875e+01 8.096690177917480469e-01 -1.350006274878978729e-02 7.036006450653076172e+00 2.106751918792724609e+00 -6.838659644126892090e-01
2.441000000000000000e+03 3.558731460571289062e+01 -5.853579044342041016e+00 -1.402115106582641602e+00 9.329038619995117188e+00 2.378077030181884766e+00 -1.647707581520080566e+00
2.442000000000000000e+03 3.270526885986328125e+01 2.286009025573730469e+01 -9.296649098396301270e-01 4.816364765167236328e+00 1.166010022163391113e+00 -6.547083854675292969e-01
2.443000000000000000e+03 3.252627944946289062e+01 2.440159606933593750e+01 -1.103205919265747070e+00 4.450980186462402344e+00 1.004332184791564941e+00 -6.520008444786071777e-01
2.444000000000000000e+03 4.625955963134765625e+01 -1.248666000366210938e+01 1.223911046981811523e+00 3.528942823410034180e+00 1.425856113433837891e+00 1.284493803977966309e+00
2.445000000000000000e+03 7.277487182617187500e+01 -2.829873466491699219e+01 -8.517478108406066895e-01 8.640650749206542969e+00 2.336670875549316406e+00 -7.261170148849487305e-01
2.446000000000000000e+03 5.192336654663085938e+01 -3.803811645507812500e+01 -1.076128929853439331e-01 2.282297372817993164e+00 6.524053215980529785e-01 -1.041519165039062500e+00
2.447000000000000000e+03 4.970051193237304688e+01 -3.697006988525390625e+01 -5.946710705757141113e-01 3.377392292022705078e+00 8.348163366317749023e-01 -1.147367835044860840e+00
2.448000000000000000e+03 7.323252868652343750e+01 4.040235519409179688e+00 2.051946520805358887e-01 6.896070957183837891e+00 2.130379676818847656e+00 -6.225706934928894043e-01
2.449000000000000000e+03 1.694251060485839844e+01 3.092694664001464844e+01 -6.284422278404235840e-01 2.315410852432250977e+00 5.060905814170837402e-01 4.242031276226043701e-01
2.450000000000000000e+03 7.253761291503906250e+01 1.902050971984863281e+01 1.782162785530090332e-01 7.099387645721435547e+00 2.183281183242797852e+00 6.822248697280883789e-01
2.451000000000000000e+03 1.529761314392089844e+01 -2.851743221282958984e+00 9.578089714050292969e-01 7.376211643218994141e+00 2.500206232070922852e+00 3.893949508666992188e+00
2.452000000000000000e+03 1.817164993286132812e+01 -7.806144714355468750e+00 -7.886397242546081543e-01 4.202253341674804688e+00 1.024084091186523438e+00 1.627713084220886230e+00
2.453000000000000000e+03 1.496592903137207031e+01 -2.845921754837036133e+00 1.165505647659301758e+00 6.259481906890869141e+00 2.227496147155761719e+00 3.958891391754150391e+00
2.454000000000000000e+03 1.990841674804687500e+01 2.131389826536178589e-01 6.243997097015380859e+00 3.046368837356567383e+00 2.787109851837158203e+00 -9.423590898513793945e-01
2.455000000000000000e+03 1.654099273681640625e+01 -3.255466461181640625e+00 2.133725583553314209e-01 9.146877288818359375e+00 2.808074951171875000e+00 1.878493785858154297e+00
2.456000000000000000e+03 2.108641242980957031e+01 -6.060060977935791016e+00 9.088150858879089355e-01 2.278715133666992188e+00 9.562590718269348145e-01 -1.837510168552398682e-01
2.457000000000000000e+03 1.779482269287109375e+01 -2.269051790237426758e+00 2.397508859634399414e+00 9.534463882446289062e+00 3.579591751098632812e+00 -1.494383096694946289e+00
2.458000000000000000e+03 1.816176795959472656e+01 -1.211395502090454102e+00 5.982655048370361328e+00 8.772628784179687500e+00 4.426585197448730469e+00 -2.969197750091552734e+00
2.459000000000000000e+03 1.847344207763671875e+01 -9.508937001228332520e-01 6.671776294708251953e+00 7.488454818725585938e+00 4.248069286346435547e+00 -2.790883779525756836e+00
2.460000000000000000e+03 1.954280471801757812e+01 1.742497324943542480e+00 4.292436122894287109e+00 4.312086105346679688e+00 2.581356763839721680e+00 3.691830337047576904e-01
2.461000000000000000e+03 1.665105819702148438e+01 4.172497272491455078e+00 -1.644418239593505859e+00 9.198019027709960938e+00 2.266080379486083984e+00 -2.940426111221313477e+00
2.462000000000000000e+03 1.874098777770996094e+01 1.155900359153747559e+00 6.087111473083496094e+00 6.363355636596679688e+00 3.735140085220336914e+00 4.185293912887573242e-01
2.463000000000000000e+03 1.954312896728515625e+01 1.061985611915588379e+00 5.526932239532470703e+00 4.069593429565429688e+00 2.878957748413085938e+00 -4.128306731581687927e-02
2.464000000000000000e+03 1.889780235290527344e+01 1.556618452072143555e+00 4.834926605224609375e+00 6.039250373840332031e+00 3.262253046035766602e+00 5.521750450134277344e-01
2.465000000000000000e+03 1.826617431640625000e+01 2.716279745101928711e+00 1.131937623023986816e+00 8.205909729003906250e+00 2.801354169845581055e+00 -3.059480898082256317e-02
2.466000000000000000e+03 1.803332328796386719e+01 3.233126878738403320e+00 -1.971481740474700928e-01 8.500118255615234375e+00 2.490890979766845703e+00 -7.191887497901916504e-01
2.467000000000000000e+03 1.614718055725097656e+01 5.360039234161376953e+00 -1.936515688896179199e+00 8.013031005859375000e+00 1.822954654693603516e+00 -2.991846799850463867e+00
2.468000000000000000e+03 1.445635795593261719e+01 3.877960920333862305e+00 -2.353241145610809326e-01 6.415164947509765625e+00 1.853952288627624512e+00 -4.332803249359130859e+00
2.469000000000000000e+03 1.358846569061279297e+01 -3.675358772277832031e+00 9.143117666244506836e-01 3.563279628753662109e+00 1.343277454376220703e+00 3.109231472015380859e+00
2.470000000000000000e+03 1.384060382843017578e+01 -2.971650600433349609e+00 1.374570846557617188e+00 3.385969400405883789e+00 1.428162097930908203e+00 3.321646213531494141e+00
2.471000000000000000e+03 1.447187328338623047e+01 2.459599018096923828e+00 1.521200180053710938e+00 5.294864654541015625e+00 2.044819355010986328e+00 -5.207858085632324219e+00
2.472000000000000000e+03 1.399458217620849609e+01 3.189427614212036133e+00 6.422841548919677734e-01 4.820328235626220703e+00 1.638783693313598633e+00 -4.290994644165039062e+00
2.473000000000000000e+03 1.160729980468750000e+01 -3.956782341003417969e+00 5.955032706260681152e-01 1.802360892295837402e+00 7.193592190742492676e-01 1.678679823875427246e+00
2.474000000000000000e+03 1.382951927185058594e+01 -4.106179714202880859e+00 6.015707850456237793e-01 4.195794105529785156e+00 1.439209580421447754e+00 3.184694051742553711e+00
2.475000000000000000e+03 1.423578071594238281e+01 2.984264612197875977e+00 8.020841479301452637e-01 5.191383838653564453e+00 1.798040509223937988e+00 -4.678235054016113281e+00
2.476000000000000000e+03 2.006511688232421875e+01 1.709192276000976562e+00 4.072021961212158203e+00 2.896372079849243164e+00 2.090518236160278320e+00 2.339667528867721558e-01
2.477000000000000000e+03 1.929561424255371094e+01 2.355696439743041992e+00 2.549647808074951172e+00 5.011990070343017578e+00 2.268491268157958984e+00 4.363481998443603516e-01
2.478000000000000000e+03 1.257566356658935547e+01 3.302759170532226562e+00 5.222659707069396973e-01 2.581798076629638672e+00 9.312192201614379883e-01 -2.606893062591552734e+00
2.479000000000000000e+03 1.225727939605712891e+01 -3.733455896377563477e+00 7.682664394378662109e-01 2.109675645828247070e+00 8.633825778961181641e-01 2.089363813400268555e+00
2.480000000000000000e+03 1.911250877380371094e+01 1.939837932586669922e+00 3.844376564025878906e+00 5.594434261322021484e+00 2.831643342971801758e+00 5.220481157302856445e-01
2.481000000000000000e+03 2.067924499511718750e+01 8.807563781738281250e-01 4.951380252838134766e+00 1.564762234687805176e+00 1.954842805862426758e+00 -3.503940105438232422e-01
2.482000000000000000e+03 1.673300170898437500e+01 4.645942211151123047e+00 -1.895895004272460938e+00 8.481955528259277344e+00 1.975818157196044922e+00 -2.722154617309570312e+00
2.483000000000000000e+03 1.949233818054199219e+01 6.229314208030700684e-01 6.157006263732910156e+00 3.917927265167236328e+00 3.022480010986328125e+00 -5.941603183746337891e-01
2.484000000000000000e+03 6.723905086517333984e+00 -6.129242897033691406e+00 1.084903627634048462e-01 7.939148545265197754e-01 2.707215845584869385e-01 -2.216306477785110474e-01
2.485000000000000000e+03 7.362621784210205078e+00 -7.426361083984375000e+00 1.162735447287559509e-01 1.315121054649353027e+00 4.294183552265167236e-01 -9.097366034984588623e-02
2.486000000000000000e+03 6.500412940979003906e+00 6.563445568084716797e+00 3.091965913772583008e-01 7.652339935302734375e-01 3.223291933536529541e-01 6.151327490806579590e-01
2.487000000000000000e+03 8.178996086120605469e+00 -7.878644466400146484e+00 1.102917417883872986e-01 1.902959227561950684e+00 6.039752960205078125e-01 1.199394464492797852e-01
2.488000000000000000e+03 8.905047416687011719e+00 -5.772959709167480469e+00 1.599239408969879150e-01 1.470827102661132812e+00 4.892252981662750244e-01 3.978247046470642090e-01
2.489000000000000000e+03 5.760690212249755859e+00 5.842197895050048828e+00 1.809088587760925293e-01 3.449115753173828125e-01 1.577461361885070801e-01 7.616118788719177246e-01
2.490000000000000000e+03 9.904754638671875000e+00 -5.756839275360107422e+00 1.747937947511672974e-01 1.947748303413391113e+00 6.367626190185546875e-01 8.620355725288391113e-01
2.491000000000000000e+03 2.259095954895019531e+01 -4.890851974487304688e+00 2.344612836837768555e+00 7.699749469757080078e-01 9.343763589859008789e-01 -5.259201526641845703e-01
2.492000000000000000e+03 7.268315315246582031e+00 6.454241752624511719e+00 3.341638445854187012e-01 1.122381210327148438e+00 4.369635283946990967e-01 4.445440769195556641e-01
2.493000000000000000e+03 1.092043018341064453e+01 5.011928558349609375e+00 1.979362219572067261e-01 2.762820959091186523e+00 8.882271647453308105e-01 -1.264226198196411133e+00
2.494000000000000000e+03 1.276260471343994141e+01 7.174361228942871094e+00 -1.992246806621551514e-01 5.801695823669433594e+00 1.680741429328918457e+00 -1.935618162155151367e+00
2.495000000000000000e+03 1.706159210205078125e+01 -8.209891319274902344e+00 -1.122811198234558105e+00 5.045339107513427734e+00 1.176758408546447754e+00 2.262856245040893555e+00
2.496000000000000000e+03 1.249833869934082031e+01 5.483460903167724609e+00 -8.022993803024291992e-02 4.529314994812011719e+00 1.334725499153137207e+00 -2.318947315216064453e+00
2.497000000000000000e+03 1.193972492218017578e+01 8.368247032165527344e+00 4.039000272750854492e-01 5.601475715637207031e+00 1.801612615585327148e+00 -1.156484127044677734e+00
2.498000000000000000e+03 1.560498237609863281e+01 6.573111057281494141e+00 -1.515932202339172363e+00 7.575762748718261719e+00 1.817949175834655762e+00 -2.812731981277465820e+00
2.499000000000000000e+03 8.765797615051269531e+00 5.407095432281494141e+00 2.397625148296356201e-01 1.548670649528503418e+00 5.365299582481384277e-01 -1.623922027647495270e-02
2.500000000000000000e+03 1.330286979675292969e+01 -1.036232852935791016e+01 -7.309863567352294922e-01 5.905443668365478516e+00 1.552337169647216797e+00 1.442342758178710938e+00
2.501000000000000000e+03 1.154623508453369141e+01 6.582431316375732422e+00 1.194444894790649414e-01 4.311375141143798828e+00 1.329245805740356445e+00 -1.444140553474426270e+00
2.502000000000000000e+03 1.217145347595214844e+01 4.047557353973388672e+00 2.999608814716339111e-01 2.945085763931274414e+00 9.735139608383178711e-01 -2.307916879653930664e+00
2.503000000000000000e+03 9.596832275390625000e+00 5.945200443267822266e+00 3.354591727256774902e-01 2.306096553802490234e+00 7.924667596817016602e-01 -3.808023929595947266e-01
2.504000000000000000e+03 1.562651538848876953e+01 3.966646671295166016e+00 -1.143347501754760742e+00 8.737429618835449219e+00 2.278224468231201172e+00 -4.123185157775878906e+00
2.505000000000000000e+03 1.624815559387207031e+01 4.068882942199707031e+00 -1.542572498321533203e+00 9.293551445007324219e+00 2.325293779373168945e+00 -3.412700653076171875e+00
2.506000000000000000e+03 9.738129615783691406e+00 7.136555194854736328e+00 4.530948996543884277e-01 2.983073949813842773e+00 1.030850648880004883e+00 -4.258734881877899170e-01
2.507000000000000000e+03 1.058426666259765625e+01 -5.584222316741943359e+00 2.202127724885940552e-01 2.183704376220703125e+00 7.211751341819763184e-01 1.208777666091918945e+00
2.508000000000000000e+03 1.966327857971191406e+01 -6.009784698486328125e+00 4.163032174110412598e-01 3.787787675857543945e+00 1.261227250099182129e+00 2.055393755435943604e-01
2.509000000000000000e+03 1.626698684692382812e+01 -9.554971694946289062e+00 -1.184872984886169434e+00 5.312253952026367188e+00 1.238214254379272461e+00 2.463927745819091797e+00
2.510000000000000000e+03 1.948007583618164062e+01 -6.664268016815185547e+00 2.022179216146469116e-02 3.679421424865722656e+00 1.109892964363098145e+00 5.445641279220581055e-01
2.511000000000000000e+03 9.315863609313964844e+00 1.449481010437011719e+01 1.638138294219970703e+00 4.212245464324951172e+00 1.755115151405334473e+00 -8.620334267616271973e-01
2.512000000000000000e+03 1.270209121704101562e+01 8.391151428222656250e+00 2.265584468841552734e-01 6.243422508239746094e+00 1.940994262695312500e+00 -1.488420605659484863e+00
2.513000000000000000e+03 5.989821910858154297e+00 -1.288400363922119141e+01 4.356592297554016113e-01 1.283118605613708496e+00 5.156333446502685547e-01 -1.716532707214355469e-01
2.514000000000000000e+03 8.173457145690917969e+00 -1.446482181549072266e+01 9.148445725440979004e-01 2.891304492950439453e+00 1.141844749450683594e+00 1.396220773458480835e-01
2.515000000000000000e+03 1.670628166198730469e+01 3.704638004302978516e+00 -1.363405585289001465e+00 9.915452003479003906e+00 2.565613985061645508e+00 -2.884332180023193359e+00
2.516000000000000000e+03 1.742776107788085938e+01 2.872350454330444336e+00 -4.292064160108566284e-02 1.040085697174072266e+01 3.107380867004394531e+00 -1.137167692184448242e+00
2.517000000000000000e+03 6.349320411682128906e+00 1.594976329803466797e+01 8.965131640434265137e-01 1.874081134796142578e+00 8.311783075332641602e-01 -8.826202154159545898e-01
2.518000000000000000e+03 1.397963142395019531e+01 -8.845035552978515625e+00 -9.986712336540222168e-01 5.583153724670410156e+00 1.375344753265380859e+00 2.085087060928344727e+00
2.519000000000000000e+03 9.802086830139160156e+00 1.747671699523925781e+01 1.266411185264587402e+00 4.935554981231689453e+00 1.860589742660522461e+00 -1.402057528495788574e+00
2.520000000000000000e+03 7.029399871826171875e+00 1.766929817199707031e+01 8.656009435653686523e-01 2.579487800598144531e+00 1.033526539802551270e+00 -1.272910237312316895e+00
2.521000000000000000e+03 2.060534286499023438e+01 -3.946417197585105896e-02 5.718285560607910156e+00 1.811805963516235352e+00 2.259027481079101562e+00 -1.052012681961059570e+00
2.522000000000000000e+03 7.293775939941406250e+01 -5.848081111907958984e+00 -7.781440615653991699e-01 7.725184917449951172e+00 2.084112167358398438e+00 -5.649082064628601074e-01
2.523000000000000000e+03 6.821022033691406250e+01 -8.288943290710449219e+00 -1.276070952415466309e+00 6.520154953002929688e+00 1.573225259780883789e+00 -1.836553215980529785e+00
2.524000000000000000e+03 2.103651237487792969e+01 -5.271311759948730469e+00 1.573855638504028320e+00 2.381184816360473633e+00 1.186512112617492676e+00 -4.956822395324707031e-01
2.525000000000000000e+03 1.335199737548828125e+01 -8.850321769714355469e+00 -8.424201011657714844e-01 5.310495376586914062e+00 1.340422630310058594e+00 1.870677590370178223e+00
2.526000000000000000e+03 6.256225585937500000e+01 -6.894756317138671875e+00 3.644509017467498779e-01 2.168772935867309570e+00 7.599671483039855957e-01 -3.696623742580413818e-01
2.527000000000000000e+03 1.140475368499755859e+01 -1.114876365661621094e+01 -9.582341648638248444e-03 4.954828262329101562e+00 1.483573794364929199e+00 5.978501439094543457e-01
2.528000000000000000e+03 4.193449020385742188e+01 -1.369590377807617188e+01 1.361308097839355469e+00 7.249077796936035156e+00 2.583115816116333008e+00 -8.956745266914367676e-01
2.529000000000000000e+03 2.178226089477539062e+01 -5.102014541625976562e+00 1.987104654312133789e+00 1.570259809494018555e+00 1.067209362983703613e+00 -5.374864935874938965e-01
2.530000000000000000e+03 3.677568817138671875e+01 -5.581518650054931641e+00 -1.566945910453796387e+00 9.479885101318359375e+00 2.373881578445434570e+00 -1.527564525604248047e+00
2.531000000000000000e+03 3.796382904052734375e+01 -5.297525882720947266e+00 -1.602620244026184082e+00 9.258670806884765625e+00 2.296815156936645508e+00 -1.652957797050476074e+00
2.532000000000000000e+03 8.548202514648437500e+00 1.281314086914062500e+01 1.401673674583435059e+00 3.268978595733642578e+00 1.401195645332336426e+00 -4.617173373699188232e-01
2.533000000000000000e+03 3.713129043579101562e+01 1.717073631286621094e+01 4.189831390976905823e-02 7.120596408843994141e+00 2.148748397827148438e+00 1.855133771896362305e-01
2.534000000000000000e+03 5.778331375122070312e+01 -8.118041038513183594e+00 1.234547123312950134e-01 1.492743849754333496e+00 4.848595559597015381e-01 1.086800217628479004e+00
2.535000000000000000e+03 2.442871475219726562e+01 -4.277564525604248047e+00 3.069569587707519531e+00 -4.740596413612365723e-01 7.786529660224914551e-01 -1.810667514801025391e-01
2.536000000000000000e+03 7.965550899505615234e+00 -1.914586639404296875e+01 1.139961242675781250e+00 3.037291526794433594e+00 1.253175854682922363e+00 1.072542309761047363e+00
2.537000000000000000e+03 7.221780395507812500e+01 2.264185714721679688e+01 -1.646731495857238770e-01 7.185054779052734375e+00 2.106114387512207031e+00 6.828973889350891113e-01
2.538000000000000000e+03 4.470219421386718750e+01 2.463044166564941406e+01 -7.358778715133666992e-01 3.393968105316162109e+00 7.974271178245544434e-01 1.479931831359863281e+00
2.539000000000000000e+03 4.051168823242187500e+01 1.998188209533691406e+01 -4.081553518772125244e-01 5.330601215362548828e+00 1.476733803749084473e+00 1.303171396255493164e+00
2.540000000000000000e+03 2.318152046203613281e+01 -2.218391895294189453e+00 4.666785717010498047e+00 -5.458157658576965332e-01 1.236290931701660156e+00 -6.232821345329284668e-01
2.541000000000000000e+03 4.363046264648437500e+01 -9.576439857482910156e+00 2.604560852050781250e-01 4.273288726806640625e+00 1.360123395919799805e+00 -3.103959560394287109e-01
2.542000000000000000e+03 3.424355316162109375e+01 -2.257384061813354492e+00 9.841157197952270508e-01 8.665425300598144531e+00 2.894862413406372070e+00 -1.130962464958429337e-02
2.543000000000000000e+03 4.243605422973632812e+01 -1.061722850799560547e+01 5.599436759948730469e-01 5.716285228729248047e+00 1.882868766784667969e+00 -6.530825495719909668e-01
2.544000000000000000e+03 7.012677001953125000e+01 3.262699604034423828e+00 3.645086586475372314e-01 6.763505458831787109e+00 2.138404130935668945e+00 -6.273777484893798828e-01
2.545000000000000000e+03 6.733121490478515625e+01 6.367133617401123047e+00 7.947827577590942383e-01 7.183888435363769531e+00 2.393601417541503906e+00 -7.881311327219009399e-02
2.546000000000000000e+03 7.178635406494140625e+01 8.609895706176757812e+00 5.458300113677978516e-01 6.941943168640136719e+00 2.246331930160522461e+00 -2.367400228977203369e-01
2.547000000000000000e+03 6.024992370605468750e+01 -7.767545700073242188e+00 1.550790518522262573e-01 1.563596963882446289e+00 5.156028270721435547e-01 5.130689144134521484e-01
2.548000000000000000e+03 6.730580139160156250e+01 2.070778846740722656e+01 -5.860989168286323547e-02 7.404533863067626953e+00 2.203777074813842773e+00 6.228592395782470703e-01
2.549000000000000000e+03 1.031720542907714844e+01 -1.324173831939697266e+01 7.731416225433349609e-01 4.510717868804931641e+00 1.585157752037048340e+00 2.324366718530654907e-01
2.550000000000000000e+03 1.130112552642822266e+01 -1.207338142395019531e+01 3.649878799915313721e-01 5.187070846557617188e+00 1.665617704391479492e+00 4.124343097209930420e-01
2.551000000000000000e+03 8.902008056640625000e+00 -8.338243484497070312e+00 6.617848575115203857e-02 2.417670249938964844e+00 7.451546192169189453e-01 3.272645175457000732e-01
2.552000000000000000e+03 5.904996395111083984e+00 -1.179627704620361328e+01 3.568542003631591797e-01 1.189802408218383789e+00 4.639969766139984131e-01 -2.357228845357894897e-01
2.553000000000000000e+03 7.924099445343017578e+00 2.478766441345214844e+01 -6.420231461524963379e-01 3.289759159088134766e+00 7.943208217620849609e-01 -1.343872070312500000e+00
2.554000000000000000e+03 2.722824478149414062e+01 -4.662482738494873047e+00 2.624867677688598633e+00 -3.662438094615936279e-01 6.775871515274047852e-01 -1.744163036346435547e-02
2.555000000000000000e+03 7.298848724365234375e+01 1.121461963653564453e+01 4.804475605487823486e-01 6.888865947723388672e+00 2.210793972015380859e+00 4.555677529424428940e-03
2.556000000000000000e+03 6.856995391845703125e+01 1.185445785522460938e+01 9.113283753395080566e-01 7.540219783782958984e+00 2.535464525222778320e+00 1.706997305154800415e-01
2.557000000000000000e+03 4.080786132812500000e+01 -1.369117927551269531e+01 1.521696448326110840e+00 8.045165061950683594e+00 2.870058298110961914e+00 -1.255498409271240234e+00
2.558000000000000000e+03 7.229838562011718750e+01 -1.197327136993408203e+01 -7.509971857070922852e-01 9.634003639221191406e+00 2.664901971817016602e+00 4.811821579933166504e-01
2.559000000000000000e+03 7.450873565673828125e+01 -1.326197147369384766e+01 1.709612011909484863e-01 8.787646293640136719e+00 2.687582254409790039e+00 8.372546434402465820e-01
2.560000000000000000e+03 7.251715850830078125e+01 3.447583198547363281e+00 2.234793901443481445e-01 6.870750427246093750e+00 2.128268957138061523e+00 -6.590244174003601074e-01
2.561000000000000000e+03 7.333155822753906250e+01 6.063254833221435547e+00 3.177982866764068604e-01 6.843559741973876953e+00 2.148407459259033203e+00 -4.865252375602722168e-01
2.562000000000000000e+03 7.190819549560546875e+01 -4.457066059112548828e+00 -6.271973848342895508e-01 7.286196231842041016e+00 1.997699618339538574e+00 -8.369068503379821777e-01
2.563000000000000000e+03 7.247418212890625000e+01 1.654025459289550781e+01 3.802696764469146729e-01 7.040510654449462891e+00 2.226234197616577148e+00 5.414768457412719727e-01
2.564000000000000000e+03 6.759674072265625000e+01 1.967987775802612305e+00 4.373877048492431641e-01 6.426803112030029297e+00 2.059257268905639648e+00 -4.966012835502624512e-01
2.565000000000000000e+03 6.936010360717773438e+00 -1.953143692016601562e+01 7.772307991981506348e-01 2.239193677902221680e+00 9.049273729324340820e-01 1.120487928390502930e+00
2.566000000000000000e+03 7.234395599365234375e+01 1.206442260742187500e+01 5.418180227279663086e-01 6.962685108184814453e+00 2.251350879669189453e+00 1.068810150027275085e-01
2.567000000000000000e+03 6.185240554809570312e+01 -7.730821609497070312e+00 5.651297420263290405e-02 1.670048832893371582e+00 5.179685354232788086e-01 -1.084840297698974609e-01
2.568000000000000000e+03 6.356283569335937500e+01 -7.722245216369628906e+00 -3.652254864573478699e-02 2.107156991958618164e+00 6.211903095245361328e-01 -9.717667698860168457e-01
2.569000000000000000e+03 6.982006072998046875e+00 -2.583474159240722656e+01 -2.190990746021270752e-01 2.692474126815795898e+00 7.420125007629394531e-01 1.439711689949035645e+00
2.570000000000000000e+03 1.076892375946044922e+01 -2.608826255798339844e+01 -5.910008549690246582e-01 4.082546234130859375e+00 1.047463655471801758e+00 1.074621558189392090e+00
2.571000000000000000e+03 9.116234779357910156e+00 1.868365859985351562e+01 8.908117413520812988e-01 4.308191299438476562e+00 1.559700965881347656e+00 -1.479666948318481445e+00
2.572000000000000000e+03 8.420972824096679688e+00 -1.262484741210937500e+01 5.886209011077880859e-01 2.991092920303344727e+00 1.073914170265197754e+00 1.061659213155508041e-02
2.573000000000000000e+03 3.688048553466796875e+01 2.503756713867187500e+01 -1.123558998107910156e+00 4.767862796783447266e+00 1.093291163444519043e+00 2.867783904075622559e-01
2.574000000000000000e+03 3.443480300903320312e+01 2.329990005493164062e+01 -9.968783259391784668e-01 5.094307899475097656e+00 1.229228973388671875e+00 -1.873502433300018311e-01
2.575000000000000000e+03 3.848618316650390625e+01 -8.042547225952148438e+00 -1.171698212623596191e+00 8.822960853576660156e+00 2.295378923416137695e+00 -1.682542085647583008e+00
2.576000000000000000e+03 3.885994720458984375e+01 -9.452139854431152344e+00 -4.623729884624481201e-01 8.508848190307617188e+00 2.413942575454711914e+00 -1.557207465171813965e+00
2.577000000000000000e+03 8.086167335510253906e+00 7.072549819946289062e+00 4.917362928390502930e-01 1.776522874832153320e+00 6.804777383804321289e-01 1.504926234483718872e-01
2.578000000000000000e+03 3.393757629394531250e+01 -3.135103225708007812e+00 6.728188395500183105e-01 8.171625137329101562e+00 2.653333187103271484e+00 -4.168925583362579346e-01
2.579000000000000000e+03 1.083208847045898438e+01 3.063532638549804688e+01 -8.176409602165222168e-01 3.075729846954345703e+00 6.774266958236694336e-01 -2.668133378028869629e-01
2.580000000000000000e+03 7.498106002807617188e+00 9.984028816223144531e+00 8.681710958480834961e-01 2.141747951507568359e+00 9.029757380485534668e-01 1.147112995386123657e-01
2.581000000000000000e+03 6.708773040771484375e+01 -7.524516105651855469e+00 -9.140732884407043457e-01 5.509091377258300781e+00 1.378505468368530273e+00 -2.011936426162719727e+00
2.582000000000000000e+03 5.231569290161132812e+01 -8.630382537841796875e+00 1.507181823253631592e-01 1.553774952888488770e+00 5.113479495048522949e-01 2.526554346084594727e+00
2.583000000000000000e+03 6.410042572021484375e+01 2.406717300415039062e+01 -1.187949061393737793e+00 6.282653331756591797e+00 1.528411269187927246e+00 -4.626089334487915039e-01
2.584000000000000000e+03 3.726321411132812500e+01 1.816963768005371094e+01 -6.939235329627990723e-02 6.549988746643066406e+00 1.944178938865661621e+00 2.920088469982147217e-01
2.585000000000000000e+03 3.763291168212890625e+01 -4.067937850952148438e+00 -1.311859726905822754e+00 9.567744255065917969e+00 2.476765394210815430e+00 -1.342656016349792480e+00
2.586000000000000000e+03 9.638893127441406250e+00 1.116009521484375000e+01 1.372465729713439941e+00 4.006461143493652344e+00 1.613678097724914551e+00 -4.285060167312622070e-01
2.587000000000000000e+03 7.333750724792480469e+00 1.219946384429931641e+01 1.075556635856628418e+00 2.269352674484252930e+00 1.003472805023193359e+00 -2.359817475080490112e-01
2.588000000000000000e+03 7.210398101806640625e+01 -2.563874435424804688e+01 -5.584987998008728027e-01 9.213565826416015625e+00 2.596519947052001953e+00 -9.231750369071960449e-01
2.589000000000000000e+03 7.315681457519531250e+01 1.989261817932128906e+01 1.061401292681694031e-01 7.103261947631835938e+00 2.162820577621459961e+00 6.915394663810729980e-01
2.590000000000000000e+03 7.088185119628906250e+01 1.874413299560546875e+01 2.745272815227508545e-01 7.179861068725585938e+00 2.236316442489624023e+00 7.016465663909912109e-01
2.591000000000000000e+03 6.091353225708007812e+01 -6.987257480621337891e+00 4.548658728599548340e-01 1.795070171356201172e+00 6.749808192253112793e-01 3.045411705970764160e-01
2.592000000000000000e+03 7.214311981201171875e+01 -3.118903541564941406e+01 -8.366476893424987793e-01 7.810460090637207031e+00 2.092143774032592773e+00 -1.879408806562423706e-01
2.593000000000000000e+03 6.815660858154296875e+01 -3.243661880493164062e+01 -7.695435285568237305e-01 5.503472328186035156e+00 1.420178651809692383e+00 6.361517310142517090e-01
2.594000000000000000e+03 2.910720252990722656e+01 -3.541586303710937500e+01 -5.746482610702514648e-01 1.746575951576232910e+00 3.515782952308654785e-01 8.344615101814270020e-01
2.595000000000000000e+03 3.353757095336914062e+01 -3.488869094848632812e+01 -1.014185667037963867e+00 3.714724779129028320e+00 8.101617693901062012e-01 1.134709596633911133e+00
2.596000000000000000e+03 7.141967773437500000e+00 -2.694013214111328125e+01 -3.834193348884582520e-01 2.795436382293701172e+00 7.236051559448242188e-01 1.330905318260192871e+00
2.597000000000000000e+03 1.499738883972167969e+01 2.498941040039062500e+01 -1.485609054565429688e+00 3.883664846420288086e+00 7.194167375564575195e-01 6.829136013984680176e-01
2.598000000000000000e+03 6.665592956542968750e+01 1.935656356811523438e+01 3.220639526844024658e-01 7.518900871276855469e+00 2.352289438247680664e+00 5.689551830291748047e-01
2.599000000000000000e+03 6.917309570312500000e+01 1.428938388824462891e+01 8.203028440475463867e-01 7.436620235443115234e+00 2.477077007293701172e+00 3.563461303710937500e-01
2.600000000000000000e+03 4.481795501708984375e+01 -1.182113456726074219e+01 9.689003825187683105e-01 4.433505535125732422e+00 1.620721817016601562e+00 4.580020010471343994e-01
2.601000000000000000e+03 4.164165115356445312e+01 -9.852749824523925781e+00 2.571642212569713593e-02 6.262988567352294922e+00 1.886611580848693848e+00 -1.068228483200073242e+00
2.602000000000000000e+03 7.166789245605468750e+01 1.168680071830749512e+00 7.261423021554946899e-02 6.851303100585937500e+00 2.077175140380859375e+00 -7.566822767257690430e-01
2.603000000000000000e+03 7.259423065185546875e+01 -3.183742165565490723e-01 -9.024276584386825562e-02 6.984904289245605469e+00 2.068398475646972656e+00 -7.742809057235717773e-01
2.604000000000000000e+03 7.188082885742187500e+01 -1.463136315345764160e+00 -1.867882758378982544e-01 6.966787338256835938e+00 2.033999681472778320e+00 -8.582834005355834961e-01
2.605000000000000000e+03 3.474952316284179688e+01 -3.648438930511474609e+00 -2.082079797983169556e-01 8.750090599060058594e+00 2.562564849853515625e+00 -9.070676565170288086e-01
2.606000000000000000e+03 7.250448608398437500e+01 -8.092326164245605469e+00 -1.067401528358459473e+00 8.269675254821777344e+00 2.160681962966918945e+00 -3.379982709884643555e-01
2.607000000000000000e+03 7.308374786376953125e+01 7.246116638183593750e+00 3.692993521690368652e-01 6.848081111907958984e+00 2.165214061737060547e+00 -3.817233145236968994e-01
2.608000000000000000e+03 7.146799468994140625e+01 5.818611145019531250e+00 4.411073327064514160e-01 6.876325130462646484e+00 2.195229768753051758e+00 -4.805426895618438721e-01
2.609000000000000000e+03 4.776236724853515625e+01 2.306344985961914062e+01 -6.306445002555847168e-01 2.216315031051635742e+00 4.757011830806732178e-01 1.456823468208312988e+00
2.610000000000000000e+03 4.592507934570312500e+01 2.614853858947753906e+01 -6.159371733665466309e-01 2.983089208602905273e+00 7.101456522941589355e-01 1.411499023437500000e+00
2.611000000000000000e+03 7.289676666259765625e+01 -2.515547370910644531e+01 -3.218886256217956543e-01 9.181900978088378906e+00 2.658003807067871094e+00 -1.213982701301574707e+00
2.612000000000000000e+03 9.922763824462890625e+00 -3.396497344970703125e+01 -7.370948791503906250e-01 2.770032882690429688e+00 6.098814010620117188e-01 4.255362749099731445e-01
2.613000000000000000e+03 1.228624534606933594e+01 -2.902499961853027344e+01 -1.074073195457458496e+00 3.612025976181030273e+00 7.613857984542846680e-01 4.557304680347442627e-01
2.614000000000000000e+03 1.129183197021484375e+01 -2.323547363281250000e+01 1.681090891361236572e-01 4.975512027740478516e+00 1.543086290359497070e+00 1.259079217910766602e+00
2.615000000000000000e+03 7.417019367218017578e+00 2.569285202026367188e+01 -6.233260631561279297e-01 3.067348718643188477e+00 7.332068085670471191e-01 -1.180006384849548340e+00
2.616000000000000000e+03 1.418356132507324219e+01 2.631997680664062500e+01 -1.227837920188903809e+00 3.735532283782958984e+00 7.523083090782165527e-01 4.325273334980010986e-01
2.617000000000000000e+03 1.329847908020019531e+01 2.797721672058105469e+01 -1.193763256072998047e+00 3.455323696136474609e+00 6.784681677818298340e-01 9.416092187166213989e-02
2.618000000000000000e+03 1.493740463256835938e+01 2.830178642272949219e+01 -9.858873486518859863e-01 2.994165420532226562e+00 6.024834513664245605e-01 4.977774322032928467e-01
2.619000000000000000e+03 7.227451324462890625e+01 2.077224731445312500e+01 1.581007242202758789e-02 7.152372837066650391e+00 2.150454998016357422e+00 7.175840139389038086e-01
2.620000000000000000e+03 4.241921997070312500e+01 -2.907059288024902344e+01 1.866005212068557739e-01 8.058772087097167969e+00 2.473611593246459961e+00 -4.612056612968444824e-01
2.621000000000000000e+03 8.028567314147949219e+00 2.056600761413574219e+01 3.006426990032196045e-01 3.416997671127319336e+00 1.115292072296142578e+00 -1.663438558578491211e+00
2.622000000000000000e+03 3.303918457031250000e+01 2.138386917114257812e+01 -4.391431212425231934e-01 5.347121715545654297e+00 1.472393512725830078e+00 -6.170588731765747070e-01
2.623000000000000000e+03 4.119773483276367188e+01 -2.816212081909179688e+01 4.565329253673553467e-01 7.960229396820068359e+00 2.525028705596923828e+00 -3.239055871963500977e-01
2.624000000000000000e+03 4.213054275512695312e+01 -2.689636230468750000e+01 1.241793632507324219e+00 8.617069244384765625e+00 2.957658767700195312e+00 -7.103216052055358887e-01
2.625000000000000000e+03 7.138130950927734375e+01 -1.107518577575683594e+01 -1.136236071586608887e+00 9.363589286804199219e+00 2.468205928802490234e+00 -2.531301677227020264e-01
2.626000000000000000e+03 1.045972156524658203e+01 -2.889218330383300781e+01 -8.811190128326416016e-01 3.478255033493041992e+00 7.791407704353332520e-01 8.254195451736450195e-01
2.627000000000000000e+03 7.005326843261718750e+01 1.276633930206298828e+01 7.792541980743408203e-01 7.273494243621826172e+00 2.415824651718139648e+00 2.184557467699050903e-01
2.628000000000000000e+03 7.602085590362548828e+00 3.023928833007812500e+01 -5.850031971931457520e-01 2.811225414276123047e+00 6.678667068481445312e-01 -6.497578620910644531e-01
2.629000000000000000e+03 9.832530021667480469e+00 -3.603534698486328125e+01 -6.112612485885620117e-01 2.612962245941162109e+00 6.005102992057800293e-01 2.899350523948669434e-01
2.630000000000000000e+03 1.765361785888671875e+01 -3.440186691284179688e+01 -8.256869316101074219e-01 1.782704591751098633e+00 2.871053218841552734e-01 -4.196381568908691406e-01
2.631000000000000000e+03 7.237176513671875000e+01 2.874543762207031250e+01 -3.274194002151489258e-01 7.062136650085449219e+00 2.020415067672729492e+00 2.488926202058792114e-01
2.632000000000000000e+03 6.897257232666015625e+01 7.543762683868408203e+00 7.494626641273498535e-01 7.164017200469970703e+00 2.374043941497802734e+00 -1.956063508987426758e-01
2.633000000000000000e+03 7.169311523437500000e+01 7.211765766143798828e+00 4.954707622528076172e-01 6.928667068481445312e+00 2.227241277694702148e+00 -3.821536004543304443e-01
2.634000000000000000e+03 1.904097557067871094e+01 3.024823951721191406e+01 -4.436707794666290283e-01 1.786412358283996582e+00 4.028224647045135498e-01 4.482882320880889893e-01
2.635000000000000000e+03 9.213283538818359375e+00 -1.374581718444824219e+01 9.034183025360107422e-01 3.646023273468017578e+00 1.364832520484924316e+00 1.456717103719711304e-01
2.636000000000000000e+03 8.964863777160644531e+00 -2.365045166015625000e+01 1.090351566672325134e-01 3.773823022842407227e+00 1.164857506752014160e+00 1.529787182807922363e+00
2.637000000000000000e+03 8.464006423950195312e+00 -2.502643585205078125e+01 -2.082698494195938110e-01 3.342251777648925781e+00 9.401946067810058594e-01 1.460691332817077637e+00
2.638000000000000000e+03 3.226936340332031250e+01 2.716060447692871094e+01 -1.125469565391540527e+00 3.714486360549926758e+00 7.767050266265869141e-01 -6.346681118011474609e-01
2.639000000000000000e+03 5.550142288208007812e+01 3.315587997436523438e+01 3.102319538593292236e-01 2.541451692581176758e+00 8.555051088333129883e-01 4.216682165861129761e-02
2.640000000000000000e+03 5.700868606567382812e+01 3.135662841796875000e+01 2.351327240467071533e-01 2.533789396286010742e+00 8.306766748428344727e-01 -2.071386724710464478e-01
2.641000000000000000e+03 8.843273162841796875e+00 2.545826339721679688e+01 -8.661634922027587891e-01 3.672804355621337891e+00 8.419922590255737305e-01 -1.111874461174011230e+00
2.642000000000000000e+03 1.184241008758544922e+01 2.685291290283203125e+01 -1.148749589920043945e+00 3.833885908126831055e+00 8.055409193038940430e-01 -2.461616396903991699e-01
2.643000000000000000e+03 6.986139678955078125e+01 4.214380681514739990e-01 1.276041120290756226e-01 6.606615066528320312e+00 2.020265817642211914e+00 -8.078314065933227539e-01
2.644000000000000000e+03 6.694919586181640625e+01 4.922676563262939453e+00 7.297708988189697266e-01 6.911458492279052734e+00 2.292368650436401367e+00 -8.290133625268936157e-02
2.645000000000000000e+03 6.575308990478515625e+01 -1.425017833709716797e+00 4.261294007301330566e-01 5.336977958679199219e+00 1.728932261466979980e+00 -5.208834409713745117e-01
2.646000000000000000e+03 6.376446533203125000e+01 -1.418363094329833984e+00 7.677097320556640625e-01 4.665915966033935547e+00 1.630087733268737793e+00 1.007132679224014282e-01
2.647000000000000000e+03 8.010887145996093750e+00 -2.628549385070800781e+01 -3.811230659484863281e-01 3.097831487655639648e+00 8.150125741958618164e-01 1.384455561637878418e+00
2.648000000000000000e+03 6.613311004638671875e+01 1.943699836730957031e+00 5.694056153297424316e-01 6.226924419403076172e+00 2.038898944854736328e+00 -1.457915306091308594e-01
2.649000000000000000e+03 1.823575210571289062e+01 -6.108181476593017578e+00 -2.658080458641052246e-01 5.190729618072509766e+00 1.477476477622985840e+00 1.023825049400329590e+00
2.650000000000000000e+03 1.741005897521972656e+01 -7.430482864379882812e+00 -8.823842406272888184e-01 4.996833324432373047e+00 1.234334826469421387e+00 1.963606595993041992e+00
2.651000000000000000e+03 1.881085777282714844e+01 -6.429134845733642578e+00 -1.558744907379150391e-01 4.494235992431640625e+00 1.301508426666259766e+00 8.035101294517517090e-01
2.652000000000000000e+03 1.868730735778808594e+01 -6.054896116256713867e-01 7.377151966094970703e+00 6.490880012512207031e+00 4.160409450531005859e+00 -2.333998918533325195e+00
2.653000000000000000e+03 1.558121299743652344e+01 -3.268042087554931641e+00 3.962815701961517334e-01 7.716287136077880859e+00 2.433770656585693359e+00 3.315222740173339844e+00
2.654000000000000000e+03 1.830629920959472656e+01 -2.203570842742919922e+00 3.253120660781860352e+00 8.223075866699218750e+00 3.442858934402465820e+00 -2.117562055587768555e+00
2.655000000000000000e+03 1.339345169067382812e+01 -3.230524778366088867e+00 1.158289313316345215e+00 2.979789972305297852e+00 1.241423726081848145e+00 2.944474220275878906e+00
2.656000000000000000e+03 1.885882568359375000e+01 2.711131274700164795e-01 7.475234508514404297e+00 5.601370334625244141e+00 3.922981500625610352e+00 -9.029238224029541016e-01
2.657000000000000000e+03 2.035186767578125000e+01 -5.371757507324218750e+00 1.135156869888305664e+00 3.265398740768432617e+00 1.320166707038879395e+00 -3.347167074680328369e-01
2.658000000000000000e+03 1.546926879882812500e+01 3.495319128036499023e+00 -6.867607831954956055e-01 8.802874565124511719e+00 2.434834241867065430e+00 -4.595219135284423828e+00
2.659000000000000000e+03 1.587465572357177734e+01 3.373179435729980469e+00 -9.514909386634826660e-01 9.790477752685546875e+00 2.651695966720581055e+00 -4.225015163421630859e+00
2.660000000000000000e+03 1.855598449707031250e+01 -1.956576704978942871e+00 4.025288581848144531e+00 7.532896518707275391e+00 3.467455625534057617e+00 -2.349092245101928711e+00
2.661000000000000000e+03 2.169304275512695312e+01 -8.971230983734130859e-01 5.185588359832763672e+00 3.912655413150787354e-01 1.673056244850158691e+00 -1.149965167045593262e+00
2.662000000000000000e+03 1.938925743103027344e+01 -1.872137069702148438e+00 4.777879714965820312e+00 5.112363338470458984e+00 2.967072963714599609e+00 -2.292994737625122070e+00
2.663000000000000000e+03 1.502243232727050781e+01 3.469801187515258789e+00 -3.111394345760345459e-01 7.645608901977539062e+00 2.200340747833251953e+00 -4.788896083831787109e+00
2.664000000000000000e+03 1.929979133605957031e+01 -1.314685940742492676e+00 5.609359741210937500e+00 5.071253776550292969e+00 3.204184055328369141e+00 -2.346420764923095703e+00
2.665000000000000000e+03 1.903540611267089844e+01 6.581090092658996582e-01 6.856012344360351562e+00 5.326033115386962891e+00 3.654613733291625977e+00 -3.044179379940032959e-01
2.666000000000000000e+03 1.379377269744873047e+01 2.918684244155883789e+00 9.187915325164794922e-01 4.075585365295410156e+00 1.498313069343566895e+00 -4.132684707641601562e+00
2.667000000000000000e+03 1.631589698791503906e+01 3.694267988204956055e+00 -1.336020708084106445e+00 9.852965354919433594e+00 2.555083274841308594e+00 -3.455178260803222656e+00
2.668000000000000000e+03 1.883106422424316406e+01 2.892604589462280273e+00 1.127814173698425293e+00 6.156390666961669922e+00 2.185261487960815430e+00 1.169555485248565674e-01
2.669000000000000000e+03 1.316608428955078125e+01 3.485845565795898438e+00 4.923335313796997070e-01 3.677984237670898438e+00 1.251095294952392578e+00 -3.348725795745849609e+00
2.670000000000000000e+03 1.351552295684814453e+01 3.184444904327392578e+00 7.005808949470520020e-01 3.896141529083251953e+00 1.379016757011413574e+00 -3.775522232055664062e+00
2.671000000000000000e+03 1.179442501068115234e+01 -4.534316539764404297e+00 4.829604327678680420e-01 2.337042808532714844e+00 8.460009694099426270e-01 1.881288409233093262e+00
2.672000000000000000e+03 1.245487022399902344e+01 -4.275542259216308594e+00 6.189547181129455566e-01 2.662498474121093750e+00 9.844359755516052246e-01 2.311452150344848633e+00
2.673000000000000000e+03 1.523596572875976562e+01 4.294077873229980469e+00 -1.059607625007629395e+00 7.887217521667480469e+00 2.048282861709594727e+00 -4.172491550445556641e+00
2.674000000000000000e+03 1.444940948486328125e+01 5.811586856842041016e+00 -1.060763120651245117e+00 6.921072483062744141e+00 1.758092761039733887e+00 -3.073301076889038086e+00
2.675000000000000000e+03 1.337779331207275391e+01 4.624042987823486328e+00 -1.655127555131912231e-01 5.026050567626953125e+00 1.458161354064941406e+00 -3.175369739532470703e+00
2.676000000000000000e+03 1.995156860351562500e+01 6.108143329620361328e-01 5.882138252258300781e+00 2.897313117980957031e+00 2.633835315704345703e+00 -5.611314773559570312e-01
2.677000000000000000e+03 1.340756607055664062e+01 3.859461545944213867e+00 2.755764722824096680e-01 4.478908538818359375e+00 1.426345467567443848e+00 -3.615228176116943359e+00
2.678000000000000000e+03 1.127311801910400391e+01 -5.367066860198974609e+00 2.418350279331207275e-01 2.489841699600219727e+00 8.195030093193054199e-01 1.563350558280944824e+00
2.679000000000000000e+03 1.556512641906738281e+01 5.426074504852294922e+00 -1.737757563591003418e+00 7.961910724639892578e+00 1.867245912551879883e+00 -3.348663806915283203e+00
2.680000000000000000e+03 1.559176826477050781e+01 5.965557098388671875e+00 -1.766526103019714355e+00 7.705968379974365234e+00 1.781832814216613770e+00 -2.992389917373657227e+00
2.681000000000000000e+03 1.234368801116943359e+01 4.703610897064208984e+00 1.025587916374206543e-01 3.787558317184448242e+00 1.167035222053527832e+00 -2.392697334289550781e+00
2.682000000000000000e+03 1.224132251739501953e+01 6.817842006683349609e+00 -5.604648962616920471e-02 5.076816558837890625e+00 1.506230950355529785e+00 -1.779663443565368652e+00
2.683000000000000000e+03 6.983042716979980469e+00 -8.364767074584960938e+00 1.604758501052856445e-01 1.359278917312622070e+00 4.559264183044433594e-01 -1.706265211105346680e-01
2.684000000000000000e+03 8.544504165649414062e+00 -7.171360492706298828e+00 8.000656217336654663e-02 1.862000107765197754e+00 5.826020240783691406e-01 2.490529865026473999e-01
2.685000000000000000e+03 9.218729019165039062e+00 -7.192576408386230469e+00 7.185033708810806274e-02 2.188702583312988281e+00 6.781659126281738281e-01 4.976477921009063721e-01
2.686000000000000000e+03 9.411540985107421875e+00 -6.141984939575195312e+00 1.420139521360397339e-01 1.828179001808166504e+00 5.910578966140747070e-01 6.314080953598022461e-01
2.687000000000000000e+03 1.352075958251953125e+01 7.199245929718017578e+00 -4.306687116622924805e-01 6.555265426635742188e+00 1.837378978729248047e+00 -2.112748146057128906e+00
2.688000000000000000e+03 9.990546226501464844e+00 -6.343980312347412109e+00 9.103610366582870483e-02 2.290933370590209961e+00 7.145908474922180176e-01 8.724271655082702637e-01
2.689000000000000000e+03 2.281220626831054688e+01 -2.832216978073120117e+00 4.246772289276123047e+00 -1.695020683109760284e-02 1.268946528434753418e+00 -7.238727807998657227e-01
2.690000000000000000e+03 1.595264530181884766e+01 4.355067253112792969e+00 -1.578636765480041504e+00 8.745606422424316406e+00 2.150090694427490234e+00 -3.564233303070068359e+00
2.691000000000000000e+03 9.962804794311523438e+00 -7.003789424896240234e+00 2.089271694421768188e-02 2.571091175079345703e+00 7.775951623916625977e-01 8.605924248695373535e-01
2.692000000000000000e+03 1.315090370178222656e+01 7.594422340393066406e+00 -2.287617921829223633e-01 6.397073745727539062e+00 1.850493669509887695e+00 -1.927999138832092285e+00
2.693000000000000000e+03 1.072812652587890625e+01 -6.249205589294433594e+00 6.246184930205345154e-02 2.688992738723754883e+00 8.254364132881164551e-01 1.273298501968383789e+00
2.694000000000000000e+03 1.192437648773193359e+01 9.169447898864746094e+00 8.038086295127868652e-01 5.783053398132324219e+00 1.976058602333068848e+00 -9.890033006668090820e-01
2.695000000000000000e+03 2.089968681335449219e+01 -5.377209186553955078e-01 5.578420162200927734e+00 1.373028516769409180e+00 2.085434675216674805e+00 -1.310038447380065918e+00
2.696000000000000000e+03 2.013983154296875000e+01 -4.121402204036712646e-01 6.138649463653564453e+00 2.825621128082275391e+00 2.689281225204467773e+00 -1.468952178955078125e+00
2.697000000000000000e+03 7.877986907958984375e+00 7.813708305358886719e+00 5.918933153152465820e-01 1.842205286026000977e+00 7.302296161651611328e-01 2.250004559755325317e-01
2.698000000000000000e+03 8.871851921081542969e+00 6.192052841186523438e+00 3.638053238391876221e-01 1.983548283576965332e+00 7.042061090469360352e-01 -1.117997840046882629e-01
2.699000000000000000e+03 1.090444850921630859e+01 5.742523193359375000e+00 2.130550891160964966e-01 3.164772987365722656e+00 1.013348340988159180e+00 -1.144622445106506348e+00
2.700000000000000000e+03 1.167529964447021484e+01 5.705246925354003906e+00 7.083361595869064331e-02 3.897380352020263672e+00 1.190464258193969727e+00 -1.699591875076293945e+00
2.701000000000000000e+03 9.473766326904296875e+00 8.809590339660644531e+00 8.263453245162963867e-01 3.416393280029296875e+00 1.272821545600891113e+00 -3.002443909645080566e-01
2.702000000000000000e+03 9.397249221801757812e+00 -7.806457996368408203e+00 3.622049838304519653e-02 2.548347234725952148e+00 7.753702998161315918e-01 5.365626215934753418e-01
2.703000000000000000e+03 1.667525672912597656e+01 -8.928676605224609375e+00 -1.211699962615966797e+00 5.112566947937011719e+00 1.170260071754455566e+00 2.312325716018676758e+00
2.704000000000000000e+03 2.233664894104003906e+01 -3.958312511444091797e+00 3.212327241897583008e+00 8.773675560951232910e-01 1.226908445358276367e+00 -7.827421426773071289e-01
2.705000000000000000e+03 2.184413337707519531e+01 -1.597334265708923340e+00 4.968231201171875000e+00 4.277706146240234375e-01 1.618800520896911621e+00 -1.264261364936828613e+00
2.706000000000000000e+03 1.875445175170898438e+01 -1.495240330696105957e+00 5.385227680206298828e+00 6.800075054168701172e+00 3.655591011047363281e+00 -2.666488170623779297e+00
2.707000000000000000e+03 7.374177932739257812e+00 7.282559394836425781e+00 5.052968859672546387e-01 1.397076606750488281e+00 5.707120299339294434e-01 4.003579020500183105e-01
2.708000000000000000e+03 1.262089824676513672e+01 7.709086418151855469e+00 -4.135164432227611542e-03 5.926451206207275391e+00 1.776694893836975098e+00 -1.681913733482360840e+00
2.709000000000000000e+03 1.464166927337646484e+01 -2.902891874313354492e+00 1.225293874740600586e+00 5.346885681152343750e+00 1.971653819084167480e+00 3.902663707733154297e+00
2.710000000000000000e+03 7.082264709472656250e+01 -2.154983520507812500e+00 -2.347406893968582153e-01 6.807625293731689453e+00 1.971865415573120117e+00 -9.075772762298583984e-01
2.711000000000000000e+03 2.132997894287109375e+01 -2.436104059219360352e+00 4.384508132934570312e+00 1.469479918479919434e+00 1.756196498870849609e+00 -1.411569476127624512e+00
2.712000000000000000e+03 9.104125022888183594e+00 1.190953063964843750e+01 1.309918284416198730e+00 3.734173059463500977e+00 1.513227462768554688e+00 -4.023459851741790771e-01
2.713000000000000000e+03 8.722665786743164062e+00 7.933453083038330078e+00 6.090000271797180176e-01 2.495678424835205078e+00 9.314035773277282715e-01 -3.349085152149200439e-02
2.714000000000000000e+03 1.679255867004394531e+01 -2.644313097000122070e+00 7.551362514495849609e-01 1.060437870025634766e+01 3.407854557037353516e+00 9.181700348854064941e-01
2.715000000000000000e+03 1.369648361206054688e+01 -8.348850250244140625e+00 -8.804082870483398438e-01 5.262578487396240234e+00 1.314651012420654297e+00 2.093883275985717773e+00
2.716000000000000000e+03 3.631570434570312500e+01 -3.181004762649536133e+00 -5.483510494232177734e-01 9.555539131164550781e+00 2.702156543731689453e+00 -9.800640940666198730e-01
2.717000000000000000e+03 1.922744369506835938e+01 -4.900441169738769531e+00 8.880971074104309082e-01 4.794075489044189453e+00 1.704651832580566406e+00 -1.934376955032348633e-01
2.718000000000000000e+03 6.603292846679687500e+01 -6.732177734375000000e+00 -3.251795172691345215e-01 4.429764270782470703e+00 1.231375455856323242e+00 -1.711202502250671387e+00
2.719000000000000000e+03 6.225242614746093750e+01 -5.235125541687011719e+00 7.159429788589477539e-01 2.762158870697021484e+00 1.043430566787719727e+00 -4.936943203210830688e-02
2.720000000000000000e+03 6.881861877441406250e+01 -7.236629009246826172e+00 -1.111434221267700195e+00 6.795251369476318359e+00 1.705145120620727539e+00 -1.661867022514343262e+00
2.721000000000000000e+03 7.175183868408203125e+01 -5.628392219543457031e+00 -7.794052958488464355e-01 7.437884807586669922e+00 1.997543811798095703e+00 -8.594168424606323242e-01
2.722000000000000000e+03 7.257826232910156250e+01 5.441438198089599609e+00 3.230426907539367676e-01 6.890099048614501953e+00 2.163942575454711914e+00 -5.342217087745666504e-01
2.723000000000000000e+03 6.742633056640625000e+01 -3.329587697982788086e+00 -6.114984676241874695e-02 5.691415786743164062e+00 1.689079761505126953e+00 -1.081238985061645508e+00
2.724000000000000000e+03 6.120035934448242188e+01 -4.525088310241699219e+00 9.409816265106201172e-01 2.762051820755004883e+00 1.110910058021545410e+00 4.426344931125640869e-01
2.725000000000000000e+03 1.465883255004882812e+01 -8.589344024658203125e+00 -1.079107522964477539e+00 5.579820156097412109e+00 1.350213766098022461e+00 2.279507875442504883e+00
2.726000000000000000e+03 6.532442474365234375e+01 -7.668853759765625000e+00 -4.618723988533020020e-01 3.698069810867309570e+00 9.708592295646667480e-01 -1.827358603477478027e+00
2.727000000000000000e+03 6.502002716064453125e+01 -5.915508747100830078e+00 1.444275723770260811e-03 3.940559148788452148e+00 1.182600975036621094e+00 -1.266337037086486816e+00
2.728000000000000000e+03 2.317925453186035156e+01 -3.624008417129516602e+00 3.651489973068237305e+00 -4.341918975114822388e-02 1.082421183586120605e+00 -5.681551098823547363e-01
2.729000000000000000e+03 2.257510375976562500e+01 -2.182008504867553711e+00 4.681282043457031250e+00 -9.875099360942840576e-02 1.374759435653686523e+00 -9.985520839691162109e-01
2.730000000000000000e+03 7.612122535705566406e+00 8.779759407043457031e+00 7.260217666625976562e-01 1.882740020751953125e+00 7.826285362243652344e-01 1.883793324232101440e-01
2.731000000000000000e+03 7.159990692138671875e+01 2.263221263885498047e+00 1.890418380498886108e-01 6.834904193878173828e+00 2.107183933258056641e+00 -7.356472611427307129e-01
2.732000000000000000e+03 7.206968688964843750e+01 -3.311749935150146484e+00 -4.150520563125610352e-01 7.135212421417236328e+00 2.016047954559326172e+00 -8.674570322036743164e-01
2.733000000000000000e+03 7.188697052001953125e+01 9.916631698608398438e+00 5.810623764991760254e-01 6.982373237609863281e+00 2.269030570983886719e+00 -1.130424067378044128e-01
2.734000000000000000e+03 7.197888946533203125e+01 1.108492755889892578e+01 5.995491147041320801e-01 6.976763248443603516e+00 2.272893667221069336e+00 7.223467342555522919e-03
2.735000000000000000e+03 6.806663513183593750e+01 2.214814758300781250e+01 -4.182810187339782715e-01 7.230889320373535156e+00 2.043782472610473633e+00 5.796024799346923828e-01
2.736000000000000000e+03 6.929299926757812500e+01 2.140684700012207031e+01 -1.487359553575515747e-01 7.249388694763183594e+00 2.130195856094360352e+00 6.930302977561950684e-01
2.737000000000000000e+03 1.156104850769042969e+01 -1.027008247375488281e+01 -2.611493468284606934e-01 4.836041450500488281e+00 1.372467517852783203e+00 8.121024370193481445e-01
2.738000000000000000e+03 7.151847839355468750e+01 1.978933525085449219e+01 1.399724930524826050e-01 7.171483993530273438e+00 2.193437099456787109e+00 7.289904952049255371e-01
2.739000000000000000e+03 6.819764614105224609e+00 -9.394709587097167969e+00 1.697270870208740234e-01 1.405485153198242188e+00 4.725636839866638184e-01 -2.136834710836410522e-01
2.740000000000000000e+03 9.950313568115234375e+00 -9.849639892578125000e+00 6.106665357947349548e-03 3.602991819381713867e+00 1.082729578018188477e+00 4.516786634922027588e-01
2.741000000000000000e+03 4.676881027221679688e+01 -1.065957069396972656e+01 9.071463346481323242e-01 2.426762104034423828e+00 1.000172495841979980e+00 1.436604022979736328e+00
2.742000000000000000e+03 4.184460449218750000e+01 -1.260345363616943359e+01 1.204300761222839355e+00 7.026643753051757812e+00 2.469283342361450195e+00 -8.472858071327209473e-01
2.743000000000000000e+03 1.014282035827636719e+01 1.246585845947265625e+01 1.588215231895446777e+00 4.765931129455566406e+00 1.906243920326232910e+00 -7.093055248260498047e-01
2.744000000000000000e+03 9.711944580078125000e+00 1.342125511169433594e+01 1.626172184944152832e+00 4.679800033569335938e+00 1.891791701316833496e+00 -7.381508946418762207e-01
2.745000000000000000e+03 8.958460807800292969e+00 1.568055629730224609e+01 1.428734183311462402e+00 4.049518585205078125e+00 1.643475890159606934e+00 -1.092881321907043457e+00
2.746000000000000000e+03 6.869306182861328125e+01 6.114980220794677734e+00 6.835261583328247070e-01 7.015511035919189453e+00 2.309711217880249023e+00 -2.637132108211517334e-01
2.747000000000000000e+03 4.373719024658203125e+01 -1.201828956604003906e+01 9.815421700477600098e-01 5.310047626495361328e+00 1.887476921081542969e+00 3.863289952278137207e-02
2.748000000000000000e+03 4.361328125000000000e+01 -1.078688240051269531e+01 6.169000864028930664e-01 4.784420013427734375e+00 1.620396018028259277e+00 -2.610238492488861084e-01
2.749000000000000000e+03 6.950366020202636719e+00 -1.052225112915039062e+01 2.591148912906646729e-01 1.712227821350097656e+00 5.914028286933898926e-01 -1.925848871469497681e-01
2.750000000000000000e+03 7.525794982910156250e+00 -1.162102890014648438e+01 3.845865130424499512e-01 2.189274787902832031e+00 7.721583843231201172e-01 -9.576755017042160034e-02
2.751000000000000000e+03 6.538582324981689453e+00 2.041326713562011719e+01 2.887627184391021729e-01 2.411322355270385742e+00 8.100255727767944336e-01 -1.570148706436157227e+00
2.752000000000000000e+03 8.059792518615722656e+00 1.920058059692382812e+01 6.960622072219848633e-01 3.389122486114501953e+00 1.225555419921875000e+00 -1.576151728630065918e+00
2.753000000000000000e+03 4.140769958496093750e+01 2.419265556335449219e+01 -8.940991759300231934e-01 4.335844039916992188e+00 1.032523393630981445e+00 1.210769057273864746e+00
2.754000000000000000e+03 9.615765571594238281e+00 2.442855834960937500e+01 -8.406216502189636230e-01 3.989118099212646484e+00 9.445489645004272461e-01 -1.262613892555236816e+00
2.755000000000000000e+03 7.131515502929687500e+01 -8.076988220214843750e+00 -1.199877142906188965e+00 8.041716575622558594e+00 2.052551746368408203e+00 -7.928983569145202637e-01
2.756000000000000000e+03 5.447400665283203125e+01 -1.050408267974853516e+01 -2.123460024595260620e-01 1.122395277023315430e+00 2.730147838592529297e-01 1.648127198219299316e+00
2.757000000000000000e+03 3.589844894409179688e+01 2.196017074584960938e+01 -7.656775712966918945e-01 5.574829101562500000e+00 1.442745447158813477e+00 8.352527767419815063e-02
2.758000000000000000e+03 7.476320266723632812e+00 -1.337894153594970703e+01 7.118234038352966309e-01 2.383892297744750977e+00 9.287146925926208496e-01 1.329224905930459499e-03
2.759000000000000000e+03 7.094728851318359375e+01 -7.283344268798828125e-01 -6.380470097064971924e-02 6.766568660736083984e+00 2.010829210281372070e+00 -8.491355776786804199e-01
2.760000000000000000e+03 8.995732307434082031e+00 -2.120098876953125000e+01 8.597617149353027344e-01 3.772324323654174805e+00 1.389625787734985352e+00 1.393259048461914062e+00
2.761000000000000000e+03 9.568837165832519531e+00 7.999567508697509766e+00 6.391907930374145508e-01 3.205077409744262695e+00 1.153280496597290039e+00 -2.811141908168792725e-01
2.762000000000000000e+03 7.729875564575195312e+00 2.196090888977050781e+01 -3.255469724535942078e-02 3.303463935852050781e+00 9.812727570533752441e-01 -1.674152016639709473e+00
2.763000000000000000e+03 7.050022125244140625e+01 8.728522300720214844e+00 6.744405031204223633e-01 7.080430507659912109e+00 2.326461315155029297e+00 -1.915839314460754395e-01
2.764000000000000000e+03 6.950950622558593750e+01 1.543719577789306641e+01 7.221473455429077148e-01 7.348632335662841797e+00 2.421233892440795898e+00 4.514322876930236816e-01
2.765000000000000000e+03 7.036074829101562500e+01 1.391551017761230469e+01 7.207944393157958984e-01 7.223772525787353516e+00 2.383370161056518555e+00 3.226197957992553711e-01
2.766000000000000000e+03 6.871027374267578125e+01 1.705640411376953125e+01 6.357975006103515625e-01 7.434227466583251953e+00 2.421007394790649414e+00 5.542619228363037109e-01
2.767000000000000000e+03 1.053579044342041016e+01 1.156911849975585938e+01 1.470996022224426270e+00 5.075687408447265625e+00 1.964004993438720703e+00 -5.940583348274230957e-01
2.768000000000000000e+03 7.548808574676513672e+00 1.116994571685791016e+01 1.104483127593994141e+00 2.333810329437255859e+00 1.031488060951232910e+00 -1.088321805000305176e-01
2.769000000000000000e+03 6.975553894042968750e+01 1.155222797393798828e+01 8.059493303298950195e-01 7.274637699127197266e+00 2.424176216125488281e+00 1.082378923892974854e-01
2.770000000000000000e+03 1.703129768371582031e+01 3.370811462402343750e+01 -4.382440149784088135e-01 2.239108085632324219e+00 5.402592420578002930e-01 2.060093879699707031e-01
2.771000000000000000e+03 8.070875167846679688e+00 -2.192118263244628906e+01 4.783734381198883057e-01 3.130357980728149414e+00 1.082619428634643555e+00 1.495634675025939941e+00
2.772000000000000000e+03 3.749959564208984375e+01 1.939184761047363281e+01 -4.029371738433837891e-01 6.120522499084472656e+00 1.715275526046752930e+00 4.472768902778625488e-01
2.773000000000000000e+03 3.604312133789062500e+01 2.332190322875976562e+01 -1.035879611968994141e+00 5.163015365600585938e+00 1.238140821456909180e+00 1.441669762134552002e-01
2.774000000000000000e+03 7.127838134765625000e+01 2.169361686706542969e+01 -8.452055603265762329e-02 7.192501544952392578e+00 2.132394313812255859e+00 7.142544984817504883e-01
2.775000000000000000e+03 7.044374847412109375e+01 2.059123611450195312e+01 1.989845372736454010e-02 7.204741001129150391e+00 2.167391777038574219e+00 7.325977087020874023e-01
2.776000000000000000e+03 6.975144958496093750e+01 1.941612625122070312e+01 2.220411449670791626e-01 7.268854618072509766e+00 2.247268676757812500e+00 7.205638289451599121e-01
2.777000000000000000e+03 1.007027530670166016e+01 -3.070189857482910156e+01 -8.481127619743347168e-01 3.144166231155395508e+00 6.888160109519958496e-01 7.215923666954040527e-01
2.778000000000000000e+03 6.625585174560546875e+01 4.905717074871063232e-01 4.874325096607208252e-01 5.907866001129150391e+00 1.918589591979980469e+00 -3.402716517448425293e-01
2.779000000000000000e+03 6.972090148925781250e+01 1.161590099334716797e+00 1.817653328180313110e-01 6.658056735992431641e+00 2.051946640014648438e+00 -7.264120578765869141e-01
2.780000000000000000e+03 6.928462219238281250e+01 -3.050872993469238281e+01 -1.070095896720886230e+00 6.572162151336669922e+00 1.650619864463806152e+00 3.883573412895202637e-01
2.781000000000000000e+03 7.051857757568359375e+01 -3.016291809082031250e+01 -1.078617811203002930e+00 7.306877613067626953e+00 1.868477940559387207e+00 5.018330737948417664e-02
2.782000000000000000e+03 9.026419639587402344e+00 2.242948341369628906e+01 -3.972475230693817139e-01 3.961661100387573242e+00 1.069324016571044922e+00 -1.610059976577758789e+00
2.783000000000000000e+03 6.196338272094726562e+01 -3.529502153396606445e+00 9.849231839179992676e-01 3.309716463088989258e+00 1.288391947746276855e+00 3.375300467014312744e-01
2.784000000000000000e+03 1.059368324279785156e+01 -2.195419692993164062e+01 6.217873096466064453e-01 4.874238967895507812e+00 1.648807883262634277e+00 1.306508421897888184e+00
2.785000000000000000e+03 7.021537017822265625e+01 2.277001190185546875e+01 -3.094219863414764404e-01 7.181988716125488281e+00 2.061769962310791016e+00 6.271999478340148926e-01
2.786000000000000000e+03 3.873431777954101562e+01 1.928709411621093750e+01 -3.391481637954711914e-01 6.060508251190185547e+00 1.716408014297485352e+00 8.135662674903869629e-01
2.787000000000000000e+03 1.004220008850097656e+01 2.823403549194335938e+01 -9.752947688102722168e-01 3.348567247390747070e+00 7.119817733764648438e-01 -6.120721101760864258e-01
2.788000000000000000e+03 6.948566436767578125e+01 1.026947116851806641e+01 8.174487352371215820e-01 7.287765026092529297e+00 2.431564092636108398e+00 -2.553714206442236900e-03
2.789000000000000000e+03 1.459194087982177734e+01 -3.322609329223632812e+01 -9.920741319656372070e-01 2.578474521636962891e+00 4.759200811386108398e-01 -1.424368172883987427e-01
2.790000000000000000e+03 6.343677520751953125e+01 2.254980850219726562e+01 -1.004489541053771973e+00 6.418908596038818359e+00 1.624325752258300781e+00 -7.312036156654357910e-01
2.791000000000000000e+03 7.203533935546875000e+01 1.570719718933105469e+01 4.860162138938903809e-01 7.056081295013427734e+00 2.262629270553588867e+00 4.798547625541687012e-01
2.792000000000000000e+03 7.034003448486328125e+01 1.766896438598632812e+01 4.363692998886108398e-01 7.234507560729980469e+00 2.301263093948364258e+00 6.408856511116027832e-01
2.793000000000000000e+03 1.542434406280517578e+01 2.682362556457519531e+01 -1.209560632705688477e+00 3.141886472702026367e+00 5.796977877616882324e-01 6.223560571670532227e-01
2.794000000000000000e+03 4.636570739746093750e+01 2.382563018798828125e+01 -6.200554370880126953e-01 2.748798370361328125e+00 6.386228799819946289e-01 1.557230472564697266e+00
2.795000000000000000e+03 4.465124893188476562e+01 2.765558624267578125e+01 -6.976343989372253418e-01 3.236526250839233398e+00 7.616675496101379395e-01 1.265354514122009277e+00
2.796000000000000000e+03 4.559865570068359375e+01 2.229726028442382812e+01 -5.111038088798522949e-01 2.975705862045288086e+00 7.393806576728820801e-01 1.562999486923217773e+00
2.797000000000000000e+03 3.644765853881835938e+01 -4.331867694854736328e+00 -1.057445526123046875e+00 9.515418052673339844e+00 2.537391662597656250e+00 -1.315063714981079102e+00
2.798000000000000000e+03 1.910423278808593750e+01 2.862126922607421875e+01 -5.406991243362426758e-01 1.572008013725280762e+00 3.093926906585693359e-01 4.850088357925415039e-01
2.799000000000000000e+03 7.279919433593750000e+01 1.316640853881835938e+01 4.911716878414154053e-01 6.927461147308349609e+00 2.225589990615844727e+00 2.055622488260269165e-01
2.800000000000000000e+03 6.923307800292968750e+01 8.931871414184570312e+00 8.010865449905395508e-01 7.216574192047119141e+00 2.405298233032226562e+00 -9.036308526992797852e-02
2.801000000000000000e+03 7.030725860595703125e+01 7.353670597076416016e+00 6.318917274475097656e-01 7.003431320190429688e+00 2.290596961975097656e+00 -2.959330976009368896e-01
2.802000000000000000e+03 1.222589778900146484e+01 -3.354286193847656250e+01 -8.898369669914245605e-01 2.763671875000000000e+00 5.621504783630371094e-01 2.092941403388977051e-01
2.803000000000000000e+03 8.883138656616210938e+00 -3.229788970947265625e+01 -7.245189547538757324e-01 2.884809017181396484e+00 6.480870246887207031e-01 6.543268561363220215e-01
2.804000000000000000e+03 6.466815948486328125e+01 2.757019615173339844e+01 -7.822416424751281738e-01 5.652551651000976562e+00 1.461092948913574219e+00 -5.667111873626708984e-01
2.805000000000000000e+03 6.345816421508789062e+01 2.760440826416015625e+01 -8.143096566200256348e-01 5.281922340393066406e+00 1.340283870697021484e+00 -7.440407276153564453e-01
2.806000000000000000e+03 3.142158699035644531e+01 2.600630187988281250e+01 -1.150034904479980469e+00 3.753249168395996094e+00 7.809643149375915527e-01 -8.480188846588134766e-01
2.807000000000000000e+03 1.489169406890869141e+01 3.502911376953125000e+01 -4.440304636955261230e-01 2.371885776519775391e+00 5.783565640449523926e-01 8.846894651651382446e-02
2.808000000000000000e+03 8.265350341796875000e+00 2.644107246398925781e+01 -7.505915164947509766e-01 3.207384347915649414e+00 7.370378375053405762e-01 -1.054014921188354492e+00
2.809000000000000000e+03 6.401762390136718750e+01 -5.090803623199462891e+00 4.411751031875610352e-01 3.527950286865234375e+00 1.190737605094909668e+00 -7.414039969444274902e-01
2.810000000000000000e+03 1.636133956909179688e+01 2.845565032958984375e+01 -9.014460444450378418e-01 2.561343908309936523e+00 4.979693591594696045e-01 5.719578266143798828e-01
2.811000000000000000e+03 3.121120643615722656e+01 2.819385337829589844e+01 -1.057006835937500000e+00 3.372464418411254883e+00 6.946372985839843750e-01 -7.338324189186096191e-01
2.812000000000000000e+03 2.770754623413085938e+01 2.748179054260253906e+01 -7.268614172935485840e-01 2.172846794128417969e+00 4.337956309318542480e-01 -1.021125435829162598e+00
2.813000000000000000e+03 7.023827362060546875e+01 2.748394393920898438e+01 -4.932245016098022461e-01 6.886446475982666016e+00 1.917966604232788086e+00 1.990096569061279297e-01
2.814000000000000000e+03 6.969972991943359375e+01 2.557517814636230469e+01 -5.321643948554992676e-01 6.984071731567382812e+00 1.935572266578674316e+00 3.486414849758148193e-01
2.815000000000000000e+03 7.154031372070312500e+01 -9.318527221679687500e+00 -1.320862531661987305e+00 8.632776260375976562e+00 2.193574190139770508e+00 -5.535916686058044434e-01
2.816000000000000000e+03 1.530833721160888672e+01 -3.550077819824218750e+01 -7.640909552574157715e-01 2.158215522766113281e+00 4.182373583316802979e-01 -1.997302621603012085e-01
2.817000000000000000e+03 1.436987781524658203e+01 -3.072650671005249023e+00 1.187474370002746582e+00 4.777941703796386719e+00 1.789624810218811035e+00 3.732842445373535156e+00
2.818000000000000000e+03 1.615958023071289062e+01 -3.506102323532104492e+00 9.718120843172073364e-02 8.376791954040527344e+00 2.542191982269287109e+00 2.485684633255004883e+00
2.819000000000000000e+03 1.665870857238769531e+01 -7.147006511688232422e+00 -9.809802770614624023e-01 5.575179576873779297e+00 1.378259778022766113e+00 2.210131645202636719e+00
2.820000000000000000e+03 1.782087707519531250e+01 -3.858766555786132812e+00 5.743528604507446289e-01 7.487359046936035156e+00 2.418513536453247070e+00 1.758808195590972900e-01
2.821000000000000000e+03 1.895147323608398438e+01 -2.599559783935546875e+00 3.087068319320678711e+00 6.277171611785888672e+00 2.809272050857543945e+00 -1.798092842102050781e+00
2.822000000000000000e+03 1.881206893920898438e+01 -2.264152765274047852e+00 3.601288557052612305e+00 6.686144828796386719e+00 3.086230039596557617e+00 -2.079167842864990234e+00
2.823000000000000000e+03 1.305611515045166016e+01 -3.981374740600585938e+00 7.425988316535949707e-01 3.113055229187011719e+00 1.156696200370788574e+00 2.715708494186401367e+00
2.824000000000000000e+03 1.948405647277832031e+01 2.356807142496109009e-01 6.786407947540283203e+00 3.999003887176513672e+00 3.235623598098754883e+00 -9.459173679351806641e-01
2.825000000000000000e+03 1.532443332672119141e+01 5.027833938598632812e+00 -1.477027654647827148e+00 7.808994293212890625e+00 1.899590015411376953e+00 -3.623453378677368164e+00
2.826000000000000000e+03 1.426172351837158203e+01 -3.758868694305419922e+00 7.120755910873413086e-01 4.793293476104736328e+00 1.651610732078552246e+00 3.453996658325195312e+00
2.827000000000000000e+03 1.404219532012939453e+01 -3.368781566619873047e+00 1.060862660408020020e+00 4.194124698638916016e+00 1.576496124267578125e+00 3.470322370529174805e+00
2.828000000000000000e+03 1.364669895172119141e+01 6.686724662780761719e+00 -6.055877804756164551e-01 6.417921066284179688e+00 1.743700027465820312e+00 -2.413867235183715820e+00
2.829000000000000000e+03 1.983231735229492188e+01 -1.664974689483642578e-01 6.499726295471191406e+00 3.288395166397094727e+00 2.936436414718627930e+00 -1.336785316467285156e+00
2.830000000000000000e+03 1.909543228149414062e+01 -7.804906964302062988e-01 6.701784133911132812e+00 5.362549304962158203e+00 3.619299888610839844e+00 -2.289113521575927734e+00
2.831000000000000000e+03 1.500591373443603516e+01 5.921326637268066406e+00 -1.422165393829345703e+00 7.474773406982421875e+00 1.815782427787780762e+00 -3.182318210601806641e+00
2.832000000000000000e+03 1.406151866912841797e+01 3.764054059982299805e+00 1.301797479391098022e-01 5.529974937438964844e+00 1.698046326637268066e+00 -4.204647064208984375e+00
2.833000000000000000e+03 1.295735836029052734e+01 4.305256366729736328e+00 9.655230492353439331e-02 4.228598117828369141e+00 1.297545194625854492e+00 -3.009419202804565430e+00
2.834000000000000000e+03 1.377630519866943359e+01 6.199681758880615234e+00 -6.891127228736877441e-01 6.330945968627929688e+00 1.692549943923950195e+00 -2.653818845748901367e+00
2.835000000000000000e+03 1.144353294372558594e+01 -5.995316982269287109e+00 9.613925218582153320e-02 2.943742275238037109e+00 9.119644165039062500e-01 1.657646417617797852e+00
2.836000000000000000e+03 1.456579589843750000e+01 5.245116710662841797e+00 -1.086767315864562988e+00 6.991819381713867188e+00 1.771515607833862305e+00 -3.504686594009399414e+00
2.837000000000000000e+03 1.507944107055664062e+01 5.417301177978515625e+00 -1.407717704772949219e+00 7.475938796997070312e+00 1.820466279983520508e+00 -3.417908430099487305e+00
2.838000000000000000e+03 2.030805969238281250e+01 3.888193070888519287e-01 5.813180446624755859e+00 2.375483751296997070e+00 2.456599235534667969e+00 -7.383176088333129883e-01
2.839000000000000000e+03 7.801002025604248047e+00 -8.667835235595703125e+00 1.347045153379440308e-01 1.845480918884277344e+00 5.940556526184082031e-01 -2.508626505732536316e-02
2.840000000000000000e+03 1.277671623229980469e+01 6.217383861541748047e+00 -2.567587196826934814e-01 5.311233520507812500e+00 1.516342401504516602e+00 -2.211777925491333008e+00
2.841000000000000000e+03 1.372561740875244141e+01 4.168051242828369141e+00 -6.074889749288558960e-02 5.234996318817138672e+00 1.552274107933044434e+00 -3.802360296249389648e+00
2.842000000000000000e+03 1.072840976715087891e+01 -1.011074352264404297e+01 -9.854900091886520386e-02 4.167948246002197266e+00 1.220819711685180664e+00 6.341790556907653809e-01
2.843000000000000000e+03 8.970124244689941406e+00 -6.648137569427490234e+00 9.989850968122482300e-02 1.838108897209167480e+00 5.814021825790405273e-01 4.210011959075927734e-01
2.844000000000000000e+03 1.200717639923095703e+01 7.592496871948242188e+00 1.698294728994369507e-01 5.234580516815185547e+00 1.621322989463806152e+00 -1.373434424400329590e+00
2.845000000000000000e+03 1.269108963012695312e+01 -7.339502811431884766e+00 -4.550238847732543945e-01 4.414756774902343750e+00 1.187919855117797852e+00 2.024799346923828125e+00
2.846000000000000000e+03 2.088185119628906250e+01 -4.563217639923095703e+00 2.114014863967895508e+00 2.642225503921508789e+00 1.426872134208679199e+00 -7.721717357635498047e-01
2.847000000000000000e+03 1.098444843292236328e+01 9.865052223205566406e+00 1.107050061225891113e+00 5.070534229278564453e+00 1.853275299072265625e+00 -6.220113635063171387e-01
2.848000000000000000e+03 1.131759738922119141e+01 7.442640304565429688e+00 2.759101092815399170e-01 4.609772682189941406e+00 1.465704798698425293e+00 -1.101012587547302246e+00
2.849000000000000000e+03 1.906730079650878906e+01 -5.850379467010498047e+00 2.315993756055831909e-01 4.525506019592285156e+00 1.427131533622741699e+00 3.875377774238586426e-01
2.850000000000000000e+03 1.264528369903564453e+01 -8.738675117492675781e+00 -6.696687936782836914e-01 4.946729183197021484e+00 1.283118009567260742e+00 1.671189904212951660e+00
2.851000000000000000e+03 1.073924160003662109e+01 -6.977133750915527344e+00 -3.428297489881515503e-02 3.015113592147827148e+00 8.942491412162780762e-01 1.217505097389221191e+00
2.852000000000000000e+03 2.145389747619628906e+01 -3.132805585861206055e+00 3.712943077087402344e+00 1.609692931175231934e+00 1.596790790557861328e+00 -1.205215454101562500e+00
2.853000000000000000e+03 1.592447090148925781e+01 -8.552373886108398438e+00 -1.193558573722839355e+00 5.536419391632080078e+00 1.302858233451843262e+00 2.424379825592041016e+00
2.854000000000000000e+03 1.797676849365234375e+01 -2.825217723846435547e+00 1.826580286026000977e+00 8.443875312805175781e+00 3.081136703491210938e+00 -9.873405098915100098e-01
2.855000000000000000e+03 1.974701881408691406e+01 -5.393707752227783203e+00 8.371847271919250488e-01 3.965419769287109375e+00 1.440781354904174805e+00 -1.555288285017013550e-01
2.856000000000000000e+03 1.909620857238769531e+01 -2.107615470886230469e+00 4.158829212188720703e+00 6.105747699737548828e+00 3.079373121261596680e+00 -2.317807674407958984e+00
2.857000000000000000e+03 2.063462829589843750e+01 -1.267830014228820801e+00 5.359269142150878906e+00 2.113003253936767578e+00 2.241681575775146484e+00 -1.675941109657287598e+00
2.858000000000000000e+03 1.198573398590087891e+01 -7.947399616241455078e+00 -4.195196032524108887e-01 4.221963405609130859e+00 1.140733122825622559e+00 1.591456651687622070e+00
2.859000000000000000e+03 1.055762386322021484e+01 7.305193901062011719e+00 4.202811121940612793e-01 3.805885314941406250e+00 1.267849922180175781e+00 -7.726783156394958496e-01
2.860000000000000000e+03 1.039440345764160156e+01 8.120400428771972656e+00 5.914476513862609863e-01 3.996188879013061523e+00 1.376291036605834961e+00 -6.373333334922790527e-01
2.861000000000000000e+03 6.566326904296875000e+01 -3.255336523056030273e+00 2.855648398399353027e-01 4.891483783721923828e+00 1.553114652633666992e+00 -8.274203538894653320e-01
2.862000000000000000e+03 7.002862548828125000e+01 -7.825456142425537109e+00 -1.317474365234375000e+00 7.611165046691894531e+00 1.888107180595397949e+00 -1.169809818267822266e+00
2.863000000000000000e+03 7.126509094238281250e+01 4.530472755432128906e+00 3.668132424354553223e-01 6.869276523590087891e+00 2.170826911926269531e+00 -5.909252166748046875e-01
2.864000000000000000e+03 2.072517395019531250e+01 -2.648469209671020508e+00 4.026610851287841797e+00 2.578363895416259766e+00 1.981492519378662109e+00 -1.622264981269836426e+00
2.865000000000000000e+03 2.122383499145507812e+01 -1.746710419654846191e+00 4.924700260162353516e+00 1.428211569786071777e+00 1.905873537063598633e+00 -1.526905536651611328e+00
2.866000000000000000e+03 7.717481136322021484e+00 -1.022913932800292969e+01 2.458536922931671143e-01 2.151798486709594727e+00 7.192956805229187012e-01 -5.717317759990692139e-02
2.867000000000000000e+03 1.024017429351806641e+01 -9.088598251342773438e+00 -1.015883758664131165e-01 3.539808750152587891e+00 1.031466126441955566e+00 6.751232147216796875e-01
2.868000000000000000e+03 6.429183197021484375e+01 -6.830297946929931641e+00 1.305675208568572998e-01 3.005167484283447266e+00 9.407204985618591309e-01 -1.244353771209716797e+00
2.869000000000000000e+03 6.773008728027343750e+01 -6.561787605285644531e+00 -7.307944893836975098e-01 5.825393676757812500e+00 1.528379797935485840e+00 -1.654414892196655273e+00
2.870000000000000000e+03 2.156521034240722656e+01 -4.269323825836181641e+00 2.674053192138671875e+00 1.718016743659973145e+00 1.317620992660522461e+00 -8.412383794784545898e-01
2.871000000000000000e+03 2.210673522949218750e+01 -3.097738027572631836e+00 3.897369384765625000e+00 7.725545167922973633e-01 1.400977253913879395e+00 -1.020011067390441895e+00
2.872000000000000000e+03 6.687263488769531250e+01 -7.129333019256591797e-01 2.942486405372619629e-01 5.845570087432861328e+00 1.841945648193359375e+00 -6.065270900726318359e-01
2.873000000000000000e+03 6.382322311401367188e+01 -3.309756040573120117e+00 6.581240296363830566e-01 4.057950973510742188e+00 1.414822578430175781e+00 -2.945362925529479980e-01
2.874000000000000000e+03 8.602816581726074219e+00 8.843207359313964844e+00 8.157983422279357910e-01 2.679110527038574219e+00 1.048472642898559570e+00 1.623507589101791382e-02
2.875000000000000000e+03 6.327621078491210938e+01 -6.009742736816406250e+00 3.813200891017913818e-01 2.837450742721557617e+00 9.656313061714172363e-01 -5.869936347007751465e-01
2.876000000000000000e+03 1.569648838043212891e+01 -7.533596038818359375e+00 -1.066532015800476074e+00 5.653965950012207031e+00 1.376230239868164062e+00 2.472031831741333008e+00
2.877000000000000000e+03 1.633769226074218750e+01 -7.862690448760986328e+00 -1.115572452545166016e+00 5.425296783447265625e+00 1.292917251586914062e+00 2.321733951568603516e+00
2.878000000000000000e+03 7.090396118164062500e+01 1.129202842712402344e+01 6.957134008407592773e-01 7.116626739501953125e+00 2.343702077865600586e+00 4.273958876729011536e-02
2.879000000000000000e+03 8.952866554260253906e+00 1.065384101867675781e+01 1.170253753662109375e+00 3.539267778396606445e+00 1.412856459617614746e+00 -2.268543243408203125e-01
2.880000000000000000e+03 1.095915985107421875e+01 -9.302969932556152344e+00 -2.265361547470092773e-01 4.098672389984130859e+00 1.161640882492065430e+00 8.531135320663452148e-01
2.881000000000000000e+03 7.784925937652587891e+00 1.515044021606445312e+01 1.257769823074340820e+00 2.849938869476318359e+00 1.232312560081481934e+00 -8.689087629318237305e-01
2.882000000000000000e+03 7.038547515869140625e+01 -6.582687377929687500e+00 -9.799892306327819824e-01 7.312973499298095703e+00 1.899895191192626953e+00 -1.159368991851806641e+00
2.883000000000000000e+03 1.047045040130615234e+01 -1.101175212860107422e+01 1.147532314062118530e-01 4.215113639831542969e+00 1.298960089683532715e+00 3.828089535236358643e-01
2.884000000000000000e+03 6.778239440917968750e+01 -2.959127426147460938e+01 -1.127122163772583008e+00 5.799393653869628906e+00 1.401681423187255859e+00 7.790890336036682129e-01
2.885000000000000000e+03 6.988863372802734375e+01 1.656576919555664062e+01 5.919516086578369141e-01 7.285076141357421875e+00 2.363108396530151367e+00 5.599884986877441406e-01
2.886000000000000000e+03 7.008878326416015625e+01 5.952965736389160156e+00 5.646702051162719727e-01 6.952669620513916016e+00 2.255202054977416992e+00 -4.122128188610076904e-01
2.887000000000000000e+03 8.197884559631347656e+00 -9.738785743713378906e+00 1.977809816598892212e-01 2.343927860260009766e+00 7.625126242637634277e-01 3.633813932538032532e-02
2.888000000000000000e+03 8.831819534301757812e+00 -1.023968410491943359e+01 1.869017183780670166e-01 2.950206279754638672e+00 9.411323666572570801e-01 1.349051445722579956e-01
2.889000000000000000e+03 8.153740882873535156e+00 1.803707122802734375e+01 9.831351637840270996e-01 3.424454212188720703e+00 1.322276830673217773e+00 -1.454476475715637207e+00
2.890000000000000000e+03 6.798257446289062500e+01 3.245953559875488281e+00 5.156756639480590820e-01 6.632165908813476562e+00 2.144352436065673828e+00 -4.040252864360809326e-01
2.891000000000000000e+03 6.504058837890625000e+01 2.553366851806640625e+01 -9.589428901672363281e-01 6.149377822875976562e+00 1.557130455970764160e+00 -4.661749601364135742e-01
2.892000000000000000e+03 7.065159606933593750e+01 -5.428311824798583984e+00 -8.180665969848632812e-01 7.147136688232421875e+00 1.898721098899841309e+00 -1.053602814674377441e+00
2.893000000000000000e+03 7.050331878662109375e+01 2.194437980651855469e+00 2.185439467430114746e-01 6.754825592041015625e+00 2.092010974884033203e+00 -6.984048485755920410e-01
2.894000000000000000e+03 6.300216674804687500e+01 -4.286350250244140625e+00 6.810621023178100586e-01 3.416896343231201172e+00 1.229387521743774414e+00 -1.904440522193908691e-01
2.895000000000000000e+03 6.743894958496093750e+01 -4.936888217926025391e+00 -3.251101970672607422e-01 5.593824863433837891e+00 1.580614328384399414e+00 -1.370956182479858398e+00
2.896000000000000000e+03 6.795453643798828125e+01 1.880026435852050781e+01 4.041982293128967285e-01 7.464165210723876953e+00 2.360508918762207031e+00 6.214310526847839355e-01
2.897000000000000000e+03 9.458163261413574219e+00 9.517202377319335938e+00 9.648895859718322754e-01 3.545552492141723633e+00 1.353132605552673340e+00 -2.231562882661819458e-01
2.898000000000000000e+03 9.657069206237792969e+00 -2.559323501586914062e+01 -4.229384660720825195e-01 3.796743631362915039e+00 1.012141585350036621e+00 1.340275049209594727e+00
2.899000000000000000e+03 7.182345581054687500e+01 1.467192935943603516e+01 5.453236103057861328e-01 7.061211109161376953e+00 2.281960248947143555e+00 3.817213773727416992e-01
2.900000000000000000e+03 7.100305175781250000e+01 1.610572052001953125e+01 5.346969962120056152e-01 7.160694122314453125e+00 2.308617353439331055e+00 5.172675251960754395e-01
2.901000000000000000e+03 9.185581207275390625e+00 -2.695085334777832031e+01 -5.628414750099182129e-01 3.424150705337524414e+00 8.583927750587463379e-01 1.235524654388427734e+00
2.902000000000000000e+03 8.288489341735839844e+00 -1.097838497161865234e+01 3.059230744838714600e-01 2.599118471145629883e+00 8.715124726295471191e-01 -1.031979918479919434e-02
2.903000000000000000e+03 3.759347534179687500e+01 2.096237564086914062e+01 -6.517206430435180664e-01 5.677640914916992188e+00 1.507776021957397461e+00 5.378871560096740723e-01
2.904000000000000000e+03 6.855733489990234375e+01 2.007886505126953125e+01 9.963213652372360229e-02 7.307799339294433594e+00 2.222229480743408203e+00 6.976003646850585938e-01
2.905000000000000000e+03 6.820230102539062500e+01 2.619565391540527344e+01 -7.029946446418762207e-01 6.785208225250244141e+00 1.824664115905761719e+00 1.047152504324913025e-01
2.906000000000000000e+03 8.409687042236328125e+00 1.111034774780273438e+01 1.191250085830688477e+00 2.886708974838256836e+00 1.223387718200683594e+00 -1.597849875688552856e-01
2.907000000000000000e+03 3.915723800659179688e+01 -2.866815948486328125e+01 -3.111415170133113861e-02 7.372983455657958984e+00 2.202560663223266602e+00 3.127900063991546631e-01
2.908000000000000000e+03 4.046531677246093750e+01 -2.948431015014648438e+01 -2.139359563589096069e-01 7.588187217712402344e+00 2.212275266647338867e+00 5.677316337823867798e-02
2.909000000000000000e+03 1.307083797454833984e+01 3.018425369262695312e+01 -9.091788530349731445e-01 3.024355411529541016e+00 6.345530152320861816e-01 3.376349061727523804e-02
2.910000000000000000e+03 7.931879520416259766e+00 2.871235084533691406e+01 -6.713426113128662109e-01 2.965412139892578125e+00 6.882208585739135742e-01 -7.531235218048095703e-01
2.911000000000000000e+03 3.769272994995117188e+01 -2.848602294921875000e+01 -1.682891696691513062e-01 6.995722293853759766e+00 2.048229932785034180e+00 5.583223104476928711e-01
2.912000000000000000e+03 7.086323547363281250e+01 3.523185729980468750e+01 -1.308752298355102539e-01 6.503422737121582031e+00 1.911764144897460938e+00 -2.981449291110038757e-02
2.913000000000000000e+03 6.884628295898437500e+01 3.181333160400390625e+01 -3.214417695999145508e-01 6.259232521057128906e+00 1.781337261199951172e+00 -1.016370952129364014e-01
2.914000000000000000e+03 4.301359939575195312e+01 2.592055702209472656e+01 -8.299030065536499023e-01 3.767977476119995117e+00 8.814223408699035645e-01 1.285170674324035645e+00
2.915000000000000000e+03 3.847586822509765625e+01 2.382859611511230469e+01 -1.006651163101196289e+00 4.980979919433593750e+00 1.192298650741577148e+00 6.831298470497131348e-01
2.916000000000000000e+03 4.240966033935546875e+01 2.266002464294433594e+01 -7.233274579048156738e-01 4.236515998840332031e+00 1.053956508636474609e+00 1.405769705772399902e+00
2.917000000000000000e+03 4.214472198486328125e+01 -3.352882385253906250e+01 -1.389752864837646484e+00 6.800515651702880859e+00 1.623228788375854492e+00 -2.722192704677581787e-01
2.918000000000000000e+03 6.882314300537109375e+01 2.794704437255859375e+01 -5.619856715202331543e-01 6.636060714721679688e+00 1.822222471237182617e+00 3.353444114327430725e-02
2.919000000000000000e+03 6.654087829589843750e+01 2.803493118286132812e+01 -6.584129929542541504e-01 6.213710784912109375e+00 1.666589260101318359e+00 -2.304068058729171753e-01
2.920000000000000000e+03 6.909372711181640625e+01 2.964114189147949219e+01 -4.651504755020141602e-01 6.516835212707519531e+00 1.815505385398864746e+00 -2.259360812604427338e-02
2.921000000000000000e+03 1.376336669921875000e+01 3.260882949829101562e+01 -6.553592681884765625e-01 2.667657613754272461e+00 6.036894917488098145e-01 8.614978939294815063e-02
2.922000000000000000e+03 6.402504730224609375e+01 2.631958198547363281e+01 -9.273208379745483398e-01 5.645671844482421875e+00 1.415505290031433105e+00 -6.402856707572937012e-01
2.923000000000000000e+03 6.546583557128906250e+01 2.342346954345703125e+01 -8.688717484474182129e-01 6.816659927368164062e+00 1.784336447715759277e+00 -6.922876834869384766e-02
2.924000000000000000e+03 2.795961952209472656e+01 2.916168022155761719e+01 -6.938917636871337891e-01 2.346237421035766602e+00 4.957036674022674561e-01 -8.193894624710083008e-01
2.925000000000000000e+03 2.091300582885742188e+01 3.047759628295898438e+01 -3.315522074699401855e-01 1.462535738945007324e+00 3.392950594425201416e-01 1.117442101240158081e-01
2.926000000000000000e+03 7.061428833007812500e+01 4.373354315757751465e-01 6.041375175118446350e-02 6.737738609313964844e+00 2.039445638656616211e+00 -7.903981804847717285e-01
2.927000000000000000e+03 3.617533493041992188e+01 1.934688186645507812e+01 -2.567076683044433594e-01 6.207282066345214844e+00 1.785172224044799805e+00 3.341638296842575073e-02
2.928000000000000000e+03 6.901401519775390625e+01 1.395158022642135620e-01 1.419660151004791260e-01 6.497375488281250000e+00 1.991802453994750977e+00 -7.621761560440063477e-01
2.929000000000000000e+03 7.023321533203125000e+01 -1.734611541032791138e-01 1.984534412622451782e-02 6.689127445220947266e+00 2.012691736221313477e+00 -8.500363230705261230e-01
2.930000000000000000e+03 9.461200714111328125e+00 2.648914146423339844e+01 -8.957486152648925781e-01 3.583965778350830078e+00 8.064650893211364746e-01 -8.712152242660522461e-01
2.931000000000000000e+03 6.480628967285156250e+01 -4.160285949707031250e+00 3.104124963283538818e-01 4.315015792846679688e+00 1.387628436088562012e+00 -7.954022288322448730e-01
2.932000000000000000e+03 6.909403991699218750e+01 2.756157398223876953e+00 3.723739683628082275e-01 6.709519386291503906e+00 2.124567985534667969e+00 -5.795924663543701172e-01
2.933000000000000000e+03 7.137775421142578125e+01 3.368009328842163086e+00 2.674928307533264160e-01 6.855462074279785156e+00 2.136886596679687500e+00 -6.435542106628417969e-01
2.934000000000000000e+03 1.923320007324218750e+01 -3.659088897705078125e+01 -4.875704348087310791e-01 1.344390511512756348e+00 2.570460140705108643e-01 -3.344314098358154297e-01
2.935000000000000000e+03 1.266775989532470703e+01 -3.862091445922851562e+01 -5.428932905197143555e-01 2.256652116775512695e+00 5.141276717185974121e-01 2.995655499398708344e-02
2.936000000000000000e+03 6.471829986572265625e+01 2.195474624633789062e+01 -9.906461834907531738e-01 7.243448734283447266e+00 1.875840663909912109e+00 1.051267050206661224e-02
2.937000000000000000e+03 6.677806091308593750e+01 2.280096244812011719e+01 -6.965869069099426270e-01 7.164637088775634766e+00 1.940415024757385254e+00 2.969054579734802246e-01
2.938000000000000000e+03 1.518312644958496094e+01 -3.566483020782470703e+00 4.202214479446411133e-01 6.634924888610839844e+00 2.116543769836425781e+00 3.507476568222045898e+00
2.939000000000000000e+03 1.928359603881835938e+01 -4.258432686328887939e-01 6.827238559722900391e+00 4.671549797058105469e+00 3.449636459350585938e+00 -1.807302832603454590e+00
2.940000000000000000e+03 1.762086296081542969e+01 -2.549348115921020508e+00 1.770713686943054199e+00 9.590099334716796875e+00 3.408243894577026367e+00 -9.217956066131591797e-01
2.941000000000000000e+03 1.679601287841796875e+01 -3.766894578933715820e+00 1.598386093974113464e-02 8.216451644897460938e+00 2.469730615615844727e+00 1.550127387046813965e+00
2.942000000000000000e+03 1.924143791198730469e+01 -5.348352909088134766e+00 5.846906900405883789e-01 4.581572532653808594e+00 1.549878954887390137e+00 7.220146805047988892e-02
2.943000000000000000e+03 1.847837066650390625e+01 -2.729068517684936523e+00 2.600472927093505859e+00 7.593019008636474609e+00 3.058047533035278320e+00 -1.766180515289306641e+00
2.944000000000000000e+03 1.970751953125000000e+01 -5.441143512725830078e-01 6.313512325286865234e+00 3.736331701278686523e+00 3.014953136444091797e+00 -1.724106907844543457e+00
2.945000000000000000e+03 1.494818401336669922e+01 -3.198709011077880859e+00 7.872396111488342285e-01 6.296413898468017578e+00 2.125096082687377930e+00 3.784314393997192383e+00
2.946000000000000000e+03 1.944443893432617188e+01 -9.144444018602371216e-02 6.819038391113281250e+00 4.110706329345703125e+00 3.278923511505126953e+00 -1.350246906280517578e+00
2.947000000000000000e+03 1.330332279205322266e+01 -4.466975212097167969e+00 4.948419034481048584e-01 3.693824768066406250e+00 1.256600022315979004e+00 2.855115652084350586e+00
2.948000000000000000e+03 1.599154472351074219e+01 -6.958170890808105469e+00 -9.556092619895935059e-01 5.733303070068359375e+00 1.433308124542236328e+00 2.407228946685791016e+00
2.949000000000000000e+03 1.448422145843505859e+01 4.352726459503173828e+00 -6.391100287437438965e-01 6.665913105010986328e+00 1.808040857315063477e+00 -4.049664497375488281e+00
2.950000000000000000e+03 1.484895706176757812e+01 4.733367443084716797e+00 -1.043887972831726074e+00 7.229341983795166016e+00 1.855636119842529297e+00 -3.823829889297485352e+00
2.951000000000000000e+03 1.998380279541015625e+01 -2.517082929611206055e+00 3.955053329467773438e+00 3.994703769683837891e+00 2.384927272796630859e+00 -1.980574488639831543e+00
2.952000000000000000e+03 1.909664344787597656e+01 -1.614574193954467773e+00 5.249880313873291016e+00 5.797554016113281250e+00 3.314230203628540039e+00 -2.516824960708618164e+00
2.953000000000000000e+03 1.199058055877685547e+01 -5.128915309906005859e+00 2.998667359352111816e-01 2.860656261444091797e+00 9.481569528579711914e-01 2.024977922439575195e+00
2.954000000000000000e+03 1.414643287658691406e+01 -4.514532566070556641e+00 2.528895139694213867e-01 4.830140590667724609e+00 1.524909019470214844e+00 3.178444385528564453e+00
2.955000000000000000e+03 1.486035633087158203e+01 3.985589027404785156e+00 -6.475214362144470215e-01 7.418658733367919922e+00 2.031341075897216797e+00 -4.361328125000000000e+00
2.956000000000000000e+03 1.326515960693359375e+01 5.250620365142822266e+00 -3.229744732379913330e-01 5.302764892578125000e+00 1.493937134742736816e+00 -2.930068969726562500e+00
2.957000000000000000e+03 2.038399124145507812e+01 -8.346147537231445312e-01 5.739216327667236328e+00 2.485389947891235352e+00 2.467381954193115234e+00 -1.643370747566223145e+00
2.958000000000000000e+03 1.338897323608398438e+01 5.860176563262939453e+00 -4.983933269977569580e-01 5.774051189422607422e+00 1.582697272300720215e+00 -2.714412689208984375e+00
2.959000000000000000e+03 1.209307765960693359e+01 -5.692700862884521484e+00 1.173765212297439575e-01 3.290054798126220703e+00 1.022229433059692383e+00 2.078461170196533203e+00
2.960000000000000000e+03 1.395145893096923828e+01 5.180373668670654297e+00 -6.762790083885192871e-01 6.266790866851806641e+00 1.677153587341308594e+00 -3.370054960250854492e+00
2.961000000000000000e+03 1.144910717010498047e+01 -7.105140686035156250e+00 -1.740504354238510132e-01 3.502538442611694336e+00 9.985464215278625488e-01 1.522391915321350098e+00
2.962000000000000000e+03 1.394650173187255859e+01 4.588971138000488281e+00 -4.769150912761688232e-01 6.003907680511474609e+00 1.658097743988037109e+00 -3.666271924972534180e+00
2.963000000000000000e+03 1.108808135986328125e+01 9.055877685546875000e+00 7.711952924728393555e-01 4.978159427642822266e+00 1.724806427955627441e+00 -7.841240167617797852e-01
2.964000000000000000e+03 2.009836006164550781e+01 -4.189506530761718750e+00 2.099938869476318359e+00 3.672667264938354492e+00 1.731781840324401855e+00 -9.411398768424987793e-01
2.965000000000000000e+03 2.120357322692871094e+01 -3.662178516387939453e+00 3.155266523361206055e+00 2.074764013290405273e+00 1.569009184837341309e+00 -1.149082779884338379e+00
2.966000000000000000e+03 1.427928733825683594e+01 -8.019474029541015625e+00 -9.451523423194885254e-01 5.407424449920654297e+00 1.338681697845458984e+00 2.321104288101196289e+00
2.967000000000000000e+03 1.339247417449951172e+01 -7.826786994934082031e+00 -7.378089427947998047e-01 5.032710552215576172e+00 1.288470506668090820e+00 2.149026632308959961e+00
2.968000000000000000e+03 1.776375961303710938e+01 -4.795500278472900391e+00 3.565498441457748413e-02 6.589692592620849609e+00 1.987604260444641113e+00 8.300846219062805176e-01
2.969000000000000000e+03 1.391126728057861328e+01 5.733892440795898438e+00 -7.953252196311950684e-01 6.364070415496826172e+00 1.670623660087585449e+00 -3.024955749511718750e+00
2.970000000000000000e+03 2.015692520141601562e+01 -2.924843549728393555e+00 3.498186826705932617e+00 3.784963130950927734e+00 2.184944868087768555e+00 -1.722560882568359375e+00
2.971000000000000000e+03 1.997083663940429688e+01 -1.188201069831848145e+00 5.633583545684814453e+00 3.494569540023803711e+00 2.738445997238159180e+00 -1.995858073234558105e+00
2.972000000000000000e+03 1.047994136810302734e+01 -8.388951301574707031e+00 -1.409230381250381470e-01 3.456885099411010742e+00 9.947886466979980469e-01 8.646237850189208984e-01
2.973000000000000000e+03 1.172410583496093750e+01 -9.446600914001464844e+00 -4.166367352008819580e-01 4.654240131378173828e+00 1.271281123161315918e+00 1.118784546852111816e+00
2.974000000000000000e+03 1.613404846191406250e+01 -6.393652439117431641e+00 -8.614767789840698242e-01 5.897143363952636719e+00 1.510699987411499023e+00 2.404670715332031250e+00
2.975000000000000000e+03 9.995440483093261719e+00 -7.636199474334716797e+00 -1.789031736552715302e-02 2.831668615341186523e+00 8.441334962844848633e-01 8.115116357803344727e-01
2.976000000000000000e+03 2.062858390808105469e+01 -3.962130546569824219e+00 2.484379529953002930e+00 2.957517385482788086e+00 1.632569074630737305e+00 -1.008662819862365723e+00
2.977000000000000000e+03 1.476836013793945312e+01 -7.623412132263183594e+00 -9.525875449180603027e-01 5.509045124053955078e+00 1.366937279701232910e+00 2.470969915390014648e+00
2.978000000000000000e+03 1.018204975128173828e+01 9.674557685852050781e+00 1.001070261001586914e+00 4.244578838348388672e+00 1.573694705963134766e+00 -5.010041594505310059e-01
2.979000000000000000e+03 1.730849456787109375e+01 -6.180263042449951172e+00 -6.262938976287841797e-01 5.731440067291259766e+00 1.531543850898742676e+00 1.711619019508361816e+00
2.980000000000000000e+03 1.856964111328125000e+01 -5.580576419830322266e+00 9.179263561964035034e-02 5.271209239959716797e+00 1.608900547027587891e+00 5.595780014991760254e-01
2.981000000000000000e+03 1.118011760711669922e+01 8.256918907165527344e+00 5.591344833374023438e-01 4.754033565521240234e+00 1.593950510025024414e+00 -8.495942354202270508e-01
2.982000000000000000e+03 1.314721298217773438e+01 6.770761489868164062e+00 -3.705615103244781494e-01 5.989675998687744141e+00 1.685734391212463379e+00 -2.169004440307617188e+00
2.983000000000000000e+03 9.220225334167480469e+00 -9.478066444396972656e+00 8.100324869155883789e-02 2.978416681289672852e+00 9.178259968757629395e-01 3.325280547142028809e-01
2.984000000000000000e+03 6.930509948730468750e+01 -6.202627182006835938e+00 -9.079357385635375977e-01 6.805584430694580078e+00 1.769294619560241699e+00 -1.325467109680175781e+00
2.985000000000000000e+03 6.875610351562500000e+01 9.940550923347473145e-01 2.689695358276367188e-01 6.476913452148437500e+00 2.023764848709106445e+00 -6.980085372924804688e-01
2.986000000000000000e+03 1.028637981414794922e+01 8.911748886108398438e+00 8.421612977981567383e-01 4.123924732208251953e+00 1.489825844764709473e+00 -4.563961923122406006e-01
2.987000000000000000e+03 9.600374221801757812e+00 -1.071014499664306641e+01 1.816434264183044434e-01 3.514877796173095703e+00 1.108956336975097656e+00 2.806397378444671631e-01
2.988000000000000000e+03 6.913877868652343750e+01 -3.463224411010742188e+00 -3.214864730834960938e-01 6.395499229431152344e+00 1.822203755378723145e+00 -1.100449204444885254e+00
2.989000000000000000e+03 6.672896575927734375e+01 -5.810579776763916016e+00 -4.131936728954315186e-01 5.201831817626953125e+00 1.436591386795043945e+00 -1.571115612983703613e+00
2.990000000000000000e+03 6.948228454589843750e+01 -6.514571905136108398e-01 3.519449010491371155e-02 6.502211093902587891e+00 1.961221694946289062e+00 -8.558006882667541504e-01
2.991000000000000000e+03 6.763259124755859375e+01 8.077636957168579102e-01 3.295620679855346680e-01 6.321383953094482422e+00 1.995283722877502441e+00 -5.471296906471252441e-01
2.992000000000000000e+03 6.799855804443359375e+01 -2.225519418716430664e-01 2.246166914701461792e-01 6.202387809753417969e+00 1.928101301193237305e+00 -7.063371539115905762e-01
2.993000000000000000e+03 9.554366111755371094e+00 -8.779446601867675781e+00 -6.356126163154840469e-03 3.054561614990234375e+00 9.144616723060607910e-01 4.995249211788177490e-01
2.994000000000000000e+03 6.841572570800781250e+01 4.646079063415527344e+00 5.890501141548156738e-01 6.868175983428955078e+00 2.237167835235595703e+00 -3.699555993080139160e-01
2.995000000000000000e+03 7.181797790527343750e+01 -2.988685035705566406e+01 -9.793561697006225586e-01 7.978169918060302734e+00 2.099644184112548828e+00 -2.591774761676788330e-01
2.996000000000000000e+03 9.985918045043945312e+00 1.041768646240234375e+01 1.222243666648864746e+00 4.283920764923095703e+00 1.651849389076232910e+00 -4.011596441268920898e-01
2.997000000000000000e+03 3.889016723632812500e+01 1.809477806091308594e+01 -1.257654279470443726e-01 6.404989242553710938e+00 1.883767127990722656e+00 8.720369338989257812e-01
2.998000000000000000e+03 3.536178588867187500e+01 2.594814491271972656e+01 -1.218625187873840332e+00 4.613061904907226562e+00 1.018330931663513184e+00 -3.108669631183147430e-02
2.999000000000000000e+03 6.576792907714843750e+01 -5.004668712615966797e+00 4.384195432066917419e-02 4.567600250244140625e+00 1.383432626724243164e+00 -1.229725837707519531e+00
3.000000000000000000e+03 7.069971466064453125e+01 2.939202690124511719e+01 -4.045966565608978271e-01 6.747309207916259766e+00 1.902813792228698730e+00 1.099394112825393677e-01
3.001000000000000000e+03 6.683872222900390625e+01 2.653254127502441406e+01 -7.505492568016052246e-01 6.456881999969482422e+00 1.711899876594543457e+00 -1.017668843269348145e-01
3.002000000000000000e+03 6.956618499755859375e+01 1.975914478302001953e+00 2.781813442707061768e-01 6.657141685485839844e+00 2.080596923828125000e+00 -7.039418816566467285e-01
3.003000000000000000e+03 6.869997406005859375e+01 1.887878656387329102e+00 3.400197327136993408e-01 6.575544357299804688e+00 2.074669122695922852e+00 -5.718631148338317871e-01
3.004000000000000000e+03 3.399130630493164062e+01 2.621842384338378906e+01 -1.209737896919250488e+00 4.332653045654296875e+00 9.368745684623718262e-01 -3.020665943622589111e-01
3.005000000000000000e+03 1.254420280456542969e+01 -3.602227401733398438e+01 -7.020971179008483887e-01 2.434455633163452148e+00 5.197075605392456055e-01 6.937861442565917969e-02
3.006000000000000000e+03 5.207008743286132812e+01 2.624310874938964844e+01 -2.667906880378723145e-01 1.290122151374816895e+00 3.069994449615478516e-01 8.689699172973632812e-01
3.007000000000000000e+03 6.755965423583984375e+01 2.439322853088378906e+01 -7.250052094459533691e-01 6.922719001770019531e+00 1.859314203262329102e+00 2.300319373607635498e-01
3.008000000000000000e+03 6.967285919189453125e+01 -5.248707771301269531e+00 -7.079187631607055664e-01 6.797203063964843750e+00 1.826785206794738770e+00 -1.244639039039611816e+00
3.009000000000000000e+03 2.782915115356445312e+01 3.392205810546875000e+01 -4.851843714714050293e-01 2.347981691360473633e+00 5.588392019271850586e-01 -4.090873301029205322e-01
3.010000000000000000e+03 1.462379169464111328e+01 -3.216529369354248047e+00 9.928935170173645020e-01 5.372471809387207031e+00 1.909609556198120117e+00 3.741566896438598633e+00
3.011000000000000000e+03 1.550038051605224609e+01 -3.663083314895629883e+00 1.804132312536239624e-01 7.189292907714843750e+00 2.210911750793457031e+00 3.184522867202758789e+00
3.012000000000000000e+03 1.636873245239257812e+01 -4.737214088439941406e+00 -3.736006617546081543e-01 7.074456691741943359e+00 2.010256767272949219e+00 2.179156541824340820e+00
3.013000000000000000e+03 1.269117450714111328e+01 -4.831637859344482422e+00 3.675782680511474609e-01 3.278349161148071289e+00 1.093778252601623535e+00 2.451027154922485352e+00
3.014000000000000000e+03 1.839770698547363281e+01 -3.061100244522094727e+00 2.004151105880737305e+00 7.294270515441894531e+00 2.789526462554931641e+00 -1.195674777030944824e+00
3.015000000000000000e+03 1.453363895416259766e+01 -4.094249248504638672e+00 3.593647778034210205e-01 5.379909992218017578e+00 1.721782326698303223e+00 3.332823514938354492e+00
3.016000000000000000e+03 2.068058013916015625e+01 -1.746155381202697754e+00 4.928458690643310547e+00 2.252258062362670898e+00 2.154215097427368164e+00 -1.744707942008972168e+00
3.017000000000000000e+03 1.964641571044921875e+01 -2.869929075241088867e+00 3.299187183380126953e+00 4.702603340148925781e+00 2.400537252426147461e+00 -1.764657616615295410e+00
3.018000000000000000e+03 1.968254089355468750e+01 -2.187332391738891602e+00 4.332468986511230469e+00 4.415878772735595703e+00 2.624504566192626953e+00 -2.114136219024658203e+00
3.019000000000000000e+03 1.870571517944335938e+01 -3.874019145965576172e+00 1.351238489151000977e+00 6.201352119445800781e+00 2.265777111053466797e+00 -6.622789502143859863e-01
3.020000000000000000e+03 1.932161331176757812e+01 -2.485155820846557617e+00 3.551979064941406250e+00 5.400027751922607422e+00 2.685601949691772461e+00 -1.951204538345336914e+00
3.021000000000000000e+03 1.672119712829589844e+01 -6.432743549346923828e+00 -7.972319126129150391e-01 5.807580471038818359e+00 1.503104448318481445e+00 2.102277517318725586e+00
3.022000000000000000e+03 1.515038967132568359e+01 -7.166508674621582031e+00 -9.519438147544860840e-01 5.631499767303466797e+00 1.403866767883300781e+00 2.509299278259277344e+00
3.023000000000000000e+03 1.526836585998535156e+01 -8.126697540283203125e+00 -1.139682650566101074e+00 5.634225368499755859e+00 1.348362922668457031e+00 2.387011289596557617e+00
3.024000000000000000e+03 1.304594516754150391e+01 -5.347211360931396484e+00 1.271687448024749756e-01 3.829504251480102539e+00 1.187001943588256836e+00 2.570940256118774414e+00
3.025000000000000000e+03 1.970826721191406250e+01 -4.823143482208251953e+00 1.185278177261352539e+00 4.320416927337646484e+00 1.651708483695983887e+00 -4.680892229080200195e-01
3.026000000000000000e+03 1.270638370513916016e+01 -7.985932826995849609e+00 -5.952812433242797852e-01 4.690776824951171875e+00 1.228648781776428223e+00 1.875270366668701172e+00
3.027000000000000000e+03 9.864379882812500000e+00 -8.187685012817382812e+00 -6.084858626127243042e-02 2.996091127395629883e+00 8.805727958679199219e-01 6.720752120018005371e-01
3.028000000000000000e+03 2.032830810546875000e+01 -3.429817438125610352e+00 3.034738540649414062e+00 3.481478214263916016e+00 1.954864978790283203e+00 -1.418329477310180664e+00
3.029000000000000000e+03 1.327461338043212891e+01 -7.220138549804687500e+00 -5.427085757255554199e-01 4.713247299194335938e+00 1.251161694526672363e+00 2.253489732742309570e+00
3.030000000000000000e+03 1.815606498718261719e+01 -5.210849761962890625e+00 4.587288200855255127e-02 5.905853271484375000e+00 1.785517930984497070e+00 6.780105829238891602e-01
3.031000000000000000e+03 1.886344146728515625e+01 -5.145401477813720703e+00 4.992135167121887207e-01 5.176984786987304688e+00 1.702859401702880859e+00 1.128606125712394714e-01
3.032000000000000000e+03 1.130082416534423828e+01 -7.825468540191650391e+00 -2.470080703496932983e-01 3.723876953125000000e+00 1.043060660362243652e+00 1.301347017288208008e+00
3.033000000000000000e+03 1.187413311004638672e+01 -8.670692443847656250e+00 -4.479493796825408936e-01 4.436771869659423828e+00 1.196646690368652344e+00 1.358217954635620117e+00
3.034000000000000000e+03 1.115178489685058594e+01 -8.549817085266113281e+00 -2.908596992492675781e-01 3.936951160430908203e+00 1.093827486038208008e+00 1.110588073730468750e+00
3.035000000000000000e+03 1.432315826416015625e+01 -7.190291404724121094e+00 -7.929767370223999023e-01 5.304268836975097656e+00 1.353387594223022461e+00 2.478876352310180664e+00
3.036000000000000000e+03 1.667457008361816406e+01 -5.157273292541503906e+00 -4.831973612308502197e-01 6.723052978515625000e+00 1.871956706047058105e+00 1.942116618156433105e+00
3.037000000000000000e+03 2.001250267028808594e+01 -1.862124085426330566e+00 4.908783912658691406e+00 3.679212331771850586e+00 2.576398849487304688e+00 -2.142916917800903320e+00
3.038000000000000000e+03 2.090428733825683594e+01 -3.194854497909545898e+00 3.563406705856323242e+00 2.425362110137939453e+00 1.796630620956420898e+00 -1.442533612251281738e+00
3.039000000000000000e+03 1.778495407104492188e+01 -3.141922950744628906e+00 1.216414809226989746e+00 8.570841789245605469e+00 2.936177015304565430e+00 -4.723745584487915039e-01
3.040000000000000000e+03 6.891094207763671875e+01 -4.842984676361083984e+00 -5.378778576850891113e-01 6.360870838165283203e+00 1.746897816658020020e+00 -1.268476843833923340e+00
3.041000000000000000e+03 6.656230926513671875e+01 -4.130987644195556641e+00 -7.082290202379226685e-02 5.254382133483886719e+00 1.555067777633666992e+00 -1.168933391571044922e+00
3.042000000000000000e+03 6.659531402587890625e+01 -2.429407835006713867e+00 1.603726297616958618e-01 5.496901512145996094e+00 1.697182178497314453e+00 -8.402899503707885742e-01
3.043000000000000000e+03 6.963016510009765625e+01 -3.209178161621093750e+01 -8.519907593727111816e-01 6.402899265289306641e+00 1.665272593498229980e+00 2.946577072143554688e-01
3.044000000000000000e+03 6.856314849853515625e+01 -1.150768876075744629e+00 3.879057615995407104e-02 6.288465976715087891e+00 1.898176908493041992e+00 -8.547046780586242676e-01
3.045000000000000000e+03 6.924172210693359375e+01 -1.982621908187866211e+00 -1.156964153051376343e-01 6.396069526672363281e+00 1.884112000465393066e+00 -9.594384431838989258e-01
3.046000000000000000e+03 3.720538330078125000e+01 2.246229362487792969e+01 -8.819298744201660156e-01 5.324940204620361328e+00 1.332903146743774414e+00 4.391211569309234619e-01
3.047000000000000000e+03 3.595641326904296875e+01 2.824603271484375000e+01 -1.164878129959106445e+00 4.123650550842285156e+00 8.876317739486694336e-01 5.250041186809539795e-02
3.048000000000000000e+03 7.075861358642578125e+01 -4.273790359497070312e+00 -5.467322468757629395e-01 6.958357810974121094e+00 1.923487663269042969e+00 -1.037043094635009766e+00
3.049000000000000000e+03 6.997094726562500000e+01 -2.764353990554809570e+00 -3.158041834831237793e-01 6.655303955078125000e+00 1.901849865913391113e+00 -1.036939978599548340e+00
3.050000000000000000e+03 6.334638977050781250e+01 2.967757606506347656e+01 -4.638869166374206543e-01 4.921083450317382812e+00 1.337159037590026855e+00 -6.744241118431091309e-01
3.051000000000000000e+03 1.217717933654785156e+01 3.582767486572265625e+01 -4.322731494903564453e-01 2.536602973937988281e+00 6.312988996505737305e-01 -4.473436996340751648e-02
3.052000000000000000e+03 1.155626296997070312e+01 3.323799514770507812e+01 -6.081944704055786133e-01 2.700875520706176758e+00 6.278042793273925781e-01 -1.014241799712181091e-01
3.053000000000000000e+03 3.880759429931640625e+01 -2.999940681457519531e+01 -5.289999246597290039e-01 6.911953449249267578e+00 1.914885997772216797e+00 4.910334646701812744e-01
3.054000000000000000e+03 7.354833221435546875e+01 3.742959594726562500e+01 -5.465444549918174744e-02 7.073506832122802734e+00 2.105655670166015625e+00 3.619194403290748596e-02
3.055000000000000000e+03 1.698511886596679688e+01 -5.613929748535156250e+00 -5.497881770133972168e-01 6.303507804870605469e+00 1.726115942001342773e+00 1.808070182800292969e+00
3.056000000000000000e+03 1.750086784362792969e+01 -3.409377813339233398e+00 7.034382224082946777e-01 8.606113433837890625e+00 2.792865514755249023e+00 1.664809584617614746e-01
3.057000000000000000e+03 1.465791416168212891e+01 -6.764101505279541016e+00 -7.522020339965820312e-01 5.410152435302734375e+00 1.397385120391845703e+00 2.612377882003784180e+00
3.058000000000000000e+03 1.818719291687011719e+01 -4.327942848205566406e+00 5.064326524734497070e-01 6.623558044433593750e+00 2.138997077941894531e+00 1.704471111297607422e-01
3.059000000000000000e+03 1.261266422271728516e+01 -5.765914916992187500e+00 4.170919209718704224e-02 3.649110317230224609e+00 1.107245802879333496e+00 2.288431167602539062e+00
3.060000000000000000e+03 1.821891403198242188e+01 -3.471721649169921875e+00 1.338287353515625000e+00 7.304935455322265625e+00 2.592966794967651367e+00 -6.641418933868408203e-01
3.061000000000000000e+03 1.581290054321289062e+01 -3.906578063964843750e+00 -1.134631223976612091e-02 7.441934108734130859e+00 2.229176282882690430e+00 2.866429805755615234e+00
3.062000000000000000e+03 1.545705223083496094e+01 -6.707690715789794922e+00 -8.884907364845275879e-01 5.744393825531005859e+00 1.456770896911621094e+00 2.565833806991577148e+00
3.063000000000000000e+03 1.657012939453125000e+01 -5.848981380462646484e+00 -6.673342585563659668e-01 6.207435131072998047e+00 1.662030220031738281e+00 2.073014736175537109e+00
3.064000000000000000e+03 1.503384399414062500e+01 -6.387534141540527344e+00 -7.238495349884033203e-01 5.639628887176513672e+00 1.474733829498291016e+00 2.670322656631469727e+00
3.065000000000000000e+03 1.738967323303222656e+01 -5.252849102020263672e+00 -3.282575905323028564e-01 6.383679866790771484e+00 1.816626667976379395e+00 1.389489054679870605e+00
3.066000000000000000e+03 1.924630355834960938e+01 -3.361887216567993164e+00 2.367696285247802734e+00 5.453041076660156250e+00 2.346221208572387695e+00 -1.358258485794067383e+00
3.067000000000000000e+03 1.880307006835937500e+01 -2.977148294448852539e+00 2.498305559158325195e+00 6.573098182678222656e+00 2.721421241760253906e+00 -1.533679962158203125e+00
3.068000000000000000e+03 1.395405292510986328e+01 -7.553264617919921875e+00 -8.012859821319580078e-01 5.193468093872070312e+00 1.317654728889465332e+00 2.341458559036254883e+00
3.069000000000000000e+03 1.904443550109863281e+01 -4.397506237030029297e+00 1.162354826927185059e+00 5.371288299560546875e+00 1.960092902183532715e+00 -4.792872369289398193e-01
3.070000000000000000e+03 1.977072715759277344e+01 -3.765053987503051758e+00 2.274928331375122070e+00 4.406237602233886719e+00 2.004349708557128906e+00 -1.142513275146484375e+00
3.071000000000000000e+03 1.177652454376220703e+01 -6.500037670135498047e+00 -9.094642847776412964e-02 3.461941957473754883e+00 1.011298656463623047e+00 1.755401134490966797e+00
3.072000000000000000e+03 1.063732242584228516e+01 -7.700126647949218750e+00 -1.489381194114685059e-01 3.281338930130004883e+00 9.397202134132385254e-01 1.061886072158813477e+00
3.073000000000000000e+03 1.614516258239746094e+01 -5.860905170440673828e+00 -6.869543790817260742e-01 6.135018348693847656e+00 1.634419202804565430e+00 2.388672113418579102e+00
3.074000000000000000e+03 6.757886505126953125e+01 -1.729908466339111328e+00 1.195240765810012817e-01 5.894651412963867188e+00 1.804252743721008301e+00 -8.476145863533020020e-01
3.075000000000000000e+03 6.852818298339843750e+01 -3.451068878173828125e+01 -4.549952447414398193e-01 5.353624820709228516e+00 1.469588875770568848e+00 4.457088708877563477e-01
3.076000000000000000e+03 7.019714355468750000e+01 -3.378319931030273438e+01 -5.995332598686218262e-01 6.595132827758789062e+00 1.798679828643798828e+00 2.261402159929275513e-01
3.077000000000000000e+03 6.821785736083984375e+01 -4.139257431030273438e+00 -3.744502365589141846e-01 6.085307121276855469e+00 1.713257074356079102e+00 -1.263191699981689453e+00
3.078000000000000000e+03 3.995885467529296875e+01 2.253553771972656250e+01 -8.221942782402038574e-01 5.027497291564941406e+00 1.261590957641601562e+00 1.032925724983215332e+00
3.079000000000000000e+03 4.678598022460937500e+01 -2.984475326538085938e+01 4.889633357524871826e-01 6.888392925262451172e+00 2.213206768035888672e+00 -2.301720380783081055e+00
3.080000000000000000e+03 3.386673355102539062e+01 2.816789054870605469e+01 -1.153486609458923340e+00 3.894488096237182617e+00 8.223004341125488281e-01 -3.259553909301757812e-01
3.081000000000000000e+03 6.135837936401367188e+01 2.879862785339355469e+01 -3.754764795303344727e-01 3.983984231948852539e+00 1.082552313804626465e+00 -8.566118478775024414e-01
3.082000000000000000e+03 6.968534088134765625e+01 -4.337716102600097656e+00 -5.536129474639892578e-01 6.696985244750976562e+00 1.843011617660522461e+00 -1.135071635246276855e+00
3.083000000000000000e+03 1.569742488861083984e+01 -4.651470661163330078e+00 -2.699896991252899170e-01 6.671827793121337891e+00 1.920551538467407227e+00 2.798818826675415039e+00
3.084000000000000000e+03 1.608954811096191406e+01 -4.308154106140136719e+00 -2.243065536022186279e-01 7.380428791046142578e+00 2.146836757659912109e+00 2.466043233871459961e+00
3.085000000000000000e+03 1.479439640045166016e+01 -5.318295001983642578e+00 -3.222051858901977539e-01 5.550994396209716797e+00 1.568636655807495117e+00 2.927440881729125977e+00
3.086000000000000000e+03 1.317365455627441406e+01 -6.663577556610107422e+00 -3.925983905792236328e-01 4.469507694244384766e+00 1.223072767257690430e+00 2.323097944259643555e+00
3.087000000000000000e+03 1.346193599700927734e+01 -5.844619274139404297e+00 -1.894258260726928711e-01 4.468934535980224609e+00 1.283852577209472656e+00 2.614634752273559570e+00
3.088000000000000000e+03 1.534782695770263672e+01 -6.039324760437011719e+00 -6.832143068313598633e-01 5.852679729461669922e+00 1.550839662551879883e+00 2.706512689590454102e+00
3.089000000000000000e+03 1.571083736419677734e+01 -5.837034225463867188e+00 -6.882037520408630371e-01 6.064416408538818359e+00 1.612863898277282715e+00 2.578813791275024414e+00
3.090000000000000000e+03 1.739554977416992188e+01 -4.051170349121093750e+00 1.712269037961959839e-01 7.626308917999267578e+00 2.339260816574096680e+00 8.367194533348083496e-01
3.091000000000000000e+03 1.672582626342773438e+01 -4.446829795837402344e+00 -2.263963520526885986e-01 7.432446002960205078e+00 2.161814928054809570e+00 1.763878226280212402e+00
3.092000000000000000e+03 1.854910087585449219e+01 -4.764843940734863281e+00 5.074381232261657715e-01 5.868827819824218750e+00 1.912879705429077148e+00 1.280771493911743164e-01
3.093000000000000000e+03 1.502689552307128906e+01 -3.874908924102783203e+00 3.259134292602539062e-01 6.174131870269775391e+00 1.950013518333435059e+00 3.392272233963012695e+00
3.094000000000000000e+03 1.490845298767089844e+01 -4.200049877166748047e+00 1.482139825820922852e-01 5.881032466888427734e+00 1.808773994445800781e+00 3.281316280364990234e+00
3.095000000000000000e+03 1.630727386474609375e+01 -5.454232692718505859e+00 -5.776827335357666016e-01 6.441679000854492188e+00 1.759198904037475586e+00 2.261771917343139648e+00
3.096000000000000000e+03 1.223484516143798828e+01 -6.781819820404052734e+00 -2.555585503578186035e-01 3.891401290893554688e+00 1.090752840042114258e+00 1.900237679481506348e+00
3.097000000000000000e+03 1.208237171173095703e+01 -7.300985336303710938e+00 -3.237205743789672852e-01 4.032103061676025391e+00 1.112514734268188477e+00 1.774265050888061523e+00
3.098000000000000000e+03 1.430980110168457031e+01 -6.264520645141601562e+00 -5.435650944709777832e-01 5.201374053955078125e+00 1.397342801094055176e+00 2.700969219207763672e+00
3.099000000000000000e+03 6.833944702148437500e+01 -2.624163150787353516e+00 -1.320486217737197876e-01 6.145042419433593750e+00 1.803898096084594727e+00 -1.028316617012023926e+00
3.100000000000000000e+03 3.982386779785156250e+01 2.571468544006347656e+01 -1.033991694450378418e+00 4.406220912933349609e+00 1.011668801307678223e+00 8.721905946731567383e-01
3.101000000000000000e+03 6.832310485839843750e+01 3.456987762451171875e+01 -1.646130383014678955e-01 6.014396667480468750e+00 1.754935026168823242e+00 -1.351006031036376953e-01
3.102000000000000000e+03 3.802422332763671875e+01 2.714249420166015625e+01 -1.134268045425415039e+00 4.328376770019531250e+00 9.582325816154479980e-01 4.720124900341033936e-01
3.103000000000000000e+03 3.938058853149414062e+01 2.943016052246093750e+01 -9.987730979919433594e-01 3.890490293502807617e+00 8.675152063369750977e-01 6.021586656570434570e-01
3.104000000000000000e+03 6.281949996948242188e+01 3.236605453491210938e+01 -1.616686880588531494e-01 4.569331645965576172e+00 1.322298884391784668e+00 -5.053425431251525879e-01
3.105000000000000000e+03 1.545526313781738281e+01 -4.289885997772216797e+00 -7.809462398290634155e-02 6.652934074401855469e+00 1.972451806068420410e+00 3.009516000747680664e+00
3.106000000000000000e+03 1.383245754241943359e+01 -7.058309078216552734e+00 -6.678323149681091309e-01 5.071967124938964844e+00 1.321240425109863281e+00 2.444673299789428711e+00
3.107000000000000000e+03 1.253431892395019531e+01 -6.442873477935791016e+00 -1.815214306116104126e-01 3.872307538986206055e+00 1.107235789299011230e+00 2.088573694229125977e+00
3.108000000000000000e+03 1.361585044860839844e+01 -4.936426639556884766e+00 1.845823228359222412e-01 4.249361515045166016e+00 1.330183029174804688e+00 2.877422571182250977e+00
3.109000000000000000e+03 1.736197853088378906e+01 -4.485367298126220703e+00 -4.015852510929107666e-02 7.187392711639404297e+00 2.144170284271240234e+00 1.052125215530395508e+00
3.110000000000000000e+03 1.704004669189453125e+01 -4.848038196563720703e+00 -2.976750135421752930e-01 6.936081409454345703e+00 1.991521954536437988e+00 1.560563087463378906e+00
3.111000000000000000e+03 1.508921623229980469e+01 -5.683103084564208984e+00 -5.522271990776062012e-01 5.743731021881103516e+00 1.557451128959655762e+00 2.776369094848632812e+00
3.112000000000000000e+03 1.552860546112060547e+01 -5.389967441558837891e+00 -5.096211433410644531e-01 6.119525909423828125e+00 1.682971477508544922e+00 2.723070383071899414e+00
3.113000000000000000e+03 1.398301601409912109e+01 -5.406042098999023438e+00 -1.309344172477722168e-01 4.762043476104736328e+00 1.389332771301269531e+00 2.878455638885498047e+00
3.114000000000000000e+03 1.525373077392578125e+01 -4.977841377258300781e+00 -3.020454049110412598e-01 6.065226078033447266e+00 1.728954195976257324e+00 2.895899057388305664e+00
3.115000000000000000e+03 1.224738216400146484e+01 -6.120075702667236328e+00 -6.637395173311233521e-02 3.575789690017700195e+00 1.052824735641479492e+00 2.048649787902832031e+00
3.116000000000000000e+03 9.267843246459960938e+00 -2.230980300903320312e+01 4.772031307220458984e-01 3.883845806121826172e+00 1.308314681053161621e+00 1.512959003448486328e+00
3.117000000000000000e+03 7.263981628417968750e+01 -3.673384857177734375e+01 -2.243034541606903076e-01 7.287293910980224609e+00 2.118897199630737305e+00 1.155407503247261047e-01
3.118000000000000000e+03 7.119152832031250000e+01 -3.546141815185546875e+01 -3.584311306476593018e-01 6.905861854553222656e+00 1.964229226112365723e+00 2.079007923603057861e-01
3.119000000000000000e+03 3.972673797607421875e+01 1.879319953918457031e+01 -2.391776740550994873e-01 5.920703411102294922e+00 1.704457640647888184e+00 1.140418529510498047e+00
3.120000000000000000e+03 1.924735832214355469e+01 3.568975067138671875e+01 -2.779369652271270752e-01 2.025485754013061523e+00 5.242646336555480957e-01 6.946162134408950806e-02
3.121000000000000000e+03 1.448322296142578125e+01 -4.926329135894775391e+00 -5.500277876853942871e-02 5.290040493011474609e+00 1.570511341094970703e+00 3.061639070510864258e+00
3.122000000000000000e+03 1.295953178405761719e+01 -6.172737121582031250e+00 -1.782107055187225342e-01 4.104483604431152344e+00 1.177881956100463867e+00 2.383877038955688477e+00
3.123000000000000000e+03 1.500159263610839844e+01 -4.583674430847167969e+00 -4.415573924779891968e-02 5.903953552246093750e+00 1.757939338684082031e+00 3.118216753005981445e+00
3.124000000000000000e+03 1.438538360595703125e+01 -5.740671157836914062e+00 -3.887955248355865479e-01 5.193077087402343750e+00 1.441284418106079102e+00 2.789469957351684570e+00
3.125000000000000000e+03 1.597599411010742188e+01 -5.076582431793212891e+00 -4.828288853168487549e-01 6.607870101928710938e+00 1.837512373924255371e+00 2.491240978240966797e+00
3.126000000000000000e+03 1.268144226074218750e+01 -6.824568748474121094e+00 -3.164071738719940186e-01 4.180200099945068359e+00 1.159137964248657227e+00 2.123063087463378906e+00
3.127000000000000000e+03 4.133348464965820312e+01 2.764524650573730469e+01 -9.455469846725463867e-01 3.914000749588012695e+00 8.905361294746398926e-01 9.706416130065917969e-01
3.128000000000000000e+03 3.653493118286132812e+01 -3.027437591552734375e+01 -6.761912703514099121e-01 5.989253520965576172e+00 1.593918681144714355e+00 1.026832938194274902e+00
3.129000000000000000e+03 1.492323017120361328e+01 3.001081848144531250e+01 -8.967563509941101074e-01 2.824460268020629883e+00 5.783111453056335449e-01 3.363277316093444824e-01
3.130000000000000000e+03 6.305872344970703125e+01 -4.085134887695312500e+01 7.137625217437744141e-01 2.334924936294555664e+00 9.146062135696411133e-01 9.860029071569442749e-02
3.131000000000000000e+03 4.129478836059570312e+01 -3.750395965576171875e+01 -1.754511356353759766e+00 5.827928066253662109e+00 1.222024917602539062e+00 -5.304537340998649597e-02
3.132000000000000000e+03 4.404468536376953125e+01 -3.581037139892578125e+01 -1.537341952323913574e+00 5.906328678131103516e+00 1.310696125030517578e+00 -5.951260328292846680e-01
3.133000000000000000e+03 6.572039794921875000e+01 2.691199493408203125e+01 -8.199070096015930176e-01 6.058964252471923828e+00 1.571717143058776855e+00 -2.900955080986022949e-01
3.134000000000000000e+03 6.664185333251953125e+01 3.098108863830566406e+01 -4.319872558116912842e-01 5.814859390258789062e+00 1.614861607551574707e+00 -3.056040704250335693e-01
3.135000000000000000e+03 1.374901866912841797e+01 -6.445739269256591797e+00 -4.566092789173126221e-01 4.818494796752929688e+00 1.308565616607666016e+00 2.548612356185913086e+00
3.136000000000000000e+03 3.754376602172851562e+01 -3.116471099853515625e+01 -9.439034461975097656e-01 6.173863887786865234e+00 1.568988084793090820e+00 7.850693464279174805e-01
3.137000000000000000e+03 3.745493698120117188e+01 -3.284608840942382812e+01 -1.233760952949523926e+00 5.882845878601074219e+00 1.394725561141967773e+00 8.060997724533081055e-01
3.138000000000000000e+03 4.660742568969726562e+01 2.902622222900390625e+01 -4.240090250968933105e-01 2.738454818725585938e+00 6.943337321281433105e-01 1.167605757713317871e+00
3.139000000000000000e+03 4.008879470825195312e+01 -3.477477645874023438e+01 -1.546507954597473145e+00 6.171975612640380859e+00 1.387640237808227539e+00 2.361610084772109985e-01
3.140000000000000000e+03 4.893339157104492188e+01 2.972408294677734375e+01 -1.792916357517242432e-01 2.354521036148071289e+00 6.525688171386718750e-01 1.014706969261169434e+00
3.141000000000000000e+03 6.153129959106445312e+01 3.532975387573242188e+01 1.526339054107666016e-01 4.156194686889648438e+00 1.292648553848266602e+00 -3.062484562397003174e-01
3.142000000000000000e+03 6.043084335327148438e+01 3.104196929931640625e+01 -4.821556061506271362e-02 3.619988679885864258e+00 1.071531891822814941e+00 -6.049318313598632812e-01
3.143000000000000000e+03 2.547306442260742188e+01 3.277244567871093750e+01 -3.429820835590362549e-01 1.946302890777587891e+00 4.809962511062622070e-01 -3.773218095302581787e-01
3.144000000000000000e+03 2.479989624023437500e+01 3.086059188842773438e+01 -3.334917426109313965e-01 1.632035255432128906e+00 3.895630538463592529e-01 -4.302361011505126953e-01
3.145000000000000000e+03 1.642792892456054688e+01 3.767647552490234375e+01 -3.021588027477264404e-01 2.232632398605346680e+00 5.791420340538024902e-01 5.546297505497932434e-02
3.146000000000000000e+03 6.520378112792968750e+00 3.817734909057617188e+01 -1.850536912679672241e-01 2.575248241424560547e+00 7.170583605766296387e-01 -1.432622969150543213e-01
3.147000000000000000e+03 1.259942150115966797e+01 -4.123193359375000000e+01 -4.917427897453308105e-01 2.196748495101928711e+00 5.115017294883728027e-01 -1.385102164931595325e-03
3.148000000000000000e+03 2.175957489013671875e+01 -4.095315933227539062e+01 -1.553939729928970337e-01 1.144623398780822754e+00 2.967688441276550293e-01 -6.483193486928939819e-02
3.149000000000000000e+03 2.577791023254394531e+01 -3.701129150390625000e+01 -2.657896280288696289e-01 9.696960449218750000e-01 2.111719250679016113e-01 2.522109150886535645e-01
3.150000000000000000e+03 5.727790832519531250e+01 3.550033950805664062e+01 3.445961475372314453e-01 3.020924091339111328e+00 1.009656071662902832e+00 -1.079549640417098999e-01
3.151000000000000000e+03 3.148157310485839844e+01 -3.545896148681640625e+01 -8.089840412139892578e-01 2.657589197158813477e+00 5.545815229415893555e-01 1.135890841484069824e+00
3.152000000000000000e+03 3.115550041198730469e+01 3.376547622680664062e+01 -7.018095850944519043e-01 2.862239122390747070e+00 6.481288671493530273e-01 -3.585090339183807373e-01
3.153000000000000000e+03 6.959585571289062500e+01 -3.691526031494140625e+01 -1.462041288614273071e-01 5.904104709625244141e+00 1.727370142936706543e+00 2.659632861614227295e-01
3.154000000000000000e+03 6.702951812744140625e+01 -3.783396911621093750e+01 1.112680584192276001e-01 4.369943618774414062e+00 1.344363451004028320e+00 4.136160016059875488e-01
3.155000000000000000e+03 6.746764373779296875e+01 -4.096085357666015625e+01 3.353137075901031494e-01 4.551789760589599609e+00 1.466130971908569336e+00 1.300961524248123169e-01
3.156000000000000000e+03 2.818891906738281250e+01 3.132740402221679688e+01 -6.032060980796813965e-01 2.397656202316284180e+00 5.383350253105163574e-01 -6.440298557281494141e-01
3.157000000000000000e+03 4.693604660034179688e+01 3.300709533691406250e+01 -1.872683167457580566e-01 2.713873863220214844e+00 7.579816579818725586e-01 7.933281660079956055e-01
3.158000000000000000e+03 4.308470153808593750e+01 2.952635955810546875e+01 -7.509817481040954590e-01 3.429631233215332031e+00 8.035948872566223145e-01 1.024790525436401367e+00
3.159000000000000000e+03 2.802182197570800781e+01 -4.090893173217773438e+01 -2.988153100013732910e-01 1.670578479766845703e+00 4.115289449691772461e-01 1.763793528079986572e-01
3.160000000000000000e+03 2.287839317321777344e+01 3.685492324829101562e+01 -2.516095936298370361e-01 2.048399209976196289e+00 5.390369296073913574e-01 -7.946742326021194458e-02
3.161000000000000000e+03 3.541210556030273438e+01 -3.476345062255859375e+01 -1.297753810882568359e+00 4.817941665649414062e+00 1.056056380271911621e+00 9.412987828254699707e-01
3.162000000000000000e+03 4.884720993041992188e+01 3.428798675537109375e+01 1.714991405606269836e-02 2.610018253326416016e+00 7.881504297256469727e-01 6.102396249771118164e-01
3.163000000000000000e+03 6.105866432189941406e+00 -3.804000473022460938e+01 -3.026063740253448486e-01 2.617739915847778320e+00 6.945400834083557129e-01 3.049766123294830322e-01
3.164000000000000000e+03 3.701636123657226562e+01 3.109482192993164062e+01 -1.016953229904174805e+00 3.717875242233276367e+00 8.102766275405883789e-01 1.658040583133697510e-01
3.165000000000000000e+03 3.749166488647460938e+01 -3.781818771362304688e+01 -1.578312873840332031e+00 5.065079689025878906e+00 1.046030044555664062e+00 5.026021599769592285e-01
3.166000000000000000e+03 3.466582489013671875e+01 -3.681786727905273438e+01 -1.263099074363708496e+00 4.191690921783447266e+00 8.785775303840637207e-01 7.690553069114685059e-01
3.167000000000000000e+03 4.700700378417968750e+01 -3.743184280395507812e+01 -1.218802332878112793e+00 4.762016296386718750e+00 1.062964200973510742e+00 -1.055432200431823730e+00
3.168000000000000000e+03 3.213463973999023438e+01 -3.799718093872070312e+01 -9.143210649490356445e-01 3.188953876495361328e+00 6.823898553848266602e-01 7.352689504623413086e-01
3.169000000000000000e+03 5.128816604614257812e+01 3.208494186401367188e+01 1.233012452721595764e-01 2.251420974731445312e+00 7.124167084693908691e-01 6.353380084037780762e-01
3.170000000000000000e+03 4.520591354370117188e+01 3.529832077026367188e+01 -2.920079827308654785e-01 2.903263330459594727e+00 7.833766341209411621e-01 5.383015871047973633e-01
3.171000000000000000e+03 4.514196014404296875e+01 3.120453643798828125e+01 -4.743682146072387695e-01 2.999708652496337891e+00 7.576020956039428711e-01 9.393816590309143066e-01
3.172000000000000000e+03 9.471188545227050781e+00 3.612734222412109375e+01 -3.662967085838317871e-01 2.574240446090698242e+00 6.623831391334533691e-01 -1.613709181547164917e-01
3.173000000000000000e+03 7.578329467773437500e+01 -3.727840423583984375e+01 -1.777383089065551758e-01 9.064090728759765625e+00 2.665905714035034180e+00 -1.223113462328910828e-01
3.174000000000000000e+03 5.130541229248046875e+01 2.993454551696777344e+01 4.154755920171737671e-02 2.025163650512695312e+00 6.200133562088012695e-01 7.673279643058776855e-01
3.175000000000000000e+03 2.741831207275390625e+01 3.714413833618164062e+01 -4.022460579872131348e-01 2.339956283569335938e+00 5.813130736351013184e-01 -2.407872378826141357e-01
3.176000000000000000e+03 4.120177841186523438e+01 3.167706871032714844e+01 -7.759443521499633789e-01 3.478168964385986328e+00 8.106673955917358398e-01 6.802318692207336426e-01
3.177000000000000000e+03 3.910137176513671875e+01 3.420119857788085938e+01 -7.344327569007873535e-01 3.322329044342041016e+00 7.763688564300537109e-01 3.123836517333984375e-01
3.178000000000000000e+03 5.357032775878906250e+01 3.213436889648437500e+01 2.468413412570953369e-01 2.246655225753784180e+00 7.480490207672119141e-01 3.123051226139068604e-01
3.179000000000000000e+03 6.550689697265625000e+01 3.358198165893554688e+01 -1.749372482299804688e-01 5.313055515289306641e+00 1.541435480117797852e+00 -3.185255527496337891e-01
3.180000000000000000e+03 1.259565162658691406e+01 3.849257659912109375e+01 -3.008686304092407227e-01 2.407399654388427734e+00 6.319593191146850586e-01 -2.068153209984302521e-02
3.181000000000000000e+03 6.753533935546875000e+01 4.088966751098632812e+01 7.312599569559097290e-02 5.623539924621582031e+00 1.708999752998352051e+00 -3.108279965817928314e-02
3.182000000000000000e+03 6.776279449462890625e+01 3.767477035522460938e+01 -6.461595185101032257e-03 5.721313476562500000e+00 1.714455604553222656e+00 -1.085422188043594360e-01
3.183000000000000000e+03 1.261770820617675781e+01 4.117608642578125000e+01 -2.614979743957519531e-01 2.376314401626586914e+00 6.344449520111083984e-01 -9.226481430232524872e-03
3.184000000000000000e+03 6.446411895751953125e+01 3.682348632812500000e+01 6.165647506713867188e-02 4.882524013519287109e+00 1.483254194259643555e+00 -2.300868630409240723e-01
3.185000000000000000e+03 5.482355499267578125e+01 3.692826461791992188e+01 3.609736561775207520e-01 2.844470024108886719e+00 9.616331458091735840e-01 7.616518437862396240e-02
3.186000000000000000e+03 4.787685394287109375e+01 3.702208709716796875e+01 9.723457507789134979e-03 2.709473371505737305e+00 8.157590627670288086e-01 4.097286164760589600e-01
3.187000000000000000e+03 3.597074127197265625e+01 3.617780303955078125e+01 -7.228193879127502441e-01 3.164194345474243164e+00 7.324124574661254883e-01 2.993229217827320099e-02
3.188000000000000000e+03 5.356107711791992188e+01 3.002697372436523438e+01 1.704584509134292603e-01 1.909259557723999023e+00 6.239153742790222168e-01 3.946363925933837891e-01
3.189000000000000000e+03 5.137221145629882812e+01 3.452465057373046875e+01 1.810440570116043091e-01 2.533279895782470703e+00 8.142971992492675781e-01 4.263896048069000244e-01
3.190000000000000000e+03 5.376675796508789062e+01 3.428659057617187500e+01 2.859462797641754150e-01 2.573972940444946289e+00 8.579757213592529297e-01 2.249146550893783569e-01
3.191000000000000000e+03 4.949608230590820312e+01 2.747266006469726562e+01 -2.870554029941558838e-01 2.046147108078002930e+00 5.277274847030639648e-01 1.185488104820251465e+00
3.192000000000000000e+03 5.906885528564453125e+01 3.336861801147460938e+01 1.978409290313720703e-01 3.353012323379516602e+00 1.065255999565124512e+00 -2.958451807498931885e-01
3.193000000000000000e+03 1.471243000030517578e+01 -1.901228785514831543e+00 2.510741710662841797e+00 4.772959232330322266e+00 2.185110330581665039e+00 4.398375034332275391e+00
3.194000000000000000e+03 1.474202442169189453e+01 -1.586091279983520508e+00 3.011795997619628906e+00 4.408790588378906250e+00 2.226176023483276367e+00 4.447681903839111328e+00
3.195000000000000000e+03 1.679604339599609375e+01 -1.359481215476989746e+00 2.912959814071655273e+00 1.510666751861572266e+01 5.405888080596923828e+00 -9.157303571701049805e-01
3.196000000000000000e+03 1.672913169860839844e+01 -1.770529150962829590e+00 1.576940417289733887e+00 1.362741565704345703e+01 4.561306953430175781e+00 4.418755173683166504e-01
3.197000000000000000e+03 1.746434974670410156e+01 -1.456201314926147461e+00 4.150761127471923828e+00 1.187294864654541016e+01 4.807112693786621094e+00 -2.479490041732788086e+00
3.198000000000000000e+03 1.771386146545410156e+01 -8.268870115280151367e-01 7.480015754699707031e+00 1.084712982177734375e+01 5.498143672943115234e+00 -3.353385686874389648e+00
3.199000000000000000e+03 1.764357948303222656e+01 -1.235813423991203308e-01 1.051446819305419922e+01 1.040839481353759766e+01 6.276859283447265625e+00 -2.200145959854125977e+00
3.200000000000000000e+03 1.805835342407226562e+01 3.914104402065277100e-01 9.195338249206542969e+00 8.348687171936035156e+00 5.263207435607910156e+00 -4.478645324707031250e-01
3.201000000000000000e+03 1.706755828857421875e+01 1.412989497184753418e+00 4.255937576293945312e+00 1.477688312530517578e+01 5.709846019744873047e+00 5.261362791061401367e-01
3.202000000000000000e+03 1.651396369934082031e+01 2.206859588623046875e+00 3.226490914821624756e-01 1.360264301300048828e+01 4.177587509155273438e+00 -2.956085205078125000e+00
3.203000000000000000e+03 1.506545829772949219e+01 1.746959209442138672e+00 2.847152709960937500e+00 7.097258090972900391e+00 2.983323335647583008e+00 -6.479084968566894531e+00
3.204000000000000000e+03 1.426734066009521484e+01 2.059970617294311523e+00 2.166969776153564453e+00 3.844229698181152344e+00 1.803359866142272949e+00 -4.745291709899902344e+00
3.205000000000000000e+03 1.426557445526123047e+01 1.729579448699951172e+00 2.546503782272338867e+00 3.050791263580322266e+00 1.679188489913940430e+00 -4.448473453521728516e+00
3.206000000000000000e+03 1.386785030364990234e+01 1.719687223434448242e+00 1.982943654060363770e+00 2.064696311950683594e+00 1.214292049407958984e+00 -3.431008338928222656e+00
3.207000000000000000e+03 1.370630168914794922e+01 2.111966848373413086e+00 1.576601147651672363e+00 2.509436845779418945e+00 1.225811362266540527e+00 -3.599624872207641602e+00
3.208000000000000000e+03 1.297050380706787109e+01 2.118856191635131836e+00 8.153085112571716309e-01 1.431740880012512207e+00 6.741148233413696289e-01 -2.411550283432006836e+00
3.209000000000000000e+03 1.439936065673828125e+01 -1.388042640686035156e+01 1.275094866752624512e+00 8.757829666137695312e+00 3.009877204895019531e+00 2.019218683242797852e+00
3.210000000000000000e+03 1.403216361999511719e+01 -1.470278167724609375e+01 1.938448309898376465e+00 9.124550819396972656e+00 3.318899631500244141e+00 1.713020563125610352e+00
3.211000000000000000e+03 4.911800384521484375e+01 -6.432376384735107422e+00 -2.400967180728912354e-01 -9.013942629098892212e-02 -9.907083958387374878e-02 2.106309652328491211e+00
3.212000000000000000e+03 1.517718696594238281e+01 2.190152645111083984e+00 1.542032003402709961e+00 8.278870582580566406e+00 2.946270704269409180e+00 -6.156284332275390625e+00
3.213000000000000000e+03 1.642276000976562500e+01 -2.207564115524291992e+00 8.449150323867797852e-01 1.170010662078857422e+01 3.763506412506103516e+00 1.935577392578125000e+00
3.214000000000000000e+03 1.577259063720703125e+01 2.926484823226928711e+00 -3.807278871536254883e-01 1.007214260101318359e+01 2.907424449920654297e+00 -4.684034824371337891e+00
3.215000000000000000e+03 1.504945182800292969e+01 2.415544748306274414e+00 1.215110898017883301e+00 7.750391483306884766e+00 2.689650774002075195e+00 -5.784211635589599609e+00
3.216000000000000000e+03 1.643974494934082031e+01 2.746712684631347656e+00 -4.703464508056640625e-01 1.172455406188964844e+01 3.376262426376342773e+00 -3.346609592437744141e+00
3.217000000000000000e+03 1.536050605773925781e+01 2.744687318801879883e+00 3.413186371326446533e-01 8.884943008422851562e+00 2.767878293991088867e+00 -5.467278957366943359e+00
3.218000000000000000e+03 1.561554431915283203e+01 2.598962545394897461e+00 2.762908339500427246e-01 1.030503368377685547e+01 3.174397230148315430e+00 -5.352633476257324219e+00
3.219000000000000000e+03 1.675806236267089844e+01 2.646057844161987305e+00 -1.521490067243576050e-01 1.217068004608154297e+01 3.605559349060058594e+00 -2.389662981033325195e+00
3.220000000000000000e+03 1.719324684143066406e+01 2.273169279098510742e+00 8.840388059616088867e-01 1.208231830596923828e+01 3.889907121658325195e+00 -1.083906173706054688e+00
3.221000000000000000e+03 1.760835838317871094e+01 1.969384670257568359e+00 2.656054258346557617e+00 1.128767108917236328e+01 4.183117866516113281e+00 2.779155373573303223e-01
3.222000000000000000e+03 1.829132080078125000e+01 8.701310753822326660e-01 7.539428710937500000e+00 7.749032020568847656e+00 4.586538314819335938e+00 3.026727735996246338e-01
3.223000000000000000e+03 1.836403465270996094e+01 7.993842661380767822e-02 8.705462455749511719e+00 7.246152400970458984e+00 4.785484313964843750e+00 -1.333892464637756348e+00
3.224000000000000000e+03 1.863058662414550781e+01 -5.471050739288330078e-02 8.164675712585449219e+00 6.416541576385498047e+00 4.374364852905273438e+00 -1.537212252616882324e+00
3.225000000000000000e+03 1.493650531768798828e+01 -1.936196565628051758e+00 2.342648267745971680e+00 5.758710384368896484e+00 2.430407524108886719e+00 4.580067157745361328e+00
3.226000000000000000e+03 1.422481822967529297e+01 -2.029133081436157227e+00 2.263650417327880859e+00 3.306811809539794922e+00 1.671138644218444824e+00 3.636358737945556641e+00
3.227000000000000000e+03 1.442126941680908203e+01 -2.073637247085571289e+00 2.146965265274047852e+00 3.915613889694213867e+00 1.818773746490478516e+00 3.865281343460083008e+00
3.228000000000000000e+03 1.566137981414794922e+01 -1.990443229675292969e+00 1.498447537422180176e+00 9.842217445373535156e+00 3.402199506759643555e+00 4.255420684814453125e+00
3.229000000000000000e+03 1.302002906799316406e+01 -2.001372575759887695e+00 1.325110197067260742e+00 1.102210760116577148e+00 7.281963229179382324e-01 1.952240586280822754e+00
3.230000000000000000e+03 1.311642551422119141e+01 -2.354689598083496094e+00 1.477608919143676758e+00 1.658308267593383789e+00 9.407751560211181641e-01 2.375572681427001953e+00
3.231000000000000000e+03 1.792479515075683594e+01 -3.928707540035247803e-01 9.089902877807617188e+00 9.338669776916503906e+00 5.528571605682373047e+00 -2.669007301330566406e+00
3.232000000000000000e+03 1.782826423645019531e+01 -6.198335289955139160e-01 8.345547676086425781e+00 1.001079845428466797e+01 5.506903648376464844e+00 -3.136826753616333008e+00
3.233000000000000000e+03 1.814281272888183594e+01 -7.472609281539916992e-01 7.526491165161132812e+00 8.632845878601074219e+00 4.847801208496093750e+00 -2.915250539779663086e+00
3.234000000000000000e+03 1.398945093154907227e+00 -3.174196958541870117e+00 -4.445428773760795593e-02 -3.395550251007080078e-01 -1.152027919888496399e-01 -2.822378575801849365e-01
3.235000000000000000e+03 1.778161239624023438e+01 -1.336099624633789062e+00 5.121518135070800781e+00 1.059992599487304688e+01 4.716433048248291016e+00 -2.900881528854370117e+00
3.236000000000000000e+03 1.746796226501464844e+01 -1.984733939170837402e+00 2.587046146392822266e+00 1.118754005432128906e+01 4.132376194000244141e+00 -1.511052489280700684e+00
3.237000000000000000e+03 1.654535293579101562e+01 -1.939070820808410645e+00 1.343588113784790039e+00 1.308553123474121094e+01 4.328735828399658203e+00 1.177612066268920898e+00
3.238000000000000000e+03 2.517117023468017578e+00 -3.224657297134399414e+00 -1.080034524202346802e-01 -2.219531089067459106e-01 -9.898696839809417725e-02 -4.154398739337921143e-01
3.239000000000000000e+03 3.328905105590820312e+01 -7.589977741241455078e+00 -8.668454289436340332e-01 7.226771354675292969e+00 1.907977819442749023e+00 -2.413450002670288086e+00
3.240000000000000000e+03 4.668058395385742188e+01 -3.131921768188476562e+01 -5.722544193267822266e-01 6.493071556091308594e+00 1.776245117187500000e+00 -2.061517000198364258e+00
3.241000000000000000e+03 4.329241180419921875e+01 -3.158415603637695312e+01 -8.815326690673828125e-01 7.332404613494873047e+00 1.935261607170104980e+00 -6.186034083366394043e-01
3.242000000000000000e+03 4.342632293701171875e+01 -2.502811622619628906e+01 2.335822343826293945e+00 9.814243316650390625e+00 3.645019769668579102e+00 -1.808145999908447266e+00
3.243000000000000000e+03 1.436832237243652344e+01 -1.204762268066406250e+01 9.209142625331878662e-02 7.008154869079589844e+00 2.130073785781860352e+00 1.747773170471191406e+00
3.244000000000000000e+03 2.391223907470703125e+01 -1.281375288963317871e+00 4.919062137603759766e+00 -1.253128290176391602e+00 1.099780201911926270e+00 -3.020434379577636719e-01
3.245000000000000000e+03 6.279254531860351562e+01 2.125085449218750000e+01 -1.460558414459228516e+00 7.095021247863769531e+00 1.690338850021362305e+00 -1.789015233516693115e-01
3.246000000000000000e+03 1.526628017425537109e+01 2.465665578842163086e+00 8.969759345054626465e-01 8.836133003234863281e+00 2.919932603836059570e+00 -5.840954780578613281e+00
3.247000000000000000e+03 1.487400245666503906e+01 2.713540792465209961e+00 8.294063806533813477e-01 7.038760662078857422e+00 2.360450267791748047e+00 -5.458418846130371094e+00
3.248000000000000000e+03 1.252364730834960938e+01 2.848195314407348633e+00 5.400715470314025879e-01 2.029954910278320312e+00 7.710079550743103027e-01 -2.358412265777587891e+00
3.249000000000000000e+03 1.670911598205566406e+01 -2.222373723983764648e+00 1.059165716171264648e+00 1.174669837951660156e+01 3.841759204864501953e+00 7.988302707672119141e-01
3.250000000000000000e+03 5.165731048583984375e+01 -3.323546981811523438e+01 -4.517918825149536133e-01 1.800829291343688965e+00 4.047112166881561279e-01 -1.744483590126037598e+00
3.251000000000000000e+03 4.657038497924804688e+01 -6.882731914520263672e+00 -7.229750752449035645e-01 2.741166353225708008e-01 -1.346575319766998291e-01 8.841769099235534668e-01
3.252000000000000000e+03 6.400650024414062500e+01 8.818662643432617188e+00 9.722537398338317871e-01 8.682355880737304688e+00 2.896382808685302734e+00 9.235426187515258789e-01
3.253000000000000000e+03 1.861001014709472656e+01 7.542098164558410645e-01 7.400921344757080078e+00 6.671806335449218750e+00 4.221818447113037109e+00 4.186866804957389832e-02
3.254000000000000000e+03 1.890908813476562500e+01 -2.606319487094879150e-01 7.481074333190917969e+00 5.696308612823486328e+00 3.953214883804321289e+00 -1.800510644912719727e+00
3.255000000000000000e+03 1.913702583312988281e+01 1.048909664154052734e+00 5.982631683349609375e+00 5.153311252593994141e+00 3.340782880783081055e+00 2.007471174001693726e-01
3.256000000000000000e+03 1.537586021423339844e+01 -2.478713989257812500e+00 1.175834298133850098e+00 7.887665748596191406e+00 2.719050168991088867e+00 4.119434833526611328e+00
3.257000000000000000e+03 1.332812404632568359e+01 2.822182655334472656e+00 9.467658996582031250e-01 3.073760747909545898e+00 1.206157922744750977e+00 -3.462547540664672852e+00
3.258000000000000000e+03 5.361360549926757812e+01 -3.377119064331054688e+01 -3.744044005870819092e-01 7.301684021949768066e-01 1.067292019724845886e-01 -1.335011839866638184e+00
3.259000000000000000e+03 1.691768836975097656e+01 -3.136489868164062500e+00 4.817254245281219482e-01 9.451961517333984375e+00 2.980106115341186523e+00 9.964038133621215820e-01
3.260000000000000000e+03 1.796812438964843750e+01 -1.993886709213256836e+00 3.370659589767456055e+00 9.372097969055175781e+00 3.822827100753784180e+00 -2.141019821166992188e+00
3.261000000000000000e+03 1.835464859008789062e+01 -1.577131152153015137e+00 4.905784130096435547e+00 8.211033821105957031e+00 3.935045480728149414e+00 -2.717518091201782227e+00
3.262000000000000000e+03 1.544938087463378906e+01 3.053517103195190430e+00 -2.739525437355041504e-01 8.975044250488281250e+00 2.610327482223510742e+00 -4.946230888366699219e+00
3.263000000000000000e+03 2.196419715881347656e+00 3.703167724609375000e+01 -3.001422248780727386e-02 2.692028522491455078e+00 7.986042499542236328e-01 -1.046496927738189697e-01
3.264000000000000000e+03 7.762776184082031250e+01 -3.544722366333007812e+01 -1.314513832330703735e-01 9.727056503295898438e+00 2.878681659698486328e+00 -6.438937038183212280e-02
3.265000000000000000e+03 7.791174316406250000e+01 3.369887161254882812e+01 -1.907567679882049561e-02 8.091024398803710938e+00 2.421584606170654297e+00 1.571362093091011047e-02
3.266000000000000000e+03 7.634219360351562500e+01 3.393282318115234375e+01 -7.664611190557479858e-02 7.736241817474365234e+00 2.297878742218017578e+00 9.926781058311462402e-02
3.267000000000000000e+03 3.162959098815917969e+01 2.094400596618652344e+01 -1.138074919581413269e-01 4.984613418579101562e+00 1.461241722106933594e+00 -9.951120018959045410e-01
3.268000000000000000e+03 4.683422851562500000e+01 -7.860006332397460938e+00 1.823190152645111084e-01 8.475986719131469727e-01 3.089753091335296631e-01 1.293674349784851074e+00
3.269000000000000000e+03 2.498665618896484375e+01 2.916262054443359375e+01 -4.227991998195648193e-01 1.506263613700866699e+00 3.250393271446228027e-01 -5.106071829795837402e-01
3.270000000000000000e+03 3.908700466156005859e+00 -4.457914352416992188e+00 -7.037342339754104614e-02 -1.171579882502555847e-01 -5.625942349433898926e-02 -5.468789339065551758e-01
3.271000000000000000e+03 3.438470458984375000e+01 -6.105811595916748047e+00 -1.146802067756652832e+00 8.433468818664550781e+00 2.186000108718872070e+00 -1.869774222373962402e+00
3.272000000000000000e+03 3.925790405273437500e+01 -1.937166213989257812e+01 1.883129000663757324e+00 1.000044155120849609e+01 3.565071344375610352e+00 -1.457855463027954102e+00
3.273000000000000000e+03 4.732662200927734375e+01 -3.510193634033203125e+01 -1.146946072578430176e+00 5.092728137969970703e+00 1.183734536170959473e+00 -1.608182311058044434e+00
3.274000000000000000e+03 6.255594253540039062e+00 -3.588294219970703125e+01 -3.462511003017425537e-01 2.629317045211791992e+00 6.849197745323181152e-01 4.362030923366546631e-01
3.275000000000000000e+03 2.617968177795410156e+01 -3.234383392333984375e+01 -8.989179134368896484e-01 2.173649221658706665e-01 -2.044658958911895752e-01 2.465692013502120972e-01
3.276000000000000000e+03 2.679440879821777344e+01 -3.475051498413085938e+01 -4.328359663486480713e-01 8.087493777275085449e-01 1.127740219235420227e-01 4.328103363513946533e-01
3.277000000000000000e+03 4.300922012329101562e+01 -2.787443733215332031e+01 9.401103258132934570e-01 8.486122131347656250e+00 2.827869892120361328e+00 -9.906022548675537109e-01
3.278000000000000000e+03 8.129097938537597656e+00 -3.502631378173828125e+01 -5.099625587463378906e-01 2.669971704483032227e+00 6.480027437210083008e-01 4.864580035209655762e-01
3.279000000000000000e+03 1.299009037017822266e+01 3.079603910446166992e+00 6.973263025283813477e-01 2.891439437866210938e+00 1.076629757881164551e+00 -3.057079315185546875e+00
3.280000000000000000e+03 1.421775627136230469e+01 2.398761510848999023e+00 1.564706563949584961e+00 4.413619518280029297e+00 1.793497800827026367e+00 -4.795154094696044922e+00
3.281000000000000000e+03 4.012999534606933594e+00 3.624662876129150391e+00 -2.534294426441192627e-01 -1.616135537624359131e-01 -1.245129033923149109e-01 8.371606469154357910e-01
3.282000000000000000e+03 5.868429565429687500e+01 -1.159831047058105469e+01 -1.621511220932006836e+00 7.348793148994445801e-01 -2.659895718097686768e-01 3.060232996940612793e-01
3.283000000000000000e+03 1.714859962463378906e+01 -2.648800134658813477e+00 1.043141841888427734e+00 1.039587020874023438e+01 3.431703805923461914e+00 1.585338711738586426e-01
3.284000000000000000e+03 1.793735694885253906e+01 1.480448961257934570e+00 5.029778003692626953e+00 9.675825119018554688e+00 4.411681175231933594e+00 7.936360836029052734e-01
3.285000000000000000e+03 1.723949813842773438e+01 -3.026397228240966797e+00 7.541756033897399902e-01 9.490524291992187500e+00 3.073410034179687500e+00 3.497495949268341064e-01
3.286000000000000000e+03 6.408090972900390625e+01 -3.485639190673828125e+01 -1.329687088727951050e-01 2.743585109710693359e+00 7.831848859786987305e-01 6.853272914886474609e-01
3.287000000000000000e+03 1.404708385467529297e+01 2.685914993286132812e+00 1.216138005256652832e+00 4.434115409851074219e+00 1.695076107978820801e+00 -4.536491394042968750e+00
3.288000000000000000e+03 1.375141239166259766e+01 3.500152111053466797e+00 4.485079050064086914e-01 4.599863529205322266e+00 1.514511466026306152e+00 -4.007405757904052734e+00
3.289000000000000000e+03 2.624196815490722656e+01 -2.888338565826416016e+00 4.154536247253417969e+00 -8.042190074920654297e-01 1.005095243453979492e+00 2.275862246751785278e-01
3.290000000000000000e+03 1.886344146728515625e+01 -1.807353258132934570e+00 4.660139560699462891e+00 6.662681579589843750e+00 3.396846294403076172e+00 -2.537162303924560547e+00
3.291000000000000000e+03 1.915701866149902344e+01 7.128272950649261475e-02 7.150639533996582031e+00 4.836707115173339844e+00 3.596204042434692383e+00 -1.188575029373168945e+00
3.292000000000000000e+03 1.599291324615478516e+01 3.772299289703369141e+00 -1.228836059570312500e+00 9.400574684143066406e+00 2.451521635055541992e+00 -3.879358053207397461e+00
3.293000000000000000e+03 1.459567260742187500e+01 3.380435705184936523e+00 1.713778823614120483e-01 6.455019474029541016e+00 1.987919211387634277e+00 -4.735434532165527344e+00
3.294000000000000000e+03 1.424368000030517578e+01 3.345657825469970703e+00 4.069062173366546631e-01 5.612761020660400391e+00 1.805900216102600098e+00 -4.586834907531738281e+00
3.295000000000000000e+03 1.813433456420898438e+01 -2.513794422149658203e+00 2.490943908691406250e+00 8.410582542419433594e+00 3.270457983016967773e+00 -1.591838836669921875e+00
3.296000000000000000e+03 1.271696186065673828e+01 3.797015190124511719e+00 3.720025420188903809e-01 3.338062763214111328e+00 1.113019585609436035e+00 -2.793213367462158203e+00
3.297000000000000000e+03 1.526062488555908203e+01 -3.221958160400390625e+00 6.397348046302795410e-01 6.947831630706787109e+00 2.276269912719726562e+00 3.650779485702514648e+00
3.298000000000000000e+03 1.560247898101806641e+01 -2.916790246963500977e+00 6.935809254646301270e-01 8.427259445190429688e+00 2.736252069473266602e+00 3.547879695892333984e+00
3.299000000000000000e+03 2.633459091186523438e+01 3.103182029724121094e+01 -4.822199046611785889e-01 2.052171707153320312e+00 4.709855318069458008e-01 -5.739976167678833008e-01
3.300000000000000000e+03 2.196671104431152344e+01 -2.322072982788085938e+00 4.603206634521484375e+00 5.975804328918457031e-01 1.560236096382141113e+00 -1.193808674812316895e+00
3.301000000000000000e+03 1.644735527038574219e+01 -4.001470565795898438e+00 -1.400988996028900146e-01 7.924607753753662109e+00 2.335352659225463867e+00 2.048000335693359375e+00
3.302000000000000000e+03 1.715239906311035156e+01 -3.594670772552490234e+00 3.041219413280487061e-01 8.463881492614746094e+00 2.630401134490966797e+00 9.203999638557434082e-01
3.303000000000000000e+03 1.781291198730468750e+01 -6.707907199859619141e+00 -6.212464570999145508e-01 5.154055118560791016e+00 1.359842658042907715e+00 1.549785256385803223e+00
3.304000000000000000e+03 3.955078887939453125e+01 -1.603969573974609375e+01 1.956979870796203613e+00 9.407320976257324219e+00 3.409290075302124023e+00 -1.855946898460388184e+00
3.305000000000000000e+03 3.196006393432617188e+01 -5.010647773742675781e+00 4.433244764804840088e-01 5.248773574829101562e+00 1.707629323005676270e+00 -1.329468250274658203e+00
3.306000000000000000e+03 5.159283447265625000e+01 -1.098259067535400391e+01 4.763938188552856445e-01 9.637774229049682617e-01 4.320513606071472168e-01 2.275160789489746094e+00
3.307000000000000000e+03 3.987329483032226562e+01 -1.254372310638427734e+01 1.315447092056274414e+00 8.286119461059570312e+00 2.880469799041748047e+00 -1.447870254516601562e+00
3.308000000000000000e+03 7.322415161132812500e+01 -2.051328849792480469e+01 1.312638998031616211e+00 9.524522781372070312e+00 3.251148462295532227e+00 -9.177587032318115234e-01
3.309000000000000000e+03 7.262257385253906250e+01 -1.959663009643554688e+01 1.720575928688049316e+00 1.024276828765869141e+01 3.589003086090087891e+00 -6.694893240928649902e-01
3.310000000000000000e+03 2.727208328247070312e+01 2.624028015136718750e+01 -8.266253471374511719e-01 1.904740333557128906e+00 3.234345018863677979e-01 -1.094336986541748047e+00
3.311000000000000000e+03 6.270337295532226562e+01 -6.000907421112060547e-01 9.387331604957580566e-01 4.636904716491699219e+00 1.672691345214843750e+00 5.820387005805969238e-01
3.312000000000000000e+03 1.563867568969726562e+01 -9.254815101623535156e+00 -1.223564624786376953e+00 5.605049610137939453e+00 1.314445495605468750e+00 2.309672355651855469e+00
3.313000000000000000e+03 4.059455108642578125e+01 -1.027312946319580078e+01 1.380358487367630005e-01 7.148409843444824219e+00 2.185933589935302734e+00 -1.259120821952819824e+00
3.314000000000000000e+03 3.649586105346679688e+01 1.304262638092041016e+01 7.075875401496887207e-01 9.310461997985839844e+00 3.005414962768554688e+00 -2.673208713531494141e-01
3.315000000000000000e+03 1.746068572998046875e+01 -2.833494186401367188e+00 1.214217424392700195e+00 9.618324279785156250e+00 3.249762535095214844e+00 -3.828374147415161133e-01
3.316000000000000000e+03 1.824421691894531250e+01 1.448842644691467285e+00 5.333239555358886719e+00 8.338148117065429688e+00 4.101416110992431641e+00 8.150873184204101562e-01
3.317000000000000000e+03 3.791336059570312500e+01 9.263397216796875000e+00 1.935798883438110352e+00 1.280270290374755859e+01 4.421550273895263672e+00 1.624420285224914551e+00
3.318000000000000000e+03 2.405735397338867188e+01 -3.289684295654296875e+00 4.044807910919189453e+00 -5.755525827407836914e-01 1.040776610374450684e+00 -2.805264890193939209e-01
3.319000000000000000e+03 1.490125942230224609e+01 -3.503276348114013672e+00 6.458057165145874023e-01 6.094395637512207031e+00 2.022060394287109375e+00 3.649972438812255859e+00
3.320000000000000000e+03 1.966913032531738281e+01 -1.560767650604248047e+00 5.318646907806396484e+00 4.328416347503662109e+00 2.894118785858154297e+00 -2.224333524703979492e+00
3.321000000000000000e+03 3.528553771972656250e+01 -3.095966148376464844e+01 -9.139675498008728027e-01 5.252274513244628906e+00 1.301492214202880859e+00 1.194226503372192383e+00
3.322000000000000000e+03 5.326641464233398438e+01 2.818737030029296875e+01 4.057205468416213989e-02 1.555209517478942871e+00 4.787344932556152344e-01 5.344337821006774902e-01
3.323000000000000000e+03 4.724411392211914062e+01 -8.901466369628906250e+00 4.689003825187683105e-01 1.306224226951599121e+00 5.325374007225036621e-01 1.590405225753784180e+00
3.324000000000000000e+03 1.460905075073242188e+01 -3.536108255386352539e+00 7.130610346794128418e-01 5.484952449798583984e+00 1.859403967857360840e+00 3.612149000167846680e+00
3.325000000000000000e+03 1.706176185607910156e+01 3.144188880920410156e+00 -7.415995597839355469e-01 1.047800731658935547e+01 2.920922279357910156e+00 -2.043099641799926758e+00
3.326000000000000000e+03 1.720765304565429688e+01 3.719456195831298828e+00 -1.304062485694885254e+00 9.450942993164062500e+00 2.444064140319824219e+00 -2.044135570526123047e+00
3.327000000000000000e+03 4.200497817993164062e+01 -1.160340785980224609e+01 7.022544741630554199e-01 6.398064613342285156e+00 2.130095720291137695e+00 -7.678480148315429688e-01
3.328000000000000000e+03 6.895973968505859375e+01 2.374032974243164062e+01 -5.305630564689636230e-01 7.118175983428955078e+00 1.976283907890319824e+00 4.496296346187591553e-01
3.329000000000000000e+03 1.563546657562255859e+01 4.663423538208007812e+00 -1.537112116813659668e+00 8.183830261230468750e+00 1.994015336036682129e+00 -3.633684158325195312e+00
3.330000000000000000e+03 1.704246330261230469e+01 -4.191976070404052734e+00 -8.549816906452178955e-02 7.721574783325195312e+00 2.290822982788085938e+00 1.397224426269531250e+00
3.331000000000000000e+03 1.861917304992675781e+01 -2.458379745483398438e+00 2.979938507080078125e+00 7.313253879547119141e+00 3.087957620620727539e+00 -1.848435997962951660e+00
3.332000000000000000e+03 5.614889907836914062e+01 -9.938994407653808594e+00 -3.060581386089324951e-01 1.165685296058654785e+00 2.578881680965423584e-01 1.314303159713745117e+00
3.333000000000000000e+03 3.261381912231445312e+01 2.588910675048828125e+01 -1.186114549636840820e+00 4.054465293884277344e+00 8.605052232742309570e-01 -5.825278759002685547e-01
3.334000000000000000e+03 7.248202800750732422e+00 -1.830428314208984375e+01 1.035831689834594727e+00 2.421611547470092773e+00 1.037232995033264160e+00 8.356398344039916992e-01
3.335000000000000000e+03 1.757297897338867188e+01 2.983521652221679688e+01 -6.295861601829528809e-01 2.096645116806030273e+00 4.401177167892456055e-01 4.776670634746551514e-01
3.336000000000000000e+03 1.884960174560546875e+01 2.447377920150756836e+00 2.304683208465576172e+00 6.303473949432373047e+00 2.582447052001953125e+00 3.927637934684753418e-01
3.337000000000000000e+03 1.975242996215820312e+01 2.134187936782836914e+00 3.108086585998535156e+00 3.659301042556762695e+00 2.030216217041015625e+00 4.013563990592956543e-01
3.338000000000000000e+03 1.525345706939697266e+01 -4.020273208618164062e+00 1.013739556074142456e-01 6.519832134246826172e+00 1.986361861228942871e+00 3.176524639129638672e+00
3.339000000000000000e+03 1.873504638671875000e+01 2.099088907241821289e+00 3.177364826202392578e+00 6.646605014801025391e+00 2.947190999984741211e+00 5.224291682243347168e-01
3.340000000000000000e+03 1.847574615478515625e+01 2.338540792465209961e+00 2.423535108566284180e+00 7.546302795410156250e+00 2.990951299667358398e+00 4.162521958351135254e-01
3.341000000000000000e+03 1.487722110748291016e+01 -9.318571090698242188e+00 -1.165761232376098633e+00 5.799678325653076172e+00 1.390175104141235352e+00 2.259499788284301758e+00
3.342000000000000000e+03 4.257205200195312500e+01 -9.584012031555175781e+00 6.929807364940643311e-02 5.054425716400146484e+00 1.537117123603820801e+00 -8.144096136093139648e-01
3.343000000000000000e+03 1.777249908447265625e+01 -5.696429252624511719e+00 -3.217719793319702148e-01 5.832027912139892578e+00 1.653076767921447754e+00 1.216835975646972656e+00
3.344000000000000000e+03 4.095542430877685547e+00 5.196929454803466797e+00 2.915550395846366882e-02 -2.103889882564544678e-01 -5.437004566192626953e-02 8.620471954345703125e-01
3.345000000000000000e+03 2.977781534194946289e+00 4.995082378387451172e+00 -4.825376719236373901e-02 -6.125528216361999512e-01 -1.982419639825820923e-01 7.844198346138000488e-01
3.346000000000000000e+03 2.111972045898437500e+01 -1.101992964744567871e+00 5.355966091156005859e+00 1.281053781509399414e+00 1.991105914115905762e+00 -1.482487678527832031e+00
3.347000000000000000e+03 7.336834716796875000e+01 -3.123174667358398438e+01 -6.592087745666503906e-01 8.292371749877929688e+00 2.289948701858520508e+00 -3.856475651264190674e-01
3.348000000000000000e+03 1.708693504333496094e+01 4.272216796875000000e+00 -1.742936491966247559e+00 8.714437484741210938e+00 2.091450452804565430e+00 -2.235409259796142578e+00
3.349000000000000000e+03 1.567208862304687500e+01 -6.273124217987060547e+00 -7.896842956542968750e-01 5.875675201416015625e+00 1.525797247886657715e+00 2.531778812408447266e+00
3.350000000000000000e+03 2.040634918212890625e+01 -2.192977190017700195e+00 4.481239795684814453e+00 2.980041980743408203e+00 2.238384485244750977e+00 -1.841510891914367676e+00
3.351000000000000000e+03 2.029384422302246094e+01 -1.515981912612915039e+00 5.194149017333984375e+00 3.027026414871215820e+00 2.466352701187133789e+00 -1.907460331916809082e+00
3.352000000000000000e+03 4.397470474243164062e+01 2.009050941467285156e+01 -1.118279621005058289e-01 3.730309486389160156e+00 1.085544466972351074e+00 1.703527092933654785e+00
3.353000000000000000e+03 7.318259429931640625e+01 -2.977939605712890625e+01 -7.765676379203796387e-01 8.434883117675781250e+00 2.297494649887084961e+00 -5.659422278404235840e-01
3.354000000000000000e+03 5.687458992004394531e+00 1.440158367156982422e+01 8.830301165580749512e-01 1.270999431610107422e+00 6.462088227272033691e-01 -5.350142717361450195e-01
3.355000000000000000e+03 7.366745948791503906e+00 -2.814132499694824219e+01 -4.697948694229125977e-01 2.833340883255004883e+00 7.090638279914855957e-01 1.219372987747192383e+00
3.356000000000000000e+03 8.837069511413574219e+00 -2.841767311096191406e+01 -6.537765860557556152e-01 3.195239782333374023e+00 7.624389529228210449e-01 1.125918269157409668e+00
3.357000000000000000e+03 5.103182792663574219e+00 6.110340118408203125e+00 1.672118008136749268e-01 1.380473375320434570e-01 9.157773852348327637e-02 8.104329109191894531e-01
3.358000000000000000e+03 1.477025318145751953e+01 -3.765518903732299805e+00 4.839745759963989258e-01 5.791138172149658203e+00 1.882533788681030273e+00 3.529812097549438477e+00
3.359000000000000000e+03 7.370044708251953125e+01 -2.681493568420410156e+01 -5.468406677246093750e-01 8.927098274230957031e+00 2.514077186584472656e+00 -1.109131336212158203e+00
3.360000000000000000e+03 8.342082977294921875e+00 1.021455669403076172e+01 1.036149501800537109e+00 2.625614643096923828e+00 1.098529219627380371e+00 -8.250370621681213379e-02
3.361000000000000000e+03 6.832775878906250000e+01 -5.647879123687744141e+00 -6.740050315856933594e-01 6.218274593353271484e+00 1.663280844688415527e+00 -1.502172708511352539e+00
3.362000000000000000e+03 1.003090763092041016e+01 6.382314205169677734e+00 3.437608778476715088e-01 2.853722572326660156e+00 9.592450857162475586e-01 -5.856031775474548340e-01
3.363000000000000000e+03 9.301733016967773438e+00 1.009430885314941406e+01 1.111114501953125000e+00 3.523384809494018555e+00 1.390349745750427246e+00 -2.682579755783081055e-01
3.364000000000000000e+03 8.526549339294433594e+00 -9.047027587890625000e+00 1.070459857583045959e-01 2.461559534072875977e+00 7.705816626548767090e-01 1.507584005594253540e-01
3.365000000000000000e+03 7.355463504791259766e+00 2.725218582153320312e+01 -7.135702967643737793e-01 2.976876020431518555e+00 6.789917349815368652e-01 -1.005837082862854004e+00
3.366000000000000000e+03 7.264353179931640625e+01 2.375605964660644531e+01 -2.275576591491699219e-01 7.185541629791259766e+00 2.087395191192626953e+00 5.916785001754760742e-01
3.367000000000000000e+03 1.959266853332519531e+01 -4.267002105712890625e+00 1.665370345115661621e+00 4.664175987243652344e+00 1.898863911628723145e+00 -8.442535400390625000e-01
3.368000000000000000e+03 1.472360038757324219e+01 -6.022263050079345703e+00 -5.703210830688476562e-01 5.522189140319824219e+00 1.485560417175292969e+00 2.779133319854736328e+00
3.369000000000000000e+03 1.022265529632568359e+01 5.755885124206542969e+00 2.627962231636047363e-01 2.694973230361938477e+00 8.873308300971984863e-01 -7.942399978637695312e-01
3.370000000000000000e+03 6.530790805816650391e+00 7.487749099731445312e+00 4.687239527702331543e-01 9.718728065490722656e-01 4.321790337562561035e-01 4.961716830730438232e-01
3.371000000000000000e+03 6.448318004608154297e+00 9.909708976745605469e+00 7.225864529609680176e-01 1.269719958305358887e+00 5.976918935775756836e-01 2.905036509037017822e-01
3.372000000000000000e+03 4.382702636718750000e+01 2.128361892700195312e+01 -4.258716702461242676e-01 3.855194568634033203e+00 1.028796792030334473e+00 1.631213545799255371e+00
3.373000000000000000e+03 7.013154602050781250e+01 -1.385447502136230469e+00 -1.174103915691375732e-01 6.673977375030517578e+00 1.966970086097717285e+00 -9.192456603050231934e-01
3.374000000000000000e+03 7.299607849121093750e+01 1.445103740692138672e+01 4.296779930591583252e-01 6.942004680633544922e+00 2.211504697799682617e+00 3.378870785236358643e-01
3.375000000000000000e+03 7.065377044677734375e+01 1.247369647026062012e+00 1.491625010967254639e-01 6.736518383026123047e+00 2.065704345703125000e+00 -7.885180115699768066e-01
3.376000000000000000e+03 7.301929473876953125e+01 1.565657329559326172e+01 3.840476870536804199e-01 6.967172622680664062e+00 2.205366134643554688e+00 4.464616179466247559e-01
3.377000000000000000e+03 7.581171989440917969e+00 -9.463840484619140625e+00 1.623001396656036377e-01 1.931594491004943848e+00 6.281684041023254395e-01 -9.058500081300735474e-02
3.378000000000000000e+03 1.589941883087158203e+01 1.104699745774269104e-01 2.729492950439453125e+01 6.013208866119384766e+00 9.992441177368164062e+00 1.088765525817871094e+01
3.379000000000000000e+03 1.590403270721435547e+01 9.155639261007308960e-02 2.442496109008789062e+01 1.704372978210449219e+01 1.244060707092285156e+01 1.973172760009765625e+01
3.380000000000000000e+03 1.591224098205566406e+01 7.390291988849639893e-02 2.241363334655761719e+01 2.738314628601074219e+01 1.493903350830078125e+01 2.242501449584960938e+01
3.381000000000000000e+03 1.592372798919677734e+01 5.818508937954902649e-02 1.936213493347167969e+01 3.801043701171875000e+01 1.721177101135253906e+01 2.276212310791015625e+01
3.382000000000000000e+03 1.593805503845214844e+01 4.500439390540122986e-02 1.682124900817871094e+01 4.755309295654296875e+01 1.931230354309082031e+01 2.064930915832519531e+01
3.383000000000000000e+03 1.595467472076416016e+01 3.486521169543266296e-02 1.458641529083251953e+01 5.561947250366210938e+01 2.106176567077636719e+01 1.647955131530761719e+01
3.384000000000000000e+03 1.597294998168945312e+01 2.815554477274417877e-02 1.381429100036621094e+01 6.137967300415039062e+01 2.255818939208984375e+01 1.085029983520507812e+01
3.385000000000000000e+03 1.599218273162841797e+01 2.513215318322181702e-02 1.444166374206542969e+01 6.435404968261718750e+01 2.363871383666992188e+01 4.447412967681884766e+00
3.386000000000000000e+03 1.601163482666015625e+01 2.591073140501976013e-02 1.697731781005859375e+01 6.459413146972656250e+01 2.447143554687500000e+01 -1.715452671051025391e+00
3.387000000000000000e+03 1.603056335449218750e+01 3.046148829162120819e-02 2.092188453674316406e+01 6.232830047607421875e+01 2.497505569458007812e+01 -6.908607959747314453e+00
3.388000000000000000e+03 1.604824447631835938e+01 3.861027583479881287e-02 2.574806022644042969e+01 5.832534027099609375e+01 2.522202110290527344e+01 -1.040435981750488281e+01
3.389000000000000000e+03 1.606400108337402344e+01 5.004526674747467041e-02 3.099713897705078125e+01 5.349553298950195312e+01 2.534780120849609375e+01 -1.193061161041259766e+01
3.390000000000000000e+03 1.607722854614257812e+01 6.432887166738510132e-02 3.568000411987304688e+01 4.857191085815429688e+01 2.527557563781738281e+01 -1.159558296203613281e+01
3.391000000000000000e+03 1.608742332458496094e+01 8.091450482606887817e-02 3.957625579833984375e+01 4.449592208862304688e+01 2.522165489196777344e+01 -9.611522674560546875e+00
3.392000000000000000e+03 1.609419441223144531e+01 9.916747361421585083e-02 4.211263275146484375e+01 4.156575393676757812e+01 2.510351562500000000e+01 -6.552654266357421875e+00
3.393000000000000000e+03 1.609728050231933594e+01 1.183892935514450073e-01 4.330772018432617188e+01 4.025945663452148438e+01 2.507015228271484375e+01 -2.833798408508300781e+00
3.394000000000000000e+03 1.609656715393066406e+01 1.378443837165832520e-01 4.303002929687500000e+01 4.053434753417968750e+01 2.506931304931640625e+01 9.628558158874511719e-01
3.395000000000000000e+03 1.609208106994628906e+01 1.567882746458053589e-01 4.135709762573242188e+01 4.241025543212890625e+01 2.513020515441894531e+01 4.414321899414062500e+00
3.396000000000000000e+03 1.608399009704589844e+01 1.744960248470306396e-01 3.848808288574218750e+01 4.574422836303710938e+01 2.526969337463378906e+01 6.983594417572021484e+00
3.397000000000000000e+03 1.607260704040527344e+01 1.902900189161300659e-01 3.450183105468750000e+01 5.006010437011718750e+01 2.536857986450195312e+01 8.307034492492675781e+00
3.398000000000000000e+03 1.605836868286132812e+01 2.035658657550811768e-01 3.005886077880859375e+01 5.492688369750976562e+01 2.549572372436523438e+01 7.910317897796630859e+00
3.399000000000000000e+03 1.604181671142578125e+01 2.138155400753021240e-01 2.539282226562500000e+01 5.948949050903320312e+01 2.546469497680664062e+01 5.664997100830078125e+00
3.400000000000000000e+03 1.602358627319335938e+01 2.206468135118484497e-01 2.152234458923339844e+01 6.301609420776367188e+01 2.536153221130371094e+01 1.590241432189941406e+00
3.401000000000000000e+03 1.600437545776367188e+01 2.237982749938964844e-01 1.866319274902343750e+01 6.457102966308593750e+01 2.497026824951171875e+01 -3.941198825836181641e+00
3.402000000000000000e+03 1.598491764068603516e+01 2.231493294239044189e-01 1.762172698974609375e+01 6.366178131103515625e+01 2.438505172729492188e+01 -1.014341831207275391e+01
3.403000000000000000e+03 1.596595859527587891e+01 2.187248170375823975e-01 1.836078262329101562e+01 5.991421890258789062e+01 2.348250007629394531e+01 -1.632155036926269531e+01
3.404000000000000000e+03 1.594822406768798828e+01 2.106940299272537231e-01 2.061112976074218750e+01 5.356846237182617188e+01 2.225387763977050781e+01 -2.138561820983886719e+01
3.405000000000000000e+03 1.593239212036132812e+01 1.993643045425415039e-01 2.406960678100585938e+01 4.496929168701171875e+01 2.071166992187500000e+01 -2.472468376159667969e+01
3.406000000000000000e+03 1.591906929016113281e+01 1.851691752672195435e-01 2.772052574157714844e+01 3.518995666503906250e+01 1.887314414978027344e+01 -2.573975372314453125e+01
3.407000000000000000e+03 1.590876388549804688e+01 1.686518639326095581e-01 3.137744331359863281e+01 2.445921897888183594e+01 1.675099945068359375e+01 -2.408252716064453125e+01
3.408000000000000000e+03 1.590187263488769531e+01 1.504444330930709839e-01 3.354840087890625000e+01 1.447156143188476562e+01 1.440598869323730469e+01 -1.998974800109863281e+01
3.409000000000000000e+03 1.589865684509277344e+01 1.312436312437057495e-01 3.528391647338867188e+01 4.554928779602050781e+00 1.195165348052978516e+01 -9.641514778137207031e+00
