# el_label, x, y, sXX, sYY, sZZ, sXY
1.000000000000000000e+00 3.832144927978515625e+01 1.067005991935729980e+00 -3.418454408645629883e+00 -3.632328033447265625e+00 -2.115234613418579102e+00 -2.669358253479003906e+00
2.000000000000000000e+00 3.850940322875976562e+01 1.132515430450439453e+00 -1.163814544677734375e+00 1.185231804847717285e+00 6.425176747143268585e-03 1.765917837619781494e-01
3.000000000000000000e+00 3.869735717773437500e+01 1.198024988174438477e+00 -1.912914872169494629e+00 -5.398778915405273438e-01 -7.358378171920776367e-01 -4.233383536338806152e-01
4.000000000000000000e+00 3.888531112670898438e+01 1.263534545898437500e+00 -1.888119935989379883e+00 1.790937483310699463e-01 -5.127078294754028320e-01 -5.461414456367492676e-01
5.000000000000000000e+00 3.829695510864257812e+01 1.119958996772766113e+00 7.798678874969482422e+00 -6.037168502807617188e-01 2.158488512039184570e+00 4.362847328186035156e+00
6.000000000000000000e+00 3.846857833862304688e+01 1.220770478248596191e+00 1.947272300720214844e+00 1.078566551208496094e+00 9.077516198158264160e-01 1.635391831398010254e+00
7.000000000000000000e+00 3.864020538330078125e+01 1.321581959724426270e+00 1.726543903350830078e+00 1.759828448295593262e+00 1.045911669731140137e+00 1.980397105216979980e+00
8.000000000000000000e+00 3.881182861328125000e+01 1.422393441200256348e+00 1.224723339080810547e+00 8.076651096343994141e-01 6.097165346145629883e-01 1.096092462539672852e+00
9.000000000000000000e+00 3.826263046264648438e+01 1.167137503623962402e+00 9.289653778076171875e+00 7.044740676879882812e+00 4.900318145751953125e+00 1.016557216644287109e+01
1.000000000000000000e+01 3.841137313842773438e+01 1.299401402473449707e+00 5.488951206207275391e+00 4.187177181243896484e+00 2.902838468551635742e+00 5.653288364410400391e+00
1.100000000000000000e+01 3.856011962890625000e+01 1.431665301322937012e+00 3.344810962677001953e+00 3.802527189254760742e+00 2.144201517105102539e+00 3.899248600006103516e+00
1.200000000000000000e+01 3.870886230468750000e+01 1.563929200172424316e+00 2.839949846267700195e+00 3.625950336456298828e+00 1.939770102500915527e+00 3.257901191711425781e+00
1.300000000000000000e+01 3.821978759765625000e+01 1.206740140914916992e+00 8.720061302185058594e+00 1.559182739257812500e+01 7.293566703796386719e+00 1.332173252105712891e+01
1.400000000000000000e+01 3.833996963500976562e+01 1.365405917167663574e+00 5.198638916015625000e+00 9.837496757507324219e+00 4.510840892791748047e+00 8.459353446960449219e+00
1.500000000000000000e+01 3.846015167236328125e+01 1.524071574211120605e+00 4.157118320465087891e+00 7.828737735748291016e+00 3.595756769180297852e+00 6.217661857604980469e+00
1.600000000000000000e+01 3.858032989501953125e+01 1.682737231254577637e+00 2.864624977111816406e+00 6.697859764099121094e+00 2.868745326995849609e+00 4.925378799438476562e+00
1.700000000000000000e+01 3.817006301879882812e+01 1.237254619598388672e+00 5.841168403625488281e+00 2.447326469421386719e+01 9.094329833984375000e+00 1.370805740356445312e+01
1.800000000000000000e+01 3.825709152221679688e+01 1.416263341903686523e+00 4.285475254058837891e+00 1.625652313232421875e+01 6.162600040435791016e+00 9.559725761413574219e+00
1.900000000000000000e+01 3.834412002563476562e+01 1.595271944999694824e+00 2.931968212127685547e+00 1.296141433715820312e+01 4.768014907836914062e+00 7.285697460174560547e+00
2.000000000000000000e+01 3.843114852905273438e+01 1.774280667304992676e+00 2.302904844284057617e+00 1.106593608856201172e+01 4.010652065277099609e+00 5.903555393218994141e+00
2.100000000000000000e+01 3.811534881591796875e+01 1.257515668869018555e+00 3.597004890441894531e+00 3.218146514892578125e+01 1.073354148864746094e+01 1.180200767517089844e+01
2.200000000000000000e+01 3.816590499877929688e+01 1.450031638145446777e+00 2.329680919647216797e+00 2.272929954528808594e+01 7.517693996429443359e+00 8.603699684143066406e+00
2.300000000000000000e+01 3.821645736694335938e+01 1.642547726631164551e+00 1.791075229644775391e+00 1.819509124755859375e+01 5.995850086212158203e+00 6.999182701110839844e+00
2.400000000000000000e+01 3.826701354980468750e+01 1.835063695907592773e+00 8.002929687500000000e-01 1.584433078765869141e+01 4.993387222290039062e+00 5.713627815246582031e+00
2.500000000000000000e+01 3.805774307250976562e+01 1.266749620437622070e+00 2.245922803878784180e+00 3.831736755371093750e+01 1.216898727416992188e+01 7.550107955932617188e+00
2.600000000000000000e+01 3.806988906860351562e+01 1.465421557426452637e+00 1.041566610336303711e+00 2.791147994995117188e+01 8.685914039611816406e+00 6.553330898284912109e+00
2.700000000000000000e+01 3.808203887939453125e+01 1.664093494415283203e+00 5.383465290069580078e-01 2.322340965270996094e+01 7.128526687622070312e+00 4.949803829193115234e+00
2.800000000000000000e+01 3.809418869018554688e+01 1.862765431404113770e+00 1.004609018564224243e-01 2.000489425659179688e+01 6.031606674194335938e+00 4.564438343048095703e+00
2.900000000000000000e+01 3.799943923950195312e+01 1.264603853225708008e+00 2.247844219207763672e+00 4.194316482543945312e+01 1.325730323791503906e+01 2.782042741775512695e+00
3.000000000000000000e+01 3.797271728515625000e+01 1.461845278739929199e+00 1.194056153297424316e+00 3.161256790161132812e+01 9.841986656188964844e+00 2.973639726638793945e+00
3.100000000000000000e+01 3.794599533081054688e+01 1.659086704254150391e+00 -2.980872988700866699e-01 2.684648323059082031e+01 7.964518547058105469e+00 2.706397533416748047e+00
3.200000000000000000e+01 3.791927719116210938e+01 1.856328010559082031e+00 1.133002787828445435e-01 2.389852714538574219e+01 7.203547954559326172e+00 1.790199756622314453e+00
3.300000000000000000e+01 3.794266510009765625e+01 1.251160264015197754e+00 4.478744029998779297e+00 4.312510681152343750e+01 1.428115558624267578e+01 -2.186556339263916016e+00
3.400000000000000000e+01 3.787809371948242188e+01 1.439439296722412109e+00 2.130685329437255859e+00 3.368199157714843750e+01 1.074380397796630859e+01 -6.655206084251403809e-01
3.500000000000000000e+01 3.781352615356445312e+01 1.627718329429626465e+00 8.491275310516357422e-01 2.865630722045898438e+01 8.851630210876464844e+00 -3.023419678211212158e-01
3.600000000000000000e+01 3.774895858764648438e+01 1.815997362136840820e+00 -2.832361757755279541e-01 2.594185829162597656e+01 7.697587013244628906e+00 -3.758684098720550537e-01
3.700000000000000000e+01 3.788959121704101562e+01 1.226932287216186523e+00 8.152142524719238281e+00 4.245567703247070312e+01 1.518234634399414062e+01 -5.994745254516601562e+00
3.800000000000000000e+01 3.778963851928710938e+01 1.399059295654296875e+00 4.335577011108398438e+00 3.386448669433593750e+01 1.146001911163330078e+01 -4.172655582427978516e+00
3.900000000000000000e+01 3.768968582153320312e+01 1.571186304092407227e+00 3.080207586288452148e+00 2.925433540344238281e+01 9.700363159179687500e+00 -3.135597229003906250e+00
4.000000000000000000e+01 3.758973312377929688e+01 1.743313312530517578e+00 1.266604900360107422e+00 2.552687263488769531e+01 8.038043022155761719e+00 -2.713265895843505859e+00
4.100000000000000000e+01 3.784224319458007812e+01 1.192844986915588379e+00 1.284272766113281250e+01 4.007418060302734375e+01 1.587507247924804688e+01 -8.583141326904296875e+00
4.200000000000000000e+01 3.771072387695312500e+01 1.342247128486633301e+00 7.392095088958740234e+00 3.299249649047851562e+01 1.211537742614746094e+01 -6.398284435272216797e+00
4.300000000000000000e+01 3.757920074462890625e+01 1.491649270057678223e+00 5.771237373352050781e+00 2.822769546508789062e+01 1.019967937469482422e+01 -5.656156539916992188e+00
4.400000000000000000e+01 3.744768524169921875e+01 1.641051411628723145e+00 4.566695690155029297e+00 2.597191619873046875e+01 9.161583900451660156e+00 -5.045241832733154297e+00
4.500000000000000000e+01 3.780242538452148438e+01 1.150200128555297852e+00 1.683518981933593750e+01 3.730205535888671875e+01 1.624117279052734375e+01 -9.563669204711914062e+00
4.600000000000000000e+01 3.764436340332031250e+01 1.271172404289245605e+00 1.164011096954345703e+01 3.105497932434082031e+01 1.280852699279785156e+01 -7.318446159362792969e+00
4.700000000000000000e+01 3.748629760742187500e+01 1.392144560813903809e+00 8.028054237365722656e+00 2.686400032043457031e+01 1.046761608123779297e+01 -6.996148109436035156e+00
4.800000000000000000e+01 3.732823562622070312e+01 1.513116836547851562e+00 7.441846847534179688e+00 2.546294021606445312e+01 9.871436119079589844e+00 -5.966367721557617188e+00
4.900000000000000000e+01 3.777165985107421875e+01 1.100626111030578613e+00 2.123143959045410156e+01 3.519538497924804688e+01 1.692804718017578125e+01 -8.550804138183593750e+00
5.000000000000000000e+01 3.759309005737304688e+01 1.188549041748046875e+00 1.474519634246826172e+01 2.840637207031250000e+01 1.294546985626220703e+01 -7.548649787902832031e+00
5.100000000000000000e+01 3.741452026367187500e+01 1.276471853256225586e+00 1.148079586029052734e+01 2.573982048034667969e+01 1.116618442535400391e+01 -6.274963378906250000e+00
5.200000000000000000e+01 3.723594665527343750e+01 1.364394783973693848e+00 8.353737831115722656e+00 2.231991195678710938e+01 9.202095031738281250e+00 -5.488550186157226562e+00
5.300000000000000000e+01 3.775112533569335938e+01 1.046015858650207520e+00 2.396793746948242188e+01 3.296996688842773438e+01 1.708137130737304688e+01 -6.809075355529785156e+00
5.400000000000000000e+01 3.755886459350585938e+01 1.097532033920288086e+00 1.760091590881347656e+01 2.694793319702148438e+01 1.336465454101562500e+01 -6.105408191680908203e+00
5.500000000000000000e+01 3.736660385131835938e+01 1.149048209190368652e+00 1.388931846618652344e+01 2.364738082885742188e+01 1.126101016998291016e+01 -5.084959983825683594e+00
5.600000000000000000e+01 3.717434310913085938e+01 1.200564384460449219e+00 1.167685127258300781e+01 2.022480964660644531e+01 9.570498466491699219e+00 -4.190999031066894531e+00
5.700000000000000000e+01 3.774160385131835938e+01 9.884549975395202637e-01 2.550683975219726562e+01 3.187967872619628906e+01 1.721595573425292969e+01 -4.374808311462402344e+00
5.800000000000000000e+01 3.754299545288085938e+01 1.001597166061401367e+00 1.915561103820800781e+01 2.616199684143066406e+01 1.359528255462646484e+01 -4.003574848175048828e+00
5.900000000000000000e+01 3.734438705444335938e+01 1.014739274978637695e+00 1.547874069213867188e+01 2.208228683471679688e+01 1.126830863952636719e+01 -3.191293716430664062e+00
6.000000000000000000e+01 3.714577865600585938e+01 1.027881503105163574e+00 1.402934169769287109e+01 2.039273262023925781e+01 1.032662296295166016e+01 -3.728590965270996094e+00
6.100000000000000000e+01 3.774345779418945312e+01 9.301412701606750488e-01 2.571500778198242188e+01 3.224719619750976562e+01 1.738866043090820312e+01 -1.939542770385742188e+00
6.200000000000000000e+01 3.754608535766601562e+01 9.044076204299926758e-01 1.933398437500000000e+01 2.584849929809570312e+01 1.355474567413330078e+01 -1.474439144134521484e+00
6.300000000000000000e+01 3.734871292114257812e+01 8.786739706993103027e-01 1.606036186218261719e+01 2.227304077148437500e+01 1.150002098083496094e+01 -1.589663147926330566e+00
6.400000000000000000e+01 3.715134048461914062e+01 8.529403209686279297e-01 1.268806457519531250e+01 2.084857368469238281e+01 1.006099128723144531e+01 -1.621244192123413086e+00
6.500000000000000000e+01 3.775661849975585938e+01 8.733015060424804688e-01 2.442930221557617188e+01 3.337312698364257812e+01 1.734072875976562500e+01 3.041910231113433838e-01
6.600000000000000000e+01 3.756801986694335938e+01 8.096747398376464844e-01 1.848909568786621094e+01 2.666234397888183594e+01 1.354543209075927734e+01 5.366690158843994141e-01
6.700000000000000000e+01 3.737941741943359375e+01 7.460479736328125000e-01 1.463872528076171875e+01 2.353884887695312500e+01 1.145327186584472656e+01 1.177292093634605408e-01
6.800000000000000000e+01 3.719081878662109375e+01 6.824211478233337402e-01 1.183102607727050781e+01 2.089717292785644531e+01 9.818459510803222656e+00 7.988002300262451172e-01
6.900000000000000000e+01 3.778058242797851562e+01 8.201062679290771484e-01 2.205050468444824219e+01 3.521597290039062500e+01 1.717994308471679688e+01 1.942629337310791016e+00
7.000000000000000000e+01 3.760795593261718750e+01 7.210159897804260254e-01 1.629575347900390625e+01 2.844343757629394531e+01 1.342175674438476562e+01 1.458102226257324219e+00
7.100000000000000000e+01 3.743532943725585938e+01 6.219257116317749023e-01 1.270845890045166016e+01 2.482674026489257812e+01 1.126056003570556641e+01 1.694810748100280762e+00
7.200000000000000000e+01 3.726270675659179688e+01 5.228354334831237793e-01 1.077552413940429688e+01 2.212718582153320312e+01 9.870812416076660156e+00 1.490227580070495605e+00
7.300000000000000000e+01 3.781443023681640625e+01 7.725868225097656250e-01 1.911374664306640625e+01 3.717336273193359375e+01 1.688613319396972656e+01 2.251365423202514648e+00
7.400000000000000000e+01 3.766437149047851562e+01 6.418169140815734863e-01 1.323685455322265625e+01 3.087911415100097656e+01 1.323479080200195312e+01 1.684813499450683594e+00
7.500000000000000000e+01 3.751431274414062500e+01 5.110469460487365723e-01 1.058259201049804688e+01 2.597387123107910156e+01 1.096693897247314453e+01 1.460379123687744141e+00
7.600000000000000000e+01 3.736425781250000000e+01 3.802770376205444336e-01 8.743797302246093750e+00 2.369257354736328125e+01 9.730911254882812500e+00 1.662611603736877441e+00
7.700000000000000000e+01 3.785687637329101562e+01 7.325577139854431152e-01 1.558324241638183594e+01 3.995766448974609375e+01 1.666227149963378906e+01 1.167769670486450195e+00
7.800000000000000000e+01 3.773511505126953125e+01 5.751017332077026367e-01 1.035528087615966797e+01 3.215409851074218750e+01 1.275281429290771484e+01 7.155877947807312012e-01
7.900000000000000000e+01 3.761335372924804688e+01 4.176457524299621582e-01 7.944941997528076172e+00 2.813570976257324219e+01 1.082419586181640625e+01 8.050087839365005493e-02
8.000000000000000000e+01 3.749159240722656250e+01 2.601897418498992920e-01 6.560702800750732422e+00 2.381972122192382812e+01 9.114127159118652344e+00 1.954301297664642334e-01
8.100000000000000000e+01 3.790629577636718750e+01 7.015475034713745117e-01 1.218751239776611328e+01 4.140307998657226562e+01 1.607717895507812500e+01 -9.838903546333312988e-01
8.200000000000000000e+01 3.781748199462890625e+01 5.234180688858032227e-01 7.912760257720947266e+00 3.339283370971679688e+01 1.239167881011962891e+01 -1.857673406600952148e+00
8.300000000000000000e+01 3.772866821289062500e+01 3.452886343002319336e-01 5.748252391815185547e+00 2.854385566711425781e+01 1.028763198852539062e+01 -1.685497760772705078e+00
8.400000000000000000e+01 3.763985061645507812e+01 1.671591997146606445e-01 4.406020164489746094e+00 2.569337463378906250e+01 9.029818534851074219e+00 -2.255814075469970703e+00
8.500000000000000000e+01 3.796080398559570312e+01 6.807404160499572754e-01 9.568955421447753906e+00 4.189634323120117188e+01 1.543958950042724609e+01 -4.599141120910644531e+00
8.600000000000000000e+01 3.790832519531250000e+01 4.887395501136779785e-01 6.439072608947753906e+00 3.308417892456054688e+01 1.185697555541992188e+01 -4.843019962310791016e+00
8.700000000000000000e+01 3.785585021972656250e+01 2.967387139797210693e-01 4.271317958831787109e+00 2.810507392883300781e+01 9.712917327880859375e+00 -4.573829174041748047e+00
8.800000000000000000e+01 3.780337142944335938e+01 1.047378480434417725e-01 3.560101270675659180e+00 2.543698692321777344e+01 8.699126243591308594e+00 -3.949058771133422852e+00
8.900000000000000000e+01 3.801831436157226562e+01 6.709309220314025879e-01 8.755697250366210938e+00 4.068004608154296875e+01 1.483072280883789062e+01 -8.862501144409179688e+00
9.000000000000000000e+01 3.800418090820312500e+01 4.723903834819793701e-01 5.665223598480224609e+00 3.107512474060058594e+01 1.102210426330566406e+01 -8.222462654113769531e+00
9.100000000000000000e+01 3.799004364013671875e+01 2.738498747348785400e-01 4.382861137390136719e+00 2.656471443176269531e+01 9.284273147583007812e+00 -7.183621406555175781e+00
9.200000000000000000e+01 3.797591018676757812e+01 7.530932873487472534e-02 2.981121778488159180e+00 2.279323196411132812e+01 7.732306480407714844e+00 -6.880119800567626953e+00
9.300000000000000000e+01 3.807663726806640625e+01 6.724936366081237793e-01 8.905376434326171875e+00 3.708286666870117188e+01 1.379647254943847656e+01 -1.320842361450195312e+01
9.400000000000000000e+01 3.810138320922851562e+01 4.749948680400848389e-01 6.756909370422363281e+00 2.776583480834960938e+01 1.035682296752929688e+01 -1.105654335021972656e+01
9.500000000000000000e+01 3.812612915039062500e+01 2.774961292743682861e-01 4.926653861999511719e+00 2.296761322021484375e+01 8.368280410766601562e+00 -9.601922988891601562e+00
9.600000000000000000e+01 3.815087509155273438e+01 7.999739050865173340e-02 3.417739868164062500e+00 2.093461990356445312e+01 7.305707454681396484e+00 -8.849805831909179688e+00
9.700000000000000000e+01 3.813354110717773438e+01 6.853688359260559082e-01 1.102633571624755859e+01 3.166047286987304688e+01 1.280604267120361328e+01 -1.657114982604980469e+01
9.800000000000000000e+01 3.819622421264648438e+01 4.964535534381866455e-01 8.415901184082031250e+00 2.275402450561523438e+01 9.350977897644042969e+00 -1.292696666717529297e+01
9.900000000000000000e+01 3.825890731811523438e+01 3.075382709503173828e-01 6.388364791870117188e+00 1.889579391479492188e+01 7.585247516632080078e+00 -1.114775371551513672e+01
1.000000000000000000e+02 3.832159042358398438e+01 1.186230108141899109e-01 4.938016891479492188e+00 1.679618072509765625e+01 6.520258903503417969e+00 -9.197555541992187500e+00
1.010000000000000000e+02 3.818685531616210938e+01 7.090649008750915527e-01 1.400212097167968750e+01 2.463905143737792969e+01 1.159235191345214844e+01 -1.809657669067382812e+01
1.020000000000000000e+02 3.828508377075195312e+01 5.359470248222351074e-01 1.054792022705078125e+01 1.702634239196777344e+01 8.272278785705566406e+00 -1.359702873229980469e+01
1.030000000000000000e+02 3.838330841064453125e+01 3.628291189670562744e-01 8.133674621582031250e+00 1.406577873229980469e+01 6.659836292266845703e+00 -1.096748924255371094e+01
1.040000000000000000e+02 3.848153305053710938e+01 1.897112429141998291e-01 6.810376644134521484e+00 1.171417236328125000e+01 5.557364463806152344e+00 -9.546788215637207031e+00
1.050000000000000000e+02 3.823454666137695312e+01 7.426769733428955078e-01 1.719993591308593750e+01 1.669463920593261719e+01 1.016837215423583984e+01 -1.757799720764160156e+01
1.060000000000000000e+02 3.836456298828125000e+01 5.919671654701232910e-01 1.215393352508544922e+01 1.137403297424316406e+01 7.058390140533447266e+00 -1.235064697265625000e+01
1.070000000000000000e+02 3.849458312988281250e+01 4.412573277950286865e-01 9.779126167297363281e+00 8.887747764587402344e+00 5.600062370300292969e+00 -9.890319824218750000e+00
1.080000000000000000e+02 3.862459945678710938e+01 2.905474901199340820e-01 7.722807884216308594e+00 7.864486694335937500e+00 4.676188468933105469e+00 -8.509283065795898438e+00
1.090000000000000000e+02 3.827478408813476562e+01 7.849215865135192871e-01 1.890398979187011719e+01 9.484110832214355469e+00 8.516429901123046875e+00 -1.471234035491943359e+01
1.100000000000000000e+02 3.843162918090820312e+01 6.623747944831848145e-01 1.307020759582519531e+01 5.922367095947265625e+00 5.697772502899169922e+00 -9.725115776062011719e+00
1.110000000000000000e+02 3.858847427368164062e+01 5.398280024528503418e-01 9.847507476806640625e+00 4.898088932037353516e+00 4.423678874969482422e+00 -7.602029800415039062e+00
1.120000000000000000e+02 3.874532318115234375e+01 4.172812700271606445e-01 8.115607261657714844e+00 4.504327774047851562e+00 3.785980701446533203e+00 -6.392223358154296875e+00
1.130000000000000000e+02 3.830604171752929688e+01 8.341854810714721680e-01 1.883879470825195312e+01 3.308758020401000977e+00 6.644265651702880859e+00 -9.926067352294921875e+00
1.140000000000000000e+02 3.848372650146484375e+01 7.444813251495361328e-01 1.160309123992919922e+01 2.065043926239013672e+00 4.100440502166748047e+00 -6.214127540588378906e+00
1.150000000000000000e+02 3.866140747070312500e+01 6.547772288322448730e-01 8.846038818359375000e+00 1.969439506530761719e+00 3.244643449783325195e+00 -4.644655704498291016e+00
1.160000000000000000e+02 3.883909225463867188e+01 5.650730729103088379e-01 6.765030384063720703e+00 2.175895929336547852e+00 2.682277917861938477e+00 -3.823412418365478516e+00
1.170000000000000000e+02 3.832712173461914062e+01 8.885875940322875977e-01 1.488044643402099609e+01 -5.741617679595947266e-01 4.291885375976562500e+00 -4.593764781951904297e+00
1.180000000000000000e+02 3.851885604858398438e+01 8.351514935493469238e-01 8.394986152648925781e+00 -2.200079411268234253e-01 2.452493667602539062e+00 -2.382639884948730469e+00
1.190000000000000000e+02 3.871059417724609375e+01 7.817154526710510254e-01 5.494669437408447266e+00 7.658555507659912109e-01 1.878157496452331543e+00 -2.060249328613281250e+00
1.200000000000000000e+02 3.890232849121093750e+01 7.282793521881103516e-01 4.760725021362304688e+00 7.326380014419555664e-01 1.648008942604064941e+00 -1.746631979942321777e+00
1.210000000000000000e+02 3.833721923828125000e+01 9.460504651069641113e-01 7.341553211212158203e+00 -2.396207094192504883e+00 1.483603715896606445e+00 1.022565484046936035e+00
1.220000000000000000e+02 3.853568649291992188e+01 9.309229254722595215e-01 1.720423698425292969e+00 -7.376490626484155655e-03 5.139141678810119629e-01 -4.073266685009002686e-01
1.230000000000000000e+02 3.873415374755859375e+01 9.157954454421997070e-01 2.364187717437744141e+00 2.412175536155700684e-01 7.816216349601745605e-01 -8.907942771911621094e-01
1.240000000000000000e+02 3.893262100219726562e+01 9.006679058074951172e-01 1.360505819320678711e+00 -1.510348054580390453e-03 4.076986312866210938e-01 -2.497603595256805420e-01
1.250000000000000000e+02 3.833594894409179688e+01 1.004379749298095703e+00 -7.989826679229736328e+00 -1.450819134712219238e+00 -2.832193851470947266e+00 1.458519339561462402e+00
1.260000000000000000e+02 3.853356933593750000e+01 1.028138518333435059e+00 -1.805938482284545898e+00 5.853097438812255859e-01 -3.661886155605316162e-01 -1.091416358947753906e+00
1.270000000000000000e+02 3.873118972778320312e+01 1.051897287368774414e+00 -2.629045724868774414e+00 -4.559029638767242432e-01 -9.254845976829528809e-01 -2.831792831420898438e-01
1.280000000000000000e+02 3.892881011962890625e+01 1.075655937194824219e+00 -2.226714134216308594e+00 2.404763400554656982e-01 -5.958713293075561523e-01 -4.369961321353912354e-01
1.290000000000000000e+02 3.952216720581054688e+01 2.633049964904785156e+00 -7.311838865280151367e-01 1.544607043266296387e+00 2.440269291400909424e-01 2.054484933614730835e-01
1.300000000000000000e+02 3.969451904296875000e+01 2.594859600067138672e+00 5.786441564559936523e-01 -1.704849898815155029e-01 1.224477440118789673e-01 5.002828240394592285e-01
1.310000000000000000e+02 3.766998291015625000e+01 2.085705041885375977e+00 -3.536383435130119324e-02 2.210656356811523438e+01 6.621359825134277344e+00 -7.919101119041442871e-01
1.320000000000000000e+02 3.692784118652343750e+01 1.368877887725830078e+00 7.758259296417236328e+00 1.957291793823242188e+01 8.199353218078613281e+00 -4.278332233428955078e+00
1.330000000000000000e+02 3.687415695190429688e+01 9.335415959358215332e-01 1.032581806182861328e+01 1.798804473876953125e+01 8.494158744812011719e+00 -2.289878368377685547e+00
1.340000000000000000e+02 3.715854263305664062e+01 3.613932728767395020e-01 9.175139427185058594e+00 2.147410202026367188e+01 9.194771766662597656e+00 1.187620520591735840e+00
1.350000000000000000e+02 3.737385940551757812e+01 1.398945152759552002e-01 5.700358390808105469e+00 2.256342697143554688e+01 8.479135513305664062e+00 4.159269630908966064e-01
1.360000000000000000e+02 3.858922576904296875e+01 -3.029272556304931641e-01 3.709942340850830078e+00 1.156602191925048828e+01 4.582789421081542969e+00 -8.013236999511718750e+00
1.370000000000000000e+02 4.032314682006835938e+01 6.544920802116394043e-02 -1.933869719505310059e+00 -1.152921795845031738e+00 -9.260374307632446289e-01 1.000224351882934570e+00
1.380000000000000000e+02 3.823273086547851562e+01 -1.289048790931701660e-01 2.876707792282104492e+00 1.828869056701660156e+01 6.349619388580322266e+00 -7.274553775787353516e+00
1.390000000000000000e+02 3.749139404296875000e+01 1.934518337249755859e+00 2.346476912498474121e-01 2.545938873291015625e+01 7.708210945129394531e+00 -2.971203088760375977e+00
1.400000000000000000e+02 3.926464462280273438e+01 1.753209590911865234e+00 9.293547272682189941e-01 6.274129152297973633e-01 4.670302867889404297e-01 2.127528637647628784e-01
1.410000000000000000e+02 3.860501480102539062e+01 2.510498046875000000e+00 1.178238727152347565e-02 1.025771713256835938e+01 3.080849885940551758e+00 3.545056581497192383e+00
1.420000000000000000e+02 3.787843704223632812e+01 2.134099721908569336e+00 -8.584277033805847168e-01 2.026869201660156250e+01 5.823079109191894531e+00 1.775196433067321777e+00
1.430000000000000000e+02 3.791806793212890625e+01 2.350636959075927734e+00 -1.151047229766845703e+00 1.835264205932617188e+01 5.160478591918945312e+00 2.123078107833862305e+00
1.440000000000000000e+02 3.861855697631835938e+01 -1.574436086229979992e-03 5.400108337402343750e+00 1.040198230743408203e+01 4.740627288818359375e+00 -8.575024604797363281e+00
1.450000000000000000e+02 3.895026016235351562e+01 2.675898969173431396e-01 6.143110752105712891e+00 4.001528263092041016e+00 3.043391704559326172e+00 -5.439909934997558594e+00
1.460000000000000000e+02 3.904714202880859375e+01 4.739885926246643066e-01 5.276047706604003906e+00 1.795753479003906250e+00 2.121540307998657227e+00 -3.120660066604614258e+00
1.470000000000000000e+02 3.990913772583007812e+01 1.268821597099304199e+00 -1.781000494956970215e-01 -8.163168281316757202e-02 -7.791952043771743774e-02 1.204179078340530396e-01
1.480000000000000000e+02 3.912522125244140625e+01 1.101668238639831543e+00 -1.942233920097351074e+00 -9.921317547559738159e-02 -6.124341487884521484e-01 -1.344924718141555786e-01
1.490000000000000000e+02 3.689091491699218750e+01 7.166181206703186035e-01 1.001466274261474609e+01 1.798099899291992188e+01 8.398698806762695312e+00 -7.453861832618713379e-01
1.500000000000000000e+02 3.726705932617187500e+01 2.695680558681488037e-01 7.978828907012939453e+00 2.286172103881835938e+01 9.252164840698242188e+00 1.580441474914550781e+00
1.510000000000000000e+02 3.843062973022460938e+01 -7.837563008069992065e-02 4.627193450927734375e+00 1.340868473052978516e+01 5.410763263702392578e+00 -8.454886436462402344e+00
1.520000000000000000e+02 3.880339431762695312e+01 1.025981083512306213e-01 6.142879009246826172e+00 6.823514461517333984e+00 3.889918088912963867e+00 -7.158829689025878906e+00
1.530000000000000000e+02 3.913506698608398438e+01 8.911644220352172852e-01 9.509117603302001953e-01 4.335924983024597168e-01 4.153512716293334961e-01 -1.826818734407424927e-01
1.540000000000000000e+02 3.907575607299804688e+01 1.324596643447875977e+00 -1.707284569740295410e+00 -2.937671244144439697e-01 -6.003155112266540527e-01 -5.494350790977478027e-01
1.550000000000000000e+02 3.828985595703125000e+01 2.163042545318603516e+00 1.441026479005813599e-01 1.467207908630371094e+01 4.444854259490966797e+00 4.476036548614501953e+00
1.560000000000000000e+02 3.694879531860351562e+01 1.184970974922180176e+00 1.164180946350097656e+01 1.891919708251953125e+01 9.168301582336425781e+00 -4.277283191680908203e+00
1.570000000000000000e+02 3.984766387939453125e+01 1.518413901329040527e+00 -5.587281659245491028e-02 -1.785225123167037964e-01 -7.031860202550888062e-02 -1.003679558634757996e-01
1.580000000000000000e+02 3.923597717285156250e+01 2.651517868041992188e+00 -2.850438058376312256e-01 4.546294689178466797e+00 1.278375267982482910e+00 1.637211322784423828e+00
1.590000000000000000e+02 3.969936752319335938e+01 2.793207883834838867e+00 -1.472211122512817383e+00 -9.391910433769226074e-01 -7.234206795692443848e-01 -8.984579443931579590e-01
1.600000000000000000e+02 3.722885131835937500e+01 1.739117801189422607e-01 6.470019817352294922e+00 2.245765876770019531e+01 8.678303718566894531e+00 7.865451574325561523e-01
1.610000000000000000e+02 3.838874053955078125e+01 -3.545532524585723877e-01 2.993129253387451172e+00 1.324316978454589844e+01 4.870889663696289062e+00 -7.014523506164550781e+00
1.620000000000000000e+02 3.829766082763671875e+01 2.012199163436889648e+00 4.730463624000549316e-01 1.504216003417968750e+01 4.654561996459960938e+00 4.999323368072509766e+00
1.630000000000000000e+02 3.806724929809570312e+01 2.418019771575927734e+00 -1.124975323677062988e+00 1.681788444519042969e+01 4.707872867584228516e+00 2.604535579681396484e+00
1.640000000000000000e+02 3.888269805908203125e+01 1.718487024307250977e+00 2.080934524536132812e+00 2.646380186080932617e+00 1.418194413185119629e+00 2.183957576751708984e+00
1.650000000000000000e+02 3.740077209472656250e+01 2.143636465072631836e+00 1.793938577175140381e-01 2.237407493591308594e+01 6.766040802001953125e+00 -2.188147544860839844e+00
1.660000000000000000e+02 3.900495147705078125e+01 1.527676582336425781e+00 9.543694257736206055e-01 8.458928465843200684e-01 5.400786995887756348e-01 5.961821079254150391e-01
1.670000000000000000e+02 3.964901733398437500e+01 1.469643950462341309e+00 -2.873798608779907227e-01 -1.863884031772613525e-01 -1.421304792165756226e-01 -3.303984105587005615e-01
1.680000000000000000e+02 3.961998367309570312e+01 -9.391257911920547485e-02 2.985204935073852539e+00 2.469642877578735352e+00 1.636454343795776367e+00 -3.463701486587524414e+00
1.690000000000000000e+02 3.702975845336914062e+01 1.654688835144042969e+00 5.378820896148681641e+00 2.047999572753906250e+01 7.757645130157470703e+00 -5.381641864776611328e+00
1.700000000000000000e+02 3.670542907714843750e+01 1.081015110015869141e+00 9.722629547119140625e+00 1.743602943420410156e+01 8.147597312927246094e+00 -2.515680074691772461e+00
1.710000000000000000e+02 3.940916442871093750e+01 1.026986837387084961e-01 3.839462518692016602e+00 2.584333181381225586e+00 1.927138805389404297e+00 -3.593725442886352539e+00
1.720000000000000000e+02 3.934440612792968750e+01 8.964197039604187012e-01 4.141469001770019531e-01 2.679370939731597900e-01 2.046252042055130005e-01 2.720476686954498291e-01
1.730000000000000000e+02 3.753207397460937500e+01 -7.353311777114868164e-02 2.725555658340454102e+00 2.205165100097656250e+01 7.433162212371826172e+00 -1.526360869407653809e+00
1.740000000000000000e+02 3.800397491455078125e+01 -1.415320932865142822e-01 1.861208677291870117e+00 2.123089981079101562e+01 6.927632808685302734e+00 -6.987462997436523438e+00
1.750000000000000000e+02 3.980809020996093750e+01 -5.348157510161399841e-02 2.224663019180297852e+00 2.247035503387451172e+00 1.341509580612182617e+00 -2.873462438583374023e+00
1.760000000000000000e+02 3.898849487304687500e+01 -1.723562628030776978e-01 4.656541824340820312e+00 6.456497192382812500e+00 3.333911657333374023e+00 -6.519097328186035156e+00
1.770000000000000000e+02 3.801447677612304688e+01 -3.691993355751037598e-01 1.534776926040649414e+00 1.909708023071289062e+01 6.189557552337646484e+00 -6.000706195831298828e+00
1.780000000000000000e+02 3.968446731567382812e+01 2.395730495452880859e+00 -2.446946054697036743e-01 -6.928256750106811523e-01 -2.812560796737670898e-01 1.718901097774505615e-01
1.790000000000000000e+02 3.728008651733398438e+01 1.870876193046569824e+00 2.182463884353637695e+00 2.191792678833007812e+01 7.230117321014404297e+00 -3.285207748413085938e+00
1.800000000000000000e+02 3.687287902832031250e+01 3.407210707664489746e-01 8.090336799621582031e+00 1.834300231933593750e+01 7.930001258850097656e+00 1.095159411430358887e+00
1.810000000000000000e+02 3.775974273681640625e+01 -1.755818128585815430e-01 2.180102586746215820e+00 2.075573158264160156e+01 6.880750179290771484e+00 -4.035673141479492188e+00
1.820000000000000000e+02 3.849839782714843750e+01 1.970205545425415039e+00 1.312521576881408691e+00 1.036459827423095703e+01 3.503135919570922852e+00 4.835983276367187500e+00
1.830000000000000000e+02 3.971297073364257812e+01 1.217798590660095215e+00 -5.736517310142517090e-01 5.685212090611457825e-02 -1.550398766994476318e-01 1.695710867643356323e-01
1.840000000000000000e+02 3.932120132446289062e+01 1.133132576942443848e+00 -1.499256849288940430e+00 1.411865949630737305e-01 -4.074210822582244873e-01 -8.453163504600524902e-02
1.850000000000000000e+02 3.956719970703125000e+01 1.676409006118774414e+00 1.186299547553062439e-01 -4.607411623001098633e-01 -1.026333644986152649e-01 -5.519341230392456055e-01
1.860000000000000000e+02 4.024139785766601562e+01 2.616380155086517334e-01 5.634047985076904297e-01 -7.950450778007507324e-01 -6.949207186698913574e-02 2.821581810712814331e-02
1.870000000000000000e+02 3.840253067016601562e+01 2.495901346206665039e+00 -5.278732776641845703e-01 1.237746810913085938e+01 3.554878473281860352e+00 3.553848266601562500e+00
1.880000000000000000e+02 3.878571701049804688e+01 -2.430640906095504761e-01 4.542195320129394531e+00 9.048358917236328125e+00 4.077166080474853516e+00 -7.409286499023437500e+00
1.890000000000000000e+02 3.919918441772460938e+01 1.517521142959594727e-01 4.748110771179199219e+00 3.464462041854858398e+00 2.463771820068359375e+00 -4.432518959045410156e+00
1.900000000000000000e+02 3.920985031127929688e+01 -1.324890553951263428e-01 4.358421325683593750e+00 4.727539062500000000e+00 2.725788116455078125e+00 -5.428487300872802734e+00
1.910000000000000000e+02 3.942587280273437500e+01 -1.224019974470138550e-01 3.489629983901977539e+00 3.547244071960449219e+00 2.111062288284301758e+00 -4.282195091247558594e+00
1.920000000000000000e+02 3.992022705078125000e+01 1.884220391511917114e-01 1.105850100517272949e+00 1.238549709320068359e+00 7.033199667930603027e-01 -1.632214546203613281e+00
1.930000000000000000e+02 3.993096542358398438e+01 5.631665587425231934e-01 1.896193027496337891e-01 3.625642135739326477e-02 6.776271760463714600e-02 -1.204959489405155182e-02
1.940000000000000000e+02 3.834808349609375000e+01 2.359874486923217773e+00 -2.062184512615203857e-01 1.327089881896972656e+01 3.919404029846191406e+00 3.597673177719116211e+00
1.950000000000000000e+02 3.881699371337890625e+01 2.549236297607421875e+00 1.066269874572753906e-01 7.806653499603271484e+00 2.373984098434448242e+00 3.172900915145874023e+00
1.960000000000000000e+02 3.867668533325195312e+01 2.262766361236572266e+00 7.896237373352050781e-01 8.971134185791015625e+00 2.928227424621582031e+00 3.920182704925537109e+00
1.970000000000000000e+02 3.982480239868164062e+01 7.477061748504638672e-01 3.113078773021697998e-01 1.302604526281356812e-01 1.324705034494400024e-01 2.001634091138839722e-01
1.980000000000000000e+02 4.002254486083984375e+01 8.458496332168579102e-01 -2.117863446474075317e-01 -8.297029733657836914e-01 -3.124468028545379639e-01 4.843141734600067139e-01
1.990000000000000000e+02 4.009600830078125000e+01 6.501143574714660645e-01 1.061064004898071289e-01 -1.199741721153259277e+00 -3.280905783176422119e-01 4.385014474391937256e-01
2.000000000000000000e+02 4.016986083984375000e+01 4.585448205471038818e-01 -3.110094666481018066e-01 -1.201373219490051270e+00 -4.537148177623748779e-01 2.747111618518829346e-01
2.010000000000000000e+02 3.939659118652343750e+01 2.738714694976806641e+00 -1.998978406190872192e-01 3.273744106292724609e+00 9.221538901329040527e-01 1.778125762939453125e+00
2.020000000000000000e+02 3.967775344848632812e+01 2.180495738983154297e+00 2.361728809773921967e-02 -8.402506709098815918e-01 -2.449900209903717041e-01 2.476135939359664917e-01
2.030000000000000000e+02 3.926826095581054688e+01 1.371837615966796875e+00 -1.345095753669738770e+00 -3.608680143952369690e-02 -4.143547713756561279e-01 -6.011505126953125000e-01
2.040000000000000000e+02 3.951735687255859375e+01 1.171791195869445801e+00 -1.066241860389709473e+00 8.156294375658035278e-02 -2.954036891460418701e-01 1.004327535629272461e-01
2.050000000000000000e+02 3.724264907836914062e+01 -6.844065338373184204e-02 3.524381875991821289e+00 2.102210235595703125e+01 7.363945484161376953e+00 -1.725742667913436890e-01
2.060000000000000000e+02 3.934889602661132812e+01 6.437235474586486816e-01 2.343085050582885742e+00 9.566553831100463867e-01 9.899221062660217285e-01 -8.602889776229858398e-01
2.070000000000000000e+02 3.999531173706054688e+01 -1.253781095147132874e-02 1.530616998672485352e+00 1.362913012504577637e+00 8.680590391159057617e-01 -2.251324892044067383e+00
2.080000000000000000e+02 3.903626251220703125e+01 2.583743095397949219e+00 2.949554622173309326e-01 6.025637626647949219e+00 1.896177887916564941e+00 2.338577508926391602e+00
2.090000000000000000e+02 4.017950820922851562e+01 3.008091449737548828e-02 -1.352503150701522827e-01 1.155264735221862793e+00 3.060043454170227051e-01 -1.425832390785217285e+00
2.100000000000000000e+02 3.911116790771484375e+01 6.797226667404174805e-01 3.567010402679443359e+00 6.402434706687927246e-01 1.262176156044006348e+00 -1.216651320457458496e+00
2.110000000000000000e+02 3.978645324707031250e+01 1.730073451995849609e+00 3.134481608867645264e-02 -5.841281414031982422e-01 -1.658349931240081787e-01 -1.563214808702468872e-01
2.120000000000000000e+02 3.870063400268554688e+01 1.875315546989440918e+00 2.227075576782226562e+00 6.530851840972900391e+00 2.627378225326538086e+00 3.966831207275390625e+00
2.130000000000000000e+02 3.957556152343750000e+01 1.089680418372154236e-01 2.680760383605957031e+00 2.214814901351928711e+00 1.468672633171081543e+00 -2.856868505477905273e+00
2.140000000000000000e+02 3.921108627319335938e+01 1.574155449867248535e+00 5.301634669303894043e-01 3.363908827304840088e-01 2.599663138389587402e-01 -7.348533719778060913e-02
2.150000000000000000e+02 3.906700134277343750e+01 1.915439486503601074e+00 1.601092696189880371e+00 2.610883712768554688e+00 1.263592958450317383e+00 1.526554107666015625e+00
2.160000000000000000e+02 3.966625976562500000e+01 3.920135200023651123e-01 1.934256553649902344e+00 1.182558536529541016e+00 9.350445270538330078e-01 -1.336848974227905273e+00
2.170000000000000000e+02 3.912258529663085938e+01 2.312051057815551758e+00 4.342513084411621094e-01 4.435201168060302734e+00 1.460835695266723633e+00 1.994339227676391602e+00
2.180000000000000000e+02 3.955435562133789062e+01 9.266383647918701172e-01 7.316686958074569702e-02 3.777512907981872559e-01 1.352754533290863037e-01 3.495387732982635498e-01
2.190000000000000000e+02 3.937916946411132812e+01 2.268724441528320312e+00 2.322827130556106567e-01 1.943481922149658203e+00 6.527293920516967773e-01 7.776065468788146973e-01
2.200000000000000000e+02 3.955519866943359375e+01 2.782180309295654297e+00 -9.742866754531860352e-01 2.699943542480468750e+00 5.176970958709716797e-01 4.712909162044525146e-01
2.210000000000000000e+02 3.943608856201171875e+01 2.474613666534423828e+00 1.926256418228149414e-01 1.969901323318481445e+00 6.487581133842468262e-01 1.141421556472778320e+00
2.220000000000000000e+02 4.009078216552734375e+01 2.221154272556304932e-01 2.228168845176696777e-01 -1.455468833446502686e-01 2.318100072443485260e-02 -2.166936099529266357e-01
2.230000000000000000e+02 4.002435684204101562e+01 4.089922904968261719e-01 5.203275084495544434e-01 -1.032388508319854736e-01 1.251266002655029297e-01 -4.379714727401733398e-01
2.240000000000000000e+02 3.974307632446289062e+01 1.565290093421936035e-01 1.980147480964660645e+00 1.636723875999450684e+00 1.085061430931091309e+00 -2.272720098495483398e+00
2.250000000000000000e+02 3.996046829223632812e+01 1.054459214210510254e+00 -1.681845039129257202e-01 -3.729209601879119873e-01 -1.623316407203674316e-01 3.533302545547485352e-01
2.260000000000000000e+02 3.975928878784179688e+01 9.843094944953918457e-01 -2.385746985673904419e-01 1.235303208231925964e-01 -3.451330959796905518e-02 5.063619017601013184e-01
2.270000000000000000e+02 3.889022445678710938e+01 2.293667078018188477e+00 8.200847506523132324e-01 6.197957038879394531e+00 2.105412483215332031e+00 2.756878614425659180e+00
2.280000000000000000e+02 3.822773742675781250e+01 2.476017713546752930e+00 -8.001911044120788574e-01 1.478331947326660156e+01 4.194938659667968750e+00 3.065656185150146484e+00
2.290000000000000000e+02 3.928944396972656250e+01 3.955718874931335449e-01 3.936986446380615234e+00 1.668384313583374023e+00 1.681611180305480957e+00 -2.403294801712036133e+00
2.300000000000000000e+02 3.945888900756835938e+01 1.416901350021362305e+00 -7.773829698562622070e-01 -2.530153691768646240e-01 -3.091194927692413330e-01 -5.204012989997863770e-01
2.310000000000000000e+02 3.938977050781250000e+01 1.603448987007141113e+00 5.545070767402648926e-02 -5.155971646308898926e-02 1.167297246865928173e-03 -5.433237552642822266e-01
2.320000000000000000e+02 3.971559524536132812e+01 1.951254129409790039e+00 2.341836094856262207e-01 -8.472405076026916504e-01 -1.839170753955841064e-01 5.975374951958656311e-02
2.330000000000000000e+02 3.945243835449218750e+01 1.886590957641601562e+00 7.465132474899291992e-01 3.339601457118988037e-01 3.241420090198516846e-01 -6.272470206022262573e-02
2.340000000000000000e+02 3.926208114624023438e+01 2.086283922195434570e+00 8.383207321166992188e-01 2.083690881729125977e+00 8.766034841537475586e-01 1.065348625183105469e+00
2.350000000000000000e+02 3.884007644653320312e+01 2.077810049057006836e+00 1.272871017456054688e+00 5.977037429809570312e+00 2.174972534179687500e+00 3.154756069183349609e+00
2.360000000000000000e+02 3.812267303466796875e+01 2.203311920166015625e+00 -3.579671978950500488e-01 1.757109832763671875e+01 5.163938999176025391e+00 3.450884819030761719e+00
2.370000000000000000e+02 3.847556304931640625e+01 2.193602323532104492e+00 6.453147530555725098e-01 1.150790596008300781e+01 3.645966291427612305e+00 4.355940341949462891e+00
2.380000000000000000e+02 3.810107040405273438e+01 2.056676387786865234e+00 -6.106157302856445312e-01 1.835009193420410156e+01 5.321842670440673828e+00 4.010948657989501953e+00
2.390000000000000000e+02 3.704081726074218750e+01 5.221561193466186523e-01 1.027007102966308594e+01 1.993296241760253906e+01 9.060910224914550781e+00 9.516741037368774414e-01
2.400000000000000000e+02 3.986677932739257812e+01 4.010148048400878906e-01 1.029691815376281738e+00 2.264041602611541748e-01 3.768287897109985352e-01 -5.007368922233581543e-01
2.410000000000000000e+02 3.948402023315429688e+01 2.848826348781585693e-01 2.936409473419189453e+00 1.765776515007019043e+00 1.410655856132507324e+00 -2.241231918334960938e+00
2.420000000000000000e+02 3.820886230468750000e+01 2.285647392272949219e+00 -5.236829519271850586e-01 1.546072769165039062e+01 4.481113433837890625e+00 3.713458776473999023e+00
2.430000000000000000e+02 3.959820938110351562e+01 6.596439480781555176e-01 1.161047697067260742e+00 5.626789331436157227e-01 5.171180367469787598e-01 -1.636655181646347046e-01
2.440000000000000000e+02 3.818307113647460938e+01 2.939744472503662109e+00 -1.306815624237060547e+00 1.453816986083984375e+01 3.969406366348266602e+00 2.196773290634155273e+00
2.450000000000000000e+02 3.823183441162109375e+01 6.089211940765380859e+00 1.376214474439620972e-01 1.104231166839599609e+01 3.353980064392089844e+00 7.140282988548278809e-01
2.460000000000000000e+02 3.334835052490234375e+01 1.032137393951416016e+01 4.961293041706085205e-01 1.628691482543945312e+01 5.034913063049316406e+00 -2.700444698333740234e+00
2.470000000000000000e+02 3.372634506225585938e+01 7.475921630859375000e+00 4.208812415599822998e-01 1.835632896423339844e+01 5.633162975311279297e+00 -1.869482755661010742e+00
2.480000000000000000e+02 3.638005447387695312e+01 1.897816419601440430e+00 4.156249046325683594e+00 1.770492935180664062e+01 6.558353424072265625e+00 -4.183776378631591797e+00
2.490000000000000000e+02 3.725212478637695312e+01 2.580104351043701172e+00 -3.841652274131774902e-01 1.948539924621582031e+01 5.730370044708251953e+00 -1.856293439865112305e+00
2.500000000000000000e+02 3.653677368164062500e+01 2.565721273422241211e+00 1.092658877372741699e+00 1.844605636596679688e+01 5.861614704132080078e+00 -3.484988927841186523e+00
2.510000000000000000e+02 3.920563507080078125e+01 3.347891569137573242e+00 -6.439044605940580368e-03 6.766149044036865234e+00 2.027913093566894531e+00 1.664049625396728516e+00
2.520000000000000000e+02 3.795366287231445312e+01 2.679241418838500977e+00 -1.301996946334838867e+00 1.627068519592285156e+01 4.490606307983398438e+00 2.046340703964233398e+00
2.530000000000000000e+02 3.922096252441406250e+01 8.031058311462402344e+00 7.790635228157043457e-01 9.756760597229003906e+00 3.160747289657592773e+00 1.203822374343872070e+00
2.540000000000000000e+02 4.029174041748046875e+01 1.038484001159667969e+01 8.402854800224304199e-01 4.789077758789062500e+00 1.688808917999267578e+00 2.079857349395751953e+00
2.550000000000000000e+02 4.088478469848632812e+01 1.163942432403564453e+01 8.262478113174438477e-01 3.662889957427978516e+00 1.346741318702697754e+00 1.602486610412597656e+00
2.560000000000000000e+02 4.029196166992187500e+01 1.362366867065429688e+01 6.449275612831115723e-01 4.492209911346435547e+00 1.541141271591186523e+00 1.416626334190368652e+00
2.570000000000000000e+02 3.913948059082031250e+01 1.520884895324707031e+01 6.159788370132446289e-01 5.789013385772705078e+00 1.921497702598571777e+00 1.213055491447448730e+00
2.580000000000000000e+02 3.533090591430664062e+01 1.856622314453125000e+01 7.896506786346435547e-01 7.597890853881835938e+00 2.516262531280517578e+00 -1.344602257013320923e-01
2.590000000000000000e+02 3.290170669555664062e+01 2.409656524658203125e+01 -1.440407782793045044e-01 5.794210910797119141e+00 1.695050954818725586e+00 -5.016139745712280273e-01
2.600000000000000000e+02 2.700254821777343750e+01 2.653475379943847656e+01 9.626115113496780396e-02 2.745985031127929688e+00 8.526738286018371582e-01 -1.624821066856384277e+00
2.610000000000000000e+02 2.243776893615722656e+01 3.501301193237304688e+01 -1.363902539014816284e-01 1.688857555389404297e+00 4.657402038574218750e-01 -5.069779753684997559e-01
2.620000000000000000e+02 1.905291557312011719e+01 3.826105880737304688e+01 -7.192769646644592285e-02 1.230279326438903809e+00 3.475055098533630371e-01 -1.837100684642791748e-01
2.630000000000000000e+02 1.833934020996093750e+01 4.106164169311523438e+01 -7.424578815698623657e-02 1.126783013343811035e+00 3.157611787319183350e-01 -5.171274766325950623e-02
2.640000000000000000e+02 1.229009246826171875e+01 4.067066574096679688e+01 5.176328122615814209e-02 4.627679586410522461e-01 1.543593704700469971e-01 -1.865880750119686127e-02
2.650000000000000000e+02 8.013647079467773438e+00 4.085315704345703125e+01 4.237950220704078674e-02 7.950926572084426880e-02 3.656663000583648682e-02 2.253752015531063080e-02
2.660000000000000000e+02 8.646407127380371094e+00 3.760053253173828125e+01 5.330843850970268250e-02 1.314135044813156128e-01 5.541658401489257812e-02 3.502402454614639282e-02
2.670000000000000000e+02 8.923006057739257812e+00 3.216759872436523438e+01 6.116980314254760742e-02 9.292483329772949219e-02 4.622839018702507019e-02 7.376085966825485229e-02
2.680000000000000000e+02 8.708353996276855469e+00 3.023066139221191406e+01 4.666104540228843689e-02 7.963785529136657715e-02 3.788967058062553406e-02 9.698272496461868286e-02
2.690000000000000000e+02 9.672809600830078125e+00 2.814053535461425781e+01 2.244454063475131989e-02 8.484672755002975464e-02 3.218737989664077759e-02 1.078748106956481934e-01
2.700000000000000000e+02 9.795063972473144531e+00 2.277023124694824219e+01 -1.164133101701736450e-01 6.770430505275726318e-02 -1.461270265281200409e-02 8.801958709955215454e-02
2.710000000000000000e+02 9.172172546386718750e+00 1.924904823303222656e+01 -7.433941215276718140e-02 2.330290339887142181e-02 -1.531095150858163834e-02 1.911399513483047485e-02
2.720000000000000000e+02 9.498998641967773438e+00 1.487160205841064453e+01 -2.207687683403491974e-02 -4.859381821006536484e-03 -8.080878295004367828e-03 -2.505581127479672432e-03
2.730000000000000000e+02 8.626440048217773438e+00 1.374344444274902344e+01 -1.554185710847377777e-02 -4.822038579732179642e-03 -6.109168753027915955e-03 1.058381283655762672e-03
2.740000000000000000e+02 9.310425758361816406e+00 1.086227703094482422e+01 -5.112057551741600037e-03 -5.401671864092350006e-03 -3.154119011014699936e-03 2.238963497802615166e-04
2.750000000000000000e+02 9.551400184631347656e+00 5.525038242340087891e+00 1.628040685318410397e-03 5.231744144111871719e-04 6.453645182773470879e-04 1.101290108636021614e-03
2.760000000000000000e+02 8.053779602050781250e+00 1.862097978591918945e+00 8.241950417868793011e-04 -9.592776186764240265e-04 -4.052477015648037195e-05 2.661042672116309404e-04
2.770000000000000000e+02 7.285559177398681641e+00 1.868055582046508789e+00 1.816999516449868679e-03 5.118718254379928112e-04 6.986614316701889038e-04 -6.811465136706829071e-04
2.780000000000000000e+02 1.034397983551025391e+01 1.860739707946777344e+00 1.814285758882761002e-03 6.598174804821610451e-04 7.422309718094766140e-04 1.248006883542984724e-04
2.790000000000000000e+02 1.404792690277099609e+01 1.908229947090148926e+00 1.507211254647700116e-05 -8.987506153061985970e-04 -2.651035611052066088e-04 6.287325522862374783e-04
2.800000000000000000e+02 1.257547950744628906e+01 1.872193694114685059e+00 2.188116777688264847e-04 -8.890972821973264217e-04 -2.010856842389330268e-04 7.454759906977415085e-04
2.810000000000000000e+02 1.264414501190185547e+01 5.497347831726074219e+00 1.933321007527410984e-03 1.127133262343704700e-03 9.181362693198025227e-04 2.245075011160224676e-04
2.820000000000000000e+02 1.208276271820068359e+01 1.253013801574707031e+01 -7.545966189354658127e-03 -4.399640951305627823e-03 -3.583682002499699593e-03 4.854348080698400736e-04
2.830000000000000000e+02 1.205966281890869141e+01 1.380690479278564453e+01 2.898762235417962074e-03 -1.563892350532114506e-03 4.004609654657542706e-04 5.150575889274477959e-04
2.840000000000000000e+02 1.168303108215332031e+01 1.627236747741699219e+01 -2.520772814750671387e-02 -1.772335963323712349e-04 -7.615488488227128983e-03 -1.902756653726100922e-02
2.850000000000000000e+02 1.381179141998291016e+01 2.191530609130859375e+01 -2.641568481922149658e-01 6.692582368850708008e-02 -5.916930735111236572e-02 2.532765083014965057e-02
2.860000000000000000e+02 1.241229248046875000e+01 2.586956405639648438e+01 -1.232849527150392532e-02 1.080912575125694275e-01 2.872882783412933350e-02 1.040098518133163452e-01
2.870000000000000000e+02 1.156829261779785156e+01 3.420273590087890625e+01 8.755743503570556641e-02 2.756958901882171631e-01 1.089759916067123413e-01 1.084880623966455460e-02
2.880000000000000000e+02 1.195118236541748047e+01 3.720205307006835938e+01 7.082766294479370117e-02 3.590754270553588867e-01 1.289709210395812988e-01 -1.266059186309576035e-02
2.890000000000000000e+02 4.274412536621093750e+01 1.415029335021972656e+01 6.402431130409240723e-01 1.684215784072875977e+00 6.973376870155334473e-01 9.471313357353210449e-01
2.900000000000000000e+02 4.495750808715820312e+01 1.592333412170410156e+01 3.980346918106079102e-01 5.786364078521728516e-01 2.930013239383697510e-01 4.705432653427124023e-01
2.910000000000000000e+02 4.112483978271484375e+01 1.878147125244140625e+01 4.880055189132690430e-01 3.602123022079467773e+00 1.227038502693176270e+00 1.273269653320312500e+00
2.920000000000000000e+02 3.680650329589843750e+01 2.375133895874023438e+01 -1.651012897491455078e-01 5.208770275115966797e+00 1.513100624084472656e+00 6.748722791671752930e-01
2.930000000000000000e+02 3.273463058471679688e+01 2.629820251464843750e+01 -5.163312554359436035e-01 5.148610115051269531e+00 1.389683723449707031e+00 -5.157417654991149902e-01
2.940000000000000000e+02 2.813388633728027344e+01 3.042797279357910156e+01 -4.646804630756378174e-01 3.108898162841796875e+00 7.932652831077575684e-01 -9.601727724075317383e-01
2.950000000000000000e+02 2.585154914855957031e+01 3.426853561401367188e+01 -3.834092020988464355e-01 2.363468170166015625e+00 5.940176844596862793e-01 -6.402496695518493652e-01
2.960000000000000000e+02 2.263825225830078125e+01 3.793922424316406250e+01 -2.638776600360870361e-01 1.780909538269042969e+00 4.551095664501190186e-01 -3.037106394767761230e-01
2.970000000000000000e+02 1.592354488372802734e+01 3.942817687988281250e+01 1.587666757404804230e-02 8.107139468193054199e-01 2.479771822690963745e-01 -5.617850646376609802e-02
2.980000000000000000e+02 4.313230514526367188e+01 1.623603630065917969e+01 6.585240960121154785e-01 1.755572438240051270e+00 7.242289781570434570e-01 1.002359271049499512e+00
2.990000000000000000e+02 4.342281341552734375e+01 2.289539909362792969e+01 1.857005953788757324e-01 2.529566764831542969e+00 8.145802021026611328e-01 1.178297996520996094e+00
3.000000000000000000e+02 4.158195877075195312e+01 2.957852172851562500e+01 -4.063420891761779785e-01 3.141231298446655273e+00 8.204667568206787109e-01 8.258814215660095215e-01
3.010000000000000000e+02 4.264385604858398438e+01 3.227060699462890625e+01 -4.505997598171234131e-01 2.874491453170776367e+00 7.271675467491149902e-01 6.351842880249023438e-01
3.020000000000000000e+02 4.320014190673828125e+01 3.526233673095703125e+01 -5.216735601425170898e-01 2.748059988021850586e+00 6.679159402847290039e-01 4.167444407939910889e-01
3.030000000000000000e+02 4.368404769897460938e+01 3.812989425659179688e+01 -5.491533279418945312e-01 2.664107799530029297e+00 6.344863772392272949e-01 2.565833628177642822e-01
3.040000000000000000e+02 4.320592117309570312e+01 4.100425720214843750e+01 -6.384565234184265137e-01 2.765147686004638672e+00 6.380074024200439453e-01 7.004469633102416992e-02
3.050000000000000000e+02 4.073342132568359375e+01 3.945647811889648438e+01 -7.461823821067810059e-01 3.025270462036132812e+00 6.837264299392700195e-01 1.294282376766204834e-01
3.060000000000000000e+02 3.995455551147460938e+01 3.632620239257812500e+01 -7.606915235519409180e-01 3.192895650863647461e+00 7.296612858772277832e-01 2.857431173324584961e-01
3.070000000000000000e+02 3.934932327270507812e+01 3.333961105346679688e+01 -7.362210750579833984e-01 3.425315856933593750e+00 8.067284226417541504e-01 4.377458393573760986e-01
3.080000000000000000e+02 3.862832641601562500e+01 3.061473846435546875e+01 -6.813112497329711914e-01 3.734438180923461914e+00 9.159381389617919922e-01 5.341126918792724609e-01
3.090000000000000000e+02 4.035945892333984375e+01 2.725201416015625000e+01 -3.345594406127929688e-01 3.636374711990356445e+00 9.905446171760559082e-01 9.570165276527404785e-01
3.100000000000000000e+02 4.121299362182617188e+01 2.029866600036621094e+01 3.824457228183746338e-01 3.615507602691650391e+00 1.199386000633239746e+00 1.317000269889831543e+00
3.110000000000000000e+02 4.243932342529296875e+01 1.891501235961914062e+01 4.782536327838897705e-01 2.745205402374267578e+00 9.670377373695373535e-01 1.255714893341064453e+00
3.120000000000000000e+02 5.339872360229492188e+01 4.106927108764648438e+01 -2.410040646791458130e-01 1.718203186988830566e+00 4.431597292423248291e-01 1.448827981948852539e-02
3.130000000000000000e+02 5.408572006225585938e+01 3.834659957885742188e+01 -1.835109293460845947e-01 1.564065098762512207e+00 4.141662418842315674e-01 4.035343229770660400e-02
3.140000000000000000e+02 5.681721115112304688e+01 3.469499206542968750e+01 -1.321358978748321533e-01 1.326592445373535156e+00 3.583369553089141846e-01 -7.649424672126770020e-02
3.150000000000000000e+02 5.992203903198242188e+01 3.334905242919921875e+01 -2.213123142719268799e-01 1.309093952178955078e+00 3.263345062732696533e-01 -1.910244971513748169e-01
3.160000000000000000e+02 6.491084289550781250e+01 2.850268363952636719e+01 -4.317414462566375732e-01 1.550095796585083008e+00 3.355062901973724365e-01 1.633271807804703712e-03
3.170000000000000000e+02 6.951780700683593750e+01 2.245759391784667969e+01 5.453290045261383057e-02 1.156080842018127441e+00 3.631841242313385010e-01 5.869035720825195312e-01
3.180000000000000000e+02 7.259158325195312500e+01 2.046347427368164062e+01 1.514158546924591064e-01 1.844541728496551514e-01 1.007610112428665161e-01 5.732052922248840332e-01
3.190000000000000000e+02 7.529053497314453125e+01 1.798508453369140625e+01 1.108874008059501648e-01 -8.460943102836608887e-01 -2.205620706081390381e-01 3.772635161876678467e-01
3.200000000000000000e+02 7.935717010498046875e+01 1.515159416198730469e+01 1.048385258764028549e-02 -2.686493873596191406e+00 -8.028030395507812500e-01 4.309082776308059692e-02
3.210000000000000000e+02 7.806143951416015625e+01 1.794817543029785156e+01 2.733653783798217773e-02 -1.907237291336059570e+00 -5.639702081680297852e-01 1.959668993949890137e-01
3.220000000000000000e+02 7.936354064941406250e+01 1.795552635192871094e+01 4.773175809532403946e-03 -2.449197530746459961e+00 -7.333273291587829590e-01 6.945427507162094116e-02
3.230000000000000000e+02 7.805076599121093750e+01 2.208127975463867188e+01 6.085645407438278198e-03 -1.494821310043334961e+00 -4.466207027435302734e-01 2.573926150798797607e-01
3.240000000000000000e+02 7.548652648925781250e+01 2.321195602416992188e+01 -1.437053084373474121e-02 -6.401765942573547363e-01 -1.963641345500946045e-01 4.648532569408416748e-01
3.250000000000000000e+02 7.153092956542968750e+01 2.720883941650390625e+01 -2.034032344818115234e-01 5.235183835029602051e-01 9.603454172611236572e-02 4.955597519874572754e-01
3.260000000000000000e+02 6.799558258056640625e+01 2.956985282897949219e+01 -3.694635927677154541e-01 1.108687162399291992e+00 2.217670828104019165e-01 2.642550766468048096e-01
3.270000000000000000e+02 6.398218917846679688e+01 3.516831970214843750e+01 -3.107809126377105713e-01 1.124796271324157715e+00 2.442045956850051880e-01 -1.492909528315067291e-02
3.280000000000000000e+02 6.108179092407226562e+01 3.631462860107421875e+01 -2.702431976795196533e-01 1.257268905639648438e+00 2.961077094078063965e-01 -7.742887735366821289e-02
3.290000000000000000e+02 5.786314392089843750e+01 4.091114807128906250e+01 -2.330205738544464111e-01 1.393156170845031738e+00 3.480406701564788818e-01 -1.500486396253108978e-02
3.300000000000000000e+02 6.189784622192382812e+01 1.935949707031250000e+01 1.108198642730712891e+00 4.618143558502197266e+00 1.717902660369873047e+00 -1.583615660667419434e+00
3.310000000000000000e+02 6.226599884033203125e+01 1.804087448120117188e+01 6.845940947532653809e-01 5.923986434936523438e+00 1.982574105262756348e+00 -1.206233978271484375e+00
3.320000000000000000e+02 6.245193862915039062e+01 1.365549087524414062e+01 1.792167425155639648e-01 5.854712009429931641e+00 1.810178518295288086e+00 1.932843178510665894e-01
3.330000000000000000e+02 6.244545745849609375e+01 1.661053657531738281e+01 3.335188031196594238e-01 6.007326602935791016e+00 1.902253627777099609e+00 -5.334995388984680176e-01
3.340000000000000000e+02 6.568325805664062500e+01 1.186992549896240234e+01 5.804596543312072754e-01 3.335509538650512695e+00 1.174790740013122559e+00 2.308358103036880493e-01
3.350000000000000000e+02 7.024572753906250000e+01 7.166043281555175781e+00 4.721983671188354492e-01 8.343448042869567871e-01 3.919629454612731934e-01 -2.168827056884765625e-01
3.360000000000000000e+02 7.565618133544921875e+01 4.238147735595703125e+00 9.176882356405258179e-02 -9.844180941581726074e-01 -2.677947878837585449e-01 -3.905899524688720703e-01
3.370000000000000000e+02 7.939327239990234375e+01 1.222858548164367676e+00 9.700803086161613464e-03 -1.858061671257019043e+00 -5.545082688331604004e-01 -8.703840523958206177e-02
3.380000000000000000e+02 7.814048767089843750e+01 4.107497215270996094e+00 1.465093530714511871e-02 -1.812413215637207031e+00 -5.393286943435668945e-01 -2.139474451541900635e-01
3.390000000000000000e+02 7.938127136230468750e+01 4.002153873443603516e+00 1.162396278232336044e-02 -2.255662441253662109e+00 -6.732115149497985840e-01 -7.181355357170104980e-02
3.400000000000000000e+02 7.936639404296875000e+01 6.781874656677246094e+00 1.436409354209899902e-02 -2.561929464340209961e+00 -7.642695903778076172e-01 -4.856409132480621338e-02
3.410000000000000000e+02 7.531663513183593750e+01 1.089645576477050781e+01 1.790087521076202393e-01 -1.022460579872131348e+00 -2.530355751514434814e-01 -4.566729441285133362e-02
3.420000000000000000e+02 7.129081726074218750e+01 1.383884429931640625e+01 4.570850431919097900e-01 5.631061792373657227e-01 3.060573637485504150e-01 1.854231506586074829e-01
3.430000000000000000e+02 6.669684600830078125e+01 1.696796226501464844e+01 6.573294997215270996e-01 2.515834093093872070e+00 9.519490599632263184e-01 2.121463268995285034e-01
3.440000000000000000e+02 6.190193939208984375e+01 2.087439918518066406e+01 7.754783034324645996e-01 3.391937971115112305e+00 1.250224828720092773e+00 -1.047717332839965820e+00
3.450000000000000000e+02 5.912549209594726562e+01 2.175410652160644531e+01 4.954302310943603516e-01 6.841334104537963867e-01 3.538690805435180664e-01 -8.202987313270568848e-01
3.460000000000000000e+02 6.043612670898437500e+01 2.122038841247558594e+01 1.122344136238098145e+00 2.422465562820434570e+00 1.063442945480346680e+00 -1.384007334709167480e+00
3.470000000000000000e+02 5.957570648193359375e+01 2.339100265502929688e+01 -8.553897496312856674e-04 1.592683672904968262e+00 4.775484800338745117e-01 -1.144580245018005371e+00
3.480000000000000000e+02 4.977973556518554688e+01 3.370627212524414062e+01 -1.116330251097679138e-01 1.756089448928833008e+00 4.933369159698486328e-01 3.164837062358856201e-01
3.490000000000000000e+02 4.696186065673828125e+01 3.752487182617187500e+01 -3.777434229850769043e-01 2.283001661300659180e+00 5.715774297714233398e-01 2.654772996902465820e-01
3.500000000000000000e+02 4.652531814575195312e+01 3.445380020141601562e+01 -2.915271818637847900e-01 2.256013393402099609e+00 5.893458724021911621e-01 4.464738965034484863e-01
3.510000000000000000e+02 4.605888366699218750e+01 3.151827812194824219e+01 -1.995359808206558228e-01 2.233706712722778320e+00 6.102511882781982422e-01 6.335658431053161621e-01
3.520000000000000000e+02 4.865707397460937500e+01 2.665921401977539062e+01 1.090436205267906189e-01 1.278510689735412598e+00 4.162662923336029053e-01 6.206562519073486328e-01
3.530000000000000000e+02 5.483831405639648438e+01 2.395497894287109375e+01 -2.304006181657314301e-02 1.838871091604232788e-01 4.825411364436149597e-02 -2.019426375627517700e-01
3.540000000000000000e+02 5.768802642822265625e+01 2.193117713928222656e+01 -3.002980649471282959e-01 1.271142512559890747e-01 -5.195514485239982605e-02 -3.744766414165496826e-01
3.550000000000000000e+02 5.803833770751953125e+01 2.374342918395996094e+01 1.493826359510421753e-01 5.844601392745971680e-01 2.201528400182723999e-01 -8.228924870491027832e-01
3.560000000000000000e+02 5.864901733398437500e+01 2.563466453552246094e+01 -9.737468510866165161e-02 1.215007066726684570e+00 3.352897167205810547e-01 -7.945388555526733398e-01
3.570000000000000000e+02 6.224457931518554688e+01 1.223684978485107422e+01 1.263915598392486572e-01 5.881792545318603516e+00 1.802455306053161621e+00 5.191709399223327637e-01
3.580000000000000000e+02 6.445742034912109375e+01 1.190990734100341797e+01 5.308818221092224121e-01 4.141808986663818359e+00 1.401807188987731934e+00 3.684417903423309326e-01
3.590000000000000000e+02 6.785462951660156250e+01 9.520817756652832031e+00 6.352710723876953125e-01 1.969921827316284180e+00 7.815578579902648926e-01 4.663769528269767761e-02
3.600000000000000000e+02 7.300368499755859375e+01 3.194979667663574219e+00 2.109640240669250488e-01 -1.426221728324890137e-01 2.050255239009857178e-02 -5.116632580757141113e-01
3.610000000000000000e+02 7.569631958007812500e+01 3.440976738929748535e-01 5.412421002984046936e-02 -7.854295372962951660e-01 -2.193915992975234985e-01 -4.995063245296478271e-01
3.620000000000000000e+02 7.939754486083984375e+01 -1.557319521903991699e+00 6.827353034168481827e-03 -1.406703114509582520e+00 -4.199627339839935303e-01 -9.486948698759078979e-02
3.630000000000000000e+02 7.939643096923828125e+01 -1.665722280740737915e-01 -4.109736066311597824e-03 -1.636777400970458984e+00 -4.922661483287811279e-01 -9.088932722806930542e-02
3.640000000000000000e+02 6.401004791259765625e+01 1.528899097442626953e+01 4.692355990409851074e-01 4.595040321350097656e+00 1.519282698631286621e+00 -1.248225048184394836e-01
3.650000000000000000e+02 6.207764434814453125e+01 1.085142517089843750e+01 1.906155347824096680e-01 5.923006534576416016e+00 1.834086656570434570e+00 7.610478401184082031e-01
3.660000000000000000e+02 6.161264038085937500e+01 8.123041152954101562e+00 4.453516304492950439e-01 5.315661907196044922e+00 1.728304147720336914e+00 1.416648268699645996e+00
3.670000000000000000e+02 6.048443603515625000e+01 4.779201030731201172e+00 1.345287799835205078e+00 4.166183471679687500e+00 1.653441429138183594e+00 1.947593808174133301e+00
3.680000000000000000e+02 5.969084167480468750e+01 1.706910610198974609e+00 8.432012796401977539e-01 2.704247951507568359e+00 1.064234733581542969e+00 1.522721767425537109e+00
3.690000000000000000e+02 6.225273132324218750e+01 4.671433269977569580e-01 5.261749029159545898e-01 2.258867263793945312e+00 8.355126380920410156e-01 6.638711690902709961e-01
3.700000000000000000e+02 6.183034515380859375e+01 -2.520595550537109375e+00 1.924127191305160522e-01 1.688942790031433105e+00 5.644066333770751953e-01 5.269952416419982910e-01
3.710000000000000000e+02 6.040353012084960938e+01 -6.599825859069824219e+00 -3.324296474456787109e-01 1.180339694023132324e+00 2.543730139732360840e-01 6.938465833663940430e-01
3.720000000000000000e+02 6.245956420898437500e+01 -1.088640785217285156e+01 -1.006983876228332520e+00 1.703033000230789185e-01 -2.510041594505310059e-01 4.103679656982421875e-01
3.730000000000000000e+02 5.832001113891601562e+01 -1.424704742431640625e+01 -8.309619873762130737e-02 1.461539044976234436e-02 -2.054424397647380829e-02 1.419271230697631836e-01
3.740000000000000000e+02 6.085363006591796875e+01 -1.336659049987792969e+01 -6.521169543266296387e-01 -5.480528343468904495e-03 -1.972792297601699829e-01 -7.771400362253189087e-02
3.750000000000000000e+02 5.900854110717773438e+01 -1.267108249664306641e+01 -3.757346272468566895e-01 2.814224362373352051e-01 -2.829366177320480347e-02 4.114053547382354736e-01
3.760000000000000000e+02 6.329120254516601562e+01 -1.211308765411376953e+01 -2.051820039749145508e+00 -2.340141534805297852e-01 -6.857503056526184082e-01 -1.695059537887573242e-01
3.770000000000000000e+02 6.637857055664062500e+01 -1.144803714752197266e+01 -1.191082715988159180e+00 5.995802581310272217e-02 -3.393374085426330566e-01 -2.385121583938598633e-01
3.780000000000000000e+02 6.546913146972656250e+01 -1.237502670288085938e+01 -1.887573480606079102e+00 -2.995095252990722656e-01 -6.561248898506164551e-01 3.758555650711059570e-01
3.790000000000000000e+02 6.497494506835937500e+01 -5.683872699737548828e+00 -2.019367367029190063e-01 7.021392583847045898e-01 1.500607579946517944e-01 -1.139913573861122131e-01
3.800000000000000000e+02 6.267346191406250000e+01 -2.051206350326538086e+00 1.855849474668502808e-01 1.628055572509765625e+00 5.440921783447265625e-01 3.312995135784149170e-01
3.810000000000000000e+02 6.489079284667968750e+01 6.244065761566162109e-01 3.313015699386596680e-01 1.778890609741210938e+00 6.330576539039611816e-01 7.595512270927429199e-02
3.820000000000000000e+02 6.383537292480468750e+01 4.467544078826904297e+00 8.123610019683837891e-01 2.945145845413208008e+00 1.127252101898193359e+00 5.144779682159423828e-01
3.830000000000000000e+02 6.431812286376953125e+01 7.115050792694091797e+00 7.180322408676147461e-01 3.405053615570068359e+00 1.236925721168518066e+00 4.742745757102966309e-01
3.840000000000000000e+02 6.555040740966796875e+01 1.067283344268798828e+01 6.278395056724548340e-01 3.305700778961181641e+00 1.180062055587768555e+00 3.213466107845306396e-01
3.850000000000000000e+02 6.302860260009765625e+01 9.438728332519531250e+00 5.556243658065795898e-01 4.733966827392578125e+00 1.586877465248107910e+00 7.648569345474243164e-01
3.860000000000000000e+02 5.875162124633789062e+01 2.714970588684082031e+00 1.263601779937744141e+00 2.775454044342041016e+00 1.211716771125793457e+00 1.796414732933044434e+00
3.870000000000000000e+02 5.790736389160156250e+01 1.613046050071716309e+00 1.069326996803283691e+00 2.503506660461425781e+00 1.071850061416625977e+00 1.733378529548645020e+00
3.880000000000000000e+02 5.741400527954101562e+01 -3.292982816696166992e+00 3.346640467643737793e-01 1.964125514030456543e+00 6.896368861198425293e-01 1.022529840469360352e+00
3.890000000000000000e+02 5.640835571289062500e+01 -2.566770076751708984e+00 6.663084030151367188e-01 2.068601131439208984e+00 8.204728364944458008e-01 1.250473499298095703e+00
3.900000000000000000e+02 5.679035186767578125e+01 -7.382353782653808594e+00 -6.461668014526367188e-01 1.548512220382690430e+00 2.707036435604095459e-01 1.345818519592285156e+00
3.910000000000000000e+02 5.838101196289062500e+01 -1.151169395446777344e+01 -3.228593170642852783e-01 6.094971299171447754e-01 8.599134534597396851e-02 7.850190401077270508e-01
3.920000000000000000e+02 5.436154174804687500e+01 -1.468812847137451172e+01 1.640300631523132324e+00 1.794118732213973999e-01 5.459137558937072754e-01 4.995151758193969727e-01
3.930000000000000000e+02 5.449514389038085938e+01 -2.876671314239501953e+00 9.394384026527404785e-01 1.715761899948120117e+00 7.965601086616516113e-01 1.412640571594238281e+00
3.940000000000000000e+02 5.386991119384765625e+01 -8.021003723144531250e+00 -9.849510788917541504e-01 1.442359805107116699e+00 1.372226029634475708e-01 2.071860313415527344e+00
3.950000000000000000e+02 4.949873733520507812e+01 -5.553902149200439453e+00 -5.581471443176269531e+00 -4.084160029888153076e-01 -1.796966195106506348e+00 9.929952621459960938e-01
3.960000000000000000e+02 4.991193008422851562e+01 -6.959939002990722656e+00 -2.108651399612426758e+00 -1.609238088130950928e-01 -6.808726191520690918e-01 1.819053888320922852e+00
3.970000000000000000e+02 4.823348617553710938e+01 -6.184380054473876953e+00 -4.470919132232666016e+00 -4.345336854457855225e-01 -1.471635818481445312e+00 1.172980546951293945e+00
3.980000000000000000e+02 4.612551116943359375e+01 -4.741023063659667969e+00 -5.239083766937255859e+00 -1.565916985273361206e-01 -1.618702650070190430e+00 1.405379652976989746e+00
3.990000000000000000e+02 4.354548645019531250e+01 -3.791186571121215820e+00 -3.454549074172973633e+00 3.554904460906982422e-01 -9.297176003456115723e-01 3.210266828536987305e-01
4.000000000000000000e+02 4.230206298828125000e+01 -3.144427537918090820e+00 -9.438415765762329102e-01 1.550767540931701660e+00 1.820777952671051025e-01 -9.865252971649169922e-01
4.010000000000000000e+02 3.548359298706054688e+01 -2.200748920440673828e+00 -4.483462870121002197e-01 1.140067863464355469e+01 3.285699605941772461e+00 8.487368822097778320e-01
4.020000000000000000e+02 3.238478088378906250e+01 -1.146961450576782227e+00 2.051301002502441406e+00 4.268990039825439453e+00 1.896087288856506348e+00 2.108927249908447266e+00
4.030000000000000000e+02 3.086958885192871094e+01 -1.768923878669738770e+00 1.725498080253601074e+00 1.981473803520202637e+00 1.112091541290283203e+00 1.256120204925537109e+00
4.040000000000000000e+02 2.501933860778808594e+01 -3.897720575332641602e+00 2.212542444467544556e-01 5.583266913890838623e-02 8.312607556581497192e-02 9.713472723960876465e-01
4.050000000000000000e+02 2.334063339233398438e+01 -2.077997207641601562e+00 3.903261944651603699e-02 5.714441835880279541e-02 2.885311096906661987e-02 5.796136856079101562e-01
4.060000000000000000e+02 1.813337326049804688e+01 -2.370685100555419922e+00 -6.784483194351196289e-01 1.492211669683456421e-01 -1.587681472301483154e-01 3.263245820999145508e-01
4.070000000000000000e+02 1.495548915863037109e+01 -1.775202989578247070e+00 -1.069431900978088379e+00 5.200133845210075378e-02 -3.052291572093963623e-01 1.287236809730529785e-02
4.080000000000000000e+02 1.189680099487304688e+01 -1.855063438415527344e+00 -1.017229437828063965e+00 3.475428372621536255e-02 -2.947425544261932373e-01 -1.725565791130065918e-01
4.090000000000000000e+02 9.606474876403808594e+00 -1.881841301918029785e+00 -8.311483860015869141e-01 2.318950742483139038e-02 -2.423876523971557617e-01 -2.577755451202392578e-01
4.100000000000000000e+02 5.742506980895996094e+00 -2.544393062591552734e+00 -3.566575050354003906e-01 -4.164085537195205688e-02 -1.194895058870315552e-01 -3.336017131805419922e-01
4.110000000000000000e+02 1.207090377807617188e+00 -2.100358724594116211e+00 -3.108699060976505280e-02 -8.119134604930877686e-02 -3.368350118398666382e-02 -6.128656864166259766e-02
4.120000000000000000e+02 5.355163812637329102e-01 -3.576781988143920898e+00 -1.709356904029846191e-02 -1.706320345401763916e-01 -5.631768330931663513e-02 -6.008761376142501831e-02
4.130000000000000000e+02 4.050070190429687500e+01 -1.477194666862487793e+00 2.062532186508178711e+00 4.714787483215332031e+00 2.033195972442626953e+00 -3.344715595245361328e+00
4.140000000000000000e+02 3.802465057373046875e+01 -7.890030741691589355e-01 8.721778392791748047e-01 1.614719963073730469e+01 5.105813026428222656e+00 -4.868909358978271484e+00
4.150000000000000000e+02 3.630055999755859375e+01 -9.048502892255783081e-02 4.981872558593750000e+00 1.552816677093505859e+01 6.153011798858642578e+00 1.273617506027221680e+00
4.160000000000000000e+02 3.473008346557617188e+01 -1.621984124183654785e+00 8.280521631240844727e-01 9.984291076660156250e+00 3.243702888488769531e+00 1.622991800308227539e+00
4.170000000000000000e+02 3.465290832519531250e+01 1.184869289398193359e+00 3.244046449661254883e+00 1.108534240722656250e+01 4.298816680908203125e+00 -2.824705541133880615e-01
4.180000000000000000e+02 3.556083297729492188e+01 5.220639109611511230e-01 5.254497051239013672e+00 1.322448825836181641e+01 5.543695449829101562e+00 2.872780561447143555e-01
4.190000000000000000e+02 3.393305969238281250e+01 2.069718122482299805e+00 1.775742650032043457e+00 1.138964366912841797e+01 3.949615716934204102e+00 5.988682508468627930e-01
4.200000000000000000e+02 3.293787384033203125e+01 1.381291866302490234e+00 2.006746530532836914e+00 6.298108100891113281e+00 2.491456508636474609e+00 2.282299518585205078e+00
4.210000000000000000e+02 4.024856567382812500e+01 -3.878233134746551514e-01 1.916062474250793457e+00 2.237030267715454102e+00 1.245927810668945312e+00 -2.262101650238037109e+00
4.220000000000000000e+02 3.180296325683593750e+01 -8.954313278198242188e+00 -2.044394016265869141e+00 1.214468002319335938e+00 -2.489778250455856323e-01 -5.869705975055694580e-02
4.230000000000000000e+02 3.268377304077148438e+01 -9.898838996887207031e+00 2.323501557111740112e-01 3.189218759536743164e+00 1.026470661163330078e+00 -1.387288331985473633e+00
4.240000000000000000e+02 3.318025588989257812e+01 -8.353324890136718750e+00 -2.297732353210449219e+00 5.786581993103027344e+00 1.046654939651489258e+00 -1.387945055961608887e+00
4.250000000000000000e+02 3.270271301269531250e+01 -7.401412487030029297e+00 -2.031055688858032227e+00 4.694213390350341797e+00 7.989472150802612305e-01 -1.131162643432617188e+00
4.260000000000000000e+02 3.330226135253906250e+01 -1.699871420860290527e+00 1.173961520195007324e+00 6.823153495788574219e+00 2.399134635925292969e+00 2.113925457000732422e+00
4.270000000000000000e+02 3.384024810791015625e+01 -9.331282615661621094e+00 -1.920146822929382324e+00 6.614281177520751953e+00 1.408240318298339844e+00 -1.336644768714904785e+00
4.280000000000000000e+02 3.518055343627929688e+01 -1.490421104431152344e+01 9.498891830444335938e-01 1.129335117340087891e+01 3.672971963882446289e+00 -2.479060411453247070e+00
4.290000000000000000e+02 3.880014419555664062e+01 -1.446535968780517578e+01 1.246935009956359863e+00 7.867455482482910156e+00 2.734317302703857422e+00 -1.791674733161926270e+00
4.300000000000000000e+02 4.399860382080078125e+01 -2.197746658325195312e+01 1.190641760826110840e+00 1.155754947662353516e+01 3.824457406997680664e+00 -8.755356073379516602e-01
4.310000000000000000e+02 4.286019515991210938e+01 -2.049306106567382812e+01 1.974221229553222656e+00 9.668904304504394531e+00 3.492937564849853516e+00 -3.818646371364593506e-01
4.320000000000000000e+02 4.540697479248046875e+01 -1.924419593811035156e+01 1.591872096061706543e+00 1.328735351562500000e+01 4.463767528533935547e+00 2.157477855682373047e+00
4.330000000000000000e+02 4.613247299194335938e+01 -1.725995445251464844e+01 3.729170799255371094e+00 8.831397056579589844e+00 3.768170356750488281e+00 4.058191299438476562e+00
4.340000000000000000e+02 4.710118484497070312e+01 -1.630630111694335938e+01 4.878606796264648438e+00 4.775378227233886719e+00 2.896195650100708008e+00 4.129417419433593750e+00
4.350000000000000000e+02 4.818190765380859375e+01 -1.555675792694091797e+01 5.746908664703369141e+00 2.821104049682617188e+00 2.570403814315795898e+00 2.843485355377197266e+00
4.360000000000000000e+02 4.904165267944335938e+01 -1.451706409454345703e+01 4.289250373840332031e+00 1.800875902175903320e+00 1.827037930488586426e+00 2.064934015274047852e+00
4.370000000000000000e+02 5.179114913940429688e+01 -1.345651245117187500e+01 2.526591062545776367e+00 4.998220205307006836e-01 9.079239368438720703e-01 1.594693064689636230e+00
4.380000000000000000e+02 5.533179473876953125e+01 -1.294158077239990234e+01 6.717698574066162109e-01 4.060790538787841797e-01 3.233546912670135498e-01 1.149085760116577148e+00
4.390000000000000000e+02 5.367764282226562500e+01 -9.379220008850097656e+00 -3.403986990451812744e-01 1.044222474098205566e+00 2.111471444368362427e-01 2.165412425994873047e+00
4.400000000000000000e+02 5.116798400878906250e+01 -6.704790592193603516e+00 -2.318060398101806641e+00 4.356774985790252686e-01 -5.647149085998535156e-01 2.104231595993041992e+00
4.410000000000000000e+02 3.355986022949218750e+01 -1.096244144439697266e+01 1.373225927352905273e+00 6.397512912750244141e+00 2.331221580505371094e+00 -2.994179964065551758e+00
4.420000000000000000e+02 3.430591964721679688e+01 -1.218191432952880859e+01 1.875224590301513672e+00 9.480532646179199219e+00 3.406727075576782227e+00 -3.584298372268676758e+00
4.430000000000000000e+02 3.648327255249023438e+01 -1.611137962341308594e+01 1.177357316017150879e+00 9.548314094543457031e+00 3.217701435089111328e+00 -1.932543158531188965e+00
4.440000000000000000e+02 4.401062774658203125e+01 -2.343486404418945312e+01 1.946152448654174805e+00 1.081170368194580078e+01 3.827356815338134766e+00 -1.436632156372070312e+00
4.450000000000000000e+02 4.559092712402343750e+01 -2.477875137329101562e+01 1.868533134460449219e+00 1.316195869445800781e+01 4.509147644042968750e+00 -3.313912868499755859e+00
4.460000000000000000e+02 4.533438110351562500e+01 -2.193968391418457031e+01 2.956442236900329590e-01 1.273894596099853516e+01 3.910377025604248047e+00 -3.242922425270080566e-01
4.470000000000000000e+02 3.561746978759765625e+01 -1.913215637207031250e+01 1.632388532161712646e-01 9.274113655090332031e+00 2.831205844879150391e+00 -3.631967306137084961e-01
4.480000000000000000e+02 3.561469650268554688e+01 -2.056408500671386719e+01 4.758644700050354004e-01 9.186998367309570312e+00 2.898858785629272461e+00 3.826118111610412598e-01
4.490000000000000000e+02 4.101408767700195312e+01 -2.391621780395507812e+01 1.882795453071594238e+00 8.249973297119140625e+00 3.039830684661865234e+00 -3.027454316616058350e-01
4.500000000000000000e+02 4.416407775878906250e+01 -2.492470359802246094e+01 2.201956987380981445e+00 1.002611923217773438e+01 3.668422698974609375e+00 -1.477142095565795898e+00
4.510000000000000000e+02 4.659928894042968750e+01 -2.993845558166503906e+01 2.884339094161987305e-01 6.002774238586425781e+00 1.887362480163574219e+00 -1.656759023666381836e+00
4.520000000000000000e+02 4.840694046020507812e+01 -2.896322631835937500e+01 2.490768671035766602e+00 3.527400255203247070e+00 1.805450677871704102e+00 -2.800789594650268555e+00
4.530000000000000000e+02 5.097841644287109375e+01 -3.203133392333984375e+01 3.676994442939758301e-01 1.751576781272888184e+00 6.357828974723815918e-01 -1.496971130371093750e+00
4.540000000000000000e+02 5.565832519531250000e+01 -3.824868011474609375e+01 2.043847441673278809e-01 8.998883366584777832e-01 3.312819302082061768e-01 -2.690959870815277100e-01
4.550000000000000000e+02 5.689558792114257812e+01 -4.108941268920898438e+01 2.482004165649414062e-01 7.801480889320373535e-01 3.085045516490936279e-01 -5.064190551638603210e-02
4.560000000000000000e+02 6.130640029907226562e+01 -4.073905181884765625e+01 2.923042178153991699e-01 1.804090738296508789e-01 1.418139785528182983e-01 5.508731584995985031e-03
4.570000000000000000e+02 6.434917449951171875e+01 -3.919990921020507812e+01 1.899289935827255249e-01 4.100085422396659851e-02 6.927895545959472656e-02 7.338809221982955933e-02
4.580000000000000000e+02 6.588465118408203125e+01 -3.669999694824218750e+01 7.902742177248001099e-02 -5.831059999763965607e-03 2.195890806615352631e-02 1.231746077537536621e-01
4.590000000000000000e+02 6.383823394775390625e+01 -3.498022842407226562e+01 1.874279230833053589e-02 3.921181708574295044e-02 1.738638244569301605e-02 1.549544930458068848e-01
4.600000000000000000e+02 6.726011657714843750e+01 -3.081741714477539062e+01 -1.078041568398475647e-01 4.409592226147651672e-02 -1.911246962845325470e-02 7.666211575269699097e-02
4.610000000000000000e+02 6.619212341308593750e+01 -2.684959220886230469e+01 -9.735029190778732300e-02 9.406139724887907505e-05 -2.917687036097049713e-02 -1.437090057879686356e-02
4.620000000000000000e+02 6.822642517089843750e+01 -2.190473175048828125e+01 -1.003796700388193130e-02 3.427611198276281357e-03 -1.983106601983308792e-03 3.304095473140478134e-03
4.630000000000000000e+02 6.848647308349609375e+01 -1.883320617675781250e+01 -2.456591464579105377e-03 3.617952577769756317e-03 3.484082990325987339e-04 2.199380192905664444e-03
4.640000000000000000e+02 7.382614898681640625e+01 -2.126392745971679688e+01 -7.119615096598863602e-03 -5.056678783148527145e-04 -2.287584822624921799e-03 -8.266959339380264282e-04
4.650000000000000000e+02 7.957631683349609375e+01 -1.993943595886230469e+01 1.825526589527726173e-03 2.575051505118608475e-03 1.320173381827771664e-03 -8.917108643800020218e-04
4.660000000000000000e+02 7.901534271240234375e+01 -1.852111244201660156e+01 6.526384968310594559e-04 1.509673311375081539e-03 6.486935308203101158e-04 -9.999910835176706314e-04
4.670000000000000000e+02 7.759303283691406250e+01 -2.024004745483398438e+01 3.663002280518412590e-03 -8.216447167797014117e-05 1.074251369573175907e-03 -2.608336973935365677e-03
4.680000000000000000e+02 7.773439788818359375e+01 -1.837566184997558594e+01 2.167135709896683693e-03 1.912282459670677781e-04 7.075091707520186901e-04 -1.800316968001425266e-03
4.690000000000000000e+02 7.578271484375000000e+01 -1.822519111633300781e+01 1.675972634984645993e-05 -7.950371946208178997e-04 -2.334832388442009687e-04 -5.075327353551983833e-04
4.700000000000000000e+02 7.572680664062500000e+01 -1.896982192993164062e+01 1.840358949266374111e-03 -2.840904053300619125e-04 4.668805631808936596e-04 -1.336499932222068310e-03
4.710000000000000000e+02 3.673030853271484375e+01 -2.209039306640625000e+01 1.403884172439575195e+00 8.056154251098632812e+00 2.838011503219604492e+00 7.603625655174255371e-01
4.720000000000000000e+02 4.273200607299804688e+01 -2.979130172729492188e+01 7.442966103553771973e-02 6.992967128753662109e+00 2.120218992233276367e+00 -2.425012141466140747e-01
4.730000000000000000e+02 4.784064865112304688e+01 -3.847379302978515625e+01 -8.099788427352905273e-01 3.882038831710815430e+00 9.216179847717285156e-01 -6.340747475624084473e-01
4.740000000000000000e+02 5.225231170654296875e+01 -4.125188064575195312e+01 -1.688127368688583374e-01 2.123224020004272461e+00 5.863233804702758789e-01 -1.825979351997375488e-01
4.750000000000000000e+02 3.513885498046875000e+01 -2.359469032287597656e+01 1.465563297271728516e+00 7.305908679962158203e+00 2.631441593170166016e+00 2.183355093002319336e+00
4.760000000000000000e+02 3.606985855102539062e+01 -2.828246688842773438e+01 3.381258249282836914e-01 5.301745414733886719e+00 1.691961288452148438e+00 1.172897815704345703e+00
4.770000000000000000e+02 3.299089431762695312e+01 -3.141488456726074219e+01 -8.581542968750000000e-02 3.147880315780639648e+00 9.186194539070129395e-01 1.338032960891723633e+00
4.780000000000000000e+02 3.339919662475585938e+01 -3.356785964965820312e+01 -3.729232847690582275e-01 3.458871364593505859e+00 9.257844090461730957e-01 1.145360589027404785e+00
4.790000000000000000e+02 3.331407928466796875e+01 -3.765917205810546875e+01 -5.442429184913635254e-01 3.361713647842407227e+00 8.452411890029907227e-01 6.670269370079040527e-01
4.800000000000000000e+02 3.249214172363281250e+01 -4.086470794677734375e+01 -5.389010906219482422e-01 3.059924125671386719e+00 7.563068866729736328e-01 2.206621915102005005e-01
4.810000000000000000e+02 3.693867492675781250e+01 -4.110167694091796875e+01 -1.123098254203796387e+00 4.448874473571777344e+00 9.977328777313232422e-01 1.191184818744659424e-01
4.820000000000000000e+02 3.684169387817382812e+01 -3.836907577514648438e+01 -1.037236094474792480e+00 4.469098567962646484e+00 1.029558777809143066e+00 3.749971687793731689e-01
4.830000000000000000e+02 3.772008514404296875e+01 -3.556528854370117188e+01 -9.283546805381774902e-01 4.894065856933593750e+00 1.189713358879089355e+00 6.017839312553405762e-01
4.840000000000000000e+02 3.990991973876953125e+01 -3.153208732604980469e+01 -4.848956465721130371e-01 6.162909507751464844e+00 1.703404188156127930e+00 5.093120932579040527e-01
4.850000000000000000e+02 3.967140960693359375e+01 -2.825572586059570312e+01 4.516642093658447266e-01 6.643898487091064453e+00 2.128668785095214844e+00 5.055078268051147461e-01
4.860000000000000000e+02 3.747316360473632812e+01 -2.752330970764160156e+01 4.947860836982727051e-01 6.134720802307128906e+00 1.988852024078369141e+00 9.461432695388793945e-01
4.870000000000000000e+02 6.391829252243041992e-01 -1.209766197204589844e+01 7.002806290984153748e-03 -1.476006984710693359e+00 -4.407012462615966797e-01 -8.365859091281890869e-02
4.880000000000000000e+02 3.329027175903320312e+00 -1.073460388183593750e+01 6.347411870956420898e-02 -6.986289620399475098e-01 -1.905464529991149902e-01 -4.006495475769042969e-01
4.890000000000000000e+02 6.980893135070800781e+00 -1.179925155639648438e+01 2.555258870124816895e-01 -3.484998643398284912e-02 6.620276719331741333e-02 -4.681067168712615967e-01
4.900000000000000000e+02 1.217888736724853516e+01 -1.187949943542480469e+01 5.876781344413757324e-01 1.197557091712951660e+00 5.355705618858337402e-01 -1.100719645619392395e-01
4.910000000000000000e+02 1.549359607696533203e+01 -1.274020957946777344e+01 1.406282067298889160e+00 2.052530527114868164e+00 1.037643790245056152e+00 1.148185491561889648e+00
4.920000000000000000e+02 1.943889808654785156e+01 -7.908047676086425781e+00 2.199486941099166870e-01 5.783359408378601074e-01 2.394853979349136353e-01 7.507068514823913574e-01
4.930000000000000000e+02 1.965464973449707031e+01 -1.423977136611938477e+00 -6.148513555526733398e-01 9.227631241083145142e-02 -1.567725092172622681e-01 3.056114912033081055e-01
4.940000000000000000e+02 3.137182950973510742e+00 -1.351249885559082031e+01 9.634393453598022461e-02 -9.223948121070861816e-01 -2.478152662515640259e-01 -2.699858546257019043e-01
4.950000000000000000e+02 9.598212242126464844e+00 -1.439645671844482422e+01 6.025425791740417480e-01 7.381172776222229004e-01 4.021979570388793945e-01 -1.935897022485733032e-01
4.960000000000000000e+02 1.349150562286376953e+01 -1.459721279144287109e+01 9.506161808967590332e-01 2.234946012496948242e+00 9.556686282157897949e-01 4.467405676841735840e-01
4.970000000000000000e+02 1.531905078887939453e+01 -1.395860004425048828e+01 1.286578536033630371e+00 2.762517213821411133e+00 1.214728713035583496e+00 1.526748299598693848e+00
4.980000000000000000e+02 1.925217056274414062e+01 -1.014135742187500000e+01 9.159489274024963379e-01 5.850064754486083984e-01 4.502866268157958984e-01 8.138234019279479980e-01
4.990000000000000000e+02 2.405961990356445312e+01 -9.044049263000488281e+00 1.241404339671134949e-01 2.305108606815338135e-01 1.063953861594200134e-01 3.586601912975311279e-01
5.000000000000000000e+02 2.567659568786621094e+01 -9.395372390747070312e+00 3.145797550678253174e-02 1.955009549856185913e-01 6.808767467737197876e-02 1.515008509159088135e-01
5.010000000000000000e+02 2.894911003112792969e+01 -6.529168128967285156e+00 -7.669049501419067383e-01 -1.785569041967391968e-01 -2.836385369300842285e-01 1.215446352958679199e+00
5.020000000000000000e+02 2.790980911254882812e+01 -6.287542343139648438e+00 -8.273143172264099121e-01 9.019201993942260742e-02 -2.211366742849349976e-01 1.329916238784790039e+00
5.030000000000000000e+02 2.588996887207031250e+01 -2.289443731307983398e+00 6.221571564674377441e-01 -7.404547184705734253e-02 1.644335091114044189e-01 7.041320800781250000e-01
5.040000000000000000e+02 2.635187721252441406e+01 -6.858708381652832031e+00 -5.411976575851440430e-01 2.711932063102722168e-01 -8.100134134292602539e-02 1.057054638862609863e+00
5.050000000000000000e+02 2.746335983276367188e+01 -7.587895393371582031e+00 -1.510398387908935547e+00 8.350444585084915161e-02 -4.280681908130645752e-01 6.212636828422546387e-01
5.060000000000000000e+02 2.315768432617187500e+01 -7.628334045410156250e+00 -2.306043729186058044e-02 3.188841938972473145e-01 8.874712884426116943e-02 7.173719406127929688e-01
5.070000000000000000e+02 2.303191184997558594e+01 -1.416762113571166992e+00 -3.942716121673583984e-02 7.004016637802124023e-02 9.183902293443679810e-03 4.380864202976226807e-01
5.080000000000000000e+02 9.093745231628417969e+00 -1.555020332336425781e+01 6.047061681747436523e-01 6.312678456306457520e-01 3.707922101020812988e-01 -1.325100660324096680e-01
5.090000000000000000e+02 1.349633312225341797e+01 -1.698041534423828125e+01 5.079896450042724609e-01 2.878089904785156250e+00 1.015823841094970703e+00 3.555451631546020508e-01
5.100000000000000000e+02 1.451150608062744141e+01 -1.689243698120117188e+01 2.865886688232421875e-01 4.069359302520751953e+00 1.306784391403198242e+00 5.680466294288635254e-01
5.110000000000000000e+02 1.475566196441650391e+01 -1.507474613189697266e+01 8.456894755363464355e-01 3.575351715087890625e+00 1.326312422752380371e+00 1.234220623970031738e+00
5.120000000000000000e+02 2.164283370971679688e+01 -2.956433105468750000e+01 -3.342459201812744141e-01 3.077356517314910889e-01 -7.953081279993057251e-03 -1.458701640367507935e-01
5.130000000000000000e+02 2.097850227355957031e+01 -2.843425750732421875e+01 -1.334150284528732300e-01 2.837978303432464600e-01 4.511483758687973022e-02 -1.740187555551528931e-01
5.140000000000000000e+02 1.911373519897460938e+01 -2.649795913696289062e+01 3.101055324077606201e-01 5.355784893035888672e-01 2.537052035331726074e-01 -4.201884567737579346e-01
5.150000000000000000e+02 2.264823913574218750e+01 -3.275825500488281250e+01 -1.227926835417747498e-01 4.825926721096038818e-01 1.079399958252906799e-01 -2.373130321502685547e-01
5.160000000000000000e+02 2.070991134643554688e+01 -3.688424682617187500e+01 4.534212499856948853e-02 6.277987360954284668e-01 2.019422501325607300e-01 -1.957176625728607178e-01
5.170000000000000000e+02 1.939245986938476562e+01 -3.961943817138671875e+01 1.625159755349159241e-02 6.311697959899902344e-01 1.942264139652252197e-01 -9.437616914510726929e-02
5.180000000000000000e+02 1.679326629638671875e+01 -4.118595504760742188e+01 -2.225202322006225586e-02 5.599344372749328613e-01 1.613047271966934204e-01 -3.324535861611366272e-02
5.190000000000000000e+02 2.304623031616210938e+01 -4.082563781738281250e+01 1.383184492588043213e-01 8.443521857261657715e-01 2.948012053966522217e-01 -2.249663136899471283e-02
5.200000000000000000e+02 2.383660125732421875e+01 -3.775135803222656250e+01 1.139756813645362854e-01 8.598019480705261230e-01 2.921332716941833496e-01 -3.005696460604667664e-02
5.210000000000000000e+02 2.191062164306640625e+01 -3.462028503417968750e+01 -2.943844161927700043e-02 5.599719285964965820e-01 1.591600477695465088e-01 -2.511374056339263916e-01
5.220000000000000000e+02 2.572639846801757812e+01 -3.014849281311035156e+01 -7.710652351379394531e-01 1.312937773764133453e-02 -2.273807525634765625e-01 4.250383004546165466e-02
5.230000000000000000e+02 2.350865554809570312e+01 -3.139456558227539062e+01 -2.950291931629180908e-01 2.281752973794937134e-01 -2.005616202950477600e-02 -2.147148996591567993e-01
5.240000000000000000e+02 2.293756866455078125e+01 -2.928685760498046875e+01 -4.965472519397735596e-01 5.662959069013595581e-02 -1.319752931594848633e-01 1.999540999531745911e-02
5.250000000000000000e+02 1.751727485656738281e+01 -3.090593528747558594e+01 -2.677277624607086182e-01 8.077413439750671387e-01 1.620040684938430786e-01 -3.183753788471221924e-01
5.260000000000000000e+02 2.004292678833007812e+01 -2.748175430297851562e+01 1.260512769222259521e-01 3.866633176803588867e-01 1.538143754005432129e-01 -2.930040657520294189e-01
5.270000000000000000e+02 1.730632019042968750e+01 -2.450757980346679688e+01 5.912566781044006348e-01 1.010195612907409668e+00 4.804356992244720459e-01 -6.794402003288269043e-01
5.280000000000000000e+02 1.547383403778076172e+01 -2.274530029296875000e+01 7.481934428215026855e-01 2.046130895614624023e+00 8.382973074913024902e-01 -9.924839138984680176e-01
5.290000000000000000e+02 1.434085178375244141e+01 -2.086101341247558594e+01 6.071154475212097168e-01 3.461592197418212891e+00 1.220612287521362305e+00 -7.090134024620056152e-01
5.300000000000000000e+02 1.429497337341308594e+01 -1.949951362609863281e+01 2.183613777160644531e-01 3.818484783172607422e+00 1.211053848266601562e+00 -2.127571702003479004e-01
5.310000000000000000e+02 1.167162609100341797e+01 -1.919839477539062500e+01 6.658318042755126953e-01 1.786717295646667480e+00 7.357647418975830078e-01 1.041597127914428711e-01
5.320000000000000000e+02 1.118056583404541016e+01 -2.059010505676269531e+01 4.860083758831024170e-01 1.519293785095214844e+00 6.015906333923339844e-01 1.541129797697067261e-01
5.330000000000000000e+02 1.048343181610107422e+01 -1.880363273620605469e+01 5.848295092582702637e-01 1.273297786712646484e+00 5.574381947517395020e-01 9.566166251897811890e-02
5.340000000000000000e+02 8.361915588378906250e+00 -2.056529045104980469e+01 3.950993418693542480e-01 5.134567618370056152e-01 2.725668251514434814e-01 2.266144901514053345e-01
5.350000000000000000e+02 1.065154266357421875e+01 -2.611893653869628906e+01 -7.908863574266433716e-02 9.578435420989990234e-01 2.636264860630035400e-01 2.353484332561492920e-01
5.360000000000000000e+02 1.122843933105468750e+01 -2.703182601928710938e+01 -1.468736529350280762e-01 9.619594216346740723e-01 2.445257455110549927e-01 1.743209362030029297e-01
5.370000000000000000e+02 9.492669105529785156e+00 -3.328191757202148438e+01 -2.112118750810623169e-01 3.627711236476898193e-01 4.546777904033660889e-02 1.318935453891754150e-01
5.380000000000000000e+02 9.489533424377441406e+00 -3.564780426025390625e+01 -1.765556484460830688e-01 2.995292842388153076e-01 3.689209371805191040e-02 8.002682775259017944e-02
5.390000000000000000e+02 9.051983833312988281e+00 -3.828782272338867188e+01 -1.363458186388015747e-01 1.885285824537277222e-01 1.565482839941978455e-02 5.123185738921165466e-02
5.400000000000000000e+02 8.112990379333496094e+00 -4.108476638793945312e+01 -1.001689285039901733e-01 8.073414117097854614e-02 -5.830436013638973236e-03 1.576965115964412689e-02
5.410000000000000000e+02 1.250767421722412109e+01 -4.121524810791015625e+01 -1.139955446124076843e-01 3.741960823535919189e-01 7.806015759706497192e-02 -1.126164384186267853e-02
5.420000000000000000e+02 1.262924194335937500e+01 -3.852707290649414062e+01 -1.430452466011047363e-01 4.188960492610931396e-01 8.275523781776428223e-02 -3.808223083615303040e-02
5.430000000000000000e+02 1.281617259979248047e+01 -3.570317077636718750e+01 -2.110951989889144897e-01 5.199282169342041016e-01 9.264990687370300293e-02 -4.284174740314483643e-02
5.440000000000000000e+02 8.821243286132812500e+00 -3.125668716430664062e+01 -1.933057308197021484e-01 3.763061463832855225e-01 5.490012466907501221e-02 2.004068493843078613e-01
5.450000000000000000e+02 9.713637351989746094e+00 -2.372425651550292969e+01 1.465188860893249512e-01 8.170524835586547852e-01 2.890714108943939209e-01 3.241630196571350098e-01
5.460000000000000000e+02 1.371771526336669922e+01 -2.393262863159179688e+01 1.035039424896240234e-01 1.641072273254394531e+00 5.233728885650634766e-01 -1.246260404586791992e-01
5.470000000000000000e+02 8.477350234985351562e+00 -2.211894035339355469e+01 3.191617131233215332e-01 5.785068869590759277e-01 2.693005800247192383e-01 2.942194938659667969e-01
5.480000000000000000e+02 1.439019203186035156e+01 -1.813338088989257812e+01 9.050679206848144531e-02 3.752883672714233398e+00 1.153017163276672363e+00 1.311050206422805786e-01
5.490000000000000000e+02 7.086616516113281250e+01 -1.834810447692871094e+01 1.125527662225067616e-03 -1.599914045073091984e-03 -1.423159264959394932e-04 1.853776280768215656e-03
5.500000000000000000e+02 7.155854034423828125e+01 -1.824134445190429688e+01 -2.200428716605529189e-04 8.454143535345792770e-04 1.876114401966333389e-04 6.040167645551264286e-04
5.510000000000000000e+02 7.294500732421875000e+01 -1.814374160766601562e+01 3.098737797699868679e-04 -4.022319917567074299e-04 -2.770746505120769143e-05 -5.732248537242412567e-04
5.520000000000000000e+02 7.436199951171875000e+01 -1.814531135559082031e+01 3.919516457244753838e-04 -1.019948511384427547e-03 -1.883990480564534664e-04 -1.921484799822792411e-04
5.530000000000000000e+02 6.964626312255859375e+01 -2.125823783874511719e+01 -7.673313375562429428e-03 -1.879556686617434025e-03 -2.865860937163233757e-03 5.898282979615032673e-04
5.540000000000000000e+02 7.241689300537109375e+01 -1.893513298034667969e+01 -2.039768500253558159e-03 -1.488935376983135939e-04 -6.565986550413072109e-04 -9.558221790939569473e-04
5.550000000000000000e+02 6.905502319335937500e+01 -2.336744308471679688e+01 -2.553466148674488068e-02 1.539190532639622688e-03 -7.198641076683998108e-03 -5.531207192689180374e-03
5.560000000000000000e+02 6.645115661621093750e+01 -2.478431129455566406e+01 -3.138596192002296448e-02 -1.507588755339384079e-02 -1.393855456262826920e-02 -6.826032418757677078e-03
5.570000000000000000e+02 6.546259307861328125e+01 -2.562031936645507812e+01 -3.752943873405456543e-02 5.584191603702493012e-05 -1.124207954853773117e-02 -3.394516929984092712e-02
5.580000000000000000e+02 6.450137329101562500e+01 -2.660363197326660156e+01 -9.474742412567138672e-02 -3.914561122655868530e-02 -4.016790911555290222e-02 -3.151557594537734985e-02
5.590000000000000000e+02 6.352367019653320312e+01 -2.766805267333984375e+01 -1.669233143329620361e-01 -2.189796790480613708e-02 -5.664638429880142212e-02 -8.603378385305404663e-02
5.600000000000000000e+02 6.106719589233398438e+01 -2.940850448608398438e+01 -4.670077860355377197e-01 -2.422209270298480988e-02 -1.473689526319503784e-01 -1.162970662117004395e-01
5.610000000000000000e+02 6.554341888427734375e+01 -3.189599990844726562e+01 -1.401052772998809814e-01 5.749326571822166443e-02 -2.478360570967197418e-02 1.025078147649765015e-01
5.620000000000000000e+02 6.406501770019531250e+01 -3.203655624389648438e+01 -1.562255918979644775e-01 3.561994060873985291e-02 -3.618169575929641724e-02 1.305652707815170288e-01
5.630000000000000000e+02 6.174230575561523438e+01 -3.120129585266113281e+01 -2.989934384822845459e-01 1.719700917601585388e-02 -8.453892916440963745e-02 9.559661149978637695e-02
5.640000000000000000e+02 6.203238296508789062e+01 -3.645872497558593750e+01 1.521526575088500977e-01 6.543599069118499756e-02 6.527659296989440918e-02 1.155541688203811646e-01
5.650000000000000000e+02 5.928775024414062500e+01 -3.749169158935546875e+01 2.333184480667114258e-01 2.622707486152648926e-01 1.486767530441284180e-01 2.284458465874195099e-02
5.660000000000000000e+02 5.252023696899414062e+01 -3.050153923034667969e+01 -1.867842972278594971e-01 3.032812476158142090e-01 3.494908288121223450e-02 -3.752704858779907227e-01
5.670000000000000000e+02 5.106943893432617188e+01 -3.026627349853515625e+01 7.649269104003906250e-01 7.315642833709716797e-01 4.489473700523376465e-01 -9.599099755287170410e-01
5.680000000000000000e+02 4.732487106323242188e+01 -2.811274719238281250e+01 2.790396213531494141e+00 6.328949928283691406e+00 2.735803842544555664e+00 -3.576253890991210938e+00
5.690000000000000000e+02 4.598829650878906250e+01 -2.612669372558593750e+01 2.373020172119140625e+00 1.022376823425292969e+01 3.779036760330200195e+00 -3.918578863143920898e+00
5.700000000000000000e+02 6.655842590332031250e+01 -1.317577552795410156e+01 -7.794105410575866699e-01 -1.685432940721511841e-01 -2.843861579895019531e-01 4.303263425827026367e-01
5.710000000000000000e+02 6.760562896728515625e+01 -8.987056732177734375e+00 -5.909954309463500977e-01 2.456458508968353271e-01 -1.036048680543899536e-01 -4.083049893379211426e-01
5.720000000000000000e+02 6.783410644531250000e+01 -6.589312553405761719e+00 -3.226313292980194092e-01 3.839840590953826904e-01 1.840581372380256653e-02 -4.692483246326446533e-01
5.730000000000000000e+02 6.703882598876953125e+01 -1.067766308784484863e+00 1.532046794891357422e-01 1.049645900726318359e+00 3.608551919460296631e-01 -3.304519951343536377e-01
5.740000000000000000e+02 6.690585327148437500e+01 4.311151504516601562e+00 5.200105309486389160e-01 1.767534494400024414e+00 6.862635016441345215e-01 -8.948556333780288696e-02
5.750000000000000000e+02 6.667748260498046875e+01 8.437607765197753906e+00 6.851907372474670410e-01 2.400307893753051758e+00 9.256495833396911621e-01 1.467387229204177856e-01
5.760000000000000000e+02 6.832397460937500000e+01 -1.388658428192138672e+01 -4.700360000133514404e-01 7.639183849096298218e-02 -1.180932521820068359e-01 1.299414336681365967e-01
5.770000000000000000e+02 6.903591156005859375e+01 -1.395375537872314453e+01 -4.163993597030639648e-01 4.216497763991355896e-02 -1.122703179717063904e-01 8.058851957321166992e-02
5.780000000000000000e+02 7.045727539062500000e+01 -1.455569744110107422e+01 -2.939020693302154541e-01 5.634037405252456665e-02 -7.126850634813308716e-02 4.299369454383850098e-02
5.790000000000000000e+02 7.202059936523437500e+01 -1.445827293395996094e+01 -2.506701052188873291e-01 3.099296428263187408e-02 -6.590314954519271851e-02 -2.636167034506797791e-02
5.800000000000000000e+02 7.433998870849609375e+01 -1.446461772918701172e+01 -1.566346734762191772e-01 1.139871589839458466e-02 -4.357078671455383301e-02 -7.889299839735031128e-02
5.810000000000000000e+02 7.555568695068359375e+01 -1.096733093261718750e+01 -1.355419456958770752e-01 -7.517456263303756714e-02 -6.321495026350021362e-02 -2.322819679975509644e-01
5.820000000000000000e+02 7.448511505126953125e+01 -7.023625373840332031e+00 -1.533928960561752319e-01 -1.715113967657089233e-01 -9.747128188610076904e-02 -4.965386688709259033e-01
5.830000000000000000e+02 7.469647979736328125e+01 -3.414112806320190430e+00 -2.344928123056888580e-02 -3.624548316001892090e-01 -1.157712340354919434e-01 -5.767382979393005371e-01
5.840000000000000000e+02 7.579939270019531250e+01 -2.282485008239746094e+00 7.967489771544933319e-03 -6.225835084915161133e-01 -1.843848079442977905e-01 -5.158587694168090820e-01
5.850000000000000000e+02 7.145025634765625000e+01 1.774184107780456543e+00 2.127087265253067017e-01 2.547154426574707031e-01 1.402272433042526245e-01 -5.411166548728942871e-01
5.860000000000000000e+02 7.290258026123046875e+01 1.884117841720581055e+00 1.462980657815933228e-01 -1.117682158946990967e-01 1.035895664244890213e-02 -5.567504167556762695e-01
5.870000000000000000e+02 7.509313201904296875e+01 -1.449803447723388672e+01 -1.251470446586608887e-01 -1.475916616618633270e-02 -4.197186604142189026e-02 -7.597341388463973999e-02
5.880000000000000000e+02 7.876992797851562500e+01 -1.319667243957519531e+01 -1.488060876727104187e-02 -4.452150687575340271e-02 -1.782063394784927368e-02 -3.615624830126762390e-02
5.890000000000000000e+02 7.937126922607421875e+01 -8.549836158752441406e+00 -6.183096207678318024e-03 -3.548530042171478271e-01 -1.083108261227607727e-01 -7.133185863494873047e-02
5.900000000000000000e+02 7.936779785156250000e+01 -9.969419479370117188e+00 -7.463668473064899445e-03 -2.157606929540634155e-01 -6.696730852127075195e-02 -5.521848425269126892e-02
5.910000000000000000e+02 7.939028930664062500e+01 -5.741372585296630859e+00 -4.521687515079975128e-03 -7.274782061576843262e-01 -2.195999771356582642e-01 -8.914133906364440918e-02
5.920000000000000000e+02 7.699048614501953125e+01 -5.182600021362304688e+00 -3.692711517214775085e-02 -5.628758072853088379e-01 -1.799408644437789917e-01 -3.852872550487518311e-01
5.930000000000000000e+02 7.819725799560546875e+01 -2.714574575424194336e+00 6.166119594126939774e-03 -1.010688781738281250e+00 -3.013567924499511719e-01 -2.741231024265289307e-01
5.940000000000000000e+02 7.811981964111328125e+01 5.472578048706054688e+00 3.463842719793319702e-02 -1.928699851036071777e+00 -5.682184100151062012e-01 -1.848955303430557251e-01
5.950000000000000000e+02 7.803096771240234375e+01 1.094955730438232422e+01 4.433563724160194397e-02 -2.160754203796386719e+00 -6.349256038665771484e-01 -2.472451701760292053e-02
5.960000000000000000e+02 7.527559661865234375e+01 1.228178787231445312e+01 1.700358837842941284e-01 -9.942074418067932129e-01 -2.472514659166336060e-01 4.718859493732452393e-02
5.970000000000000000e+02 7.102137756347656250e+01 1.610975646972656250e+01 4.264990985393524170e-01 7.200077176094055176e-01 3.439520597457885742e-01 3.607916831970214844e-01
5.980000000000000000e+02 6.679910278320312500e+01 1.833773422241210938e+01 5.660912990570068359e-01 2.365050554275512695e+00 8.793426156044006348e-01 2.740982174873352051e-01
5.990000000000000000e+02 6.005678939819335938e+01 2.677142524719238281e+01 -2.152597755193710327e-01 1.460516095161437988e+00 3.735769093036651611e-01 -6.024349331855773926e-01
6.000000000000000000e+02 5.355391311645507812e+01 3.566127777099609375e+01 -1.207824200391769409e-01 1.508541226387023926e+00 4.163276255130767822e-01 4.404764622449874878e-02
6.010000000000000000e+02 5.028834915161132812e+01 3.663382720947265625e+01 -2.080163806676864624e-01 1.867076396942138672e+00 4.977180063724517822e-01 1.825404912233352661e-01
6.020000000000000000e+02 4.732837677001953125e+01 4.080550765991210938e+01 -4.031994640827178955e-01 2.256304264068603516e+00 5.559314489364624023e-01 7.413589954376220703e-02
6.030000000000000000e+02 7.934910583496093750e+01 1.095189189910888672e+01 -1.029809238389134407e-03 -2.784409761428833008e+00 -8.356318473815917969e-01 -3.188891103491187096e-03
6.040000000000000000e+02 7.803189849853515625e+01 1.373601818084716797e+01 4.221126809716224670e-02 -2.136928081512451172e+00 -6.284150481224060059e-01 7.054475694894790649e-02
6.050000000000000000e+02 7.527291870117187500e+01 1.658301734924316406e+01 1.437056511640548706e-01 -9.033424854278564453e-01 -2.278910577297210693e-01 3.017878532409667969e-01
6.060000000000000000e+02 6.818576049804687500e+01 2.278095626831054688e+01 1.130166370421648026e-02 1.537466287612915039e+00 4.646303951740264893e-01 5.129463672637939453e-01
6.070000000000000000e+02 6.208663177490234375e+01 2.680764579772949219e+01 -4.180823564529418945e-01 1.791210532188415527e+00 4.119384288787841797e-01 -4.005286097526550293e-01
6.080000000000000000e+02 5.846868896484375000e+01 3.086753845214843750e+01 -1.489023715257644653e-01 1.244892835617065430e+00 3.287971317768096924e-01 -2.758471667766571045e-01
6.090000000000000000e+02 5.095378112792968750e+01 3.960278320312500000e+01 -2.592955827713012695e-01 1.879608988761901855e+00 4.860939979553222656e-01 6.969088315963745117e-02
6.100000000000000000e+02 7.935079193115234375e+01 2.214073371887207031e+01 1.034984271973371506e-02 -1.905254721641540527e+00 -5.684714317321777344e-01 9.804420918226242065e-02
6.110000000000000000e+02 7.799686431884765625e+01 2.346246528625488281e+01 3.784827189520001411e-03 -1.326322317123413086e+00 -3.967612683773040771e-01 2.708905637264251709e-01
6.120000000000000000e+02 7.356823730468750000e+01 2.523974990844726562e+01 -7.204039394855499268e-02 -2.027682587504386902e-02 -2.769516594707965851e-02 5.336226820945739746e-01
6.130000000000000000e+02 6.727166748046875000e+01 3.530183029174804688e+01 -2.976064383983612061e-01 9.065808653831481934e-01 1.826923340559005737e-01 8.907596766948699951e-02
6.140000000000000000e+02 6.351554107666015625e+01 3.802558135986328125e+01 -2.744049727916717529e-01 1.098705649375915527e+00 2.472901940345764160e-01 -9.480080567300319672e-03
6.150000000000000000e+02 6.267986679077148438e+01 4.095475769042968750e+01 -2.616008520126342773e-01 1.127893209457397461e+00 2.598876953125000000e-01 -3.504392225295305252e-03
6.160000000000000000e+02 7.929214477539062500e+01 2.494998741149902344e+01 5.009047687053680420e-03 -1.489886641502380371e+00 -4.454632997512817383e-01 1.008650884032249451e-01
6.170000000000000000e+02 7.771741485595703125e+01 2.631723403930664062e+01 -1.507416740059852600e-02 -9.523664712905883789e-01 -2.902321815490722656e-01 2.645088136196136475e-01
6.180000000000000000e+02 7.474779510498046875e+01 3.181715202331542969e+01 -1.093636676669120789e-01 -7.309483736753463745e-02 -5.473754927515983582e-02 2.981558144092559814e-01
6.190000000000000000e+02 7.041908264160156250e+01 3.548185729980468750e+01 -2.248886674642562866e-01 5.295740962028503418e-01 9.140562266111373901e-02 1.853864490985870361e-01
6.200000000000000000e+02 6.728012847900390625e+01 3.835212707519531250e+01 -2.546389997005462646e-01 8.039619326591491699e-01 1.647968739271163940e-01 5.099806562066078186e-02
6.210000000000000000e+02 6.738405609130859375e+01 4.117126846313476562e+01 -2.430953234434127808e-01 7.619429230690002441e-01 1.556542813777923584e-01 1.411957014352083206e-02
6.220000000000000000e+02 7.922380065917968750e+01 2.918408966064453125e+01 -1.453870441764593124e-02 -9.693418145179748535e-01 -2.951641678810119629e-01 7.821430265903472900e-02
6.230000000000000000e+02 7.776269531250000000e+01 3.063614845275878906e+01 -2.801690623164176941e-02 -6.045128703117370605e-01 -1.897589266300201416e-01 1.996824294328689575e-01
6.240000000000000000e+02 7.930610656738281250e+01 3.195945739746093750e+01 -1.323449052870273590e-02 -7.103184461593627930e-01 -2.170658707618713379e-01 5.847299471497535706e-02
6.250000000000000000e+02 7.797126770019531250e+01 3.325146484375000000e+01 -2.522362023591995239e-02 -4.580190479755401611e-01 -1.449728012084960938e-01 1.321273893117904663e-01
6.260000000000000000e+02 7.486124420166015625e+01 3.568128967285156250e+01 -8.598960936069488525e-02 -3.045228309929370880e-02 -3.493256866931915283e-02 1.710688024759292603e-01
6.270000000000000000e+02 7.183809661865234375e+01 4.112575531005859375e+01 -1.462463140487670898e-01 3.217869997024536133e-01 5.266220495104789734e-02 3.379430621862411499e-02
6.280000000000000000e+02 7.929190826416015625e+01 3.607503128051757812e+01 -6.130024325102567673e-03 -4.353295862674713135e-01 -1.324378848075866699e-01 3.179330006241798401e-02
6.290000000000000000e+02 7.749968719482421875e+01 3.812083816528320312e+01 -1.842428348027169704e-03 -2.399984896183013916e-01 -7.255227118730545044e-02 9.008622914552688599e-02
6.300000000000000000e+02 7.907080078125000000e+01 3.875928497314453125e+01 -3.924430347979068756e-03 -3.046908080577850342e-01 -9.258457273244857788e-02 3.625370189547538757e-02
6.310000000000000000e+02 7.797758483886718750e+01 4.164358520507812500e+01 -5.129810422658920288e-02 -2.277397215366363525e-01 -8.371134847402572632e-02 1.441098190844058990e-02
6.320000000000000000e+02 3.722852706909179688e+01 4.072608947753906250e+01 -8.756104707717895508e-01 3.218575716018676758e+00 7.028895616531372070e-01 4.372955858707427979e-02
6.330000000000000000e+02 3.669458770751953125e+01 3.733920288085937500e+01 -8.829561471939086914e-01 3.359416246414184570e+00 7.429380416870117188e-01 1.090503036975860596e-01
6.340000000000000000e+02 3.613975524902343750e+01 3.426005935668945312e+01 -8.800410032272338867e-01 3.628025293350219727e+00 8.243952989578247070e-01 1.062694564461708069e-01
6.350000000000000000e+02 3.557955932617187500e+01 3.140694046020507812e+01 -8.682440519332885742e-01 4.007704257965087891e+00 9.418381452560424805e-01 1.391610801219940186e-01
6.360000000000000000e+02 3.788700103759765625e+01 2.810892486572265625e+01 -5.895392298698425293e-01 4.137737751007080078e+00 1.064459562301635742e+00 6.264772415161132812e-01
6.370000000000000000e+02 3.872657012939453125e+01 2.314595031738281250e+01 -6.073539610952138901e-03 4.541664123535156250e+00 1.360677242279052734e+00 1.015410184860229492e+00
6.380000000000000000e+02 3.312907409667968750e+01 4.096361541748046875e+01 -8.894027471542358398e-01 3.185396194458007812e+00 6.887980699539184570e-01 -3.155573084950447083e-02
6.390000000000000000e+02 3.346829986572265625e+01 3.802228546142578125e+01 -8.919518589973449707e-01 3.319718122482299805e+00 7.283298969268798828e-01 -1.072666868567466736e-01
6.400000000000000000e+02 3.289872741699218750e+01 3.511653518676757812e+01 -8.892241120338439941e-01 3.496171712875366211e+00 7.820842862129211426e-01 -1.629833430051803589e-01
6.410000000000000000e+02 3.237028121948242188e+01 3.204569625854492188e+01 -8.289269804954528809e-01 3.793157100677490234e+00 8.892690539360046387e-01 -3.553610742092132568e-01
6.420000000000000000e+02 3.057855987548828125e+01 3.938705825805664062e+01 -8.128812909126281738e-01 3.077087163925170898e+00 6.792618036270141602e-01 -1.233836263418197632e-01
6.430000000000000000e+02 2.970998573303222656e+01 3.618290710449218750e+01 -7.436633110046386719e-01 3.054992437362670898e+00 6.933987140655517578e-01 -3.399108052253723145e-01
6.440000000000000000e+02 2.911490058898925781e+01 3.303923416137695312e+01 -6.332783699035644531e-01 3.184249877929687500e+00 7.652915120124816895e-01 -6.264979839324951172e-01
6.450000000000000000e+02 2.705747413635253906e+01 4.069051742553710938e+01 -6.307761073112487793e-01 2.595521211624145508e+00 5.894235372543334961e-01 -1.178931742906570435e-01
6.460000000000000000e+02 2.635845947265625000e+01 3.726951217651367188e+01 -5.186023116111755371e-01 2.506729841232299805e+00 5.964382290840148926e-01 -3.947567641735076904e-01
6.470000000000000000e+02 2.261549568176269531e+01 4.098819732666015625e+01 -3.084234595298767090e-01 1.831893682479858398e+00 4.570410549640655518e-01 -8.696362376213073730e-02
6.480000000000000000e+02 4.890911102294921875e+00 4.016179656982421875e+01 1.579406671226024628e-02 -1.696832329034805298e-01 -4.616674780845642090e-02 3.329427167773246765e-02
6.490000000000000000e+02 6.033549308776855469e+00 3.765951919555664062e+01 4.975182190537452698e-02 -4.200866818428039551e-02 2.322946907952427864e-03 5.577288195490837097e-02
6.500000000000000000e+02 5.543900012969970703e+00 3.586832046508789062e+01 3.630807250738143921e-02 -7.534901052713394165e-02 -1.171228196471929550e-02 6.698331981897354126e-02
6.510000000000000000e+02 7.040498256683349609e+00 3.024419593811035156e+01 2.914791181683540344e-02 9.412376675754785538e-05 8.772610686719417572e-03 1.044102758169174194e-01
6.520000000000000000e+02 4.950544357299804688e+00 2.682346534729003906e+01 -2.651103772222995758e-03 -5.340939015150070190e-02 -1.681814901530742645e-02 1.059172302484512329e-01
6.530000000000000000e+02 5.606967449188232422e+00 2.099085235595703125e+01 -4.121232777833938599e-02 -4.310055635869503021e-03 -1.365671493113040924e-02 5.651530623435974121e-02
6.540000000000000000e+02 5.885840892791748047e+00 1.723448562622070312e+01 -2.905809879302978516e-02 5.496558733284473419e-03 -7.068461738526821136e-03 1.692104525864124298e-02
6.550000000000000000e+02 4.441307544708251953e+00 1.341839790344238281e+01 -1.491665490902960300e-03 -5.543204606510698795e-04 -6.137957680039107800e-04 4.410480614751577377e-04
6.560000000000000000e+02 5.272908210754394531e+00 1.184502792358398438e+01 6.087197689339518547e-04 -8.580464636906981468e-04 -7.479800115106627345e-05 -1.568464911542832851e-03
6.570000000000000000e+02 4.080795288085937500e+00 8.014920234680175781e+00 3.785827662795782089e-03 -8.043101406656205654e-04 8.944552391767501831e-04 -1.957866130396723747e-03
6.580000000000000000e+02 4.221051216125488281e+00 1.938133716583251953e+00 1.494926516897976398e-03 2.788333804346621037e-04 5.321279750205576420e-04 -8.640539599582552910e-04
6.590000000000000000e+02 3.451983213424682617e+00 1.981241345405578613e+00 -1.213377545354887843e-04 -1.621341216377913952e-04 -8.504155994160100818e-05 -4.442375211510807276e-04
6.600000000000000000e+02 4.973570823669433594e+00 2.743230104446411133e+00 1.907747355289757252e-03 2.587427443359047174e-04 6.499470327980816364e-04 -1.263320213183760643e-03
6.610000000000000000e+02 2.010383367538452148e+00 4.161441802978515625e+01 -2.497812546789646149e-02 -3.628382980823516846e-01 -1.163449287414550781e-01 -7.192293647676706314e-03
6.620000000000000000e+02 2.366897583007812500e+00 3.797170639038085938e+01 2.136092074215412140e-02 -3.110595941543579102e-01 -8.690959960222244263e-02 -6.436117459088563919e-03
6.630000000000000000e+02 2.225567102432250977e+00 3.336267089843750000e+01 1.130486559122800827e-02 -2.648644149303436279e-01 -7.606786489486694336e-02 4.052352160215377808e-02
6.640000000000000000e+02 2.244647264480590820e+00 3.182604408264160156e+01 1.079268986359238625e-03 -2.401272803544998169e-01 -7.171440124511718750e-02 5.356469377875328064e-02
6.650000000000000000e+02 2.123941898345947266e+00 2.739495277404785156e+01 2.405604813247919083e-03 -1.525648981332778931e-01 -4.504778608679771423e-02 6.114622950553894043e-02
6.660000000000000000e+02 1.884872555732727051e+00 2.458024024963378906e+01 -2.446837024763226509e-04 -9.678092598915100098e-02 -2.910768426954746246e-02 4.982748255133628845e-02
6.670000000000000000e+02 1.771170377731323242e+00 2.049239921569824219e+01 -1.153224427253007889e-02 -2.879110537469387054e-02 -1.209700480103492737e-02 2.250218950212001801e-02
6.680000000000000000e+02 1.839846849441528320e+00 1.773295783996582031e+01 -9.036834351718425751e-03 -7.029202766716480255e-03 -4.819811321794986725e-03 1.080755610018968582e-02
6.690000000000000000e+02 1.910951972007751465e+00 1.491778087615966797e+01 -5.693391431123018265e-03 1.119073247537016869e-03 -1.372295431792736053e-03 3.408845979720354080e-03
6.700000000000000000e+02 1.782200574874877930e+00 1.065679645538330078e+01 2.536972751840949059e-03 3.407390322536230087e-03 1.783308922313153744e-03 -1.563871046528220177e-03
6.710000000000000000e+02 1.789397120475769043e+00 7.833360671997070312e+00 2.344551030546426773e-03 2.071452559903264046e-03 1.324801007285714149e-03 -1.485579647123813629e-03
6.720000000000000000e+02 3.475210189819335938e+00 2.892775774002075195e+00 1.692843972705304623e-03 2.772237639874219894e-04 5.910203326493501663e-04 -1.002683886326849461e-03
6.730000000000000000e+02 5.178379416465759277e-01 3.507935047149658203e+00 1.110061188228428364e-03 5.717602907679975033e-04 5.045464495196938515e-04 -4.572132020257413387e-04
6.740000000000000000e+02 1.668181991577148438e+01 3.390212774276733398e+00 -2.926553424913436174e-04 -1.058109221048653126e-03 -4.052293952554464340e-04 8.490444160997867584e-04
6.750000000000000000e+02 1.626110458374023438e+01 1.009158039093017578e+01 -3.815897274762392044e-03 1.181167754111811519e-04 -1.109334174543619156e-03 -4.248365759849548340e-03
6.760000000000000000e+02 1.712040328979492188e+01 9.040543556213378906e+00 4.317345563322305679e-03 3.361587878316640854e-03 2.303679939359426498e-03 2.075099386274814606e-03
6.770000000000000000e+02 1.539795303344726562e+01 1.123481655120849609e+01 5.785857792943716049e-03 7.010197732597589493e-03 3.838816657662391663e-03 2.261675894260406494e-03
6.780000000000000000e+02 1.480346584320068359e+01 1.257299804687500000e+01 -6.422159262001514435e-03 8.731890469789505005e-03 6.929194787517189980e-04 -3.630959661677479744e-03
6.790000000000000000e+02 1.435813045501708984e+01 1.538504219055175781e+01 -1.227409392595291138e-02 1.333774905651807785e-02 3.190965217072516680e-04 -4.562196321785449982e-03
6.800000000000000000e+02 1.414998912811279297e+01 1.807881927490234375e+01 -4.845587164163589478e-02 -3.492936864495277405e-02 -2.501557208597660065e-02 -4.084662720561027527e-02
6.810000000000000000e+02 1.359558105468750000e+01 1.955262565612792969e+01 -1.304578036069869995e-01 -2.127234265208244324e-02 -4.551904276013374329e-02 -5.100458487868309021e-02
6.820000000000000000e+02 1.481454181671142578e+01 2.030245780944824219e+01 -2.134657353162765503e-01 -6.236410513520240784e-02 -8.274894952774047852e-02 -1.170827299356460571e-01
6.830000000000000000e+02 1.585687446594238281e+01 2.120517349243164062e+01 -4.292468130588531494e-01 -1.128265932202339172e-01 -1.626220196485519409e-01 -1.505461037158966064e-01
6.840000000000000000e+02 1.711718750000000000e+01 2.180500984191894531e+01 -5.795221328735351562e-01 -6.373285502195358276e-02 -1.929765045642852783e-01 -1.715825349092483521e-01
6.850000000000000000e+02 2.320787811279296875e+01 2.287462043762207031e+01 1.351506412029266357e-01 1.732834428548812866e-01 9.253022819757461548e-02 -4.051013290882110596e-01
6.860000000000000000e+02 2.706395721435546875e+01 2.151531219482421875e+01 2.469862461090087891e+00 5.135763883590698242e-01 8.950316309928894043e-01 -1.338667511940002441e+00
6.870000000000000000e+02 2.831291770935058594e+01 2.128580093383789062e+01 3.710557460784912109e+00 3.418439865112304688e+00 2.138699293136596680e+00 -2.898723602294921875e+00
6.880000000000000000e+02 2.976734352111816406e+01 2.142695617675781250e+01 2.576497316360473633e+00 6.087719440460205078e+00 2.599264860153198242e+00 -2.743717670440673828e+00
6.890000000000000000e+02 3.012833976745605469e+01 1.980625724792480469e+01 3.337434053421020508e+00 7.689156055450439453e+00 3.307976961135864258e+00 -4.140476226806640625e+00
6.900000000000000000e+02 3.168832588195800781e+01 2.037466430664062500e+01 1.644931435585021973e+00 7.418940067291259766e+00 2.719161510467529297e+00 -1.818565249443054199e+00
6.910000000000000000e+02 3.174789619445800781e+01 1.590496349334716797e+01 1.325172662734985352e+00 1.180222892761230469e+01 3.938220500946044922e+00 -3.794942855834960938e+00
6.920000000000000000e+02 3.667375183105468750e+01 1.438464546203613281e+01 7.963081002235412598e-01 9.023708343505859375e+00 2.946004867553710938e+00 -1.675040833652019501e-02
6.930000000000000000e+02 3.959961700439453125e+01 1.216532897949218750e+01 5.648496150970458984e-01 5.885951995849609375e+00 1.935240507125854492e+00 1.393902778625488281e+00
6.940000000000000000e+02 1.691829681396484375e+01 2.053789377212524414e+00 -3.010811924468725920e-04 -9.448236087337136269e-04 -3.737714432645589113e-04 1.939292560564354062e-04
6.950000000000000000e+02 1.969450378417968750e+01 2.456513643264770508e+00 -5.249358946457505226e-04 -4.962261882610619068e-04 -3.063486365135759115e-04 8.110761700663715601e-05
6.960000000000000000e+02 2.136843681335449219e+01 5.193623542785644531e+00 3.478306462056934834e-04 7.748824427835643291e-04 3.368139150552451611e-04 6.396599346771836281e-04
6.970000000000000000e+02 2.036406135559082031e+01 5.942716121673583984e+00 -4.270100034773349762e-04 -3.840752469841390848e-04 -2.433255722280591726e-04 -5.048268358223140240e-04
6.980000000000000000e+02 1.800490951538085938e+01 8.058276176452636719e+00 -3.568991553038358688e-03 -1.090154750272631645e-03 -1.397743937559425831e-03 -2.497105393558740616e-03
6.990000000000000000e+02 1.976630210876464844e+01 4.104594707489013672e+00 5.561595899052917957e-04 1.117570092901587486e-03 5.021188990212976933e-04 1.745729241520166397e-04
7.000000000000000000e+02 2.193522644042968750e+01 3.976782560348510742e+00 1.422401546733453870e-04 3.269182343501597643e-04 1.407475210726261139e-04 -3.210863796994090080e-04
7.010000000000000000e+02 3.074255943298339844e+01 1.853297615051269531e+01 2.344491958618164062e+00 9.692158699035644531e+00 3.610995054244995117e+00 -4.346932411193847656e+00
7.020000000000000000e+02 3.222199630737304688e+01 1.458527565002441406e+01 1.294185519218444824e+00 1.275516033172607422e+01 4.214803695678710938e+00 -3.671453475952148438e+00
7.030000000000000000e+02 3.315127182006835938e+01 1.180574607849121094e+01 9.839540123939514160e-01 1.527435016632080078e+01 4.877490997314453125e+00 -2.878586292266845703e+00
7.040000000000000000e+02 3.868649673461914062e+01 6.967004299163818359e+00 4.085728824138641357e-01 1.043128967285156250e+01 3.251958847045898438e+00 7.568724155426025391e-01
7.050000000000000000e+02 3.202269363403320312e+01 4.874525070190429688e-01 2.540293693542480469e+00 2.301810503005981445e+00 1.452631235122680664e+00 1.966569066047668457e+00
7.060000000000000000e+02 3.304601287841796875e+01 -2.699142396450042725e-01 2.238151311874389648e+00 6.235694885253906250e+00 2.542153835296630859e+00 2.510079145431518555e+00
7.070000000000000000e+02 3.394944000244140625e+01 -9.508165717124938965e-01 1.742053627967834473e+00 8.520950317382812500e+00 3.078901052474975586e+00 1.910930514335632324e+00
7.080000000000000000e+02 3.685656356811523438e+01 -6.418177485466003418e-01 1.726476430892944336e+00 1.747750091552734375e+01 5.761193275451660156e+00 1.772842556238174438e-01
7.090000000000000000e+02 3.007013702392578125e+01 -1.928468942642211914e-01 2.088722944259643555e+00 4.431066215038299561e-01 7.595488429069519043e-01 5.575055480003356934e-01
7.100000000000000000e+02 2.709278678894042969e+01 6.999194622039794922e-01 5.559356808662414551e-01 4.049999639391899109e-02 1.789306998252868652e-01 -8.039061725139617920e-02
7.110000000000000000e+02 2.646566200256347656e+01 3.772162497043609619e-01 5.520669221878051758e-01 -6.980869174003601074e-02 1.446774750947952271e-01 5.541880801320075989e-02
7.120000000000000000e+02 2.594551467895507812e+01 -6.362845897674560547e-01 5.654518008232116699e-01 -6.744714081287384033e-02 1.494013965129852295e-01 2.754010260105133057e-01
7.130000000000000000e+02 2.503166389465332031e+01 -3.535497561097145081e-02 3.073470890522003174e-01 -4.611101746559143066e-02 7.837082445621490479e-02 1.622634828090667725e-01
7.140000000000000000e+02 2.880345344543457031e+01 -8.655773103237152100e-02 1.226013064384460449e+00 -1.407859474420547485e-02 3.635803461074829102e-01 2.941713109612464905e-02
7.150000000000000000e+02 3.129694557189941406e+01 -5.490741729736328125e-01 2.352657556533813477e+00 1.884025692939758301e+00 1.271004915237426758e+00 1.404833197593688965e+00
7.160000000000000000e+02 2.518331527709960938e+01 -7.634516358375549316e-01 3.866674304008483887e-01 -7.786563783884048462e-02 9.264054149389266968e-02 3.321162164211273193e-01
7.170000000000000000e+02 2.065705299377441406e+01 -2.113408088684082031e+00 -3.886152803897857666e-01 1.346572637557983398e-01 -7.618740200996398926e-02 4.690904319286346436e-01
7.180000000000000000e+02 2.124645423889160156e+01 -1.136529803276062012e+00 -3.658205568790435791e-01 9.005565196275711060e-02 -8.272947371006011963e-02 3.351270258426666260e-01
7.190000000000000000e+02 1.806494903564453125e+01 -1.589506626129150391e+00 -8.303247690200805664e-01 7.801402360200881958e-02 -2.256932109594345093e-01 2.254076749086380005e-01
7.200000000000000000e+02 1.342233657836914062e+01 -1.825406551361083984e+00 -1.077754616737365723e+00 4.306158795952796936e-02 -3.104079067707061768e-01 -8.692432940006256104e-02
7.210000000000000000e+02 1.113545131683349609e+01 -1.865076422691345215e+00 -9.688399434089660645e-01 3.561532124876976013e-02 -2.799673974514007568e-01 -2.084095627069473267e-01
7.220000000000000000e+02 6.523477077484130859e+00 -1.857331991195678711e+00 -4.897449910640716553e-01 -1.346538122743368149e-02 -1.509631127119064331e-01 -2.750406861305236816e-01
7.230000000000000000e+02 4.993834972381591797e+00 -1.858992815017700195e+00 -3.196584284305572510e-01 -3.415641561150550842e-02 -1.061444506049156189e-01 -2.396744191646575928e-01
7.240000000000000000e+02 4.233311176300048828e+00 -1.869550585746765137e+00 -2.515083253383636475e-01 -4.110817238688468933e-02 -8.778494596481323242e-02 -2.123169451951980591e-01
7.250000000000000000e+02 4.254407405853271484e+00 -3.400036573410034180e+00 -1.934123784303665161e-01 -1.291323453187942505e-01 -9.676341712474822998e-02 -3.372836112976074219e-01
7.260000000000000000e+02 1.911028265953063965e+00 -9.320528030395507812e+00 1.486503519117832184e-02 -8.339900374412536621e-01 -2.457375079393386841e-01 -2.882795035839080811e-01
7.270000000000000000e+02 3.245711803436279297e+00 -9.309210777282714844e+00 2.644405514001846313e-02 -6.040721535682678223e-01 -1.732884347438812256e-01 -4.240342974662780762e-01
7.280000000000000000e+02 1.891599059104919434e+00 -1.349352931976318359e+01 3.879152983427047729e-02 -1.257744550704956055e+00 -3.656859099864959717e-01 -1.842887252569198608e-01
7.290000000000000000e+02 1.859836459159851074e+00 -1.625628280639648438e+01 4.621459916234016418e-02 -1.422744274139404297e+00 -4.129588901996612549e-01 -7.209616899490356445e-02
7.300000000000000000e+02 1.886725306510925293e+00 -2.038602828979492188e+01 3.532574698328971863e-02 -1.397042155265808105e+00 -4.085149168968200684e-01 9.061354398727416992e-02
7.310000000000000000e+02 7.471634745597839355e-01 -2.759377288818359375e+01 -2.110903151333332062e-03 -1.141831517219543457e+00 -3.431827127933502197e-01 8.050840348005294800e-02
7.320000000000000000e+02 2.247560977935791016e+00 -2.744188880920410156e+01 -5.951804108917713165e-03 -8.523201942443847656e-01 -2.574816048145294189e-01 2.038043737411499023e-01
7.330000000000000000e+02 7.060856819152832031e-01 -3.478386688232421875e+01 -1.683590002357959747e-02 -5.962268114089965820e-01 -1.839188188314437866e-01 3.023344464600086212e-02
7.340000000000000000e+02 5.964139103889465332e-01 -3.603385162353515625e+01 7.152911275625228882e-03 -5.308713912963867188e-01 -1.571155488491058350e-01 1.728176325559616089e-02
7.350000000000000000e+02 1.292463660240173340e+00 -4.005145645141601562e+01 1.670978777110576630e-02 -3.708622753620147705e-01 -1.062457412481307983e-01 4.250253364443778992e-02
7.360000000000000000e+02 4.925868511199951172e+00 -4.024270629882812500e+01 -5.760492384433746338e-02 -1.662106662988662720e-01 -6.714467704296112061e-02 1.570971496403217316e-02
7.370000000000000000e+02 6.155862331390380859e+00 -3.779394149780273438e+01 -9.093226492404937744e-02 -3.387266024947166443e-02 -3.744147717952728271e-02 8.068328350782394409e-02
7.380000000000000000e+02 7.665281891822814941e-01 -3.732216262817382812e+01 8.426997810602188110e-03 -4.734834134578704834e-01 -1.395169198513031006e-01 3.381560742855072021e-02
7.390000000000000000e+02 2.010482311248779297e+00 -4.162080383300781250e+01 -4.775804653763771057e-02 -3.509725034236907959e-01 -1.196191683411598206e-01 1.353630144149065018e-02
7.400000000000000000e+02 1.623664665222167969e+01 -3.855341720581054688e+01 -9.845376014709472656e-02 5.545895099639892578e-01 1.368407309055328369e-01 -1.132296249270439148e-01
7.410000000000000000e+02 1.687473678588867188e+01 -3.379861068725585938e+01 -2.257388681173324585e-01 6.972572207450866699e-01 1.414555013179779053e-01 -2.397147715091705322e-01
7.420000000000000000e+02 1.597343540191650391e+01 -2.692970085144042969e+01 -4.572894796729087830e-02 1.106053471565246582e+00 3.180973529815673828e-01 -3.209777176380157471e-01
7.430000000000000000e+02 1.637844085693359375e+01 -2.810254287719726562e+01 -1.664108783006668091e-01 1.009298682212829590e+00 2.528663277626037598e-01 -2.937001287937164307e-01
7.440000000000000000e+02 2.767762947082519531e+01 -4.080260467529296875e+01 -3.879202529788017273e-02 1.740349888801574707e+00 5.104673504829406738e-01 1.504877656698226929e-01
7.450000000000000000e+02 2.738238525390625000e+01 -3.763944625854492188e+01 3.260819241404533386e-02 1.497056722640991211e+00 4.588994681835174561e-01 3.536869585514068604e-01
7.460000000000000000e+02 3.219618225097656250e+01 -2.961214828491210938e+01 2.676272690296173096e-01 2.637257099151611328e+00 8.714653253555297852e-01 1.346738576889038086e+00
7.470000000000000000e+02 3.231984329223632812e+01 -2.716324043273925781e+01 1.143198490142822266e+00 2.173688411712646484e+00 9.950661063194274902e-01 1.502365708351135254e+00
7.480000000000000000e+02 2.926425933837890625e+01 -3.122216987609863281e+01 1.194518059492111206e-02 1.038549542427062988e+00 3.151484131813049316e-01 8.380322456359863281e-01
7.490000000000000000e+02 3.032374000549316406e+01 -3.610277557373046875e+01 -1.501615494489669800e-01 2.215677976608276367e+00 6.196549534797668457e-01 7.117389440536499023e-01
7.500000000000000000e+02 2.773624420166015625e+01 -3.193457603454589844e+01 -1.347424183040857315e-02 5.521233677864074707e-01 1.615947484970092773e-01 5.298957228660583496e-01
7.510000000000000000e+02 3.129323005676269531e+01 -2.818759727478027344e+01 9.088593125343322754e-01 1.558262705802917480e+00 7.401366233825683594e-01 1.194082379341125488e+00
7.520000000000000000e+02 3.331759262084960938e+01 -2.610804176330566406e+01 1.405153632164001465e+00 3.012396097183227539e+00 1.325264930725097656e+00 2.023425340652465820e+00
7.530000000000000000e+02 3.418330383300781250e+01 -2.733857536315917969e+01 7.841364145278930664e-01 4.249315261840820312e+00 1.510035514831542969e+00 1.841248989105224609e+00
7.540000000000000000e+02 3.437966918945312500e+01 -2.500429916381835938e+01 1.680857896804809570e+00 5.184709072113037109e+00 2.059669971466064453e+00 2.378076791763305664e+00
7.550000000000000000e+02 3.970113372802734375e+01 -3.957528305053710938e+01 -1.291554689407348633e+00 4.895989894866943359e+00 1.081330537796020508e+00 1.238079816102981567e-01
7.560000000000000000e+02 4.092439651489257812e+01 -3.640142440795898438e+01 -1.214869022369384766e+00 5.392369747161865234e+00 1.253250241279602051e+00 1.349326074123382568e-01
7.570000000000000000e+02 4.110219192504882812e+01 -2.954448890686035156e+01 1.446592509746551514e-01 6.890250205993652344e+00 2.110472917556762695e+00 2.369396090507507324e-01
7.580000000000000000e+02 4.311645889282226562e+01 -4.082738494873046875e+01 -1.337774515151977539e+00 4.922419548034667969e+00 1.075393438339233398e+00 -6.498294323682785034e-02
7.590000000000000000e+02 4.420102691650390625e+01 -3.766629791259765625e+01 -1.226273179054260254e+00 5.072585582733154297e+00 1.153893709182739258e+00 -3.168550729751586914e-01
7.600000000000000000e+02 4.759683990478515625e+01 -4.116623687744140625e+01 -9.227012395858764648e-01 3.939462423324584961e+00 9.050283432006835938e-01 -1.886362582445144653e-01
7.610000000000000000e+02 6.791326904296875000e+01 -4.086408615112304688e+01 1.610965132713317871e-01 -3.027836792171001434e-02 3.924544155597686768e-02 4.288330674171447754e-02
7.620000000000000000e+02 6.860674285888671875e+01 -3.777644348144531250e+01 7.890523970127105713e-02 -1.460655871778726578e-02 1.928960531949996948e-02 9.494878351688385010e-02
7.630000000000000000e+02 6.680798339843750000e+01 -3.446212768554687500e+01 -1.881215535104274750e-02 2.257182449102401733e-02 1.127901021391153336e-03 1.273688524961471558e-01
7.640000000000000000e+02 7.108874511718750000e+01 -2.948632049560546875e+01 -6.423141062259674072e-02 1.693426258862018585e-02 -1.418914552778005600e-02 5.039006471633911133e-02
7.650000000000000000e+02 7.224787139892578125e+01 -2.668109512329101562e+01 -3.113290295004844666e-02 1.710009877569973469e-03 -8.826867677271366119e-03 2.034826949238777161e-02
7.660000000000000000e+02 6.928919219970703125e+01 -2.230253410339355469e+01 9.432666120119392872e-04 3.072167455684393644e-04 3.751449985429644585e-04 -2.471988787874579430e-03
7.670000000000000000e+02 7.014990234375000000e+01 -2.351113700866699219e+01 -1.454871334135532379e-02 3.736410872079432011e-04 -4.252521786838769913e-03 -2.985036699101328850e-03
7.680000000000000000e+02 7.209840393066406250e+01 -4.103273773193359375e+01 6.425195187330245972e-02 -6.690441817045211792e-02 -7.957388297654688358e-04 1.350470446050167084e-02
7.690000000000000000e+02 7.162767791748046875e+01 -3.803833770751953125e+01 6.393469125032424927e-02 -5.095377191901206970e-02 3.894276451319456100e-03 7.434109598398208618e-02
7.700000000000000000e+02 7.261553955078125000e+01 -3.201585006713867188e+01 -2.939947322010993958e-02 -2.221519825980067253e-03 -9.486298076808452606e-03 6.373866647481918335e-02
7.710000000000000000e+02 7.397634887695312500e+01 -2.976634788513183594e+01 -2.893561124801635742e-02 -5.492847878485918045e-03 -1.032853778451681137e-02 4.208335652947425842e-02
7.720000000000000000e+02 7.554866790771484375e+01 -2.227147865295410156e+01 -5.790291819721460342e-03 1.026629237458109856e-03 -1.429098774679005146e-03 4.701669968198984861e-04
7.730000000000000000e+02 7.586009979248046875e+01 -2.529821586608886719e+01 -1.488051190972328186e-02 -2.528519835323095322e-03 -5.222709849476814270e-03 9.596503339707851410e-03
7.740000000000000000e+02 7.516468811035156250e+01 -4.036458969116210938e+01 2.242286503314971924e-02 -8.720226585865020752e-02 -1.943382062017917633e-02 2.903848141431808472e-02
7.750000000000000000e+02 7.407683563232421875e+01 -3.804731750488281250e+01 2.615885436534881592e-02 -6.380818039178848267e-02 -1.129479799419641495e-02 4.402192682027816772e-02
7.760000000000000000e+02 7.459877014160156250e+01 -3.630545425415039062e+01 2.704803459346294403e-02 -6.644625216722488403e-02 -1.181946601718664169e-02 5.488763004541397095e-02
7.770000000000000000e+02 7.813762664794921875e+01 -2.948384857177734375e+01 2.004075562581419945e-03 -2.579790726304054260e-02 -7.138149347156286240e-03 1.594376377761363983e-02
7.780000000000000000e+02 7.938685607910156250e+01 -2.817888450622558594e+01 4.732192028313875198e-03 -1.334781479090452194e-02 -2.584686735644936562e-03 3.951000981032848358e-03
7.790000000000000000e+02 7.823378753662109375e+01 -2.543575286865234375e+01 -6.600319873541593552e-03 -3.765278030186891556e-03 -3.109679324552416801e-03 5.406633950769901276e-03
7.800000000000000000e+02 7.941358184814453125e+01 -2.546684646606445312e+01 3.490641480311751366e-03 1.772780960891395807e-04 1.100375899113714695e-03 1.490461057983338833e-03
7.810000000000000000e+02 7.799485778808593750e+01 -4.166215896606445312e+01 5.911741871386766434e-03 -1.414939016103744507e-01 -4.067464917898178101e-02 1.736643025651574135e-03
7.820000000000000000e+02 7.872393798828125000e+01 -4.015372085571289062e+01 -2.184991491958498955e-03 -1.392671912908554077e-01 -4.243565350770950317e-02 4.680523183196783066e-03
7.830000000000000000e+02 7.924658203125000000e+01 -3.755046844482421875e+01 -1.732016564346849918e-03 -1.243746802210807800e-01 -3.783200681209564209e-02 6.613796576857566833e-03
7.840000000000000000e+02 7.755049896240234375e+01 -3.821091461181640625e+01 4.260715097188949585e-03 -1.118260324001312256e-01 -3.226959705352783203e-02 1.957224495708942413e-02
7.850000000000000000e+02 7.791903686523437500e+01 -3.464545059204101562e+01 8.902753703296184540e-03 -8.135856688022613525e-02 -2.173674292862415314e-02 2.977988496422767639e-02
7.860000000000000000e+02 7.940081787109375000e+01 -3.222450256347656250e+01 -7.967804558575153351e-03 -5.652072653174400330e-02 -1.934655942022800446e-02 9.126219898462295532e-03
7.870000000000000000e+02 5.265552902221679688e+01 -3.210530471801757812e+01 2.143783271312713623e-01 6.340527534484863281e-01 2.545293271541595459e-01 -8.665671348571777344e-01
7.880000000000000000e+02 5.675869750976562500e+01 -3.059016418457031250e+01 -8.986558914184570312e-01 -7.870645076036453247e-02 -2.932086884975433350e-01 -5.739880725741386414e-02
7.890000000000000000e+02 5.821263504028320312e+01 -3.040577888488769531e+01 -7.584333419799804688e-01 -1.445819158107042313e-02 -2.318674623966217041e-01 -1.044436544179916382e-01
7.900000000000000000e+02 3.743852615356445312e+01 1.025804710388183594e+01 6.930031776428222656e-01 1.017700290679931641e+01 3.261001825332641602e+00 2.129906564950942993e-01
7.910000000000000000e+02 3.861283874511718750e+01 1.100822925567626953e+01 6.246861815452575684e-01 8.125602722167968750e+00 2.625086545944213867e+00 8.736783266067504883e-01
7.920000000000000000e+02 3.704963684082031250e+01 1.109007549285888672e+01 6.561802029609680176e-01 1.032884311676025391e+01 3.295506954193115234e+00 6.446918100118637085e-02
7.930000000000000000e+02 3.276810836791992188e+01 1.324895000457763672e+01 1.207466602325439453e+00 1.427213764190673828e+01 4.643881320953369141e+00 -3.332327604293823242e+00
7.940000000000000000e+02 3.549933624267578125e+01 1.722360610961914062e+01 8.206011056900024414e-01 8.274435997009277344e+00 2.728511095046997070e+00 -3.422087132930755615e-01
7.950000000000000000e+02 3.793732833862304688e+01 1.792642402648925781e+01 5.620368719100952148e-01 6.108112812042236328e+00 2.001044750213623047e+00 8.388023376464843750e-01
7.960000000000000000e+02 3.291877365112304688e+01 1.643899536132812500e+01 1.378194332122802734e+00 1.080741310119628906e+01 3.655682325363159180e+00 -2.761978387832641602e+00
7.970000000000000000e+02 4.599667739868164062e+01 1.678995323181152344e+01 2.739080786705017090e-01 3.892498612403869629e-01 1.989473849534988403e-01 3.323361575603485107e-01
7.980000000000000000e+02 4.702497863769531250e+01 1.764908599853515625e+01 1.432626992464065552e-01 2.538290619850158691e-01 1.191275268793106079e-01 2.070562094449996948e-01
7.990000000000000000e+02 4.786623382568359375e+01 2.013673782348632812e+01 -7.964985072612762451e-02 5.886473059654235840e-01 1.526992321014404297e-01 4.055425226688385010e-01
8.000000000000000000e+02 4.747371673583984375e+01 2.347080802917480469e+01 1.665560007095336914e-01 1.237458825111389160e+00 4.212044477462768555e-01 8.102304935455322266e-01
8.010000000000000000e+02 4.612933349609375000e+01 2.884574317932128906e+01 -5.901930481195449829e-02 2.082225322723388672e+00 6.069618463516235352e-01 8.065974712371826172e-01
8.020000000000000000e+02 4.805485153198242188e+01 1.848283386230468750e+01 -3.117948956787586212e-02 1.457331478595733643e-01 3.436609730124473572e-02 9.835356473922729492e-02
8.030000000000000000e+02 3.959031295776367188e+01 1.863938522338867188e+01 5.480805635452270508e-01 4.768304347991943359e+00 1.594915509223937988e+00 1.164088010787963867e+00
8.040000000000000000e+02 3.314736938476562500e+01 2.072724914550781250e+01 8.300078511238098145e-01 7.243363380432128906e+00 2.422011375427246094e+00 -9.108051657676696777e-01
8.050000000000000000e+02 3.345389556884765625e+01 1.938922882080078125e+01 1.153331398963928223e+00 7.907890319824218750e+00 2.718366384506225586e+00 -1.071191668510437012e+00
8.060000000000000000e+02 7.443637847900390625e+01 2.276655197143554688e+01 1.689022779464721680e-02 -3.366613388061523438e-01 -9.593133628368377686e-02 5.300990939140319824e-01
8.070000000000000000e+02 7.541821289062500000e+01 2.209280395507812500e+01 3.802737593650817871e-02 -6.543722748756408691e-01 -1.849034577608108521e-01 4.707499444484710693e-01
8.080000000000000000e+02 6.873931884765625000e+01 1.937882804870605469e+01 3.508425951004028320e-01 1.489433765411376953e+00 5.520828962326049805e-01 4.829697608947753906e-01
8.090000000000000000e+02 7.234155273437500000e+01 2.506210517883300781e+01 -9.100600332021713257e-02 3.458575308322906494e-01 7.645545154809951782e-02 5.695455074310302734e-01
8.100000000000000000e+02 7.323604583740234375e+01 2.215837287902832031e+01 5.548004060983657837e-02 6.794122979044914246e-03 1.868224889039993286e-02 5.697396993637084961e-01
8.110000000000000000e+02 6.384514617919921875e+01 2.213250732421875000e+01 5.419854819774627686e-02 2.845475435256958008e+00 8.699021935462951660e-01 -1.059163436293601990e-01
8.120000000000000000e+02 5.210587310791015625e+01 2.110869216918945312e+01 -6.694276928901672363e-01 -3.052090294659137726e-03 -2.017439305782318115e-01 -1.110689863562583923e-01
8.130000000000000000e+02 5.043935775756835938e+01 2.322045516967773438e+01 -4.736026376485824585e-02 5.197247266769409180e-01 1.417093425989151001e-01 3.998379409313201904e-01
8.140000000000000000e+02 5.053110885620117188e+01 2.138105010986328125e+01 -3.775528371334075928e-01 1.698653846979141235e-01 -6.230623275041580200e-02 1.158212274312973022e-01
8.150000000000000000e+02 5.021360778808593750e+01 2.480840682983398438e+01 1.007536649703979492e-01 7.479336261749267578e-01 2.546061873435974121e-01 4.550462067127227783e-01
8.160000000000000000e+02 4.199625396728515625e+01 2.157705116271972656e+01 3.098563551902770996e-01 3.176853656768798828e+00 1.046012997627258301e+00 1.278998851776123047e+00
8.170000000000000000e+02 3.572458267211914062e+01 2.052379989624023438e+01 4.624490439891815186e-01 6.442781925201416016e+00 2.071569204330444336e+00 2.356002479791641235e-01
8.180000000000000000e+02 2.518186569213867188e+01 2.407007408142089844e+01 9.463793039321899414e-01 1.202549457550048828e+00 6.446786522865295410e-01 -1.520147800445556641e+00
8.190000000000000000e+02 2.122005844116210938e+01 2.649880027770996094e+01 2.815051674842834473e-01 5.321760177612304688e-01 2.441043555736541748e-01 -6.020496487617492676e-01
8.200000000000000000e+02 2.047276496887207031e+01 2.992974662780761719e+01 1.899074018001556396e-01 8.741993904113769531e-01 3.192320466041564941e-01 -5.795714259147644043e-01
8.210000000000000000e+02 1.440289783477783203e+01 3.311483001708984375e+01 1.224441081285476685e-01 4.561002552509307861e-01 1.735633164644241333e-01 -8.326679468154907227e-02
8.220000000000000000e+02 1.309179592132568359e+01 3.075895881652832031e+01 1.048880890011787415e-01 2.439920008182525635e-01 1.046640276908874512e-01 -8.675718563608825207e-04
8.230000000000000000e+02 1.972790527343750000e+01 2.250245094299316406e+01 -5.599531531333923340e-01 -4.919709754176437855e-04 -1.681335419416427612e-01 -1.680329442024230957e-01
8.240000000000000000e+02 2.189649581909179688e+01 2.391824150085449219e+01 9.859252721071243286e-02 1.990334540605545044e-01 8.928779512643814087e-02 -3.984091579914093018e-01
8.250000000000000000e+02 2.957489013671875000e+01 2.334404563903808594e+01 3.684298694133758545e-01 4.833384990692138672e+00 1.560544490814208984e+00 -1.780240774154663086e+00
8.260000000000000000e+02 2.909687042236328125e+01 2.522110176086425781e+01 1.232037842273712158e-01 4.125735759735107422e+00 1.274681806564331055e+00 -1.677649021148681641e+00
8.270000000000000000e+02 2.449221992492675781e+01 2.589281463623046875e+01 5.104125142097473145e-01 1.369521737098693848e+00 5.639802813529968262e-01 -1.347276687622070312e+00
8.280000000000000000e+02 1.884583282470703125e+01 3.531042098999023438e+01 3.168832743540406227e-03 1.069113492965698242e+00 3.216847181320190430e-01 -2.717764675617218018e-01
8.290000000000000000e+02 1.532626342773437500e+01 3.610150527954101562e+01 7.487542927265167236e-02 6.425730586051940918e-01 2.152345478534698486e-01 -1.050445809960365295e-01
8.300000000000000000e+02 2.091097831726074219e+01 2.287960243225097656e+01 -3.405283689498901367e-01 -4.718812648206949234e-03 -1.035741567611694336e-01 -2.007887512445449829e-01
8.310000000000000000e+02 1.616777992248535156e+01 2.776490402221679688e+01 1.187228634953498840e-01 2.798266708850860596e-01 1.195648610591888428e-01 -6.428378075361251831e-02
8.320000000000000000e+02 1.655267524719238281e+01 2.342519569396972656e+01 -2.243016511201858521e-01 -5.995080340653657913e-03 -6.908901780843734741e-02 2.072899974882602692e-02
8.330000000000000000e+02 8.585338592529296875e+00 2.031395530700683594e+01 -8.493473380804061890e-02 4.112941026687622070e-02 -1.314159855246543884e-02 3.384663537144660950e-02
8.340000000000000000e+02 7.850233078002929688e+00 2.317429351806640625e+01 -7.243802398443222046e-02 3.335043415427207947e-02 -1.172627601772546768e-02 9.584073722362518311e-02
8.350000000000000000e+02 4.024096488952636719e+00 2.279282379150390625e+01 -3.213787823915481567e-02 -3.184019774198532104e-02 -1.919342204928398132e-02 6.608857214450836182e-02
8.360000000000000000e+02 4.589241027832031250e+00 1.658531570434570312e+01 -1.007610093802213669e-02 -5.900774151086807251e-03 -4.793062340468168259e-03 1.161519438028335571e-02
8.370000000000000000e+02 1.313520622253417969e+01 1.521728324890136719e+01 5.996479187160730362e-03 4.024038789793848991e-04 1.919664908200502396e-03 1.099544111639261246e-03
8.380000000000000000e+02 1.051289653778076172e+01 1.604331016540527344e+01 -3.375183790922164917e-02 -2.122323960065841675e-03 -1.076224818825721741e-02 -9.126598946750164032e-03
8.390000000000000000e+02 6.387386322021484375e+01 1.674994277954101562e+01 6.798031926155090332e-01 4.436065673828125000e+00 1.534760594367980957e+00 -3.889239430427551270e-01
8.400000000000000000e+02 7.261477661132812500e+01 1.839328956604003906e+01 2.229964435100555420e-01 7.363183051347732544e-02 8.898848295211791992e-02 4.747063815593719482e-01
8.410000000000000000e+02 5.877002477645874023e-01 2.055079841613769531e+01 4.851175006479024887e-03 -2.849704027175903320e-02 -7.093759719282388687e-03 7.945599034428596497e-03
8.420000000000000000e+02 5.328008270263671875e+01 2.366593360900878906e+01 -9.103203564882278442e-02 1.998257786035537720e-01 3.263812139630317688e-02 -2.558917179703712463e-02
8.430000000000000000e+02 5.484653854370117188e+01 2.169842910766601562e+01 -7.456169128417968750e-01 -1.642594113945960999e-02 -2.286128550767898560e-01 -2.094618529081344604e-01
8.440000000000000000e+02 6.573927307128906250e+01 1.306245422363281250e+01 5.740877985954284668e-01 3.432734012603759766e+00 1.202046513557434082e+00 2.031268030405044556e-01
8.450000000000000000e+02 6.690861511230468750e+01 1.439801025390625000e+01 6.383970379829406738e-01 2.642436504364013672e+00 9.842500090599060059e-01 1.518148183822631836e-01
8.460000000000000000e+02 7.527511596679687500e+01 1.514613914489746094e+01 1.661519110202789307e-01 -9.444336295127868652e-01 -2.334845066070556641e-01 2.278252393007278442e-01
8.470000000000000000e+02 7.563155364990234375e+01 5.549860477447509766e+00 1.251330077648162842e-01 -1.029762387275695801e+00 -2.713887989521026611e-01 -3.330060243606567383e-01
8.480000000000000000e+02 7.439179229736328125e+01 6.838517665863037109e+00 2.038048803806304932e-01 -6.376171708106994629e-01 -1.301436871290206909e-01 -3.086847066879272461e-01
8.490000000000000000e+02 6.137553024291992188e+01 6.823644161224365234e+00 8.245352506637573242e-01 5.031163692474365234e+00 1.756709694862365723e+00 1.650223612785339355e+00
8.500000000000000000e+02 6.293926239013671875e+01 8.146512985229492188e+00 6.773881912231445312e-01 4.598911285400390625e+00 1.582889795303344727e+00 9.706381559371948242e-01
8.510000000000000000e+02 7.016888427734375000e+01 4.370420932769775391e+00 3.939191401004791260e-01 7.536389231681823730e-01 3.442674279212951660e-01 -3.723545074462890625e-01
8.520000000000000000e+02 5.962481689453125000e+01 3.776247501373291016e+00 1.299607396125793457e+00 3.141554832458496094e+00 1.332348585128784180e+00 2.011784553527832031e+00
8.530000000000000000e+02 6.260000228881835938e+01 3.994025707244873047e+00 8.017336726188659668e-01 3.058346271514892578e+00 1.158023953437805176e+00 7.453559637069702148e-01
8.540000000000000000e+02 6.498144531250000000e+01 -1.765839099884033203e+00 1.801348477602005005e-01 1.308810353279113770e+00 4.466835856437683105e-01 -3.977350518107414246e-02
8.550000000000000000e+02 5.973441696166992188e+01 -2.190625220537185669e-01 7.072760462760925293e-01 2.242472648620605469e+00 8.849246501922607422e-01 1.160843014717102051e+00
8.560000000000000000e+02 7.566732788085937500e+01 1.647373795509338379e+00 5.778976902365684509e-02 -8.560723662376403809e-01 -2.394847869873046875e-01 -4.736569523811340332e-01
8.570000000000000000e+02 5.631052780151367188e+01 -6.736341714859008789e-01 1.340110659599304199e+00 2.531885147094726562e+00 1.161598682403564453e+00 1.800827622413635254e+00
8.580000000000000000e+02 6.594362640380859375e+01 -2.884277105331420898e+00 4.256452992558479309e-02 1.017590522766113281e+00 3.180465102195739746e-01 -2.054931223392486572e-01
8.590000000000000000e+02 5.995399475097656250e+01 -3.994643926620483398e+00 -4.230011254549026489e-03 1.628417491912841797e+00 4.872562587261199951e-01 7.274705767631530762e-01
8.600000000000000000e+02 6.613822937011718750e+01 -2.143352985382080078e+00 1.000569760799407959e-01 1.099477052688598633e+00 3.598602116107940674e-01 -2.435122132301330566e-01
8.610000000000000000e+02 7.198823547363281250e+01 -7.851238250732421875e-01 9.024875611066818237e-02 8.016286790370941162e-02 5.112348496913909912e-02 -6.192454695701599121e-01
8.620000000000000000e+02 7.249332427978515625e+01 -2.346429824829101562e+00 2.908646129071712494e-03 -2.566160447895526886e-02 -6.825887598097324371e-03 -6.486324071884155273e-01
8.630000000000000000e+02 7.583271026611328125e+01 -3.593000650405883789e+00 -3.198194503784179688e-02 -5.342422127723693848e-01 -1.698672473430633545e-01 -5.066829919815063477e-01
8.640000000000000000e+02 5.802963638305664062e+01 -3.651839792728424072e-01 1.027067184448242188e+00 2.248837947845458984e+00 9.827715158462524414e-01 1.466253638267517090e+00
8.650000000000000000e+02 4.049000740051269531e+00 -6.797659873962402344e+00 -4.412756115198135376e-02 -3.354125022888183594e-01 -1.138620153069496155e-01 -4.742319583892822266e-01
8.660000000000000000e+02 8.305242538452148438e+00 -1.125495624542236328e+01 3.020488023757934570e-01 2.545573711395263672e-01 1.669818609952926636e-01 -4.676330983638763428e-01
8.670000000000000000e+02 6.506355285644531250e+00 -7.586148738861083984e+00 -2.917134389281272888e-02 -6.589381396770477295e-02 -2.851954661309719086e-02 -5.783499479293823242e-01
8.680000000000000000e+02 9.738546371459960938e+00 -5.797935485839843750e+00 -2.672102451324462891e-01 1.911211013793945312e-01 -2.282674796879291534e-02 -4.602063894271850586e-01
8.690000000000000000e+02 1.138275337219238281e+01 -6.114415645599365234e+00 -2.423466891050338745e-01 3.715965151786804199e-01 3.877495229244232178e-02 -3.356215655803680420e-01
8.700000000000000000e+02 1.271251678466796875e+01 -1.049587059020996094e+01 4.331749677658081055e-01 1.108596682548522949e+00 4.625314772129058838e-01 -1.065285354852676392e-01
8.710000000000000000e+02 8.832766532897949219e+00 -1.885686159133911133e+00 -7.502455115318298340e-01 1.230072602629661560e-02 -2.213834226131439209e-01 -2.722759246826171875e-01
8.720000000000000000e+02 1.213021469116210938e+01 -5.514273643493652344e+00 -3.434922993183135986e-01 3.492200076580047607e-01 1.718314480967819691e-03 -2.492989152669906616e-01
8.730000000000000000e+02 1.408056545257568359e+01 -1.150548171997070312e+01 7.689692378044128418e-01 1.542858481407165527e+00 6.935483217239379883e-01 3.035304546356201172e-01
8.740000000000000000e+02 1.618203353881835938e+01 -8.763750076293945312e+00 2.467074245214462280e-01 9.930492043495178223e-01 3.719269931316375732e-01 3.970568776130676270e-01
8.750000000000000000e+02 1.630452537536621094e+01 -5.544730663299560547e+00 -2.931921184062957764e-01 5.012011528015136719e-01 6.240271031856536865e-02 3.150345385074615479e-01
8.760000000000000000e+02 2.946844100952148438e+01 -2.765858411788940430e+00 1.284528732299804688e+00 9.201474189758300781e-01 6.614028215408325195e-01 9.834349751472473145e-01
8.770000000000000000e+02 3.726417160034179688e+01 -2.364537000656127930e+00 -1.504462242126464844e+00 1.322928237915039062e+01 3.517446041107177734e+00 -2.187720775604248047e+00
8.780000000000000000e+02 3.562943649291992188e+01 -5.421637535095214844e+00 -2.798494338989257812e+00 9.345268249511718750e+00 1.964032053947448730e+00 -9.346686601638793945e-01
8.790000000000000000e+02 3.852864456176757812e+01 -9.353945732116699219e+00 -1.745465278625488281e+00 8.097337722778320312e+00 1.905561685562133789e+00 -1.789013862609863281e+00
8.800000000000000000e+02 4.380011749267578125e+01 -1.332427024841308594e+01 1.191107749938964844e+00 5.883353710174560547e+00 2.122338533401489258e+00 -4.271794259548187256e-01
8.810000000000000000e+02 4.716362380981445312e+01 -1.448873996734619141e+01 2.871682167053222656e+00 4.042348861694335938e+00 2.074209451675415039e+00 1.883202910423278809e+00
8.820000000000000000e+02 4.795086669921875000e+01 -1.375667572021484375e+01 2.800813913345336914e+00 3.208388566970825195e+00 1.802760720252990723e+00 1.978263497352600098e+00
8.830000000000000000e+02 4.076681518554687500e+01 -3.119857549667358398e+00 -6.338065266609191895e-01 5.479959487915039062e+00 1.453845858573913574e+00 -2.469244241714477539e+00
8.840000000000000000e+02 4.083133697509765625e+01 -4.929871082305908203e+00 -2.370279788970947266e+00 6.052414894104003906e+00 1.104640603065490723e+00 -2.581070423126220703e+00
8.850000000000000000e+02 4.301908111572265625e+01 -9.000478744506835938e+00 -1.111131906509399414e+00 4.718697071075439453e+00 1.082269549369812012e+00 -1.567575812339782715e+00
8.860000000000000000e+02 4.559318542480468750e+01 -8.944065093994140625e+00 -7.835423946380615234e-01 2.334328651428222656e+00 4.652358889579772949e-01 -2.339109182357788086e-01
8.870000000000000000e+02 4.745362854003906250e+01 -9.408537864685058594e+00 -3.415741026401519775e-01 1.369346380233764648e+00 3.083316981792449951e-01 8.534297347068786621e-01
8.880000000000000000e+02 5.013733673095703125e+01 -1.056005764007568359e+01 4.959426224231719971e-01 1.108687520027160645e+00 4.813890457153320312e-01 1.997543931007385254e+00
8.890000000000000000e+02 5.064578628540039062e+01 -1.334964084625244141e+01 2.481121778488159180e+00 1.119671344757080078e+00 1.080237984657287598e+00 2.001289367675781250e+00
8.900000000000000000e+02 4.421029281616210938e+01 -5.371120929718017578e+00 -3.179266452789306641e+00 1.361409783363342285e+00 -5.453570485115051270e-01 -4.418091177940368652e-01
8.910000000000000000e+02 4.715204238891601562e+01 -7.347634792327880859e+00 -2.050718784332275391e+00 4.810819327831268311e-01 -4.708910286426544189e-01 5.565481185913085938e-01
8.920000000000000000e+02 4.916033172607421875e+01 -1.043819999694824219e+01 5.642542243003845215e-01 1.342027544975280762e+00 5.718845129013061523e-01 1.854621291160583496e+00
8.930000000000000000e+02 5.262113189697265625e+01 -6.439560890197753906e+00 -1.782612323760986328e+00 1.475297689437866211e+00 -9.219442307949066162e-02 1.813768386840820312e+00
8.940000000000000000e+02 5.771923828125000000e+01 -4.999335289001464844e+00 -2.602168023586273193e-01 1.836747527122497559e+00 4.729591906070709229e-01 1.019242405891418457e+00
8.950000000000000000e+02 6.443801879882812500e+01 -6.799758911132812500e+00 -3.384429812431335449e-01 5.228603482246398926e-01 5.532520636916160583e-02 -1.567328348755836487e-02
8.960000000000000000e+02 6.097163009643554688e+01 -7.294537544250488281e+00 -4.708520770072937012e-01 9.944654703140258789e-01 1.570840328931808472e-01 6.253637075424194336e-01
8.970000000000000000e+02 6.709410095214843750e+01 -5.126066684722900391e+00 -1.471773982048034668e-01 5.853292942047119141e-01 1.314455717802047729e-01 -3.726887702941894531e-01
8.980000000000000000e+02 7.265524291992187500e+01 -4.332051753997802734e+00 -1.015172079205513000e-01 -4.284301027655601501e-02 -4.330806434154510498e-02 -6.251723170280456543e-01
8.990000000000000000e+02 7.320370483398437500e+01 -7.697334289550781250e+00 -2.458929717540740967e-01 -2.124771289527416229e-02 -8.014220744371414185e-02 -5.088304877281188965e-01
9.000000000000000000e+02 7.576564025878906250e+01 -6.191663742065429688e+00 -8.491402864456176758e-02 -3.468805849552154541e-01 -1.295383870601654053e-01 -4.541594386100769043e-01
9.010000000000000000e+02 1.497527217864990234e+01 -2.493853330612182617e+00 -8.855514526367187500e-01 1.184483468532562256e-01 -2.301309257745742798e-01 4.093469679355621338e-02
9.020000000000000000e+02 1.190949726104736328e+01 -2.581483364105224609e+00 -8.499876260757446289e-01 8.006630092859268188e-02 -2.309764027595520020e-01 -2.064981907606124878e-01
9.030000000000000000e+02 1.835808277130126953e+00 -7.936193466186523438e+00 2.063379943137988448e-04 -6.672208309173583984e-01 -2.001043558120727539e-01 -2.895700633525848389e-01
9.040000000000000000e+02 4.244451999664306641e+00 -5.780005931854248047e+00 -9.885746985673904419e-02 -2.542056739330291748e-01 -1.059189438819885254e-01 -4.611797332763671875e-01
9.050000000000000000e+02 4.689798831939697266e+00 -1.099067115783691406e+01 1.110851392149925232e-01 -4.529677331447601318e-01 -1.025647819042205811e-01 -4.657753407955169678e-01
9.060000000000000000e+02 2.336505508422851562e+01 -1.057270050048828125e+01 5.032784342765808105e-01 1.114454716444015503e-01 1.844171583652496338e-01 2.644584476947784424e-01
9.070000000000000000e+02 2.240779495239257812e+01 -8.389216423034667969e+00 2.169106453657150269e-01 2.994091510772705078e-01 1.548959314823150635e-01 6.589296460151672363e-01
9.080000000000000000e+02 3.554364395141601562e+01 -7.080687046051025391e+00 -2.924333333969116211e+00 8.779823303222656250e+00 1.756646990776062012e+00 -1.236322045326232910e+00
9.090000000000000000e+02 3.759805297851562500e+01 -1.180455589294433594e+01 1.596118807792663574e-01 8.237773895263671875e+00 2.519215822219848633e+00 -1.633478403091430664e+00
9.100000000000000000e+02 3.872685623168945312e+01 -1.312726020812988281e+01 7.531263828277587891e-01 7.793696880340576172e+00 2.564046859741210938e+00 -1.717619895935058594e+00
9.110000000000000000e+02 4.414861679077148438e+01 -1.699947929382324219e+01 2.720465421676635742e+00 8.016691207885742188e+00 3.221146821975708008e+00 5.271818041801452637e-01
9.120000000000000000e+02 3.879006958007812500e+01 -6.126334190368652344e+00 -2.853976249694824219e+00 8.687588691711425781e+00 1.750083804130554199e+00 -2.366553544998168945e+00
9.130000000000000000e+02 4.361267852783203125e+01 -6.486317634582519531e+00 -2.387943506240844727e+00 2.727799177169799805e+00 1.019567176699638367e-01 -1.496153116226196289e+00
9.140000000000000000e+02 5.989907073974609375e+01 -9.411528587341308594e+00 -6.544716358184814453e-01 8.176186084747314453e-01 4.894408956170082092e-02 7.789921760559082031e-01
9.150000000000000000e+02 6.444116210937500000e+01 -1.134290885925292969e+01 -1.728213310241699219e+00 -4.047469198703765869e-01 -6.398881077766418457e-01 1.085001602768898010e-02
9.160000000000000000e+02 6.058774185180664062e+01 -1.045042133331298828e+01 -6.860281229019165039e-01 5.613716244697570801e-01 -3.739694878458976746e-02 6.316260695457458496e-01
9.170000000000000000e+02 6.904042053222656250e+01 -6.997277736663818359e+00 -3.437817692756652832e-01 2.911217212677001953e-01 -1.579801365733146667e-02 -5.300559401512145996e-01
9.180000000000000000e+02 7.123667144775390625e+01 -6.205697059631347656e+00 -2.305048853158950806e-01 1.476992070674896240e-01 -2.484170533716678619e-02 -5.927411913871765137e-01
9.190000000000000000e+02 7.215501403808593750e+01 -1.064057254791259766e+01 -3.987239897251129150e-01 1.004636287689208984e-01 -8.947810530662536621e-02 -3.257005512714385986e-01
9.200000000000000000e+02 7.475026702880859375e+01 -1.189560890197753906e+01 -2.040863782167434692e-01 -2.992525137960910797e-02 -7.020349055528640747e-02 -2.116275131702423096e-01
9.210000000000000000e+02 3.690043258666992188e+01 -9.015980720520019531e+00 -2.120375633239746094e+00 8.704093933105468750e+00 1.975115418434143066e+00 -1.539867401123046875e+00
9.220000000000000000e+02 3.987058258056640625e+01 -9.375247955322265625e+00 -1.569634675979614258e+00 7.314058780670166016e+00 1.723327279090881348e+00 -1.929793953895568848e+00
9.230000000000000000e+02 4.380632400512695312e+01 -1.119722270965576172e+01 1.770836114883422852e-01 4.895955562591552734e+00 1.521911740303039551e+00 -7.998399734497070312e-01
9.240000000000000000e+02 6.722687530517578125e+01 -1.227646732330322266e+01 -1.223529696464538574e+00 1.280407160520553589e-01 -3.286467194557189941e-01 9.156274050474166870e-02
9.250000000000000000e+02 7.010028839111328125e+01 -1.117991733551025391e+01 -5.633195638656616211e-01 1.954075098037719727e-01 -1.103736162185668945e-01 -2.475438266992568970e-01
9.260000000000000000e+02 3.628416061401367188e+01 -1.467573165893554688e+01 1.247164368629455566e+00 9.556761741638183594e+00 3.241177797317504883e+00 -2.319833278656005859e+00
9.270000000000000000e+02 4.411669921875000000e+01 -1.518751907348632812e+01 2.229597330093383789e+00 6.739953517913818359e+00 2.690865278244018555e+00 1.278664618730545044e-01
9.280000000000000000e+02 3.927724456787109375e+01 -2.211222457885742188e+01 1.811910152435302734e+00 8.045261383056640625e+00 2.957151651382446289e+00 -2.194909304380416870e-01
9.290000000000000000e+02 3.765921783447265625e+01 -3.275474166870117188e+01 -6.352909803390502930e-01 5.277766704559326172e+00 1.392742633819580078e+00 8.405575752258300781e-01
9.300000000000000000e+02 4.287523269653320312e+01 -2.802174949645996094e+01 9.221924543380737305e-01 7.800240993499755859e+00 2.616729974746704102e+00 -3.846082389354705811e-01
9.310000000000000000e+02 4.365739059448242188e+01 -3.120102691650390625e+01 -4.179340898990631104e-01 6.637172222137451172e+00 1.865771412849426270e+00 -4.849792122840881348e-01
9.320000000000000000e+02 5.174473190307617188e+01 -3.870251846313476562e+01 -2.043938487768173218e-01 2.273484468460083008e+00 6.207271814346313477e-01 -5.488358736038208008e-01
9.330000000000000000e+02 4.616543769836425781e+00 -3.500248718261718750e+01 -6.887719780206680298e-02 -2.202378660440444946e-01 -8.673451840877532959e-02 1.491218507289886475e-01
9.340000000000000000e+02 3.002785205841064453e+00 -3.486461257934570312e+01 -3.427697718143463135e-02 -4.004004299640655518e-01 -1.304032206535339355e-01 1.217319816350936890e-01
9.350000000000000000e+02 6.848501205444335938e+00 -3.343184280395507812e+01 -1.314769387245178223e-01 5.084259063005447388e-02 -2.419030293822288513e-02 1.928520947694778442e-01
9.360000000000000000e+02 4.534558773040771484e+00 -3.179380607604980469e+01 -7.375072687864303589e-02 -2.634344696998596191e-01 -1.011555567383766174e-01 2.203536331653594971e-01
9.370000000000000000e+02 2.526223182678222656e+00 -3.038449287414550781e+01 -2.250928431749343872e-02 -6.255627870559692383e-01 -1.944216191768646240e-01 1.834748536348342896e-01
9.380000000000000000e+02 7.861582279205322266e+00 -2.955716896057128906e+01 -1.651092916727066040e-01 2.761378288269042969e-01 3.330856561660766602e-02 2.958719134330749512e-01
9.390000000000000000e+02 1.261141872406005859e+01 -3.305767059326171875e+01 -2.622266411781311035e-01 6.524192690849304199e-01 1.170577928423881531e-01 -2.035673893988132477e-02
9.400000000000000000e+02 1.542120361328125000e+01 -3.225366592407226562e+01 -2.815082371234893799e-01 7.858663201332092285e-01 1.513074338436126709e-01 -2.033807188272476196e-01
9.410000000000000000e+02 2.418352127075195312e+01 -3.512947845458984375e+01 8.921069651842117310e-02 6.839343309402465820e-01 2.319435030221939087e-01 2.761526266112923622e-04
9.420000000000000000e+02 3.480874252319335938e+01 -3.506646347045898438e+01 -5.862535238265991211e-01 3.912660360336303711e+00 9.979220628738403320e-01 9.872171878814697266e-01
9.430000000000000000e+02 5.314243316650390625e+01 -3.383925628662109375e+01 1.883446425199508667e-01 9.998550415039062500e-01 3.564598858356475830e-01 -8.718071579933166504e-01
9.440000000000000000e+02 5.845343780517578125e+01 -3.473395156860351562e+01 9.437784552574157715e-02 2.025167196989059448e-01 8.906836807727813721e-02 -6.406013853847980499e-03
9.450000000000000000e+02 5.838322448730468750e+01 -3.240218353271484375e+01 -2.720463871955871582e-01 -1.957185938954353333e-02 -8.748546987771987915e-02 4.778759926557540894e-02
9.460000000000000000e+02 6.718857574462890625e+01 -3.246278381347656250e+01 -8.029116690158843994e-02 2.522034198045730591e-02 -1.652124710381031036e-02 1.059501171112060547e-01
9.470000000000000000e+02 7.080220794677734375e+01 -3.246130752563476562e+01 -3.953767567873001099e-02 3.880039323121309280e-03 -1.069729030132293701e-02 8.603276312351226807e-02
9.480000000000000000e+02 7.563485717773437500e+01 -3.107181358337402344e+01 -1.311800256371498108e-02 -2.849094197154045105e-02 -1.248268317431211472e-02 3.998066484928131104e-02
9.490000000000000000e+02 1.279616641998291016e+01 -2.654813003540039062e+01 -1.244862899184226990e-01 1.211016178131103516e+00 3.259589672088623047e-01 3.288452327251434326e-02
9.500000000000000000e+02 6.570062160491943359e+00 -3.166251182556152344e+01 -1.331956684589385986e-01 2.171891927719116211e-02 -3.344302624464035034e-02 2.408706247806549072e-01
9.510000000000000000e+02 4.007017135620117188e+00 -2.872201919555664062e+01 -3.674922138452529907e-02 -4.364726245403289795e-01 -1.419665515422821045e-01 2.778921425342559814e-01
9.520000000000000000e+02 2.371435642242431641e+00 -2.890239715576171875e+01 -1.983552426099777222e-02 -7.349607348442077637e-01 -2.264388799667358398e-01 2.003810107707977295e-01
9.530000000000000000e+02 7.185769557952880859e+00 -2.805530166625976562e+01 -8.578088134527206421e-02 1.552181094884872437e-01 2.083116583526134491e-02 3.365060389041900635e-01
9.540000000000000000e+02 4.647245883941650391e+00 -2.269716072082519531e+01 1.043971255421638489e-01 -4.901046156883239746e-01 -1.157122477889060974e-01 2.816101312637329102e-01
9.550000000000000000e+02 1.980754375457763672e+00 -2.317358016967773438e+01 1.702094450592994690e-02 -1.218237042427062988e+00 -3.603648543357849121e-01 1.701965481042861938e-01
9.560000000000000000e+02 5.907039165496826172e+00 -2.240364265441894531e+01 1.623266339302062988e-01 -1.697446107864379883e-01 -2.225392032414674759e-03 3.148531615734100342e-01
9.570000000000000000e+02 4.518633365631103516e+00 -2.132240104675292969e+01 1.434372216463088989e-01 -5.813859105110168457e-01 -1.313846111297607422e-01 2.253447324037551880e-01
9.580000000000000000e+02 1.480713748931884766e+01 -2.424372291564941406e+01 4.861804842948913574e-02 1.818650007247924805e+00 5.601804256439208984e-01 -4.059015214443206787e-01
9.590000000000000000e+02 4.358302593231201172e+00 -1.868528366088867188e+01 1.799637675285339355e-01 -6.694914698600769043e-01 -1.468583196401596069e-01 5.786228924989700317e-02
9.600000000000000000e+02 4.303461074829101562e+00 -1.740475463867187500e+01 1.952088028192520142e-01 -6.997669935226440430e-01 -1.513674557209014893e-01 -3.658283129334449768e-02
9.610000000000000000e+02 3.084894657135009766e+00 -1.619397926330566406e+01 1.100131645798683167e-01 -1.037949204444885254e+00 -2.783808410167694092e-01 -1.107888370752334595e-01
9.620000000000000000e+02 1.406272506713867188e+01 -1.606226158142089844e+01 6.560782194137573242e-01 3.519489049911499023e+00 1.252670168876647949e+00 6.956714391708374023e-01
9.630000000000000000e+02 8.549930572509765625e+00 -1.680429840087890625e+01 5.562610626220703125e-01 4.958131611347198486e-01 3.156222701072692871e-01 -3.118168003857135773e-02
9.640000000000000000e+02 1.679264640808105469e+01 -1.246839332580566406e+01 1.963982343673706055e+00 1.727670788764953613e+00 1.107495903968811035e+00 1.483741641044616699e+00
9.650000000000000000e+02 1.269663619995117188e+01 -1.323065090179443359e+01 7.808508276939392090e-01 1.595249533653259277e+00 7.128300666809082031e-01 1.181657984852790833e-01
9.660000000000000000e+02 1.011257648468017578e+01 -1.334816074371337891e+01 5.923822522163391113e-01 8.094579577445983887e-01 4.205520749092102051e-01 -2.416331022977828979e-01
9.670000000000000000e+02 4.463819980621337891e+00 -1.229090785980224609e+01 1.464473605155944824e-01 -5.604515075683593750e-01 -1.242012456059455872e-01 -3.954431414604187012e-01
9.680000000000000000e+02 1.496840572357177734e+01 -1.037947368621826172e+01 5.602687597274780273e-01 1.348662614822387695e+00 5.726794004440307617e-01 3.279865980148315430e-01
9.690000000000000000e+02 6.654446411132812500e+01 -2.810842132568359375e+01 -1.262350678443908691e-01 3.706742823123931885e-02 -2.675029262900352478e-02 -5.052339285612106323e-03
9.700000000000000000e+02 7.537039184570312500e+01 -2.796075057983398438e+01 -2.059142477810382843e-02 -8.327574469149112701e-03 -8.675700053572654724e-03 2.472388558089733124e-02
9.710000000000000000e+02 7.519026184082031250e+01 2.442256355285644531e+01 -3.096804209053516388e-02 -5.028091669082641602e-01 -1.601331681013107300e-01 4.823903143405914307e-01
9.720000000000000000e+02 6.409401702880859375e+01 2.622694587707519531e+01 -4.181731045246124268e-01 1.893254876136779785e+00 4.425245225429534912e-01 -8.973567932844161987e-02
9.730000000000000000e+02 6.704208374023437500e+01 2.777374458312988281e+01 -3.948870301246643066e-01 1.378920197486877441e+00 2.952099442481994629e-01 2.558582723140716553e-01
9.740000000000000000e+02 6.005800247192382812e+01 2.508587837219238281e+01 -2.865479588508605957e-01 1.660064816474914551e+00 4.120550751686096191e-01 -7.735342383384704590e-01
9.750000000000000000e+02 5.224280166625976562e+01 3.003133583068847656e+01 9.842926263809204102e-02 1.157404541969299316e+00 3.767501413822174072e-01 1.471650898456573486e-01
9.760000000000000000e+02 4.450378036499023438e+01 2.606680679321289062e+01 2.771900035440921783e-02 2.288494825363159180e+00 6.948641538619995117e-01 1.041286230087280273e+00
9.770000000000000000e+02 3.464968490600585938e+01 2.229482841491699219e+01 1.973624080419540405e-01 6.230756282806396484e+00 1.928435564041137695e+00 -1.679959148168563843e-02
9.780000000000000000e+02 1.985679817199707031e+01 2.661518859863281250e+01 2.373967170715332031e-01 4.098395407199859619e-01 1.941708773374557495e-01 -3.758034706115722656e-01
9.790000000000000000e+02 1.875761795043945312e+01 2.587099456787109375e+01 1.186052709817886353e-01 1.874897181987762451e-01 9.182849526405334473e-02 -2.517992854118347168e-01
9.800000000000000000e+02 4.383001804351806641e+00 2.390673446655273438e+01 -1.501222699880599976e-02 -3.902820125222206116e-02 -1.621212810277938843e-02 8.196042478084564209e-02
9.810000000000000000e+02 5.979854464530944824e-01 2.335142135620117188e+01 3.126234514638781548e-03 -8.278919011354446411e-02 -2.389888651669025421e-02 1.467685122042894363e-02
9.820000000000000000e+02 7.273593139648437500e+01 2.875270652770996094e+01 -1.746499836444854736e-01 2.543963193893432617e-01 2.392389997839927673e-02 4.365478456020355225e-01
9.830000000000000000e+02 5.975885391235351562e+01 2.892229270935058594e+01 -2.347381412982940674e-01 1.363820314407348633e+00 3.387246429920196533e-01 -4.318784475326538086e-01
9.840000000000000000e+02 6.311667251586914062e+01 3.217326354980468750e+01 -3.492198884487152100e-01 1.295495271682739258e+00 2.838826179504394531e-01 -1.103705093264579773e-01
9.850000000000000000e+02 6.592399597167968750e+01 3.097920417785644531e+01 -3.901924192905426025e-01 1.220537066459655762e+00 2.491033971309661865e-01 7.830157876014709473e-02
9.860000000000000000e+02 4.929712677001953125e+01 3.097611045837402344e+01 1.199909485876560211e-02 1.585093140602111816e+00 4.791276752948760986e-01 4.518405795097351074e-01
9.870000000000000000e+02 2.718666267395019531e+01 2.869536590576171875e+01 -1.080396622419357300e-01 2.829874277114868164e+00 8.165504336357116699e-01 -1.246837019920349121e+00
9.880000000000000000e+02 2.588072586059570312e+01 2.644777488708496094e+01 3.755372464656829834e-01 2.104480028152465820e+00 7.440052032470703125e-01 -1.490057110786437988e+00
9.890000000000000000e+02 2.273071861267089844e+01 2.843012237548828125e+01 2.633440494537353516e-01 1.159324407577514648e+00 4.268005192279815674e-01 -9.100959300994873047e-01
9.900000000000000000e+02 1.038447380065917969e+01 2.972241210937500000e+01 4.903077334165573120e-02 1.161400750279426575e-01 4.955125600099563599e-02 8.102791756391525269e-02
9.910000000000000000e+02 5.175641536712646484e+00 2.846668052673339844e+01 9.128539822995662689e-04 -6.215977296233177185e-02 -1.837407611310482025e-02 1.048337817192077637e-01
9.920000000000000000e+02 7.051095366477966309e-01 2.757817840576171875e+01 -1.479077269323170185e-03 -2.045938372611999512e-01 -6.182187423110008240e-02 2.120476774871349335e-02
9.930000000000000000e+02 7.209867858886718750e+01 3.187765693664550781e+01 -2.045268267393112183e-01 3.756760358810424805e-01 5.134475976228713989e-02 3.140392899513244629e-01
9.940000000000000000e+02 6.780303955078125000e+01 3.272303009033203125e+01 -3.463516533374786377e-01 9.653073549270629883e-01 1.856867074966430664e-01 1.509559750556945801e-01
9.950000000000000000e+02 5.583506393432617188e+01 3.195557785034179688e+01 -4.283052310347557068e-02 1.246813654899597168e+00 3.611949384212493896e-01 -1.366904079914093018e-01
9.960000000000000000e+02 5.290584182739257812e+01 3.285110092163085938e+01 -8.474120870232582092e-03 1.368253827095031738e+00 4.079339206218719482e-01 8.000256121158599854e-02
9.970000000000000000e+02 2.530961608886718750e+01 3.175848770141601562e+01 -1.876592338085174561e-01 2.222847461700439453e+00 6.105564236640930176e-01 -8.503732681274414062e-01
9.980000000000000000e+02 2.237716865539550781e+01 3.243178939819335938e+01 -3.608237951993942261e-02 1.532338261604309082e+00 4.488767683506011963e-01 -6.514987945556640625e-01
9.990000000000000000e+02 1.932924079895019531e+01 3.222464752197265625e+01 1.297480911016464233e-01 9.331306815147399902e-01 3.188636302947998047e-01 -3.935920000076293945e-01
1.000000000000000000e+03 8.882493972778320312e+00 3.462041473388671875e+01 6.486627459526062012e-02 1.183175742626190186e-01 5.495515465736389160e-02 4.721603915095329285e-02
1.001000000000000000e+03 5.355253219604492188e+00 3.188479232788085938e+01 2.541194856166839600e-02 -8.164137601852416992e-02 -1.686882786452770233e-02 9.397889673709869385e-02
1.002000000000000000e+03 7.452251911163330078e-01 3.043421936035156250e+01 -9.448308846913278103e-04 -2.880258262157440186e-01 -8.669120073318481445e-02 2.143929712474346161e-02
1.003000000000000000e+03 7.665790557861328125e+01 3.707136917114257812e+01 -2.307436056435108185e-02 -2.321646511554718018e-01 -7.657170295715332031e-02 1.246217042207717896e-01
1.004000000000000000e+03 5.775831604003906250e+01 3.771947479248046875e+01 -2.022767066955566406e-01 1.379624843597412109e+00 3.532044589519500732e-01 -4.416161775588989258e-02
1.005000000000000000e+03 6.689603328704833984e+00 3.422104644775390625e+01 4.128535464406013489e-02 -5.253364332020282745e-03 1.080959662795066833e-02 7.266756147146224976e-02
1.006000000000000000e+03 6.537664532661437988e-01 3.468341064453125000e+01 1.509750355035066605e-02 -3.911886215209960938e-01 -1.128273308277130127e-01 8.164678700268268585e-03
1.007000000000000000e+03 7.352476501464843750e+01 3.799416732788085938e+01 -1.181992962956428528e-01 1.806422472000122070e-01 1.873288489878177643e-02 1.117375046014785767e-01
1.008000000000000000e+03 7.082738494873046875e+01 3.834043502807617188e+01 -1.886966675519943237e-01 4.436422288417816162e-01 7.648366689682006836e-02 1.078787222504615784e-01
1.009000000000000000e+03 6.868600845336914062e-01 3.738190460205078125e+01 1.468826178461313248e-02 -4.031093120574951172e-01 -1.165263131260871887e-01 -5.291916429996490479e-03
1.010000000000000000e+03 4.676227569580078125e+00 1.499492549896240234e+01 -1.412904355674982071e-02 -3.962250892072916031e-03 -5.427388008683919907e-03 7.491463329643011093e-03
1.011000000000000000e+03 1.343466281890869141e+01 1.241644859313964844e+01 7.743191905319690704e-03 4.502222407609224319e-03 3.673624480143189430e-03 2.516217529773712158e-03
1.012000000000000000e+03 6.245078444480895996e-01 1.633163261413574219e+01 -4.952566698193550110e-03 4.597188439220190048e-03 -1.066135009750723839e-04 2.308853203430771828e-03
1.013000000000000000e+03 1.426847553253173828e+01 1.674634170532226562e+01 1.340596098452806473e-02 8.623369969427585602e-03 6.608799565583467484e-03 -4.531194281298667192e-04
1.014000000000000000e+03 4.003798007965087891e+00 1.066621971130371094e+01 3.179773222655057907e-03 -6.186228711158037186e-04 7.683450821787118912e-04 -1.749920775182545185e-03
1.015000000000000000e+03 1.324278831481933594e+01 1.104109096527099609e+01 -7.391533348709344864e-03 2.290997654199600220e-03 -1.530160778202116489e-03 3.355747321620583534e-03
1.016000000000000000e+03 1.038552379608154297e+01 1.038171291351318359e+01 3.680432680994272232e-03 -2.251177327707409859e-03 4.287766059860587120e-04 9.382288553752005100e-04
1.017000000000000000e+03 6.255947947502136230e-01 1.350571537017822266e+01 -2.994351089000701904e-03 8.114663884043693542e-03 1.536093885079026222e-03 2.477695525158196688e-04
1.018000000000000000e+03 3.300361394882202148e+00 5.431221961975097656e+00 -1.623537740670144558e-03 6.814674125052988529e-04 -2.826210984494537115e-04 -1.855389331467449665e-03
1.019000000000000000e+03 5.949599742889404297e-01 9.259398460388183594e+00 1.844379934482276440e-03 4.870206117630004883e-03 2.014375757426023483e-03 -7.109221187420189381e-04
1.020000000000000000e+03 5.750103473663330078e+00 1.892987012863159180e+00 1.711011049337685108e-03 3.867523046210408211e-04 6.293290061876177788e-04 -9.694604668766260147e-04
1.021000000000000000e+03 1.179666233062744141e+01 2.584165096282958984e+00 -9.512421820545569062e-05 -9.607758838683366776e-04 -3.167700488120317459e-04 8.507179445587098598e-04
1.022000000000000000e+03 8.784273147583007812e+00 2.582462072372436523e+00 5.277810269035398960e-04 -1.273686997592449188e-03 -2.237717853859066963e-04 3.745154826901853085e-04
1.023000000000000000e+03 1.656115150451660156e+01 6.256371021270751953e+00 1.467351685278117657e-03 3.049863036721944809e-03 1.355164451524615288e-03 1.371711608953773975e-03
1.024000000000000000e+03 6.135774850845336914e-01 6.417603492736816406e+00 1.298895920626819134e-03 2.365178661420941353e-03 1.099222339689731598e-03 -5.788286798633635044e-04
1.025000000000000000e+03 6.687490463256835938e+00 -3.544568252563476562e+01 -1.167073771357536316e-01 7.731311954557895660e-03 -3.269281983375549316e-02 1.384772807359695435e-01
1.026000000000000000e+03 1.616676139831542969e+01 -3.593123626708984375e+01 -1.739511191844940186e-01 6.244793534278869629e-01 1.351584792137145996e-01 -1.727324426174163818e-01
1.027000000000000000e+03 4.820013046264648438e+01 -3.589180374145507812e+01 -6.575116515159606934e-01 3.847174644470214844e+00 9.568989276885986328e-01 -1.040646791458129883e+00
1.028000000000000000e+03 5.128562545776367188e+01 -3.623048019409179688e+01 -1.404317915439605713e-01 2.298987150192260742e+00 6.475666165351867676e-01 -9.777676463127136230e-01
1.029000000000000000e+03 6.897109222412109375e+01 -3.504427719116210938e+01 4.897889681160449982e-03 -6.209376268088817596e-03 -3.934460110031068325e-04 1.109480485320091248e-01
1.030000000000000000e+03 7.342996215820312500e+01 -3.440428543090820312e+01 8.283043862320482731e-04 -3.088590875267982483e-02 -9.017281234264373779e-03 7.818862795829772949e-02
1.031000000000000000e+03 7.499334716796875000e+01 -3.325076293945312500e+01 -3.883690340444445610e-03 -4.049015790224075317e-02 -1.331215538084506989e-02 5.145096406340599060e-02
1.032000000000000000e+03 1.819499969482421875e+01 -2.550735664367675781e+01 4.679776430130004883e-01 6.815626025199890137e-01 3.448620736598968506e-01 -5.981311202049255371e-01
1.033000000000000000e+03 6.902502441406250000e+01 -1.470567989349365234e+01 -2.845594882965087891e-01 3.799579665064811707e-02 -7.396910339593887329e-02 7.776555418968200684e-02
1.034000000000000000e+03 3.924858856201171875e+01 4.969283103942871094e+00 -6.795657426118850708e-02 8.478775024414062500e+00 2.523245573043823242e+00 5.930328369140625000e-01
1.035000000000000000e+03 3.922462463378906250e+01 6.137928962707519531e+00 4.504996538162231445e-02 9.766541481018066406e+00 2.943477392196655273e+00 5.718812942504882812e-01
1.036000000000000000e+03 4.173179244995117188e+01 1.298923683166503906e+01 7.381414175033569336e-01 2.464985609054565430e+00 9.609380960464477539e-01 1.214472293853759766e+00
1.037000000000000000e+03 4.388328170776367188e+01 1.506356716156005859e+01 5.304211974143981934e-01 1.013169884681701660e+00 4.630773067474365234e-01 6.723806262016296387e-01
1.038000000000000000e+03 5.005596542358398438e+01 2.003460884094238281e+01 -4.961853921413421631e-01 3.652341198176145554e-03 -1.477599143981933594e-01 -3.890516981482505798e-02
1.039000000000000000e+03 5.345616531372070312e+01 2.141026687622070312e+01 -7.382736206054687500e-01 9.244993329048156738e-03 -2.187085896730422974e-01 -1.595220416784286499e-01
1.040000000000000000e+03 5.626533889770507812e+01 2.186941719055175781e+01 -6.213002204895019531e-01 -1.312050130218267441e-02 -1.903262138366699219e-01 -2.432870417833328247e-01
1.041000000000000000e+03 6.253196716308593750e+01 1.513260650634765625e+01 1.435576677322387695e-01 5.771853446960449219e+00 1.774623394012451172e+00 -9.922078251838684082e-02
1.042000000000000000e+03 6.187847137451171875e+01 9.472092628479003906e+00 4.881781935691833496e-01 5.920932292938232422e+00 1.922733068466186523e+00 1.186888217926025391e+00
1.043000000000000000e+03 6.172658157348632812e+01 5.414419174194335938e+00 1.120392322540283203e+00 4.217684268951416016e+00 1.601423025131225586e+00 1.414536356925964355e+00
1.044000000000000000e+03 5.711729431152343750e+01 4.698970019817352295e-01 1.209766507148742676e+00 2.667886257171630859e+00 1.163295865058898926e+00 1.694987773895263672e+00
1.045000000000000000e+03 5.542901229858398438e+01 -1.780434131622314453e+00 1.351674556732177734e+00 2.145828008651733398e+00 1.049250721931457520e+00 1.615966558456420898e+00
1.046000000000000000e+03 5.350725936889648438e+01 -4.050562858581542969e+00 2.526592612266540527e-01 1.515673398971557617e+00 5.304997563362121582e-01 1.017015933990478516e+00
1.047000000000000000e+03 4.732129287719726562e+01 -5.248237133026123047e+00 -5.833192348480224609e+00 -4.993996024131774902e-01 -1.899777531623840332e+00 1.330551028251647949e+00
1.048000000000000000e+03 4.485320281982421875e+01 -4.262453556060791016e+00 -4.668673038482666016e+00 -8.324174582958221436e-02 -1.425574541091918945e+00 8.985126614570617676e-01
1.049000000000000000e+03 3.943723297119140625e+01 -3.974410593509674072e-01 3.702975749969482422e+00 4.758906364440917969e+00 2.538564682006835938e+00 -5.101801395416259766e+00
1.050000000000000000e+03 3.902894592285156250e+01 3.163231134414672852e+00 -3.538620769977569580e-01 7.640303134918212891e+00 2.185932397842407227e+00 2.165983438491821289e+00
1.051000000000000000e+03 3.897145080566406250e+01 3.492928266525268555e+00 -9.070633351802825928e-02 8.163278579711914062e+00 2.421771764755249023e+00 1.970044732093811035e+00
1.052000000000000000e+03 3.913644027709960938e+01 2.921765327453613281e+00 2.540200389921665192e-02 6.151211261749267578e+00 1.852983951568603516e+00 2.307805538177490234e+00
1.053000000000000000e+03 3.851966094970703125e+01 2.826033592224121094e+00 -5.754104256629943848e-01 1.079302120208740234e+01 3.065283298492431641e+00 2.905378580093383789e+00
1.054000000000000000e+03 3.833794021606445312e+01 2.727578878402709961e+00 -8.476707935333251953e-01 1.289924621582031250e+01 3.615472555160522461e+00 2.699558734893798828e+00
1.055000000000000000e+03 3.816049194335937500e+01 2.682420730590820312e+00 -1.379183530807495117e+00 1.505199432373046875e+01 4.101842880249023438e+00 2.829131841659545898e+00
1.056000000000000000e+03 3.483965301513671875e+01 -1.351565933227539062e+01 1.312363147735595703e+00 1.096709442138671875e+01 3.683837413787841797e+00 -3.277338743209838867e+00
1.057000000000000000e+03 3.539871597290039062e+01 -1.630613708496093750e+01 4.677364826202392578e-01 1.070451164245605469e+01 3.351674556732177734e+00 -1.628987193107604980e+00
1.058000000000000000e+03 3.553693389892578125e+01 -1.771577644348144531e+01 3.457942903041839600e-01 9.791671752929687500e+00 3.041239738464355469e+00 -8.884958028793334961e-01
1.059000000000000000e+03 3.546989822387695312e+01 -2.202967071533203125e+01 6.637818813323974609e-01 8.756695747375488281e+00 2.826143264770507812e+00 1.366418361663818359e+00
1.060000000000000000e+03 2.869670104980468750e+01 -2.954753303527832031e+01 -2.570993602275848389e-01 2.627933919429779053e-01 1.708207186311483383e-03 2.940835654735565186e-01
1.061000000000000000e+03 2.725717163085937500e+01 -2.994603347778320312e+01 -6.322531700134277344e-01 1.160789281129837036e-01 -1.548522710800170898e-01 1.097348853945732117e-01
1.062000000000000000e+03 2.420981216430664062e+01 -2.988919639587402344e+01 -7.463134527206420898e-01 -2.395761385560035706e-02 -2.310813069343566895e-01 4.166957736015319824e-02
1.063000000000000000e+03 1.640690040588378906e+01 -2.356959724426269531e+01 6.071187853813171387e-01 1.137678027153015137e+00 5.234390497207641602e-01 -9.013814926147460938e-01
1.064000000000000000e+03 1.936431503295898438e+01 -1.144536018371582031e+01 1.533454775810241699e+00 3.459258377552032471e-01 5.638141632080078125e-01 5.839413404464721680e-01
1.065000000000000000e+03 2.208733940124511719e+01 -1.097415256500244141e+01 7.090079784393310547e-01 1.196591556072235107e-01 2.486001402139663696e-01 3.146580457687377930e-01
1.066000000000000000e+03 2.457235527038574219e+01 -1.007010173797607422e+01 2.666001319885253906e-01 1.198031380772590637e-01 1.159209832549095154e-01 2.699119448661804199e-01
1.067000000000000000e+03 6.862705993652343750e+01 -2.066419410705566406e+01 7.235620170831680298e-03 6.594932638108730316e-03 4.149165935814380646e-03 -1.052810344845056534e-03
1.068000000000000000e+03 6.770137023925781250e+01 -2.445686340332031250e+01 -3.385989367961883545e-02 7.929585874080657959e-03 -7.779092062264680862e-03 -1.107007917016744614e-02
1.069000000000000000e+03 6.238434600830078125e+01 -2.864037132263183594e+01 -3.193491399288177490e-01 -7.348477840423583984e-02 -1.178501695394515991e-01 -8.597476780414581299e-02
1.070000000000000000e+03 5.533697128295898438e+01 -3.059464836120605469e+01 -9.519240856170654297e-01 6.312400102615356445e-02 -2.666400372982025146e-01 -5.440470948815345764e-02
1.071000000000000000e+03 5.393724060058593750e+01 -3.055449104309082031e+01 -7.392867803573608398e-01 1.041522249579429626e-03 -2.214735746383666992e-01 -1.174402385950088501e-01
1.072000000000000000e+03 4.595541763305664062e+01 -2.778259086608886719e+01 2.065405845642089844e+00 8.061285972595214844e+00 3.038007497787475586e+00 -2.732993125915527344e+00
1.073000000000000000e+03 4.391496276855468750e+01 -1.860260009765625000e+01 2.408858537673950195e+00 9.481549263000488281e+00 3.567122459411621094e+00 4.587045311927795410e-01
1.074000000000000000e+03 5.570215988159179688e+01 -1.464558792114257812e+01 8.554812073707580566e-01 3.778273612260818481e-02 2.679791748523712158e-01 3.019542694091796875e-01
1.075000000000000000e+03 5.701208496093750000e+01 -1.447641372680664062e+01 3.208736777305603027e-01 8.190895617008209229e-02 1.208347901701927185e-01 1.991416215896606445e-01
1.076000000000000000e+03 5.960609436035156250e+01 -1.388888168334960938e+01 -3.231070935726165771e-01 1.006802767515182495e-01 -6.672804057598114014e-02 5.665195174515247345e-03
1.077000000000000000e+03 6.207183074951171875e+01 -1.272941493988037109e+01 -1.067078471183776855e+00 9.401052258908748627e-03 -3.173032402992248535e-01 -3.247440755367279053e-01
1.078000000000000000e+03 6.830859375000000000e+01 -1.474298381805419922e+01 -2.640005648136138916e-01 -2.550393342971801758e-02 -8.685135096311569214e-02 1.389852464199066162e-01
1.079000000000000000e+03 6.972277832031250000e+01 -1.463057518005371094e+01 -3.038029074668884277e-01 4.643781483173370361e-02 -7.720952481031417847e-02 5.331516265869140625e-02
1.080000000000000000e+03 7.279977416992187500e+01 -1.370032119750976562e+01 -2.554649412631988525e-01 3.756249696016311646e-02 -6.537073105573654175e-02 -9.057454019784927368e-02
1.081000000000000000e+03 7.358164215087890625e+01 -1.443315982818603516e+01 -1.883396208286285400e-01 3.315507667139172554e-03 -5.550723522901535034e-02 -7.268188893795013428e-02
1.082000000000000000e+03 7.431155395507812500e+01 -1.377909278869628906e+01 -1.767716705799102783e-01 -2.828261349350214005e-04 -5.311634764075279236e-02 -1.123673096299171448e-01
1.083000000000000000e+03 7.583801269531250000e+01 -1.452635288238525391e+01 -9.094560146331787109e-02 -2.991426503285765648e-03 -2.818110771477222443e-02 -6.642591208219528198e-02
1.084000000000000000e+03 7.652337646484375000e+01 -1.454381275177001953e+01 -7.240679860115051270e-02 -2.693756856024265289e-02 -2.980330958962440491e-02 -5.591488629579544067e-02
1.085000000000000000e+03 7.839215087890625000e+01 -1.446328353881835938e+01 -1.521153282374143600e-02 -2.180718258023262024e-02 -1.110561471432447433e-02 -1.972134038805961609e-02
1.086000000000000000e+03 7.939849090576171875e+01 -1.144447231292724609e+01 -7.416407577693462372e-03 -1.123973876237869263e-01 -3.594413772225379944e-02 -3.849790617823600769e-02
1.087000000000000000e+03 7.901670837402343750e+01 -1.437464237213134766e+01 -9.499547071754932404e-03 -1.619861274957656860e-02 -7.709448225796222687e-03 -1.085656322538852692e-02
1.088000000000000000e+03 7.966492462158203125e+01 -1.430465888977050781e+01 -2.661952748894691467e-03 2.896033925935626030e-03 7.022434874670580029e-05 -2.830013545462861657e-05
1.089000000000000000e+03 7.498491668701171875e+01 4.034116744995117188e+01 -7.851894944906234741e-02 -9.291769005358219147e-03 -2.634321525692939758e-02 2.703921496868133545e-02
1.090000000000000000e+03 7.869503021240234375e+01 4.009945678710937500e+01 1.119154132902622223e-02 -2.490684092044830322e-01 -7.136306166648864746e-02 4.513604193925857544e-02
1.091000000000000000e+03 7.656888580322265625e+01 3.909885025024414062e+01 -2.388966828584671021e-02 -2.038508057594299316e-01 -6.832214444875717163e-02 7.397479563951492310e-02
1.092000000000000000e+03 7.931003570556640625e+01 3.470994186401367188e+01 -5.096159409731626511e-03 -5.090320706367492676e-01 -1.542384624481201172e-01 4.329626634716987610e-02
1.093000000000000000e+03 7.921422576904296875e+01 2.778358268737792969e+01 -3.882032353430986404e-03 -1.121389865875244141e+00 -3.375815749168395996e-01 9.431436657905578613e-02
1.094000000000000000e+03 7.805909729003906250e+01 2.071774482727050781e+01 1.736856810748577118e-02 -1.645678400993347168e+00 -4.884929358959197998e-01 2.470272034406661987e-01
1.095000000000000000e+03 7.805712127685546875e+01 1.654920959472656250e+01 3.137907013297080994e-02 -2.008015871047973633e+00 -5.929910540580749512e-01 1.533679813146591187e-01
1.096000000000000000e+03 7.935260009765625000e+01 1.374851036071777344e+01 1.669813063926994801e-03 -2.755189657211303711e+00 -8.260560035705566406e-01 2.969497255980968475e-02
1.097000000000000000e+03 7.804367828369140625e+01 9.576786994934082031e+00 2.921292744576931000e-02 -2.134822368621826172e+00 -6.316828131675720215e-01 -6.823369860649108887e-02
1.098000000000000000e+03 7.809563446044921875e+01 6.839745521545410156e+00 2.316748537123203278e-02 -2.022398710250854492e+00 -5.997693538665771484e-01 -1.514725834131240845e-01
1.099000000000000000e+03 7.815956878662109375e+01 2.743897199630737305e+00 2.556625194847583771e-02 -1.678294897079467773e+00 -4.958185851573944092e-01 -2.367873787879943848e-01
1.100000000000000000e+03 7.818525695800781250e+01 1.978719234466552734e-02 1.643143035471439362e-02 -1.362155079841613770e+00 -4.037170708179473877e-01 -2.665230035781860352e-01
1.101000000000000000e+03 7.939688110351562500e+01 -2.949786901473999023e+00 -4.143348895013332367e-03 -1.174165964126586914e+00 -3.534927964210510254e-01 -9.532110393047332764e-02
1.102000000000000000e+03 7.819420623779296875e+01 -4.088777542114257812e+00 -1.167773734778165817e-02 -8.326492905616760254e-01 -2.532981038093566895e-01 -2.685938775539398193e-01
1.103000000000000000e+03 7.815519714355468750e+01 -6.859102249145507812e+00 -2.366776578128337860e-02 -5.023533701896667480e-01 -1.578063368797302246e-01 -2.334646880626678467e-01
1.104000000000000000e+03 7.815739440917968750e+01 -1.121931457519531250e+01 -3.274316340684890747e-02 -1.421162337064743042e-01 -5.245781689882278442e-02 -1.152632683515548706e-01
1.105000000000000000e+03 3.982866406440734863e-01 2.163567066192626953e+00 -8.108152542263269424e-04 -2.008359479077626020e-05 -2.492696512490510941e-04 1.677390682743862271e-04
1.106000000000000000e+03 6.212469339370727539e-01 4.944824218750000000e+00 -1.000852440483868122e-03 1.383277354761958122e-03 1.147274888353422284e-04 -2.779867209028452635e-04
1.107000000000000000e+03 1.837782382965087891e+00 6.386122226715087891e+00 -1.713347737677395344e-03 1.504491898231208324e-03 -6.265674892347306013e-05 -9.928317740559577942e-04
1.108000000000000000e+03 1.766898274421691895e+00 9.249554634094238281e+00 -2.289474243298172951e-03 2.976636867970228195e-03 2.061488048639148474e-04 -1.419722451828420162e-03
1.109000000000000000e+03 6.117702722549438477e-01 1.208748435974121094e+01 2.175187692046165466e-03 7.701261434704065323e-03 2.962934784591197968e-03 -5.874793860130012035e-04
1.110000000000000000e+03 1.829851031303405762e+00 1.206779384613037109e+01 -3.483250038698315620e-03 3.380583366379141808e-03 -3.080006354139186442e-05 -7.567948196083307266e-04
1.111000000000000000e+03 1.889767408370971680e+00 1.633069229125976562e+01 1.479661557823419571e-03 -2.072114497423171997e-03 -1.777358411345630884e-04 4.710929468274116516e-03
1.112000000000000000e+03 1.800006985664367676e+00 1.912592124938964844e+01 5.722023779526352882e-04 -1.726333983242511749e-02 -5.007341504096984863e-03 1.568540185689926147e-02
1.113000000000000000e+03 5.849626064300537109e-01 2.194892311096191406e+01 -6.799534894526004791e-03 -5.141337588429450989e-02 -1.746387407183647156e-02 1.087521016597747803e-02
1.114000000000000000e+03 6.280729770660400391e-01 2.475588989257812500e+01 -4.669549409300088882e-03 -1.196956932544708252e-01 -3.730957210063934326e-02 1.699300855398178101e-02
1.115000000000000000e+03 6.678960323333740234e-01 2.616243362426757812e+01 9.812046773731708527e-04 -1.615896672010421753e-01 -4.818253964185714722e-02 2.070359699428081512e-02
1.116000000000000000e+03 7.311361432075500488e-01 2.900386428833007812e+01 1.058954396285116673e-03 -2.469801753759384155e-01 -7.377636432647705078e-02 2.167918346822261810e-02
1.117000000000000000e+03 2.205796003341674805e+00 2.886135864257812500e+01 -2.464927383698523045e-04 -1.837245374917984009e-01 -5.519131198525428772e-02 6.046077609062194824e-02
1.118000000000000000e+03 7.184201478958129883e-01 3.329643249511718750e+01 -4.042087122797966003e-03 -3.629920780658721924e-01 -1.101102456450462341e-01 1.932571828365325928e-02
1.119000000000000000e+03 6.225177049636840820e-01 3.603765869140625000e+01 -9.900965727865695953e-03 -4.052497446537017822e-01 -1.245452165603637695e-01 4.607094917446374893e-03
1.120000000000000000e+03 3.143172264099121094e+00 3.680954360961914062e+01 3.083068132400512695e-02 -2.597563266754150391e-01 -6.867769360542297363e-02 1.988404057919979095e-02
1.121000000000000000e+03 1.272465109825134277e+00 4.003431320190429688e+01 1.929895393550395966e-02 -3.729690015316009521e-01 -1.061010211706161499e-01 -1.980263181030750275e-02
1.122000000000000000e+03 8.821435928344726562e+00 1.859334826469421387e+00 1.860669930465519428e-03 5.727417301386594772e-04 7.300234865397214890e-04 -2.209208614658564329e-04
1.123000000000000000e+03 9.587855339050292969e+00 1.858895421028137207e+00 7.291597430594265461e-04 -9.597138268873095512e-04 -6.916624261066317558e-05 4.086275584995746613e-04
1.124000000000000000e+03 6.517304420471191406e+00 1.878823637962341309e+00 6.410026107914745808e-04 -7.929634884931147099e-04 -4.558826549327932298e-05 1.157860970124602318e-04
1.125000000000000000e+03 4.984992980957031250e+00 1.911751985549926758e+00 2.267685340484604239e-04 -4.614618956111371517e-04 -7.040800846880301833e-05 -1.532595488242805004e-04
1.126000000000000000e+03 2.643600702285766602e+00 2.081319570541381836e+00 1.172863761894404888e-03 3.636234323494136333e-04 4.609461757354438305e-04 -5.200202576816082001e-04
1.127000000000000000e+03 1.158403635025024414e+00 2.038414955139160156e+00 -1.595520443515852094e-04 8.373185992240905762e-04 2.033299679169431329e-04 -2.999441639985889196e-04
1.128000000000000000e+03 1.105184650421142578e+01 2.581871032714843750e+00 1.856978167779743671e-03 6.633060402236878872e-04 7.560852682217955589e-04 3.140787302982062101e-04
1.129000000000000000e+03 1.331302738189697266e+01 1.886486649513244629e+00 1.197524718008935452e-03 9.797050151973962784e-04 6.531689432449638844e-04 2.435943169984966516e-04
1.130000000000000000e+03 1.550601959228515625e+01 1.952690005302429199e+00 -2.328020491404458880e-04 -9.270054288208484650e-04 -3.479422302916646004e-04 4.329207004047930241e-04
1.131000000000000000e+03 1.621612930297851562e+01 1.992859959602355957e+00 6.819842965342104435e-04 1.195327029563486576e-03 5.631934036500751972e-04 1.871293643489480019e-04
1.132000000000000000e+03 1.762051200866699219e+01 2.130854368209838867e+00 5.450230673886835575e-04 1.043138559907674789e-03 4.764484765473753214e-04 2.429510932415723801e-04
1.133000000000000000e+03 1.900748443603515625e+01 2.329325437545776367e+00 6.684054387733340263e-04 6.376231904141604900e-04 3.918086003977805376e-04 1.316294674325035885e-05
1.134000000000000000e+03 2.072614097595214844e+01 3.553269147872924805e+00 9.836889803409576416e-04 3.006960905622690916e-04 3.853155358228832483e-04 4.674934461945667863e-05
1.135000000000000000e+03 2.106130599975585938e+01 2.734466314315795898e+00 -6.086294306442141533e-04 -2.967829641420394182e-04 -2.716237213462591171e-04 1.660552952671423554e-04
1.136000000000000000e+03 2.323975753784179688e+01 3.530164480209350586e+00 4.479575145523995161e-04 5.363719537854194641e-04 2.952988434117287397e-04 2.734665176831185818e-04
1.137000000000000000e+03 2.237082290649414062e+01 4.417916297912597656e+00 -5.027412553317844868e-04 -9.324122220277786255e-04 -4.305460315663367510e-04 -4.102473030798137188e-04
1.138000000000000000e+03 1.978038978576660156e+01 5.224354743957519531e+00 2.108633052557706833e-03 -9.313119335274677724e-06 6.297960062511265278e-04 1.098333974368870258e-03
1.139000000000000000e+03 1.929322624206542969e+01 6.099685668945312500e+00 -3.258096054196357727e-03 -3.370188642293214798e-04 -1.078534405678510666e-03 -1.141856890171766281e-03
1.140000000000000000e+03 1.845125579833984375e+01 2.215392875671386719e+01 -6.250855922698974609e-01 -6.191920116543769836e-02 -2.061014324426651001e-01 -1.387219429016113281e-01
1.141000000000000000e+03 2.588473701477050781e+01 2.193058204650878906e+01 1.266801595687866211e+00 5.102037787437438965e-01 5.331016182899475098e-01 -6.901308894157409668e-01
1.142000000000000000e+03 3.128016281127929688e+01 1.722587585449218750e+01 2.020814180374145508e+00 1.115854072570800781e+01 3.953806400299072266e+00 -4.059358596801757812e+00
1.143000000000000000e+03 3.464037322998046875e+01 1.203408718109130859e+01 8.583931326866149902e-01 1.299713516235351562e+01 4.156658649444580078e+00 -1.659325003623962402e+00
1.144000000000000000e+03 3.356884384155273438e+01 8.897057533264160156e+00 7.062544822692871094e-01 1.777910423278808594e+01 5.545608043670654297e+00 -2.409493923187255859e+00
1.145000000000000000e+03 3.386566162109375000e+01 6.016947746276855469e+00 2.904231548309326172e-01 1.827466392517089844e+01 5.569525718688964844e+00 -1.401739835739135742e+00
1.146000000000000000e+03 3.389962768554687500e+01 4.545630931854248047e+00 5.069090127944946289e-01 1.796320533752441406e+01 5.541034698486328125e+00 -6.866929531097412109e-01
1.147000000000000000e+03 2.428342819213867188e+01 -2.582448124885559082e-01 1.664316952228546143e-01 -1.562140788882970810e-02 4.524308815598487854e-02 2.392144352197647095e-01
1.148000000000000000e+03 2.279117774963378906e+01 -7.425583004951477051e-01 -8.797565102577209473e-02 4.950747638940811157e-02 -1.154045388102531433e-02 3.152278661727905273e-01
1.149000000000000000e+03 2.202676582336425781e+01 -9.613857269287109375e-01 -2.345685809850692749e-01 9.184017032384872437e-02 -4.281852394342422485e-02 3.296986222267150879e-01
1.150000000000000000e+03 1.885504531860351562e+01 -1.521876811981201172e+00 -7.280266284942626953e-01 9.429277479648590088e-02 -1.901201605796813965e-01 2.703163027763366699e-01
1.151000000000000000e+03 2.045584869384765625e+01 -1.290869951248168945e+00 -4.947897195816040039e-01 1.049746423959732056e-01 -1.169445291161537170e-01 3.287048041820526123e-01
1.152000000000000000e+03 1.650258827209472656e+01 -1.707514047622680664e+00 -9.848829507827758789e-01 6.511609256267547607e-02 -2.759300470352172852e-01 1.249277815222740173e-01
1.153000000000000000e+03 1.572657966613769531e+01 -1.748870730400085449e+00 -1.036085844039916992e+00 6.299085170030593872e-02 -2.919284999370574951e-01 6.842017173767089844e-02
1.154000000000000000e+03 1.265846061706542969e+01 -1.844075679779052734e+00 -1.054503679275512695e+00 4.055954515933990479e-02 -3.041832447052001953e-01 -1.330359131097793579e-01
1.155000000000000000e+03 1.037387847900390625e+01 -1.874405145645141602e+00 -9.048792123794555664e-01 2.823547646403312683e-02 -2.629931271076202393e-01 -2.339163869619369507e-01
1.156000000000000000e+03 8.016419410705566406e+00 -2.664115667343139648e+00 -5.614551305770874023e-01 7.413189858198165894e-03 -1.662125736474990845e-01 -3.599350154399871826e-01
1.157000000000000000e+03 7.289308547973632812e+00 -1.873454570770263672e+00 -5.786097049713134766e-01 -5.411274731159210205e-03 -1.752062886953353882e-01 -2.811684310436248779e-01
1.158000000000000000e+03 3.477078914642333984e+00 -1.885000109672546387e+00 -1.843748241662979126e-01 -5.143700540065765381e-02 -7.074354588985443115e-02 -1.858670115470886230e-01
1.159000000000000000e+03 1.981146812438964844e+00 -2.011341094970703125e+00 -7.552326470613479614e-02 -7.756775617599487305e-02 -4.592730477452278137e-02 -1.122750714421272278e-01
1.160000000000000000e+03 4.087455272674560547e-01 -2.181630373001098633e+00 -6.934767123311758041e-03 -3.492426872253417969e-02 -1.255771145224571228e-02 -1.943342573940753937e-02
1.161000000000000000e+03 9.562714695930480957e-01 -3.867819976806640625e+01 -7.708967197686433792e-03 -4.221909642219543457e-01 -1.289699822664260864e-01 2.933338843286037445e-02
1.162000000000000000e+03 8.962007164955139160e-01 -3.339088821411132812e+01 -1.168684195727109909e-02 -6.633767485618591309e-01 -2.025190740823745728e-01 5.178079009056091309e-02
1.163000000000000000e+03 8.734723925590515137e-01 -3.190694427490234375e+01 -6.260738708078861237e-03 -7.571502923965454102e-01 -2.290233075618743896e-01 6.586773693561553955e-02
1.164000000000000000e+03 7.847588062286376953e-01 -2.902291107177734375e+01 -3.383218077942728996e-03 -9.989794492721557617e-01 -3.007088005542755127e-01 7.539553195238113403e-02
1.165000000000000000e+03 7.123864293098449707e-01 -2.617036628723144531e+01 4.602430853992700577e-03 -1.295425057411193848e+00 -3.872467577457427979e-01 7.865867763757705688e-02
1.166000000000000000e+03 1.922937750816345215e+00 -2.177335548400878906e+01 3.370979428291320801e-02 -1.322413444519042969e+00 -3.866111040115356445e-01 1.383894383907318115e-01
1.167000000000000000e+03 1.862763285636901855e+00 -1.900602340698242188e+01 4.259139299392700195e-02 -1.441864132881164551e+00 -4.197818338871002197e-01 4.407541826367378235e-02
1.168000000000000000e+03 6.221877932548522949e-01 -1.631563186645507812e+01 8.544171229004859924e-03 -1.867722034454345703e+00 -5.577533841133117676e-01 -2.474075369536876678e-02
1.169000000000000000e+03 1.869457244873046875e+00 -1.487860298156738281e+01 4.378095641732215881e-02 -1.358445763587951660e+00 -3.943994343280792236e-01 -1.320663392543792725e-01
1.170000000000000000e+03 6.294736862182617188e-01 -9.291735649108886719e+00 -3.825649328064173460e-04 -1.045959472656250000e+00 -3.139026165008544922e-01 -1.017859429121017456e-01
1.171000000000000000e+03 1.872401833534240723e+00 -5.171200275421142578e+00 -3.489975258708000183e-02 -3.433122634887695312e-01 -1.134636104106903076e-01 -2.404039353132247925e-01
1.172000000000000000e+03 7.966857147216796875e+01 -1.862422370910644531e+01 -1.352125662378966808e-03 7.731193327344954014e-04 -1.737018901621922851e-04 -1.481512208556523547e-05
1.173000000000000000e+03 7.945803070068359375e+01 -2.274082756042480469e+01 2.573400968685746193e-03 3.863241756334900856e-03 1.930992817506194115e-03 -1.815941359382122755e-04
1.174000000000000000e+03 7.837366485595703125e+01 -2.272125434875488281e+01 -4.199497401714324951e-03 9.580381447449326515e-04 -9.724377887323498726e-04 7.689802441745996475e-04
1.175000000000000000e+03 7.939715576171875000e+01 -2.682367134094238281e+01 -5.241879262030124664e-03 -5.178458057343959808e-03 -3.126101102679967880e-03 3.253732342272996902e-03
1.176000000000000000e+03 7.817536163330078125e+01 -2.678438758850097656e+01 1.584438723511993885e-03 -9.077752009034156799e-03 -2.247994067147374153e-03 8.280781097710132599e-03
1.177000000000000000e+03 7.940044403076171875e+01 -3.087832260131835938e+01 6.222747731953859329e-03 -3.867876157164573669e-02 -9.736804291605949402e-03 6.333092693239450455e-03
1.178000000000000000e+03 7.821073913574218750e+01 -3.210733032226562500e+01 3.102451795712113380e-03 -4.981014505028724670e-02 -1.401230785995721817e-02 2.261097356677055359e-02
1.179000000000000000e+03 7.932141876220703125e+01 -3.489719772338867188e+01 -5.239226855337619781e-03 -9.486434608697891235e-02 -3.003107197582721710e-02 8.358391933143138885e-03
1.180000000000000000e+03 7.783927154541015625e+01 -3.594033813476562500e+01 -1.704483729554340243e-04 -9.432603418827056885e-02 -2.834894508123397827e-02 2.277324721217155457e-02
1.181000000000000000e+03 7.908622741699218750e+01 -3.884602737426757812e+01 3.399710403755307198e-03 -1.333178430795669556e-01 -3.897543624043464661e-02 4.329110495746135712e-03
1.182000000000000000e+03 7.690040588378906250e+01 -2.007629776000976562e+01 -2.282251836732029915e-03 -9.855084354057908058e-04 -9.803280699998140335e-04 8.652341202832758427e-04
1.183000000000000000e+03 7.709989166259765625e+01 -1.832704734802246094e+01 -5.988666671328246593e-04 -2.387813001405447721e-04 -2.512943756300956011e-04 -3.325840516481548548e-04
1.184000000000000000e+03 7.645912170410156250e+01 -1.827601623535156250e+01 1.948702265508472919e-03 3.855760733131319284e-04 7.002835045568645000e-04 -1.994365593418478966e-03
1.185000000000000000e+03 7.364802551269531250e+01 -1.812615013122558594e+01 2.358227036893367767e-03 -4.380751051940023899e-04 5.760455969721078873e-04 3.542944905348122120e-04
1.186000000000000000e+03 7.507434844970703125e+01 -1.818052482604980469e+01 2.429515821859240532e-03 -7.218048267532140017e-05 7.072006119415163994e-04 -1.161969732493162155e-03
1.187000000000000000e+03 7.225258636474609375e+01 -1.818753242492675781e+01 2.919103717431426048e-03 -1.661175978370010853e-03 3.773783100768923759e-04 1.707468065433204174e-03
1.188000000000000000e+03 3.967768096923828125e+01 3.361742734909057617e+00 2.932387292385101318e-01 4.087536811828613281e+00 1.314232707023620605e+00 3.958219885826110840e-01
1.189000000000000000e+03 3.947237777709960938e+01 3.654869556427001953e+00 1.442348957061767578e-01 5.329202175140380859e+00 1.642031192779541016e+00 7.065890431404113770e-01
1.190000000000000000e+03 3.770722579956054688e+01 2.674755573272705078e+00 -1.550135374069213867e+00 1.815224075317382812e+01 4.980631828308105469e+00 8.953967094421386719e-01
1.191000000000000000e+03 3.635516738891601562e+01 3.276220321655273438e+00 -2.594559788703918457e-01 1.714288139343261719e+01 5.065027713775634766e+00 -2.133621215820312500e+00
1.192000000000000000e+03 3.845566558837890625e+01 -6.945760846138000488e-01 1.956467032432556152e+00 1.307830429077148438e+01 4.510431289672851562e+00 -7.293337345123291016e+00
1.193000000000000000e+03 3.873638153076171875e+01 2.911320209503173828e+00 -2.926042377948760986e-01 9.291275024414062500e+00 2.699601173400878906e+00 2.932595491409301758e+00
1.194000000000000000e+03 3.764818572998046875e+01 3.146038055419921875e+00 -1.619731307029724121e+00 1.659683609008789062e+01 4.493131160736083984e+00 5.944849252700805664e-01
1.195000000000000000e+03 3.908746719360351562e+01 -4.009019136428833008e-01 3.932377338409423828e+00 6.624240875244140625e+00 3.166985511779785156e+00 -6.445850849151611328e+00
1.196000000000000000e+03 3.983597183227539062e+01 -3.670275211334228516e-01 2.837504386901855469e+00 2.533766984939575195e+00 1.611381411552429199e+00 -3.561228752136230469e+00
1.197000000000000000e+03 3.914532089233398438e+01 -5.307191014289855957e-01 3.378682613372802734e+00 6.701494216918945312e+00 3.024053096771240234e+00 -6.036767959594726562e+00
1.198000000000000000e+03 3.895169067382812500e+01 2.916511297225952148e+00 -3.119422495365142822e-01 7.749044418334960938e+00 2.231130599975585938e+00 2.631338834762573242e+00
1.199000000000000000e+03 3.993254852294921875e+01 -6.650266647338867188e-01 2.937523603439331055e+00 3.171911001205444336e+00 1.832830429077148438e+00 -3.964097976684570312e+00
1.200000000000000000e+03 7.715076446533203125e+01 -1.454599189758300781e+01 -4.875793680548667908e-02 -1.079945173114538193e-02 -1.786721684038639069e-02 -4.059302806854248047e-02
1.201000000000000000e+03 7.761370086669921875e+01 -1.377511405944824219e+01 -4.313690960407257080e-02 -2.959443628787994385e-02 -2.181940339505672455e-02 -5.080280080437660217e-02
1.202000000000000000e+03 7.817551422119140625e+01 -1.237263870239257812e+01 -3.753360733389854431e-02 -8.586863428354263306e-02 -3.702067211270332336e-02 -7.526411116123199463e-02
1.203000000000000000e+03 7.777140045166015625e+01 -1.452256870269775391e+01 -3.307237103581428528e-02 -2.979127131402492523e-02 -1.885909214615821838e-02 -3.335465118288993835e-02
1.204000000000000000e+03 7.765709686279296875e+01 -1.928857612609863281e+01 -2.675969153642654419e-03 7.895010639913380146e-04 -5.659403977915644646e-04 -4.538399807643145323e-04
1.205000000000000000e+03 7.837218475341796875e+01 -1.843002700805664062e+01 -7.197629893198609352e-04 3.715415950864553452e-04 -1.044664168148301542e-04 -9.897858835756778717e-04
1.206000000000000000e+03 7.948403167724609375e+01 -2.133095359802246094e+01 -2.205602126196026802e-03 3.719819011166691780e-03 4.542651295196264982e-04 -9.083603799808770418e-06
1.207000000000000000e+03 6.849620056152343750e+01 -1.315028476715087891e+01 -6.092497110366821289e-01 5.623226985335350037e-02 -1.659052371978759766e-01 5.316552892327308655e-02
1.208000000000000000e+03 7.043470764160156250e+01 -1.382766819000244141e+01 -3.763286769390106201e-01 8.357145637273788452e-02 -8.782716095447540283e-02 -1.905267685651779175e-02
1.209000000000000000e+03 6.762456512451171875e+01 -1.473329734802246094e+01 -2.184900641441345215e-01 -1.538273096084594727e-01 -1.116952151060104370e-01 1.587575823068618774e-01
1.210000000000000000e+03 2.178752136230468750e+01 2.928054094314575195e+00 3.731798205990344286e-04 2.768244012258946896e-04 1.950012665474787354e-04 -2.601029118523001671e-04
1.211000000000000000e+03 1.834063148498535156e+01 4.764809131622314453e+00 -2.503626281395554543e-03 1.891500578494742513e-04 -6.943428888916969299e-04 -3.217891789972782135e-04
1.212000000000000000e+03 1.781167793273925781e+01 3.726221084594726562e+00 -1.251268316991627216e-03 -4.685638705268502235e-04 -5.159496795386075974e-04 -8.179268334060907364e-04
1.213000000000000000e+03 2.038084983825683594e+01 2.592216014862060547e+00 5.992298247292637825e-04 4.532154125627130270e-04 3.157335740979760885e-04 -3.995438237325288355e-05
1.214000000000000000e+03 2.138592720031738281e+01 3.700502872467041016e+00 -7.117550121620297432e-04 -5.074180808151140809e-05 -2.287490497110411525e-04 3.315073263365775347e-04
1.215000000000000000e+03 7.179393005371093750e+01 -1.964273643493652344e+01 -5.328848026692867279e-03 -1.195229357108473778e-03 -1.957223284989595413e-03 1.665371470153331757e-03
1.216000000000000000e+03 7.007337188720703125e+01 -1.857969474792480469e+01 2.380227379035204649e-04 8.792535518296062946e-04 3.351828781887888908e-04 8.669876260682940483e-04
1.217000000000000000e+03 7.120163726806640625e+01 -1.914350128173828125e+01 1.109547330997884274e-03 1.122044050134718418e-03 6.694774492643773556e-04 2.347409317735582590e-04
1.218000000000000000e+03 7.061862945556640625e+01 -1.957913780212402344e+01 -2.348872134461998940e-03 -1.422344241291284561e-03 -1.131364959292113781e-03 3.764875000342726707e-03
1.219000000000000000e+03 1.612614059448242188e+01 2.680283069610595703e+00 -5.475854850374162197e-04 -8.981853025034070015e-04 -4.337312420830130577e-04 5.058657843619585037e-04
1.220000000000000000e+03 1.831876564025878906e+01 2.220486164093017578e+00 -5.674850544892251492e-04 -6.316927610896527767e-04 -3.597533504944294691e-04 -1.676979081821627915e-05
1.221000000000000000e+03 1.875287055969238281e+01 3.095417022705078125e+00 -1.025641569867730141e-03 -3.177207836415618658e-04 -4.030086856801062822e-04 5.834148032590746880e-05
1.222000000000000000e+03 1.678855705261230469e+01 2.724326133728027344e+00 5.306280218064785004e-04 1.430930336937308311e-03 5.884675192646682262e-04 2.263464994030073285e-04
1.223000000000000000e+03 1.397693824768066406e+01 3.290194749832153320e+00 -3.996483865194022655e-04 -9.875417454168200493e-04 -4.161570395808666945e-04 1.202467130497097969e-03
1.224000000000000000e+03 1.396670913696289062e+01 3.951611995697021484e+00 1.299129682593047619e-03 1.212811563163995743e-03 7.535823388025164604e-04 2.571649383753538132e-04
1.225000000000000000e+03 1.478128814697265625e+01 1.929375886917114258e+00 8.750958368182182312e-04 1.103994785808026791e-03 5.937271635048091412e-04 2.542479778639972210e-04
1.226000000000000000e+03 1.544836616516113281e+01 2.646063327789306641e+00 1.001478172838687897e-03 1.200146391056478024e-03 6.604873342439532280e-04 3.387089818716049194e-04
1.227000000000000000e+03 1.474107265472412109e+01 2.621681928634643555e+00 -3.298612136859446764e-04 -9.106639772653579712e-04 -3.721575485542416573e-04 5.720313638448715210e-04
1.228000000000000000e+03 7.373725128173828125e+01 -1.882126998901367188e+01 -1.094054532586596906e-04 -1.671041711233556271e-03 -5.341341602616012096e-04 -3.938931913580745459e-04
1.229000000000000000e+03 7.506697845458984375e+01 -1.890003395080566406e+01 -1.434623496606945992e-03 -9.049731306731700897e-04 -7.018789765425026417e-04 -1.687876356299966574e-04
1.230000000000000000e+03 1.108981800079345703e+01 1.863660931587219238e+00 4.517731431405991316e-04 -9.121923940256237984e-04 -1.381257607135921717e-04 5.947417812421917915e-04
1.231000000000000000e+03 1.183372974395751953e+01 1.867074608802795410e+00 1.594276982359588146e-03 7.694921223446726799e-04 7.091307197697460651e-04 2.332264411961659789e-04
1.232000000000000000e+03 1.253626346588134766e+01 2.588845968246459961e+00 1.564654754474759102e-03 8.686847286298871040e-04 7.300018332898616791e-04 2.892762713599950075e-04
1.233000000000000000e+03 1.327257251739501953e+01 2.597032546997070312e+00 -1.834742724895477295e-04 -9.415572276338934898e-04 -3.375094674993306398e-04 9.815143421292304993e-04
1.234000000000000000e+03 1.194339752197265625e+01 -3.307522296905517578e+00 -7.047227621078491211e-01 1.298791021108627319e-01 -1.724530905485153198e-01 -2.250126153230667114e-01
1.235000000000000000e+03 1.036831188201904297e+01 -2.628396749496459961e+00 -7.573879361152648926e-01 6.045960262417793274e-02 -2.090785056352615356e-01 -2.948835492134094238e-01
1.236000000000000000e+03 1.267796134948730469e+01 -2.558750629425048828e+00 -8.795511126518249512e-01 8.362062275409698486e-02 -2.387791574001312256e-01 -1.501518636941909790e-01
1.237000000000000000e+03 1.113924980163574219e+01 -2.604794979095458984e+00 -8.081937432289123535e-01 6.723331660032272339e-02 -2.222881168127059937e-01 -2.519963979721069336e-01
1.238000000000000000e+03 7.280741882324218750e+01 -1.442958259582519531e+01 -2.272002100944519043e-01 3.386449441313743591e-02 -5.800071358680725098e-02 -6.391689926385879517e-02
1.239000000000000000e+03 7.503879547119140625e+01 -1.382300376892089844e+01 -1.378389149904251099e-01 -8.771114051342010498e-03 -4.398300871253013611e-02 -1.043323650956153870e-01
1.240000000000000000e+03 7.574836730957031250e+01 -1.385139560699462891e+01 -1.133382320404052734e-01 -2.439157292246818542e-02 -4.131894186139106750e-02 -9.450507164001464844e-02
1.241000000000000000e+03 7.702923583984375000e+01 -1.386035442352294922e+01 -6.156356632709503174e-02 -4.358930513262748718e-02 -3.154586255550384521e-02 -6.823422759771347046e-02
1.242000000000000000e+03 1.418811225891113281e+01 -1.800115942955017090e+00 -1.085146069526672363e+00 5.124871805310249329e-02 -3.101691901683807373e-01 -4.046011716127395630e-02
1.243000000000000000e+03 1.422847080230712891e+01 -3.228118181228637695e+00 -7.405641674995422363e-01 1.767840832471847534e-01 -1.691340357065200806e-01 -1.684096828103065491e-02
1.244000000000000000e+03 1.344324016571044922e+01 -2.535366058349609375e+00 -8.961882591247558594e-01 9.650031477212905884e-02 -2.399063855409622192e-01 -9.260132908821105957e-02
1.245000000000000000e+03 1.575331687927246094e+01 -2.474779605865478516e+00 -8.552950024604797363e-01 1.204433292150497437e-01 -2.204555124044418335e-01 1.159607395529747009e-01
1.246000000000000000e+03 7.255955219268798828e+00 2.611528396606445312e+00 5.026535363867878914e-04 -1.199134043417870998e-03 -2.089441695716232061e-04 2.181935269618406892e-04
1.247000000000000000e+03 8.020351409912109375e+00 2.592012882232666016e+00 1.842459663748741150e-03 5.314406589604914188e-04 7.121700909920036793e-04 -5.277211894281208515e-04
1.248000000000000000e+03 2.716644048690795898e+00 3.037378072738647461e+00 -7.951081497594714165e-04 5.651602987200021744e-04 -6.898435094626620412e-05 -1.741147279972210526e-04
1.249000000000000000e+03 2.764560461044311523e+00 3.841565370559692383e+00 1.383905881084501743e-03 8.609395008534193039e-04 6.734536145813763142e-04 -1.789779984392225742e-03
1.250000000000000000e+03 4.223845481872558594e+00 2.807263612747192383e+00 -4.210034967400133610e-04 -2.796225307974964380e-04 -2.101878053508698940e-04 -4.040044732391834259e-04
1.251000000000000000e+03 6.491507530212402344e+00 2.644725322723388672e+00 1.826673629693686962e-03 4.444526566658169031e-04 6.813379004597663879e-04 -1.101512112654745579e-03
1.252000000000000000e+03 5.729623317718505859e+00 2.690430879592895508e+00 9.593797585694119334e-05 -8.082859567366540432e-04 -2.137043920811265707e-04 2.534856866986956447e-05
1.253000000000000000e+03 1.427912712097167969e+00 3.002600431442260742e+00 1.874554727692157030e-04 7.501223008148372173e-04 2.812733291648328304e-04 -1.555937196826562285e-04
1.254000000000000000e+03 1.871264815330505371e+00 2.055010080337524414e+00 -1.598968665348365903e-04 -3.017935669049620628e-04 -1.385071227559819818e-04 -7.706343312747776508e-04
1.255000000000000000e+03 1.030229759216308594e+01 2.580766439437866211e+00 2.354314201511442661e-04 -1.135548809543251991e-03 -2.700352342799305916e-04 5.787622649222612381e-04
1.256000000000000000e+03 9.546304702758789062e+00 2.580313205718994141e+00 1.871793647296726704e-03 5.817823694087564945e-04 7.360727759078145027e-04 3.533358176355250180e-05
1.257000000000000000e+03 5.758656501770019531e+00 -1.851081967353820801e+00 -4.033848345279693604e-01 -2.560515515506267548e-02 -1.286969929933547974e-01 -2.612555325031280518e-01
1.258000000000000000e+03 8.059244155883789062e+00 -1.884091138839721680e+00 -6.649262905120849609e-01 5.733357742428779602e-03 -1.977578848600387573e-01 -2.808006703853607178e-01
1.259000000000000000e+03 7.135588169097900391e+00 -3.447897911071777344e+00 -4.066053926944732666e-01 -1.604010909795761108e-02 -1.267936527729034424e-01 -4.274227917194366455e-01
1.260000000000000000e+03 2.898744344711303711e+00 -2.811468362808227539e+00 -1.274601370096206665e-01 -1.097952425479888916e-01 -7.117661088705062866e-02 -2.179196923971176147e-01
1.261000000000000000e+03 6.482169151306152344e+00 -2.570492029190063477e+00 -4.328157007694244385e-01 -2.359851822257041931e-02 -1.369242668151855469e-01 -3.496685326099395752e-01
1.262000000000000000e+03 7.235977172851562500e+00 -2.633338212966918945e+00 -4.959946274757385254e-01 -5.802056752145290375e-03 -1.505389958620071411e-01 -3.589970767498016357e-01
1.263000000000000000e+03 5.206997871398925781e+00 -4.017796993255615234e+00 -2.366908937692642212e-01 -1.040592938661575317e-01 -1.022250577807426453e-01 -4.295800626277923584e-01
1.264000000000000000e+03 5.042715072631835938e+00 -3.305417060852050781e+00 -2.613649070262908936e-01 -8.608724176883697510e-02 -1.042356491088867188e-01 -3.724667429924011230e-01
1.265000000000000000e+03 2.732512235641479492e+00 -1.937177896499633789e+00 -1.250712424516677856e-01 -6.469775736331939697e-02 -5.693070217967033386e-02 -1.483065634965896606e-01
1.266000000000000000e+03 3.533596277236938477e+00 -2.630581378936767578e+00 -1.832112967967987061e-01 -8.297134935855865479e-02 -7.985479384660720825e-02 -2.407144457101821899e-01
1.267000000000000000e+03 6.200528144836425781e-01 -5.026767730712890625e+00 -8.519763126969337463e-03 -3.380066156387329102e-01 -1.039579138159751892e-01 -8.842660486698150635e-02
1.268000000000000000e+03 1.735999298095703125e+01 -3.188197612762451172e+00 -6.068625450134277344e-01 2.180907726287841797e-01 -1.166315376758575439e-01 3.286573290824890137e-01
1.269000000000000000e+03 1.728233337402343750e+01 -1.650475263595581055e+00 -9.182274341583251953e-01 7.717640697956085205e-02 -2.523153126239776611e-01 1.761666685342788696e-01
1.270000000000000000e+03 1.653888702392578125e+01 -2.450559377670288086e+00 -8.094965815544128418e-01 1.356937289237976074e-01 -2.021408677101135254e-01 1.895453184843063354e-01
1.271000000000000000e+03 3.622780609130859375e+01 4.104053020477294922e+00 -3.861312270164489746e-01 1.622771072387695312e+01 4.752473831176757812e+00 -1.770290970802307129e+00
1.272000000000000000e+03 3.529491806030273438e+01 1.707066178321838379e+00 3.232071876525878906e+00 1.386366844177246094e+01 5.128722190856933594e+00 -1.855290651321411133e+00
1.273000000000000000e+03 3.611119842529296875e+01 1.233409285545349121e+00 6.841076374053955078e+00 1.503270530700683594e+01 6.562134742736816406e+00 -2.204232454299926758e+00
1.274000000000000000e+03 3.610488510131835938e+01 -1.410289168357849121e+00 5.299538373947143555e-01 1.352109050750732422e+01 4.215313434600830078e+00 7.674146890640258789e-01
1.275000000000000000e+03 3.734475708007812500e+01 -1.190829515457153320e+00 -1.462083458900451660e-01 1.625986480712890625e+01 4.834097385406494141e+00 -2.214030027389526367e+00
1.276000000000000000e+03 3.819345855712890625e+01 -1.326171159744262695e+00 -4.898525029420852661e-02 1.327203083038330078e+01 3.966913700103759766e+00 -4.337516307830810547e+00
1.277000000000000000e+03 3.713089752197265625e+01 3.268192052841186523e+00 -1.004321932792663574e+00 1.689579391479492188e+01 4.767441272735595703e+00 -1.017303705215454102e+00
1.278000000000000000e+03 7.123538970947265625e+01 -1.450166988372802734e+01 -2.787012755870819092e-01 4.995910450816154480e-02 -6.862264871597290039e-02 -1.915030181407928467e-02
1.279000000000000000e+03 7.200317382812500000e+01 -1.370477581024169922e+01 -3.143854141235351562e-01 6.842990964651107788e-02 -7.378665357828140259e-02 -8.233375102281570435e-02
1.280000000000000000e+03 7.120543670654296875e+01 -1.374846172332763672e+01 -3.425836861133575439e-01 7.798334956169128418e-02 -7.938010245561599731e-02 -2.052437514066696167e-02
1.281000000000000000e+03 7.357054901123046875e+01 -1.373087596893310547e+01 -2.223107367753982544e-01 2.672438696026802063e-02 -5.867590755224227905e-02 -1.095564737915992737e-01
1.282000000000000000e+03 2.148720741271972656e+01 -1.934012532234191895e+00 -2.847204804420471191e-01 1.375333368778228760e-01 -4.415614157915115356e-02 4.799132943153381348e-01
1.283000000000000000e+03 2.228067016601562500e+01 -1.691568255424499512e+00 -1.612423062324523926e-01 9.292071312665939331e-02 -2.049647644162178040e-02 4.722993075847625732e-01
1.284000000000000000e+03 1.980107879638671875e+01 -2.227902412414550781e+00 -4.945960640907287598e-01 1.576817482709884644e-01 -1.010742932558059692e-01 4.367112517356872559e-01
1.285000000000000000e+03 2.353975486755371094e+01 -4.952646195888519287e-01 4.394455626606941223e-02 2.747010998427867889e-02 2.142439968883991241e-02 2.749643921852111816e-01
1.286000000000000000e+03 2.446410942077636719e+01 -9.435051679611206055e-01 2.366531491279602051e-01 -2.049085870385169983e-02 6.484869122505187988e-02 3.540733456611633301e-01
1.287000000000000000e+03 2.375386238098144531e+01 -1.163896083831787109e+00 1.055149063467979431e-01 6.767818704247474670e-03 3.368481621146202087e-02 4.117352962493896484e-01
1.288000000000000000e+03 2.674698257446289062e+01 -4.888809919357299805e-01 6.904548406600952148e-01 -1.052899807691574097e-01 1.755494624376296997e-01 2.510972619056701660e-01
1.289000000000000000e+03 2.774680328369140625e+01 -1.315913200378417969e+00 1.120942711830139160e+00 -9.437569975852966309e-02 3.079701066017150879e-01 4.179700016975402832e-01
1.290000000000000000e+03 2.579284858703613281e+01 1.726398169994354248e-01 4.083794951438903809e-01 -7.631502300500869751e-02 9.961934387683868408e-02 1.290874034166336060e-01
1.291000000000000000e+03 2.253610992431640625e+01 3.209725379943847656e+00 -1.236750977113842964e-04 -6.011638324707746506e-04 -2.174516703234985471e-04 1.051500876201316714e-04
1.292000000000000000e+03 1.884317970275878906e+01 7.107827663421630859e+00 3.427240299060940742e-03 1.341515104286372662e-03 1.430626609362661839e-03 1.518197241239249706e-03
1.293000000000000000e+03 1.921985244750976562e+01 4.649776935577392578e+00 4.328256472945213318e-04 -1.394602295476943254e-04 8.800962677923962474e-05 -7.756290724501013756e-04
1.294000000000000000e+03 6.915138244628906250e+01 -1.872127342224121094e+01 2.295914106070995331e-03 1.211240421980619431e-03 1.052146311849355698e-03 3.043461474590003490e-04
1.295000000000000000e+03 7.005660247802734375e+01 -2.029489898681640625e+01 4.759835544973611832e-03 1.289646257646381855e-03 1.814844552427530289e-03 -1.051348808687180281e-04
1.296000000000000000e+03 6.905997467041015625e+01 -1.966732597351074219e+01 -5.043784622102975845e-03 4.037955077365040779e-04 -1.391996745951473713e-03 4.308632109314203262e-03
1.297000000000000000e+03 4.502630233764648438e+01 -1.803560638427734375e+01 3.073352336883544922e+00 1.071158695220947266e+01 4.135481834411621094e+00 2.129741668701171875e+00
1.298000000000000000e+03 2.979785728454589844e+01 -1.494374871253967285e+00 1.707215189933776855e+00 9.140090942382812500e-01 7.863672971725463867e-01 9.743695855140686035e-01
1.299000000000000000e+03 6.375852203369140625e+01 1.820800018310546875e+01 9.020041823387145996e-01 3.894171237945556641e+00 1.438852667808532715e+00 -3.833837509155273438e-01
1.300000000000000000e+03 1.265112304687500000e+01 2.107716751098632812e+01 -1.987345963716506958e-01 6.553566455841064453e-02 -3.995967656373977661e-02 -1.717833988368511200e-02
1.301000000000000000e+03 6.790042114257812500e+01 -1.288357543945312500e+01 -7.166891694068908691e-01 8.641836047172546387e-02 -1.890812516212463379e-01 1.505964696407318115e-01
1.302000000000000000e+03 1.264532947540283203e+01 1.777742958068847656e+01 -5.476759001612663269e-02 -4.054541233927011490e-03 -1.764663867652416229e-02 -4.024199768900871277e-02
1.303000000000000000e+03 1.506547355651855469e+01 2.288481521606445312e+01 -2.304253131151199341e-01 5.279115587472915649e-02 -5.329024791717529297e-02 3.955152630805969238e-02
1.304000000000000000e+03 7.834592437744140625e+01 -2.021322441101074219e+01 -3.252543974667787552e-03 1.805671607144176960e-03 -4.340617160778492689e-04 -2.033353317528963089e-03
1.305000000000000000e+03 7.818527984619140625e+01 -3.080923843383789062e+01 -8.277192711830139160e-03 -3.675791621208190918e-02 -1.351053267717361450e-02 1.997948065400123596e-02
1.306000000000000000e+03 7.938953399658203125e+01 -2.953086090087890625e+01 -6.686583627015352249e-03 -2.448916807770729065e-02 -9.352724999189376831e-03 6.149850320070981979e-03
1.307000000000000000e+03 7.943353271484375000e+01 -2.410772514343261719e+01 -3.731932025402784348e-03 3.089557867497205734e-03 -1.927122648339718580e-04 8.856520871631801128e-04
1.308000000000000000e+03 7.928826141357421875e+01 -3.622571945190429688e+01 4.178794100880622864e-03 -1.108672767877578735e-01 -3.200654685497283936e-02 8.105603978037834167e-03
1.309000000000000000e+03 7.786337280273437500e+01 -3.718338775634765625e+01 8.393812924623489380e-03 -1.050138697028160095e-01 -2.898601628839969635e-02 2.165159024298191071e-02
1.310000000000000000e+03 7.937043762207031250e+01 -3.356646728515625000e+01 7.049059029668569565e-03 -7.702904194593429565e-02 -2.099399454891681671e-02 8.970235474407672882e-03
1.311000000000000000e+03 7.811034393310546875e+01 -3.337868881225585938e+01 -7.244667038321495056e-03 -6.251532584428787231e-02 -2.092799730598926544e-02 2.650556340813636780e-02
1.312000000000000000e+03 7.829710388183593750e+01 -2.408251190185546875e+01 2.203263575211167336e-03 -9.782328270375728607e-04 3.675092302728444338e-04 1.684014918282628059e-03
1.313000000000000000e+03 7.813132476806640625e+01 -2.813551712036132812e+01 -7.761056534945964813e-03 -1.639347150921821594e-02 -7.246358320116996765e-03 1.310397125780582428e-02
1.314000000000000000e+03 7.668741607666015625e+01 -3.918052291870117188e+01 1.003687828779220581e-02 -1.168538033962249756e-01 -3.204507753252983093e-02 2.510823868215084076e-02
1.315000000000000000e+03 1.447610759735107422e+01 1.043529510498046875e+01 2.008841402130201459e-04 4.276284947991371155e-03 1.343150623142719269e-03 -7.271191570907831192e-04
1.316000000000000000e+03 1.986109924316406250e+01 2.450113296508789062e+01 1.430256515741348267e-01 1.241338253021240234e-01 8.014784753322601318e-02 -2.757133841514587402e-01
1.317000000000000000e+03 1.330423069000244141e+01 1.385542392730712891e+01 -9.475573897361755371e-03 1.732256379909813404e-03 -2.322995336726307869e-03 -1.663036644458770752e-03
1.318000000000000000e+03 1.452474212646484375e+01 1.400454235076904297e+01 9.167313575744628906e-03 1.396091189235448837e-02 6.938467733561992645e-03 1.765877706930041313e-03
1.319000000000000000e+03 1.599816417694091797e+01 7.133584022521972656e+00 -1.951985293999314308e-03 -7.990437006810680032e-05 -6.095669232308864594e-04 -7.499270723201334476e-04
1.320000000000000000e+03 1.900502204895019531e+01 2.383371925354003906e+01 -1.362375617027282715e-01 7.364846300333738327e-03 -3.866181522607803345e-02 -1.187151670455932617e-01
1.321000000000000000e+03 1.809266471862792969e+01 5.704965591430664062e+00 2.651029732078313828e-03 1.694679260253906250e-03 1.303712720982730389e-03 1.127436757087707520e-03
1.322000000000000000e+03 1.698620414733886719e+01 7.582091331481933594e+00 2.028922084718942642e-03 2.754348563030362129e-03 1.434981240890920162e-03 1.541288685984909534e-03
1.323000000000000000e+03 1.762183380126953125e+01 6.648494243621826172e+00 -2.845830284059047699e-03 -1.272518071345984936e-03 -1.235504518263041973e-03 -1.554969348944723606e-03
1.324000000000000000e+03 1.542686557769775391e+01 9.490842819213867188e+00 7.486926624551415443e-04 5.100674927234649658e-03 1.754810218699276447e-03 7.724930183030664921e-04
1.325000000000000000e+03 3.122510528564453125e+01 -6.606855869293212891e+00 -1.493104100227355957e+00 2.107347965240478516e+00 1.842731535434722900e-01 -2.363551706075668335e-01
1.326000000000000000e+03 2.992258262634277344e+01 -7.976075172424316406e+00 -3.811796665191650391e+00 -2.852493524551391602e-01 -1.229113817214965820e+00 7.114545106887817383e-01
1.327000000000000000e+03 4.908057022094726562e+01 1.928541374206542969e+01 -1.920681148767471313e-01 7.020439207553863525e-02 -3.655911982059478760e-02 -1.287396531552076340e-02
1.328000000000000000e+03 3.975219345092773438e+01 9.244830131530761719e+00 1.152931332588195801e+00 7.739706993103027344e+00 2.667791604995727539e+00 2.009361982345581055e+00
1.329000000000000000e+03 3.632809829711914062e+01 7.657286643981933594e+00 7.112911343574523926e-01 1.320080471038818359e+01 4.173628807067871094e+00 -3.763708174228668213e-01
1.330000000000000000e+03 4.724890518188476562e+01 2.158977699279785156e+01 1.280435174703598022e-01 9.313001632690429688e-01 3.178030848503112793e-01 7.084441184997558594e-01
1.331000000000000000e+03 5.187188339233398438e+01 2.330478286743164062e+01 -5.373875796794891357e-02 3.288826942443847656e-01 8.254317939281463623e-02 1.999393403530120850e-01
1.332000000000000000e+03 4.186211776733398438e+01 1.558409309387207031e+01 7.282027006149291992e-01 2.827210664749145508e+00 1.066624045372009277e+00 1.250445485115051270e+00
1.333000000000000000e+03 4.524455642700195312e+01 1.765991783142089844e+01 3.985929489135742188e-01 8.699374794960021973e-01 3.805591166019439697e-01 6.214138865470886230e-01
1.334000000000000000e+03 3.911392211914062500e+01 1.004257678985595703e+01 5.526198148727416992e-01 8.095388412475585938e+00 2.594402551651000977e+00 1.045026898384094238e+00
1.335000000000000000e+03 4.851330947875976562e+01 2.097826004028320312e+01 -3.774965181946754456e-02 6.369789242744445801e-01 1.797687858343124390e-01 5.058056116104125977e-01
1.336000000000000000e+03 4.703239059448242188e+01 1.932487106323242188e+01 1.204390600323677063e-01 6.340068578720092773e-01 2.263337671756744385e-01 4.420677423477172852e-01
1.337000000000000000e+03 4.614960479736328125e+01 1.849701499938964844e+01 2.367505580186843872e-01 7.163065671920776367e-01 2.859171330928802490e-01 5.302809476852416992e-01
1.338000000000000000e+03 4.369260787963867188e+01 1.789992713928222656e+01 5.389531850814819336e-01 1.758697628974914551e+00 6.892952322959899902e-01 1.014704942703247070e+00
1.339000000000000000e+03 3.007447624206542969e+01 -2.898781776428222656e+01 3.849729299545288086e-01 8.620603084564208984e-01 3.741099536418914795e-01 7.226026058197021484e-01
1.340000000000000000e+03 1.798381233215332031e+01 -1.181175041198730469e+01 2.049778699874877930e+00 7.746821641921997070e-01 8.473382592201232910e-01 1.068923592567443848e+00
1.341000000000000000e+03 2.867127037048339844e+01 -7.917567253112792969e+00 -2.949122190475463867e+00 -1.069473624229431152e-01 -9.168208837509155273e-01 4.118805229663848877e-01
1.342000000000000000e+03 3.656843185424804688e+01 -2.381840896606445312e+01 1.465692639350891113e+00 7.022393703460693359e+00 2.546426057815551758e+00 1.069656729698181152e+00
1.343000000000000000e+03 1.322962284088134766e+01 -1.812557792663574219e+01 4.162112176418304443e-01 3.006491422653198242e+00 1.026810765266418457e+00 1.685101985931396484e-01
1.344000000000000000e+03 1.412113380432128906e+01 -1.257051277160644531e+01 8.165466785430908203e-01 1.912477850914001465e+00 8.187073469161987305e-01 4.516575932502746582e-01
1.345000000000000000e+03 2.174661254882812500e+01 -9.829381942749023438e+00 5.977712869644165039e-01 1.810787767171859741e-01 2.336550205945968628e-01 5.005759000778198242e-01
1.346000000000000000e+03 3.544979858398437500e+01 -1.171417617797851562e+01 5.323426723480224609e-01 8.670546531677246094e+00 2.760866880416870117e+00 -1.949211120605468750e+00
1.347000000000000000e+03 1.804495811462402344e+01 -9.813331604003906250e+00 7.395758032798767090e-01 9.136458635330200195e-01 4.959665238857269287e-01 8.143827319145202637e-01
1.348000000000000000e+03 1.631235885620117188e+01 -1.125094509124755859e+01 1.023042678833007812e+00 1.476132869720458984e+00 7.497526407241821289e-01 6.836603879928588867e-01
1.349000000000000000e+03 2.818605995178222656e+01 2.296849441528320312e+01 7.946047186851501465e-01 4.001242160797119141e+00 1.438754081726074219e+00 -2.434261798858642578e+00
1.350000000000000000e+03 3.685527420043945312e+01 -2.051848411560058594e+01 9.395158886909484863e-01 8.665060997009277344e+00 2.881372928619384766e+00 7.763780653476715088e-02
1.351000000000000000e+03 3.682826995849609375e+01 -1.901270484924316406e+01 8.779257535934448242e-01 9.073204994201660156e+00 2.985339403152465820e+00 -5.889492630958557129e-01
1.352000000000000000e+03 2.568478775024414062e+01 -7.765851497650146484e+00 -6.940585970878601074e-01 4.395518004894256592e-01 -7.635205239057540894e-02 7.546247243881225586e-01
1.353000000000000000e+03 2.670642089843750000e+01 -8.644221305847167969e+00 -9.809693098068237305e-01 7.980965077877044678e-02 -2.703478932380676270e-01 1.202473267912864685e-01
1.354000000000000000e+03 2.053108024597167969e+01 -1.007445144653320312e+01 8.759714365005493164e-01 2.841958403587341309e-01 3.480501770973205566e-01 6.627899408340454102e-01
1.355000000000000000e+03 3.602341461181640625e+01 -1.317588996887207031e+01 1.301334261894226074e+00 9.209389686584472656e+00 3.153217315673828125e+00 -2.236502647399902344e+00
1.356000000000000000e+03 2.076498413085937500e+01 -1.127420616149902344e+01 9.899879693984985352e-01 6.646788865327835083e-02 3.169367611408233643e-01 3.538808226585388184e-01
1.357000000000000000e+03 3.131642150878906250e+01 -7.854704380035400391e+00 -2.695262908935546875e+00 1.284025788307189941e+00 -4.233711063861846924e-01 -2.762050740420818329e-02
1.358000000000000000e+03 3.327138519287109375e+01 -2.841957283020019531e+01 6.429262757301330566e-01 3.175071954727172852e+00 1.145399451255798340e+00 1.584830760955810547e+00
1.359000000000000000e+03 1.441843223571777344e+01 -2.570533943176269531e+01 3.089519776403903961e-02 1.317504167556762695e+00 4.045198261737823486e-01 -2.101917117834091187e-01
1.360000000000000000e+03 1.928566741943359375e+01 -2.967885971069335938e+01 -2.370803654193878174e-01 6.884667277336120605e-01 1.354159116744995117e-01 -3.522408306598663330e-01
1.361000000000000000e+03 1.650922203063964844e+01 -2.531170463562011719e+01 3.280596733093261719e-01 1.055218219757080078e+00 4.149833619594573975e-01 -6.374799013137817383e-01
1.362000000000000000e+03 3.154551315307617188e+01 -3.386313247680664062e+01 -2.076926380395889282e-01 2.657394170761108398e+00 7.349104881286621094e-01 1.046264410018920898e+00
1.363000000000000000e+03 2.496807479858398438e+01 -8.560725212097167969e+00 -3.929325342178344727e-01 3.035392463207244873e-01 -2.681799232959747314e-02 3.635917305946350098e-01
1.364000000000000000e+03 3.666772842407226562e+01 -1.754874420166015625e+01 7.750704288482666016e-01 9.355047225952148438e+00 3.039035320281982422e+00 -1.391524314880371094e+00
1.365000000000000000e+03 3.748725128173828125e+01 -1.452469444274902344e+01 1.472499489784240723e+00 8.575951576232910156e+00 3.014535188674926758e+00 -2.015116930007934570e+00
1.366000000000000000e+03 2.600009536743164062e+01 -3.243851089477539062e+01 -1.822270639240741730e-02 3.314636349678039551e-01 9.397227317094802856e-02 2.071570456027984619e-01
1.367000000000000000e+03 3.539712142944335938e+01 -2.644956970214843750e+01 7.845836281776428223e-01 5.486874580383300781e+00 1.881437540054321289e+00 1.490670084953308105e+00
1.368000000000000000e+03 1.783068656921386719e+01 -2.740719604492187500e+01 1.691409759223461151e-02 8.152317404747009277e-01 2.496437579393386841e-01 -4.040289521217346191e-01
1.369000000000000000e+03 1.555126953125000000e+01 -2.579795837402343750e+01 -4.335375875234603882e-02 1.424106717109680176e+00 4.142258763313293457e-01 -3.736200332641601562e-01
1.370000000000000000e+03 5.029116058349609375e+01 -1.493915748596191406e+01 4.309912681579589844e+00 5.685941576957702637e-01 1.463551998138427734e+00 1.337284684181213379e+00
1.371000000000000000e+03 5.469842147827148438e+01 -5.016374588012695312e+00 -5.457065105438232422e-01 1.843294024467468262e+00 3.892762660980224609e-01 1.145845174789428711e+00
1.372000000000000000e+03 5.228263473510742188e+01 -4.994701385498046875e+00 -1.345535159111022949e+00 9.916353821754455566e-01 -1.061699315905570984e-01 7.113014459609985352e-01
1.373000000000000000e+03 7.791698455810546875e+01 3.455245971679687500e+01 -1.287771016359329224e-02 -4.063417017459869385e-01 -1.257658302783966064e-01 1.045623943209648132e-01
1.374000000000000000e+03 7.926498413085937500e+01 3.057360076904296875e+01 3.613871289417147636e-03 -8.347456455230712891e-01 -2.493395209312438965e-01 6.822998821735382080e-02
1.375000000000000000e+03 7.759829711914062500e+01 2.924652671813964844e+01 -2.159161865711212158e-02 -7.019961476325988770e-01 -2.170763313770294189e-01 2.364258468151092529e-01
1.376000000000000000e+03 7.758293914794921875e+01 2.779439353942871094e+01 -2.945164404809474945e-02 -8.117496371269226074e-01 -2.523604035377502441e-01 2.516798973083496094e-01
1.377000000000000000e+03 7.804424285888671875e+01 1.514369392395019531e+01 3.047276847064495087e-02 -2.084640264511108398e+00 -6.162502169609069824e-01 1.205943077802658081e-01
1.378000000000000000e+03 7.936138916015625000e+01 1.935417556762695312e+01 7.183082401752471924e-03 -2.287481307983398438e+00 -6.840894818305969238e-01 8.297672867774963379e-02
1.379000000000000000e+03 7.937421417236328125e+01 5.391908645629882812e+00 -2.253571990877389908e-03 -2.422428846359252930e+00 -7.274047732353210449e-01 -6.070372462272644043e-02
1.380000000000000000e+03 7.935828399658203125e+01 8.171851158142089844e+00 -2.108887303620576859e-03 -2.670089006423950195e+00 -8.016594052314758301e-01 -3.470763191580772400e-02
1.381000000000000000e+03 7.819318389892578125e+01 -1.344974994659423828e+00 -1.075240201316773891e-03 -1.188460826873779297e+00 -3.568608164787292480e-01 -2.741481661796569824e-01
1.382000000000000000e+03 7.804963684082031250e+01 -9.702474594116210938e+00 -3.744618967175483704e-02 -2.394059300422668457e-01 -8.305563777685165405e-02 -1.661015897989273071e-01
1.383000000000000000e+03 7.811281585693359375e+01 -8.264270782470703125e+00 -2.129239588975906372e-02 -3.617393374443054199e-01 -1.149095147848129272e-01 -2.039241045713424683e-01
1.384000000000000000e+03 7.938154602050781250e+01 -7.141761302947998047e+00 -1.721498207189142704e-03 -5.287120938301086426e-01 -1.591300666332244873e-01 -8.158328384160995483e-02
1.385000000000000000e+03 7.934881591796875000e+01 1.234802150726318359e+01 1.491539739072322845e-02 -2.788360834121704102e+00 -8.320335745811462402e-01 1.187890488654375076e-02
1.386000000000000000e+03 7.932895660400390625e+01 2.354122161865234375e+01 -6.329628638923168182e-03 -1.694442749023437500e+00 -5.102317333221435547e-01 1.015655100345611572e-01
1.387000000000000000e+03 7.924618530273437500e+01 2.636614418029785156e+01 -4.180854652076959610e-03 -1.296715021133422852e+00 -3.902687430381774902e-01 1.014780402183532715e-01
1.388000000000000000e+03 7.787881469726562500e+01 2.487170410156250000e+01 -1.748788915574550629e-02 -1.132520198822021484e+00 -3.450024127960205078e-01 2.762250900268554688e-01
1.389000000000000000e+03 7.932114410400390625e+01 3.333842849731445312e+01 1.713850884698331356e-03 -6.017062067985534668e-01 -1.799977123737335205e-01 4.726937040686607361e-02
1.390000000000000000e+03 7.792832946777343750e+01 3.195755386352539062e+01 -1.917653344571590424e-02 -5.273177623748779297e-01 -1.639482975006103516e-01 1.583835929632186890e-01
1.391000000000000000e+03 7.924496459960937500e+01 3.743206787109375000e+01 7.536886259913444519e-03 -3.687255680561065674e-01 -1.083566099405288696e-01 3.584674745798110962e-02
1.392000000000000000e+03 7.787606048583984375e+01 3.585029602050781250e+01 -1.393974106758832932e-02 -3.511933982372283936e-01 -1.095399409532546997e-01 1.046542301774024963e-01
1.393000000000000000e+03 7.805775451660156250e+01 1.934154510498046875e+01 1.796489395201206207e-02 -1.783067822456359863e+00 -5.295308828353881836e-01 2.188420742750167847e-01
1.394000000000000000e+03 7.935824584960937500e+01 2.074833679199218750e+01 -2.148132771253585815e-03 -2.104906558990478516e+00 -6.321164369583129883e-01 8.833893388509750366e-02
1.395000000000000000e+03 7.936083984375000000e+01 1.655477333068847656e+01 4.278204869478940964e-03 -2.583475112915039062e+00 -7.737590670585632324e-01 5.942413583397865295e-02
1.396000000000000000e+03 7.806804656982421875e+01 8.208323478698730469e+00 4.185458645224571228e-02 -2.091764688491821289e+00 -6.149730086326599121e-01 -1.112309619784355164e-01
1.397000000000000000e+03 7.935212707519531250e+01 9.561046600341796875e+00 1.641791127622127533e-02 -2.745315551757812500e+00 -8.186693191528320312e-01 -1.976853981614112854e-02
1.398000000000000000e+03 7.817466735839843750e+01 1.380993008613586426e+00 6.966094486415386200e-03 -1.525880336761474609e+00 -4.556742608547210693e-01 -2.545577287673950195e-01
1.399000000000000000e+03 7.938865661621093750e+01 2.612166881561279297e+00 -3.479512641206383705e-03 -2.066210031509399414e+00 -6.209068298339843750e-01 -7.906086742877960205e-02
1.400000000000000000e+03 7.818132781982421875e+01 -5.469903945922851562e+00 -7.147992495447397232e-03 -6.624471545219421387e-01 -2.008785456418991089e-01 -2.541218101978302002e-01
1.401000000000000000e+03 7.939569854736328125e+01 -4.344466209411621094e+00 2.455496694892644882e-03 -9.456275105476379395e-01 -2.829515933990478516e-01 -9.357702732086181641e-02
1.402000000000000000e+03 7.781909179687500000e+01 -1.288483142852783203e+01 -3.016435168683528900e-02 -5.361343175172805786e-02 -2.513333410024642944e-02 -6.514086574316024780e-02
1.403000000000000000e+03 7.953373718261718750e+01 -1.291973876953125000e+01 -7.344427518546581268e-03 -3.957715258002281189e-02 -1.407647412270307541e-02 -1.986589469015598297e-02
1.404000000000000000e+03 4.432996749877929688e+01 -2.637476348876953125e+01 1.781754970550537109e+00 9.215368270874023438e+00 3.299137115478515625e+00 -1.182699561119079590e+00
1.405000000000000000e+03 3.373445510864257812e+01 3.202182531356811523e+00 8.506507277488708496e-01 1.424752235412597656e+01 4.529451847076416016e+00 7.529187798500061035e-01
1.406000000000000000e+03 3.581202697753906250e+01 2.908575296401977539e+00 1.544140934944152832e+00 1.634276008605957031e+01 5.366070270538330078e+00 -3.259940624237060547e+00
1.407000000000000000e+03 5.085758972167968750e+01 -5.416933059692382812e+00 -4.030955314636230469e+00 5.266447365283966064e-02 -1.193487286567687988e+00 5.401649475097656250e-01
1.408000000000000000e+03 5.966129302978515625e+01 -3.000093650817871094e+01 -6.149210929870605469e-01 -6.407926231622695923e-02 -2.037001103162765503e-01 -1.059711426496505737e-01
1.409000000000000000e+03 6.012572479248046875e+01 -3.195982170104980469e+01 -3.013669550418853760e-01 7.338741421699523926e-02 -6.839386373758316040e-02 7.375714182853698730e-02
1.410000000000000000e+03 5.667594909667968750e+01 -3.235562515258789062e+01 -2.557696402072906494e-01 2.879681624472141266e-02 -6.809184700250625610e-02 -4.032005369663238525e-02
1.411000000000000000e+03 4.965963745117187500e+01 -2.973942184448242188e+01 1.809064507484436035e+00 2.064569473266601562e+00 1.162090182304382324e+00 -1.847445011138916016e+00
1.412000000000000000e+03 5.101948165893554688e+01 -3.401915359497070312e+01 3.203145787119865417e-02 2.088774442672729492e+00 6.362417340278625488e-01 -1.296035766601562500e+00
1.413000000000000000e+03 4.250656127929687500e+01 -2.350239944458007812e+01 1.995627880096435547e+00 9.272884368896484375e+00 3.380553722381591797e+00 -8.001447916030883789e-01
1.414000000000000000e+03 4.536777496337890625e+01 -2.336306953430175781e+01 1.053952455520629883e+00 1.403721714019775391e+01 4.527350902557373047e+00 -1.676216363906860352e+00
1.415000000000000000e+03 4.923720932006835938e+01 -3.155686187744140625e+01 3.577849566936492920e-01 3.204542160034179688e+00 1.068698167800903320e+00 -1.933019161224365234e+00
1.416000000000000000e+03 6.910063171386718750e+01 -2.452229118347167969e+01 -2.600636146962642670e-02 7.465968374162912369e-04 -7.577929180115461349e-03 -4.184478893876075745e-03
1.417000000000000000e+03 6.771539306640625000e+01 -2.307706642150878906e+01 3.602023236453533173e-03 1.497381366789340973e-03 1.529821311123669147e-03 -6.307337898761034012e-03
1.418000000000000000e+03 5.462959671020507812e+01 -3.313940429687500000e+01 9.207340329885482788e-02 4.425775408744812012e-01 1.603952795267105103e-01 -4.202731549739837646e-01
1.419000000000000000e+03 3.878424453735351562e+01 -2.603668689727783203e+00 -6.383890509605407715e-01 9.492776870727539062e+00 2.656316280364990234e+00 -3.664902448654174805e+00
1.420000000000000000e+03 5.785251617431640625e+01 -1.309359264373779297e+01 2.895772829651832581e-02 2.795020937919616699e-01 9.253794699907302856e-02 4.939793050289154053e-01
1.421000000000000000e+03 5.672122955322265625e+01 -1.345253276824951172e+01 3.751476705074310303e-01 1.832153648138046265e-01 1.675089150667190552e-01 6.395747065544128418e-01
1.422000000000000000e+03 6.328648757934570312e+01 -3.028438568115234375e+01 -2.583915591239929199e-01 5.323128402233123779e-02 -6.154808402061462402e-02 4.019515588879585266e-02
1.423000000000000000e+03 6.543222045898437500e+01 -2.775846672058105469e+01 -1.202054098248481750e-01 1.677139103412628174e-02 -3.103020600974559784e-02 -2.980454079806804657e-02
1.424000000000000000e+03 5.159129714965820312e+01 -1.487996006011962891e+01 3.204129934310913086e+00 2.085095643997192383e-01 1.023791909217834473e+00 8.542053103446960449e-01
1.425000000000000000e+03 4.953045272827148438e+01 -1.308387184143066406e+01 2.236861467361450195e+00 1.585722088813781738e+00 1.146775126457214355e+00 1.863517045974731445e+00
1.426000000000000000e+03 5.295999908447265625e+01 -1.349163341522216797e+01 1.865329861640930176e+00 4.056686758995056152e-01 6.812995672225952148e-01 1.250073313713073730e+00
1.427000000000000000e+03 7.098354339599609375e+01 -2.096261787414550781e+01 -7.949787192046642303e-03 -2.919673919677734375e-03 -3.260838333517313004e-03 6.467711064033210278e-04
1.428000000000000000e+03 5.296445083618164062e+01 -1.473826694488525391e+01 2.461866378784179688e+00 1.605457514524459839e-01 7.867236137390136719e-01 7.155953049659729004e-01
1.429000000000000000e+03 5.565813446044921875e+01 -1.372599029541015625e+01 8.677824735641479492e-01 2.145451456308364868e-01 3.246982693672180176e-01 7.061775922775268555e-01
1.430000000000000000e+03 5.525632095336914062e+01 -3.199024009704589844e+01 -2.763219475746154785e-01 5.985458567738533020e-02 -6.494020670652389526e-02 -1.289332211017608643e-01
1.431000000000000000e+03 4.410835647583007812e+01 -2.063365936279296875e+01 1.365985512733459473e+00 1.136904907226562500e+01 3.820510387420654297e+00 5.921068787574768066e-01
1.432000000000000000e+03 4.535462570190429688e+01 -2.055701828002929688e+01 2.359952032566070557e-01 1.276558589935302734e+01 3.900474548339843750e+00 2.743206918239593506e-01
1.433000000000000000e+03 4.630755233764648438e+01 -6.520894050598144531e+00 -2.773092985153198242e+00 6.814088225364685059e-01 -6.275053024291992188e-01 7.491709291934967041e-02
1.434000000000000000e+03 2.009820699691772461e+00 2.596633529663085938e+01 -7.194490171968936920e-03 -1.235066652297973633e-01 -3.921034932136535645e-02 5.418753996491432190e-02
1.435000000000000000e+03 7.441236376762390137e-01 3.186824417114257812e+01 3.586380043998360634e-03 -3.264444470405578613e-01 -9.685742110013961792e-02 1.901430450379848480e-02
1.436000000000000000e+03 2.985196352005004883e+00 3.545294952392578125e+01 2.302663028240203857e-02 -2.633093893527984619e-01 -7.208482176065444946e-02 4.109609499573707581e-02
1.437000000000000000e+03 3.304902315139770508e+00 3.892624664306640625e+01 1.242043823003768921e-02 -3.086786270141601562e-01 -8.887746185064315796e-02 1.702494919300079346e-02
1.438000000000000000e+03 8.813205361366271973e-01 3.869432830810546875e+01 -9.329156018793582916e-03 -3.941192924976348877e-01 -1.210345327854156494e-01 -4.051875323057174683e-03
1.439000000000000000e+03 1.788388252258300781e+00 2.321015167236328125e+01 -1.147055532783269882e-02 -6.916055083274841309e-02 -2.418933063745498657e-02 3.765564411878585815e-02
1.440000000000000000e+03 2.246485233306884766e+00 3.033813667297363281e+01 6.436659023165702820e-03 -2.116579562425613403e-01 -6.156638637185096741e-02 5.651459097862243652e-02
1.441000000000000000e+03 4.128269195556640625e+00 -3.754145812988281250e+01 -3.224697709083557129e-02 -2.714337706565856934e-01 -9.110422432422637939e-02 6.805405020713806152e-02
1.442000000000000000e+03 1.698235869407653809e+00 -3.548472595214843750e+01 -2.319462364539504051e-03 -4.887391626834869385e-01 -1.473175883293151855e-01 8.690295368432998657e-02
1.443000000000000000e+03 8.308652639389038086e-01 -3.045973587036132812e+01 -8.996825781650841236e-04 -8.702305555343627930e-01 -2.613390684127807617e-01 7.178413867950439453e-02
1.444000000000000000e+03 6.316192150115966797e-01 -1.350543689727783203e+01 8.593606762588024139e-03 -1.649191498756408691e+00 -4.921793639659881592e-01 -6.675010919570922852e-02
1.445000000000000000e+03 2.765815019607543945e+00 4.786719799041748047e+00 -9.005630658975860570e-07 -3.439933061599731445e-04 -1.034681627061218023e-04 -7.041420321911573410e-04
1.446000000000000000e+03 6.023029685020446777e-01 -6.473260879516601562e+00 -2.395620336756110191e-03 -5.635659694671630859e-01 -1.697884649038314819e-01 -1.018574386835098267e-01
1.447000000000000000e+03 6.405971646308898926e-01 -1.069300937652587891e+01 5.343188997358083725e-03 -1.271040678024291992e+00 -3.797092735767364502e-01 -9.695888310670852661e-02
1.448000000000000000e+03 6.196888089179992676e-01 -1.771763992309570312e+01 1.130418758839368820e-02 -1.902978897094726562e+00 -5.675024390220642090e-01 -1.946065807715058327e-03
1.449000000000000000e+03 6.205767393112182617e-01 -1.912088775634765625e+01 6.141095422208309174e-03 -1.888985514640808105e+00 -5.648533105850219727e-01 1.750770770013332367e-02
1.450000000000000000e+03 6.270729303359985352e-01 -2.052517890930175781e+01 1.169163640588521957e-02 -1.828307867050170898e+00 -5.449848771095275879e-01 3.839398175477981567e-02
1.451000000000000000e+03 6.378090381622314453e-01 -2.193155097961425781e+01 2.094453200697898865e-03 -1.728240132331848145e+00 -5.178436636924743652e-01 5.282683297991752625e-02
1.452000000000000000e+03 6.569081544876098633e-01 -2.334162139892578125e+01 9.828164242208003998e-03 -1.598226070404052734e+00 -4.765193462371826172e-01 6.691173464059829712e-02
1.453000000000000000e+03 2.150294780731201172e+00 -2.600248527526855469e+01 -4.199978429824113846e-03 -9.733324050903320312e-01 -2.932597100734710693e-01 2.067699283361434937e-01
1.454000000000000000e+03 2.751913785934448242e+00 -3.338924026489257812e+01 -3.192709386348724365e-02 -4.676177203655242920e-01 -1.498634368181228638e-01 1.418169885873794556e-01
1.455000000000000000e+03 2.217029809951782227e+00 -3.674615478515625000e+01 -5.297929048538208008e-03 -4.247125983238220215e-01 -1.290031671524047852e-01 7.612279802560806274e-02
1.456000000000000000e+03 1.754143238067626953e+00 2.184705543518066406e+01 3.419601125642657280e-05 -4.838697984814643860e-02 -1.450583525002002716e-02 3.146565705537796021e-02
1.457000000000000000e+03 5.977430939674377441e-01 1.914962959289550781e+01 -6.799501366913318634e-03 -1.180025842040777206e-02 -5.579927936196327209e-03 5.840502213686704636e-03
1.458000000000000000e+03 6.110293269157409668e-01 1.774137687683105469e+01 4.403518978506326675e-03 -1.513454015366733074e-03 8.670195238664746284e-04 2.950010355561971664e-03
1.459000000000000000e+03 6.311024427413940430e-01 1.492080402374267578e+01 3.070313017815351486e-03 7.471941411495208740e-03 3.162676235660910606e-03 2.856870705727487803e-04
1.460000000000000000e+03 5.987409353256225586e-01 1.067318534851074219e+01 -2.074789488688111305e-03 6.396568380296230316e-03 1.296533620916306973e-03 -5.492455093190073967e-04
1.461000000000000000e+03 6.023164391517639160e-01 7.842386245727539062e+00 -1.517702359706163406e-03 3.539844183251261711e-03 6.066425703465938568e-04 -4.194452776573598385e-04
1.462000000000000000e+03 1.883592724800109863e+00 1.349188709259033203e+01 1.903562457300722599e-03 3.381796181201934814e-03 1.585607649758458138e-03 -2.128413616446778178e-04
1.463000000000000000e+03 3.328039884567260742e+00 -3.906521606445312500e+01 -2.432070672512054443e-02 -3.275533318519592285e-01 -1.055622100830078125e-01 5.873177200555801392e-02
1.464000000000000000e+03 2.659385204315185547e+00 -3.187376976013183594e+01 -3.061394952237606049e-02 -5.419753789901733398e-01 -1.717767864465713501e-01 1.607289761304855347e-01
1.465000000000000000e+03 2.061018705368041992e+00 -2.458249282836914062e+01 1.525270473212003708e-02 -1.099480628967285156e+00 -3.252683877944946289e-01 1.947280168533325195e-01
1.466000000000000000e+03 6.829862594604492188e-01 -2.475395584106445312e+01 -1.376131549477577209e-03 -1.449951291084289551e+00 -4.353982508182525635e-01 7.465352118015289307e-02
1.467000000000000000e+03 6.250560283660888672e-01 -1.491193580627441406e+01 1.018121186643838882e-02 -1.782279610633850098e+00 -5.316295027732849121e-01 -4.566077142953872681e-02
1.468000000000000000e+03 1.925309777259826660e+00 -1.209906578063964844e+01 3.655013442039489746e-02 -1.125883102416992188e+00 -3.267998993396759033e-01 -2.360054850578308105e-01
1.469000000000000000e+03 2.981724023818969727e+00 -6.665874958038330078e+00 -3.408586606383323669e-02 -4.214885830879211426e-01 -1.366723328828811646e-01 -3.915069401264190674e-01
1.470000000000000000e+03 6.113025546073913574e-01 -7.887400627136230469e+00 1.946439500898122787e-03 -8.073765039443969727e-01 -2.416290193796157837e-01 -1.032315194606781006e-01
1.471000000000000000e+03 2.142343521118164062e+00 -3.997447490692138672e+00 -5.966658145189285278e-02 -2.195020765066146851e-01 -8.375059813261032104e-02 -2.216117680072784424e-01
1.472000000000000000e+03 4.125569152832031250e+01 -2.260935783386230469e+00 1.642122387886047363e+00 4.224887847900390625e+00 1.760103106498718262e+00 -2.633174419403076172e+00
1.473000000000000000e+03 4.293687057495117188e+01 -4.852318286895751953e+00 -2.676434755325317383e+00 2.509581089019775391e+00 -5.005609616637229919e-02 -1.545435190200805664e+00
1.474000000000000000e+03 6.296848297119140625e+01 6.930552959442138672e+00 8.402301073074340820e-01 3.897429466247558594e+00 1.421297788619995117e+00 9.683037400245666504e-01
1.475000000000000000e+03 6.325680160522460938e+01 5.711289405822753906e+00 7.775939106941223145e-01 3.437033176422119141e+00 1.264388084411621094e+00 7.284705042839050293e-01
1.476000000000000000e+03 4.533523559570312500e+01 -5.912573814392089844e+00 -3.574096679687500000e+00 8.360018134117126465e-01 -8.214284777641296387e-01 -1.141730993986129761e-01
1.477000000000000000e+03 5.556832504272460938e+01 -3.729398250579833984e+00 3.261420130729675293e-01 1.906602978706359863e+00 6.698234677314758301e-01 1.124272346496582031e+00
1.478000000000000000e+03 4.882650375366210938e+01 -7.363332748413085938e+00 -2.041237354278564453e+00 -8.975787460803985596e-02 -6.392986178398132324e-01 1.250274419784545898e+00
1.479000000000000000e+03 6.531510925292968750e+01 1.690044593811035156e+01 7.617070674896240234e-01 3.262530326843261719e+00 1.207271218299865723e+00 -2.218295587226748466e-03
1.480000000000000000e+03 6.059430694580078125e+01 2.622636795043945312e+00 8.030401468276977539e-01 3.237732648849487305e+00 1.212231874465942383e+00 1.369881033897399902e+00
1.481000000000000000e+03 6.358002090454101562e+01 1.330296993255615234e+01 3.494724631309509277e-01 4.886476039886474609e+00 1.570784568786621094e+00 1.837954819202423096e-01
1.482000000000000000e+03 6.561660003662109375e+01 1.426916313171386719e+01 6.031547784805297852e-01 3.457594156265258789e+00 1.218224644660949707e+00 6.947448104619979858e-02
1.483000000000000000e+03 6.153054809570312500e+01 3.392767667770385742e+00 6.707962751388549805e-01 3.219619035720825195e+00 1.167124629020690918e+00 9.737805724143981934e-01
1.484000000000000000e+03 3.139305114746093750e+01 2.193494224548339844e+01 8.343638777732849121e-01 6.622607707977294922e+00 2.237091541290283203e+00 -1.473605394363403320e+00
1.485000000000000000e+03 2.766481208801269531e+01 -2.116439640522003174e-01 9.051909446716308594e-01 5.005708336830139160e-02 2.865744233131408691e-01 8.966483175754547119e-02
1.486000000000000000e+03 2.874426841735839844e+01 -1.327835917472839355e+00 1.588430523872375488e+00 2.219482511281967163e-01 5.431136488914489746e-01 5.976570844650268555e-01
1.487000000000000000e+03 3.611603164672851562e+01 6.445528984069824219e+00 3.900267481803894043e-01 1.439818191528320312e+01 4.436462402343750000e+00 -6.917288303375244141e-01
1.488000000000000000e+03 3.251359558105468750e+01 1.770138740539550781e+01 1.607744693756103516e+00 9.672904014587402344e+00 3.384194612503051758e+00 -2.653802394866943359e+00
1.489000000000000000e+03 3.400834274291992188e+01 1.411662292480468750e+01 9.568552970886230469e-01 1.204114913940429688e+01 3.899401426315307617e+00 -1.748731851577758789e+00
1.490000000000000000e+03 2.685263061523437500e+01 2.269401931762695312e+01 2.045267820358276367e+00 1.534048914909362793e+00 1.073795080184936523e+00 -2.154892444610595703e+00
1.491000000000000000e+03 3.506040191650390625e+01 6.344241142272949219e+00 4.359489679336547852e-01 1.628739547729492188e+01 5.017003536224365234e+00 -1.115525603294372559e+00
1.492000000000000000e+03 2.459968185424804688e+01 2.245834922790527344e+01 6.890222430229187012e-01 1.634836792945861816e-01 2.557517886161804199e-01 -5.324858427047729492e-01
1.493000000000000000e+03 2.341553115844726562e+01 2.686698341369628906e+01 4.516566395759582520e-01 1.038201808929443359e+00 4.469575285911560059e-01 -1.031942248344421387e+00
1.494000000000000000e+03 2.389059448242187500e+01 2.463238906860351562e+01 6.673824787139892578e-01 6.417223215103149414e-01 3.927314281463623047e-01 -1.015414595603942871e+00
1.495000000000000000e+03 3.469631958007812500e+01 1.058657455444335938e+01 7.843157649040222168e-01 1.431873798370361328e+01 4.530916213989257812e+00 -1.648408055305480957e+00
1.496000000000000000e+03 3.336793136596679688e+01 1.522800254821777344e+01 9.584965705871582031e-01 1.180096721649169922e+01 3.827838897705078125e+00 -2.438085794448852539e+00
1.497000000000000000e+03 3.502799987792968750e+01 1.343559741973876953e+01 9.040237069129943848e-01 1.147096729278564453e+01 3.712497234344482422e+00 -1.187912940979003906e+00
1.498000000000000000e+03 6.715823364257812500e+01 -2.633774757385253906e+01 -6.614659726619720459e-02 1.785694621503353119e-02 -1.448689494282007217e-02 -2.301696687936782837e-02
1.499000000000000000e+03 2.127473258972167969e+01 -3.191332054138183594e+01 -2.179814428091049194e-01 4.751709401607513428e-01 7.715684920549392700e-02 -3.440876305103302002e-01
1.500000000000000000e+03 1.264917278289794922e+01 -2.091221237182617188e+01 6.368172168731689453e-01 1.964959144592285156e+00 7.805328965187072754e-01 2.926552435383200645e-03
1.501000000000000000e+03 1.295405292510986328e+01 -1.945734977722167969e+01 5.508612990379333496e-01 2.616647243499755859e+00 9.502525329589843750e-01 -1.951526999473571777e-01
1.502000000000000000e+03 6.550549316406250000e+01 -1.041971111297607422e+01 -9.145714640617370605e-01 -5.890177935361862183e-02 -2.920419871807098389e-01 -2.146087437868118286e-01
1.503000000000000000e+03 3.867489242553710938e+01 -6.849434375762939453e-01 2.623040437698364258e+00 1.049861526489257812e+01 3.936496734619140625e+00 -6.797724246978759766e+00
1.504000000000000000e+03 3.879530715942382812e+01 -1.405891656875610352e+00 1.079654693603515625e+00 9.977230072021484375e+00 3.317065238952636719e+00 -5.538841247558593750e+00
1.505000000000000000e+03 3.963755798339843750e+01 -3.935742974281311035e-01 3.100715637207031250e+00 3.478430271148681641e+00 1.973743677139282227e+00 -3.933489799499511719e+00
1.506000000000000000e+03 3.977484512329101562e+01 -1.051235556602478027e+00 2.321741580963134766e+00 4.923709869384765625e+00 2.173635482788085938e+00 -4.230432033538818359e+00
1.507000000000000000e+03 3.832139968872070312e+01 3.213245868682861328e+00 -1.021940827369689941e+00 1.245187759399414062e+01 3.428981065750122070e+00 1.951341032981872559e+00
1.508000000000000000e+03 7.702348327636718750e+01 -1.918581199645996094e+01 1.898355665616691113e-03 4.416052834130823612e-04 7.019882905296981335e-04 -2.952827839180827141e-03
1.509000000000000000e+03 7.638053894042968750e+01 -1.906352233886718750e+01 -7.024166989140212536e-04 -1.213035779073834419e-03 -5.746357492171227932e-04 -3.696281928569078445e-04
1.510000000000000000e+03 7.818581390380859375e+01 -1.357008647918701172e+01 -3.499167039990425110e-02 -4.746352508664131165e-02 -2.473655901849269867e-02 -4.852556809782981873e-02
1.511000000000000000e+03 7.691541290283203125e+01 -1.323886871337890625e+01 -7.227837294340133667e-02 -4.830587282776832581e-02 -3.617527335882186890e-02 -9.375601261854171753e-02
1.512000000000000000e+03 7.324498748779296875e+01 -1.963917732238769531e+01 -1.111812074668705463e-03 -1.961823785677552223e-03 -9.220907813869416714e-04 -1.477436977438628674e-03
1.513000000000000000e+03 7.439441680908203125e+01 -1.951215171813964844e+01 -2.089074114337563515e-03 -2.063589403405785561e-03 -1.245799008756875992e-03 7.656700327061116695e-04
1.514000000000000000e+03 2.371539688110351562e+01 -3.096634149551391602e+00 1.062988936901092529e-01 9.341657906770706177e-02 5.991464480757713318e-02 7.645523548126220703e-01
1.515000000000000000e+03 1.942678070068359375e+01 3.215191125869750977e+00 7.491739233955740929e-04 6.520577589981257915e-04 4.203694988973438740e-04 -1.697358238743618131e-04
1.516000000000000000e+03 1.722676658630371094e+01 3.486658096313476562e+00 -1.304814395552966744e-05 2.251281403005123138e-03 6.714700139127671719e-04 7.082293741405010223e-04
1.517000000000000000e+03 7.641316986083984375e+01 -1.386789417266845703e+01 -8.077692240476608276e-02 -2.412321977317333221e-02 -3.147004172205924988e-02 -8.083084225654602051e-02
1.518000000000000000e+03 1.605051612854003906e+01 3.407346725463867188e+00 1.358428737148642540e-03 9.117954177781939507e-04 6.810672348365187645e-04 2.696525189094245434e-04
1.519000000000000000e+03 1.538267898559570312e+01 3.349833011627197266e+00 -8.367905393242835999e-04 -1.003016601316630840e-03 -5.519421538338065147e-04 9.398635302204638720e-05
1.520000000000000000e+03 6.971833801269531250e+01 -1.392034530639648438e+01 -4.172936081886291504e-01 9.554447978734970093e-02 -9.652473777532577515e-02 5.427021533250808716e-02
1.521000000000000000e+03 6.751357269287109375e+01 -1.371011352539062500e+01 -5.502239465713500977e-01 -1.488876342773437500e-01 -2.097334712743759155e-01 1.914974749088287354e-01
1.522000000000000000e+03 2.008395004272460938e+01 3.371334075927734375e+00 -6.575222942046821117e-04 -6.437643896788358688e-04 -3.903860051650553942e-04 -4.066123801749199629e-05
1.523000000000000000e+03 2.038005638122558594e+01 4.420329570770263672e+00 -1.423315494321286678e-03 -4.162856494076550007e-04 -5.518803372979164124e-04 -2.571014338172972202e-04
1.524000000000000000e+03 2.117947387695312500e+01 4.452193737030029297e+00 3.410802746657282114e-04 2.838126674760133028e-04 1.874678855529054999e-04 -3.594312001951038837e-04
1.525000000000000000e+03 7.144377136230468750e+01 -2.027811622619628906e+01 4.302921704947948456e-03 -1.874537090770900249e-03 7.285153842531144619e-04 -1.320867100730538368e-03
1.526000000000000000e+03 1.400929546356201172e+01 2.608113288879394531e+00 1.005606609396636486e-03 1.246456522494554520e-03 6.756189395673573017e-04 3.318358794786036015e-04
1.527000000000000000e+03 1.250989437103271484e+01 3.302991628646850586e+00 -5.854234332218766212e-04 -9.577564778737723827e-04 -4.629539616871625185e-04 1.144145498983561993e-03
1.528000000000000000e+03 1.744259262084960938e+01 2.819998502731323242e+00 -4.303093592170625925e-04 -9.685881086625158787e-04 -4.196692316327244043e-04 -1.325153862126171589e-04
1.529000000000000000e+03 1.809251594543457031e+01 2.962309598922729492e+00 9.571916889399290085e-04 9.054287802428007126e-04 5.587861523963510990e-04 4.839089233428239822e-04
1.530000000000000000e+03 1.919466781616210938e+01 3.945773839950561523e+00 -8.591057849116623402e-04 -4.447454412002116442e-04 -3.911553649231791496e-04 6.481106393039226532e-04
1.531000000000000000e+03 7.567542266845703125e+01 -1.975926971435546875e+01 -2.113985363394021988e-03 -1.304316334426403046e-03 -1.025490462779998779e-03 -1.218389137648046017e-03
1.532000000000000000e+03 7.440122985839843750e+01 -1.883243942260742188e+01 1.692539197392761707e-03 -5.556374671868979931e-04 3.410704957786947489e-04 -1.044499920681118965e-03
1.533000000000000000e+03 2.682595252990722656e+01 -1.410384297370910645e+00 8.271723985671997070e-01 -3.804392740130424500e-02 2.367385476827621460e-01 4.675685763359069824e-01
1.534000000000000000e+03 1.102699661254882812e+01 3.308901071548461914e+00 -3.491480892989784479e-04 -1.165011199191212654e-03 -4.542477836366742849e-04 7.863222854211926460e-04
1.535000000000000000e+03 1.324449157714843750e+01 3.296314954757690430e+00 1.455557066947221756e-03 1.043474301695823669e-03 7.497094338759779930e-04 2.822701062541455030e-04
1.536000000000000000e+03 8.006020545959472656e+00 3.335437774658203125e+00 3.893209504894912243e-04 -1.660991343669593334e-03 -3.815011295955628157e-04 3.218831843696534634e-04
1.537000000000000000e+03 1.122060775756835938e+01 -4.088232040405273438e+00 -5.454378724098205566e-01 1.742328405380249023e-01 -1.113615110516548157e-01 -3.063258528709411621e-01
1.538000000000000000e+03 1.420673274993896484e+01 -2.513205289840698242e+00 -8.977749943733215332e-01 1.008462160825729370e-01 -2.390786409378051758e-01 -2.800101414322853088e-02
1.539000000000000000e+03 9.591991424560546875e+00 -2.650073528289794922e+00 -6.966079473495483398e-01 4.221055284142494202e-02 -1.963192075490951538e-01 -3.248156607151031494e-01
1.540000000000000000e+03 1.038801193237304688e+01 -3.389095544815063477e+00 -6.253245472908020020e-01 9.479207545518875122e-02 -1.591597348451614380e-01 -3.360919952392578125e-01
1.541000000000000000e+03 7.500723266601562500e+01 -1.315520763397216797e+01 -1.605950742959976196e-01 -1.574515737593173981e-02 -5.290206894278526306e-02 -1.435410231351852417e-01
1.542000000000000000e+03 7.432226562500000000e+01 -1.309872722625732422e+01 -1.999075561761856079e-01 4.009069874882698059e-03 -5.876954644918441772e-02 -1.443454921245574951e-01
1.543000000000000000e+03 7.633741760253906250e+01 -1.318842029571533203e+01 -9.574919193983078003e-02 -4.290491715073585510e-02 -4.159623011946678162e-02 -1.051697954535484314e-01
1.544000000000000000e+03 7.568595123291015625e+01 -1.316784763336181641e+01 -1.120851188898086548e-01 -3.952817618846893311e-02 -4.548398777842521667e-02 -1.259253323078155518e-01
1.545000000000000000e+03 1.499082183837890625e+01 -3.212096929550170898e+00 -7.272944450378417969e-01 1.839311718940734863e-01 -1.630089730024337769e-01 6.512725353240966797e-02
1.546000000000000000e+03 1.733076286315917969e+01 -2.416603565216064453e+00 -7.487229108810424805e-01 1.330647617578506470e-01 -1.846974492073059082e-01 2.605518102645874023e-01
1.547000000000000000e+03 8.805809974670410156e+00 -2.664413690567016602e+00 -6.301236152648925781e-01 2.954102866351604462e-02 -1.801747828722000122e-01 -3.493356704711914062e-01
1.548000000000000000e+03 1.116568183898925781e+01 -3.345171213150024414e+00 -6.700579524040222168e-01 1.185860186815261841e-01 -1.654415875673294067e-01 -2.887502610683441162e-01
1.549000000000000000e+03 7.250543594360351562e+00 3.373617172241210938e+00 1.844852580688893795e-03 4.707995103672146797e-04 6.946956273168325424e-04 -9.541586623527109623e-04
1.550000000000000000e+03 8.763180732727050781e+00 3.317474126815795898e+00 1.853453228250145912e-03 5.193018587306141853e-04 7.118265493772923946e-04 -1.809414097806438804e-04
1.551000000000000000e+03 4.983390808105468750e+00 3.598150253295898438e+00 -6.395951495505869389e-04 -5.936157540418207645e-04 -3.699632652569562197e-04 -8.202297613024711609e-05
1.552000000000000000e+03 5.005370616912841797e+00 4.499224185943603516e+00 2.544861286878585815e-03 9.952572145266458392e-05 7.933161105029284954e-04 -2.155335852876305580e-03
1.553000000000000000e+03 6.493345260620117188e+00 3.436234951019287109e+00 1.966724084923043847e-04 -1.395665225572884083e-03 -3.596978494897484779e-04 1.837901654653251171e-04
1.554000000000000000e+03 6.531750202178955078e+00 4.256281852722167969e+00 1.844015321694314480e-03 4.069649439770728350e-04 6.752940826117992401e-04 -1.476470613852143288e-03
1.555000000000000000e+03 1.027618122100830078e+01 3.309673309326171875e+00 1.978457905352115631e-03 5.384822143241763115e-04 7.550820009782910347e-04 3.880882286466658115e-04
1.556000000000000000e+03 9.520819664001464844e+00 3.311333656311035156e+00 1.807319931685924530e-04 -1.526323962025344372e-03 -4.036776081193238497e-04 4.743179597426205873e-04
1.557000000000000000e+03 7.978765487670898438e+00 -3.478815317153930664e+00 -4.625395238399505615e-01 2.098408527672290802e-02 -1.324666291475296021e-01 -4.268284142017364502e-01
1.558000000000000000e+03 4.993810176849365234e+00 -2.580754041671752930e+00 -2.890013158321380615e-01 -6.608557701110839844e-02 -1.065260618925094604e-01 -3.058999478816986084e-01
1.559000000000000000e+03 4.245011329650878906e+00 -2.621470928192138672e+00 -2.274720221757888794e-01 -7.338636368513107300e-02 -9.025751799345016479e-02 -2.725501954555511475e-01
1.560000000000000000e+03 6.817659378051757812e+00 -5.078171730041503906e+00 -2.432402074337005615e-01 -4.088516533374786377e-02 -8.523760735988616943e-02 -5.172702670097351074e-01
1.561000000000000000e+03 8.798746109008789062e+00 -3.460754156112670898e+00 -5.195713043212890625e-01 4.398222640156745911e-02 -1.426767259836196899e-01 -4.076048433780670166e-01
1.562000000000000000e+03 2.196030616760253906e+00 -3.019085407257080078e+00 -8.710151165723800659e-02 -1.355925351381301880e-01 -6.680821627378463745e-02 -1.893500089645385742e-01
1.563000000000000000e+03 3.267593622207641602e+00 -4.261167049407958984e+00 -1.080508455634117126e-01 -2.171863317489624023e-01 -9.757115691900253296e-02 -3.315232098102569580e-01
1.564000000000000000e+03 1.821830749511718750e+01 -3.942932128906250000e+00 -4.317467510700225830e-01 2.979791760444641113e-01 -4.013027623295783997e-02 4.693195223808288574e-01
1.565000000000000000e+03 1.818448066711425781e+01 -3.149214029312133789e+00 -5.470429658889770508e-01 2.070790827274322510e-01 -1.019891649484634399e-01 4.035956561565399170e-01
1.566000000000000000e+03 1.903466796875000000e+01 -3.088864088058471680e+00 -4.798744320869445801e-01 2.202595025300979614e-01 -7.788448035717010498e-02 4.764469265937805176e-01
1.567000000000000000e+03 1.895591354370117188e+01 -2.309458494186401367e+00 -5.941870212554931641e-01 1.428686976432800293e-01 -1.353954970836639404e-01 3.850422799587249756e-01
1.568000000000000000e+03 1.271325778961181641e+01 -3.277226209640502930e+00 -7.259135842323303223e-01 1.463109701871871948e-01 -1.738807857036590576e-01 -1.619852781295776367e-01
1.569000000000000000e+03 1.347310352325439453e+01 -3.250734567642211914e+00 -7.393369674682617188e-01 1.536433845758438110e-01 -1.757080703973770142e-01 -9.153937548398971558e-02
1.570000000000000000e+03 7.200961303710937500e+01 -1.291602230072021484e+01 -3.427442908287048340e-01 8.369364589452743530e-02 -7.771519571542739868e-02 -1.217007189989089966e-01
1.571000000000000000e+03 7.283863830566406250e+01 -1.293415832519531250e+01 -2.985498309135437012e-01 5.650686100125312805e-02 -7.261288911104202271e-02 -1.500131636857986450e-01
1.572000000000000000e+03 7.034421539306640625e+01 -1.303939914703369141e+01 -4.882950186729431152e-01 1.373199522495269775e-01 -1.052925214171409607e-01 -1.993122696876525879e-02
1.573000000000000000e+03 2.527145767211914062e+01 -1.455586314201354980e+00 4.702382981777191162e-01 -7.022962719202041626e-02 1.200025975704193115e-01 4.670651257038116455e-01
1.574000000000000000e+03 2.599491310119628906e+01 -1.457363843917846680e+00 6.011012196540832520e-01 -1.044145300984382629e-01 1.490060091018676758e-01 4.571113884449005127e-01
1.575000000000000000e+03 1.576720905303955078e+01 -3.205030918121337891e+00 -7.015104889869689941e-01 2.080327719449996948e-01 -1.480433195829391479e-01 1.530624628067016602e-01
1.576000000000000000e+03 7.361080932617187500e+01 -1.300387859344482422e+01 -2.319176197052001953e-01 2.531444095075130463e-02 -6.198095157742500305e-02 -1.473989933729171753e-01
1.577000000000000000e+03 7.384223175048828125e+01 -1.949394416809082031e+01 -5.398768698796629906e-04 -8.863520924933254719e-04 -4.278686828911304474e-04 2.113308146363124251e-04
1.578000000000000000e+03 2.177263259887695312e+01 -2.757127761840820312e+00 -1.905778199434280396e-01 1.535094827413558960e-01 -1.112050283700227737e-02 6.238936781883239746e-01
1.579000000000000000e+03 2.262254333496093750e+01 -2.434236526489257812e+00 -7.677489519119262695e-02 1.140467450022697449e-01 1.118155382573604584e-02 6.025947332382202148e-01
1.580000000000000000e+03 1.991460609436035156e+01 -3.021361351013183594e+00 -3.999363780021667480e-01 1.972254365682601929e-01 -6.081328168511390686e-02 5.365917682647705078e-01
1.581000000000000000e+03 3.514283752441406250e+01 4.376365184783935547e+00 4.924658238887786865e-01 1.597776031494140625e+01 4.941067695617675781e+00 -1.826623082160949707e+00
1.582000000000000000e+03 2.085903167724609375e+01 -2.959985256195068359e+00 -2.954364717006683350e-01 2.025338858366012573e-01 -2.787077613174915314e-02 5.958136916160583496e-01
1.583000000000000000e+03 3.755734634399414062e+01 -3.379194974899291992e+00 -2.237831592559814453e+00 1.132114791870117188e+01 2.724994897842407227e+00 -2.316386699676513672e+00
1.584000000000000000e+03 3.773464584350585938e+01 -1.756267428398132324e+00 -7.294218540191650391e-01 1.335897064208984375e+01 3.788864612579345703e+00 -3.273067712783813477e+00
1.585000000000000000e+03 5.144787597656250000e+01 2.506891441345214844e+01 7.472011446952819824e-02 6.158650517463684082e-01 2.071755379438400269e-01 2.976273596286773682e-01
1.586000000000000000e+03 4.891940307617187500e+01 2.340213394165039062e+01 3.341231867671012878e-02 7.756969332695007324e-01 2.427327632904052734e-01 6.007660627365112305e-01
1.587000000000000000e+03 3.545578765869140625e+01 -8.504163026809692383e-01 1.875081539154052734e+00 1.235988426208496094e+01 4.270489692687988281e+00 1.562403440475463867e+00
1.588000000000000000e+03 3.470956420898437500e+01 -2.124150693416595459e-01 2.977419614791870117e+00 1.031293869018554688e+01 3.987107515335083008e+00 1.639844775199890137e+00
1.589000000000000000e+03 3.861275863647460938e+01 3.426097393035888672e+00 -7.589333653450012207e-01 1.015808486938476562e+01 2.819745540618896484e+00 2.075953722000122070e+00
1.590000000000000000e+03 3.846761322021484375e+01 4.803668975830078125e+00 -3.999156653881072998e-01 1.114796066284179688e+01 3.224413394927978516e+00 1.005845189094543457e+00
1.591000000000000000e+03 4.009010314941406250e+01 -3.936727523803710938e+00 -1.665873765945434570e+00 7.038720130920410156e+00 1.611853837966918945e+00 -2.884742736816406250e+00
1.592000000000000000e+03 4.001544952392578125e+01 -2.298170804977416992e+00 1.072975873947143555e+00 6.234469413757324219e+00 2.192233562469482422e+00 -3.472769737243652344e+00
1.593000000000000000e+03 3.792613220214843750e+01 9.376573562622070312e+00 9.232231378555297852e-01 9.946653366088867188e+00 3.260962963104248047e+00 2.688312828540802002e-01
1.594000000000000000e+03 3.503498458862304688e+01 7.731845378875732422e+00 7.225165963172912598e-01 1.554820442199707031e+01 4.881216049194335938e+00 -1.211973190307617188e+00
1.595000000000000000e+03 6.554781341552734375e+01 7.305706024169921875e+00 7.354888916015625000e-01 2.765642881393432617e+00 1.050339579582214355e+00 3.016014695167541504e-01
1.596000000000000000e+03 5.883507537841796875e+01 6.968309879302978516e-01 9.911435246467590332e-01 2.532529115676879883e+00 1.057101845741271973e+00 1.517981529235839844e+00
1.597000000000000000e+03 6.240308380126953125e+01 2.187607049942016602e+00 6.717532277107238770e-01 2.644696235656738281e+00 9.949348568916320801e-01 7.342678308486938477e-01
1.598000000000000000e+03 1.253051090240478516e+01 -2.379776382446289062e+01 1.937414556741714478e-01 1.659853577613830566e+00 5.560784935951232910e-01 3.925711661577224731e-02
1.599000000000000000e+03 5.474187850952148438e+01 2.646791267395019531e+01 1.671425104141235352e-01 6.075040698051452637e-01 2.323939800262451172e-01 -2.019064128398895264e-01
1.600000000000000000e+03 5.281282043457031250e+01 2.594478416442871094e+01 1.572536826133728027e-01 5.911486744880676270e-01 2.245206981897354126e-01 1.058815792202949524e-01
1.601000000000000000e+03 2.293396949768066406e+01 -9.406679153442382812e+00 2.780988812446594238e-01 2.340582311153411865e-01 1.536471396684646606e-01 4.737669229507446289e-01
1.602000000000000000e+03 2.039013099670410156e+01 -8.985546112060546875e+00 4.883945882320404053e-01 4.603786170482635498e-01 2.846319675445556641e-01 7.561534047126770020e-01
1.603000000000000000e+03 1.861507606506347656e+01 -3.223854064941406250e+01 -2.454854547977447510e-01 7.008847594261169434e-01 1.366197913885116577e-01 -3.467428088188171387e-01
1.604000000000000000e+03 1.851764106750488281e+01 -2.855341911315917969e+01 -1.465786993503570557e-01 7.528995871543884277e-01 1.818962693214416504e-01 -3.350265622138977051e-01
1.605000000000000000e+03 1.935184478759765625e+01 -8.961934089660644531e+00 4.822863936424255371e-01 6.112003922462463379e-01 3.280460536479949951e-01 7.631615996360778809e-01
1.606000000000000000e+03 1.390332031250000000e+01 -1.359204959869384766e+01 9.336649775505065918e-01 2.151049375534057617e+00 9.254143238067626953e-01 4.292843341827392578e-01
1.607000000000000000e+03 1.091899204254150391e+01 -1.757128906250000000e+01 6.906906962394714355e-01 1.469350337982177734e+00 6.480122804641723633e-01 1.129212230443954468e-01
1.608000000000000000e+03 4.290859603881835938e+01 -2.650883483886718750e+01 1.448951840400695801e+00 8.433086395263671875e+00 2.964611530303955078e+00 -5.834808349609375000e-01
1.609000000000000000e+03 4.432343292236328125e+01 -2.791739463806152344e+01 8.734885454177856445e-01 8.363446235656738281e+00 2.771080493927001953e+00 -1.201472282409667969e+00
1.610000000000000000e+03 5.097166442871093750e+01 -1.195519065856933594e+01 1.396778583526611328e+00 9.958235025405883789e-01 7.177806496620178223e-01 1.942366838455200195e+00
1.611000000000000000e+03 6.734677886962890625e+01 -1.064316082000732422e+01 -8.569108247756958008e-01 1.413977891206741333e-01 -2.146539092063903809e-01 -2.652635276317596436e-01
1.612000000000000000e+03 2.851921653747558594e+01 -2.470704317092895508e+00 1.204874992370605469e+00 2.961840331554412842e-01 4.503177106380462646e-01 9.081996083259582520e-01
1.613000000000000000e+03 3.926710891723632812e+01 -4.660386562347412109e+00 -2.530483484268188477e+00 8.438813209533691406e+00 1.772498965263366699e+00 -2.760205745697021484e+00
1.614000000000000000e+03 4.172805023193359375e+01 -4.081011295318603516e+00 -1.985078454017639160e+00 4.312386989593505859e+00 6.981925964355468750e-01 -2.133666992187500000e+00
1.615000000000000000e+03 2.141768646240234375e+01 -8.810324668884277344e+00 4.010372459888458252e-01 3.255741596221923828e-01 2.179834097623825073e-01 7.028124332427978516e-01
1.616000000000000000e+03 2.684174537658691406e+01 2.520428085327148438e+01 5.880442261695861816e-01 2.505052328109741211e+00 9.279289841651916504e-01 -1.709372043609619141e+00
1.617000000000000000e+03 5.949229812622070312e+01 -1.101798439025878906e+01 -6.950824260711669922e-01 6.170223951339721680e-01 -2.341801486909389496e-02 6.976460218429565430e-01
1.618000000000000000e+03 5.727394866943359375e+01 -1.196773433685302734e+01 -5.083159357309341431e-02 5.049406886100769043e-01 1.362327337265014648e-01 9.684619307518005371e-01
1.619000000000000000e+03 6.487464141845703125e+01 2.125627517700195312e+01 2.330209612846374512e-01 2.678581237792968750e+00 8.734806776046752930e-01 2.106929123401641846e-01
1.620000000000000000e+03 7.844833374023437500e+01 -2.133864974975585938e+01 2.293229335919022560e-03 1.327470876276493073e-03 1.086210017092525959e-03 -7.446714444085955620e-04
1.621000000000000000e+03 7.728201293945312500e+01 -2.266762351989746094e+01 1.430841628462076187e-03 -1.126295537687838078e-03 9.136383596342056990e-05 3.926388453692197800e-04
1.622000000000000000e+03 7.692881011962890625e+01 -3.083468055725097656e+01 -2.784688025712966919e-03 -3.323453664779663086e-02 -1.080576702952384949e-02 3.080493956804275513e-02
1.623000000000000000e+03 7.692268371582031250e+01 -2.671005058288574219e+01 -1.262847799807786942e-02 -8.493049070239067078e-03 -6.336458027362823486e-03 1.383311673998832703e-02
1.624000000000000000e+03 7.715087890625000000e+01 -2.403014945983886719e+01 -7.782145403325557709e-03 -2.612689509987831116e-03 -3.118450520560145378e-03 4.535129293799400330e-03
1.625000000000000000e+03 7.704534912109375000e+01 -2.537635421752929688e+01 -9.517742437310516834e-04 -5.499646533280611038e-03 -1.935426262207329273e-03 6.882261484861373901e-03
1.626000000000000000e+03 7.691806030273437500e+01 -3.308909606933593750e+01 2.362576546147465706e-03 -5.299371853470802307e-02 -1.518934313207864761e-02 3.724253922700881958e-02
1.627000000000000000e+03 7.635399627685546875e+01 -3.428870391845703125e+01 -6.904202047735452652e-03 -5.492325127124786377e-02 -1.854823529720306396e-02 4.567620158195495605e-02
1.628000000000000000e+03 7.680615997314453125e+01 -2.807975959777832031e+01 -3.668366698548197746e-03 -1.528160832822322845e-02 -5.684992764145135880e-03 2.029047720134258270e-02
1.629000000000000000e+03 7.708523559570312500e+01 -3.203266906738281250e+01 -1.013660524040460587e-02 -4.237187653779983521e-02 -1.575254462659358978e-02 3.284595906734466553e-02
1.630000000000000000e+03 7.681253814697265625e+01 -2.948591804504394531e+01 -1.162686850875616074e-02 -2.307210117578506470e-02 -1.040969043970108032e-02 2.574899978935718536e-02
1.631000000000000000e+03 7.669087982177734375e+01 -3.719188690185546875e+01 1.478508953005075455e-02 -1.006730124354362488e-01 -2.576637640595436096e-02 3.081033378839492798e-02
1.632000000000000000e+03 3.796034240722656250e+01 8.386073112487792969e+00 1.048081874847412109e+00 1.038250923156738281e+01 3.429177284240722656e+00 4.292345345020294189e-01
1.633000000000000000e+03 1.389357089996337891e+01 9.512724876403808594e+00 -2.336397301405668259e-03 1.072464161552488804e-03 -3.791799244936555624e-04 4.354053176939487457e-03
1.634000000000000000e+03 1.145192337036132812e+01 2.039230155944824219e+01 -1.357823461294174194e-01 4.197227954864501953e-02 -2.814301848411560059e-02 5.266767926514148712e-03
1.635000000000000000e+03 1.216161060333251953e+01 1.906800460815429688e+01 -1.072902604937553406e-01 3.271714970469474792e-02 -2.237193472683429718e-02 -3.098788112401962280e-02
1.636000000000000000e+03 1.293137550354003906e+01 1.652483940124511719e+01 -2.142057009041309357e-02 -2.269633300602436066e-02 -1.323507074266672134e-02 -2.328984439373016357e-02
1.637000000000000000e+03 1.084483623504638672e+01 1.380311489105224609e+01 -1.142386067658662796e-02 -9.775102138519287109e-03 -6.359688472002744675e-03 -4.036357626318931580e-03
1.638000000000000000e+03 4.262694549560546875e+01 1.754920196533203125e+01 6.462393999099731445e-01 2.412084341049194336e+00 9.174970984458923340e-01 1.241566061973571777e+00
1.639000000000000000e+03 4.005937957763671875e+01 1.690380287170410156e+01 6.623922586441040039e-01 4.595779418945312500e+00 1.577451467514038086e+00 1.219161033630371094e+00
1.640000000000000000e+03 1.663276863098144531e+01 2.521068000793457031e+01 -1.567502692341804504e-02 1.033289656043052673e-01 2.629618160426616669e-02 -3.107408061623573303e-02
1.641000000000000000e+03 7.670243835449218750e+01 1.795733261108398438e+01 6.458431482315063477e-02 -1.367815852165222168e+00 -3.909694552421569824e-01 2.836316227912902832e-01
1.642000000000000000e+03 7.669679260253906250e+01 1.655972480773925781e+01 7.292158901691436768e-02 -1.450003862380981445e+00 -4.131246805191040039e-01 2.457618713378906250e-01
1.643000000000000000e+03 7.674371337890625000e+01 2.203526306152343750e+01 2.808469347655773163e-02 -1.092573404312133789e+00 -3.193466365337371826e-01 3.875435292720794678e-01
1.644000000000000000e+03 7.689601898193359375e+01 4.185677528381347656e+00 6.261526048183441162e-02 -1.389502286911010742e+00 -3.980661332607269287e-01 -3.169775903224945068e-01
1.645000000000000000e+03 7.691983032226562500e+01 2.849351644515991211e+00 3.770630434155464172e-02 -1.298024296760559082e+00 -3.780953884124755859e-01 -3.541630208492279053e-01
1.646000000000000000e+03 7.668136596679687500e+01 1.093823814392089844e+01 8.881871402263641357e-02 -1.570881724357604980e+00 -4.446189105510711670e-01 -3.340736404061317444e-02
1.647000000000000000e+03 7.671797943115234375e+01 9.575026512145996094e+00 9.853670001029968262e-02 -1.571989297866821289e+00 -4.420357942581176758e-01 -1.043604463338851929e-01
1.648000000000000000e+03 7.802644348144531250e+01 1.233608436584472656e+01 3.349112719297409058e-02 -2.159032583236694336e+00 -6.376624107360839844e-01 2.699311263859272003e-02
1.649000000000000000e+03 7.669950866699218750e+01 2.334868812561035156e+01 -7.404630538076162338e-03 -9.489575028419494629e-01 -2.869086563587188721e-01 3.949109315872192383e-01
1.650000000000000000e+03 7.621145629882812500e+01 3.095739173889160156e+01 -6.433102488517761230e-02 -3.234079778194427490e-01 -1.163217052817344666e-01 2.730998992919921875e-01
1.651000000000000000e+03 7.650292205810546875e+01 2.470818901062011719e+01 -2.806789986789226532e-02 -8.057169914245605469e-01 -2.501354515552520752e-01 3.910471796989440918e-01
1.652000000000000000e+03 7.670041656494140625e+01 1.935578536987304688e+01 5.411305651068687439e-02 -1.277158617973327637e+00 -3.669136762619018555e-01 3.365968167781829834e-01
1.653000000000000000e+03 7.668204498291015625e+01 1.514583301544189453e+01 9.158541262149810791e-02 -1.510596036911010742e+00 -4.257031977176666260e-01 1.740563511848449707e-01
1.654000000000000000e+03 7.682199096679687500e+01 6.870605468750000000e+00 8.243492245674133301e-02 -1.518029928207397461e+00 -4.306784868240356445e-01 -2.241715043783187866e-01
1.655000000000000000e+03 7.686560821533203125e+01 5.525841236114501953e+00 5.786393582820892334e-02 -1.462799072265625000e+00 -4.214805662631988525e-01 -2.749895453453063965e-01
1.656000000000000000e+03 7.695716094970703125e+01 1.923738121986389160e-01 1.657634600996971130e-02 -1.078220009803771973e+00 -3.184930980205535889e-01 -4.022274911403656006e-01
1.657000000000000000e+03 7.697982025146484375e+01 -1.144372224807739258e+00 2.019703201949596405e-02 -9.558832645416259766e-01 -2.807058691978454590e-01 -4.115415513515472412e-01
1.658000000000000000e+03 7.694544982910156250e+01 -6.535284996032714844e+00 -3.809502348303794861e-02 -4.392366707324981689e-01 -1.431995034217834473e-01 -3.561520278453826904e-01
1.659000000000000000e+03 7.685049438476562500e+01 -7.885344028472900391e+00 -6.853315234184265137e-02 -3.245140910148620605e-01 -1.179141774773597717e-01 -3.183558285236358643e-01
1.660000000000000000e+03 7.700025177001953125e+01 -2.484696865081787109e+00 -7.228587754070758820e-03 -8.259007334709167480e-01 -2.499387860298156738e-01 -4.140573143959045410e-01
1.661000000000000000e+03 7.700480651855468750e+01 -3.830940485000610352e+00 -8.002721704542636871e-03 -6.937551498413085938e-01 -2.105273753404617310e-01 -4.038434624671936035e-01
1.662000000000000000e+03 7.667285919189453125e+01 -9.198648452758789062e+00 -7.384975254535675049e-02 -2.183592766523361206e-01 -8.766271173954010010e-02 -2.767929434776306152e-01
1.663000000000000000e+03 7.704698181152343750e+01 -1.126342201232910156e+01 -6.382716447114944458e-02 -1.293931305408477783e-01 -5.796608701348304749e-02 -1.659782975912094116e-01
1.664000000000000000e+03 7.648796081542968750e+01 3.436539077758789062e+01 -5.033601447939872742e-02 -2.507671415805816650e-01 -9.033094346523284912e-02 1.676424741744995117e-01
1.665000000000000000e+03 7.408647155761718750e+01 2.728627395629882812e+01 -1.078222990036010742e-01 -6.394654512405395508e-02 -5.153065174818038940e-02 4.702025949954986572e-01
1.666000000000000000e+03 7.618846130371093750e+01 2.615628623962402344e+01 -4.175131395459175110e-02 -6.156854033470153809e-01 -1.972310096025466919e-01 4.041961729526519775e-01
1.667000000000000000e+03 7.666535949707031250e+01 1.372479629516601562e+01 9.355868399143218994e-02 -1.543225169181823730e+00 -4.348999559879302979e-01 1.095683425664901733e-01
1.668000000000000000e+03 7.666485595703125000e+01 1.231988239288330078e+01 1.025784537196159363e-01 -1.566618561744689941e+00 -4.392120242118835449e-01 3.040020726621150970e-02
1.669000000000000000e+03 7.676934051513671875e+01 8.221347808837890625e+00 7.819490134716033936e-02 -1.551711440086364746e+00 -4.420549571514129639e-01 -1.683520376682281494e-01
1.670000000000000000e+03 7.693855285644531250e+01 1.521542549133300781e+00 4.246729984879493713e-02 -1.195488095283508301e+00 -3.459062278270721436e-01 -3.812975883483886719e-01
1.671000000000000000e+03 4.476472473144531250e+01 2.137187194824218750e+01 3.008083999156951904e-01 1.828629851341247559e+00 6.388314962387084961e-01 1.067225933074951172e+00
1.672000000000000000e+03 3.208857345581054688e+01 1.900873374938964844e+01 1.989710330963134766e+00 8.614257812500000000e+00 3.181190490722656250e+00 -2.530632257461547852e+00
1.673000000000000000e+03 3.840112304687500000e+01 -2.941903114318847656e+01 1.445111483335494995e-01 6.042387008666992188e+00 1.856069445610046387e+00 8.522819876670837402e-01
1.674000000000000000e+03 6.822394561767578125e+01 -2.599358749389648438e+01 -5.685501918196678162e-02 4.056488629430532455e-03 -1.583955809473991394e-02 -1.860334188677370548e-03
1.675000000000000000e+03 6.132747650146484375e+01 -1.156583499908447266e+01 -1.159055590629577637e+00 3.420424461364746094e-01 -2.451039254665374756e-01 3.138190209865570068e-01
1.676000000000000000e+03 6.016909790039062500e+01 -1.216579246520996094e+01 -6.561390161514282227e-01 3.786022961139678955e-01 -8.326102048158645630e-02 2.525797784328460693e-01
1.677000000000000000e+03 3.456882476806640625e+01 -2.884600448608398438e+01 2.747220695018768311e-01 4.369060516357421875e+00 1.393134832382202148e+00 1.439626097679138184e+00
1.678000000000000000e+03 3.783277273178100586e+00 3.024435806274414062e+01 7.383539807051420212e-03 -1.431984156370162964e-01 -4.074446111917495728e-02 8.572805672883987427e-02
1.679000000000000000e+03 3.776936054229736328e+00 3.180013084411621094e+01 1.701083406805992126e-02 -1.627535670995712280e-01 -4.372281953692436218e-02 7.286308705806732178e-02
1.680000000000000000e+03 2.949541330337524414e+00 2.303320121765136719e+01 -6.752863060683012009e-03 -5.412280932068824768e-02 -1.826270110905170441e-02 5.923520028591156006e-02
1.681000000000000000e+03 3.138668060302734375e+00 2.432107162475585938e+01 -1.876418851315975189e-02 -6.781247258186340332e-02 -2.597299776971340179e-02 6.694382429122924805e-02
1.682000000000000000e+03 3.366960287094116211e+00 2.567616653442382812e+01 -3.839001059532165527e-03 -8.427105844020843506e-02 -2.643301710486412048e-02 8.174014091491699219e-02
1.683000000000000000e+03 3.549856424331665039e+00 2.714301109313964844e+01 -7.338439580053091049e-03 -1.012030392885208130e-01 -3.256244212388992310e-02 8.607228845357894897e-02
1.684000000000000000e+03 3.694152116775512695e+00 2.868600654602050781e+01 8.416623808443546295e-03 -1.186101660132408142e-01 -3.305806219577789307e-02 9.028434008359909058e-02
1.685000000000000000e+03 3.777694940567016602e+00 -2.723191833496093750e+01 -2.649552375078201294e-02 -5.416155457496643066e-01 -1.704333275556564331e-01 2.942067086696624756e-01
1.686000000000000000e+03 3.606693267822265625e+00 -2.577940368652343750e+01 6.358482409268617630e-03 -6.447690129280090332e-01 -1.915231645107269287e-01 2.922686040401458740e-01
1.687000000000000000e+03 4.284605026245117188e+00 -3.024500846862792969e+01 -6.635919213294982910e-02 -3.421089649200439453e-01 -1.225404515862464905e-01 2.566537559032440186e-01
1.688000000000000000e+03 3.198006391525268555e+00 1.639297485351562500e+01 -1.216834783554077148e-02 -3.559076692909002304e-03 -4.718227311968803406e-03 1.051480881869792938e-02
1.689000000000000000e+03 3.072003364562988281e+00 1.778511810302734375e+01 -5.009215790778398514e-03 -9.503508917987346649e-03 -4.353817086666822433e-03 1.543279271572828293e-02
1.690000000000000000e+03 3.158967733383178711e+00 1.347878932952880859e+01 -6.578802596777677536e-03 -1.122264773584902287e-03 -2.310320269316434860e-03 1.649858895689249039e-03
1.691000000000000000e+03 3.243631839752197266e+00 1.494596290588378906e+01 -1.658763852901756763e-03 -1.333030872046947479e-03 -8.975384407676756382e-04 3.429034724831581116e-03
1.692000000000000000e+03 3.036785364151000977e+00 6.522980690002441406e+00 2.436263486742973328e-03 7.496083853766322136e-04 9.557615267112851143e-04 -1.429949887096881866e-03
1.693000000000000000e+03 2.947953462600708008e+00 7.895092964172363281e+00 -2.229522680863738060e-03 9.717220091260969639e-04 -3.773401840589940548e-04 -1.572878565639257431e-03
1.694000000000000000e+03 1.948127031326293945e+00 -1.070606803894042969e+01 1.979569718241691589e-02 -9.817283749580383301e-01 -2.885798215866088867e-01 -2.691484391689300537e-01
1.695000000000000000e+03 1.808445692062377930e+00 -6.553260326385498047e+00 -1.351118739694356918e-02 -5.013669729232788086e-01 -1.544634401798248291e-01 -2.684127986431121826e-01
1.696000000000000000e+03 3.214032411575317383e+00 -1.214479637145996094e+01 8.025434613227844238e-02 -8.216811418533325195e-01 -2.224280238151550293e-01 -3.360665440559387207e-01
1.697000000000000000e+03 1.854647874832153320e+00 -1.762992858886718750e+01 4.453412815928459167e-02 -1.452468395233154297e+00 -4.223802983760833740e-01 -1.497675757855176926e-02
1.698000000000000000e+03 3.099601745605468750e+00 -1.485814571380615234e+01 1.029904037714004517e-01 -9.957303404808044434e-01 -2.678219974040985107e-01 -1.880753487348556519e-01
1.699000000000000000e+03 3.085077762603759766e+00 -1.752873992919921875e+01 1.083345934748649597e-01 -1.055549144744873047e+00 -2.841643691062927246e-01 -2.572437562048435211e-02
1.700000000000000000e+03 3.122325420379638672e+00 -5.432262897491455078e+00 -6.966561079025268555e-02 -3.062571883201599121e-01 -1.127768382430076599e-01 -3.721643388271331787e-01
1.701000000000000000e+03 3.319355726242065430e+00 -2.295832633972167969e+01 5.905234068632125854e-02 -8.567072749137878418e-01 -2.392964810132980347e-01 2.437746524810791016e-01
1.702000000000000000e+03 3.221435546875000000e+00 -2.157009315490722656e+01 7.543113082647323608e-02 -9.391585588455200195e-01 -2.591182291507720947e-01 1.844155639410018921e-01
1.703000000000000000e+03 3.156161308288574219e+00 -2.020780944824218750e+01 8.973304182291030884e-02 -1.002354145050048828e+00 -2.737863361835479736e-01 1.287688612937927246e-01
1.704000000000000000e+03 3.110118865966796875e+00 -1.886445808410644531e+01 1.035489067435264587e-01 -1.046208024024963379e+00 -2.827977240085601807e-01 5.108010768890380859e-02
1.705000000000000000e+03 1.813928723335266113e+00 4.916460037231445312e+00 1.776876277290284634e-03 1.236442592926323414e-03 9.039956494234502316e-04 -8.125751628540456295e-04
1.706000000000000000e+03 2.926847219467163086e+00 1.066303253173828125e+01 -3.674397943541407585e-03 9.350851760245859623e-04 -8.217938593588769436e-04 -1.470168121159076691e-03
1.707000000000000000e+03 3.025919675827026367e+00 -7.949963569641113281e+00 -3.489920403808355331e-03 -5.233642458915710449e-01 -1.580562442541122437e-01 -4.084709286689758301e-01
1.708000000000000000e+03 4.326575756072998047e+00 -4.255975246429443359e+00 -1.654522716999053955e-01 -1.644674092531204224e-01 -9.897590428590774536e-02 -4.053984284400939941e-01
1.709000000000000000e+03 2.981649875640869141e+00 2.047019577026367188e+01 -7.040224969387054443e-03 -2.687918953597545624e-02 -1.017582416534423828e-02 3.428895026445388794e-02
1.710000000000000000e+03 2.909177541732788086e+00 2.176107025146484375e+01 -2.169634588062763214e-02 -3.397132828831672668e-02 -1.670030131936073303e-02 4.290736839175224304e-02
1.711000000000000000e+03 3.017116069793701172e+00 1.914269447326660156e+01 -1.788394339382648468e-02 -1.478791795670986176e-02 -9.801558218896389008e-03 2.533623203635215759e-02
1.712000000000000000e+03 3.029011249542236328e+00 1.204986381530761719e+01 2.048928290605545044e-03 1.005420112051069736e-03 9.163045324385166168e-04 -1.189999748021364212e-03
1.713000000000000000e+03 2.898530006408691406e+00 9.279405593872070312e+00 3.079948481172323227e-03 8.248321246355772018e-04 1.171434181742370129e-03 -1.967688323929905891e-03
1.714000000000000000e+03 3.492257690429687500e+01 9.172471046447753906e+00 7.388104796409606934e-01 1.474248218536376953e+01 4.644387722015380859e+00 -1.215896129608154297e+00
1.715000000000000000e+03 2.260345649719238281e+01 2.561016845703125000e+01 4.283784627914428711e-01 6.482949256896972656e-01 3.230020105838775635e-01 -8.121262192726135254e-01
1.716000000000000000e+03 3.413993072509765625e+01 1.692890167236328125e+01 1.073392868041992188e+00 9.541030883789062500e+00 3.184327125549316406e+00 -1.399554371833801270e+00
1.717000000000000000e+03 3.438498306274414062e+01 1.583493804931640625e+01 1.032307982444763184e+00 1.016429805755615234e+01 3.358981847763061523e+00 -1.345430135726928711e+00
1.718000000000000000e+03 3.387974929809570312e+01 -6.901390075683593750e+00 -2.575332403182983398e+00 6.956214904785156250e+00 1.314264774322509766e+00 -9.101855158805847168e-01
1.719000000000000000e+03 3.239415740966796875e+01 -6.404588699340820312e+00 -1.815392494201660156e+00 4.004037857055664062e+00 6.565936207771301270e-01 -5.486397743225097656e-01
1.720000000000000000e+03 3.781184387207031250e+01 -1.732118225097656250e+01 1.466240286827087402e+00 8.744830131530761719e+00 3.063321113586425781e+00 -1.466449975967407227e+00
1.721000000000000000e+03 3.760870742797851562e+01 -1.591895008087158203e+01 1.292872071266174316e+00 8.737463951110839844e+00 3.009100675582885742e+00 -1.950168251991271973e+00
1.722000000000000000e+03 7.886382293701171875e+01 -1.961232376098632812e+01 -6.100715254433453083e-04 8.770546410232782364e-04 8.009492739802226424e-05 -7.470727432519197464e-04
1.723000000000000000e+03 7.827397155761718750e+01 -1.935311889648437500e+01 2.080802805721759796e-03 4.937043413519859314e-04 7.723521557636559010e-04 -9.115216089412570000e-04
1.724000000000000000e+03 5.211188888549804688e+01 -1.207716274261474609e+01 1.236019015312194824e+00 8.523744344711303711e-01 6.265180706977844238e-01 1.985965609550476074e+00
1.725000000000000000e+03 5.647065734863281250e+01 2.397992706298828125e+01 5.740870162844657898e-02 3.023516237735748291e-01 1.079280972480773926e-01 -4.938729405403137207e-01
1.726000000000000000e+03 3.849109649658203125e+01 1.267766189575195312e+01 5.797455906867980957e-01 7.619073867797851562e+00 2.459645748138427734e+00 7.978938221931457520e-01
1.727000000000000000e+03 1.850786209106445312e+01 3.892702341079711914e+00 1.702641486190259457e-03 2.283793437527492642e-04 5.793062155134975910e-04 4.946965782437473536e-05
1.728000000000000000e+03 3.384221267700195312e+01 1.813916015625000000e+01 1.246327877044677734e+00 8.837319374084472656e+00 3.025094270706176758e+00 -1.436860322952270508e+00
1.729000000000000000e+03 3.824139404296875000e+01 -2.043931770324707031e+01 1.596801996231079102e+00 8.360365867614746094e+00 2.987150430679321289e+00 -3.249207139015197754e-01
1.730000000000000000e+03 3.815951538085937500e+01 -1.881728172302246094e+01 1.355250000953674316e+00 8.626232147216796875e+00 2.994444608688354492e+00 -8.907151222229003906e-01
1.731000000000000000e+03 2.016253662109375000e+01 -3.082168197631835938e+01 -2.776619493961334229e-01 6.015239357948303223e-01 9.715859591960906982e-02 -3.681716322898864746e-01
1.732000000000000000e+03 1.135563087463378906e+01 1.744333267211914062e+01 -6.048825010657310486e-02 1.063311006873846054e-02 -1.495654229074716568e-02 -1.849050819873809814e-02
1.733000000000000000e+03 3.656965637207031250e+01 -1.095332622528076172e+01 -4.616654217243194580e-01 8.467278480529785156e+00 2.401683807373046875e+00 -1.510567069053649902e+00
1.734000000000000000e+03 3.757374191284179688e+01 -1.006426906585693359e+01 -1.431528210639953613e+00 8.292214393615722656e+00 2.058205842971801758e+00 -1.593361973762512207e+00
1.735000000000000000e+03 3.461939620971679688e+01 -1.043603038787841797e+01 -5.254885554313659668e-01 7.838119506835937500e+00 2.193789243698120117e+00 -1.632056713104248047e+00
1.736000000000000000e+03 2.070209884643554688e+01 2.528682899475097656e+01 1.739498376846313477e-01 2.539565563201904297e-01 1.283719241619110107e-01 -4.645607769489288330e-01
1.737000000000000000e+03 6.342457962036132812e+01 2.773519515991210938e+00 5.592101812362670898e-01 2.625606775283813477e+00 9.554450511932373047e-01 4.985643625259399414e-01
1.738000000000000000e+03 1.623245811462402344e+01 8.531215667724609375e+00 -2.312146127223968506e-03 2.176786947529762983e-04 -6.283402326516807079e-04 -1.495396834798157215e-03
1.739000000000000000e+03 1.527192878723144531e+01 7.987009048461914062e+00 1.045838231220841408e-03 2.298848237842321396e-03 1.003405894152820110e-03 1.367428107187151909e-03
1.740000000000000000e+03 4.044701766967773438e+01 1.524093246459960938e+01 7.128615975379943848e-01 4.321140766143798828e+00 1.510200738906860352e+00 1.321808099746704102e+00
1.741000000000000000e+03 3.894146728515625000e+01 1.390250301361083984e+01 6.394519209861755371e-01 6.470112800598144531e+00 2.132869482040405273e+00 1.143980622291564941e+00
1.742000000000000000e+03 5.819561767578125000e+01 -2.244561672210693359e+00 5.524098873138427734e-01 2.004765748977661133e+00 7.671527266502380371e-01 1.084431290626525879e+00
1.743000000000000000e+03 5.723082733154296875e+01 -1.453375339508056641e+00 9.863508343696594238e-01 2.199203491210937500e+00 9.556662440299987793e-01 1.290182471275329590e+00
1.744000000000000000e+03 3.139822387695312500e+01 -3.204559326171875000e+01 -8.328039944171905518e-02 2.388589620590209961e+00 6.915927529335021973e-01 1.214595437049865723e+00
1.745000000000000000e+03 3.073099327087402344e+01 -3.046920204162597656e+01 3.327968344092369080e-02 1.774991750717163086e+00 5.424814224243164062e-01 1.081544995307922363e+00
1.746000000000000000e+03 3.053638076782226562e+01 -2.963714838027954102e+00 1.102265477180480957e+00 1.923543453216552734e+00 9.077426791191101074e-01 1.156899333000183105e+00
1.747000000000000000e+03 7.213910675048828125e+01 -2.091243553161621094e+01 -6.109853740781545639e-03 -2.112005371600389481e-03 -2.466557780280709267e-03 2.932266332209110260e-03
1.748000000000000000e+03 3.690315628051757812e+01 8.740433692932128906e+00 8.519795536994934082e-01 1.213814735412597656e+01 3.897038221359252930e+00 -1.794493347406387329e-01
1.749000000000000000e+03 5.896048736572265625e+01 -1.224910020828247070e+00 7.111870050430297852e-01 2.158635377883911133e+00 8.609467148780822754e-01 1.114756464958190918e+00
1.750000000000000000e+03 6.077813339233398438e+01 -3.408703231811523438e+01 -3.047645650804042816e-02 6.592171639204025269e-02 1.063357759267091751e-02 1.568922251462936401e-01
1.751000000000000000e+03 6.256062316894531250e+01 -3.307514572143554688e+01 -1.113711670041084290e-01 5.697410181164741516e-02 -1.631911844015121460e-02 1.353147178888320923e-01
1.752000000000000000e+03 2.464768218994140625e+01 -7.052352428436279297e+00 -2.112995833158493042e-01 2.902598977088928223e-01 2.368809469044208527e-02 8.784267306327819824e-01
1.753000000000000000e+03 6.459957885742187500e+01 -2.908860397338867188e+01 -2.137961685657501221e-01 3.043804876506328583e-02 -5.500743538141250610e-02 1.856739073991775513e-02
1.754000000000000000e+03 3.802784729003906250e+01 -2.204319572448730469e+01 1.648504734039306641e+00 7.851467132568359375e+00 2.849991559982299805e+00 2.016731351613998413e-01
1.755000000000000000e+03 4.420269012451171875e+01 -1.948677825927734375e+01 2.295447826385498047e+00 9.989788055419921875e+00 3.685570716857910156e+00 7.861473560333251953e-01
1.756000000000000000e+03 3.737355422973632812e+01 -1.308069133758544922e+01 8.224803805351257324e-01 8.342154502868652344e+00 2.749390602111816406e+00 -1.844779133796691895e+00
1.757000000000000000e+03 2.047014951705932617e+00 3.658914089202880859e+00 -7.171756005845963955e-04 2.491902559995651245e-04 -1.403955975547432899e-04 -1.020836527459323406e-03
1.758000000000000000e+03 5.014358520507812500e+01 -8.200259208679199219e+00 -1.068790674209594727e+00 4.201496243476867676e-01 -1.945923119783401489e-01 1.994259834289550781e+00
1.759000000000000000e+03 6.316239166259765625e+01 1.075747966766357422e+01 4.540626406669616699e-01 5.030371189117431641e+00 1.645330071449279785e+00 7.034931182861328125e-01
1.760000000000000000e+03 6.435928344726562500e+01 1.406382942199707031e+01 4.614263176918029785e-01 4.392168045043945312e+00 1.456078290939331055e+00 9.730914980173110962e-02
1.761000000000000000e+03 2.533152961730957031e+01 -6.132050514221191406e+00 -2.930301725864410400e-01 2.806592881679534912e-01 -3.711263183504343033e-03 1.039752125740051270e+00
1.762000000000000000e+03 4.544403076171875000e+01 -3.118811988830566406e+01 -1.323292553424835205e-01 6.258459568023681641e+00 1.837839126586914062e+00 -1.161376357078552246e+00
1.763000000000000000e+03 1.734255218505859375e+01 -1.071390342712402344e+01 9.683958888053894043e-01 1.236592173576354980e+00 6.614964008331298828e-01 8.348118662834167480e-01
1.764000000000000000e+03 4.691151428222656250e+01 -1.336992168426513672e+01 2.156812429428100586e+00 3.855721473693847656e+00 1.803760170936584473e+00 1.422467589378356934e+00
1.765000000000000000e+03 5.411308288574218750e+01 -6.507830142974853516e+00 -1.212494611740112305e+00 1.704546570777893066e+00 1.476155966520309448e-01 1.575760722160339355e+00
1.766000000000000000e+03 6.542574310302734375e+01 1.553161621093750000e+01 6.656243801116943359e-01 3.410088777542114258e+00 1.222713947296142578e+00 -2.629689173772931099e-03
1.767000000000000000e+03 4.253205108642578125e+01 -2.190770912170410156e+01 2.036102294921875000e+00 9.558292388916015625e+00 3.478318452835083008e+00 -5.183697938919067383e-01
1.768000000000000000e+03 2.560789489746093750e+01 2.539963722229003906e+01 4.094769060611724854e-01 1.827129960060119629e+00 6.709820628166198730e-01 -1.458589434623718262e+00
1.769000000000000000e+03 3.680145263671875000e+01 -2.567848014831542969e+01 1.039236664772033691e+00 6.329004764556884766e+00 2.210472345352172852e+00 9.820992350578308105e-01
1.770000000000000000e+03 3.824310684204101562e+01 -2.515577697753906250e+01 1.274001955986022949e+00 7.022721767425537109e+00 2.489017009735107422e+00 5.346837043762207031e-01
1.771000000000000000e+03 2.654248046875000000e+01 2.394293785095214844e+01 7.031103968620300293e-01 2.058592081069946289e+00 8.285107612609863281e-01 -1.819361567497253418e+00
1.772000000000000000e+03 3.623839187622070312e+01 9.635725021362304688e+00 8.742019534111022949e-01 1.244908046722412109e+01 3.996984720230102539e+00 -6.182644963264465332e-01
1.773000000000000000e+03 1.582038784027099609e+01 -9.439462661743164062e+00 3.662910163402557373e-01 1.171012401580810547e+00 4.611910283565521240e-01 4.180777966976165771e-01
1.774000000000000000e+03 3.925518035888671875e+01 -2.331316375732421875e+01 1.735654473304748535e+00 7.716050624847412109e+00 2.835511445999145508e+00 6.435195356607437134e-02
1.775000000000000000e+03 3.004829216003417969e+01 -6.632709503173828125e+00 -7.423520088195800781e-01 4.714191257953643799e-01 -8.127985894680023193e-02 3.113303482532501221e-01
1.776000000000000000e+03 4.549991607666015625e+01 -2.959468078613281250e+01 3.324500322341918945e-01 6.901689052581787109e+00 2.170241832733154297e+00 -1.229422807693481445e+00
1.777000000000000000e+03 6.355581283569335938e+01 -1.008852577209472656e+01 -8.071135282516479492e-01 -1.389193534851074219e-02 -2.463016510009765625e-01 1.873953342437744141e-01
1.778000000000000000e+03 2.817520904541015625e+01 -4.140781879425048828e+00 6.801376342773437500e-01 2.115170508623123169e-01 2.674964070320129395e-01 1.047156453132629395e+00
1.779000000000000000e+03 2.916357040405273438e+01 -5.262933254241943359e+00 1.254379898309707642e-01 5.077378749847412109e-01 1.899527609348297119e-01 8.644847273826599121e-01
1.780000000000000000e+03 1.089038658142089844e+01 1.861416435241699219e+01 -7.734832912683486938e-02 1.614877581596374512e-02 -1.835986599326133728e-02 -8.147225715219974518e-03
1.781000000000000000e+03 5.258295059204101562e+01 -7.950961112976074219e+00 -1.120208382606506348e+00 1.069521307945251465e+00 -1.520611159503459930e-02 2.284452438354492188e+00
1.782000000000000000e+03 3.854206848144531250e+01 -1.058659791946411133e+00 1.260885715484619141e+00 1.237100887298583984e+01 4.089568138122558594e+00 -6.185089588165283203e+00
1.783000000000000000e+03 3.920962524414062500e+01 -8.082069158554077148e-01 2.547553062438964844e+00 7.021236896514892578e+00 2.870636940002441406e+00 -5.541413307189941406e+00
1.784000000000000000e+03 3.793099975585937500e+01 3.401359558105468750e+00 -1.362653613090515137e+00 1.478460884094238281e+01 4.026586532592773438e+00 1.238719820976257324e+00
1.785000000000000000e+03 7.662416839599609375e+01 -2.101424217224121094e+01 1.305659825447946787e-04 3.473323304206132889e-04 1.433694997103884816e-04 -2.597945742309093475e-03
1.786000000000000000e+03 7.502514648437500000e+01 -1.970845794677734375e+01 2.047329675406217575e-03 -9.977499721571803093e-04 3.148738760501146317e-04 -1.537904725410044193e-03
1.787000000000000000e+03 7.635311126708984375e+01 -1.245171070098876953e+01 -9.025390446186065674e-02 -7.877552509307861328e-02 -5.070882663130760193e-02 -1.490175426006317139e-01
1.788000000000000000e+03 1.590673828125000000e+01 5.086387157440185547e+00 1.422493602149188519e-03 2.934576245024800301e-03 1.307121012359857559e-03 1.278896816074848175e-03
1.789000000000000000e+03 1.600866508483886719e+01 4.216701984405517578e+00 -1.728488714434206486e-03 -6.366398883983492851e-04 -7.095385808497667313e-04 -9.509318624623119831e-05
1.790000000000000000e+03 1.464968776702880859e+01 3.915127754211425781e+00 -4.578911466524004936e-04 -9.826140012592077255e-04 -4.321515443734824657e-04 1.525742118246853352e-03
1.791000000000000000e+03 1.176891899108886719e+01 4.045630455017089844e+00 -9.871528018265962601e-04 -1.071303500793874264e-03 -6.175368907861411572e-04 1.144131296314299107e-03
1.792000000000000000e+03 1.739834403991699219e+01 4.507393360137939453e+00 1.452834461815655231e-03 1.737127196975052357e-03 9.569884859956800938e-04 1.307352329604327679e-03
1.793000000000000000e+03 1.469832324981689453e+01 3.296320915222167969e+00 6.741189281456172466e-04 1.780106569640338421e-03 7.362676551565527916e-04 4.400457546580582857e-04
1.794000000000000000e+03 1.324114704132080078e+01 3.988926887512207031e+00 -8.944273577071726322e-04 -9.238411439582705498e-04 -5.454805796034634113e-04 1.332015264779329300e-03
1.795000000000000000e+03 1.525144290924072266e+01 4.044922828674316406e+00 4.002509231213480234e-04 2.857377287000417709e-03 9.772884659469127655e-04 6.814840016886591911e-04
1.796000000000000000e+03 1.177178096771240234e+01 3.307128190994262695e+00 1.946291769854724407e-03 6.949991802684962749e-04 7.923872908577322960e-04 4.386340442579239607e-04
1.797000000000000000e+03 1.102293491363525391e+01 4.054780483245849609e+00 2.243934432044625282e-03 4.427156236488372087e-04 8.059950196184217930e-04 6.978362216614186764e-04
1.798000000000000000e+03 1.027020263671875000e+01 4.053409576416015625e+00 -3.794181684497743845e-04 -1.576039823703467846e-03 -5.866374121978878975e-04 5.490622133947908878e-04
1.799000000000000000e+03 1.250682926177978516e+01 4.022245883941650391e+00 1.889314735308289528e-03 9.011951042339205742e-04 8.371529402211308479e-04 4.249252669978886843e-04
1.800000000000000000e+03 3.500003576278686523e+00 3.756046533584594727e+00 -8.370399591512978077e-04 -4.917558180750347674e-05 -2.658646553754806519e-04 -6.961639737710356712e-04
1.801000000000000000e+03 3.504240989685058594e+00 4.607119560241699219e+00 2.093205926939845085e-03 2.589026116766035557e-04 7.056325557641685009e-04 -1.002582255750894547e-03
1.802000000000000000e+03 1.199965763092041016e+01 -4.036446094512939453e+00 -5.724390149116516113e-01 1.974932998418807983e-01 -1.124837100505828857e-01 -2.401498407125473022e-01
1.803000000000000000e+03 7.621343231201171875e+01 -1.162357807159423828e+01 -1.195560023188591003e-01 -9.285149723291397095e-02 -6.372225284576416016e-02 -1.939002424478530884e-01
1.804000000000000000e+03 6.909996032714843750e+01 -1.325086402893066406e+01 -5.587033033370971680e-01 1.207633167505264282e-01 -1.313820034265518188e-01 7.742771506309509277e-02
1.805000000000000000e+03 7.440883636474609375e+01 -1.244244670867919922e+01 -2.006761282682418823e-01 3.040191950276494026e-03 -5.929077789187431335e-02 -1.918926537036895752e-01
1.806000000000000000e+03 9.603946685791015625e+00 -3.429538249969482422e+00 -5.750459432601928711e-01 7.761503010988235474e-02 -1.492292732000350952e-01 -3.802996873855590820e-01
1.807000000000000000e+03 1.428628826141357422e+01 -4.693227767944335938e+00 -4.742547273635864258e-01 3.470412492752075195e-01 -3.816404193639755249e-02 8.717291988432407379e-03
1.808000000000000000e+03 1.655653190612792969e+01 -3.201940298080444336e+00 -6.596153378486633301e-01 2.046378105878829956e-01 -1.364932507276535034e-01 2.443408817052841187e-01
1.809000000000000000e+03 9.515527725219726562e+00 4.052368640899658203e+00 1.909737358801066875e-03 4.688546177931129932e-04 7.135776104405522346e-04 3.624713281169533730e-04
1.810000000000000000e+03 6.966890716552734375e+01 -1.321399307250976562e+01 -4.804046452045440674e-01 1.146266460418701172e-01 -1.097334027290344238e-01 -8.667829446494579315e-03
1.811000000000000000e+03 6.860191345214843750e+01 -1.238890552520751953e+01 -7.965257167816162109e-01 1.973492801189422607e-01 -1.797529309988021851e-01 2.958222106099128723e-02
1.812000000000000000e+03 1.425273513793945312e+01 -3.951543331146240234e+00 -6.003345251083374023e-01 2.470874488353729248e-01 -1.059741154313087463e-01 -6.111105903983116150e-03
1.813000000000000000e+03 6.622355937957763672e+00 5.092397212982177734e+00 1.851067790994420648e-04 -2.445779507979750633e-03 -6.782017881050705910e-04 1.852063433034345508e-04
1.814000000000000000e+03 7.281481742858886719e+00 4.160680770874023438e+00 2.499854890629649162e-04 -2.039465820416808128e-03 -5.368440761230885983e-04 2.673600392881780863e-04
1.815000000000000000e+03 4.242499351501464844e+00 4.588441371917724609e+00 -1.627121819183230400e-03 3.531830225256271660e-05 -4.775410634465515614e-04 -5.627905484288930893e-04
1.816000000000000000e+03 5.735230922698974609e+00 3.515039682388305664e+00 2.001022454351186752e-03 3.261581005062907934e-04 6.981541519053280354e-04 -1.594352535903453827e-03
1.817000000000000000e+03 4.241334438323974609e+00 3.679454565048217773e+00 2.302290871739387512e-03 9.953307744581252337e-05 7.205471629276871681e-04 -1.357257715426385403e-03
1.818000000000000000e+03 7.493480682373046875e+00 -5.706026077270507812e+00 -2.083486169576644897e-01 5.758222192525863647e-03 -6.077712029218673706e-02 -5.371060371398925781e-01
1.819000000000000000e+03 7.977298259735107422e+00 -4.369192123413085938e+00 -3.605799674987792969e-01 2.134456485509872437e-02 -1.017706245183944702e-01 -4.771395623683929443e-01
1.820000000000000000e+03 6.391363620758056641e+00 -3.278911113739013672e+00 -3.606917560100555420e-01 -3.307464346289634705e-02 -1.181299164891242981e-01 -4.109430313110351562e-01
1.821000000000000000e+03 7.099522113800048828e+00 -4.324943542480468750e+00 -3.191539347171783447e-01 -1.192950177937746048e-02 -9.932503104209899902e-02 -4.810715019702911377e-01
1.822000000000000000e+03 5.750986576080322266e+00 -3.196141242980957031e+00 -3.202688395977020264e-01 -6.384814530611038208e-02 -1.152350977063179016e-01 -3.821817636489868164e-01
1.823000000000000000e+03 5.968205451965332031e+00 -3.777366399765014648e+00 -2.962955236434936523e-01 -6.393384188413619995e-02 -1.080688014626502991e-01 -4.347700178623199463e-01
1.824000000000000000e+03 3.435929536819458008e+00 -3.342296838760375977e+00 -1.445549875497817993e-01 -1.347712278366088867e-01 -8.379786461591720581e-02 -2.791614532470703125e-01
1.825000000000000000e+03 8.839065551757812500e+00 -4.280334472656250000e+00 -4.158430397510528564e-01 8.114987611770629883e-02 -1.004079505801200867e-01 -4.600216448307037354e-01
1.826000000000000000e+03 1.044339847564697266e+01 -4.163686275482177734e+00 -5.068751573562622070e-01 1.482167392969131470e-01 -1.075975224375724792e-01 -3.727714121341705322e-01
1.827000000000000000e+03 1.909273147583007812e+01 -3.866741180419921875e+00 -3.751801848411560059e-01 2.766750156879425049e-01 -2.955155260860919952e-02 5.482383966445922852e-01
1.828000000000000000e+03 8.765391349792480469e+00 4.064325809478759766e+00 2.418246876914054155e-04 -2.078347140923142433e-03 -5.509567563422024250e-04 3.941168251913040876e-04
1.829000000000000000e+03 1.276397037506103516e+01 -4.005337238311767578e+00 -5.942125320434570312e-01 2.102751731872558594e-01 -1.151812076568603516e-01 -1.645658910274505615e-01
1.830000000000000000e+03 7.204801940917968750e+01 -1.211200523376464844e+01 -3.859329223632812500e-01 9.449118375778198242e-02 -8.743252605199813843e-02 -2.076009660959243774e-01
1.831000000000000000e+03 7.561894989013671875e+01 -1.245990848541259766e+01 -1.463107615709304810e-01 -4.113702476024627686e-02 -5.623433366417884827e-02 -1.657681316137313843e-01
1.832000000000000000e+03 7.497980499267578125e+01 -1.251277256011962891e+01 -1.561145186424255371e-01 -2.998436614871025085e-02 -5.582966282963752747e-02 -1.671986430883407593e-01
1.833000000000000000e+03 1.499809265136718750e+01 -3.933035135269165039e+00 -5.924521088600158691e-01 2.801788151264190674e-01 -9.368199110031127930e-02 8.465575426816940308e-02
1.834000000000000000e+03 1.576082229614257812e+01 -3.939182758331298828e+00 -5.652096867561340332e-01 2.862186729907989502e-01 -8.369731158018112183e-02 1.839364618062973022e-01
1.835000000000000000e+03 7.110964202880859375e+01 -1.211342620849609375e+01 -4.542916417121887207e-01 1.431465893983840942e-01 -9.334351867437362671e-02 -1.766120195388793945e-01
1.836000000000000000e+03 7.115835571289062500e+01 -1.294373703002929688e+01 -4.385191500186920166e-01 1.228445544838905334e-01 -9.470237791538238525e-02 -1.140981167554855347e-01
1.837000000000000000e+03 1.736491584777832031e+01 -3.983109474182128906e+00 -4.799613058567047119e-01 2.903866171836853027e-01 -5.687240883708000183e-02 3.819913268089294434e-01
1.838000000000000000e+03 3.405007934570312500e+01 -2.251290321350097656e+00 2.961709797382354736e-01 8.401206016540527344e+00 2.609213113784790039e+00 1.496751546859741211e+00
1.839000000000000000e+03 3.670598220825195312e+01 -1.907204389572143555e+00 -8.813490867614746094e-01 1.406991577148437500e+01 3.956569910049438477e+00 -4.762089252471923828e-01
1.840000000000000000e+03 7.374726867675781250e+01 -1.223449707031250000e+01 -2.658140361309051514e-01 2.715262584388256073e-02 -7.159842550754547119e-02 -1.958010047674179077e-01
1.841000000000000000e+03 2.399459457397460938e+01 -1.828942418098449707e+00 1.625531911849975586e-01 2.270746603608131409e-02 5.557819828391075134e-02 5.286758542060852051e-01
1.842000000000000000e+03 2.677292633056640625e+01 -2.367939472198486328e+00 8.284454345703125000e-01 -7.370917499065399170e-02 2.264208793640136719e-01 6.930236816406250000e-01
1.843000000000000000e+03 7.293737030029296875e+01 -1.212612342834472656e+01 -2.941010594367980957e-01 5.588215589523315430e-02 -7.146567106246948242e-02 -1.930847913026809692e-01
1.844000000000000000e+03 6.934112548828125000e+01 -1.255941677093505859e+01 -7.427721619606018066e-01 1.867771148681640625e-01 -1.667985171079635620e-01 -5.994106084108352661e-02
1.845000000000000000e+03 3.784448242187500000e+01 4.659832954406738281e+00 -6.716087460517883301e-01 1.319593048095703125e+01 3.757296562194824219e+00 6.173779368400573730e-01
1.846000000000000000e+03 3.787442779541015625e+01 3.968819856643676758e+00 -1.311948299407958984e+00 1.380525112152099609e+01 3.747990608215332031e+00 9.306743741035461426e-01
1.847000000000000000e+03 7.307739257812500000e+01 -1.887551689147949219e+01 1.427469542250037193e-03 -8.145707543008029461e-04 1.838696189224720001e-04 1.760310493409633636e-03
1.848000000000000000e+03 7.625769042968750000e+01 -2.263984489440917969e+01 -8.363711647689342499e-03 -1.946684671565890312e-03 -3.093119012191891670e-03 1.995724625885486603e-03
1.849000000000000000e+03 7.254344177246093750e+01 -1.975313949584960938e+01 2.387118525803089142e-03 -1.895052031613886356e-03 1.476199540775269270e-04 2.713706344366073608e-03
1.850000000000000000e+03 7.354454803466796875e+01 -2.042879867553710938e+01 -1.286586513742804527e-03 -2.786878496408462524e-03 -1.222039456479251385e-03 1.754738506861031055e-03
1.851000000000000000e+03 3.488599395751953125e+01 2.352372646331787109e+00 2.043924331665039062e+00 1.450333976745605469e+01 4.964179039001464844e+00 -1.935506224632263184e+00
1.852000000000000000e+03 2.393903160095214844e+01 -2.464006185531616211e+00 1.163758859038352966e-01 2.210467867553234100e-02 4.154416918754577637e-02 6.265693306922912598e-01
1.853000000000000000e+03 1.390071964263916016e+01 -1.042466735839843750e+01 4.757010936737060547e-01 1.231014966964721680e+00 5.120148062705993652e-01 1.069828495383262634e-01
1.854000000000000000e+03 1.522262382507324219e+01 -1.148316955566406250e+01 9.511815309524536133e-01 1.527966022491455078e+00 7.437442541122436523e-01 5.260460972785949707e-01
1.855000000000000000e+03 3.898000717163085938e+01 -1.924509882926940918e+00 6.427751183509826660e-01 9.078104019165039062e+00 2.916263818740844727e+00 -4.481005668640136719e+00
1.856000000000000000e+03 3.788658142089843750e+01 1.167199707031250000e+01 6.071587800979614258e-01 8.591495513916015625e+00 2.759596109390258789e+00 5.290959477424621582e-01
1.857000000000000000e+03 3.564740753173828125e+01 5.446602821350097656e+00 1.296189576387405396e-01 1.569752216339111328e+01 4.748142242431640625e+00 -1.004818320274353027e+00
1.858000000000000000e+03 7.745096588134765625e+01 -1.226242923736572266e+01 -6.271599233150482178e-02 -9.597640484571456909e-02 -4.760771617293357849e-02 -1.111636608839035034e-01
1.859000000000000000e+03 3.775674438476562500e+01 1.415896701812744141e+01 7.273997664451599121e-01 7.962755203247070312e+00 2.607046604156494141e+00 5.005419254302978516e-01
1.860000000000000000e+03 2.166122817993164062e+01 -4.107550144195556641e+00 -1.380966901779174805e-01 2.356306910514831543e-01 2.926019765436649323e-02 7.648264765739440918e-01
1.861000000000000000e+03 4.034651947021484375e+01 -2.267904663085937500e+01 2.005354404449462891e+00 8.206492424011230469e+00 3.063554048538208008e+00 -3.500304520130157471e-01
1.862000000000000000e+03 2.768065643310546875e+01 -2.315882921218872070e+00 1.104291200637817383e+00 3.250864148139953613e-02 3.410399556159973145e-01 8.074202537536621094e-01
1.863000000000000000e+03 1.301856422424316406e+01 -1.236111831665039062e+01 7.509036660194396973e-01 1.519673228263854980e+00 6.811730861663818359e-01 8.976038545370101929e-02
1.864000000000000000e+03 1.229765892028808594e+01 -1.420230197906494141e+01 8.061014413833618164e-01 1.644917726516723633e+00 7.353057265281677246e-01 1.269321590662002563e-01
1.865000000000000000e+03 3.753273773193359375e+01 7.340850830078125000e+00 6.183775663375854492e-01 1.158913803100585938e+01 3.662254810333251953e+00 4.047907590866088867e-01
1.866000000000000000e+03 3.623513031005859375e+01 1.319271564483642578e+01 7.409572601318359375e-01 1.030631351470947266e+01 3.314181327819824219e+00 -3.507180809974670410e-01
1.867000000000000000e+03 1.492961883544921875e+01 5.067090988159179688e+00 -1.110382378101348877e-03 -1.848393236286938190e-03 -8.876327192410826683e-04 3.686173004098236561e-04
1.868000000000000000e+03 1.697143554687500000e+01 5.353817939758300781e+00 -1.830124063417315483e-03 -1.736430684104561806e-03 -1.069966470822691917e-03 -1.025220612064003944e-03
1.869000000000000000e+03 1.575736236572265625e+01 -2.463985443115234375e+01 3.256346285343170166e-01 1.543313503265380859e+00 5.606844425201416016e-01 -6.830027103424072266e-01
1.870000000000000000e+03 1.508833599090576172e+01 -2.786924171447753906e+01 -1.724732816219329834e-01 1.145438194274902344e+00 2.918894588947296143e-01 -2.498563975095748901e-01
1.871000000000000000e+03 1.369440364837646484e+01 8.654525756835937500e+00 2.817647298797965050e-03 2.810547593981027603e-03 1.688458491116762161e-03 -1.270399079658091068e-03
1.872000000000000000e+03 3.487009811401367188e+01 1.508117866516113281e+01 8.711621165275573730e-01 1.035762310028076172e+01 3.368635654449462891e+00 -1.070339441299438477e+00
1.873000000000000000e+03 6.466554260253906250e+01 -9.166627883911132812e+00 -7.075304985046386719e-01 2.501850575208663940e-02 -2.047536075115203857e-01 -7.835029810667037964e-02
1.874000000000000000e+03 6.266886520385742188e+01 -8.955392837524414062e+00 -6.789003610610961914e-01 4.305281043052673340e-01 -7.451168447732925415e-02 3.680460751056671143e-01
1.875000000000000000e+03 4.414908409118652344e+00 -8.997797012329101562e+00 3.590073436498641968e-02 -4.118485152721405029e-01 -1.127843335270881653e-01 -5.021106004714965820e-01
1.876000000000000000e+03 3.954587936401367188e+00 9.351103782653808594e+00 -3.538930555805563927e-03 -2.395840128883719444e-04 -1.133554382249712944e-03 -1.653449842706322670e-03
1.877000000000000000e+03 3.224150848388671875e+01 -5.384687423706054688e+00 -1.005453944206237793e+00 4.158953666687011719e+00 9.460499882698059082e-01 6.632141768932342529e-03
1.878000000000000000e+03 3.337056350708007812e+01 -3.671580553054809570e+00 -4.643868803977966309e-01 6.517755508422851562e+00 1.816010594367980957e+00 9.508206844329833984e-01
1.879000000000000000e+03 4.317689895629882812e+01 -1.784936141967773438e+01 2.735631704330444336e+00 8.855223655700683594e+00 3.477256774902343750e+00 1.439115703105926514e-01
1.880000000000000000e+03 4.324177169799804688e+01 -1.936988639831542969e+01 2.124582529067993164e+00 9.788205146789550781e+00 3.573836326599121094e+00 2.427046447992324829e-01
1.881000000000000000e+03 1.675140380859375000e+01 -2.949614715576171875e+01 -2.318820059299468994e-01 9.016056656837463379e-01 2.009170949459075928e-01 -3.134184777736663818e-01
1.882000000000000000e+03 1.715898704528808594e+01 -2.630599403381347656e+01 1.575801223516464233e-01 1.033448934555053711e+00 3.573087155818939209e-01 -4.848598837852478027e-01
1.883000000000000000e+03 6.165040588378906250e+01 -9.776181221008300781e+00 -7.563229203224182129e-01 4.410280883312225342e-01 -9.458845853805541992e-02 4.813514649868011475e-01
1.884000000000000000e+03 5.021340179443359375e+01 -9.381939888000488281e+00 -1.791180521249771118e-01 8.156210184097290039e-01 1.909508854150772095e-01 2.136304616928100586e+00
1.885000000000000000e+03 4.989002990722656250e+01 -1.178174591064453125e+01 1.509032368659973145e+00 1.383064746856689453e+00 8.676291108131408691e-01 2.075919151306152344e+00
1.886000000000000000e+03 5.316648101806640625e+01 -1.238064670562744141e+01 1.302797317504882812e+00 5.523865222930908203e-01 5.565551519393920898e-01 1.733498573303222656e+00
1.887000000000000000e+03 5.555405426025390625e+01 -1.145948791503906250e+01 1.523519158363342285e-01 7.218057513236999512e-01 2.622472941875457764e-01 1.522455096244812012e+00
1.888000000000000000e+03 1.796204757690429688e+01 2.348859214782714844e+01 -2.647871673107147217e-01 1.089448481798171997e-02 -7.616779953241348267e-02 -6.869533658027648926e-02
1.889000000000000000e+03 7.392456817626953125e+01 2.400094604492187500e+01 -3.263966739177703857e-02 -1.459431052207946777e-01 -5.357483401894569397e-02 5.499483346939086914e-01
1.890000000000000000e+03 7.460633087158203125e+01 -2.147934675216674805e+00 -4.695526789873838425e-03 -4.087375402450561523e-01 -1.240299195051193237e-01 -5.883426070213317871e-01
1.891000000000000000e+03 5.726309776306152344e+00 -1.972480392456054688e+01 2.558042407035827637e-01 -2.651601135730743408e-01 -2.806765958666801453e-03 1.537974178791046143e-01
1.892000000000000000e+03 1.071032047271728516e+01 1.494303703308105469e+01 -1.382567267864942551e-02 -2.679633616935461760e-04 -4.228090867400169373e-03 -8.702486753463745117e-03
1.893000000000000000e+03 1.191306781768798828e+01 1.506346797943115234e+01 -1.424800697714090347e-02 -1.312026102095842361e-02 -8.210480213165283203e-03 -1.057206932455301285e-02
1.894000000000000000e+03 4.264348506927490234e+00 1.916766548156738281e+01 -1.654426567256450653e-02 -9.141878224909305573e-03 -7.705843076109886169e-03 3.088361397385597229e-02
1.895000000000000000e+03 4.197092056274414062e+00 5.555553436279296875e+00 3.668335964903235435e-03 -3.501346800476312637e-04 9.954603156074881554e-04 -2.138925949111580849e-03
1.896000000000000000e+03 3.715339660644531250e+01 5.387738704681396484e+00 -9.722041338682174683e-02 1.357543373107910156e+01 4.043464183807373047e+00 -7.801410555839538574e-02
1.897000000000000000e+03 7.099832916259765625e+01 -2.333331680297851562e+01 -1.518028043210506439e-02 3.678626380860805511e-03 -3.450496122241020203e-03 -4.446140665095299482e-04
1.898000000000000000e+03 7.065756988525390625e+01 -2.182927131652832031e+01 -2.105203224346041679e-03 1.112969708628952503e-03 -2.976700488943606615e-04 -1.010552980005741119e-03
1.899000000000000000e+03 5.387547969818115234e+00 3.015878295898437500e+01 2.065328508615493774e-02 -6.151063367724418640e-02 -1.225720439106225967e-02 1.039219498634338379e-01
1.900000000000000000e+03 3.492696380615234375e+01 3.234842061996459961e+00 1.236242055892944336e+00 1.558987140655517578e+01 5.047833919525146484e+00 -2.519322395324707031e+00
1.901000000000000000e+03 3.383791732788085938e+01 5.120057463645935059e-01 2.847016811370849609e+00 8.968209266662597656e+00 3.544567823410034180e+00 1.406597375869750977e+00
1.902000000000000000e+03 6.817501068115234375e+01 -1.153851890563964844e+01 -8.516145348548889160e-01 2.062154561281204224e-01 -1.936197280883789062e-01 -2.562286555767059326e-01
1.903000000000000000e+03 1.160316276550292969e+01 1.005904483795166016e+01 -6.240447517484426498e-03 -1.548422034829854965e-03 -2.336660865694284439e-03 2.361621940508484840e-03
1.904000000000000000e+03 4.458465576171875000e+01 -7.006885528564453125e+00 -2.027359962463378906e+00 2.099598407745361328e+00 2.167154289782047272e-02 -8.751558661460876465e-01
1.905000000000000000e+03 1.117895793914794922e+01 -1.378692722320556641e+01 6.854644417762756348e-01 1.179183483123779297e+00 5.593943595886230469e-01 -1.021127700805664062e-01
1.906000000000000000e+03 6.546279907226562500e+01 9.488733291625976562e+00 6.946598291397094727e-01 3.143985033035278320e+00 1.151593446731567383e+00 3.025361895561218262e-01
1.907000000000000000e+03 6.421772003173828125e+01 8.252894401550292969e+00 7.625475525856018066e-01 3.578477382659912109e+00 1.302307486534118652e+00 5.583530664443969727e-01
1.908000000000000000e+03 4.357392501831054688e+01 1.893302726745605469e+01 5.113776326179504395e-01 2.054253578186035156e+00 7.696893811225891113e-01 1.140393018722534180e+00
1.909000000000000000e+03 7.564665222167968750e+01 -2.653110885620117188e+01 -8.228172548115253448e-03 -6.517140660434961319e-03 -4.423594102263450623e-03 1.598463393747806549e-02
1.910000000000000000e+03 7.745752716064453125e+01 -2.135708045959472656e+01 -4.808609839528799057e-03 -1.436184829799458385e-04 -1.485668472014367580e-03 3.379207046236842871e-04
1.911000000000000000e+03 7.384464263916015625e+01 3.036334037780761719e+01 -1.408372670412063599e-01 4.619095847010612488e-02 -2.839389443397521973e-02 3.708719611167907715e-01
1.912000000000000000e+03 2.218463897705078125e+01 -4.894225120544433594e+00 -9.017270803451538086e-02 2.687049508094787598e-01 5.355966836214065552e-02 8.417563438415527344e-01
1.913000000000000000e+03 4.304729461669921875e+00 -1.485201930999755859e+01 1.830108910799026489e-01 -6.686764359474182129e-01 -1.456996649503707886e-01 -2.319718599319458008e-01
1.914000000000000000e+03 5.629913806915283203e+00 -1.251641082763671875e+01 2.116109281778335571e-01 -2.931832075119018555e-01 -2.447168715298175812e-02 -4.188724160194396973e-01
1.915000000000000000e+03 4.322994613647460938e+01 -1.615122032165527344e+01 2.213938474655151367e+00 7.681176662445068359e+00 2.968534469604492188e+00 -2.259393781423568726e-01
1.916000000000000000e+03 1.140214633941650391e+01 -2.419023513793945312e+01 1.186445504426956177e-01 1.315830826759338379e+00 4.303425848484039307e-01 2.469163835048675537e-01
1.917000000000000000e+03 1.278201866149902344e+01 2.334199523925781250e+01 -1.498258858919143677e-01 8.970466256141662598e-02 -1.803636737167835236e-02 7.665506005287170410e-02
1.918000000000000000e+03 1.354260158538818359e+01 7.786068439483642578e+00 -2.775102155283093452e-03 -4.800724564120173454e-04 -9.765523718670010567e-04 4.052480682730674744e-03
1.919000000000000000e+03 1.455951786041259766e+01 6.255770206451416016e+00 -1.533200149424374104e-03 1.916468492709100246e-03 1.149804884335026145e-04 4.954710020683705807e-04
1.920000000000000000e+03 7.543697357177734375e+01 -1.170901870727539062e+01 -1.583672165870666504e-01 -4.591751471161842346e-02 -6.128541752696037292e-02 -2.116284519433975220e-01
1.921000000000000000e+03 7.539047241210937500e+01 -8.576611518859863281e+00 -1.480416953563690186e-01 -1.767013967037200928e-01 -9.742292761802673340e-02 -3.839174211025238037e-01
1.922000000000000000e+03 3.502982330322265625e+01 -8.728992462158203125e+00 -2.284563064575195312e+00 8.175242424011230469e+00 1.767203927040100098e+00 -1.392439842224121094e+00
1.923000000000000000e+03 3.574525070190429688e+01 -9.787240982055664062e+00 -1.636391639709472656e+00 8.452117919921875000e+00 2.044717788696289062e+00 -1.345607995986938477e+00
1.924000000000000000e+03 7.245356750488281250e+01 1.358918762207031250e+01 3.770681023597717285e-01 1.328911036252975464e-01 1.529877632856369019e-01 1.529535800218582153e-01
1.925000000000000000e+03 7.526766204833984375e+01 1.369788265228271484e+01 1.827610284090042114e-01 -9.749830961227416992e-01 -2.376666367053985596e-01 1.266950219869613647e-01
1.926000000000000000e+03 7.377939605712890625e+01 1.661252403259277344e+01 2.188118249177932739e-01 -3.314118683338165283e-01 -3.378000855445861816e-02 3.602296710014343262e-01
1.927000000000000000e+03 1.589690113067626953e+01 -1.027734279632568359e+01 6.138811111450195312e-01 1.273141980171203613e+00 5.661069154739379883e-01 4.754053652286529541e-01
1.928000000000000000e+03 7.548652648925781250e+01 8.198658943176269531e+00 1.580688357353210449e-01 -1.052753925323486328e+00 -2.684055268764495850e-01 -2.071588486433029175e-01
1.929000000000000000e+03 6.940838623046875000e+01 -2.579431533813476562e+01 -5.117358639836311340e-02 1.761965081095695496e-02 -1.006618048995733261e-02 -9.022925514727830887e-04
1.930000000000000000e+03 3.722449064254760742e+00 3.331823348999023438e+01 1.049127429723739624e-02 -1.901618540287017822e-01 -5.390117317438125610e-02 7.079841196537017822e-02
1.931000000000000000e+03 4.236751556396484375e+00 3.468264007568359375e+01 3.829066455364227295e-02 -1.577645093202590942e-01 -3.584215417504310608e-02 6.245204806327819824e-02
1.932000000000000000e+03 6.874011230468750000e+01 -2.740088653564453125e+01 -7.735811918973922729e-02 2.917242050170898438e-02 -1.445570867508649826e-02 5.116304382681846619e-03
1.933000000000000000e+03 6.656983184814453125e+01 -9.648417472839355469e+00 -8.032295703887939453e-01 1.492679417133331299e-01 -1.961884796619415283e-01 -3.244394063949584961e-01
1.934000000000000000e+03 6.589288330078125000e+01 -8.465043067932128906e+00 -5.369137525558471680e-01 2.504451870918273926e-01 -8.594057708978652954e-02 -2.712469696998596191e-01
1.935000000000000000e+03 2.694218635559082031e+01 -5.845623493194580078e+00 -3.922573924064636230e-01 9.457873553037643433e-02 -8.930359780788421631e-02 1.225326418876647949e+00
1.936000000000000000e+03 6.138591003417968750e+01 -2.376767545938491821e-01 4.747819304466247559e-01 2.150982141494750977e+00 7.877292633056640625e-01 7.307050824165344238e-01
1.937000000000000000e+03 6.057327270507812500e+01 7.055572867393493652e-01 6.715627908706665039e-01 2.580474615097045898e+00 9.756112098693847656e-01 1.101050972938537598e+00
1.938000000000000000e+03 1.252102088928222656e+01 -2.242183876037597656e+01 3.509373366832733154e-01 1.861884593963623047e+00 6.638466119766235352e-01 9.421364963054656982e-02
1.939000000000000000e+03 4.274423980712890625e+01 -2.505428314208984375e+01 1.942572832107543945e+00 8.835250854492187500e+00 3.233346939086914062e+00 -6.883667707443237305e-01
1.940000000000000000e+03 4.591948318481445312e+01 2.022521781921386719e+01 2.094884961843490601e-01 1.153327345848083496e+00 4.088447690010070801e-01 7.991117238998413086e-01
1.941000000000000000e+03 4.604327392578125000e+01 2.187132453918457031e+01 1.963036060333251953e-01 1.464101314544677734e+00 4.981215000152587891e-01 9.067553281784057617e-01
1.942000000000000000e+03 5.040173339843750000e+01 2.620044326782226562e+01 1.657170951366424561e-01 8.819839954376220703e-01 3.143103122711181641e-01 4.612584710121154785e-01
1.943000000000000000e+03 3.837379074096679688e+01 -1.095914936065673828e+01 -6.226782798767089844e-01 7.936255931854248047e+00 2.194073200225830078e+00 -1.561315655708312988e+00
1.944000000000000000e+03 3.594392013549804688e+01 1.200008106231689453e+01 7.208595275878906250e-01 1.125551319122314453e+01 3.592911720275878906e+00 -5.232810974121093750e-01
1.945000000000000000e+03 6.529104614257812500e+01 1.834547805786132812e+01 6.526019573211669922e-01 3.035357713699340820e+00 1.106387853622436523e+00 1.276272535324096680e-01
1.946000000000000000e+03 6.527886199951171875e+01 1.986363220214843750e+01 4.607072174549102783e-01 2.791728496551513672e+00 9.757306575775146484e-01 1.668631434440612793e-01
1.947000000000000000e+03 6.361264419555664062e+01 1.958076477050781250e+01 6.577054858207702637e-01 3.567861318588256836e+00 1.267670035362243652e+00 -1.162358373403549194e-01
1.948000000000000000e+03 4.545377349853515625e+01 -7.553180217742919922e+00 -1.943698287010192871e+00 1.606694579124450684e+00 -1.011011227965354919e-01 -2.956596314907073975e-01
1.949000000000000000e+03 4.623990249633789062e+01 -8.204734802246093750e+00 -1.435933589935302734e+00 1.640333294868469238e+00 6.131990998983383179e-02 9.474189579486846924e-02
1.950000000000000000e+03 2.182246971130371094e+01 -7.613308906555175781e+00 1.147989258170127869e-01 3.691253364086151123e-01 1.451772749423980713e-01 7.884786128997802734e-01
1.951000000000000000e+03 6.332421112060546875e+01 1.205430412292480469e+01 3.089150488376617432e-01 5.118115901947021484e+00 1.628109216690063477e+00 3.742415606975555420e-01
1.952000000000000000e+03 3.530102157592773438e+01 1.602196121215820312e+01 9.470535516738891602e-01 9.229444503784179688e+00 3.052949428558349609e+00 -6.111330389976501465e-01
1.953000000000000000e+03 7.664418029785156250e+01 3.211073684692382812e+01 -5.453027412295341492e-02 -3.448469042778015137e-01 -1.198131516575813293e-01 2.209600508213043213e-01
1.954000000000000000e+03 4.310773849487304688e+01 -7.510144710540771484e+00 -1.766765356063842773e+00 4.040560245513916016e+00 6.821384429931640625e-01 -1.776870012283325195e+00
1.955000000000000000e+03 4.126728439331054688e+01 -6.100016117095947266e+00 -2.441800117492675781e+00 5.614934921264648438e+00 9.519403576850891113e-01 -2.451531410217285156e+00
1.956000000000000000e+03 3.703568649291992188e+01 1.197269344329833984e+01 6.407287716865539551e-01 9.897569656372070312e+00 3.161489486694335938e+00 8.932734280824661255e-02
1.957000000000000000e+03 3.122225761413574219e+01 -5.419587612152099609e+00 -4.177382588386535645e-01 2.470637083053588867e+00 6.158696413040161133e-01 3.784869611263275146e-01
1.958000000000000000e+03 4.415601348876953125e+01 -2.955973434448242188e+01 4.340311288833618164e-01 7.469773292541503906e+00 2.371141195297241211e+00 -1.010860562324523926e+00
1.959000000000000000e+03 4.751949691772460938e+01 2.245164108276367188e+01 7.504688948392868042e-02 1.020539641380310059e+00 3.286759555339813232e-01 7.112771868705749512e-01
1.960000000000000000e+03 5.885047912597656250e+01 -9.913796424865722656e+00 -4.987469613552093506e-01 8.758543133735656738e-01 1.131322011351585388e-01 9.516693949699401855e-01
1.961000000000000000e+03 4.842795562744140625e+01 -1.265310001373291016e+01 2.183705329895019531e+00 2.347166538238525391e+00 1.359261512756347656e+00 1.833626508712768555e+00
1.962000000000000000e+03 4.736232376098632812e+01 -1.220867252349853516e+01 1.348642826080322266e+00 3.195940732955932617e+00 1.363375067710876465e+00 1.206633090972900391e+00
1.963000000000000000e+03 4.801737976074218750e+01 -8.198513031005859375e+00 -1.397176623344421387e+00 4.351133406162261963e-01 -2.886189818382263184e-01 1.034904837608337402e+00
1.964000000000000000e+03 2.033641052246093750e+01 -8.027870178222656250e+00 2.447721958160400391e-01 4.778713583946228027e-01 2.167930752038955688e-01 7.633836269378662109e-01
1.965000000000000000e+03 3.531379699707031250e+01 -3.299146652221679688e+01 -4.916382730007171631e-01 4.333440303802490234e+00 1.152540683746337891e+00 1.103781700134277344e+00
1.966000000000000000e+03 3.485789489746093750e+01 -3.082790565490722656e+01 -1.422617137432098389e-01 4.319582462310791016e+00 1.253196239471435547e+00 1.285869956016540527e+00
1.967000000000000000e+03 5.666532516479492188e+01 -4.415377616882324219e+00 -1.443207710981369019e-01 1.923050761222839355e+00 5.336189866065979004e-01 1.033152580261230469e+00
1.968000000000000000e+03 5.838490676879882812e+01 -3.981595516204833984e+00 1.972733251750469208e-02 1.816399335861206055e+00 5.508379936218261719e-01 9.200325012207031250e-01
1.969000000000000000e+03 4.903639221191406250e+01 -8.420989990234375000e+00 -8.892148137092590332e-01 5.523228049278259277e-01 -1.010676026344299316e-01 1.656332850456237793e+00
1.970000000000000000e+03 5.131885528564453125e+01 -8.038311958312988281e+00 -1.027787327766418457e+00 7.530925869941711426e-01 -8.240842819213867188e-02 2.290736198425292969e+00
1.971000000000000000e+03 2.422581481933593750e+01 -3.285610580444335938e+01 -6.349700689315795898e-02 3.506568670272827148e-01 8.614796400070190430e-02 -7.257025688886642456e-02
1.972000000000000000e+03 4.138871383666992188e+01 1.720493698120117188e+01 6.926494836807250977e-01 3.487777471542358398e+00 1.254128098487854004e+00 1.277427911758422852e+00
1.973000000000000000e+03 5.777190780639648438e+01 -1.039067840576171875e+01 -4.686515033245086670e-01 8.747719526290893555e-01 1.218361258506774902e-01 1.121887564659118652e+00
1.974000000000000000e+03 5.599629211425781250e+01 -5.631564617156982422e+00 -5.890026092529296875e-01 1.866364121437072754e+00 3.832084536552429199e-01 1.253033638000488281e+00
1.975000000000000000e+03 7.557677459716796875e+01 -3.774144363403320312e+01 1.297818031162023544e-02 -7.986836135387420654e-02 -2.006705477833747864e-02 4.313398525118827820e-02
1.976000000000000000e+03 7.624278259277343750e+01 -3.577048492431640625e+01 1.253751292824745178e-02 -7.167600095272064209e-02 -1.774154789745807648e-02 5.230747163295745850e-02
1.977000000000000000e+03 5.717319869995117188e+01 -6.122415542602539062e+00 -4.657041728496551514e-01 1.729156732559204102e+00 3.790357708930969238e-01 1.180393218994140625e+00
1.978000000000000000e+03 4.387231826782226562e+00 3.727590942382812500e+01 3.546100109815597534e-02 -2.022995650768280029e-01 -5.005156621336936951e-02 5.722995847463607788e-02
1.979000000000000000e+03 4.512335968017578125e+01 -1.612973213195800781e+01 2.594554662704467773e+00 7.387551307678222656e+00 2.994631767272949219e+00 1.073583006858825684e+00
1.980000000000000000e+03 3.974343490600585938e+01 -1.624087142944335938e+01 1.771041154861450195e+00 7.911710262298583984e+00 2.904825448989868164e+00 -1.458544373512268066e+00
1.981000000000000000e+03 4.691813945770263672e+00 -3.336799240112304688e+01 -7.435593008995056152e-02 -2.236342430114746094e-01 -8.939705044031143188e-02 1.819040626287460327e-01
1.982000000000000000e+03 4.081443786621093750e+00 -7.874670982360839844e+00 -1.156089827418327332e-02 -4.049521684646606445e-01 -1.249539181590080261e-01 -4.873974025249481201e-01
1.983000000000000000e+03 4.919255256652832031e+00 -7.770596504211425781e+00 -1.256451383233070374e-02 -2.832773923873901367e-01 -8.875256776809692383e-02 -5.421238541603088379e-01
1.984000000000000000e+03 6.459703826904296875e+01 6.000530719757080078e+00 7.385007143020629883e-01 2.987480163574218750e+00 1.117794275283813477e+00 4.457168579101562500e-01
1.985000000000000000e+03 6.506863403320312500e+01 -3.348308563232421875e+01 -5.411764606833457947e-02 2.314916066825389862e-02 -9.290545247495174408e-03 1.408992856740951538e-01
1.986000000000000000e+03 3.798030090332031250e+01 -2.359186744689941406e+01 1.565919160842895508e+00 7.333810329437255859e+00 2.669919013977050781e+00 3.727174103260040283e-01
1.987000000000000000e+03 4.914461898803710938e+01 -9.462470054626464844e+00 -2.481467127799987793e-01 8.815285563468933105e-01 1.900145560503005981e-01 1.694136857986450195e+00
1.988000000000000000e+03 5.993197631835937500e+01 -2.078202009201049805e+00 3.845673203468322754e-01 1.909528732299804688e+00 6.882287859916687012e-01 8.550726175308227539e-01
1.989000000000000000e+03 4.139132308959960938e+01 -1.811112785339355469e+01 2.353713035583496094e+00 8.343898773193359375e+00 3.209283590316772461e+00 -6.981135606765747070e-01
1.990000000000000000e+03 3.475239562988281250e+01 1.975667762756347656e+01 7.163226008415222168e-01 7.286509990692138672e+00 2.400849819183349609e+00 -3.438391089439392090e-01
1.991000000000000000e+03 3.451745605468750000e+01 2.088663864135742188e+01 6.126983165740966797e-01 6.811944007873535156e+00 2.227392673492431641e+00 -2.482547909021377563e-01
1.992000000000000000e+03 6.454924774169921875e+01 3.300547361373901367e+00 5.644293427467346191e-01 2.360798597335815430e+00 8.775683641433715820e-01 2.194511294364929199e-01
1.993000000000000000e+03 4.312165451049804688e+01 -1.445168590545654297e+01 1.497432112693786621e+00 6.661046981811523438e+00 2.447543621063232422e+00 -6.917058229446411133e-01
1.994000000000000000e+03 4.611476516723632812e+01 -1.519033432006835938e+01 2.924662351608276367e+00 6.002686500549316406e+00 2.678204536437988281e+00 1.881270289421081543e+00
1.995000000000000000e+03 7.347776031494140625e+01 3.333986282348632812e+01 -1.467911154031753540e-01 1.564036905765533447e-01 2.883771434426307678e-03 2.639997005462646484e-01
1.996000000000000000e+03 7.504577636718750000e+01 3.402954483032226562e+01 -8.619721233844757080e-02 -8.392974734306335449e-02 -5.103808641433715820e-02 2.072547525167465210e-01
1.997000000000000000e+03 3.440726470947265625e+01 -7.777803897857666016e+00 -2.561966896057128906e+00 7.383828639984130859e+00 1.446558475494384766e+00 -1.199127912521362305e+00
1.998000000000000000e+03 1.297651767730712891e+01 -1.562069225311279297e+01 8.604464530944824219e-01 2.306716203689575195e+00 9.501487612724304199e-01 4.375245571136474609e-01
1.999000000000000000e+03 1.206779479980468750e+01 -1.790642547607421875e+01 6.125693917274475098e-01 2.087249517440795898e+00 8.099456429481506348e-01 3.571934625506401062e-02
2.000000000000000000e+03 2.837242507934570312e+01 2.713936805725097656e+01 -1.907605826854705811e-01 3.369017839431762695e+00 9.534772038459777832e-01 -1.382606744766235352e+00
2.001000000000000000e+03 4.288430690765380859e+00 -1.612640380859375000e+01 1.898815929889678955e-01 -7.006015181541442871e-01 -1.532159894704818726e-01 -1.336113065481185913e-01
2.002000000000000000e+03 7.539178466796875000e+01 9.536526679992675781e+00 1.606425791978836060e-01 -1.036292076110839844e+00 -2.626948356628417969e-01 -1.278899163007736206e-01
2.003000000000000000e+03 3.676889038085937500e+01 -3.031507301330566406e+01 -8.477121591567993164e-02 5.439752101898193359e+00 1.606494307518005371e+00 1.110748887062072754e+00
2.004000000000000000e+03 1.020601081848144531e+01 1.711326217651367188e+01 -4.357008263468742371e-02 5.925644654780626297e-03 -1.129333209246397018e-02 -7.680295500904321671e-03
2.005000000000000000e+03 5.919131851196289062e+01 -3.061046600341796875e+00 2.669678926467895508e-01 1.879182338714599609e+00 6.438450813293457031e-01 8.694227933883666992e-01
2.006000000000000000e+03 3.594832611083984375e+01 1.080774879455566406e+01 8.032559752464294434e-01 1.205759048461914062e+01 3.858253955841064453e+00 -6.717405915260314941e-01
2.007000000000000000e+03 4.042732238769531250e+01 -1.929110527038574219e+01 2.042171001434326172e+00 8.356430053710937500e+00 3.119580507278442383e+00 -7.938836216926574707e-01
2.008000000000000000e+03 2.006186866760253906e+01 -3.352896118164062500e+01 -1.340315341949462891e-01 6.131474971771240234e-01 1.437347978353500366e-01 -3.206363618373870850e-01
2.009000000000000000e+03 5.623952865600585938e+01 -1.244126033782958984e+01 3.716549873352050781e-01 4.620325565338134766e-01 2.501062750816345215e-01 1.037204027175903320e+00
2.010000000000000000e+03 3.481483078002929688e+01 2.410396194458007812e+01 -1.763890981674194336e-01 5.697270393371582031e+00 1.656264424324035645e+00 6.986436247825622559e-02
2.011000000000000000e+03 3.299510192871093750e+01 2.225582313537597656e+01 4.916698336601257324e-01 6.535524368286132812e+00 2.108158349990844727e+00 -7.017705440521240234e-01
2.012000000000000000e+03 1.417603969573974609e+01 -2.235842132568359375e+01 6.079637408256530762e-01 2.482335567474365234e+00 9.270898103713989258e-01 -5.519139170646667480e-01
2.013000000000000000e+03 6.709184265136718750e+01 1.310610198974609375e+01 6.357472538948059082e-01 2.532065868377685547e+00 9.503439664840698242e-01 1.244365796446800232e-01
2.014000000000000000e+03 3.853199768066406250e+01 4.057376861572265625e+00 -8.490847349166870117e-01 1.091932010650634766e+01 3.021070718765258789e+00 1.380673885345458984e+00
2.015000000000000000e+03 3.950249099731445312e+01 -7.198821306228637695e-01 2.754106760025024414e+00 5.442673206329345703e+00 2.459033966064453125e+00 -5.058793544769287109e+00
2.016000000000000000e+03 4.053126144409179688e+01 -5.505620837211608887e-01 1.249483942985534668e+00 3.119931697845458984e+00 1.310824751853942871e+00 -1.773612737655639648e+00
2.017000000000000000e+03 4.011896133422851562e+01 -9.623451232910156250e-01 2.334313869476318359e+00 4.060959815979003906e+00 1.918582081794738770e+00 -3.581186532974243164e+00
2.018000000000000000e+03 3.941180801391601562e+01 -3.133223533630371094e+00 -1.023107767105102539e+00 8.207645416259765625e+00 2.155361413955688477e+00 -3.286649942398071289e+00
2.019000000000000000e+03 3.948064041137695312e+01 -1.630416393280029297e+00 1.541589140892028809e+00 7.175299167633056641e+00 2.615066528320312500e+00 -4.791055202484130859e+00
2.020000000000000000e+03 2.561919021606445312e+01 -3.137202739715576172e+00 3.962352871894836426e-01 -7.846800237894058228e-02 9.533018618822097778e-02 8.813828825950622559e-01
2.021000000000000000e+03 3.799459457397460938e+01 5.303986072540283203e+00 -2.270471006631851196e-01 1.197987556457519531e+01 3.525848388671875000e+00 6.743967533111572266e-01
2.022000000000000000e+03 3.719787216186523438e+01 6.281857967376708984e+00 1.696926206350326538e-01 1.291345596313476562e+01 3.924944400787353516e+00 1.044745445251464844e-01
2.023000000000000000e+03 3.649523162841796875e+01 4.968107223510742188e+00 -3.552286326885223389e-01 1.504329204559326172e+01 4.406419277191162109e+00 -8.520781397819519043e-01
2.024000000000000000e+03 1.679728507995605469e+01 4.024954319000244141e+00 4.919851780869066715e-04 -7.451519923051819205e-05 1.252410002052783966e-04 3.560059994924813509e-04
2.025000000000000000e+03 1.401921367645263672e+01 4.583868503570556641e+00 -1.160635380074381828e-03 -9.200274362228810787e-04 -6.241988739930093288e-04 9.850664064288139343e-04
2.026000000000000000e+03 2.224429130554199219e+01 -3.534513711929321289e+00 -1.190672367811203003e-01 1.743015795946121216e-01 1.657030358910560608e-02 7.284650802612304688e-01
2.027000000000000000e+03 1.328140926361083984e+01 4.672017574310302734e+00 1.442885841242969036e-03 1.550089335069060326e-03 8.978925761766731739e-04 5.035479553043842316e-04
2.028000000000000000e+03 1.179675674438476562e+01 4.809621810913085938e+00 2.497246954590082169e-03 4.392807313706725836e-04 8.809583378024399281e-04 6.106697255745530128e-04
2.029000000000000000e+03 1.027964115142822266e+01 4.811652183532714844e+00 2.230670535936951637e-03 3.221828956156969070e-04 7.658560061827301979e-04 1.079691806808114052e-03
2.030000000000000000e+03 1.477396678924560547e+01 4.462353229522705078e+00 1.208996982313692570e-03 8.509804611094295979e-04 6.179932388477027416e-04 7.316086557693779469e-04
2.031000000000000000e+03 1.254393672943115234e+01 4.752293586730957031e+00 -1.284055877476930618e-03 -1.136151142418384552e-03 -7.260621059685945511e-04 1.685449271462857723e-03
2.032000000000000000e+03 7.279477691650390625e+01 -2.062748718261718750e+01 -3.373970277607440948e-03 -1.500739133916795254e-03 -1.462412765249609947e-03 -2.484263619408011436e-03
2.033000000000000000e+03 1.207294178009033203e+01 -4.769171714782714844e+00 -4.608825743198394775e-01 2.643108069896697998e-01 -5.897153168916702271e-02 -2.446288764476776123e-01
2.034000000000000000e+03 1.131408405303955078e+01 -4.821874141693115234e+00 -4.310479164123535156e-01 2.425797581672668457e-01 -5.654044449329376221e-02 -3.211487233638763428e-01
2.035000000000000000e+03 9.529423713684082031e+00 4.796025753021240234e+00 -5.215356941334903240e-05 -2.344062086194753647e-03 -7.188647286966443062e-04 3.373346116859465837e-04
2.036000000000000000e+03 6.294142723083496094e+00 -4.453219413757324219e+00 -2.656804323196411133e-01 -6.886626034975051880e-02 -1.003640070557594299e-01 -4.756997823715209961e-01
2.037000000000000000e+03 1.500026512145996094e+01 -4.650911331176757812e+00 -4.666169881820678711e-01 3.622246682643890381e-01 -3.131769970059394836e-02 9.931703656911849976e-02
2.038000000000000000e+03 5.187799930572509766e+00 6.539418697357177734e+00 2.150311134755611420e-03 2.958791155833750963e-04 7.338571012951433659e-04 -3.121628891676664352e-03
2.039000000000000000e+03 5.770426750183105469e+00 4.375802993774414062e+00 -2.143203746527433395e-04 -1.490863272920250893e-03 -5.115550593473017216e-04 2.314875164302065969e-04
2.040000000000000000e+03 9.658864974975585938e+00 -4.226452827453613281e+00 -4.660449624061584473e-01 1.113282963633537292e-01 -1.064149960875511169e-01 -4.140124917030334473e-01
2.041000000000000000e+03 1.055109786987304688e+01 -4.971804618835449219e+00 -3.896845877170562744e-01 2.123063355684280396e-01 -5.321347713470458984e-02 -3.875633776187896729e-01
2.042000000000000000e+03 8.022309303283691406e+00 4.097699642181396484e+00 1.834528986364603043e-03 4.521229420788586140e-04 6.859955610707402229e-04 -5.710013210773468018e-04
2.043000000000000000e+03 1.351273441314697266e+01 -3.978674411773681641e+00 -5.997404456138610840e-01 2.356741875410079956e-01 -1.092198789119720459e-01 -8.716047555208206177e-02
2.044000000000000000e+03 5.048099517822265625e+00 5.465570449829101562e+00 -1.075880718417465687e-03 -1.257469644770026207e-03 -7.000050973147153854e-04 4.139398515690118074e-04
2.045000000000000000e+03 8.173108100891113281e+00 -5.278575420379638672e+00 -2.752568125724792480e-01 5.620950460433959961e-02 -6.571418792009353638e-02 -5.175610780715942383e-01
2.046000000000000000e+03 7.360785007476806641e+00 4.959918022155761719e+00 1.890506944619119167e-03 3.076100547332316637e-04 6.594351143576204777e-04 -1.000659540295600891e-03
2.047000000000000000e+03 4.737158298492431641e+00 -5.033802509307861328e+00 -1.467034965753555298e-01 -1.831517815589904785e-01 -9.895658493041992188e-02 -4.538313746452331543e-01
2.048000000000000000e+03 5.503023147583007812e+00 -5.442950725555419922e+00 -1.626390963792800903e-01 -1.446548253297805786e-01 -9.218817204236984253e-02 -5.116277337074279785e-01
2.049000000000000000e+03 8.794214248657226562e+00 4.811947345733642578e+00 1.744921435602009296e-03 4.644685250241309404e-04 6.628169794566929340e-04 4.031059575027029496e-07
2.050000000000000000e+03 1.914976310729980469e+01 -4.630610942840576172e+00 -2.761906385421752930e-01 3.517006337642669678e-01 2.265299670398235321e-02 6.094498038291931152e-01
2.051000000000000000e+03 1.825175666809082031e+01 -4.769902229309082031e+00 -3.125143647193908691e-01 3.747722208499908447e-01 1.867735572159290314e-02 5.246598720550537109e-01
2.052000000000000000e+03 8.956106185913085938e+00 -5.091069698333740234e+00 -3.247205317020416260e-01 1.049701869487762451e-01 -6.592509895563125610e-02 -4.773350656032562256e-01
2.053000000000000000e+03 3.687357330322265625e+01 -3.048154592514038086e+00 -2.037424087524414062e+00 1.204119586944580078e+01 3.001131534576416016e+00 -1.155082583427429199e+00
2.054000000000000000e+03 1.654683685302734375e+01 -3.967025279998779297e+00 -5.254384279251098633e-01 3.083859384059906006e-01 -6.511575728654861450e-02 2.858522236347198486e-01
2.055000000000000000e+03 1.356286334991455078e+01 -4.734425544738769531e+00 -4.756296575069427490e-01 3.150770366191864014e-01 -4.816578328609466553e-02 -7.888285815715789795e-02
2.056000000000000000e+03 1.733461761474609375e+01 -4.830173015594482422e+00 -3.505413234233856201e-01 4.081562161445617676e-01 1.728446781635284424e-02 4.268543124198913574e-01
2.057000000000000000e+03 7.306600189208984375e+01 -1.126888561248779297e+01 -3.081348538398742676e-01 3.962800651788711548e-02 -8.055204898118972778e-02 -2.809070050716400146e-01
2.058000000000000000e+03 7.115846252441406250e+01 -1.129165649414062500e+01 -4.919506907463073730e-01 1.448632329702377319e-01 -1.041262447834014893e-01 -2.670889198780059814e-01
2.059000000000000000e+03 7.404904174804687500e+01 -1.139652061462402344e+01 -2.210308611392974854e-01 2.981354715302586555e-03 -6.541485339403152466e-02 -2.454360872507095337e-01
2.060000000000000000e+03 1.648493003845214844e+01 -4.745906829833984375e+00 -4.050373136997222900e-01 3.937104046344757080e-01 -3.398076165467500687e-03 3.122074306011199951e-01
2.061000000000000000e+03 3.430446243286132812e+01 -2.938800096511840820e+00 -4.586993157863616943e-01 8.667599678039550781e+00 2.462670087814331055e+00 1.061434149742126465e+00
2.062000000000000000e+03 5.192004203796386719e+00 -6.175686359405517578e+00 -1.031528189778327942e-01 -1.864284127950668335e-01 -8.687437325716018677e-02 -5.303690433502197266e-01
2.063000000000000000e+03 4.173695564270019531e+00 6.698630332946777344e+00 -2.292231423780322075e-03 -4.120056401006877422e-04 -8.112711366266012192e-04 -7.779894513078033924e-04
2.064000000000000000e+03 7.008609008789062500e+01 -1.216372108459472656e+01 -6.040005683898925781e-01 1.876614540815353394e-01 -1.249017342925071716e-01 -1.756457537412643433e-01
2.065000000000000000e+03 1.997774696350097656e+01 -3.803882598876953125e+00 -3.062000274658203125e-01 2.634857892990112305e-01 -1.281427219510078430e-02 6.188737750053405762e-01
2.066000000000000000e+03 6.566987609863281250e+01 -7.154861450195312500e+00 -3.827159702777862549e-01 3.858756422996520996e-01 9.479033760726451874e-04 -2.159535437822341919e-01
2.067000000000000000e+03 6.366177368164062500e+01 -7.970551967620849609e+00 -4.399233162403106689e-01 4.232327044010162354e-01 -5.007180850952863693e-03 1.600584983825683594e-01
2.068000000000000000e+03 7.414300537109375000e+01 -2.008119010925292969e+01 1.649569458095356822e-04 -6.603787187486886978e-04 -1.486265246057882905e-04 -1.850212342105805874e-03
2.069000000000000000e+03 2.742030525207519531e+01 -4.814359188079833984e+00 2.346197962760925293e-01 4.656036943197250366e-02 8.435405045747756958e-02 1.291937947273254395e+00
2.070000000000000000e+03 2.458770370483398438e+01 -5.273682117462158203e+00 -3.234470635652542114e-02 1.658305376768112183e-01 4.004574567079544067e-02 1.013935804367065430e+00
2.071000000000000000e+03 3.031583213806152344e+01 -4.150780677795410156e+00 5.986197590827941895e-01 1.685842633247375488e+00 6.853387355804443359e-01 8.855431675910949707e-01
2.072000000000000000e+03 1.658842849731445312e+01 -9.911478996276855469e+00 5.498378872871398926e-01 1.150868654251098633e+00 5.102119445800781250e-01 5.495647192001342773e-01
2.073000000000000000e+03 1.486236286163330078e+01 -9.316662788391113281e+00 2.965863049030303955e-01 1.071164488792419434e+00 4.103252589702606201e-01 2.113208770751953125e-01
2.074000000000000000e+03 9.984430313110351562e+00 -2.001537704467773438e+01 5.267918109893798828e-01 1.023128747940063477e+00 4.649761617183685303e-01 1.907284259796142578e-01
2.075000000000000000e+03 1.031709480285644531e+01 -2.185225868225097656e+01 4.089866280555725098e-01 1.106437206268310547e+00 4.546271562576293945e-01 2.214471250772476196e-01
2.076000000000000000e+03 9.403939247131347656e+00 1.589032745361328125e+01 -2.631611563265323639e-02 5.850055720657110214e-03 -6.139818113297224045e-03 -4.443396348506212234e-03
2.077000000000000000e+03 9.706554412841796875e+00 1.278612899780273438e+01 -9.252773597836494446e-03 -8.869348093867301941e-03 -5.436636507511138916e-03 -1.819763798266649246e-03
2.078000000000000000e+03 7.627181243896484375e+01 -1.983223152160644531e+01 2.104927843902260065e-04 5.193894030526280403e-04 2.189646620536223054e-04 -2.435471629723906517e-03
2.079000000000000000e+03 3.247748184204101562e+01 -3.440877437591552734e+00 2.189841419458389282e-01 4.742904186248779297e+00 1.488566517829895020e+00 1.121615290641784668e+00
2.080000000000000000e+03 6.578125000000000000e+01 6.285767555236816406e+00 6.706729531288146973e-01 2.512160778045654297e+00 9.548501372337341309e-01 1.585678458213806152e-01
2.081000000000000000e+03 6.671667480468750000e+01 7.436722755432128906e+00 6.467457413673400879e-01 2.330455064773559570e+00 8.931602239608764648e-01 7.399003207683563232e-02
2.082000000000000000e+03 4.232870101928710938e+01 -1.882959556579589844e+01 2.232113838195800781e+00 8.778057098388671875e+00 3.303051233291625977e+00 -3.735300302505493164e-01
2.083000000000000000e+03 4.052945327758789062e+01 -1.722517967224121094e+01 2.075517416000366211e+00 7.917581558227539062e+00 2.997929811477661133e+00 -1.193645358085632324e+00
2.084000000000000000e+03 4.009706878662109375e+01 -1.424187469482421875e+01 1.229124188423156738e+00 7.496754646301269531e+00 2.617763519287109375e+00 -1.540194749832153320e+00
2.085000000000000000e+03 2.666625976562500000e+01 -3.375097990036010742e+00 6.425648331642150879e-01 -1.878579705953598022e-02 1.871337145566940308e-01 1.011508464813232422e+00
2.086000000000000000e+03 3.228020095825195312e+01 -4.392250061035156250e+00 -2.914921641349792480e-01 4.371039867401123047e+00 1.223864316940307617e+00 7.017552852630615234e-01
2.087000000000000000e+03 3.188989257812500000e+01 -2.138387918472290039e+00 1.404263854026794434e+00 3.593869686126708984e+00 1.499440073966979980e+00 1.617786288261413574e+00
2.088000000000000000e+03 1.378866481781005859e+01 -9.343835830688476562e+00 2.662931978702545166e-01 1.066579699516296387e+00 3.998618423938751221e-01 3.701571002602577209e-02
2.089000000000000000e+03 5.353160858154296875e+01 -1.061568546295166016e+01 2.566576302051544189e-01 9.337967038154602051e-01 3.571363091468811035e-01 2.030145883560180664e+00
2.090000000000000000e+03 7.243341064453125000e+01 -2.168353271484375000e+01 -8.025781251490116119e-03 -4.284437745809555054e-03 -3.693065606057643890e-03 -7.310255896300077438e-04
2.091000000000000000e+03 1.283411407470703125e+01 9.866848945617675781e+00 4.311275202780961990e-03 1.125210081227123737e-03 1.630945480428636074e-03 3.232438466511666775e-04
2.092000000000000000e+03 1.152483081817626953e+01 8.873038291931152344e+00 4.926952067762613297e-03 -8.921519620344042778e-04 1.210440066643059254e-03 2.158713294193148613e-03
2.093000000000000000e+03 2.511342430114746094e+01 -2.082766294479370117e+00 3.586767315864562988e-01 -7.038386911153793335e-02 8.648785203695297241e-02 6.215826869010925293e-01
2.094000000000000000e+03 7.426274871826171875e+01 -8.078201293945312500e+00 -1.674854159355163574e-01 -1.066336110234260559e-01 -8.223570883274078369e-02 -4.556137621402740479e-01
2.095000000000000000e+03 7.562879180908203125e+01 -7.441532611846923828e+00 -9.509442746639251709e-02 -2.540886104106903076e-01 -1.047549098730087280e-01 -4.182270467281341553e-01
2.096000000000000000e+03 7.436460113525390625e+01 3.031043767929077148e+00 1.260216236114501953e-01 -5.532965064048767090e-01 -1.281824558973312378e-01 -4.887507259845733643e-01
2.097000000000000000e+03 3.568711090087890625e+01 1.465167427062988281e+01 8.096753954887390137e-01 9.869239807128906250e+00 3.203674554824829102e+00 -6.142535805702209473e-01
2.098000000000000000e+03 4.186998844146728516e+00 1.199657535552978516e+01 -6.088765803724527359e-03 -2.366275060921907425e-03 -2.536512212827801704e-03 -1.434665900887921453e-04
2.099000000000000000e+03 7.618521118164062500e+01 -1.022657871246337891e+01 -1.254245042800903320e-01 -1.441034823656082153e-01 -8.085839450359344482e-02 -2.561308741569519043e-01
2.100000000000000000e+03 5.121016693115234375e+01 -1.063866424560546875e+01 5.924765467643737793e-01 9.900633692741394043e-01 4.747619628906250000e-01 2.247075557708740234e+00
2.101000000000000000e+03 5.236945724487304688e+01 -1.069910430908203125e+01 4.655281305313110352e-01 8.371378779411315918e-01 3.907998204231262207e-01 2.139768600463867188e+00
2.102000000000000000e+03 1.315945625305175781e+01 6.996647357940673828e+00 1.930010737851262093e-03 7.760036969557404518e-04 8.118043770082294941e-04 -7.805718923918902874e-04
2.103000000000000000e+03 1.446742153167724609e+01 7.348582267761230469e+00 -1.244004000909626484e-03 2.743419492617249489e-03 4.498246707953512669e-04 3.840826320811174810e-05
2.104000000000000000e+03 4.348614692687988281e+00 -1.357784652709960938e+01 1.609652936458587646e-01 -6.269373893737792969e-01 -1.397916376590728760e-01 -3.098731338977813721e-01
2.105000000000000000e+03 7.582678985595703125e+01 -4.901320457458496094e+00 -4.116215556859970093e-02 -4.406172633171081543e-01 -1.445338279008865356e-01 -4.851633906364440918e-01
2.106000000000000000e+03 1.302070045471191406e+01 -1.151310443878173828e+01 5.749310255050659180e-01 1.337540388107299805e+00 5.737414360046386719e-01 2.205999009311199188e-02
2.107000000000000000e+03 1.161811161041259766e+01 -1.274677848815917969e+01 6.368857622146606445e-01 1.163986682891845703e+00 5.402617454528808594e-01 -1.216561421751976013e-01
2.108000000000000000e+03 6.318567276000976562e+01 1.093605160713195801e+00 4.123379588127136230e-01 2.244677543640136719e+00 7.971046566963195801e-01 4.267660677433013916e-01
2.109000000000000000e+03 6.146377563476562500e+01 1.507818460464477539e+00 5.682586431503295898e-01 2.588347911834716797e+00 9.469819664955139160e-01 8.634737730026245117e-01
2.110000000000000000e+03 2.352996635437011719e+01 -5.610618114471435547e+00 -6.840842217206954956e-02 2.763182222843170166e-01 6.237294152379035950e-02 9.524295330047607422e-01
2.111000000000000000e+03 6.088647079467773438e+01 -8.798303604125976562e+00 -5.970658659934997559e-01 7.772029638290405273e-01 5.404113978147506714e-02 6.702620983123779297e-01
2.112000000000000000e+03 2.111347389221191406e+01 -7.976947307586669922e+00 2.202812433242797852e-01 4.216811060905456543e-01 1.925887018442153931e-01 7.675344347953796387e-01
2.113000000000000000e+03 2.024958229064941406e+01 -6.722704410552978516e+00 3.086593747138977051e-02 4.555851221084594727e-01 1.459353119134902954e-01 7.691297531127929688e-01
2.114000000000000000e+03 7.386168670654296875e+01 1.512426853179931641e+01 2.707542181015014648e-01 -3.872183859348297119e-01 -3.493925184011459351e-02 2.505606710910797119e-01
2.115000000000000000e+03 7.474962615966796875e+01 -2.571679306030273438e+01 -1.644140295684337616e-02 -4.782628733664751053e-03 -6.367209367454051971e-03 1.500678248703479767e-02
2.116000000000000000e+03 7.388570404052734375e+01 -2.800247383117675781e+01 -2.531162090599536896e-02 -2.046157605946063995e-03 -8.207333274185657501e-03 3.066190704703330994e-02
2.117000000000000000e+03 3.840041732788085938e+01 -5.315511703491210938e+00 -2.817768573760986328e+00 9.221970558166503906e+00 1.921260476112365723e+00 -2.440839052200317383e+00
2.118000000000000000e+03 3.977548217773437500e+01 -5.562326908111572266e+00 -2.570988416671752930e+00 7.735449314117431641e+00 1.549338340759277344e+00 -2.643237590789794922e+00
2.119000000000000000e+03 3.996906518936157227e+00 2.175618743896484375e+01 -1.901527494192123413e-02 -2.823976427316665649e-02 -1.417651120573282242e-02 5.787254497408866882e-02
2.120000000000000000e+03 5.610455989837646484e+00 2.321991729736328125e+01 -4.499899968504905701e-02 -1.098942756652832031e-02 -1.679652743041515350e-02 8.522976934909820557e-02
2.121000000000000000e+03 7.452068328857421875e+01 -2.122810745239257812e+01 1.633144100196659565e-03 -2.713105408474802971e-03 -3.239884099457412958e-04 -2.803197130560874939e-04
2.122000000000000000e+03 2.413734626770019531e+01 -4.410768508911132812e+00 3.815148770809173584e-02 1.570184826850891113e-01 5.855099111795425415e-02 9.519878029823303223e-01
2.123000000000000000e+03 7.053420257568359375e+01 -1.023549556732177734e+01 -5.688086152076721191e-01 1.948156207799911499e-01 -1.121978983283042908e-01 -3.711262345314025879e-01
2.124000000000000000e+03 6.908159637451171875e+01 -1.070988082885742188e+01 -7.314054369926452637e-01 2.125728428363800049e-01 -1.556497812271118164e-01 -2.829588055610656738e-01
2.125000000000000000e+03 4.387304306030273438e+01 -8.113105773925781250e+00 -1.506196856498718262e+00 3.415220022201538086e+00 5.727069377899169922e-01 -1.310964584350585938e+00
2.126000000000000000e+03 1.828365087509155273e+00 3.585794067382812500e+01 8.735336363315582275e-03 -3.315896093845367432e-01 -9.685628116130828857e-02 1.285228598862886429e-02
2.127000000000000000e+03 4.108747863769531250e+01 -2.143265342712402344e+01 2.061615943908691406e+00 8.619930267333984375e+00 3.204463958740234375e+00 -5.584720373153686523e-01
2.128000000000000000e+03 7.610607147216796875e+01 -2.169958305358886719e+01 -5.832146271131932735e-04 -3.745420137420296669e-03 -1.298590446822345257e-03 2.463924931362271309e-03
2.129000000000000000e+03 7.414770507812500000e+01 -2.452334594726562500e+01 -1.469151861965656281e-02 1.037459122017025948e-03 -4.096217919141054153e-03 4.796065390110015869e-03
2.130000000000000000e+03 7.574562835693359375e+01 -9.723398685455322266e-01 1.724211126565933228e-02 -7.045032382011413574e-01 -2.061783522367477417e-01 -5.175125598907470703e-01
2.131000000000000000e+03 7.362934112548828125e+01 -3.330862998962402344e+00 -5.150453001260757446e-02 -2.027872800827026367e-01 -7.628754526376724243e-02 -6.188342571258544922e-01
2.132000000000000000e+03 3.017622947692871094e+01 -5.363881587982177734e+00 -2.490748316049575806e-01 1.342244863510131836e+00 3.279510140419006348e-01 7.258867621421813965e-01
2.133000000000000000e+03 7.595680236816406250e+01 -2.394258499145507812e+01 -2.444244455546140671e-03 -2.938182558864355087e-03 -1.614728127606213093e-03 4.100047983229160309e-03
2.134000000000000000e+03 4.473853683471679688e+01 -8.594250679016113281e+00 -1.044080018997192383e+00 3.092910289764404297e+00 6.146490573883056641e-01 -8.258120417594909668e-01
2.135000000000000000e+03 6.545601654052734375e+01 8.363367080688476562e+00 6.755403876304626465e-01 3.090017080307006836e+00 1.129667162895202637e+00 3.139408826828002930e-01
2.136000000000000000e+03 7.449196624755859375e+01 -8.570713996887207031e-01 4.567093774676322937e-02 -4.406281411647796631e-01 -1.184871643781661987e-01 -5.824633836746215820e-01
2.137000000000000000e+03 7.607567596435546875e+01 -3.234657669067382812e+01 -7.612573914229869843e-03 -3.865474835038185120e-02 -1.388019695878028870e-02 4.502918943762779236e-02
2.138000000000000000e+03 1.172046184539794922e+01 2.238368225097656250e+01 -1.710785627365112305e-01 7.939919084310531616e-02 -2.750381268560886383e-02 7.100822031497955322e-02
2.139000000000000000e+03 1.393337631225585938e+01 2.454697990417480469e+01 -1.182205528020858765e-01 9.139012545347213745e-02 -8.049129508435726166e-03 8.779246360063552856e-02
2.140000000000000000e+03 6.433078002929687500e+01 1.069911289215087891e+01 5.585048198699951172e-01 4.090114116668701172e+00 1.394585609436035156e+00 4.107494950294494629e-01
2.141000000000000000e+03 6.457530975341796875e+01 1.303132343292236328e+01 4.600613117218017578e-01 4.125948429107666016e+00 1.375802874565124512e+00 2.249838113784790039e-01
2.142000000000000000e+03 4.691867828369140625e+01 -1.061812305450439453e+01 3.307146728038787842e-01 2.578809261322021484e+00 8.728572130203247070e-01 6.630736589431762695e-01
2.143000000000000000e+03 4.834601974487304688e+01 -1.002288627624511719e+01 7.379961758852005005e-02 1.229277372360229492e+00 3.909230828285217285e-01 1.410339474678039551e+00
2.144000000000000000e+03 2.356968307495117188e+01 -6.626341342926025391e+00 -1.605887860059738159e-01 3.183042705059051514e-01 4.731464385986328125e-02 8.819661736488342285e-01
2.145000000000000000e+03 2.240750122070312500e+01 -7.118667602539062500e+00 2.772218361496925354e-02 3.538005352020263672e-01 1.144568100571632385e-01 8.352833986282348633e-01
2.146000000000000000e+03 6.691942596435546875e+01 -2.945015144348144531e+01 -1.496761292219161987e-01 3.791677951812744141e-02 -3.352780267596244812e-02 4.416062310338020325e-02
2.147000000000000000e+03 7.452016448974609375e+01 -1.047968006134033203e+01 -2.225339114665985107e-01 -4.625620320439338684e-02 -8.063703030347824097e-02 -3.028075695037841797e-01
2.148000000000000000e+03 4.886963844299316406e+00 2.218592453002929688e+01 -3.008522652089595795e-02 -1.257756724953651428e-02 -1.279883831739425659e-02 6.406821310520172119e-02
2.149000000000000000e+03 3.621386337280273438e+01 -8.005750656127929688e+00 -2.692827701568603516e+00 8.752958297729492188e+00 1.818039298057556152e+00 -1.400486707687377930e+00
2.150000000000000000e+03 3.343879318237304688e+01 -6.060701370239257812e+00 -2.034257888793945312e+00 6.329894542694091797e+00 1.288691043853759766e+00 -6.427518725395202637e-01
2.151000000000000000e+03 7.380238342285156250e+01 2.078885650634765625e+01 1.068023964762687683e-01 -2.176625579595565796e-01 -3.325804695487022400e-02 5.165324807167053223e-01
2.152000000000000000e+03 5.722974395751953125e+01 -9.281196594238281250e+00 -4.671973884105682373e-01 1.181109428405761719e+00 2.141736149787902832e-01 1.287429690361022949e+00
2.153000000000000000e+03 5.716730594635009766e+00 1.319235801696777344e+01 -9.492096491158008575e-03 -6.341912318021059036e-03 -4.750202875584363937e-03 2.494290005415678024e-03
2.154000000000000000e+03 4.048390579223632812e+01 -7.470189094543457031e+00 -2.330275058746337891e+00 6.772441387176513672e+00 1.332649827003479004e+00 -2.323713779449462891e+00
2.155000000000000000e+03 4.227229690551757812e+01 -7.248457908630371094e+00 -2.087066173553466797e+00 4.876008510589599609e+00 8.366826772689819336e-01 -2.123108386993408203e+00
2.156000000000000000e+03 5.494287490844726562e+00 -1.485406494140625000e+01 2.502596378326416016e-01 -3.743279576301574707e-01 -3.722050040960311890e-02 -2.405535280704498291e-01
2.157000000000000000e+03 5.520222187042236328e+00 -1.367358779907226562e+01 2.589480280876159668e-01 -3.580633103847503662e-01 -2.973459102213382721e-02 -3.336145579814910889e-01
2.158000000000000000e+03 4.883636856079101562e+01 -1.149814796447753906e+01 1.078274011611938477e+00 1.738854885101318359e+00 8.451386690139770508e-01 1.776530861854553223e+00
2.159000000000000000e+03 1.184187507629394531e+01 -1.524594688415527344e+01 7.866622209548950195e-01 1.673019647598266602e+00 7.379045486450195312e-01 1.070574522018432617e-01
2.160000000000000000e+03 6.135885620117187500e+01 -1.768091082572937012e+00 3.271202743053436279e-01 1.850204110145568848e+00 6.531972885131835938e-01 6.022444367408752441e-01
2.161000000000000000e+03 3.946400070190429688e+01 -1.820824050903320312e+01 1.937542438507080078e+00 8.292886734008789062e+00 3.069128513336181641e+00 -1.057567596435546875e+00
2.162000000000000000e+03 4.061613082885742188e+01 -1.536906337738037109e+01 1.693467378616333008e+00 7.458202838897705078e+00 2.745501041412353516e+00 -1.442747235298156738e+00
2.163000000000000000e+03 7.443104553222656250e+01 4.294978618621826172e+00 1.648873835802078247e-01 -5.965779423713684082e-01 -1.295071542263031006e-01 -4.245888292789459229e-01
2.164000000000000000e+03 7.035036563873291016e+00 3.211417007446289062e+01 4.290402680635452271e-02 1.673261635005474091e-02 1.789099350571632385e-02 8.811446279287338257e-02
2.165000000000000000e+03 4.234034347534179688e+01 -1.540720748901367188e+01 1.951231002807617188e+00 7.194168090820312500e+00 2.743619680404663086e+00 -8.682449460029602051e-01
2.166000000000000000e+03 4.500043487548828125e+01 -1.414657497406005859e+01 1.737460136413574219e+00 5.598956584930419922e+00 2.200925111770629883e+00 2.735413610935211182e-01
2.167000000000000000e+03 4.574458694458007812e+01 -1.295889949798583984e+01 1.448069810867309570e+00 4.783721923828125000e+00 1.869537591934204102e+00 5.943418741226196289e-01
2.168000000000000000e+03 1.062666130065917969e+01 2.162347602844238281e+01 -1.378483027219772339e-01 7.006999850273132324e-02 -2.033349126577377319e-02 3.342917189002037048e-02
2.169000000000000000e+03 9.738039970397949219e+00 1.817295837402343750e+01 -6.999676674604415894e-02 2.583250403404235840e-02 -1.324927899986505508e-02 -1.646614167839288712e-03
2.170000000000000000e+03 4.674089050292968750e+01 2.089963531494140625e+01 2.375881671905517578e-01 1.067403793334960938e+00 3.914975821971893311e-01 7.529674768447875977e-01
2.171000000000000000e+03 3.078007507324218750e+01 2.588960266113281250e+01 -4.198753237724304199e-01 4.759657382965087891e+00 1.301934599876403809e+00 -1.086140036582946777e+00
2.172000000000000000e+03 5.654277801513671875e+00 -2.845425415039062500e+01 -8.606735616922378540e-02 -1.135194674134254456e-01 -5.987604707479476929e-02 3.261968493461608887e-01
2.173000000000000000e+03 6.101749897003173828e+00 -3.000766944885253906e+01 -1.004500165581703186e-01 -2.907319925725460052e-02 -3.885696455836296082e-02 2.808547616004943848e-01
2.174000000000000000e+03 5.462857055664062500e+01 -1.073531723022460938e+01 1.059957370162010193e-01 8.254656791687011719e-01 2.794384360313415527e-01 1.791605591773986816e+00
2.175000000000000000e+03 7.100133514404296875e+01 -2.687623405456542969e+01 -5.158732086420059204e-02 1.757168956100940704e-02 -1.020468957722187042e-02 1.536596845835447311e-02
2.176000000000000000e+03 7.141209411621093750e+01 -2.428884124755859375e+01 -2.202805504202842712e-02 -9.727257420308887959e-04 -6.900234613567590714e-03 4.550192505121231079e-03
2.177000000000000000e+03 1.832745170593261719e+01 -8.760564804077148438e+00 4.023584723472595215e-01 7.616984844207763672e-01 3.492170870304107666e-01 7.285797595977783203e-01
2.178000000000000000e+03 1.085521316528320312e+01 1.265585422515869141e+01 1.689083757810294628e-03 -2.016451908275485039e-03 -9.821043204283341765e-05 8.479682146571576595e-04
2.179000000000000000e+03 6.801261138916015625e+01 1.578699016571044922e+01 6.093021631240844727e-01 2.022617101669311523e+00 7.895758152008056641e-01 2.495859265327453613e-01
2.180000000000000000e+03 6.795941162109375000e+01 1.693610763549804688e+01 6.273729801177978516e-01 2.011667966842651367e+00 7.917122840881347656e-01 2.932212352752685547e-01
2.181000000000000000e+03 4.164672088623046875e+01 -2.002313613891601562e+01 2.202484846115112305e+00 8.908595085144042969e+00 3.333324193954467773e+00 -4.571731686592102051e-01
2.182000000000000000e+03 3.969554901123046875e+01 -2.071450233459472656e+01 1.928766846656799316e+00 8.251811027526855469e+00 3.054173469543457031e+00 -4.543106257915496826e-01
2.183000000000000000e+03 2.118691444396972656e+01 2.820328903198242188e+01 3.406977951526641846e-01 8.001630306243896484e-01 3.422582447528839111e-01 -6.855285167694091797e-01
2.184000000000000000e+03 1.953104972839355469e+01 2.848064994812011719e+01 2.283296734094619751e-01 5.485689043998718262e-01 2.330695688724517822e-01 -4.054720103740692139e-01
2.185000000000000000e+03 1.476124954223632812e+01 -3.041179466247558594e+01 -2.903569340705871582e-01 9.238129258155822754e-01 1.900368034839630127e-01 -1.533414870500564575e-01
2.186000000000000000e+03 6.816396331787109375e+01 1.461092948913574219e+01 6.475554108619689941e-01 1.954509615898132324e+00 7.806195020675659180e-01 1.731971949338912964e-01
2.187000000000000000e+03 4.253454971313476562e+01 2.033560943603515625e+01 3.559446036815643311e-01 2.798002719879150391e+00 9.461842179298400879e-01 1.227413535118103027e+00
2.188000000000000000e+03 4.390298080444335938e+01 2.016066741943359375e+01 3.662719726562500000e-01 2.085956811904907227e+00 7.356685996055603027e-01 1.123144507408142090e+00
2.189000000000000000e+03 1.136885070800781250e+01 -1.637080192565917969e+01 7.517801523208618164e-01 1.579850077629089355e+00 6.994890570640563965e-01 8.503509312868118286e-02
2.190000000000000000e+03 1.247794342041015625e+01 -1.670734214782714844e+01 6.565414667129516602e-01 2.369767427444458008e+00 9.078926444053649902e-01 2.729889452457427979e-01
2.191000000000000000e+03 6.897374725341796875e+01 -3.269595718383789062e+01 -5.250216275453567505e-02 2.327521145343780518e-02 -8.768085390329360962e-03 9.406848996877670288e-02
2.192000000000000000e+03 6.818150329589843750e+01 -2.917992973327636719e+01 -9.908222407102584839e-02 3.982438892126083374e-02 -1.777734979987144470e-02 2.934922277927398682e-02
2.193000000000000000e+03 3.686901092529296875e+01 1.946865081787109375e+01 5.792022347450256348e-01 6.348256587982177734e+00 2.078237771987915039e+00 5.196842551231384277e-01
2.194000000000000000e+03 4.750954627990722656e+00 2.525926780700683594e+01 -2.678138948976993561e-02 -4.417835921049118042e-02 -2.128792367875576019e-02 9.421402215957641602e-02
2.195000000000000000e+03 6.317375659942626953e+00 1.949202728271484375e+01 -4.642484709620475769e-02 1.175281684845685959e-02 -1.040160935372114182e-02 3.497792780399322510e-02
2.196000000000000000e+03 4.248700141906738281e+00 1.793702316284179688e+01 -2.339708991348743439e-02 -2.919041318818926811e-03 -7.894839160144329071e-03 1.932498067617416382e-02
2.197000000000000000e+03 7.284870910644531250e+01 9.239386558532714844e+00 3.043954372406005859e-01 -7.402859628200531006e-02 6.911005079746246338e-02 -1.485645473003387451e-01
2.198000000000000000e+03 6.572659015655517578e+00 -1.600777816772460938e+01 3.670822381973266602e-01 -8.708471804857254028e-02 8.399925380945205688e-02 -1.440769284963607788e-01
2.199000000000000000e+03 6.117702484130859375e+00 1.474256515502929688e+01 -1.130798365920782089e-02 2.196368295699357986e-03 -2.733484376221895218e-03 1.392042846418917179e-03
2.200000000000000000e+03 7.426300048828125000e+01 8.125885963439941406e+00 2.153635919094085693e-01 -5.939453840255737305e-01 -1.135745421051979065e-01 -2.236451804637908936e-01
2.201000000000000000e+03 7.031589508056640625e+01 -2.268875122070312500e+01 -1.884965598583221436e-02 -1.310406951233744621e-03 -6.048018578439950943e-03 -3.713289508596062660e-03
2.202000000000000000e+03 4.168126296997070312e+01 -2.666277503967285156e+01 1.334095954895019531e+00 7.852847576141357422e+00 2.756083011627197266e+00 -1.704052984714508057e-01
2.203000000000000000e+03 6.210156631469726562e+01 -1.131449222564697266e+00 3.740105330944061279e-01 1.933360815048217773e+00 6.922113895416259766e-01 5.707758665084838867e-01
2.204000000000000000e+03 6.295423507690429688e+01 -5.208569765090942383e-01 3.152476549148559570e-01 1.899749875068664551e+00 6.644992232322692871e-01 3.661628663539886475e-01
2.205000000000000000e+03 7.697260379791259766e+00 1.704835510253906250e+01 -3.831243887543678284e-02 1.317987684160470963e-02 -7.539768703281879425e-03 7.683404255658388138e-03
2.206000000000000000e+03 1.771246147155761719e+01 2.863034629821777344e+01 2.044397741556167603e-01 4.528995752334594727e-01 1.972018033266067505e-01 -2.480777055025100708e-01
2.207000000000000000e+03 1.743354225158691406e+01 2.680480575561523438e+01 1.540452986955642700e-01 2.604826390743255615e-01 1.243583783507347107e-01 -1.534527987241744995e-01
2.208000000000000000e+03 7.028160095214843750e+01 -2.838409805297851562e+01 -6.728994846343994141e-02 2.646302059292793274e-02 -1.224807836115360260e-02 2.984523586928844452e-02
2.209000000000000000e+03 7.557509613037109375e+01 6.868692398071289062e+00 1.216891184449195862e-01 -1.047295212745666504e+00 -2.776818275451660156e-01 -2.745903730392456055e-01
2.210000000000000000e+03 5.693804931640625000e+01 2.628256797790527344e+01 8.404325693845748901e-02 7.883543372154235840e-01 2.617192864418029785e-01 -5.435958504676818848e-01
2.211000000000000000e+03 5.111712455749511719e+00 3.348614883422851562e+01 2.630989253520965576e-02 -9.755077958106994629e-02 -2.137226611375808716e-02 7.485665380954742432e-02
2.212000000000000000e+03 7.386540222167968750e+01 1.220561981201171875e+01 2.783211469650268555e-01 -4.550009667873382568e-01 -5.300394818186759949e-02 4.750991612672805786e-02
2.213000000000000000e+03 4.284160137176513672e+00 2.051051330566406250e+01 -3.127042949199676514e-02 -1.158855017274618149e-02 -1.285769417881965637e-02 4.220433533191680908e-02
2.214000000000000000e+03 5.970479965209960938e+01 -5.961263656616210938e+00 -3.549104630947113037e-01 1.477091312408447266e+00 3.366542458534240723e-01 8.015111684799194336e-01
2.215000000000000000e+03 6.132847595214843750e+01 -5.096267700195312500e+00 -2.032832503318786621e-01 1.290433406829833984e+00 3.261450529098510742e-01 5.138659477233886719e-01
2.216000000000000000e+03 7.289051055908203125e+01 2.628557968139648438e+01 -1.280324161052703857e-01 2.276014387607574463e-01 2.987070754170417786e-02 5.359033942222595215e-01
2.217000000000000000e+03 6.701264190673828125e+01 1.986143302917480469e+01 3.939630687236785889e-01 2.118685007095336914e+00 7.537944316864013672e-01 4.132652282714843750e-01
2.218000000000000000e+03 4.784484100341796875e+01 -1.108307361602783203e+01 8.266607522964477539e-01 2.080851316452026367e+00 8.722535967826843262e-01 1.249747633934020996e+00
2.219000000000000000e+03 4.634650039672851562e+01 -1.174771308898925781e+01 9.490156769752502441e-01 3.289196968078613281e+00 1.271463751792907715e+00 5.920242667198181152e-01
2.220000000000000000e+03 7.541902160644531250e+01 -2.957460403442382812e+01 -1.198350265622138977e-02 -1.726880297064781189e-02 -8.775691501796245575e-03 3.758262470364570618e-02
2.221000000000000000e+03 7.343984985351562500e+01 -2.124940633773803711e+00 1.680139079689979553e-02 -1.907126009464263916e-01 -5.217336490750312805e-02 -6.213908195495605469e-01
2.222000000000000000e+03 1.216776752471923828e+01 -2.495310783386230469e+01 -4.167063534259796143e-02 1.331264615058898926e+00 3.868781924247741699e-01 1.055340617895126343e-01
2.223000000000000000e+03 1.328765487670898438e+01 -2.532023239135742188e+01 -3.077988512814044952e-02 1.437232255935668945e+00 4.219357073307037354e-01 -7.899084687232971191e-02
2.224000000000000000e+03 7.470899200439453125e+01 -4.660720825195312500e+00 -7.824830710887908936e-02 -3.058178126811981201e-01 -1.152198389172554016e-01 -5.554708838462829590e-01
2.225000000000000000e+03 4.872659683227539062e+01 2.493730735778808594e+01 1.219668239355087280e-01 1.053907036781311035e+00 3.527621626853942871e-01 6.855006217956542969e-01
2.226000000000000000e+03 4.888236999511718750e+01 2.204248046875000000e+01 2.940896898508071899e-02 6.519265174865722656e-01 2.044006437063217163e-01 5.348052978515625000e-01
2.227000000000000000e+03 5.824773788452148438e+01 -6.484175205230712891e+00 -4.880559444427490234e-01 1.580013871192932129e+00 3.275873959064483643e-01 1.045404314994812012e+00
2.228000000000000000e+03 6.105834197998046875e+01 2.300982856750488281e+01 -3.150771856307983398e-01 2.463180780410766602e+00 6.444310545921325684e-01 -7.962739467620849609e-01
2.229000000000000000e+03 7.355690002441406250e+01 -2.637232971191406250e+01 -2.650243043899536133e-02 3.095807507634162903e-03 -7.021986413747072220e-03 1.373203285038471222e-02
2.230000000000000000e+03 7.525338745117187500e+01 2.082788467407226562e+01 6.398154795169830322e-02 -6.799014210700988770e-01 -1.847759634256362915e-01 4.649981856346130371e-01
2.231000000000000000e+03 5.549271392822265625e+01 -6.938960552215576172e+00 -7.547258734703063965e-01 1.752339601516723633e+00 2.992841303348541260e-01 1.522975564002990723e+00
2.232000000000000000e+03 3.914802551269531250e+01 4.055994987487792969e+00 -3.522588312625885010e-01 7.489033222198486328e+00 2.141032218933105469e+00 1.009011268615722656e+00
2.233000000000000000e+03 3.621319961547851562e+01 -2.647073745727539062e+00 -1.423864603042602539e+00 1.216799449920654297e+01 3.223238945007324219e+00 -2.622031867504119873e-01
2.234000000000000000e+03 3.821075820922851562e+01 -2.218167543411254883e+00 -8.225017786026000977e-01 1.170089149475097656e+01 3.263516902923583984e+00 -3.631279945373535156e+00
2.235000000000000000e+03 1.338643550872802734e+01 5.343159675598144531e+00 -9.942288743332028389e-04 -1.592382555827498436e-03 -7.759834406897425652e-04 1.936339074745774269e-03
2.236000000000000000e+03 2.251523590087890625e+01 -5.720283508300781250e+00 -7.472270727157592773e-02 2.869472503662109375e-01 6.366736441850662231e-02 8.692661523818969727e-01
2.237000000000000000e+03 3.507709121704101562e+01 -3.040781021118164062e+00 -1.091434955596923828e+00 1.002568149566650391e+01 2.680274009704589844e+00 5.835632681846618652e-01
2.238000000000000000e+03 1.282332324981689453e+01 -4.755030155181884766e+00 -4.675020277500152588e-01 3.004095852375030518e-01 -5.012772604823112488e-02 -1.647993624210357666e-01
2.239000000000000000e+03 7.501520538330078125e+01 -9.551321029663085938e+00 -1.515755653381347656e-01 -1.113630756735801697e-01 -7.888159155845642090e-02 -3.467958271503448486e-01
2.240000000000000000e+03 5.855396747589111328e+00 5.276422023773193359e+00 1.824367674998939037e-03 4.456721944734454155e-04 6.810119375586509705e-04 -2.198206493631005287e-03
2.241000000000000000e+03 1.107124900817871094e+01 6.536701202392578125e+00 -2.689307788386940956e-03 -1.414262922480702400e-03 -1.231071189977228642e-03 3.677195345517247915e-04
2.242000000000000000e+03 1.028806972503662109e+01 5.585103511810302734e+00 -9.643892990425229073e-04 -2.142841229215264320e-03 -9.321691468358039856e-04 3.115241634077392519e-05
2.243000000000000000e+03 5.504238128662109375e+00 -4.730158329010009766e+00 -2.081885337829589844e-01 -1.082319840788841248e-01 -9.492615610361099243e-02 -4.733995199203491211e-01
2.244000000000000000e+03 7.135994720458984375e+01 -1.050020599365234375e+01 -4.335362613201141357e-01 1.429588794708251953e-01 -8.717321604490280151e-02 -3.250583410263061523e-01
2.245000000000000000e+03 7.210741424560546875e+01 -1.133516597747802734e+01 -3.806333243846893311e-01 1.089385524392127991e-01 -8.150842785835266113e-02 -2.570223808288574219e-01
2.246000000000000000e+03 6.748515605926513672e+00 -6.928349018096923828e+00 -8.969074487686157227e-02 -4.401955008506774902e-02 -4.011308774352073669e-02 -5.653596520423889160e-01
2.247000000000000000e+03 9.117710113525390625e+00 -5.789769172668457031e+00 -2.503619194030761719e-01 1.473065167665481567e-01 -3.091662190854549408e-02 -4.993375837802886963e-01
2.248000000000000000e+03 1.528449344635009766e+01 -5.959827423095703125e+00 -2.425763905048370361e-01 5.730043053627014160e-01 9.912837296724319458e-02 1.763294488191604614e-01
2.249000000000000000e+03 1.595727157592773438e+01 -6.354202270507812500e+00 -1.847732216119766235e-01 6.280733346939086914e-01 1.329900324344635010e-01 2.801438271999359131e-01
2.250000000000000000e+03 8.078727722167968750e+00 4.869921207427978516e+00 1.701128494460135698e-04 -2.647932386025786400e-03 -7.433458813466131687e-04 4.195024666842073202e-04
2.251000000000000000e+03 1.287275505065917969e+01 -5.542093753814697266e+00 -3.513439595699310303e-01 3.914051055908203125e-01 1.201834715902805328e-02 -1.642666012048721313e-01
2.252000000000000000e+03 3.711238479614257812e+01 3.998133659362792969e+00 -1.117406249046325684e+00 1.566697120666503906e+01 4.364869594573974609e+00 -3.058723509311676025e-01
2.253000000000000000e+03 1.684334564208984375e+01 -6.574306011199951172e+00 -1.039181277155876160e-01 6.763497591018676758e-01 1.717294901609420776e-01 4.429733157157897949e-01
2.254000000000000000e+03 1.572271156311035156e+01 -4.666297435760498047e+00 -4.465808868408203125e-01 3.962903618812561035e-01 -1.508716121315956116e-02 2.062591910362243652e-01
2.255000000000000000e+03 7.311903381347656250e+01 -2.154585838317871094e+01 -5.912483669817447662e-03 -1.906334189698100090e-03 -2.345645334571599960e-03 1.356790540739893913e-03
2.256000000000000000e+03 2.088214492797851562e+01 -3.762824296951293945e+00 -2.413484603166580200e-01 2.235470116138458252e-01 -5.340435542166233063e-03 6.608303189277648926e-01
2.257000000000000000e+03 2.004581069946289062e+01 -4.594883441925048828e+00 -2.292937785387039185e-01 3.155626058578491211e-01 2.588064782321453094e-02 6.799786686897277832e-01
2.258000000000000000e+03 1.843420410156250000e+01 -5.499983310699462891e+00 -2.147902697324752808e-01 4.578075110912322998e-01 7.290517538785934448e-02 5.865702033042907715e-01
2.259000000000000000e+03 1.921851539611816406e+01 -5.360428333282470703e+00 -1.946920305490493774e-01 3.952736854553222656e-01 6.017450243234634399e-02 6.490718126296997070e-01
2.260000000000000000e+03 2.651365661621093750e+01 -4.414390563964843750e+00 2.457962185144424438e-01 -2.460914663970470428e-02 6.635612249374389648e-02 1.165017724037170410e+00
2.261000000000000000e+03 7.354970550537109375e+01 -9.898016929626464844e+00 -2.506721615791320801e-01 5.259650293737649918e-03 -7.362375408411026001e-02 -3.617478609085083008e-01
2.262000000000000000e+03 6.976541137695312500e+01 -9.784747123718261719e+00 -5.330540537834167480e-01 2.207388132810592651e-01 -9.369456768035888672e-02 -4.310021698474884033e-01
2.263000000000000000e+03 2.822554969787597656e+01 -5.161559581756591797e+00 2.253489494323730469e-01 5.992361158132553101e-02 8.558177202939987183e-02 1.230671286582946777e+00
2.264000000000000000e+03 1.103822517395019531e+01 4.826671123504638672e+00 -1.327466336078941822e-03 -1.274225302040576935e-03 -7.805075147189199924e-04 7.804579217918217182e-04
2.265000000000000000e+03 7.291940307617187500e+01 -1.050285053253173828e+01 -3.318730890750885010e-01 5.295792222023010254e-02 -8.367455005645751953e-02 -3.171313703060150146e-01
2.266000000000000000e+03 9.759565353393554688e+00 -5.055320739746093750e+00 -3.521878123283386230e-01 1.691382378339767456e-01 -5.491486936807632446e-02 -4.475378096103668213e-01
2.267000000000000000e+03 7.032337188720703125e+01 -2.449161338806152344e+01 -3.233810141682624817e-02 9.355113841593265533e-03 -6.894896272569894791e-03 1.945747499121353030e-04
2.268000000000000000e+03 7.229341125488281250e+01 -2.247691345214843750e+01 -8.985489606857299805e-03 4.076309036463499069e-03 -1.472754171118140221e-03 1.145620946772396564e-03
2.269000000000000000e+03 1.663843727111816406e+01 -7.380739688873291016e+00 2.225120924413204193e-02 7.869228124618530273e-01 2.427522093057632446e-01 4.481110572814941406e-01
2.270000000000000000e+03 1.847644424438476562e+01 -7.804900169372558594e+00 1.753373444080352783e-01 6.748064756393432617e-01 2.550431489944458008e-01 6.917405724525451660e-01
2.271000000000000000e+03 3.315786743164062500e+01 -4.492587089538574219e+00 -9.535767436027526855e-01 5.989594459533691406e+00 1.510805249214172363e+00 4.088675677776336670e-01
2.272000000000000000e+03 3.380257415771484375e+01 -4.879915714263916016e+00 -1.684325218200683594e+00 7.201092720031738281e+00 1.655030250549316406e+00 -5.034376680850982666e-02
2.273000000000000000e+03 6.418988037109375000e+01 1.667819857597351074e+00 4.935005307197570801e-01 2.094961404800415039e+00 7.765386104583740234e-01 2.314147800207138062e-01
2.274000000000000000e+03 7.489437866210937500e+01 -2.268847274780273438e+01 -2.541979309171438217e-03 -3.484155284240841866e-03 -1.807840424589812756e-03 2.518702996894717216e-03
2.275000000000000000e+03 1.263824176788330078e+01 8.844613075256347656e+00 -4.346070345491170883e-03 -1.085050054825842381e-03 -1.629336038604378700e-03 4.443198442459106445e-03
2.276000000000000000e+03 3.868631362915039062e+01 -3.900385618209838867e+00 -2.128807544708251953e+00 9.441648483276367188e+00 2.193852186203002930e+00 -2.860725879669189453e+00
2.277000000000000000e+03 4.977934360504150391e+00 -6.967192173004150391e+00 -5.746152624487876892e-02 -2.450713217258453369e-01 -9.075985848903656006e-02 -5.347675681114196777e-01
2.278000000000000000e+03 6.319941520690917969e+00 -5.770271301269531250e+00 -1.655352115631103516e-01 -7.618113607168197632e-02 -7.251490652561187744e-02 -5.390881299972534180e-01
2.279000000000000000e+03 5.579570293426513672e+00 -7.898136138916015625e+00 -6.790646002627909184e-04 -1.926951855421066284e-01 -5.801227688789367676e-02 -5.598337650299072266e-01
2.280000000000000000e+03 6.982769775390625000e+01 -2.709487342834472656e+01 -6.006678193807601929e-02 1.189322303980588913e-02 -1.445206813514232635e-02 1.600878126919269562e-02
2.281000000000000000e+03 7.128822326660156250e+01 -2.817788124084472656e+01 -4.422658681869506836e-02 7.739711552858352661e-03 -1.094606332480907440e-02 3.064292110502719879e-02
2.282000000000000000e+03 2.315748977661132812e+01 -4.658567428588867188e+00 -4.558654129505157471e-02 1.906691938638687134e-01 4.352479428052902222e-02 8.889276385307312012e-01
2.283000000000000000e+03 7.412925720214843750e+01 -2.270314025878906250e+01 -1.380950864404439926e-02 -2.260239096358418465e-03 -4.820924252271652222e-03 2.512378850951790810e-03
2.284000000000000000e+03 8.183113098144531250e+00 5.644958972930908203e+00 1.937191002070903778e-03 2.021478576352819800e-04 6.418016273528337479e-04 -7.147748256102204323e-04
2.285000000000000000e+03 6.317366600036621094e+00 -1.038824748992919922e+01 1.545480340719223022e-01 -1.488609910011291504e-01 1.706113107502460480e-03 -5.272667407989501953e-01
2.286000000000000000e+03 5.514864349365234375e+01 -8.262310028076171875e+00 -7.893315553665161133e-01 1.470355272293090820e+00 2.043071091175079346e-01 1.762975454330444336e+00
2.287000000000000000e+03 5.248260498046875000e+01 -9.337103843688964844e+00 -3.048489689826965332e-01 1.016722321510314941e+00 2.135620117187500000e-01 2.293514490127563477e+00
2.288000000000000000e+03 2.438836669921875000e+01 -3.359144449234008789e+00 1.637575924396514893e-01 4.597996920347213745e-02 6.292127072811126709e-02 8.115059137344360352e-01
2.289000000000000000e+03 1.070501995086669922e+01 1.152963352203369141e+01 -6.698971148580312729e-03 -5.728336982429027557e-03 -3.728192532435059547e-03 9.167546522803604603e-04
2.290000000000000000e+03 1.191449546813964844e+01 1.128840446472167969e+01 6.030343007296323776e-03 -7.254571537487208843e-04 1.591465785168111324e-03 2.935835625976324081e-03
2.291000000000000000e+03 9.559096336364746094e+00 2.095292472839355469e+01 -1.094845309853553772e-01 4.784268513321876526e-02 -1.849255338311195374e-02 4.081426933407783508e-02
2.292000000000000000e+03 1.028345108032226562e+01 1.979714202880859375e+01 -1.036075800657272339e-01 4.583966732025146484e-02 -1.733037456870079041e-02 3.991194069385528564e-03
2.293000000000000000e+03 1.858032417297363281e+01 -6.165354728698730469e+00 -9.366739541292190552e-02 5.202770829200744629e-01 1.279829144477844238e-01 6.342478394508361816e-01
2.294000000000000000e+03 7.690449714660644531e+00 1.341640758514404297e+01 -9.369100444018840790e-03 -5.862084683030843735e-03 -4.569355398416519165e-03 -2.654491923749446869e-03
2.295000000000000000e+03 1.411873149871826172e+01 5.190458297729492188e+00 6.402332219295203686e-04 2.897511003538966179e-03 1.061323331668972969e-03 8.412473252974450588e-04
2.296000000000000000e+03 3.737653350830078125e+01 1.299937629699707031e+01 7.019906044006347656e-01 8.878138542175292969e+00 2.874038696289062500e+00 3.303777277469635010e-01
2.297000000000000000e+03 7.155124664306640625e+01 -2.218268203735351562e+01 -1.112713478505611420e-02 -5.124356132000684738e-03 -4.875447135418653488e-03 -3.339333925396203995e-03
2.298000000000000000e+03 6.783033752441406250e+01 1.053191852569580078e+01 6.164085268974304199e-01 2.137710094451904297e+00 8.262355923652648926e-01 9.972365945577621460e-02
2.299000000000000000e+03 5.132225799560546875e+01 -9.345046043395996094e+00 -3.179312646389007568e-01 8.493713736534118652e-01 1.594320237636566162e-01 2.235077857971191406e+00
2.300000000000000000e+03 2.552457427978515625e+01 -4.640808105468750000e+00 1.066794916987419128e-01 1.231352910399436951e-01 6.894443929195404053e-02 1.064718842506408691e+00
2.301000000000000000e+03 1.284020709991455078e+01 -7.264532089233398438e+00 -9.639562666416168213e-02 6.132541894912719727e-01 1.550575643777847290e-01 -1.655731499195098877e-01
2.302000000000000000e+03 9.078299522399902344e+00 -1.279819393157958984e+01 4.548468887805938721e-01 4.901211261749267578e-01 2.834904193878173828e-01 -3.597337007522583008e-01
2.303000000000000000e+03 1.071196365356445312e+01 -1.484574317932128906e+01 7.206648588180541992e-01 1.130816698074340820e+00 5.554444789886474609e-01 -7.604037225246429443e-02
2.304000000000000000e+03 4.217968750000000000e+01 -1.395176219940185547e+01 1.329118013381958008e+00 6.726263046264648438e+00 2.416614294052124023e+00 -1.007704973220825195e+00
2.305000000000000000e+03 3.999110412597656250e+01 -1.301630973815917969e+01 6.523979902267456055e-01 7.286473274230957031e+00 2.381661415100097656e+00 -1.676685571670532227e+00
2.306000000000000000e+03 5.825885391235351562e+01 -8.790110588073730469e+00 -5.798618793487548828e-01 1.130506157875061035e+00 1.651932597160339355e-01 1.124656200408935547e+00
2.307000000000000000e+03 6.768321228027343750e+01 -2.775404930114746094e+01 -1.064639911055564880e-01 2.183965966105461121e-02 -2.538729831576347351e-02 1.342272479087114334e-02
2.308000000000000000e+03 5.669009208679199219e+00 7.511229038238525391e+00 1.375744235701858997e-03 -2.983001526445150375e-03 -4.821771581191569567e-04 1.023918739520013332e-03
2.309000000000000000e+03 2.196576881408691406e+01 -6.597219467163085938e+00 1.013498287647962570e-02 3.365127444267272949e-01 1.039943173527717590e-01 8.321336507797241211e-01
2.310000000000000000e+03 2.134900856018066406e+01 -6.952749252319335938e+00 5.160124227404594421e-02 3.969601690769195557e-01 1.345684230327606201e-01 8.232334852218627930e-01
2.311000000000000000e+03 6.855222320556640625e+01 -8.361851692199707031e+00 -5.023512244224548340e-01 2.732786536216735840e-01 -6.872176378965377808e-02 -4.700441658496856689e-01
2.312000000000000000e+03 6.827117919921875000e+01 -9.886611938476562500e+00 -7.074235081672668457e-01 2.387461960315704346e-01 -1.406031847000122070e-01 -3.994266986846923828e-01
2.313000000000000000e+03 8.899353981018066406e+00 -1.954644584655761719e+01 4.472322165966033936e-01 6.764359474182128906e-01 3.371004462242126465e-01 1.667157113552093506e-01
2.314000000000000000e+03 9.313168525695800781e+00 -2.112819671630859375e+01 3.937729895114898682e-01 8.175620436668395996e-01 3.634005188941955566e-01 2.713271677494049072e-01
2.315000000000000000e+03 7.396254730224609375e+01 -9.023922920227050781e+00 -2.397944182157516479e-01 -5.127201601862907410e-02 -8.731993287801742554e-02 -4.121966958045959473e-01
2.316000000000000000e+03 8.398926734924316406e+00 1.466047573089599609e+01 -1.837680675089359283e-02 6.882650777697563171e-04 -5.306562408804893494e-03 -5.117602180689573288e-03
2.317000000000000000e+03 8.596968650817871094e+00 1.290156173706054688e+01 -3.912777174264192581e-03 -1.316541107371449471e-03 -1.568795414641499519e-03 4.943688400089740753e-04
2.318000000000000000e+03 3.153922271728515625e+01 -3.197343349456787109e+00 7.986637949943542480e-01 3.220829010009765625e+00 1.205847859382629395e+00 1.192161440849304199e+00
2.319000000000000000e+03 4.989409446716308594e+00 1.062719917297363281e+01 -4.481755662709474564e-03 -3.163991495966911316e-03 -2.293724101036787033e-03 -5.542279686778783798e-04
2.320000000000000000e+03 7.237096405029296875e+01 -1.005034065246582031e+01 -3.280557990074157715e-01 6.619259715080261230e-02 -7.855896651744842529e-02 -3.654038012027740479e-01
2.321000000000000000e+03 2.167950820922851562e+01 -5.949520587921142578e+00 -4.004677385091781616e-02 3.543517887592315674e-01 9.429150819778442383e-02 8.296176791191101074e-01
2.322000000000000000e+03 2.299943351745605469e+01 -3.854703426361083984e+00 -2.978805452585220337e-03 1.754633635282516479e-01 5.174537003040313721e-02 8.487273454666137695e-01
2.323000000000000000e+03 7.305392456054687500e+01 -2.310991477966308594e+01 -1.500937435775995255e-02 -3.686467185616493225e-03 -5.608752369880676270e-03 3.671561600640416145e-03
2.324000000000000000e+03 5.801142883300781250e+01 -7.607542991638183594e+00 -5.023273825645446777e-01 1.410673141479492188e+00 2.725037038326263428e-01 1.177010178565979004e+00
2.325000000000000000e+03 5.914365386962890625e+01 -6.757935047149658203e+00 -3.729601204395294189e-01 1.350840806961059570e+00 2.933641970157623291e-01 9.564996361732482910e-01
2.326000000000000000e+03 5.932936477661132812e+01 -8.443104743957519531e+00 -5.312014818191528320e-01 1.118870019912719727e+00 1.763005554676055908e-01 9.321194887161254883e-01
2.327000000000000000e+03 5.973012161254882812e+01 -7.223708629608154297e+00 -4.815942049026489258e-01 1.294714093208312988e+00 2.439359724521636963e-01 8.481068611145019531e-01
2.328000000000000000e+03 3.787700271606445312e+01 -6.592310428619384766e+00 -2.966629266738891602e+00 9.110493659973144531e+00 1.843159317970275879e+00 -1.999093294143676758e+00
2.329000000000000000e+03 3.904372024536132812e+01 -7.062285900115966797e+00 -2.646606206893920898e+00 8.176645278930664062e+00 1.659011840820312500e+00 -2.240955829620361328e+00
2.330000000000000000e+03 6.746995925903320312e+00 1.612244033813476562e+01 -2.581634558737277985e-02 -3.590501612052321434e-03 -8.822054602205753326e-03 1.072392426431179047e-02
2.331000000000000000e+03 3.704592132568359375e+01 1.565663242340087891e+01 7.276399731636047363e-01 7.744374275207519531e+00 2.541604280471801758e+00 2.605263590812683105e-01
2.332000000000000000e+03 4.472298812866210938e+01 -1.053784847259521484e+01 1.314609497785568237e-02 3.903374910354614258e+00 1.174956321716308594e+00 -5.796202421188354492e-01
2.333000000000000000e+03 4.524511718750000000e+01 -9.821803092956542969e+00 -4.622384607791900635e-01 3.162244081497192383e+00 8.100016713142395020e-01 -4.079073071479797363e-01
2.334000000000000000e+03 6.423845672607421875e+01 9.459099769592285156e+00 6.335765123367309570e-01 4.000275135040283203e+00 1.390155434608459473e+00 5.799850821495056152e-01
2.335000000000000000e+03 7.350843048095703125e+01 -2.234760284423828125e+01 -6.267634220421314240e-03 8.680116152390837669e-04 -1.619886839762330055e-03 6.540891481563448906e-04
2.336000000000000000e+03 4.145559310913085938e+01 -1.628810119628906250e+01 2.049308538436889648e+00 7.768124103546142578e+00 2.945229768753051758e+00 -9.600240588188171387e-01
2.337000000000000000e+03 3.132215309143066406e+01 -4.284664154052734375e+00 1.305936127901077271e-01 2.930893421173095703e+00 9.184460639953613281e-01 7.852671146392822266e-01
2.338000000000000000e+03 4.236112594604492188e+01 -1.050111770629882812e+01 -5.066030621528625488e-01 5.585768699645996094e+00 1.523749589920043945e+00 -1.481408357620239258e+00
2.339000000000000000e+03 5.494447326660156250e+01 -9.579518318176269531e+00 -3.483894467353820801e-01 1.153887987136840820e+00 2.416495531797409058e-01 1.845585465431213379e+00
2.340000000000000000e+03 7.424774169921875000e+01 -3.153495788574218750e+01 -1.516062673181295395e-02 -1.934737339615821838e-02 -1.035240013152360916e-02 5.874669924378395081e-02
2.341000000000000000e+03 1.770047760009765625e+01 -6.788973331451416016e+00 -3.495071828365325928e-02 6.283569335937500000e-01 1.780218780040740967e-01 5.626932978630065918e-01
2.342000000000000000e+03 4.852609157562255859e+00 -2.408353805541992188e+01 5.974255874752998352e-02 -4.085224270820617676e-01 -1.046339645981788635e-01 3.276067972183227539e-01
2.343000000000000000e+03 6.280914783477783203e+00 -2.372833442687988281e+01 9.268943220376968384e-02 -4.609443619847297668e-02 1.397849991917610168e-02 3.426945209503173828e-01
2.344000000000000000e+03 3.115514373779296875e+01 2.378748321533203125e+01 2.456769496202468872e-01 5.760476589202880859e+00 1.801846027374267578e+00 -1.242312788963317871e+00
2.345000000000000000e+03 9.201540946960449219e+00 1.678279113769531250e+01 -4.550191760063171387e-02 1.246636640280485153e-02 -9.910665452480316162e-03 -2.607712289318442345e-03
2.346000000000000000e+03 2.608361434936523438e+01 -5.325135231018066406e+00 -6.822970509529113770e-02 1.467697620391845703e-01 2.356201596558094025e-02 1.209313750267028809e+00
2.347000000000000000e+03 6.700199127197265625e+01 1.182875537872314453e+01 6.235365271568298340e-01 2.560242176055908203e+00 9.551336169242858887e-01 1.848482936620712280e-01
2.348000000000000000e+03 7.395581817626953125e+01 1.080036163330078125e+01 2.615276873111724854e-01 -4.810173511505126953e-01 -6.584689766168594360e-02 -5.039831623435020447e-02
2.349000000000000000e+03 6.862310409545898438e+00 -1.814440536499023438e+01 3.724061846733093262e-01 2.196383662521839142e-02 1.183110028505325317e-01 3.426141291856765747e-02
2.350000000000000000e+03 5.461730957031250000e+00 -1.605609130859375000e+01 2.969701886177062988e-01 -3.748569488525390625e-01 -2.336602844297885895e-02 -1.546266674995422363e-01
2.351000000000000000e+03 6.102202224731445312e+01 -3.756261587142944336e+00 7.095219194889068604e-02 1.616405487060546875e+00 5.062072873115539551e-01 6.030617356300354004e-01
2.352000000000000000e+03 5.923645019531250000e+01 -4.629003524780273438e+00 -1.340323388576507568e-01 1.736656308174133301e+00 4.807871878147125244e-01 8.436043858528137207e-01
2.353000000000000000e+03 6.215143585205078125e+01 -3.532853364944458008e+00 3.485387936234474182e-02 1.448623180389404297e+00 4.450431168079376221e-01 3.892865777015686035e-01
2.354000000000000000e+03 3.280507278442382812e+01 -2.524343967437744141e+00 7.475203871726989746e-01 5.454771518707275391e+00 1.860687494277954102e+00 1.626883268356323242e+00
2.355000000000000000e+03 7.566124725341796875e+01 2.935488462448120117e+00 9.085433930158615112e-02 -9.261247515678405762e-01 -2.505811154842376709e-01 -4.353306889533996582e-01
2.356000000000000000e+03 7.433820343017578125e+01 1.764313459396362305e+00 1.135798171162605286e-01 -5.087953805923461914e-01 -1.185646727681159973e-01 -5.327939987182617188e-01
2.357000000000000000e+03 1.506779289245605469e+01 2.612635421752929688e+01 2.986109256744384766e-02 1.402903646230697632e-01 5.104543641209602356e-02 3.953332453966140747e-02
2.358000000000000000e+03 6.022562026977539062e+01 -7.952561855316162109e+00 -4.999264478683471680e-01 9.828625321388244629e-01 1.448808163404464722e-01 7.415508031845092773e-01
2.359000000000000000e+03 4.888188934326171875e+01 2.863164710998535156e+01 7.654325664043426514e-02 1.454127311706542969e+00 4.592011868953704834e-01 5.421327352523803711e-01
2.360000000000000000e+03 3.797172927856445312e+01 -7.408426284790039062e+00 -2.776482343673706055e+00 8.848224639892578125e+00 1.821522831916809082e+00 -1.887210369110107422e+00
2.361000000000000000e+03 3.491592025756835938e+01 -6.257594108581542969e+00 -2.664208173751831055e+00 8.272302627563476562e+00 1.682428240776062012e+00 -9.563459157943725586e-01
2.362000000000000000e+03 9.320809364318847656e+00 -1.840309143066406250e+01 5.823692083358764648e-01 8.110396862030029297e-01 4.180226624011993408e-01 1.153184846043586731e-01
2.363000000000000000e+03 4.701954269409179688e+01 2.483065605163574219e+01 8.914031088352203369e-02 1.431313753128051758e+00 4.561362266540527344e-01 8.423559665679931641e-01
2.364000000000000000e+03 7.030962371826171875e+01 1.896156120300292969e+01 3.403223156929016113e-01 9.753714203834533691e-01 3.947081267833709717e-01 5.239019393920898438e-01
2.365000000000000000e+03 6.750822448730468750e+01 2.145082092285156250e+01 1.555411517620086670e-01 1.867599368095397949e+00 6.069421172142028809e-01 4.826005697250366211e-01
2.366000000000000000e+03 7.384221649169921875e+01 1.805034637451171875e+01 1.722376644611358643e-01 -3.221233487129211426e-01 -4.496570676565170288e-02 4.121105074882507324e-01
2.367000000000000000e+03 7.396408081054687500e+01 1.942668724060058594e+01 1.281408518552780151e-01 -3.352872133255004883e-01 -6.214390695095062256e-02 4.758915901184082031e-01
2.368000000000000000e+03 5.498537063598632812e+01 2.922608375549316406e+01 1.077973917126655579e-01 9.584113955497741699e-01 3.198626339435577393e-01 -1.610046923160552979e-01
2.369000000000000000e+03 5.743075942993164062e+01 2.868390464782714844e+01 -1.675220578908920288e-02 1.097880721092224121e+00 3.243385553359985352e-01 -4.643528163433074951e-01
2.370000000000000000e+03 9.237820625305175781e+00 -2.280475234985351562e+01 2.341506183147430420e-01 7.133234143257141113e-01 2.842422127723693848e-01 3.469212055206298828e-01
2.371000000000000000e+03 6.747010707855224609e+00 -2.661666488647460938e+01 -5.299961194396018982e-02 9.521871805191040039e-02 1.266573276370763779e-02 3.601967692375183105e-01
2.372000000000000000e+03 5.309430599212646484e+00 -2.695149040222167969e+01 -2.279844135046005249e-02 -2.179735302925109863e-01 -7.223159074783325195e-02 3.499744832515716553e-01
2.373000000000000000e+03 3.632682800292968750e+01 2.192429733276367188e+01 2.012653797864913940e-01 5.942507266998291016e+00 1.843131780624389648e+00 4.537526369094848633e-01
2.374000000000000000e+03 4.160036087036132812e+01 -2.791617202758789062e+01 7.572610378265380859e-01 7.502208232879638672e+00 2.477840900421142578e+00 -5.995597690343856812e-03
2.375000000000000000e+03 7.576784515380859375e+01 2.778958892822265625e+01 -6.213915720582008362e-02 -4.027676582336425781e-01 -1.394720375537872314e-01 3.938277363777160645e-01
2.376000000000000000e+03 1.157331657409667969e+01 -1.092315101623535156e+01 4.164406359195709229e-01 9.116642475128173828e-01 3.984314799308776855e-01 -2.459264397621154785e-01
2.377000000000000000e+03 1.059276580810546875e+01 -1.236899089813232422e+01 5.168722867965698242e-01 8.423710465431213379e-01 4.077729880809783936e-01 -2.732478082180023193e-01
2.378000000000000000e+03 6.573192596435546875e+01 3.794783353805541992e+00 6.061681509017944336e-01 2.112390518188476562e+00 8.155676126480102539e-01 5.870682373642921448e-02
2.379000000000000000e+03 6.508646392822265625e+01 4.881997585296630859e+00 6.450646519660949707e-01 2.502442598342895508e+00 9.442521333694458008e-01 2.388508915901184082e-01
2.380000000000000000e+03 2.434862709045410156e+01 2.751717185974121094e+01 2.736462950706481934e-01 1.619578957557678223e+00 5.679675936698913574e-01 -1.218824386596679688e+00
2.381000000000000000e+03 7.773646354675292969e+00 2.618204689025878906e+01 -1.708197779953479767e-02 2.672498300671577454e-02 2.892901422455906868e-03 1.144322976469993591e-01
2.382000000000000000e+03 2.096505737304687500e+01 -6.307377338409423828e+00 -1.927350647747516632e-02 3.761005103588104248e-01 1.070481017231941223e-01 8.020749688148498535e-01
2.383000000000000000e+03 7.184444427490234375e+01 -2.539538764953613281e+01 -3.268160670995712280e-02 9.489596821367740631e-03 -6.957603618502616882e-03 6.755854468792676926e-03
2.384000000000000000e+03 8.473927497863769531e+00 -1.387703704833984375e+01 4.879018664360046387e-01 3.663510680198669434e-01 2.562758922576904297e-01 -2.977288663387298584e-01
2.385000000000000000e+03 7.523791790008544922e+00 -1.630384635925292969e+01 4.550182521343231201e-01 1.780588179826736450e-01 1.899231225252151489e-01 -1.111165657639503479e-01
2.386000000000000000e+03 1.394735622406005859e+01 -2.708389472961425781e+01 -1.962293386459350586e-01 1.214561700820922852e+00 3.054997026920318604e-01 -9.110699594020843506e-02
2.387000000000000000e+03 5.896234989166259766e+00 -1.141443824768066406e+01 1.856427192687988281e-01 -2.293139696121215820e-01 -1.310137473046779633e-02 -4.775997996330261230e-01
2.388000000000000000e+03 5.884041309356689453e+00 -9.004247665405273438e+00 4.835033044219017029e-02 -1.929324716329574585e-01 -4.337464272975921631e-02 -5.572201013565063477e-01
2.389000000000000000e+03 5.088654518127441406e+00 8.345917701721191406e+00 -2.410692395642399788e-03 -6.922187749296426773e-04 -9.308733860962092876e-04 -1.957244705408811569e-03
2.390000000000000000e+03 6.351933479309082031e+00 9.391070365905761719e+00 -6.800088449381291866e-04 -5.839970544911921024e-04 -3.792017814703285694e-04 -1.695069251582026482e-03
2.391000000000000000e+03 5.131030273437500000e+01 2.774251937866210938e+01 1.670531034469604492e-01 9.577725529670715332e-01 3.374477028846740723e-01 2.763411402702331543e-01
2.392000000000000000e+03 1.981367588043212891e+00 3.472488021850585938e+01 1.618840172886848450e-02 -2.943946719169616699e-01 -8.346188068389892578e-02 3.225685656070709229e-02
2.393000000000000000e+03 7.463267517089843750e+01 -5.870370864868164062e+00 -9.235094487667083740e-02 -2.395814210176467896e-01 -9.957970678806304932e-02 -5.291909575462341309e-01
2.394000000000000000e+03 7.338981628417968750e+01 -6.677142143249511719e+00 -1.580029726028442383e-01 -7.139432430267333984e-02 -6.881918758153915405e-02 -5.547406673431396484e-01
2.395000000000000000e+03 3.806325912475585938e+01 -8.391763687133789062e+00 -2.399142026901245117e+00 8.462642669677734375e+00 1.819050073623657227e+00 -1.837531685829162598e+00
2.396000000000000000e+03 4.459475326538085938e+01 -1.219169712066650391e+01 7.613904476165771484e-01 4.843429088592529297e+00 1.681445837020874023e+00 -3.735042214393615723e-01
2.397000000000000000e+03 6.388809204101562500e+01 6.878037750720977783e-02 3.917513191699981689e-01 1.836353659629821777e+00 6.684315204620361328e-01 2.434314340353012085e-01
2.398000000000000000e+03 6.355321121215820312e+01 -1.479906916618347168e+00 2.611901462078094482e-01 1.605086803436279297e+00 5.598830580711364746e-01 2.492301315069198608e-01
2.399000000000000000e+03 6.590247344970703125e+01 -5.935126781463623047e+00 -2.274467796087265015e-01 5.924533605575561523e-01 1.095019802451133728e-01 -2.335352450609207153e-01
2.400000000000000000e+03 7.307209777832031250e+01 5.169749259948730469e-01 1.183708906173706055e-01 -1.457293927669525146e-01 -8.207551203668117523e-03 -5.920747518539428711e-01
2.401000000000000000e+03 7.322753906250000000e+01 -8.293974399566650391e-01 4.323626309633255005e-02 -1.701390892267227173e-01 -3.807085007429122925e-02 -6.189327239990234375e-01
2.402000000000000000e+03 6.824588775634765625e+01 1.804311370849609375e+01 4.964358210563659668e-01 1.728204011917114258e+00 6.673919558525085449e-01 4.017127156257629395e-01
2.403000000000000000e+03 8.462196350097656250e+00 2.509214401245117188e+01 -5.434627830982208252e-02 4.150795564055442810e-02 -3.851496381685137749e-03 1.167200207710266113e-01
2.404000000000000000e+03 7.276895523071289062e+00 2.444402694702148438e+01 -4.671800881624221802e-02 2.222261764109134674e-02 -7.348617538809776306e-03 9.966927021741867065e-02
2.405000000000000000e+03 7.231974029541015625e+01 1.646448135375976562e+01 3.340554535388946533e-01 1.822462230920791626e-01 1.548905074596405029e-01 3.513312041759490967e-01
2.406000000000000000e+03 7.254064941406250000e+01 1.505595493316650391e+01 3.334679603576660156e-01 1.041840091347694397e-01 1.312955915927886963e-01 2.635939419269561768e-01
2.407000000000000000e+03 1.415944099426269531e+01 -2.900947380065917969e+01 -2.679945528507232666e-01 9.859669804573059082e-01 2.153917253017425537e-01 -9.963462501764297485e-02
2.408000000000000000e+03 7.249917602539062500e+01 -2.817383193969726562e+01 -4.487346485257148743e-02 9.788554161787033081e-03 -1.052547339349985123e-02 2.716940455138683319e-02
2.409000000000000000e+03 4.137522125244140625e+01 -2.536983489990234375e+01 1.624055504798889160e+00 8.104643821716308594e+00 2.918609619140625000e+00 -2.719330489635467529e-01
2.410000000000000000e+03 6.722837924957275391e+00 2.211249351501464844e+01 -5.491402000188827515e-02 2.074983716011047363e-02 -1.024925429373979568e-02 6.989490985870361328e-02
2.411000000000000000e+03 6.675533294677734375e+00 -1.274293708801269531e+01 2.856198847293853760e-01 -8.727446198463439941e-02 5.950362235307693481e-02 -4.121622741222381592e-01
2.412000000000000000e+03 1.031404495239257812e+01 2.460617065429687500e+01 -7.463966310024261475e-02 7.962671667337417603e-02 1.496117096394300461e-03 1.191789433360099792e-01
2.413000000000000000e+03 1.083403873443603516e+01 2.346740913391113281e+01 -1.130145564675331116e-01 7.682987302541732788e-02 -1.085540559142827988e-02 8.198673278093338013e-02
2.414000000000000000e+03 7.225267028808593750e+01 5.664163589477539062e+00 2.886100113391876221e-01 5.895149335265159607e-02 1.042684540152549744e-01 -3.756395280361175537e-01
2.415000000000000000e+03 7.332608032226562500e+01 5.598067283630371094e+00 2.190442830324172974e-01 -2.803109586238861084e-01 -1.838000304996967316e-02 -3.807213306427001953e-01
2.416000000000000000e+03 3.876095199584960938e+01 -1.192445373535156250e+01 9.816881269216537476e-02 7.712021827697753906e+00 2.343057155609130859e+00 -1.710246086120605469e+00
2.417000000000000000e+03 6.895671844482421875e+00 -1.934332847595214844e+01 3.641462028026580811e-01 4.846537485718727112e-02 1.237834766507148743e-01 1.346218138933181763e-01
2.418000000000000000e+03 1.668748855590820312e+01 3.106629562377929688e+01 1.493895500898361206e-01 5.330395698547363281e-01 2.047287374734878540e-01 -1.941427439451217651e-01
2.419000000000000000e+03 1.486705780029296875e+01 2.930723571777343750e+01 1.249420344829559326e-01 2.554152905941009521e-01 1.141071990132331848e-01 -2.994572743773460388e-02
2.420000000000000000e+03 3.962099075317382812e+01 -2.458846282958984375e+01 1.583857536315917969e+00 7.469471454620361328e+00 2.715998649597167969e+00 7.852578908205032349e-02
2.421000000000000000e+03 1.106365776062011719e+01 5.640436172485351562e+00 3.099129768088459969e-03 -1.666972384555265307e-04 8.797298069112002850e-04 1.450779964216053486e-03
2.422000000000000000e+03 1.186344432830810547e+01 5.613686561584472656e+00 -2.100368496030569077e-03 -9.140964248217642307e-04 -9.043395402841269970e-04 1.792067079804837704e-03
2.423000000000000000e+03 1.209744071960449219e+01 -6.284475803375244141e+00 -2.387011200189590454e-01 4.336150586605072021e-01 5.847418308258056641e-02 -2.581273615360260010e-01
2.424000000000000000e+03 1.143700504302978516e+01 -5.501021385192871094e+00 -3.475455343723297119e-01 3.040701746940612793e-01 -1.304260920733213425e-02 -3.164751231670379639e-01
2.425000000000000000e+03 1.230546188354492188e+01 7.271485805511474609e+00 -2.358179073780775070e-03 2.156829868908971548e-04 -6.427488406188786030e-04 4.083322361111640930e-03
2.426000000000000000e+03 9.543737411499023438e+00 6.198258876800537109e+00 9.841066639637574553e-05 -3.378630150109529495e-03 -9.840658167377114296e-04 4.278135747881606221e-05
2.427000000000000000e+03 9.322104454040527344e+00 6.750235557556152344e+00 1.300061121582984924e-03 -1.711500692181289196e-03 -1.234318915521726012e-04 1.145325484685599804e-03
2.428000000000000000e+03 8.540658950805664062e+00 -6.081312179565429688e+00 -1.943367570638656616e-01 1.141936257481575012e-01 -2.404293976724147797e-02 -5.289664268493652344e-01
2.429000000000000000e+03 9.435040473937988281e+00 -6.294536590576171875e+00 -1.856940239667892456e-01 2.085061967372894287e-01 6.843651644885540009e-03 -4.967401027679443359e-01
2.430000000000000000e+03 3.543434524536132812e+01 -4.180913925170898438e+00 -2.161854743957519531e+00 9.845683097839355469e+00 2.305148363113403320e+00 -2.786144614219665527e-01
2.431000000000000000e+03 3.780980682373046875e+01 -2.760541439056396484e+00 -1.473524332046508789e+00 1.159104061126708984e+01 3.035254955291748047e+00 -2.782719850540161133e+00
2.432000000000000000e+03 1.562453937530517578e+01 -5.361903190612792969e+00 -3.428881764411926270e-01 4.831117689609527588e-01 4.206708073616027832e-02 2.224096655845642090e-01
2.433000000000000000e+03 9.799478530883789062e+00 -8.063680648803710938e+00 1.583164557814598083e-02 3.678793013095855713e-01 1.151132807135581970e-01 -4.799119532108306885e-01
2.434000000000000000e+03 1.037944126129150391e+01 -6.255020618438720703e+00 -2.203702926635742188e-01 2.970889806747436523e-01 2.301560342311859131e-02 -4.307736158370971680e-01
2.435000000000000000e+03 6.014392375946044922e+00 -6.522276878356933594e+00 -1.015841141343116760e-01 -1.212018057703971863e-01 -6.683577597141265869e-02 -5.572538375854492188e-01
2.436000000000000000e+03 6.792261123657226562e+00 5.918639183044433594e+00 1.514585223048925400e-03 2.083682920783758163e-04 5.168860661797225475e-04 -1.349431695416569710e-03
2.437000000000000000e+03 6.415754795074462891e+00 7.026615619659423828e+00 7.598698139190673828e-04 -2.302130305906757712e-04 1.588970335433259606e-04 -2.509382553398609161e-03
2.438000000000000000e+03 2.129393577575683594e+01 -5.234907150268554688e+00 -1.180412769317626953e-01 3.224358558654785156e-01 6.131837517023086548e-02 7.931643128395080566e-01
2.439000000000000000e+03 7.168034362792968750e+01 -9.795853614807128906e+00 -4.375652372837066650e-01 1.297488808631896973e-01 -9.234490990638732910e-02 -4.140248596668243408e-01
2.440000000000000000e+03 7.101258850097656250e+01 -9.475440025329589844e+00 -4.093234241008758545e-01 1.547043472528457642e-01 -7.638572901487350464e-02 -4.450199902057647705e-01
2.441000000000000000e+03 3.823357772827148438e+01 -3.246060132980346680e+00 -1.892429232597351074e+00 1.045317363739013672e+01 2.568223237991333008e+00 -2.846323728561401367e+00
2.442000000000000000e+03 6.993803501129150391e+00 -6.269778251647949219e+00 -1.497535258531570435e-01 -2.906524762511253357e-02 -5.364563316106796265e-02 -5.549753904342651367e-01
2.443000000000000000e+03 8.496142387390136719e+00 -7.329806804656982422e+00 -6.065364927053451538e-02 1.567758321762084961e-01 2.883665449917316437e-02 -5.423960685729980469e-01
2.444000000000000000e+03 6.702548980712890625e+00 1.017400932312011719e+01 -1.478549558669328690e-03 -5.956122651696205139e-03 -2.230401616543531418e-03 -5.913075292482972145e-04
2.445000000000000000e+03 6.255292892456054688e+00 1.151003074645996094e+01 -4.032694734632968903e-03 -6.644333247095346451e-03 -3.203108441084623337e-03 1.292729721171781421e-04
2.446000000000000000e+03 7.499519348144531250e+00 5.755801677703857422e+00 -2.023963461397215724e-04 -2.822280162945389748e-03 -9.074028930626809597e-04 1.822088524932041764e-04
2.447000000000000000e+03 8.853342056274414062e+00 5.544315338134765625e+00 4.117990611121058464e-04 -3.348364960402250290e-03 -8.809697465039789677e-04 5.645190249197185040e-04
2.448000000000000000e+03 1.436718559265136719e+01 -5.471363067626953125e+00 -3.503403365612030029e-01 4.334952533245086670e-01 2.494647726416587830e-02 2.975458092987537384e-02
2.449000000000000000e+03 3.643375778198242188e+01 -5.612335681915283203e+00 -2.998839616775512695e+00 9.602788925170898438e+00 1.981184720993041992e+00 -1.279060840606689453e+00
2.450000000000000000e+03 3.791020584106445312e+01 -4.617840766906738281e+00 -2.835427999496459961e+00 1.004296398162841797e+01 2.162260770797729492e+00 -2.286160230636596680e+00
2.451000000000000000e+03 6.910356903076171875e+01 -9.140977859497070312e+00 -5.434753894805908203e-01 2.230034619569778442e-01 -9.614158421754837036e-02 -4.357447624206542969e-01
2.452000000000000000e+03 6.366864681243896484e+00 8.245772361755371094e+00 -1.176434569060802460e-03 -2.733581350184977055e-04 -4.349378286860883236e-04 -2.913884818553924561e-03
2.453000000000000000e+03 2.926362228393554688e+01 -4.025588512420654297e+00 6.679186820983886719e-01 7.938969135284423828e-01 4.385446906089782715e-01 1.078924298286437988e+00
2.454000000000000000e+03 1.713988494873046875e+01 -5.717110633850097656e+00 -2.408672869205474854e-01 5.198408961296081543e-01 8.369207382202148438e-02 4.395127296447753906e-01
2.455000000000000000e+03 1.790678787231445312e+01 -5.991154670715332031e+00 -1.560165137052536011e-01 5.346961021423339844e-01 1.136038750410079956e-01 5.518651008605957031e-01
2.456000000000000000e+03 5.198036670684814453e+00 -8.472549438476562500e+00 2.786588668823242188e-02 -2.632602155208587646e-01 -7.061830163002014160e-02 -5.435837507247924805e-01
2.457000000000000000e+03 6.252690505981445312e+01 -6.963199615478515625e+00 -3.845985829830169678e-01 8.389645814895629883e-01 1.363098025321960449e-01 3.461514413356781006e-01
2.458000000000000000e+03 7.048757076263427734e+00 6.672026634216308594e+00 1.183298882097005844e-03 -3.684701630845665932e-03 -7.504208479076623917e-04 2.563069865573197603e-04
2.459000000000000000e+03 7.975786209106445312e+00 -6.523444175720214844e+00 -1.431602090597152710e-01 7.188237458467483521e-02 -2.138335257768630981e-02 -5.627686381340026855e-01
2.460000000000000000e+03 8.362081527709960938e+00 6.460374355316162109e+00 -6.509071681648492813e-06 -3.584518097341060638e-03 -1.077308203093707561e-03 1.117207342758774757e-03
2.461000000000000000e+03 1.362982749938964844e+01 -5.537368297576904297e+00 -3.468438684940338135e-01 4.346080422401428223e-01 2.632925845682621002e-02 -6.273114681243896484e-02
2.462000000000000000e+03 1.370973110198974609e+01 -6.389813423156738281e+00 -2.154298275709152222e-01 5.528457760810852051e-01 1.012247875332832336e-01 -5.248559638857841492e-02
2.463000000000000000e+03 7.533780574798583984e+00 -1.322356414794921875e+01 3.763513267040252686e-01 1.370285898447036743e-01 1.540139764547348022e-01 -3.747920095920562744e-01
2.464000000000000000e+03 6.789082336425781250e+01 8.466936111450195312e+00 6.025012135505676270e-01 1.901043295860290527e+00 7.510633468627929688e-01 3.001101780682802200e-03
2.465000000000000000e+03 1.023310375213623047e+01 6.371765136718750000e+00 2.097998978570103645e-03 1.749913499224931002e-04 6.818971014581620693e-04 2.117328345775604248e-03
2.466000000000000000e+03 1.258136844635009766e+01 7.983952045440673828e+00 3.373737446963787079e-03 7.868529646657407284e-04 1.248177140951156616e-03 -7.094120956026017666e-04
2.467000000000000000e+03 1.394151878356933594e+01 6.668922424316406250e+00 -2.775727480184286833e-04 -1.042517251335084438e-03 -3.960269968956708908e-04 3.208611393347382545e-03
2.468000000000000000e+03 1.198262596130371094e+01 6.484224796295166016e+00 3.065660363063216209e-03 2.816807136696297675e-05 9.281485108658671379e-04 4.584277630783617496e-04
2.469000000000000000e+03 3.673167800903320312e+01 -4.852606773376464844e+00 -2.879974126815795898e+00 1.016927433013916016e+01 2.186790227890014648e+00 -1.432154893875122070e+00
2.470000000000000000e+03 3.659487915039062500e+01 -6.438780784606933594e+00 -2.958114624023437500e+00 9.274827003479003906e+00 1.895013689994812012e+00 -1.466866016387939453e+00
2.471000000000000000e+03 7.173824310302734375e+01 -2.298081970214843750e+01 -1.564456708729267120e-02 -1.214302261359989643e-03 -5.057660397142171860e-03 2.372317016124725342e-03
2.472000000000000000e+03 7.237974548339843750e+01 -2.387248039245605469e+01 -1.635255664587020874e-02 3.855857998132705688e-03 -3.749009454622864723e-03 9.598788456059992313e-04
2.473000000000000000e+03 5.900606918334960938e+01 -7.557053089141845703e+00 -5.149270296096801758e-01 1.232064843177795410e+00 2.151413261890411377e-01 9.482381939888000488e-01
2.474000000000000000e+03 4.121692657470703125e+01 -1.390318202972412109e+01 1.141100764274597168e+00 6.882472991943359375e+00 2.407072067260742188e+00 -1.453492879867553711e+00
2.475000000000000000e+03 3.430055999755859375e+01 -5.556426048278808594e+00 -2.320358991622924805e+00 7.793914318084716797e+00 1.642066597938537598e+00 -4.306526780128479004e-01
2.476000000000000000e+03 6.710641479492187500e+01 -7.999217033386230469e+00 -5.002769231796264648e-01 3.017633855342864990e-01 -5.955405160784721375e-02 -3.939284682273864746e-01
2.477000000000000000e+03 4.007138824462890625e+01 -2.595838546752929688e+01 1.310554742813110352e+00 7.330159664154052734e+00 2.592214345932006836e+00 1.676451116800308228e-01
2.478000000000000000e+03 6.913477325439453125e+01 1.713141059875488281e+01 5.049721002578735352e-01 1.418545484542846680e+00 5.770552754402160645e-01 3.892570436000823975e-01
2.479000000000000000e+03 1.261464023590087891e+01 -9.338567733764648438e+00 2.111151814460754395e-01 8.903825283050537109e-01 3.304493129253387451e-01 -1.724546551704406738e-01
2.480000000000000000e+03 7.385919189453125000e+01 1.364303016662597656e+01 2.638862431049346924e-01 -4.217440783977508545e-01 -4.735735431313514709e-02 1.560945957899093628e-01
2.481000000000000000e+03 1.736517715454101562e+01 -8.434789657592773438e+00 2.531754374504089355e-01 9.032688736915588379e-01 3.469332754611968994e-01 6.173757910728454590e-01
2.482000000000000000e+03 2.059719276428222656e+01 -5.656482219696044922e+00 -9.625581651926040649e-02 3.776126205921173096e-01 8.440703898668289185e-02 7.695422768592834473e-01
2.483000000000000000e+03 9.585235595703125000e+00 1.180924034118652344e+01 7.537252386100590229e-04 -2.262141788378357887e-03 -4.525249532889574766e-04 4.920823848806321621e-04
2.484000000000000000e+03 7.951801776885986328e+00 1.050841426849365234e+01 -3.540246980264782906e-03 -5.253985058516263962e-03 -2.638269681483507156e-03 -1.033541164360940456e-03
2.485000000000000000e+03 7.362862110137939453e+00 1.446602058410644531e+01 -1.661648042500019073e-02 -5.824271123856306076e-03 -6.732225418090820312e-03 5.251828581094741821e-03
2.486000000000000000e+03 7.439562988281250000e+01 4.606861472129821777e-01 6.992937624454498291e-02 -4.675723910331726074e-01 -1.192929074168205261e-01 -5.686009526252746582e-01
2.487000000000000000e+03 8.511262893676757812e+00 1.205434131622314453e+01 -6.998201366513967514e-03 -8.154212497174739838e-03 -4.545724019408226013e-03 -6.742783007211983204e-04
2.488000000000000000e+03 7.960317134857177734e+00 -1.507838153839111328e+01 4.878652989864349365e-01 2.882303893566131592e-01 2.328287065029144287e-01 -2.159917950630187988e-01
2.489000000000000000e+03 3.932591629028320312e+01 -8.779924392700195312e+00 -1.972732186317443848e+00 7.737861633300781250e+00 1.729538798332214355e+00 -1.964011192321777344e+00
2.490000000000000000e+03 1.942163658142089844e+01 -6.953715324401855469e+00 4.558701813220977783e-02 5.311169624328613281e-01 1.730111837387084961e-01 7.304522395133972168e-01
2.491000000000000000e+03 3.987513732910156250e+01 -8.134801864624023438e+00 -2.234484910964965820e+00 7.336722373962402344e+00 1.530671238899230957e+00 -2.259684562683105469e+00
2.492000000000000000e+03 4.012657165527343750e+01 -6.578118801116943359e+00 -2.564457654953002930e+00 7.312448501586914062e+00 1.424397349357604980e+00 -2.493276596069335938e+00
2.493000000000000000e+03 7.009284210205078125e+01 1.549990653991699219e+01 5.214899182319641113e-01 1.044968843460083008e+00 4.699376225471496582e-01 2.985180914402008057e-01
2.494000000000000000e+03 6.926931762695312500e+01 1.491578102111816406e+01 5.924066901206970215e-01 1.477527737617492676e+00 6.209803223609924316e-01 2.516529262065887451e-01
2.495000000000000000e+03 1.480078601837158203e+01 -8.255802154541015625e+00 9.787824749946594238e-02 9.316217899322509766e-01 3.088499903678894043e-01 1.749353259801864624e-01
2.496000000000000000e+03 7.670755004882812500e+01 2.072513008117675781e+01 3.303842991590499878e-02 -1.187654256820678711e+00 -3.463847637176513672e-01 3.600526452064514160e-01
2.497000000000000000e+03 7.130046844482421875e+01 -3.509371566772460938e+01 5.820575170218944550e-03 -1.552601065486669540e-02 -2.911630552262067795e-03 8.597052842378616333e-02
2.498000000000000000e+03 3.437799072265625000e+01 -4.378870010375976562e+00 -1.719911098480224609e+00 8.165821075439453125e+00 1.933773159980773926e+00 1.386034041643142700e-01
2.499000000000000000e+03 1.516690921783447266e+01 6.685251712799072266e+00 6.031536613591015339e-04 2.035500714555382729e-03 7.915963069535791874e-04 1.191809424199163914e-03
2.500000000000000000e+03 3.999093246459960938e+01 -1.181729888916015625e+01 6.987710297107696533e-02 7.263566970825195312e+00 2.200033187866210938e+00 -1.625350713729858398e+00
2.501000000000000000e+03 3.910697555541992188e+01 -8.008494377136230469e+00 -2.431357145309448242e+00 8.036428451538085938e+00 1.681521296501159668e+00 -2.118595838546752930e+00
2.502000000000000000e+03 6.137440872192382812e+01 -6.365409374237060547e+00 -2.877600789070129395e-01 1.098114252090454102e+00 2.431062757968902588e-01 5.730277299880981445e-01
2.503000000000000000e+03 7.419070243835449219e+00 -2.010806846618652344e+01 3.309718668460845947e-01 2.020929306745529175e-01 1.599194407463073730e-01 1.829638779163360596e-01
2.504000000000000000e+03 7.365129089355468750e+01 -4.474684715270996094e+00 -7.056411355733871460e-02 -1.713880598545074463e-01 -7.258565723896026611e-02 -6.033226251602172852e-01
2.505000000000000000e+03 7.352679443359375000e+01 -5.584385395050048828e+00 -1.369586735963821411e-01 -1.201057210564613342e-01 -7.711932063102722168e-02 -5.816396474838256836e-01
2.506000000000000000e+03 4.543027496337890625e+01 -1.119455909729003906e+01 4.168392717838287354e-01 3.867845773696899414e+00 1.285405516624450684e+00 -2.765420451760292053e-02
2.507000000000000000e+03 6.772270965576171875e+01 6.454939365386962891e+00 5.816684961318969727e-01 1.781666755676269531e+00 7.090005874633789062e-01 -8.766108751296997070e-02
2.508000000000000000e+03 6.449189758300781250e+01 -8.944352269172668457e-01 2.197043001651763916e-01 1.570665717124938965e+00 5.371109843254089355e-01 6.650275737047195435e-02
2.509000000000000000e+03 6.527237701416015625e+01 2.206120967864990234e+00 4.678999483585357666e-01 1.977674841880798340e+00 7.336724400520324707e-01 8.179917931556701660e-02
2.510000000000000000e+03 8.123847007751464844e+00 -1.809218406677246094e+01 4.825567305088043213e-01 3.988661468029022217e-01 2.644268572330474854e-01 5.453441664576530457e-02
2.511000000000000000e+03 3.753586196899414062e+01 -5.906949043273925781e+00 -3.067314386367797852e+00 9.600152969360351562e+00 1.959851622581481934e+00 -1.922708630561828613e+00
2.512000000000000000e+03 3.608396530151367188e+01 -4.551039695739746094e+00 -2.631053447723388672e+00 1.021280574798583984e+01 2.274525642395019531e+00 -8.604736328125000000e-01
2.513000000000000000e+03 7.444612121582031250e+01 5.563815593719482422e+00 1.550582498311996460e-01 -6.187226772308349609e-01 -1.390993297100067139e-01 -3.718317449092864990e-01
2.514000000000000000e+03 7.325337982177734375e+01 4.411368370056152344e+00 2.067978978157043457e-01 -2.343449443578720093e-01 -8.264112286269664764e-03 -4.448722898960113525e-01
2.515000000000000000e+03 4.157442474365234375e+01 -1.471347236633300781e+01 1.498830795288085938e+00 7.189570903778076172e+00 2.606520652770996094e+00 -1.154282450675964355e+00
2.516000000000000000e+03 4.123218154907226562e+01 -1.288267803192138672e+01 6.569123268127441406e-01 6.857936859130859375e+00 2.254454851150512695e+00 -1.415745615959167480e+00
2.517000000000000000e+03 8.672059059143066406e+00 1.769124603271484375e+01 -4.654210060834884644e-02 7.093803491443395615e-03 -1.183448918163776398e-02 8.989470079541206360e-03
2.518000000000000000e+03 3.798264312744140625e+01 2.115904426574707031e+01 2.434266805648803711e-01 5.255416870117187500e+00 1.649653077125549316e+00 9.558531045913696289e-01
2.519000000000000000e+03 3.969339370727539062e+01 2.057072448730468750e+01 3.618883788585662842e-01 4.449721336364746094e+00 1.443482875823974609e+00 1.186775565147399902e+00
2.520000000000000000e+03 3.313363265991210938e+01 -5.258827209472656250e+00 -1.505612611770629883e+00 5.653723239898681641e+00 1.244433164596557617e+00 -1.339571923017501831e-01
2.521000000000000000e+03 7.186726379394531250e+01 1.977709579467773438e+01 2.158806920051574707e-01 4.130399227142333984e-01 1.886761784553527832e-01 5.638341307640075684e-01
2.522000000000000000e+03 8.466032981872558594e+00 -2.381876373291015625e+01 1.541297584772109985e-01 4.944949150085449219e-01 1.945874094963073730e-01 3.426371812820434570e-01
2.523000000000000000e+03 1.015368556976318359e+01 -2.492865562438964844e+01 6.130947172641754150e-02 9.090982675552368164e-01 2.911223173141479492e-01 3.054436445236206055e-01
2.524000000000000000e+03 3.453193664550781250e+00 -2.436091041564941406e+01 2.358221635222434998e-02 -7.483665347099304199e-01 -2.174353003501892090e-01 2.768876850605010986e-01
2.525000000000000000e+03 7.052568054199218750e+01 2.279448658227920532e-01 1.582618355751037598e-01 4.285693466663360596e-01 1.760493516921997070e-01 -5.622904300689697266e-01
2.526000000000000000e+03 6.673289299011230469e+00 -1.371337509155273438e+01 3.427195250988006592e-01 -6.562149524688720703e-02 8.312940597534179688e-02 -3.396924436092376709e-01
2.527000000000000000e+03 7.164582061767578125e+01 -4.270831108093261719e+00 -1.003888472914695740e-01 1.119349002838134766e-01 3.463814966380596161e-03 -6.309494376182556152e-01
2.528000000000000000e+03 7.171085357666015625e+01 -5.122333049774169922e+00 -1.456689536571502686e-01 9.333297610282897949e-02 -1.570079475641250610e-02 -6.261721253395080566e-01
2.529000000000000000e+03 3.729582595825195312e+01 2.582206535339355469e+01 -3.945057392120361328e-01 4.651118755340576172e+00 1.276983976364135742e+00 6.842317581176757812e-01
2.530000000000000000e+03 3.497670364379882812e+01 2.626045227050781250e+01 -5.581560134887695312e-01 4.993338584899902344e+00 1.330554842948913574e+00 1.496338546276092529e-01
2.531000000000000000e+03 3.879681777954101562e+01 -2.672318458557128906e+01 9.058564305305480957e-01 6.728401184082031250e+00 2.290277242660522461e+00 5.669674873352050781e-01
2.532000000000000000e+03 4.066376876831054688e+01 -2.720231056213378906e+01 9.506167769432067871e-01 7.323050022125244141e+00 2.482100009918212891e+00 1.367605328559875488e-01
2.533000000000000000e+03 6.905242156982421875e+01 2.364119338989257812e+01 -1.046199575066566467e-01 1.204970002174377441e+00 3.301050066947937012e-01 5.566776394844055176e-01
2.534000000000000000e+03 6.923913574218750000e+01 2.097572708129882812e+01 1.996455639600753784e-01 1.251414537429809570e+00 4.353180527687072754e-01 5.665004253387451172e-01
2.535000000000000000e+03 1.355037784576416016e+01 2.750895690917968750e+01 4.231287911534309387e-02 1.546507477760314941e-01 5.908908694982528687e-02 5.183218047022819519e-02
2.536000000000000000e+03 9.000229835510253906e+00 -2.570966339111328125e+01 -8.411368355154991150e-03 6.101133823394775391e-01 1.805106103420257568e-01 3.554289340972900391e-01
2.537000000000000000e+03 1.217216300964355469e+01 -2.767330169677734375e+01 -2.219878137111663818e-01 1.047737479209899902e+00 2.477248907089233398e-01 7.255527377128601074e-02
2.538000000000000000e+03 7.245227050781250000e+01 -2.992049598693847656e+01 -3.759213164448738098e-02 3.213172312825918198e-03 -1.031368784606456757e-02 5.257697775959968567e-02
2.539000000000000000e+03 6.549990081787109375e+01 -3.729169368743896484e-01 2.683878839015960693e-01 1.434195756912231445e+00 5.107750892639160156e-01 -9.052535146474838257e-02
2.540000000000000000e+03 6.898893737792968750e+01 9.654147148132324219e+00 5.528730750083923340e-01 1.484748721122741699e+00 6.112865209579467773e-01 -2.319922856986522675e-02
2.541000000000000000e+03 6.867452239990234375e+01 -3.076566314697265625e+01 -9.265710413455963135e-02 2.696194685995578766e-02 -1.970854587852954865e-02 7.543254643678665161e-02
2.542000000000000000e+03 6.930555725097656250e+01 -2.883086967468261719e+01 -8.977353572845458984e-02 2.465325407683849335e-02 -1.953608542680740356e-02 3.900852054357528687e-02
2.543000000000000000e+03 8.440162658691406250e+00 2.878910255432128906e+01 1.259908918291330338e-02 4.873821511864662170e-02 1.840119063854217529e-02 1.094102114439010620e-01
2.544000000000000000e+03 7.093294525146484375e+01 2.556670379638671875e+01 -1.655298322439193726e-01 7.103545069694519043e-01 1.634474098682403564e-01 5.579767227172851562e-01
2.545000000000000000e+03 7.255072021484375000e+01 2.359408950805664062e+01 -3.135864436626434326e-02 2.611925601959228516e-01 6.895017623901367188e-02 5.742509961128234863e-01
2.546000000000000000e+03 1.159061336517333984e+01 2.445766639709472656e+01 -1.074144467711448669e-01 8.922961354255676270e-02 -5.455451086163520813e-03 1.090168356895446777e-01
2.547000000000000000e+03 7.180322265625000000e+01 2.153510665893554688e+01 1.027532070875167847e-01 4.620061814785003662e-01 1.694278120994567871e-01 5.955567359924316406e-01
2.548000000000000000e+03 7.909646987915039062e+00 2.786243438720703125e+01 1.506340503692626953e-02 2.769454941153526306e-02 1.282738614827394485e-02 1.165599301457405090e-01
2.549000000000000000e+03 1.358937358856201172e+01 6.010894775390625000e+00 7.501830696128308773e-04 2.154635498300194740e-03 8.714455761946737766e-04 -1.955520856427028775e-04
2.550000000000000000e+03 1.174647521972656250e+01 7.860665798187255859e+00 -3.152660559862852097e-03 -1.084259129129350185e-03 -1.271075918339192867e-03 5.511562922038137913e-04
2.551000000000000000e+03 1.274600124359130859e+01 -8.239364624023437500e+00 4.863571748137474060e-02 7.504854202270507812e-01 2.397363334894180298e-01 -1.715538203716278076e-01
2.552000000000000000e+03 8.813287734985351562e+00 7.235782623291015625e+00 4.446431994438171387e-04 -1.189512200653553009e-03 -2.234606799902394414e-04 -7.686808821745216846e-04
2.553000000000000000e+03 7.526655673980712891e+00 7.231605529785156250e+00 -1.349805970676243305e-03 -7.607154548168182373e-04 -6.331564509309828281e-04 -1.498581608757376671e-03
2.554000000000000000e+03 1.650229835510253906e+01 -8.134322166442871094e+00 1.433402001857757568e-01 9.053961634635925293e-01 3.146209120750427246e-01 4.283236861228942871e-01
2.555000000000000000e+03 7.150407409667968750e+01 -8.884010314941406250e+00 -3.939831256866455078e-01 1.287478506565093994e-01 -7.957058399915695190e-02 -4.694467782974243164e-01
2.556000000000000000e+03 7.041237640380859375e+01 -9.029175758361816406e+00 -4.685092866420745850e-01 1.851936578750610352e-01 -8.499468863010406494e-02 -4.507919549942016602e-01
2.557000000000000000e+03 5.778622627258300781e+00 -7.224145412445068359e+00 -5.258103460073471069e-02 -1.485194414854049683e-01 -6.033014133572578430e-02 -5.691985487937927246e-01
2.558000000000000000e+03 7.814855098724365234e+00 -7.959563255310058594e+00 -7.740626111626625061e-03 8.688752353191375732e-02 2.374406903982162476e-02 -5.686606764793395996e-01
2.559000000000000000e+03 2.000365066528320312e+01 -5.329173088073730469e+00 -1.450291723012924194e-01 3.857726156711578369e-01 7.222303003072738647e-02 7.234834432601928711e-01
2.560000000000000000e+03 2.000802612304687500e+01 -5.994039058685302734e+00 -7.923198491334915161e-02 4.366948008537292480e-01 1.072388440370559692e-01 7.449995279312133789e-01
2.561000000000000000e+03 6.969237804412841797e+00 7.745688915252685547e+00 1.506025088019669056e-03 -3.889958607032895088e-03 -7.151800091378390789e-04 1.544973114505410194e-03
2.562000000000000000e+03 7.682319164276123047e+00 6.557089805603027344e+00 2.777367131784558296e-03 -7.373854750767350197e-04 6.119944737292826176e-04 -3.587849787436425686e-04
2.563000000000000000e+03 1.457244110107421875e+01 -6.298727035522460938e+00 -2.187690734863281250e-01 5.864152908325195312e-01 1.102938577532768250e-01 7.934252172708511353e-02
2.564000000000000000e+03 1.569944667816162109e+01 -7.217825412750244141e+00 -5.366696417331695557e-02 7.834450006484985352e-01 2.189334183931350708e-01 2.696594297885894775e-01
2.565000000000000000e+03 3.650784683227539062e+01 -3.773601055145263672e+00 -2.374800205230712891e+00 1.116965293884277344e+01 2.638455867767333984e+00 -1.054229021072387695e+00
2.566000000000000000e+03 3.495361709594726562e+01 -4.914496421813964844e+00 -2.287572860717773438e+00 8.725049972534179688e+00 1.931242942810058594e+00 -4.613555371761322021e-01
2.567000000000000000e+03 1.288433456420898438e+01 -6.375654697418212891e+00 -2.162121832370758057e-01 5.058043599128723145e-01 8.687764406204223633e-02 -1.595277488231658936e-01
2.568000000000000000e+03 4.253278732299804688e+01 -1.288330364227294922e+01 7.575175762176513672e-01 6.092872619628906250e+00 2.055117130279541016e+00 -1.127466797828674316e+00
2.569000000000000000e+03 9.559890747070312500e+00 7.892137527465820312e+00 1.818192424252629280e-03 -2.970941131934523582e-03 -3.458246646914631128e-04 2.024583518505096436e-03
2.570000000000000000e+03 4.127081680297851562e+01 -1.178518104553222656e+01 7.400442659854888916e-02 6.562742710113525391e+00 1.991024136543273926e+00 -1.550003290176391602e+00
2.571000000000000000e+03 6.372725677490234375e+01 -4.038640975952148438e+00 -4.700956866145133972e-02 1.114047527313232422e+00 3.201113939285278320e-01 1.087515205144882202e-01
2.572000000000000000e+03 6.523498535156250000e+01 -4.711738586425781250e+00 -1.093523949384689331e-01 8.663151264190673828e-01 2.270888090133666992e-01 -1.327444165945053101e-01
2.573000000000000000e+03 6.995212554931640625e+00 1.811517715454101562e+01 -4.006475210189819336e-02 4.295613616704940796e-03 -1.073074154555797577e-02 2.034597657620906830e-02
2.574000000000000000e+03 7.790209770202636719e+00 1.543390369415283203e+01 -2.042663656175136566e-02 4.418055992573499680e-03 -4.802573937922716141e-03 1.558406627736985683e-03
2.575000000000000000e+03 8.244132041931152344e+00 9.185584068298339844e+00 -8.274844731204211712e-04 -4.346573259681463242e-03 -1.552217407152056694e-03 1.500640064477920532e-03
2.576000000000000000e+03 8.375017166137695312e+00 1.125902557373046875e+01 1.433426397852599621e-03 -4.506479017436504364e-03 -9.219157509505748749e-04 9.686448611319065094e-04
2.577000000000000000e+03 5.861766338348388672e+00 8.819149017333984375e+00 3.316848538815975189e-03 -3.922052681446075439e-03 -1.815612340578809381e-04 -6.061727763153612614e-04
2.578000000000000000e+03 6.966230869293212891e+00 8.954717636108398438e+00 7.484169327653944492e-04 -5.016737151890993118e-03 -1.280496013350784779e-03 7.754054386168718338e-04
2.579000000000000000e+03 8.464678764343261719e+00 1.621532058715820312e+01 -3.176348283886909485e-02 -2.498800400644540787e-03 -1.027868501842021942e-02 3.309437306597828865e-03
2.580000000000000000e+03 1.930478096008300781e+01 -6.112533092498779297e+00 -7.479769736528396606e-02 4.750134050846099854e-01 1.200647130608558655e-01 7.007173895835876465e-01
2.581000000000000000e+03 1.472623252868652344e+01 -7.225959300994873047e+00 -7.703363895416259766e-02 7.205631136894226074e-01 1.930588483810424805e-01 1.156110763549804688e-01
2.582000000000000000e+03 6.986842346191406250e+01 -8.466886520385742188e+00 -4.424214363098144531e-01 2.308531999588012695e-01 -6.347047537565231323e-02 -5.024469494819641113e-01
2.583000000000000000e+03 6.939418792724609375e+01 -7.787232398986816406e+00 -4.007728695869445801e-01 2.485598623752593994e-01 -4.566389694809913635e-02 -5.145211219787597656e-01
2.584000000000000000e+03 6.556594848632812500e+00 -2.514706611633300781e+01 4.813621565699577332e-02 3.540987521409988403e-02 2.506382763385772705e-02 3.763945400714874268e-01
2.585000000000000000e+03 9.154078483581542969e+00 -7.794849872589111328e+00 -3.529218956828117371e-02 2.342383265495300293e-01 5.968384444713592529e-02 -5.362426638603210449e-01
2.586000000000000000e+03 1.083571815490722656e+01 -5.698011398315429688e+00 -2.986143231391906738e-01 2.795892953872680664e-01 -5.707514937967061996e-03 -3.864215314388275146e-01
2.587000000000000000e+03 9.917716026306152344e+00 -6.764124870300292969e+00 -1.407349705696105957e-01 2.859668433666229248e-01 4.356956109404563904e-02 -4.771251678466796875e-01
2.588000000000000000e+03 7.117211341857910156e+00 1.102337551116943359e+01 -1.772155635990202427e-03 -1.596079324372112751e-03 -1.010470441542565823e-03 5.767527618445456028e-04
2.589000000000000000e+03 3.720769500732421875e+01 -5.274175643920898438e+00 -2.966675758361816406e+00 9.886530876159667969e+00 2.075956344604492188e+00 -1.799047112464904785e+00
2.590000000000000000e+03 3.922497558593750000e+01 -1.019766235351562500e+01 -1.080761909484863281e+00 7.669141769409179688e+00 1.976513862609863281e+00 -1.740509033203125000e+00
2.591000000000000000e+03 7.061238098144531250e+01 1.456419467926025391e+01 4.831156730651855469e-01 9.018793106079101562e-01 4.154984951019287109e-01 2.302773296833038330e-01
2.592000000000000000e+03 6.680085754394531250e+01 6.527721881866455078e+00 6.488596796989440918e-01 2.139161586761474609e+00 8.364063501358032227e-01 6.421327590942382812e-02
2.593000000000000000e+03 6.903378295898437500e+01 7.279243469238281250e+00 5.141350626945495605e-01 1.309806704521179199e+00 5.471825003623962402e-01 -1.645657718181610107e-01
2.594000000000000000e+03 6.177695465087890625e+01 -8.001714706420898438e+00 -4.777647256851196289e-01 7.086534500122070312e-01 6.926661729812622070e-02 5.224205851554870605e-01
2.595000000000000000e+03 7.487861633300781250e+01 -2.371621513366699219e+01 -1.245449110865592957e-02 -4.612576216459274292e-03 -5.120120476931333542e-03 7.037502247840166092e-03
2.596000000000000000e+03 4.343788528442382812e+01 -1.001793956756591797e+01 -5.832719206809997559e-01 4.706980228424072266e+00 1.237112522125244141e+00 -1.225810289382934570e+00
2.597000000000000000e+03 4.127964782714843750e+01 -1.074094295501708984e+01 -4.265110492706298828e-01 6.434626102447509766e+00 1.802434563636779785e+00 -1.596219062805175781e+00
2.598000000000000000e+03 2.068559646606445312e+01 -7.366430282592773438e+00 1.123523712158203125e-01 4.522777795791625977e-01 1.693890541791915894e-01 7.897346615791320801e-01
2.599000000000000000e+03 6.683982086181640625e+01 -6.968164920806884766e+00 -3.673739731311798096e-01 4.055041074752807617e-01 1.143903937190771103e-02 -3.791085779666900635e-01
2.600000000000000000e+03 6.813358306884765625e+01 -7.494736194610595703e+00 -4.130010604858398438e-01 3.305610418319702148e-01 -2.473200857639312744e-02 -4.804810285568237305e-01
2.601000000000000000e+03 7.519748210906982422e+00 -2.305829238891601562e+01 1.560165286064147949e-01 2.466009855270385742e-01 1.207852587103843689e-01 3.522046208381652832e-01
2.602000000000000000e+03 7.995994567871093750e+00 -2.507118415832519531e+01 2.340077422559261322e-02 3.631753921508789062e-01 1.159728467464447021e-01 3.693585693836212158e-01
2.603000000000000000e+03 6.334565734863281250e+01 -5.893821239471435547e+00 -2.342785149812698364e-01 8.710558414459228516e-01 1.910331994295120239e-01 2.068057656288146973e-01
2.604000000000000000e+03 7.274253845214843750e+01 -9.420818328857421875e+00 -3.459264039993286133e-01 5.760091543197631836e-02 -8.649764955043792725e-02 -4.246447682380676270e-01
2.605000000000000000e+03 7.212288665771484375e+01 -8.543079376220703125e+00 -3.217813968658447266e-01 7.694844901561737061e-02 -7.344988733530044556e-02 -5.060679316520690918e-01
2.606000000000000000e+03 6.714295864105224609e+00 2.557861328125000000e+01 -3.456047549843788147e-02 1.497599994763731956e-03 -9.918862022459506989e-03 1.192363202571868896e-01
2.607000000000000000e+03 8.727852821350097656e+00 2.203431320190429688e+01 -8.861733973026275635e-02 5.065283179283142090e-02 -1.138935238122940063e-02 6.246263533830642700e-02
2.608000000000000000e+03 6.738207340240478516e+00 -1.484525108337402344e+01 3.731106817722320557e-01 -6.201090663671493530e-02 9.332993626594543457e-02 -2.496609240770339966e-01
2.609000000000000000e+03 7.894680023193359375e+00 -1.922107887268066406e+01 4.368837475776672363e-01 3.548661172389984131e-01 2.375249564647674561e-01 1.426540166139602661e-01
2.610000000000000000e+03 6.909378051757812500e+01 1.225624942779541016e+01 5.963270664215087891e-01 1.547440886497497559e+00 6.431303620338439941e-01 1.050876528024673462e-01
2.611000000000000000e+03 6.848239135742187500e+01 1.338799571990966797e+01 5.990302562713623047e-01 1.857859969139099121e+00 7.370671033859252930e-01 1.696699410676956177e-01
2.612000000000000000e+03 6.920890808105468750e+01 1.591658687591552734e+01 5.201173424720764160e-01 1.429943203926086426e+00 5.850181579589843750e-01 2.822770476341247559e-01
2.613000000000000000e+03 8.038633346557617188e+00 -1.223403930664062500e+01 3.508089780807495117e-01 2.357985079288482666e-01 1.759822368621826172e-01 -4.260879158973693848e-01
2.614000000000000000e+03 7.166709899902343750e+01 -3.355318307876586914e+00 -6.139086931943893433e-02 1.090833619236946106e-01 1.430774852633476257e-02 -6.372786760330200195e-01
2.615000000000000000e+03 6.964520263671875000e+01 -2.743571519851684570e+00 -2.503268793225288391e-02 4.414162933826446533e-01 1.249150857329368591e-01 -5.782899856567382812e-01
2.616000000000000000e+03 7.063597869873046875e+01 -2.563188743591308594e+01 -3.471715003252029419e-02 3.042754484340548515e-03 -9.502318687736988068e-03 7.518934551626443863e-03
2.617000000000000000e+03 7.119688415527343750e+01 -7.343606948852539062e+00 -2.876612842082977295e-01 1.449494510889053345e-01 -4.281354695558547974e-02 -5.636210441589355469e-01
2.618000000000000000e+03 7.298260498046875000e+01 -8.618861198425292969e+00 -2.530755698680877686e-01 1.285695936530828476e-02 -7.206558436155319214e-02 -4.608077704906463623e-01
2.619000000000000000e+03 6.316265106201171875e+01 -3.033752441406250000e+00 8.743786811828613281e-02 1.401033401489257812e+00 4.465413689613342285e-01 2.660931944847106934e-01
2.620000000000000000e+03 9.085911750793457031e+00 2.392206382751464844e+01 -7.137546688318252563e-02 5.954344198107719421e-02 -3.549607004970312119e-03 9.997964650392532349e-02
2.621000000000000000e+03 4.603911590576171875e+01 -1.020818328857421875e+01 4.222811385989189148e-02 2.551017522811889648e+00 7.779736518859863281e-01 1.909895837306976318e-01
2.622000000000000000e+03 7.103132629394531250e+01 2.296963500976562500e+01 6.546019576489925385e-03 7.180958390235900879e-01 2.173925638198852539e-01 6.176328659057617188e-01
2.623000000000000000e+03 6.786721801757812500e+01 7.418407917022705078e+00 6.079899072647094727e-01 1.759240627288818359e+00 7.101691961288452148e-01 -2.880780585110187531e-02
2.624000000000000000e+03 6.909590148925781250e+01 8.498808860778808594e+00 5.670378208160400391e-01 1.341669917106628418e+00 5.726122856140136719e-01 -9.145897626876831055e-02
2.625000000000000000e+03 7.202581787109375000e+01 -9.178505897521972656e+00 -3.253989219665527344e-01 7.909964770078659058e-02 -7.388977706432342529e-02 -4.346750676631927490e-01
2.626000000000000000e+03 1.037424564361572266e+01 -2.790590095520019531e+01 -1.857388168573379517e-01 7.754789590835571289e-01 1.769220381975173950e-01 2.062772065401077271e-01
2.627000000000000000e+03 1.085260772705078125e+01 -9.942957878112792969e+00 2.571868002414703369e-01 6.821392178535461426e-01 2.817977964878082275e-01 -3.590360879898071289e-01
2.628000000000000000e+03 1.096065711975097656e+01 2.708938217163085938e+01 -6.766482256352901459e-03 9.428338706493377686e-02 2.625507116317749023e-02 1.021790727972984314e-01
2.629000000000000000e+03 8.791178703308105469e+00 2.699499702453613281e+01 -1.662035286426544189e-02 5.125837028026580811e-02 1.039140578359365463e-02 1.180413812398910522e-01
2.630000000000000000e+03 7.995966434478759766e+00 -2.630163574218750000e+01 -2.586448751389980316e-02 3.116745054721832275e-01 8.574300259351730347e-02 3.585141301155090332e-01
2.631000000000000000e+03 9.613143920898437500e+00 -2.681249046325683594e+01 -8.370269089937210083e-02 7.019478082656860352e-01 1.854735314846038818e-01 3.111566305160522461e-01
2.632000000000000000e+03 1.323547744750976562e+01 -2.822063827514648438e+01 -2.105836868286132812e-01 1.066473960876464844e+00 2.567670643329620361e-01 -1.678915135562419891e-02
2.633000000000000000e+03 1.172005653381347656e+01 -2.605475807189941406e+01 -7.910625636577606201e-02 1.171034932136535645e+00 3.275785744190216064e-01 1.310427635908126831e-01
2.634000000000000000e+03 6.701634979248046875e+01 2.372554779052734375e+01 -1.657759398221969604e-01 1.785369753837585449e+00 4.858781397342681885e-01 4.457761347293853760e-01
2.635000000000000000e+03 7.144695281982421875e+01 1.495564270019531250e+01 3.967948853969573975e-01 4.749153256416320801e-01 2.615130543708801270e-01 2.623495757579803467e-01
2.636000000000000000e+03 7.045036315917968750e+01 1.745887184143066406e+01 3.876962661743164062e-01 9.300444126129150391e-01 3.953222036361694336e-01 4.210591614246368408e-01
2.637000000000000000e+03 7.181890869140625000e+01 1.769557189941406250e+01 2.783060669898986816e-01 3.574277758598327637e-01 1.907201558351516724e-01 4.349631369113922119e-01
2.638000000000000000e+03 6.874775695800781250e+01 1.068905353546142578e+01 6.057246327400207520e-01 1.569655179977416992e+00 6.526139378547668457e-01 4.114138707518577576e-02
2.639000000000000000e+03 4.234628295898437500e+01 -3.340919113159179688e+01 -8.970593214035034180e-01 6.017877101898193359e+00 1.536245226860046387e+00 -1.050955504179000854e-01
2.640000000000000000e+03 5.599003314971923828e+00 -1.845116996765136719e+01 2.738958299160003662e-01 -3.391978442668914795e-01 -1.959060505032539368e-02 4.766730219125747681e-02
2.641000000000000000e+03 7.008927917480468750e+01 -3.040466117858886719e+01 -6.325977295637130737e-02 2.445284835994243622e-02 -1.164207886904478073e-02 5.446000397205352783e-02
2.642000000000000000e+03 9.736162185668945312e+00 2.588602256774902344e+01 -2.553983964025974274e-02 6.863415241241455078e-02 1.292829401791095734e-02 1.130801886320114136e-01
2.643000000000000000e+03 3.581850051879882812e+01 -3.405222654342651367e+00 -1.867676377296447754e+00 1.099571514129638672e+01 2.738411664962768555e+00 -1.360707432031631470e-01
2.644000000000000000e+03 1.195635890960693359e+01 -7.103107929229736328e+00 -1.089035421609878540e-01 5.338879227638244629e-01 1.274953037500381470e-01 -2.771284878253936768e-01
2.645000000000000000e+03 1.377151775360107422e+01 -8.291407585144042969e+00 6.570149213075637817e-02 8.502972722053527832e-01 2.747996449470520020e-01 -1.549678109586238861e-02
2.646000000000000000e+03 1.175534629821777344e+01 -8.016642570495605469e+00 1.621964620426297188e-03 6.091905832290649414e-01 1.832437664270401001e-01 -2.963982522487640381e-01
2.647000000000000000e+03 1.045802783966064453e+01 8.512306213378906250e+00 -1.676670275628566742e-03 -2.499848138540983200e-03 -1.252955524250864983e-03 -2.835578925441950560e-05
2.648000000000000000e+03 9.999022483825683594e+00 7.150570392608642578e+00 -5.882091354578733444e-04 -2.533174119889736176e-03 -9.364149882458150387e-04 1.808562374208122492e-04
2.649000000000000000e+03 8.838394165039062500e+00 9.985287666320800781e+00 2.308924216777086258e-03 -3.835677402094006538e-03 -4.580259264912456274e-04 -2.253205457236617804e-05
2.650000000000000000e+03 6.973174095153808594e+00 -8.306308746337890625e+00 1.760731264948844910e-02 -1.988782547414302826e-02 -6.841539288870990276e-04 -5.771514773368835449e-01
2.651000000000000000e+03 7.606722354888916016e+00 8.436291694641113281e+00 1.320300070801749825e-04 -1.529294182546436787e-03 -4.191792395431548357e-04 -1.917032524943351746e-03
2.652000000000000000e+03 7.057493591308593750e+01 -7.879533767700195312e+00 -3.619374036788940430e-01 1.796030700206756592e-01 -5.470029637217521667e-02 -5.192037820816040039e-01
2.653000000000000000e+03 6.876009368896484375e+01 -6.113633632659912109e+00 -2.738577425479888916e-01 3.686359524726867676e-01 2.843346260488033295e-02 -5.338602662086486816e-01
2.654000000000000000e+03 6.825875282287597656e+00 -9.358556747436523438e+00 9.346662461757659912e-02 -4.839797690510749817e-02 1.352059282362461090e-02 -5.676080584526062012e-01
2.655000000000000000e+03 9.479756355285644531e+00 -7.175910472869873047e+00 -9.333141893148422241e-02 2.594600617885589600e-01 4.983858764171600342e-02 -5.026463866233825684e-01
2.656000000000000000e+03 8.217606544494628906e+00 7.821918010711669922e+00 1.453936216421425343e-03 -3.773075295612215996e-03 -6.957417353987693787e-04 1.357861561700701714e-03
2.657000000000000000e+03 7.479918003082275391e+00 9.722005844116210938e+00 2.135664253728464246e-04 -2.221943112090229988e-03 -6.025129696354269981e-04 -7.934360182844102383e-04
2.658000000000000000e+03 3.482058715820312500e+01 -3.824599266052246094e+00 -1.613917708396911621e+00 9.186070442199707031e+00 2.271645784378051758e+00 2.028030604124069214e-01
2.659000000000000000e+03 7.206317138671875000e+01 -5.834233283996582031e+00 -1.764084398746490479e-01 4.873095080256462097e-02 -3.830324485898017883e-02 -5.958529710769653320e-01
2.660000000000000000e+03 7.012312316894531250e+01 -7.311264991760253906e+00 -3.443625569343566895e-01 2.251421511173248291e-01 -3.576612100005149841e-02 -5.478881597518920898e-01
2.661000000000000000e+03 7.106076049804687500e+01 -8.413473129272460938e+00 -3.650727272033691406e-01 1.616332530975341797e-01 -6.103184074163436890e-02 -5.172241330146789551e-01
2.662000000000000000e+03 6.757199096679687500e+01 -5.737264633178710938e+00 -2.388764172792434692e-01 4.797847867012023926e-01 7.227250933647155762e-02 -4.527955353260040283e-01
2.663000000000000000e+03 1.087353610992431641e+01 7.504295825958251953e+00 2.938474295660853386e-03 -7.051684078760445118e-04 6.699917721562087536e-04 3.010968444868922234e-03
2.664000000000000000e+03 8.959970474243164062e+00 8.574805259704589844e+00 -2.250930629088543355e-05 -1.754145137965679169e-03 -5.329963169060647488e-04 -9.806103771552443504e-04
2.665000000000000000e+03 4.166086578369140625e+01 -8.673325538635253906e+00 -1.574209690093994141e+00 5.807105064392089844e+00 1.269868612289428711e+00 -1.954398870468139648e+00
2.666000000000000000e+03 1.083818054199218750e+01 -7.644250869750976562e+00 -3.782860189676284790e-02 4.766176342964172363e-01 1.316367089748382568e-01 -4.083721041679382324e-01
2.667000000000000000e+03 1.110617733001708984e+01 -6.794873237609863281e+00 -1.606168746948242188e-01 4.057405889034271240e-01 7.353711873292922974e-02 -3.687097728252410889e-01
2.668000000000000000e+03 7.032392120361328125e+01 8.583241462707519531e+00 4.643001258373260498e-01 8.632699251174926758e-01 3.982710242271423340e-01 -1.477917283773422241e-01
2.669000000000000000e+03 7.232164764404296875e+01 -7.349877357482910156e+00 -2.313955128192901611e-01 3.950544819235801697e-02 -5.756701901555061340e-02 -5.455811619758605957e-01
2.670000000000000000e+03 7.334465980529785156e+00 -1.082921218872070312e+01 2.244054675102233887e-01 4.347854107618331909e-02 8.036520332098007202e-02 -5.169509053230285645e-01
2.671000000000000000e+03 1.570721912384033203e+01 -8.117138862609863281e+00 1.255466192960739136e-01 9.109844565391540527e-01 3.109593093395233154e-01 3.173421323299407959e-01
2.672000000000000000e+03 7.085170745849609375e+01 3.073403596878051758e+00 2.704155147075653076e-01 4.495901763439178467e-01 2.160017043352127075e-01 -4.838978052139282227e-01
2.673000000000000000e+03 6.932962799072265625e+01 -1.718496829271316528e-01 1.584208011627197266e-01 6.689282059669494629e-01 2.482047080993652344e-01 -5.129175782203674316e-01
2.674000000000000000e+03 6.867928981781005859e+00 1.259306907653808594e+01 -6.090557668358087540e-03 -2.200943854404613376e-04 -1.893195556476712227e-03 9.423751034773886204e-04
2.675000000000000000e+03 6.408453369140625000e+01 -2.396852970123291016e+00 1.032506152987480164e-01 1.357946515083312988e+00 4.383591413497924805e-01 8.142831921577453613e-02
2.676000000000000000e+03 6.539147949218750000e+01 -2.480383872985839844e+00 6.379204243421554565e-02 1.165235877037048340e+00 3.687083721160888672e-01 -1.341732293367385864e-01
2.677000000000000000e+03 6.624091339111328125e+01 -4.857217788696289062e+00 -1.305280625820159912e-01 7.036957144737243652e-01 1.719502955675125122e-01 -2.862156927585601807e-01
2.678000000000000000e+03 6.679039764404296875e+01 -5.994225502014160156e+00 -2.542620003223419189e-01 4.955865144729614258e-01 7.239735126495361328e-02 -3.557661771774291992e-01
2.679000000000000000e+03 6.259636688232421875e+01 -4.740165233612060547e+00 -1.087978109717369080e-01 1.195251345634460449e+00 3.259360790252685547e-01 3.378261625766754150e-01
2.680000000000000000e+03 1.146482753753662109e+01 -9.041529655456542969e+00 1.573034971952438354e-01 7.065614461898803711e-01 2.591594755649566650e-01 -3.245131969451904297e-01
2.681000000000000000e+03 6.803316497802734375e+01 4.976871490478515625e+00 5.128887891769409180e-01 1.481016635894775391e+00 5.981716513633728027e-01 -1.880345940589904785e-01
2.682000000000000000e+03 4.258441925048828125e+01 -1.165113544464111328e+01 2.075728923082351685e-01 5.838264465332031250e+00 1.813751220703125000e+00 -1.206090450286865234e+00
2.683000000000000000e+03 5.236248016357421875e+00 1.856032371520996094e+01 -2.724839560687541962e-02 -7.602012716233730316e-03 -1.045512221753597260e-02 3.012451715767383575e-02
2.684000000000000000e+03 1.057137584686279297e+01 -1.143523979187011719e+01 4.406256377696990967e-01 7.778717279434204102e-01 3.655492067337036133e-01 -3.329375684261322021e-01
2.685000000000000000e+03 9.280913352966308594e+00 -8.514790534973144531e+00 4.779862239956855774e-02 2.974865734577178955e-01 1.035855561494827271e-01 -5.131341218948364258e-01
2.686000000000000000e+03 7.060792541503906250e+01 -3.253371000289916992e+00 -3.398329764604568481e-02 2.743576169013977051e-01 7.211229205131530762e-02 -6.084066629409790039e-01
2.687000000000000000e+03 7.220993804931640625e+01 4.621873378753662109e+00 2.606125473976135254e-01 6.101536378264427185e-02 9.648837894201278687e-02 -4.344251453876495361e-01
2.688000000000000000e+03 7.184702301025390625e+01 3.703691005706787109e+00 2.680730223655700684e-01 1.924091130495071411e-01 1.381446421146392822e-01 -4.745501279830932617e-01
2.689000000000000000e+03 7.761751651763916016e+00 2.113244819641113281e+01 -8.155411481857299805e-02 2.911076880991458893e-02 -1.573300361633300781e-02 5.743698403239250183e-02
2.690000000000000000e+03 6.466459655761718750e+01 -3.228059053421020508e+00 3.288143500685691833e-02 1.135996818542480469e+00 3.506634533405303955e-01 -1.934345625340938568e-02
2.691000000000000000e+03 6.990952301025390625e+01 -6.621844768524169922e+00 -2.867706120014190674e-01 2.561870813369750977e-01 -9.175061248242855072e-03 -5.607417225837707520e-01
2.692000000000000000e+03 7.076250457763671875e+01 2.042903137207031250e+01 1.878125965595245361e-01 8.146029710769653320e-01 3.007246851921081543e-01 5.632069110870361328e-01
2.693000000000000000e+03 7.157771301269531250e+01 1.876293945312500000e+01 2.753303945064544678e-01 4.937601685523986816e-01 2.307271659374237061e-01 4.864969253540039062e-01
2.694000000000000000e+03 7.261939239501953125e+01 1.061667919158935547e+01 3.712102472782135010e-01 3.344010189175605774e-02 1.213951036334037781e-01 -5.752283707261085510e-02
2.695000000000000000e+03 6.975067901611328125e+01 1.116071033477783203e+01 5.318462848663330078e-01 1.227950334548950195e+00 5.279389619827270508e-01 3.424464911222457886e-02
2.696000000000000000e+03 7.663674354553222656e+00 1.180373191833496094e+01 -6.061753723770380020e-03 -4.440277814865112305e-03 -3.150609321892261505e-03 -3.259766148403286934e-03
2.697000000000000000e+03 6.321275329589843750e+01 2.432089042663574219e+01 -3.837311267852783203e-01 2.354109287261962891e+00 5.911135077476501465e-01 -2.846995294094085693e-01
2.698000000000000000e+03 6.970044708251953125e+01 1.393475055694580078e+01 5.792432427406311035e-01 1.245650291442871094e+00 5.474680662155151367e-01 1.817162036895751953e-01
2.699000000000000000e+03 7.028627014160156250e+01 -1.991857290267944336e+00 3.996467217803001404e-02 3.739307224750518799e-01 1.241686120629310608e-01 -6.011194586753845215e-01
2.700000000000000000e+03 7.751660346984863281e+00 -2.145736312866210938e+01 3.086605966091156006e-01 3.468269705772399902e-01 1.966462731361389160e-01 2.642959654331207275e-01
2.701000000000000000e+03 6.623752593994140625e+01 5.292966842651367188e+00 6.196838021278381348e-01 2.181190967559814453e+00 8.402624130249023438e-01 6.607773154973983765e-02
2.702000000000000000e+03 6.642171478271484375e+01 2.724058151245117188e+00 4.463201165199279785e-01 1.710051178932189941e+00 6.469113826751708984e-01 -1.146046966314315796e-01
2.703000000000000000e+03 7.805067062377929688e+00 -9.829658508300781250e+00 1.537882238626480103e-01 1.254177242517471313e-01 8.376178145408630371e-02 -5.465351343154907227e-01
2.704000000000000000e+03 1.006569766998291016e+01 -7.394376754760742188e+00 -7.110426574945449829e-02 3.233910799026489258e-01 7.568604499101638794e-02 -4.685229063034057617e-01
2.705000000000000000e+03 7.064051818847656250e+01 -6.768851280212402344e+00 -2.796795368194580078e-01 1.828671842813491821e-01 -2.904370985925197601e-02 -5.732592344284057617e-01
2.706000000000000000e+03 7.053560638427734375e+01 -4.308331966400146484e+00 -1.118007078766822815e-01 2.522115409374237061e-01 4.212325438857078552e-02 -6.169406175613403320e-01
2.707000000000000000e+03 6.883161926269531250e+01 -3.584135293960571289e+00 -4.730654135346412659e-02 5.039252638816833496e-01 1.369856148958206177e-01 -5.379120111465454102e-01
2.708000000000000000e+03 6.786389160156250000e+01 -4.338871955871582031e+00 -1.131282672286033630e-01 5.876427888870239258e-01 1.423543542623519897e-01 -4.486409127712249756e-01
2.709000000000000000e+03 4.208383560180664062e+01 -9.534399986267089844e+00 -1.030148029327392578e+00 5.637448310852050781e+00 1.382190108299255371e+00 -1.615830540657043457e+00
2.710000000000000000e+03 4.045557403564453125e+01 -8.682967185974121094e+00 -1.795607328414916992e+00 6.744436740875244141e+00 1.484648704528808594e+00 -2.120659351348876953e+00
2.711000000000000000e+03 1.000488090515136719e+01 -1.058531188964843750e+01 3.202816843986511230e-01 5.932002067565917969e-01 2.740445733070373535e-01 -4.150125384330749512e-01
2.712000000000000000e+03 6.644525146484375000e+01 -3.901853799819946289e+00 -6.062817201018333435e-02 7.864330410957336426e-01 2.177414596080780029e-01 -2.861594855785369873e-01
2.713000000000000000e+03 7.176016998291015625e+01 -7.918160438537597656e+00 -3.133540749549865723e-01 9.076222777366638184e-02 -6.677754968404769897e-02 -5.121348500251770020e-01
2.714000000000000000e+03 6.884037017822265625e+01 9.673602581024169922e-01 2.525179684162139893e-01 8.767871260643005371e-01 3.387915492057800293e-01 -4.298874735832214355e-01
2.715000000000000000e+03 6.656256103515625000e+01 6.577882170677185059e-02 2.460721433162689209e-01 1.323172450065612793e+00 4.707733690738677979e-01 -2.069561034440994263e-01
2.716000000000000000e+03 6.999928283691406250e+01 5.753922939300537109e+00 4.279682934284210205e-01 8.807032108306884766e-01 3.926014602184295654e-01 -3.006391525268554688e-01
2.717000000000000000e+03 9.762169837951660156e+00 9.370664596557617188e+00 -1.616193912923336029e-03 -3.243697341531515121e-03 -1.457967329770326614e-03 3.298235358670353889e-03
2.718000000000000000e+03 5.499780654907226562e+00 -1.724843025207519531e+01 2.859440147876739502e-01 -3.671848773956298828e-01 -2.437225356698036194e-02 -3.964728862047195435e-02
2.719000000000000000e+03 7.078017425537109375e+01 -5.362984180450439453e+00 -1.822328716516494751e-01 2.045709341764450073e-01 6.701418198645114899e-03 -6.038019061088562012e-01
2.720000000000000000e+03 6.975305175781250000e+01 -5.704987049102783203e+00 -2.266038507223129272e-01 2.776989042758941650e-01 1.532851066440343857e-02 -5.790349841117858887e-01
2.721000000000000000e+03 9.187209129333496094e+00 -1.115521812438964844e+01 3.374630808830261230e-01 4.567744433879852295e-01 2.382712513208389282e-01 -4.389926493167877197e-01
2.722000000000000000e+03 5.229152679443359375e+00 -9.875701904296875000e+00 8.564151823520660400e-02 -3.295769691467285156e-01 -7.318063080310821533e-02 -5.200436115264892578e-01
2.723000000000000000e+03 1.051652336120605469e+01 -8.511723518371582031e+00 6.022102385759353638e-02 4.747656583786010742e-01 1.604960113763809204e-01 -4.366940259933471680e-01
2.724000000000000000e+03 6.548182678222656250e+01 -3.729671001434326172e+00 -4.780470952391624451e-02 9.417454004287719727e-01 2.681822180747985840e-01 -1.718205213546752930e-01
2.725000000000000000e+03 7.552201271057128906e+00 1.995455169677734375e+01 -5.603665113449096680e-02 1.676825806498527527e-02 -1.178051810711622238e-02 3.874921426177024841e-02
2.726000000000000000e+03 8.079428672790527344e+00 1.873644065856933594e+01 -6.140318140387535095e-02 2.353984862565994263e-02 -1.135899964720010757e-02 1.823101192712783813e-02
2.727000000000000000e+03 6.876628112792968750e+01 6.014965057373046875e+00 5.136166810989379883e-01 1.289757251739501953e+00 5.410121679306030273e-01 -2.029690891504287720e-01
2.728000000000000000e+03 7.091636657714843750e+01 -2.394379854202270508e+00 -1.313002593815326691e-02 2.485052198171615601e-01 7.061255723237991333e-02 -6.267772316932678223e-01
2.729000000000000000e+03 6.595440673828125000e+01 1.139583110809326172e+00 3.618704676628112793e-01 1.585494637489318848e+00 5.842095017433166504e-01 -1.130908876657485962e-01
2.730000000000000000e+03 6.594353485107421875e+01 -1.310496211051940918e+00 1.527485996484756470e-01 1.258268713951110840e+00 4.233052134513854980e-01 -1.692266315221786499e-01
2.731000000000000000e+03 7.177703094482421875e+01 4.552076756954193115e-01 1.164817139506340027e-01 1.360524594783782959e-01 7.576025277376174927e-02 -5.961365699768066406e-01
2.732000000000000000e+03 4.051023864746093750e+01 2.244428634643554688e+01 1.194072365760803223e-01 3.838500976562500000e+00 1.187372446060180664e+00 1.202439427375793457e+00
2.733000000000000000e+03 1.200610065460205078e+01 2.877394866943359375e+01 5.920603126287460327e-02 1.525277495384216309e-01 6.352013349533081055e-02 6.901279091835021973e-02
2.734000000000000000e+03 7.038043212890625000e+01 1.292577075958251953e+01 4.978932738304138184e-01 9.515644311904907227e-01 4.348373115062713623e-01 1.145389303565025330e-01
2.735000000000000000e+03 6.887502288818359375e+01 3.888069629669189453e+00 4.109772741794586182e-01 1.092002987861633301e+00 4.508940577507019043e-01 -3.188242614269256592e-01
2.736000000000000000e+03 7.127855682373046875e+01 4.629263401031494141e+00 3.194645047187805176e-01 4.019141793251037598e-01 2.164136022329330444e-01 -4.149627387523651123e-01
2.737000000000000000e+03 7.100089263916015625e+01 1.171490859985351562e+01 4.906683862209320068e-01 6.783448457717895508e-01 3.507039546966552734e-01 3.863620012998580933e-02
2.738000000000000000e+03 8.504440307617187500e+00 -2.751035118103027344e+01 -1.128745004534721375e-01 4.256327152252197266e-01 9.382746368646621704e-02 3.384418785572052002e-01
2.739000000000000000e+03 6.428643035888671875e+01 -5.015063285827636719e+00 -1.197699010372161865e-01 8.888916969299316406e-01 2.307365387678146362e-01 1.066282298415899277e-02
2.740000000000000000e+03 6.469324493408203125e+01 2.350170707702636719e+01 -2.212238758802413940e-01 2.368483304977416992e+00 6.441778540611267090e-01 9.402486681938171387e-02
2.741000000000000000e+03 6.707753753662109375e+01 1.632803678512573242e+00 3.565960228443145752e-01 1.414192199707031250e+00 5.312364697456359863e-01 -2.189959585666656494e-01
2.742000000000000000e+03 6.762133026123046875e+01 3.260844707489013672e+00 4.615591466426849365e-01 1.456267237663269043e+00 5.753479003906250000e-01 -2.243663072586059570e-01
2.743000000000000000e+03 9.297914505004882812e+00 -9.816412925720214844e+00 1.997495442628860474e-01 3.893460035324096680e-01 1.767286658287048340e-01 -4.905671179294586182e-01
2.744000000000000000e+03 6.802034759521484375e+01 -2.686041831970214844e+00 1.200145110487937927e-02 7.179480195045471191e-01 2.189848423004150391e-01 -4.553928077220916748e-01
2.745000000000000000e+03 7.241743469238281250e+01 1.208463954925537109e+01 3.751912117004394531e-01 1.418006867170333862e-01 1.550975739955902100e-01 6.010643765330314636e-02
2.746000000000000000e+03 9.980962753295898438e+00 -9.216843605041503906e+00 1.324384659528732300e-01 4.543187022209167480e-01 1.760271489620208740e-01 -4.578969478607177734e-01
2.747000000000000000e+03 6.766857147216796875e+01 5.022123456001281738e-01 2.524816691875457764e-01 1.117654442787170410e+00 4.110408127307891846e-01 -3.535265922546386719e-01
2.748000000000000000e+03 6.819117736816406250e+01 -7.007917761802673340e-01 1.490166634321212769e-01 8.853850960731506348e-01 3.103205263614654541e-01 -4.174154996871948242e-01
2.749000000000000000e+03 7.328505706787109375e+01 6.788395881652832031e+00 2.506857216358184814e-01 -2.415459007024765015e-01 2.741945208981633186e-03 -3.194423615932464600e-01
2.750000000000000000e+03 4.245213699340820312e+01 -8.172300338745117188e+00 -1.746188759803771973e+00 4.991411685943603516e+00 9.735668301582336426e-01 -1.817234158515930176e+00
2.751000000000000000e+03 4.247711563110351562e+01 -6.075692176818847656e+00 -2.443948507308959961e+00 4.194183349609375000e+00 5.250705480575561523e-01 -2.049500703811645508e+00
2.752000000000000000e+03 7.012256622314453125e+01 9.932370185852050781e+00 5.139070749282836914e-01 9.707262516021728516e-01 4.453900158405303955e-01 -4.710661619901657104e-02
2.753000000000000000e+03 7.409919738769531250e+01 9.435256004333496094e+00 2.513246834278106689e-01 -5.380726456642150879e-01 -8.602438867092132568e-02 -1.460814923048019409e-01
2.754000000000000000e+03 6.349657821655273438e+01 2.087157058715820312e+01 2.974615097045898438e-01 3.411723613739013672e+00 1.112755537033081055e+00 -1.963603347539901733e-01
2.755000000000000000e+03 3.949827957153320312e+01 2.512051582336425781e+01 -2.142111212015151978e-01 4.056803703308105469e+00 1.152777791023254395e+00 1.006330013275146484e+00
2.756000000000000000e+03 7.010031890869140625e+01 1.401691675186157227e+00 2.253104448318481445e-01 5.884913206100463867e-01 2.441405206918716431e-01 -5.121045112609863281e-01
2.757000000000000000e+03 6.729787445068359375e+01 -3.573793888092041016e+00 -3.427123278379440308e-02 7.192155122756958008e-01 2.054832726716995239e-01 -3.826908171176910400e-01
2.758000000000000000e+03 6.883443450927734375e+01 -1.822347283363342285e+00 7.840266078710556030e-02 6.539763212203979492e-01 2.197137027978897095e-01 -5.034822225570678711e-01
2.759000000000000000e+03 6.841046142578125000e+01 -5.188947677612304688e+00 -1.825247555971145630e-01 4.367665648460388184e-01 7.627254724502563477e-02 -5.095542669296264648e-01
2.760000000000000000e+03 6.953898620605468750e+01 2.618657827377319336e+00 3.202710747718811035e-01 8.025630116462707520e-01 3.368502259254455566e-01 -4.228389561176300049e-01
2.761000000000000000e+03 6.941287231445312500e+01 -4.621363639831542969e+00 -1.382582932710647583e-01 3.804987072944641113e-01 7.267212122678756714e-02 -5.700973868370056152e-01
2.762000000000000000e+03 7.227011871337890625e+01 6.721305847167968750e+00 3.071950674057006836e-01 6.073099002242088318e-02 1.103778108954429626e-01 -3.019692003726959229e-01
2.763000000000000000e+03 7.310671234130859375e+01 7.984766483306884766e+00 3.153837919235229492e-01 -1.839231103658676147e-01 3.943820670247077942e-02 -2.333863228559494019e-01
2.764000000000000000e+03 1.101356029510498047e+01 3.173320579528808594e+01 8.864825218915939331e-02 1.952150911092758179e-01 8.515900373458862305e-02 4.451194778084754944e-02
2.765000000000000000e+03 6.827249145507812500e+01 2.128599405288696289e+00 3.323375284671783447e-01 1.129431009292602539e+00 4.385305643081665039e-01 -3.575437068939208984e-01
2.766000000000000000e+03 6.707364654541015625e+01 -2.183563947677612305e+00 8.551104366779327393e-02 9.343934059143066406e-01 3.059713244438171387e-01 -3.255501091480255127e-01
2.767000000000000000e+03 7.118363189697265625e+01 5.731981277465820312e+00 3.755578994750976562e-01 4.586521983146667480e-01 2.502630352973937988e-01 -3.419801294803619385e-01
2.768000000000000000e+03 3.878384780883789062e+01 1.645861053466796875e+01 6.480287909507751465e-01 5.893546104431152344e+00 1.962472438812255859e+00 1.086909055709838867e+00
2.769000000000000000e+03 2.658799934387207031e+01 -3.490279388427734375e+01 1.178940013051033020e-01 9.149215221405029297e-01 3.098446428775787354e-01 3.722991347312927246e-01
2.770000000000000000e+03 4.632281112670898438e+01 2.294571685791015625e+01 2.064885646104812622e-01 1.457426786422729492e+00 4.991745948791503906e-01 9.452509284019470215e-01
2.771000000000000000e+03 6.982535552978515625e+01 2.834281539916992188e+01 -2.904213070869445801e-01 8.571155667304992676e-01 1.700082719326019287e-01 4.256550967693328857e-01
2.772000000000000000e+03 3.671068572998046875e+01 1.681522941589355469e+01 7.911824584007263184e-01 7.605013370513916016e+00 2.518858671188354492e+00 2.137091308832168579e-01
2.773000000000000000e+03 9.300742149353027344e+00 -2.881400680541992188e+01 -1.656439602375030518e-01 5.175290703773498535e-01 1.055655330419540405e-01 2.689194381237030029e-01
2.774000000000000000e+03 3.010078239440917969e+01 -3.283271026611328125e+01 -3.263396769762039185e-02 1.711953520774841309e+00 5.037958621978759766e-01 8.648223876953125000e-01
2.775000000000000000e+03 1.250544357299804688e+01 -3.089422225952148438e+01 -2.833314538002014160e-01 7.663140296936035156e-01 1.448947638273239136e-01 2.106006816029548645e-02
2.776000000000000000e+03 4.161179351806640625e+01 2.423777389526367188e+01 2.882911590859293938e-03 3.318457365036010742e+00 9.964020848274230957e-01 1.159392118453979492e+00
2.777000000000000000e+03 6.234951019287109375e+01 2.925346183776855469e+01 -3.696800768375396729e-01 1.528844833374023438e+00 3.477494418621063232e-01 -2.636336982250213623e-01
2.778000000000000000e+03 4.870727157592773438e+01 -3.359706115722656250e+01 -3.110224008560180664e-01 3.800610303878784180e+00 1.046876430511474609e+00 -1.546269416809082031e+00
2.779000000000000000e+03 2.647146606445312500e+01 2.777087211608886719e+01 6.120963953435420990e-03 2.628396272659301758e+00 7.903552055358886719e-01 -1.349609851837158203e+00
2.780000000000000000e+03 2.504203414916992188e+01 2.676143455505371094e+01 3.447337746620178223e-01 1.665786385536193848e+00 6.031560301780700684e-01 -1.235732078552246094e+00
2.781000000000000000e+03 3.236623001098632812e+01 2.898191261291503906e+01 -7.662714123725891113e-01 4.306445598602294922e+00 1.062052130699157715e+00 -4.847466945648193359e-01
2.782000000000000000e+03 4.659287643432617188e+01 2.662486457824707031e+01 7.579676061868667603e-02 1.735122442245483398e+00 5.432757735252380371e-01 8.844123482704162598e-01
2.783000000000000000e+03 4.373135375976562500e+01 2.802470397949218750e+01 -1.749075800180435181e-01 2.632255077362060547e+00 7.372042536735534668e-01 9.090386033058166504e-01
2.784000000000000000e+03 7.533482360839843750e+01 3.749269866943359375e+01 -5.237817391753196716e-02 -7.775293290615081787e-02 -3.903933241963386536e-02 9.809582680463790894e-02
2.785000000000000000e+03 7.642559051513671875e+01 3.571933746337890625e+01 -3.242915496230125427e-02 -2.268366217613220215e-01 -7.777973264455795288e-02 1.274313479661941528e-01
2.786000000000000000e+03 3.518267440795898438e+01 2.871576881408691406e+01 -7.548506259918212891e-01 4.461750030517578125e+00 1.112069725990295410e+00 1.487135440111160278e-01
2.787000000000000000e+03 4.525066375732421875e+01 -3.485223770141601562e+01 -9.462439417839050293e-01 5.252753257751464844e+00 1.291952848434448242e+00 -7.552873492240905762e-01
2.788000000000000000e+03 1.857264518737792969e+01 -3.528717803955078125e+01 -1.172947585582733154e-01 6.189386248588562012e-01 1.504931598901748657e-01 -2.609993219375610352e-01
2.789000000000000000e+03 2.250497245788574219e+01 3.030474472045898438e+01 1.306853741407394409e-01 1.352916955947875977e+00 4.450806975364685059e-01 -7.494277358055114746e-01
2.790000000000000000e+03 6.950070190429687500e+01 2.557053375244140625e+01 -2.083857357501983643e-01 1.020217299461364746e+00 2.435494512319564819e-01 4.903512001037597656e-01
2.791000000000000000e+03 7.574929046630859375e+01 2.949007797241210938e+01 -8.197727799415588379e-02 -3.168719112873077393e-01 -1.196547597646713257e-01 3.464187085628509521e-01
2.792000000000000000e+03 6.923163604736328125e+01 3.118212699890136719e+01 -3.215717077255249023e-01 8.525695800781250000e-01 1.592993587255477905e-01 2.851698398590087891e-01
2.793000000000000000e+03 2.460545921325683594e+01 2.991608238220214844e+01 -4.773076996207237244e-02 1.978327631950378418e+00 5.791790485382080078e-01 -1.017406463623046875e+00
2.794000000000000000e+03 4.250910568237304688e+01 2.620632362365722656e+01 -1.379679888486862183e-01 3.003745317459106445e+00 8.597332239151000977e-01 1.063183069229125977e+00
2.795000000000000000e+03 6.863933563232421875e+01 2.692787742614746094e+01 -2.945939600467681885e-01 1.113106012344360352e+00 2.455536276102066040e-01 4.193194806575775146e-01
2.796000000000000000e+03 6.816656494140625000e+01 2.474819564819335938e+01 -2.149498313665390015e-01 1.419043540954589844e+00 3.612281084060668945e-01 4.479156434535980225e-01
2.797000000000000000e+03 6.576071166992187500e+01 2.504845619201660156e+01 -3.454929888248443604e-01 1.929493546485900879e+00 4.752001762390136719e-01 1.981405615806579590e-01
2.798000000000000000e+03 7.024213409423828125e+01 2.433139228820800781e+01 -1.044201925396919250e-01 9.038512110710144043e-01 2.398293018341064453e-01 5.660077929496765137e-01
2.799000000000000000e+03 3.951791763305664062e+01 3.091637849807739258e+00 3.800516724586486816e-01 3.310745000839233398e+00 1.107239007949829102e+00 1.216852903366088867e+00
2.800000000000000000e+03 4.003231430053710938e+01 -3.296694457530975342e-01 2.225417852401733398e+00 2.337381124496459961e+00 1.368839740753173828e+00 -2.897938728332519531e+00
2.801000000000000000e+03 3.924980163574218750e+01 -4.046430587768554688e-01 3.704231023788452148e+00 5.805436611175537109e+00 2.852900266647338867e+00 -5.746955871582031250e+00
2.802000000000000000e+03 3.895532989501953125e+01 -4.607921838760375977e-01 3.420140027999877930e+00 7.853061676025390625e+00 3.381960630416870117e+00 -6.609691143035888672e+00
2.803000000000000000e+03 3.932096481323242188e+01 3.003335952758789062e+00 2.774448320269584656e-02 4.566236019134521484e+00 1.378194212913513184e+00 1.409986138343811035e+00
2.804000000000000000e+03 3.561077499389648438e+01 2.240846157073974609e+00 2.887112855911254883e+00 1.541303920745849609e+01 5.490045547485351562e+00 -3.167877435684204102e+00
2.805000000000000000e+03 2.234219551086425781e+01 -3.061109924316406250e+01 -4.793876111507415771e-01 3.451938927173614502e-01 -4.025811329483985901e-02 -2.657386958599090576e-01
2.806000000000000000e+03 2.613456249237060547e+00 -3.799117660522460938e+01 -7.041472010314464569e-03 -3.594029843807220459e-01 -1.099333390593528748e-01 9.045405685901641846e-02
2.807000000000000000e+03 2.465186500549316406e+01 -1.619071364402770996e+00 2.885481119155883789e-01 -3.810228034853935242e-02 7.513374835252761841e-02 5.286170840263366699e-01
2.808000000000000000e+03 3.698344945907592773e+00 -3.612123870849609375e+01 -3.048764169216156006e-02 -2.748917341232299805e-01 -9.161381423473358154e-02 1.046619191765785217e-01
2.809000000000000000e+03 1.430235862731933594e+00 -3.286432981491088867e+00 -3.441919386386871338e-02 -1.762932837009429932e-01 -6.321374326944351196e-02 -1.363588869571685791e-01
2.810000000000000000e+03 7.785871887207031250e+01 3.708758926391601562e+01 -1.547698862850666046e-02 -3.024656176567077637e-01 -9.538277983665466309e-02 8.056438714265823364e-02
2.811000000000000000e+03 3.793979644775390625e+01 3.027780532836914062e+00 -1.743947625160217285e+00 1.546428775787353516e+01 4.116102218627929688e+00 1.960834145545959473e+00
2.812000000000000000e+03 7.738465881347656250e+01 -1.315082740783691406e+01 -5.119197443127632141e-02 -6.862082332372665405e-02 -3.594383969902992249e-02 -7.986054569482803345e-02
2.813000000000000000e+03 3.891321945190429688e+01 -7.403181195259094238e-01 2.626431465148925781e+00 9.131388664245605469e+00 3.527346134185791016e+00 -6.656816482543945312e+00
2.814000000000000000e+03 7.699742126464843750e+01 -1.266317272186279297e+01 -6.079050153493881226e-02 -7.038111239671707153e-02 -3.935148194432258606e-02 -1.094520390033721924e-01
2.815000000000000000e+03 3.909809112548828125e+01 -1.155333161354064941e+00 2.083027124404907227e+00 8.621150970458984375e+00 3.211253404617309570e+00 -5.946350574493408203e+00
2.816000000000000000e+03 7.176750183105468750e+01 -1.896350288391113281e+01 3.254058538004755974e-03 -2.804919146001338959e-03 1.347418292425572872e-04 1.692237448878586292e-03
2.817000000000000000e+03 4.771906661987304688e+01 -3.076414680480957031e+01 4.542291462421417236e-01 5.078030109405517578e+00 1.659677743911743164e+00 -2.165242910385131836e+00
2.818000000000000000e+03 5.466155242919921875e+01 -1.364831542968750000e+01 1.238452792167663574e+00 2.592575550079345703e-01 4.493131041526794434e-01 9.635788798332214355e-01
2.819000000000000000e+03 5.390164947509765625e+01 -1.304488658905029297e+01 1.270286440849304199e+00 4.022402167320251465e-01 5.017580389976501465e-01 1.289003849029541016e+00
2.820000000000000000e+03 2.776289176940917969e+01 2.444651985168457031e+01 5.376110672950744629e-01 3.124922513961791992e+00 1.098760008811950684e+00 -1.891937375068664551e+00
2.821000000000000000e+03 1.960162162780761719e+00 3.698767852783203125e+01 4.220009781420230865e-03 -3.441869616508483887e-01 -1.019900888204574585e-01 1.267850678414106369e-02
2.822000000000000000e+03 5.403787994384765625e+01 -3.191839790344238281e+01 -1.314313709735870361e-01 3.186430335044860840e-01 5.616349726915359497e-02 -4.278327822685241699e-01
2.823000000000000000e+03 7.670621490478515625e+01 3.317002105712890625e+01 -4.203107580542564392e-02 -3.177607953548431396e-01 -1.079375594854354858e-01 1.830605417490005493e-01
2.824000000000000000e+03 7.296114349365234375e+01 3.552352142333984375e+01 -1.516765654087066650e-01 2.206313759088516235e-01 2.068644389510154724e-02 1.979753822088241577e-01
2.825000000000000000e+03 3.852069091796875000e+01 -1.732206702232360840e+00 -8.879277855157852173e-02 1.123471164703369141e+01 3.343775749206542969e+00 -4.450825214385986328e+00
2.826000000000000000e+03 6.248022079467773438e+01 2.260270881652832031e+01 -9.974323958158493042e-02 2.645709276199340820e+00 7.637898325920104980e-01 -3.590261042118072510e-01
2.827000000000000000e+03 3.717239761352539062e+01 4.705728530883789062e+00 -8.516661524772644043e-01 1.441000843048095703e+01 4.067502498626708984e+00 -4.884812608361244202e-02
2.828000000000000000e+03 7.478198242187500000e+01 2.577103996276855469e+01 -5.612354353070259094e-02 -3.190506994724273682e-01 -1.125522702932357788e-01 4.928408265113830566e-01
2.829000000000000000e+03 7.530297088623046875e+01 1.939674758911132812e+01 9.692861884832382202e-02 -7.626834511756896973e-01 -1.997264474630355835e-01 4.148958623409271240e-01
2.830000000000000000e+03 4.425129699707031250e+01 1.690009307861328125e+01 5.258119106292724609e-01 1.254177808761596680e+00 5.339969396591186523e-01 8.147816658020019531e-01
2.831000000000000000e+03 1.022724628448486328e+01 -1.598409366607666016e+01 6.885740160942077637e-01 1.061239242553710938e+00 5.249439477920532227e-01 -2.286977879703044891e-02
2.832000000000000000e+03 4.657994842529296875e+01 -3.260434341430664062e+01 -5.911167263984680176e-01 5.258390426635742188e+00 1.400182127952575684e+00 -1.268583893775939941e+00
2.833000000000000000e+03 4.644537734985351562e+01 -9.141881942749023438e+00 -6.932374238967895508e-01 1.861634850502014160e+00 3.505192399024963379e-01 1.840009838342666626e-01
2.834000000000000000e+03 2.865779113769531250e+01 -3.401150131225585938e+01 7.495102286338806152e-02 1.199560403823852539e+00 3.823534250259399414e-01 7.004128098487854004e-01
2.835000000000000000e+03 3.001786422729492188e+01 2.832698249816894531e+01 -4.916518032550811768e-01 3.978544235229492188e+00 1.046067714691162109e+00 -9.862412214279174805e-01
2.836000000000000000e+03 6.675310516357421875e+01 1.566413688659667969e+01 6.998366117477416992e-01 2.639456272125244141e+00 1.001787781715393066e+00 1.468533277511596680e-01
2.837000000000000000e+03 6.602532958984375000e+01 2.238165473937988281e+01 5.819058045744895935e-02 2.219846725463867188e+00 6.834112405776977539e-01 3.298800289630889893e-01
2.838000000000000000e+03 1.102212905883789062e+01 -2.293590354919433594e+01 2.946559190750122070e-01 1.234732389450073242e+00 4.588164985179901123e-01 2.356538176536560059e-01
2.839000000000000000e+03 5.468416213989257812e+01 -1.223137760162353516e+01 7.926393151283264160e-01 4.882291257381439209e-01 3.842605352401733398e-01 1.427562952041625977e+00
2.840000000000000000e+03 5.390292739868164062e+01 -1.153427886962890625e+01 6.381077766418457031e-01 7.094622254371643066e-01 4.042710065841674805e-01 1.826488852500915527e+00
2.841000000000000000e+03 2.476754760742187500e+01 -2.729189157485961914e+00 2.994184195995330811e-01 2.349386550486087799e-02 9.687368571758270264e-02 7.668884992599487305e-01
2.842000000000000000e+03 1.705434608459472656e+01 -9.233596801757812500e+00 4.313260018825531006e-01 1.115103363990783691e+00 4.639288187026977539e-01 6.170994043350219727e-01
2.843000000000000000e+03 5.661387634277343750e+01 -1.084197330474853516e+01 -1.529918909072875977e-01 8.607385754585266113e-01 2.123240083456039429e-01 1.324605345726013184e+00
2.844000000000000000e+03 5.426649475097656250e+01 -3.577194213867187500e+01 1.731417030096054077e-01 9.676409363746643066e-01 3.422347903251647949e-01 -5.310851931571960449e-01
2.845000000000000000e+03 5.612847137451171875e+01 -3.430664825439453125e+01 1.345314979553222656e-01 3.005893528461456299e-01 1.305362582206726074e-01 -2.218136787414550781e-01
2.846000000000000000e+03 7.175846862792968750e+01 -2.144883346557617188e+01 -3.064278746023774147e-03 1.597231253981590271e-03 -4.401142068672925234e-04 -2.628868969622999430e-04
2.847000000000000000e+03 1.803878211975097656e+01 2.470991516113281250e+01 4.690566658973693848e-02 5.071036890149116516e-02 2.928481064736843109e-02 -1.085698828101158142e-01
2.848000000000000000e+03 4.434326171875000000e+00 -1.998613166809082031e+01 1.653852611780166626e-01 -6.400545239448547363e-01 -1.424007862806320190e-01 1.349369138479232788e-01
2.849000000000000000e+03 7.566745758056640625e+01 3.276358032226562500e+01 -7.703185826539993286e-02 -1.656485050916671753e-01 -7.280410826206207275e-02 2.350877523422241211e-01
2.850000000000000000e+03 1.053272533416748047e+01 -3.018930816650390625e+01 -2.489733994007110596e-01 6.364349126815795898e-01 1.162384599447250366e-01 1.475396603345870972e-01
2.851000000000000000e+03 2.410888862609863281e+01 2.857909202575683594e+01 2.410569787025451660e-01 1.604748010635375977e+00 5.537414550781250000e-01 -1.119046568870544434e+00
2.852000000000000000e+03 2.504832649230957031e+01 2.812065315246582031e+01 1.584995388984680176e-01 1.933848381042480469e+00 6.277043819427490234e-01 -1.148217201232910156e+00
2.853000000000000000e+03 1.563933658599853516e+01 5.929739952087402344e+00 -1.749081769958138466e-03 -1.107495278120040894e-03 -8.569731144234538078e-04 -1.045635872287675738e-04
2.854000000000000000e+03 7.097180175781250000e+01 3.003578567504882812e+01 -2.577657997608184814e-01 6.021240949630737305e-01 1.033074855804443359e-01 3.641859889030456543e-01
2.855000000000000000e+03 1.854681015014648438e+01 -6.935882091522216797e+00 2.104067802429199219e-02 5.974702239036560059e-01 1.855532675981521606e-01 6.632852554321289062e-01
2.856000000000000000e+03 1.755187225341796875e+01 -7.606758594512939453e+00 1.023920103907585144e-01 7.537850141525268555e-01 2.568531036376953125e-01 5.796423554420471191e-01
2.857000000000000000e+03 3.724522781372070312e+01 -4.121008872985839844e+00 -2.621034860610961914e+00 1.072320938110351562e+01 2.430652379989624023e+00 -1.789982557296752930e+00
2.858000000000000000e+03 6.980854988098144531e+00 -2.206425094604492188e+01 2.289938777685165405e-01 9.007440507411956787e-02 9.572048485279083252e-02 2.963901460170745850e-01
2.859000000000000000e+03 2.264743232727050781e+01 -6.480365276336669922e+00 -1.527960598468780518e-02 3.322875499725341797e-01 9.510238468647003174e-02 8.609369397163391113e-01
2.860000000000000000e+03 6.667400360107421875e+01 9.500496864318847656e+00 6.510707736015319824e-01 2.594265460968017578e+00 9.736008644104003906e-01 1.906975060701370239e-01
2.861000000000000000e+03 9.748743057250976562e+00 -1.719097900390625000e+01 6.418606042861938477e-01 9.350278377532958984e-01 4.730665385723114014e-01 2.245971001684665680e-02
2.862000000000000000e+03 6.589741516113281250e+01 -3.029439735412597656e+01 -1.478841900825500488e-01 4.289695620536804199e-02 -3.149617090821266174e-02 5.722560361027717590e-02
2.863000000000000000e+03 2.586747169494628906e+01 2.889080619812011719e+01 -3.147729113698005676e-02 2.420619726181030273e+00 7.167427539825439453e-01 -1.178439974784851074e+00
2.864000000000000000e+03 6.163318252563476562e+01 2.482501983642578125e+01 -2.951287329196929932e-01 2.001929283142089844e+00 5.120401978492736816e-01 -5.828802585601806641e-01
2.865000000000000000e+03 3.613904953002929688e+01 1.576860427856445312e+01 8.378417491912841797e-01 8.869275093078613281e+00 2.912134885787963867e+00 -2.655040323734283447e-01
2.866000000000000000e+03 4.231509017944335938e+01 -1.709037208557128906e+01 2.332352399826049805e+00 7.942104339599609375e+00 3.082337141036987305e+00 -6.660771965980529785e-01
2.867000000000000000e+03 4.135228729248046875e+01 -7.226182937622070312e+00 -2.243614673614501953e+00 5.803654193878173828e+00 1.068011879920959473e+00 -2.247730016708374023e+00
2.868000000000000000e+03 3.357957839965820312e+01 -2.861482620239257812e+00 1.287090964615345001e-02 7.077118873596191406e+00 2.126996994018554688e+00 1.416921854019165039e+00
2.869000000000000000e+03 2.411008262634277344e+01 -8.049654006958007812e+00 -2.104151248931884766e-01 3.858580887317657471e-01 5.263289064168930054e-02 7.034724950790405273e-01
2.870000000000000000e+03 1.487767314910888672e+01 5.724028110504150391e+00 6.336656515486538410e-04 3.323754062876105309e-03 1.187225920148193836e-03 6.399339763447642326e-04
2.871000000000000000e+03 2.781480216979980469e+01 -3.212348699569702148e+00 8.754887580871582031e-01 1.575693041086196899e-01 3.099174201488494873e-01 1.016669631004333496e+00
2.872000000000000000e+03 2.565157699584960938e+01 2.732510185241699219e+01 1.536861509084701538e-01 2.256541252136230469e+00 7.230682373046875000e-01 -1.402316331863403320e+00
2.873000000000000000e+03 6.719553375244140625e+01 5.755996227264404297e+00 5.847432017326354980e-01 1.864235997200012207e+00 7.346937656402587891e-01 -5.331601575016975403e-02
2.874000000000000000e+03 7.477799224853515625e+01 -2.050565147399902344e+01 -5.824935622513294220e-03 -1.572671462781727314e-03 -2.219282090663909912e-03 8.608271018601953983e-04
2.875000000000000000e+03 7.595891571044921875e+01 -2.044350242614746094e+01 -2.075443509966135025e-03 -2.011834178119897842e-03 -1.226183259859681129e-03 1.130888122133910656e-03
2.876000000000000000e+03 6.059659194946289062e+01 -1.069368243217468262e+00 4.918243288993835449e-01 2.133100509643554688e+00 7.874774336814880371e-01 8.458918333053588867e-01
2.877000000000000000e+03 4.513381576538085938e+01 1.936773490905761719e+01 3.505099117755889893e-01 1.259024024009704590e+00 4.828601777553558350e-01 8.345097899436950684e-01
2.878000000000000000e+03 3.806192398071289062e+01 1.545673751831054688e+01 6.503711342811584473e-01 6.936574459075927734e+00 2.276083707809448242e+00 8.273680806159973145e-01
2.879000000000000000e+03 4.447674179077148438e+01 1.848714828491210938e+01 4.365484714508056641e-01 1.465707421302795410e+00 5.706768035888671875e-01 8.872383832931518555e-01
2.880000000000000000e+03 1.462067317962646484e+01 8.850130081176757812e+00 -2.930044429376721382e-03 1.939413370564579964e-03 -2.971893700305372477e-04 1.578168710693717003e-03
2.881000000000000000e+03 5.619387054443359375e+01 -9.681105613708496094e+00 -4.047873318195343018e-01 1.084762692451477051e+00 2.039926052093505859e-01 1.577921867370605469e+00
2.882000000000000000e+03 6.675485229492187500e+01 1.062654972076416016e+01 6.467513442039489746e-01 2.585185050964355469e+00 9.695809483528137207e-01 1.743233650922775269e-01
2.883000000000000000e+03 7.548908233642578125e+01 -2.100363540649414062e+01 -9.936173446476459503e-04 -3.619457420427352190e-04 -4.066689580213278532e-04 -1.772552379406988621e-03
2.884000000000000000e+03 7.508406066894531250e+01 -2.159451484680175781e+01 -3.700220724567770958e-03 -3.822861937806010246e-03 -2.256924752146005630e-03 1.876202994026243687e-03
2.885000000000000000e+03 3.889587020874023438e+01 -1.697395324707031250e+01 1.595538735389709473e+00 8.342996597290039062e+00 2.981560707092285156e+00 -1.515566349029541016e+00
2.886000000000000000e+03 3.876925277709960938e+01 -1.578770160675048828e+01 1.668283104896545410e+00 8.109216690063476562e+00 2.933249950408935547e+00 -1.709332942962646484e+00
2.887000000000000000e+03 4.442642974853515625e+01 -9.666850090026855469e+00 -6.363463401794433594e-01 3.746109008789062500e+00 9.329288005828857422e-01 -8.076646924018859863e-01
2.888000000000000000e+03 5.072596549987792969e+00 -2.549046134948730469e+01 5.775252357125282288e-03 -3.174469769001007080e-01 -9.350151568651199341e-02 3.446025848388671875e-01
2.889000000000000000e+03 5.794526100158691406e+00 -2.106450653076171875e+01 2.263109087944030762e-01 -2.209423035383224487e-01 1.610577455721795559e-03 2.268921434879302979e-01
2.890000000000000000e+03 3.416999816894531250e+01 -3.724367141723632812e+00 -1.159999370574951172e+00 8.167637825012207031e+00 2.102291584014892578e+00 5.775610208511352539e-01
2.891000000000000000e+03 5.638257598876953125e+01 -8.568673133850097656e+00 -5.635933876037597656e-01 1.381560564041137695e+00 2.453901320695877075e-01 1.509244799613952637e+00
2.892000000000000000e+03 7.300302886962890625e+01 -2.499533653259277344e+01 -2.072124928236007690e-02 -1.497048186138272285e-03 -6.665489170700311661e-03 1.131953485310077667e-02
2.893000000000000000e+03 4.516979217529296875e+01 2.417444038391113281e+01 1.220838204026222229e-01 1.984583735466003418e+00 6.320002675056457520e-01 1.037712574005126953e+00
2.894000000000000000e+03 6.913643836975097656e+00 -2.104313468933105469e+01 2.913471758365631104e-01 7.401549071073532104e-02 1.096087992191314697e-01 2.485729455947875977e-01
2.895000000000000000e+03 9.686273574829101562e+00 1.380178928375244141e+01 -8.093073032796382904e-03 -1.088474760763347149e-03 -2.754464512690901756e-03 -3.472272306680679321e-03
2.896000000000000000e+03 7.013069152832031250e+01 3.297636413574218750e+01 -2.518990337848663330e-01 6.129122376441955566e-01 1.083039566874504089e-01 2.361682504415512085e-01
2.897000000000000000e+03 2.292695426940917969e+01 -3.153804302215576172e+00 -1.505256071686744690e-02 9.610686451196670532e-02 2.431629039347171783e-02 6.984491944313049316e-01
2.898000000000000000e+03 5.871735382080078125e+01 -5.505749702453613281e+00 -2.488990873098373413e-01 1.625369668006896973e+00 4.129411578178405762e-01 9.464859962463378906e-01
2.899000000000000000e+03 6.013105392456054688e+01 -5.028145790100097656e+00 -1.500247716903686523e-01 1.479964852333068848e+00 3.989820480346679688e-01 7.550485134124755859e-01
2.900000000000000000e+03 7.461776733398437500e+01 -2.191708564758300781e+01 -9.672820568084716797e-03 6.760064279660582542e-04 -2.699044300243258476e-03 -7.972284802235662937e-04
2.901000000000000000e+03 1.424098014831542969e+01 5.770628929138183594e+00 -4.452648499864153564e-05 -2.231290098279714584e-03 -6.827449542470276356e-04 2.046671928837895393e-03
2.902000000000000000e+03 7.394018554687500000e+01 -2.353091049194335938e+01 -1.014075335115194321e-02 1.157575286924839020e-03 -2.694953233003616333e-03 5.195804405957460403e-03
2.903000000000000000e+03 4.106137466430664062e+01 -8.043706893920898438e+00 -2.052764654159545898e+00 6.152184009552001953e+00 1.229825735092163086e+00 -2.157416105270385742e+00
2.904000000000000000e+03 2.093392944335937500e+01 -4.498245239257812500e+00 -1.728333532810211182e-01 3.012356758117675781e-01 3.852070122957229614e-02 7.521203160285949707e-01
2.905000000000000000e+03 6.179101943969726562e+00 2.674402427673339844e+01 -1.576395705342292786e-02 -1.711194775998592377e-02 -9.862771257758140564e-03 1.130952760577201843e-01
2.906000000000000000e+03 7.114149570465087891e+00 2.717864227294921875e+01 -1.179999206215143204e-02 1.781983859837055206e-02 1.805954030714929104e-03 1.173904538154602051e-01
2.907000000000000000e+03 4.017799377441406250e+01 -1.069642639160156250e+01 -6.986812949180603027e-01 7.134240150451660156e+00 1.930667638778686523e+00 -1.720341205596923828e+00
2.908000000000000000e+03 4.125133895874023438e+01 -9.858266830444335938e+00 -1.063606739044189453e+00 6.326697349548339844e+00 1.578927159309387207e+00 -1.768104910850524902e+00
2.909000000000000000e+03 6.718044281005859375e+01 2.610544776916503906e+01 -3.085672557353973389e-01 1.504078745841979980e+00 3.586534559726715088e-01 3.144150376319885254e-01
2.910000000000000000e+03 2.380470085144042969e+01 -3.728029012680053711e+00 6.913559138774871826e-02 1.008421778678894043e-01 5.099333077669143677e-02 8.465473651885986328e-01
2.911000000000000000e+03 4.097923660278320312e+01 -9.206780433654785156e+00 -1.469339370727539062e+00 6.441277503967285156e+00 1.491581439971923828e+00 -1.880621910095214844e+00
2.912000000000000000e+03 1.143766117095947266e+01 -2.882619285583496094e+01 -2.214655429124832153e-01 8.404981493949890137e-01 1.857097893953323364e-01 1.167025715112686157e-01
2.913000000000000000e+03 6.223374366760253906e+00 -8.222376823425292969e+00 2.160987816751003265e-02 -1.197277307510375977e-01 -2.943535707890987396e-02 -5.759518146514892578e-01
2.914000000000000000e+03 7.404296112060546875e+01 -2.202928924560546875e+01 -1.237376593053340912e-03 -4.871703218668699265e-03 -1.832723966799676418e-03 3.538816235959529877e-03
2.915000000000000000e+03 6.044688224792480469e+00 6.186307907104492188e+00 3.299460804555565119e-04 -2.894465345889329910e-03 -7.693557417951524258e-04 3.033960529137402773e-04
2.916000000000000000e+03 6.680518150329589844e+00 -1.702610015869140625e+01 4.064612686634063721e-01 -3.344836086034774780e-02 1.119038760662078857e-01 -5.379876494407653809e-02
2.917000000000000000e+03 8.507858276367187500e+00 -8.988163948059082031e+00 8.605252951383590698e-02 2.011979222297668457e-01 8.617513626813888550e-02 -5.439952015876770020e-01
2.918000000000000000e+03 8.645736694335937500e+00 -1.044931697845458984e+01 2.447096705436706543e-01 2.918944656848907471e-01 1.609812378883361816e-01 -5.000525116920471191e-01
2.919000000000000000e+03 6.092380142211914062e+01 -2.606569290161132812e+00 1.996923983097076416e-01 1.789032220840454102e+00 5.966174006462097168e-01 6.372588276863098145e-01
2.920000000000000000e+03 9.716411590576171875e+00 -1.192990970611572266e+01 4.207316935062408447e-01 5.802448987960815430e-01 3.002929687500000000e-01 -3.680607676506042480e-01
2.921000000000000000e+03 6.067535400390625000e+00 2.458882522583007812e+01 -2.788842841982841492e-02 -4.473379813134670258e-03 -9.708542376756668091e-03 9.827405214309692383e-02
2.922000000000000000e+03 7.255405902862548828e+00 2.880094528198242188e+01 8.466748520731925964e-03 1.356710214167833328e-02 6.610155105590820312e-03 1.152612715959548950e-01
2.923000000000000000e+03 6.369021415710449219e+00 2.800496864318847656e+01 1.400766987353563309e-02 -1.489942055195569992e-02 -2.675251453183591366e-04 1.180390417575836182e-01
2.924000000000000000e+03 1.283875274658203125e+01 6.251230716705322266e+00 -1.909537008032202721e-03 -8.003513212315738201e-04 -8.129664929583668709e-04 2.656635362654924393e-03
2.925000000000000000e+03 3.712409973144531250e+01 -7.204577922821044922e+00 -2.896229267120361328e+00 9.128432273864746094e+00 1.869660973548889160e+00 -1.699804306030273438e+00
2.926000000000000000e+03 4.051682662963867188e+01 -9.808198928833007812e+00 -1.178789973258972168e+00 6.884218692779541016e+00 1.711628675460815430e+00 -1.854043006896972656e+00
2.927000000000000000e+03 7.400874137878417969e+00 -6.960923671722412109e+00 -9.832196682691574097e-02 7.109720900189131498e-05 -2.947526052594184875e-02 -5.644567012786865234e-01
2.928000000000000000e+03 1.376030445098876953e+01 -7.301300525665283203e+00 -7.899776101112365723e-02 6.973695158958435059e-01 1.855115145444869995e-01 -3.199591860175132751e-02
2.929000000000000000e+03 1.502721977233886719e+01 -5.343459606170654297e+00 -3.664474487304687500e-01 4.723636507987976074e-01 3.177485987544059753e-02 1.092060506343841553e-01
2.930000000000000000e+03 6.980137634277343750e+01 -1.195992946624755859e+00 8.966252952814102173e-02 5.138443112373352051e-01 1.810520589351654053e-01 -5.542400479316711426e-01
2.931000000000000000e+03 6.813990783691406250e+01 1.148024559020996094e+01 6.047115325927734375e-01 1.981980562210083008e+00 7.760075926780700684e-01 8.551278710365295410e-02
2.932000000000000000e+03 8.967084884643554688e+00 6.224419116973876953e+00 9.094992419704794884e-04 4.530924197752028704e-04 4.087775014340877533e-04 2.810495207086205482e-04
2.933000000000000000e+03 4.898678779602050781e+00 9.470216751098632812e+00 3.277386771515011787e-03 -1.443190500140190125e-03 5.502589046955108643e-04 -1.526586362160742283e-03
2.934000000000000000e+03 6.668640899658203125e+01 -3.089261293411254883e+00 -1.086872071027755737e-02 8.738359808921813965e-01 2.588901817798614502e-01 -3.222968280315399170e-01
2.935000000000000000e+03 1.276628589630126953e+01 -2.933878326416015625e+01 -2.819855809211730957e-01 9.382809400558471680e-01 1.968886107206344604e-01 1.461679674685001373e-02
2.936000000000000000e+03 7.175495910644531250e+01 -6.856827735900878906e+00 -2.532663345336914062e-01 9.501714259386062622e-02 -4.747475683689117432e-02 -5.708559155464172363e-01
2.937000000000000000e+03 7.282747650146484375e+01 1.946918678283691406e+01 1.614475995302200317e-01 2.798277325928211212e-02 5.682911351323127747e-02 4.990259706974029541e-01
2.938000000000000000e+03 8.977623939514160156e+00 -6.723024845123291016e+00 -1.300415545701980591e-01 1.786664575338363647e-01 1.458747126162052155e-02 -5.249304175376892090e-01
2.939000000000000000e+03 7.159120178222656250e+01 8.877665519714355469e+00 4.061018824577331543e-01 3.895469009876251221e-01 2.386946380138397217e-01 -1.512691229581832886e-01
2.940000000000000000e+03 7.199758911132812500e+01 7.701554298400878906e+00 3.714644908905029297e-01 2.310863584280014038e-01 1.807652562856674194e-01 -2.358494848012924194e-01
2.941000000000000000e+03 5.699336528778076172e+00 9.563498497009277344e+00 -2.607170026749372482e-03 -3.714996855705976486e-03 -1.896650064736604691e-03 -6.943676271475851536e-04
2.942000000000000000e+03 5.885028839111328125e+00 1.048357677459716797e+01 6.980112520977854729e-04 -6.998144672252237797e-04 -5.409686991697526537e-07 -1.596151385456323624e-03
2.943000000000000000e+03 7.132759857177734375e+01 6.908747673034667969e+00 3.816635906696319580e-01 4.558399319648742676e-01 2.512510716915130615e-01 -2.713428139686584473e-01
2.944000000000000000e+03 7.083645629882812500e+01 -8.301076889038085938e-01 8.518131077289581299e-02 3.179759979248046875e-01 1.209471896290779114e-01 -6.054079532623291016e-01
2.945000000000000000e+03 7.243981933593750000e+01 -6.577675342559814453e+00 -2.165653854608535767e-01 2.690001949667930603e-02 -5.689960718154907227e-02 -5.762401819229125977e-01
2.946000000000000000e+03 7.133216857910156250e+01 1.029757690429687500e+01 4.233518540859222412e-01 5.344460606575012207e-01 2.873393595218658447e-01 -5.723123997449874878e-02
2.947000000000000000e+03 7.100737762451171875e+01 -1.674379587173461914e+00 5.889089033007621765e-02 2.542178332805633545e-01 9.393261373043060303e-02 -6.113870739936828613e-01
2.948000000000000000e+03 7.171305084228515625e+01 -2.506840944290161133e+00 1.166255213320255280e-02 1.239587292075157166e-01 4.068638384342193604e-02 -6.281801462173461914e-01
2.949000000000000000e+03 7.255937957763671875e+01 -5.252783775329589844e+00 -1.261841207742691040e-01 -5.530119873583316803e-03 -3.951426967978477478e-02 -6.153072118759155273e-01
2.950000000000000000e+03 7.264704895019531250e+01 -3.344787359237670898e+00 -4.387122765183448792e-02 -4.377389326691627502e-02 -2.629353664815425873e-02 -6.374847888946533203e-01
2.951000000000000000e+03 7.188962554931640625e+01 -1.751617550849914551e+00 1.426332257688045502e-02 9.167000651359558105e-02 3.177999705076217651e-02 -6.258194446563720703e-01
2.952000000000000000e+03 7.138031005859375000e+01 -1.674990081787109375e+01 2.623786451295018196e-03 3.805634041782468557e-04 9.013050002977252007e-04 2.873637131415307522e-04
2.953000000000000000e+03 7.211955261230468750e+01 -1.671120262145996094e+01 3.633707528933882713e-03 -6.681770901195704937e-05 1.070066937245428562e-03 4.602308908943086863e-04
2.954000000000000000e+03 7.071197509765625000e+01 -1.752739334106445312e+01 1.223814440891146660e-03 4.952439921908080578e-04 5.157175473868846893e-04 5.575890536420047283e-04
2.955000000000000000e+03 7.287363433837890625e+01 -1.741421890258789062e+01 3.220724873244762421e-03 -3.174362645950168371e-04 8.709865505807101727e-04 6.842442089691758156e-04
2.956000000000000000e+03 7.215311431884765625e+01 -1.745045852661132812e+01 1.185640110634267330e-03 1.699891290627419949e-04 4.066887777298688889e-04 2.545184688642621040e-04
2.957000000000000000e+03 7.143251037597656250e+01 -1.748818206787109375e+01 2.461007563397288322e-03 -8.829399012029170990e-04 4.734203102998435497e-04 1.225077314302325249e-03
2.958000000000000000e+03 7.285870361328125000e+01 -1.667398834228515625e+01 3.256194060668349266e-03 -4.132938629481941462e-04 8.528700564056634903e-04 8.637007704237475991e-05
2.959000000000000000e+03 7.064115142822265625e+01 -1.679008674621582031e+01 2.098161960020661354e-03 -1.035614637657999992e-03 3.187641850672662258e-04 1.010047504678368568e-03
2.960000000000000000e+03 7.509190368652343750e+01 -1.672233772277832031e+01 3.639317816123366356e-03 8.631638484075665474e-04 1.350744511000812054e-03 -3.742704284377396107e-04
2.961000000000000000e+03 7.507875823974609375e+01 -1.746236038208007812e+01 1.529070432297885418e-03 -7.961289957165718079e-04 2.198824222432449460e-04 -3.560039040166884661e-04
2.962000000000000000e+03 7.583750152587890625e+01 -1.675157546997070312e+01 2.687791828066110611e-03 -8.161025471054017544e-04 5.615068366751074791e-04 -2.476248482707887888e-04
2.963000000000000000e+03 7.360292816162109375e+01 -1.740974807739257812e+01 1.748543698340654373e-03 -7.512856391258537769e-04 2.991774235852062702e-04 -1.736747071845456958e-04
2.964000000000000000e+03 7.434651947021484375e+01 -1.669533538818359375e+01 3.425074974074959755e-03 -8.721873746253550053e-04 7.658662507310509682e-04 -2.256200241390615702e-04
2.965000000000000000e+03 7.581685638427734375e+01 -1.749131965637207031e+01 2.537110820412635803e-03 4.570104647427797318e-04 8.982364088296890259e-04 -1.200964674353599548e-03
2.966000000000000000e+03 7.434088134765625000e+01 -1.743563652038574219e+01 2.993749687448143959e-03 2.900745894294232130e-04 9.851473150774836540e-04 -2.965373278129845858e-04
2.967000000000000000e+03 7.360105895996093750e+01 -1.666916847229003906e+01 3.911599051207304001e-03 4.983026301488280296e-04 1.322970492765307426e-03 2.914261131081730127e-05
2.968000000000000000e+03 7.968632507324218750e+01 -1.742419242858886719e+01 1.009360887110233307e-03 7.677079993300139904e-04 5.331206484697759151e-04 8.399606304010376334e-05
2.969000000000000000e+03 7.850669860839843750e+01 -1.755505180358886719e+01 1.232719630934298038e-03 4.084359970875084400e-04 4.923467058688402176e-04 -1.010922598652541637e-03
2.970000000000000000e+03 7.652082824707031250e+01 -1.751028823852539062e+01 8.377557969652116299e-04 -5.265170475468039513e-04 9.337162919109687209e-05 -3.838258562609553337e-04
2.971000000000000000e+03 7.873721313476562500e+01 -1.681438636779785156e+01 1.174008721136488020e-04 1.876355818239971995e-04 9.151093399850651622e-05 -2.447473707434255630e-05
2.972000000000000000e+03 7.785486602783203125e+01 -1.753419113159179688e+01 1.793873161659575999e-05 3.901621312252245843e-05 1.708648414933122694e-05 -5.079804104752838612e-04
2.973000000000000000e+03 7.802648925781250000e+01 -1.679383087158203125e+01 1.092654420062899590e-03 9.233025775756686926e-05 3.554954018909484148e-04 -4.918735940009355545e-04
2.974000000000000000e+03 7.718931579589843750e+01 -1.751985740661621094e+01 2.029130468145012856e-03 3.165873931720852852e-04 7.037153700366616249e-04 -1.523438142612576485e-03
2.975000000000000000e+03 7.657466888427734375e+01 -1.677053260803222656e+01 2.527283737435936928e-03 5.905404686927795410e-04 9.353472851216793060e-04 -5.878664087504148483e-04
2.976000000000000000e+03 7.909966278076171875e+01 -1.758989524841308594e+01 1.394800165144260973e-05 -1.365691132377833128e-04 -3.678633220260962844e-05 -2.733987639658153057e-05
2.977000000000000000e+03 7.938906860351562500e+01 -1.684892654418945312e+01 -4.027369432151317596e-04 -4.315513360779732466e-04 -2.502864808775484562e-04 -7.233875803649425507e-04
2.978000000000000000e+03 7.730204772949218750e+01 -1.677979850769042969e+01 1.264705555513501167e-03 -2.627699286676943302e-04 3.005806938745081425e-04 -2.105887833749875426e-04
2.979000000000000000e+03 7.943219757080078125e+01 -1.525699043273925781e+01 6.012146361172199249e-03 1.539494004100561142e-02 6.422125734388828278e-03 4.005915950983762741e-03
2.980000000000000000e+03 7.838642120361328125e+01 -1.516350746154785156e+01 -1.309499796479940414e-02 -1.376366615295410156e-02 -8.057598955929279327e-03 -5.279931705445051193e-03
2.981000000000000000e+03 7.780564117431640625e+01 -1.512424659729003906e+01 -2.092964760959148407e-02 -6.375666707754135132e-03 -8.191593922674655914e-03 -1.865972764790058136e-02
2.982000000000000000e+03 7.662574768066406250e+01 -1.525570678710937500e+01 -4.522169008851051331e-02 4.026626236736774445e-03 -1.235851924866437912e-02 -3.027689270675182343e-02
2.983000000000000000e+03 7.725820159912109375e+01 -1.518011665344238281e+01 -3.515287861227989197e-02 -2.598302997648715973e-02 -1.834077201783657074e-02 -2.599650993943214417e-02
2.984000000000000000e+03 7.888636779785156250e+01 -1.611222648620605469e+01 4.611439537256956100e-03 3.802495077252388000e-03 2.524180337786674500e-03 3.788710106164216995e-03
2.985000000000000000e+03 7.888313293457031250e+01 -1.558502388000488281e+01 -5.101847928017377853e-03 -1.142291631549596786e-02 -4.957429599016904831e-03 4.696052055805921555e-03
2.986000000000000000e+03 7.663484954833984375e+01 -1.599727630615234375e+01 -2.073315531015396118e-02 -1.138117536902427673e-02 -9.634299203753471375e-03 -1.202883385121822357e-02
2.987000000000000000e+03 7.962244415283203125e+01 -1.590537452697753906e+01 5.763474837294779718e-05 3.148734394926577806e-04 1.117524589062668383e-04 2.690492256078869104e-04
2.988000000000000000e+03 7.827157592773437500e+01 -1.562149429321289062e+01 -2.623558277264237404e-03 -1.371809747070074081e-03 -1.198610407300293446e-03 -3.012659261003136635e-03
2.989000000000000000e+03 7.741748809814453125e+01 -1.606798362731933594e+01 -2.475727349519729614e-03 5.419147666543722153e-03 8.830261067487299442e-04 -3.805014537647366524e-03
2.990000000000000000e+03 7.816462707519531250e+01 -1.613920974731445312e+01 5.440786015242338181e-03 -7.958754897117614746e-03 -7.553906179964542389e-04 -2.409243490546941757e-03
2.991000000000000000e+03 7.763186645507812500e+01 -1.553283691406250000e+01 -1.301096752285957336e-02 -6.241274066269397736e-03 -5.775672383606433868e-03 -9.755643084645271301e-03
2.992000000000000000e+03 7.896445465087890625e+01 -1.517584800720214844e+01 3.851101500913500786e-03 -8.687238208949565887e-03 -1.450840965844690800e-03 -1.777259516529738903e-03
2.993000000000000000e+03 7.435244750976562500e+01 -1.591604232788085938e+01 -1.137987673282623291e-01 1.841206289827823639e-02 -2.861601114273071289e-02 -1.404143776744604111e-02
2.994000000000000000e+03 7.588006591796875000e+01 -1.523305606842041016e+01 -7.383237034082412720e-02 -1.506130676716566086e-02 -2.666810341179370880e-02 -4.162197932600975037e-02
2.995000000000000000e+03 7.359722137451171875e+01 -1.514822292327880859e+01 -1.674922406673431396e-01 1.585739292204380035e-02 -4.549045488238334656e-02 -4.672046378254890442e-02
2.996000000000000000e+03 7.510590362548828125e+01 -1.594404602050781250e+01 -7.843729853630065918e-02 -1.565715484321117401e-02 -2.822833694517612457e-02 -1.533796079456806183e-02
2.997000000000000000e+03 7.359909057617187500e+01 -1.588880252838134766e+01 -1.522932499647140503e-01 -1.875868067145347595e-02 -5.131557583808898926e-02 -1.445207837969064713e-02
2.998000000000000000e+03 7.435808563232421875e+01 -1.517574119567871094e+01 -1.368283033370971680e-01 -9.964673779904842377e-03 -4.403789341449737549e-02 -4.981211572885513306e-02
2.999000000000000000e+03 7.585942077636718750e+01 -1.597279930114746094e+01 -4.635797441005706787e-02 1.265199948102235794e-02 -1.011179201304912567e-02 -1.158926635980606079e-02
3.000000000000000000e+03 7.511904144287109375e+01 -1.520402336120605469e+01 -1.028842628002166748e-01 9.242550469934940338e-03 -2.809251286089420319e-02 -4.430722445249557495e-02
3.001000000000000000e+03 7.132652282714843750e+01 -1.597409629821777344e+01 -1.715262979269027710e-01 1.854146458208560944e-02 -4.589544981718063354e-02 -3.181765554472804070e-03
3.002000000000000000e+03 7.056670379638671875e+01 -1.601350212097167969e+01 -1.447306722402572632e-01 -2.645508851855993271e-03 -4.421285539865493774e-02 1.507432851940393448e-02
3.003000000000000000e+03 7.208541107177734375e+01 -1.593443489074707031e+01 -1.822205334901809692e-01 -1.235442422330379486e-02 -5.837248638272285461e-02 -7.303018122911453247e-03
3.004000000000000000e+03 7.284317016601562500e+01 -1.589438438415527344e+01 -1.773923188447952271e-01 1.787961460649967194e-02 -4.785381257534027100e-02 -1.624460704624652863e-02
3.005000000000000000e+03 7.282823944091796875e+01 -1.515415287017822266e+01 -1.913817077875137329e-01 -2.978056436404585838e-03 -5.830793082714080811e-02 -2.994660474359989166e-02
3.006000000000000000e+03 7.049587249755859375e+01 -1.527619743347167969e+01 -2.122568786144256592e-01 2.707283198833465576e-02 -5.555521696805953979e-02 2.158937789499759674e-02
3.007000000000000000e+03 7.127433013916015625e+01 -1.523581504821777344e+01 -2.175992429256439209e-01 1.598103158175945282e-02 -6.048546358942985535e-02 1.392437517642974854e-02
3.008000000000000000e+03 7.205184173583984375e+01 -1.519517898559570312e+01 -2.102163583040237427e-01 2.666060440242290497e-02 -5.506672710180282593e-02 -2.040363661944866180e-02
3.009000000000000000e+03 6.809269714355468750e+01 -1.561150836944580078e+01 8.991714566946029663e-02 -2.355652861297130585e-02 1.990818418562412262e-02 -4.432678688317537308e-03
3.010000000000000000e+03 6.902137756347656250e+01 -1.593779945373535156e+01 2.039549313485622406e-02 2.803402580320835114e-02 1.452885568141937256e-02 2.421224117279052734e-02
3.011000000000000000e+03 6.852732849121093750e+01 -1.547273349761962891e+01 -9.122160077095031738e-02 -6.992753595113754272e-02 -4.834473878145217896e-02 7.012275606393814087e-02
3.012000000000000000e+03 6.853373718261718750e+01 -1.628846549987792969e+01 -4.415685310959815979e-02 -9.716393426060676575e-03 -1.616197265684604645e-02 2.060185000300407410e-02
3.013000000000000000e+03 6.976448822021484375e+01 -1.608898162841796875e+01 -9.287247806787490845e-02 -5.244368221610784531e-03 -2.943505346775054932e-02 3.153413068503141403e-03
3.014000000000000000e+03 6.975740051269531250e+01 -1.534004783630371094e+01 -1.819477081298828125e-01 1.160842180252075195e-02 -5.110178515315055847e-02 7.839532941579818726e-02
3.015000000000000000e+03 6.909480285644531250e+01 -1.537976169586181641e+01 -2.134950011968612671e-01 4.071718081831932068e-02 -5.183334648609161377e-02 9.030301123857498169e-02
3.016000000000000000e+03 6.846734619140625000e+01 -1.765766716003417969e+01 2.165531739592552185e-03 3.092293161898851395e-03 1.577347400598227978e-03 -1.779420534148812294e-03
3.017000000000000000e+03 6.902794647216796875e+01 -1.774423980712890625e+01 9.771673940122127533e-04 8.415304473601281643e-04 5.456093349494040012e-04 5.761688807979226112e-04
3.018000000000000000e+03 6.989218139648437500e+01 -1.761616897583007812e+01 1.308066071942448616e-03 -1.094040635507553816e-04 3.595986054278910160e-04 2.004994079470634460e-03
3.019000000000000000e+03 6.980416870117187500e+01 -1.688065528869628906e+01 1.116511528380215168e-03 1.561878132633864880e-03 8.035168866626918316e-04 -1.307777565671131015e-04
3.020000000000000000e+03 6.892420196533203125e+01 -1.701133537292480469e+01 -1.556632807478308678e-03 -2.242049900814890862e-03 -1.139604835771024227e-03 2.034698147326707840e-03
3.021000000000000000e+03 1.639982223510742188e+01 -2.317397296428680420e-01 -1.474937319755554199e+00 -8.888343349099159241e-03 -4.451476931571960449e-01 -6.591273099184036255e-02
3.022000000000000000e+03 1.798723983764648438e+01 -8.314419388771057129e-01 -1.011878013610839844e+00 3.640239685773849487e-02 -2.926426827907562256e-01 9.288965910673141479e-02
3.023000000000000000e+03 1.645354080200195312e+01 -9.699125885963439941e-01 -1.193002820014953613e+00 1.671262644231319427e-02 -3.528870642185211182e-01 4.786185547709465027e-02
3.024000000000000000e+03 1.875374794006347656e+01 -7.599936723709106445e-01 -8.740804791450500488e-01 2.958533354103565216e-02 -2.533485293388366699e-01 1.271258592605590820e-01
3.025000000000000000e+03 1.790756225585937500e+01 -9.563824534416198730e-02 -1.205700278282165527e+00 4.459530580788850784e-03 -3.603722155094146729e-01 -4.569564014673233032e-02
3.026000000000000000e+03 1.866109085083007812e+01 -2.537456899881362915e-02 -1.074113368988037109e+00 -6.059943698346614838e-03 -3.240520060062408447e-01 -3.827532380819320679e-02
3.027000000000000000e+03 1.715376663208007812e+01 -1.644264459609985352e-01 -1.337330579757690430e+00 1.713396399281919003e-03 -4.006851613521575928e-01 -6.211498007178306580e-02
3.028000000000000000e+03 1.722046470642089844e+01 -9.014146924018859863e-01 -1.120938897132873535e+00 3.032613918185234070e-02 -3.271838426589965820e-01 7.512806355953216553e-02
3.029000000000000000e+03 1.941230964660644531e+01 7.625918835401535034e-02 -8.847477436065673828e-01 -3.914857283234596252e-03 -2.665987908840179443e-01 -3.777780011296272278e-02
3.030000000000000000e+03 2.090952491760253906e+01 3.449267148971557617e-01 -4.740486145019531250e-01 1.224645506590604782e-02 -1.385406553745269775e-01 5.155580583959817886e-03
3.031000000000000000e+03 1.952174568176269531e+01 -6.559218764305114746e-01 -7.401083111763000488e-01 4.810006916522979736e-02 -2.076024711132049561e-01 1.603245586156845093e-01
3.032000000000000000e+03 2.106011390686035156e+01 -3.798714280128479004e-01 -4.401847720146179199e-01 6.928704679012298584e-02 -1.112693175673484802e-01 1.753029674291610718e-01
3.033000000000000000e+03 2.183077621459960938e+01 -2.417316585779190063e-01 -2.803572714328765869e-01 5.225044116377830505e-02 -6.843204796314239502e-02 1.892614215612411499e-01
3.034000000000000000e+03 2.165959548950195312e+01 4.794237911701202393e-01 -3.022444844245910645e-01 1.741297170519828796e-02 -8.544945716857910156e-02 2.765665017068386078e-02
3.035000000000000000e+03 2.016033744812011719e+01 2.105962187051773071e-01 -6.635649800300598145e-01 1.136111002415418625e-02 -1.956611573696136475e-01 -2.211760915815830231e-02
3.036000000000000000e+03 2.029035186767578125e+01 -5.178933739662170410e-01 -6.010851263999938965e-01 5.643545463681221008e-02 -1.633948981761932373e-01 1.682295501232147217e-01
3.037000000000000000e+03 2.480644798278808594e+01 1.186565160751342773e+00 1.421038955450057983e-01 1.938444748520851135e-02 4.844650626182556152e-02 5.933473818004131317e-03
3.038000000000000000e+03 2.406565666198730469e+01 1.202636122703552246e+00 5.688687413930892944e-02 -1.448837295174598694e-02 1.271955017000436783e-02 2.144564874470233917e-02
3.039000000000000000e+03 2.603136825561523438e+01 1.400778174400329590e+00 3.156666830182075500e-02 -1.254024263471364975e-02 5.707927979528903961e-03 -2.833833359181880951e-02
3.040000000000000000e+03 2.337490272521972656e+01 2.116274982690811157e-01 1.751645235344767570e-03 1.272997818887233734e-02 4.344487097114324570e-03 1.441379636526107788e-01
3.041000000000000000e+03 2.244507598876953125e+01 6.874495744705200195e-01 -1.231477484107017517e-01 1.186458207666873932e-02 -3.338494896888732910e-02 4.014395177364349365e-02
3.042000000000000000e+03 2.260281181335449219e+01 -4.089855030179023743e-02 -1.380440890789031982e-01 5.571734532713890076e-02 -2.469802461564540863e-02 1.765697598457336426e-01
3.043000000000000000e+03 2.584365463256835938e+01 1.078736662864685059e+00 2.563954889774322510e-01 -3.129885345697402954e-02 6.752899289131164551e-02 -6.967642903327941895e-02
3.044000000000000000e+03 2.483488655090332031e+01 6.060885787010192871e-01 1.900826394557952881e-01 -1.716106384992599487e-02 5.187647044658660889e-02 8.938027918338775635e-02
3.045000000000000000e+03 2.412840652465820312e+01 4.383291006088256836e-01 1.439403742551803589e-01 -8.446210995316505432e-03 4.064825177192687988e-02 1.144778728485107422e-01
3.046000000000000000e+03 2.542542266845703125e+01 8.184306025505065918e-01 2.612929046154022217e-01 -6.360492110252380371e-02 5.930639430880546570e-02 1.159243937581777573e-02
3.047000000000000000e+03 2.326465988159179688e+01 9.579550623893737793e-01 1.263944618403911591e-02 1.568862050771713257e-02 8.498420007526874542e-03 3.973631188273429871e-02
3.048000000000000000e+03 2.516747474670410156e+01 1.628308176994323730e+00 6.198218557983636856e-03 1.625863276422023773e-02 6.737055256962776184e-03 2.000783570110797882e-02
3.049000000000000000e+03 2.289602470397949219e+01 2.428752899169921875e+00 2.391438465565443039e-04 4.991241148672997952e-04 2.214803971583023667e-04 1.695482496870681643e-04
3.050000000000000000e+03 2.207656478881835938e+01 2.160299539566040039e+00 -1.709282951196655631e-04 -5.112197832204401493e-04 -2.046444278676062822e-04 6.903173925820738077e-05
3.051000000000000000e+03 2.309196090698242188e+01 1.710520744323730469e+00 -1.691750803729519248e-04 -2.363645035075023770e-04 -1.216618766193278134e-04 2.826856507454067469e-05
3.052000000000000000e+03 2.226285171508789062e+01 1.441366434097290039e+00 8.224942575907334685e-05 3.201309300493448973e-04 1.207141103805042803e-04 -2.527681499486789107e-05
3.053000000000000000e+03 2.365754890441894531e+01 2.680384397506713867e+00 -4.675998352468013763e-04 -1.228035398526117206e-04 -1.771210081642493606e-04 -2.631033421494066715e-04
3.054000000000000000e+03 2.446170997619628906e+01 2.351509332656860352e+00 -4.217596870148554444e-05 -1.383721537422388792e-04 -5.416443673311732709e-05 3.958013621740974486e-05
3.055000000000000000e+03 2.386312484741210938e+01 1.962898492813110352e+00 1.830887340474873781e-04 1.962335372809320688e-04 1.137966755777597427e-04 -1.160070678452029824e-04
3.056000000000000000e+03 2.075237083435058594e+01 1.106616377830505371e+00 1.242032158188521862e-04 4.292701487429440022e-04 1.660420093685388565e-04 -1.028076294460333884e-04
3.057000000000000000e+03 2.060178184509277344e+01 1.831414580345153809e+00 -3.663773240987211466e-04 -4.409121756907552481e-04 -2.421868557576090097e-04 6.432637019315734506e-05
3.058000000000000000e+03 2.130817413330078125e+01 1.960395336151123047e+00 3.243728424422442913e-04 4.522033559624105692e-04 2.329728595213964581e-04 -1.567820727359503508e-04
3.059000000000000000e+03 1.918785858154296875e+01 1.579434752464294434e+00 -3.353957145009189844e-04 -5.815273034386336803e-04 -2.750768908299505711e-04 -1.330350642092525959e-05
3.060000000000000000e+03 1.989505195617675781e+01 1.704050064086914062e+00 3.680777153931558132e-04 5.289614782668650150e-04 2.691117406357079744e-04 -2.383901482971850783e-05
3.061000000000000000e+03 1.929729461669921875e+01 8.472537398338317871e-01 9.754958591656759381e-05 5.118918488733470440e-04 1.828324311645701528e-04 -3.544886203599162400e-05
3.062000000000000000e+03 2.147934150695800781e+01 1.239288687705993652e+00 -9.841674182098358870e-05 -4.334246041253209114e-04 -1.595524081494659185e-04 8.818961214274168015e-05
3.063000000000000000e+03 2.002506446838378906e+01 9.755603671073913574e-01 -1.501798687968403101e-04 -4.450897686183452606e-04 -1.785808854037895799e-04 5.675593638443388045e-05
3.064000000000000000e+03 1.701650238037109375e+01 1.350294589996337891e+00 3.821907448582351208e-04 9.204384405165910721e-04 3.907887439709156752e-04 1.716411061352118850e-04
3.065000000000000000e+03 1.708320045471191406e+01 6.133062839508056641e-01 -5.355495886760763824e-06 -7.896943134255707264e-04 -2.385149418842047453e-04 7.518559868913143873e-05
3.066000000000000000e+03 1.634315681457519531e+01 5.465459823608398438e-01 2.809767611324787140e-04 8.955312077887356281e-04 3.529523964971303940e-04 2.811389640555717051e-05
3.067000000000000000e+03 1.782329559326171875e+01 6.808430552482604980e-01 1.312189269810914993e-04 7.122226525098085403e-04 2.530324854888021946e-04 6.596204457309795544e-06
3.068000000000000000e+03 1.847070503234863281e+01 1.483781576156616211e+00 3.659574431367218494e-04 7.091662846505641937e-04 3.225371183361858130e-04 1.001013370114378631e-04
3.069000000000000000e+03 1.856336212158203125e+01 7.491624951362609863e-01 -1.160994070232845843e-04 -5.853371694684028625e-04 -2.104309678543359041e-04 3.605742676882073283e-05
3.070000000000000000e+03 1.628943824768066406e+01 1.284718871116638184e+00 -6.769054016331210732e-05 -8.616307750344276428e-04 -2.787963894661515951e-04 1.731287338770925999e-04
3.071000000000000000e+03 1.774361801147460938e+01 1.416646718978881836e+00 -2.200308663304895163e-04 -7.250776980072259903e-04 -2.835325722116976976e-04 3.007893383255577646e-06
3.072000000000000000e+03 1.408120155334472656e+01 1.187072157859802246e+00 8.950541960075497627e-04 9.329834138043224812e-04 5.484112771227955818e-04 1.859501935541629791e-04
3.073000000000000000e+03 1.410851097106933594e+01 4.475762248039245605e-01 5.499568069353699684e-04 -8.786759572103619576e-04 -9.861575381364673376e-05 1.864611695054918528e-04
3.074000000000000000e+03 1.336430931091308594e+01 4.183164834976196289e-01 9.652433218434453011e-04 8.450755849480628967e-04 5.430956953205168247e-04 6.787497113691642880e-05
3.075000000000000000e+03 1.485382461547851562e+01 4.748390913009643555e-01 5.703078932128846645e-04 9.271247545257210732e-04 4.492297885008156300e-04 4.419070319272577763e-05
3.076000000000000000e+03 1.555697250366210938e+01 1.239178419113159180e+00 5.984259187243878841e-04 9.739148663356900215e-04 4.717022529803216457e-04 1.664050796534866095e-04
3.077000000000000000e+03 1.560021686553955078e+01 5.002670884132385254e-01 2.051431365543976426e-04 -9.010849171318113804e-04 -2.087825414491817355e-04 1.366545620840042830e-04
3.078000000000000000e+03 1.334496879577636719e+01 1.158104777336120605e+00 4.347999056335538626e-04 -8.397356141358613968e-04 -1.214807125506922603e-04 4.457463801372796297e-04
3.079000000000000000e+03 1.481854820251464844e+01 1.214042663574218750e+00 1.508997520431876183e-04 -8.658405859023332596e-04 -2.144822501577436924e-04 3.480222949292510748e-04
3.080000000000000000e+03 1.111325168609619141e+01 1.138490676879882812e+00 1.638338086195290089e-03 6.767261656932532787e-04 6.945192581042647362e-04 1.709697971818968654e-04
3.081000000000000000e+03 1.186833381652832031e+01 4.020517766475677490e-01 1.417163759469985962e-03 7.179962703958153725e-04 6.405480089597404003e-04 6.328746530925855041e-05
3.082000000000000000e+03 1.037295722961425781e+01 3.924405574798583984e-01 1.797945005819201469e-03 6.425555911846458912e-04 7.321502198465168476e-04 5.383760435506701469e-05
3.083000000000000000e+03 1.260390949249267578e+01 1.143149375915527344e+00 1.273701782338321209e-03 7.989565492607653141e-04 6.217975169420242310e-04 1.885725214378908277e-04
3.084000000000000000e+03 1.261756992340087891e+01 4.032067656517028809e-01 9.618753101676702499e-04 -7.840312900952994823e-04 5.335319656296633184e-05 1.812706323107704520e-04
3.085000000000000000e+03 1.036947441101074219e+01 1.132432341575622559e+00 1.052144798450171947e-03 -7.341550663113594055e-04 9.539692109683528543e-05 2.942378050647675991e-04
3.086000000000000000e+03 1.185806560516357422e+01 1.142010807991027832e+00 7.590732420794665813e-04 -7.806521025486290455e-04 -6.473669600381981581e-06 4.345604393165558577e-04
3.087000000000000000e+03 1.112012767791748047e+01 3.985152244567871094e-01 1.391032594256103039e-03 -6.891021039336919785e-04 2.105791500071063638e-04 1.412697456544265151e-04
3.088000000000000000e+03 8.771651268005371094e+00 3.881228864192962646e-01 1.985462382435798645e-03 5.098863621242344379e-04 7.486046524718403816e-04 -1.746725683915428817e-05
3.089000000000000000e+03 8.818146705627441406e+00 1.128122925758361816e+00 1.240732381120324135e-03 -6.280883098952472210e-04 1.837932068156078458e-04 1.599463139427825809e-04
3.090000000000000000e+03 7.953170776367187500e+00 3.921383917331695557e-01 1.749293878674507141e-03 -4.474523593671619892e-04 3.905524790752679110e-04 1.271898509003221989e-05
3.091000000000000000e+03 6.319846630096435547e+00 3.892590403556823730e-01 1.465247594751417637e-03 -1.342117902822792530e-04 3.993107238784432411e-04 -3.054136413993546739e-06
3.092000000000000000e+03 5.502897262573242188e+00 3.910058438777923584e-01 1.382221700623631477e-03 -6.259241490624845028e-05 3.958887828048318624e-04 -2.514860243536531925e-04
3.093000000000000000e+03 4.685476779937744141e+00 3.909447193145751953e-01 9.191466961055994034e-04 1.989345619222149253e-04 3.354243817739188671e-04 6.013222900946857408e-06
3.094000000000000000e+03 3.050973415374755859e+00 3.907458484172821045e-01 2.756561152637004852e-04 3.122379421256482601e-04 1.763682230375707150e-04 -1.115024224418448284e-05
3.095000000000000000e+03 2.234469175338745117e+00 3.876248300075531006e-01 3.447404596954584122e-04 -2.083735598716884851e-04 4.091006849193945527e-05 -1.366421056445688009e-04
3.096000000000000000e+03 2.538473606109619141e+00 1.127624869346618652e+00 -2.535663370508700609e-04 3.061979950871318579e-04 1.578949741087853909e-05 -2.642871986608952284e-04
3.097000000000000000e+03 1.768125653266906738e+00 1.127171397209167480e+00 6.533424602821469307e-04 6.499455048469826579e-05 2.155011025024577975e-04 -2.814249819493852556e-05
3.098000000000000000e+03 1.067988038063049316e+00 1.148616075515747070e+00 1.980135566554963589e-04 -3.379193367436528206e-04 -4.197173257125541568e-05 -6.333157216431573033e-05
3.099000000000000000e+03 6.996063590049743652e-01 4.086160361766815186e-01 -2.632653631735593081e-04 -2.773744636215269566e-04 -1.621919509489089251e-04 -3.627935366239398718e-04
3.100000000000000000e+03 3.732481598854064941e-01 9.636608362197875977e-01 5.906932055950164795e-04 3.625680401455610991e-04 2.859783708117902279e-04 5.590570435742847621e-05
3.101000000000000000e+03 3.322789192199707031e+00 1.130745887756347656e+00 1.021672622300684452e-03 -1.537551434012129903e-04 2.603752654977142811e-04 -5.068002501502633095e-04
3.102000000000000000e+03 3.868146419525146484e+00 3.889868557453155518e-01 7.906120736151933670e-04 -2.887581067625433207e-04 1.505561958765611053e-04 -2.843880211003124714e-04
3.103000000000000000e+03 5.678146839141845703e+00 1.131005883216857910e+00 9.043043828569352627e-04 -2.123288431903347373e-04 2.075926749967038631e-04 -4.885007001576013863e-05
3.104000000000000000e+03 7.247090816497802734e+00 1.132560849189758301e+00 1.197403063997626305e-03 -4.771870153490453959e-04 2.160648291464895010e-04 5.015038914280012250e-05
3.105000000000000000e+03 7.136218547821044922e+00 3.925608992576599121e-01 1.838285825215280056e-03 2.743831137195229530e-04 6.338006933219730854e-04 -1.306221965933218598e-04
3.106000000000000000e+03 8.031854629516601562e+00 1.132138371467590332e+00 1.832644571550190449e-03 3.991356352344155312e-04 6.695340853184461594e-04 -2.381554368184879422e-04
3.107000000000000000e+03 9.590107917785644531e+00 3.879971206188201904e-01 1.695475890301167965e-03 -5.948694306425750256e-04 3.301819087937474251e-04 6.856823893031105399e-05
3.108000000000000000e+03 9.604414939880371094e+00 1.127997159957885742e+00 1.831871806643903255e-03 5.222544423304498196e-04 7.062379154376685619e-04 4.251479913364164531e-05
3.109000000000000000e+03 6.462907791137695312e+00 1.129258990287780762e+00 1.635328633710741997e-03 2.215834683738648891e-04 5.570736248046159744e-04 -5.209599039517343044e-04
3.110000000000000000e+03 4.892915248870849609e+00 1.130944728851318359e+00 1.334095140919089317e-03 1.256438736163545400e-06 4.006054659839719534e-04 -6.332825287245213985e-04
3.111000000000000000e+03 4.107773303985595703e+00 1.128986835479736328e+00 3.829927009064704180e-04 8.996013639261946082e-05 1.418858591932803392e-04 -1.761757739586755633e-04
3.112000000000000000e+03 1.431932568550109863e+00 3.871713578701019287e-01 2.122259866155218333e-05 1.790353271644562483e-04 6.007737829349935055e-05 4.401068144943565130e-05
3.113000000000000000e+03 1.338494110107421875e+01 -3.624081611633300781e-01 -1.578902840614318848e+00 -4.791697952896356583e-03 -4.751083552837371826e-01 -6.219627708196640015e-02
3.114000000000000000e+03 1.492772197723388672e+01 -1.047161340713500977e+00 -1.302846908569335938e+00 1.682377420365810394e-02 -3.858069479465484619e-01 -2.697973698377609253e-02
3.115000000000000000e+03 1.340428161621093750e+01 -1.102196455001831055e+00 -1.294752717018127441e+00 7.416089996695518494e-03 -3.862009942531585693e-01 -7.457622140645980835e-02
3.116000000000000000e+03 1.489244556427001953e+01 -3.079577088356018066e-01 -1.570030450820922852e+00 2.697970718145370483e-03 -4.701997339725494385e-01 -5.356315895915031433e-02
3.117000000000000000e+03 1.568929195404052734e+01 -1.018365263938903809e+00 -1.252303600311279297e+00 8.800883777439594269e-03 -3.730508089065551758e-01 6.620324682444334030e-03
3.118000000000000000e+03 1.564604759216308594e+01 -2.794539332389831543e-01 -1.555518507957458496e+00 -9.706614539027214050e-03 -4.695675671100616455e-01 -5.580552667379379272e-02
3.119000000000000000e+03 1.413872909545898438e+01 -3.356079757213592529e-01 -1.578586935997009277e+00 7.444808725267648697e-04 -4.733527302742004395e-01 -6.178086251020431519e-02
3.120000000000000000e+03 1.416603755950927734e+01 -1.075103878974914551e+00 -1.314247727394104004e+00 1.613871939480304718e-02 -3.894326984882354736e-01 -4.673932492733001709e-02
3.121000000000000000e+03 1.037684440612792969e+01 -3.884835243225097656e-01 -1.250430583953857422e+00 1.730442862026393414e-03 -3.746100366115570068e-01 -6.238211318850517273e-02
3.122000000000000000e+03 1.189073276519775391e+01 -1.121461629867553711e+00 -1.220325350761413574e+00 1.070620957762002945e-02 -3.628857433795928955e-01 -1.271819770336151123e-01
3.123000000000000000e+03 1.038032817840576172e+01 -1.128475308418273926e+00 -1.067911982536315918e+00 1.023722067475318909e-02 -3.173024356365203857e-01 -1.589773297309875488e-01
3.124000000000000000e+03 1.264584636688232422e+01 -1.117530822753906250e+00 -1.262988686561584473e+00 5.125210154801607132e-03 -3.773590326309204102e-01 -1.048635020852088928e-01
3.125000000000000000e+03 1.188046455383300781e+01 -3.815026283264160156e-01 -1.446720719337463379e+00 2.663217717781662941e-03 -4.332172572612762451e-01 -5.336764827370643616e-02
3.126000000000000000e+03 1.263218593597412109e+01 -3.775882422924041748e-01 -1.534351587295532227e+00 -5.191243253648281097e-03 -4.618628323078155518e-01 -5.521317943930625916e-02
3.127000000000000000e+03 1.112868118286132812e+01 -3.851337432861328125e-01 -1.353788614273071289e+00 1.427980721928179264e-03 -4.057081937789916992e-01 -5.855447426438331604e-02
3.128000000000000000e+03 1.113555717468261719e+01 -1.125109195709228516e+00 -1.150425314903259277e+00 1.205328293144702911e-02 -3.415116071701049805e-01 -1.416546106338500977e-01
3.129000000000000000e+03 9.624593734741210938e+00 -1.131355285644531250e+00 -9.759677648544311523e-01 6.623410154134035110e-03 -2.908033132553100586e-01 -1.715659648180007935e-01
3.130000000000000000e+03 9.636611938476562500e+00 -3.913553059101104736e-01 -1.135320901870727539e+00 5.813379539176821709e-04 -3.404218554496765137e-01 -6.553665548563003540e-02
3.131000000000000000e+03 8.908035278320312500e+00 -3.932945430278778076e-01 -1.012656450271606445e+00 1.517649041488766670e-03 -3.033416271209716797e-01 -6.754928082227706909e-02
3.132000000000000000e+03 8.179648399353027344e+00 -3.947979807853698730e-01 -8.857594132423400879e-01 -2.078588731819763780e-04 -2.657901942729949951e-01 -6.946311891078948975e-02
3.133000000000000000e+03 7.451354026794433594e+00 -3.965992927551269531e-01 -7.572176456451416016e-01 3.609725681599229574e-04 -2.270569950342178345e-01 -6.957302987575531006e-02
3.134000000000000000e+03 6.723036766052246094e+00 -3.981454968452453613e-01 -6.290497183799743652e-01 -2.425665035843849182e-03 -1.894426047801971436e-01 -6.856129318475723267e-02
3.135000000000000000e+03 5.994731426239013672e+00 -3.993945717811584473e-01 -5.048540234565734863e-01 -8.288775570690631866e-04 -1.517048627138137817e-01 -6.520006060600280762e-02
3.136000000000000000e+03 5.266466140747070312e+00 -4.014726877212524414e-01 -3.865638673305511475e-01 -4.439618438482284546e-03 -1.173010393977165222e-01 -6.155715137720108032e-02
3.137000000000000000e+03 4.538172721862792969e+00 -4.045463800430297852e-01 -2.781912088394165039e-01 -2.719835843890905380e-03 -8.427330851554870605e-02 -5.439288169145584106e-02
3.138000000000000000e+03 3.810027122497558594e+00 -4.076895117759704590e-01 -1.827087104320526123e-01 -6.277547683566808701e-03 -5.669587850570678711e-02 -4.757212847471237183e-02
3.139000000000000000e+03 3.082192897796630859e+00 -4.105251729488372803e-01 -1.032404154539108276e-01 -6.494793575257062912e-03 -3.292056173086166382e-02 -3.580069914460182190e-02
3.140000000000000000e+03 2.355662584304809570e+00 -4.111475944519042969e-01 -4.508969932794570923e-02 -8.234540931880474091e-03 -1.599727198481559753e-02 -2.338935248553752899e-02
3.141000000000000000e+03 1.642585277557373047e+00 -4.047921001911163330e-01 -9.993962943553924561e-03 -5.636928603053092957e-03 -4.689267370849847794e-03 -9.502721950411796570e-03
3.142000000000000000e+03 6.508445143699645996e-01 -1.120625138282775879e+00 -7.855176925659179688e-03 -4.017800558358430862e-03 -3.561893245205283165e-03 -3.092008410021662712e-03
3.143000000000000000e+03 8.868407249450683594e+00 -1.133294582366943359e+00 -8.759030699729919434e-01 5.166789982467889786e-03 -2.612209022045135498e-01 -1.814803034067153931e-01
3.144000000000000000e+03 8.112410545349121094e+00 -1.134797930717468262e+00 -7.710515260696411133e-01 1.349859638139605522e-03 -2.309104949235916138e-01 -1.861202418804168701e-01
3.145000000000000000e+03 7.356505870819091797e+00 -1.136599302291870117e+00 -6.629159450531005859e-01 -2.019657753407955170e-03 -1.994806677103042603e-01 -1.876556277275085449e-01
3.146000000000000000e+03 6.600578308105468750e+00 -1.138145565986633301e+00 -5.556578040122985840e-01 -6.147855892777442932e-03 -1.685416996479034424e-01 -1.844400912523269653e-01
3.147000000000000000e+03 5.844663143157958984e+00 -1.139394640922546387e+00 -4.499018490314483643e-01 -1.123172882944345474e-02 -1.383400708436965942e-01 -1.758982986211776733e-01
3.148000000000000000e+03 5.088787555694580078e+00 -1.141472697257995605e+00 -3.532801270484924316e-01 -1.388878840953111649e-02 -1.101506724953651428e-01 -1.617825627326965332e-01
3.149000000000000000e+03 4.332883834838867188e+00 -1.144546389579772949e+00 -2.633546590805053711e-01 -1.945407502353191376e-02 -8.484262228012084961e-02 -1.458956450223922729e-01
3.150000000000000000e+03 3.577128171920776367e+00 -1.147689461708068848e+00 -1.849948763847351074e-01 -2.326882816851139069e-02 -6.247910857200622559e-02 -1.214970946311950684e-01
3.151000000000000000e+03 2.821683883666992188e+00 -1.150525212287902832e+00 -1.182695627212524414e-01 -3.003912977874279022e-02 -4.449260607361793518e-02 -9.617505967617034912e-02
3.152000000000000000e+03 2.067543268203735352e+00 -1.151147603988647461e+00 -6.249861419200897217e-02 -3.422449901700019836e-02 -2.901693433523178101e-02 -5.984381213784217834e-02
3.153000000000000000e+03 1.326855897903442383e+00 -1.144792079925537109e+00 -2.669584937393665314e-02 -2.467911876738071442e-02 -1.541248988360166550e-02 -2.419279888272285461e-02
3.154000000000000000e+03 9.941840171813964844e-01 -3.806251585483551025e-01 2.490341663360595703e-03 -4.134124144911766052e-03 -4.931347793899476528e-04 -4.398597229737788439e-05
3.155000000000000000e+03 3.480942845344543457e-01 -5.610816478729248047e-01 7.495475001633167267e-04 3.267064690589904785e-03 1.204983680509030819e-03 1.617565168999135494e-03
3.156000000000000000e+03 3.813349151611328125e+01 1.001496434211730957e+00 2.505557823181152344e+01 1.228198146820068359e+01 1.120126819610595703e+01 1.589784049987792969e+01
3.157000000000000000e+03 3.812532806396484375e+01 1.019147396087646484e+00 1.839703369140625000e+01 2.757222557067871094e+01 1.379077720642089844e+01 2.216761779785156250e+01
3.158000000000000000e+03 3.811388778686523438e+01 1.034873604774475098e+00 1.506354141235351562e+01 3.970949172973632812e+01 1.643190956115722656e+01 2.246244049072265625e+01
3.159000000000000000e+03 3.809960556030273438e+01 1.048074483871459961e+00 1.136751270294189453e+01 5.079030609130859375e+01 1.864734649658203125e+01 2.008139038085937500e+01
3.160000000000000000e+03 3.808303070068359375e+01 1.058246016502380371e+00 9.592462539672851562e+00 5.969185256958007812e+01 2.078529357910156250e+01 1.548158264160156250e+01
3.161000000000000000e+03 3.806479263305664062e+01 1.064999699592590332e+00 8.679614067077636719e+00 6.620613861083984375e+01 2.246572685241699219e+01 9.066155433654785156e+00
3.162000000000000000e+03 3.804558944702148438e+01 1.068077683448791504e+00 9.762514114379882812e+00 6.946192932128906250e+01 2.376733398437500000e+01 2.390122175216674805e+00
3.163000000000000000e+03 3.802615737915039062e+01 1.067362427711486816e+00 1.304051589965820312e+01 6.991190338134765625e+01 2.488572502136230469e+01 -4.482933044433593750e+00
3.164000000000000000e+03 3.800723266601562500e+01 1.062881231307983398e+00 1.754430770874023438e+01 6.763706970214843750e+01 2.555441474914550781e+01 -9.984903335571289062e+00
3.165000000000000000e+03 3.798954010009765625e+01 1.054805159568786621e+00 2.307911682128906250e+01 6.324295425415039062e+01 2.589662170410156250e+01 -1.387300395965576172e+01
3.166000000000000000e+03 3.797375869750976562e+01 1.043442726135253906e+00 2.866141128540039062e+01 5.829332733154296875e+01 2.608642196655273438e+01 -1.544347476959228516e+01
3.167000000000000000e+03 3.796048736572265625e+01 1.029227852821350098e+00 3.458117294311523438e+01 5.310228729248046875e+01 2.630503845214843750e+01 -1.487596035003662109e+01
3.168000000000000000e+03 3.795022964477539062e+01 1.012703180313110352e+00 3.832946777343750000e+01 4.813272476196289062e+01 2.593865776062011719e+01 -1.296158695220947266e+01
3.169000000000000000e+03 3.794338607788085938e+01 9.944997429847717285e-01 4.129128265380859375e+01 4.528087997436523438e+01 2.597164916992187500e+01 -9.582964897155761719e+00
3.170000000000000000e+03 3.794021224975585938e+01 9.753128290176391602e-01 4.256830596923828125e+01 4.381711959838867188e+01 2.591562652587890625e+01 -5.626056671142578125e+00
3.171000000000000000e+03 3.794083023071289062e+01 9.558749198913574219e-01 4.211779022216796875e+01 4.368204116821289062e+01 2.573995018005371094e+01 -1.523376464843750000e+00
3.172000000000000000e+03 3.794521713256835938e+01 9.369283318519592285e-01 4.039358520507812500e+01 4.538395309448242188e+01 2.573326110839843750e+01 1.956447958946228027e+00
3.173000000000000000e+03 3.795320510864257812e+01 9.191965460777282715e-01 3.756943130493164062e+01 4.849021911621093750e+01 2.581789588928222656e+01 4.485221385955810547e+00
3.174000000000000000e+03 3.796448898315429688e+01 9.033567905426025391e-01 3.348678970336914062e+01 5.299234008789062500e+01 2.594373893737792969e+01 5.863698959350585938e+00
3.175000000000000000e+03 3.797863769531250000e+01 8.900137543678283691e-01 2.909201049804687500e+01 5.717371749877929688e+01 2.587971878051757812e+01 5.643101692199707031e+00
3.176000000000000000e+03 3.799510955810546875e+01 8.796769976615905762e-01 2.478999710083007812e+01 6.195889663696289062e+01 2.602466773986816406e+01 3.333730936050415039e+00
3.177000000000000000e+03 3.801327896118164062e+01 8.727412819862365723e-01 2.108540916442871094e+01 6.545371246337890625e+01 2.596173667907714844e+01 -6.225984692573547363e-01
3.178000000000000000e+03 3.803244781494140625e+01 8.694714903831481934e-01 1.815003776550292969e+01 6.700711822509765625e+01 2.554714775085449219e+01 -6.100802421569824219e+00
3.179000000000000000e+03 3.805189132690429688e+01 8.699923753738403320e-01 1.754343605041503906e+01 6.634515380859375000e+01 2.516657638549804688e+01 -1.229757404327392578e+01
3.180000000000000000e+03 3.807085800170898438e+01 8.742840886116027832e-01 1.829759788513183594e+01 6.264488220214843750e+01 2.428274536132812500e+01 -1.853003311157226562e+01
3.181000000000000000e+03 3.808863067626953125e+01 8.821827769279479980e-01 2.079281997680664062e+01 5.618020248413085938e+01 2.309190559387207031e+01 -2.380577850341796875e+01
3.182000000000000000e+03 3.810452651977539062e+01 8.933867812156677246e-01 2.414102935791015625e+01 4.775450897216796875e+01 2.156866073608398438e+01 -2.714487266540527344e+01
3.183000000000000000e+03 3.811793899536132812e+01 9.074683189392089844e-01 2.809048271179199219e+01 3.754452514648437500e+01 1.969050216674804688e+01 -2.824642181396484375e+01
3.184000000000000000e+03 3.812835693359375000e+01 9.238896369934082031e-01 3.097585678100585938e+01 2.714874076843261719e+01 1.743737983703613281e+01 -2.701032638549804688e+01
3.185000000000000000e+03 3.813538360595703125e+01 9.420236945152282715e-01 3.313993835449218750e+01 1.691376113891601562e+01 1.501610946655273438e+01 -2.298674392700195312e+01
3.186000000000000000e+03 3.813875198364257812e+01 9.611779451370239258e-01 3.294785690307617188e+01 8.139946937561035156e+00 1.232634162902832031e+01 -1.720425796508789062e+01
3.187000000000000000e+03 3.813832855224609375e+01 9.806210994720458984e-01 3.029926681518554688e+01 2.047918319702148438e+00 9.704155921936035156e+00 -5.112050533294677734e+00
