# el_label, x, y, sXX, sYY, sZZ, sXY
1.000000000000000000e+00 3.503461837768554688e+01 -1.203200435638427734e+01 -1.130087766796350479e-04 -1.833377427828963846e-05 -3.940276292269118130e-05 -3.572231435100547969e-05
2.000000000000000000e+00 3.466752624511718750e+01 -1.111128234863281250e+01 1.782095864655275363e-06 -1.126361439673928544e-05 -2.844455593731254339e-06 4.937621633871458471e-05
3.000000000000000000e+00 3.700949096679687500e+01 -1.191583538055419922e+01 3.132728670607320964e-05 -9.032339221448637545e-06 6.688483608741080388e-06 8.156504918588325381e-06
4.000000000000000000e+00 3.668462371826171875e+01 -1.258782100677490234e+01 -7.840614671295043081e-06 -1.490824524807976559e-05 -6.824657702964032069e-06 3.405179541005054489e-06
5.000000000000000000e+00 3.544429779052734375e+01 -1.138607501983642578e+01 1.832415364333428442e-05 -4.083045132574625313e-05 -6.751889486622530967e-06 -2.400451921857893467e-05
6.000000000000000000e+00 3.585778045654296875e+01 -1.231281280517578125e+01 5.858004078618250787e-05 2.955849231511820108e-05 2.644156120368279517e-05 4.339961742516607046e-05
7.000000000000000000e+00 3.339967346191406250e+01 -1.113925266265869141e+01 1.340639428235590458e-04 1.833925125538371503e-05 4.572095713228918612e-05 1.630089514037535992e-06
8.000000000000000000e+00 3.289870071411132812e+01 -1.052772140502929688e+01 -3.606329264584928751e-04 -4.513719886745093390e-06 -1.095439947675913572e-04 -6.884569756948621944e-06
9.000000000000000000e+00 3.225069427490234375e+01 -1.013691043853759766e+01 -9.302141734224278480e-06 -2.499374659237219021e-06 -3.540455054462654516e-06 1.535875412628229242e-06
1.000000000000000000e+01 3.622507476806640625e+01 -1.165381526947021484e+01 -1.726079244690481573e-05 3.120997644145973027e-05 4.184754743619123474e-06 2.963628958241315559e-06
1.100000000000000000e+01 3.421545791625976562e+01 -1.174414348602294922e+01 1.476882462156936526e-04 1.724064532027114183e-05 4.947866909787990153e-05 -7.247392932185903192e-05
1.200000000000000000e+01 3.271157836914062500e+01 -1.019549655914306641e+01 8.091644849628210068e-05 4.525920758169377223e-06 2.563271118560805917e-05 -2.911182264142553322e-06
1.300000000000000000e+01 3.326613235473632812e+01 -1.040691661834716797e+01 -9.147624223260208964e-05 -2.645105496412725188e-06 -2.823640534188598394e-05 -1.432004137313924730e-05
1.400000000000000000e+01 3.391250991821289062e+01 -1.076323032379150391e+01 -5.942758434684947133e-05 9.228112503478769213e-06 -1.505984073446597904e-05 3.134308281005360186e-05
1.500000000000000000e+01 3.836654663085937500e+01 -1.258410835266113281e+01 8.791225263848900795e-05 6.040885637048631907e-06 2.818594293785281479e-05 -1.815204814192838967e-05
1.600000000000000000e+01 3.802908325195312500e+01 -1.324341106414794922e+01 9.039026917889714241e-05 -4.308033749111928046e-05 1.419297950633335859e-05 2.186058372899424285e-05
1.700000000000000000e+01 3.740925216674804688e+01 -1.289637470245361328e+01 1.048046397045254707e-04 -7.252160685311537236e-06 2.926574234152212739e-05 2.469631726853549480e-05
1.800000000000000000e+01 3.926432418823242188e+01 -1.394607543945312500e+01 1.922313385875895619e-04 -5.823978426633402705e-05 4.019746847916394472e-05 2.052758100035134703e-05
1.900000000000000000e+01 3.864752197265625000e+01 -1.359337615966796875e+01 1.696609833743423223e-04 -2.553562080720439553e-05 4.323761095292866230e-05 -6.667600700893672183e-06
2.000000000000000000e+01 3.964688110351562500e+01 -1.331229019165039062e+01 1.848906686063855886e-04 6.106859473220538348e-06 5.729926124331541359e-05 -8.959046681411564350e-05
2.100000000000000000e+01 3.772416305541992188e+01 -1.222431468963623047e+01 2.598365244921296835e-05 -7.731244295428041369e-06 5.475722446135478094e-06 -6.520392162201460451e-06
2.200000000000000000e+01 3.900753402709960938e+01 -1.294683361053466797e+01 1.291765074711292982e-04 6.482588105427566916e-06 4.069773058290593326e-05 -2.947948087239637971e-05
2.300000000000000000e+01 4.088659667968750000e+01 -1.412661933898925781e+01 3.194075834471732378e-04 4.561037712846882641e-05 1.095053885364905000e-04 -1.952885795617476106e-04
2.400000000000000000e+01 4.108477783203125000e+01 -1.516452312469482422e+01 3.693020844366401434e-04 -6.169013067847117782e-05 9.228358248947188258e-05 -1.362352486466988921e-04
2.500000000000000000e+01 3.987519454956054688e+01 -1.433080673217773438e+01 2.882355765905231237e-04 -6.906099588377401233e-05 6.575237785000354052e-05 -7.450805424014106393e-05
2.600000000000000000e+01 4.168745040893554688e+01 -1.558723735809326172e+01 3.090100071858614683e-04 3.001554796355776489e-05 1.017076720017939806e-04 -1.282470038859173656e-04
2.700000000000000000e+01 4.210943603515625000e+01 -1.497935009002685547e+01 4.396737786009907722e-04 1.169919632957316935e-04 1.669997291173785925e-04 -2.960580459330230951e-04
2.800000000000000000e+01 4.149871826171875000e+01 -1.455105972290039062e+01 3.898047143593430519e-04 1.517730997875332832e-04 1.624733413336798549e-04 -1.951564481714740396e-04
2.900000000000000000e+01 4.048069763183593750e+01 -1.474565982818603516e+01 2.731637796387076378e-04 -2.630660856084432453e-05 7.405714859487488866e-05 -4.072410229127854109e-05
3.000000000000000000e+01 4.027304840087890625e+01 -1.370619010925292969e+01 2.478643727954477072e-04 6.654318713117390871e-05 9.432226943317800760e-05 -9.133212734013795853e-05
3.100000000000000000e+01 4.393293762207031250e+01 -1.628159904479980469e+01 4.295011458452790976e-04 2.742798533290624619e-04 2.111342910211533308e-04 -3.194427117705345154e-04
3.200000000000000000e+01 4.349453735351562500e+01 -1.687784004211425781e+01 2.225796633865684271e-04 1.094871549867093563e-04 9.962004696717485785e-05 -2.736440219450742006e-04
3.300000000000000000e+01 4.454083633422851562e+01 -1.671368789672851562e+01 3.310346801299601793e-04 2.201353199779987335e-04 1.653509971220046282e-04 -3.403798909857869148e-04
3.400000000000000000e+01 4.332546997070312500e+01 -1.584721183776855469e+01 4.710952634923160076e-04 1.927965058712288737e-04 1.991675380850210786e-04 -3.619026392698287964e-04
3.500000000000000000e+01 4.228987503051757812e+01 -1.601399040222167969e+01 3.561853081919252872e-04 8.186694685718975961e-06 1.093116006813943386e-04 -2.186587953474372625e-04
3.600000000000000000e+01 4.271836471557617188e+01 -1.541066265106201172e+01 4.676847020164132118e-04 2.243484050268307328e-04 2.076099335681647062e-04 -2.876471844501793385e-04
3.700000000000000000e+01 4.409748458862304688e+01 -1.730638694763183594e+01 7.180994725786149502e-05 2.347228582948446274e-04 9.195983875542879105e-05 -2.393373288214206696e-04
3.800000000000000000e+01 4.289202880859375000e+01 -1.644699668884277344e+01 2.381863887421786785e-04 1.221324928337708116e-04 1.080956644727848470e-04 -1.916406763484701514e-04
3.900000000000000000e+01 4.547533798217773438e+01 -1.835840034484863281e+01 1.817784141167066991e-05 4.520600195974111557e-04 1.410713593941181898e-04 -2.380132646067067981e-04
4.000000000000000000e+01 4.592621231079101562e+01 -1.777148628234863281e+01 -1.618000387679785490e-04 1.499585341662168503e-04 -3.552454472810495645e-06 -1.123398978961631656e-04
4.100000000000000000e+01 4.477213668823242188e+01 -1.781250190734863281e+01 -3.304301571915857494e-05 2.634774136822670698e-04 6.913031393196433783e-05 -3.040890442207455635e-04
4.200000000000000000e+01 4.521964645385742188e+01 -1.722290992736816406e+01 1.724424073472619057e-04 2.594269171822816133e-04 1.295607944484800100e-04 -2.188490179833024740e-04
4.300000000000000000e+01 4.605035400390625000e+01 -1.858536338806152344e+01 1.629935577511787415e-04 4.300249565858393908e-04 1.779055601218715310e-04 5.835963020217604935e-05
4.400000000000000000e+01 4.658209228515625000e+01 -1.637586402893066406e+01 -5.607858300209045410e-01 5.843688547611236572e-02 -1.507046967744827271e-01 -6.880680471658706665e-02
4.500000000000000000e+01 4.631165695190429688e+01 -1.710632896423339844e+01 -6.528389453887939453e-02 -1.289189048111438751e-02 -2.345273457467556000e-02 5.195638630539178848e-03
4.600000000000000000e+01 4.698057174682617188e+01 -1.691733360290527344e+01 -1.130520403385162354e-01 5.792516749352216721e-03 -3.217785805463790894e-02 -4.455287754535675049e-02
4.700000000000000000e+01 4.604409027099609375e+01 -1.595431995391845703e+01 -6.595076918601989746e-01 1.481614410877227783e-01 -1.534038782119750977e-01 1.392748653888702393e-01
4.800000000000000000e+01 4.565672302246093750e+01 -1.659176063537597656e+01 -2.972492575645446777e-01 4.268679302185773849e-03 -8.789417147636413574e-02 5.875542759895324707e-02
4.900000000000000000e+01 4.378240203857421875e+01 -1.521486091613769531e+01 -7.332255840301513672e-01 -2.273590564727783203e-01 -2.881754040718078613e-01 4.566527009010314941e-01
5.000000000000000000e+01 4.483348846435546875e+01 -1.505673217773437500e+01 -7.680049538612365723e-01 4.296995699405670166e-02 -2.175104916095733643e-01 3.060619235038757324e-01
5.100000000000000000e+01 4.545152282714843750e+01 -1.549620914459228516e+01 -7.225907444953918457e-01 1.005262807011604309e-01 -1.866193413734436035e-01 2.169977873563766479e-01
5.200000000000000000e+01 4.359851455688476562e+01 -1.417135810852050781e+01 -8.262408375740051270e-01 -1.308559030294418335e-01 -2.871290147304534912e-01 4.376426935195922852e-01
5.300000000000000000e+01 4.317002487182617188e+01 -1.477468585968017578e+01 -8.363963365554809570e-01 -3.311086595058441162e-01 -3.502514958381652832e-01 5.147365331649780273e-01
5.400000000000000000e+01 4.500817108154296875e+01 -1.608890724182128906e+01 -4.819830358028411865e-01 -3.136448189616203308e-02 -1.540042608976364136e-01 2.477630227804183960e-01
5.500000000000000000e+01 4.421584320068359375e+01 -1.461507511138916016e+01 -8.064209818840026855e-01 -7.868831604719161987e-02 -2.655327916145324707e-01 3.697442710399627686e-01
5.600000000000000000e+01 4.439509201049804688e+01 -1.565297508239746094e+01 -6.369461417198181152e-01 -1.860197782516479492e-01 -2.468897700309753418e-01 3.341755270957946777e-01
5.700000000000000000e+01 4.131310272216796875e+01 -1.347806453704833984e+01 -9.660974740982055664e-01 -4.162427484989166260e-01 -4.147020578384399414e-01 6.472520232200622559e-01
5.800000000000000000e+01 4.193373489379882812e+01 -1.390832901000976562e+01 -9.398599267005920410e-01 -4.073820710182189941e-01 -4.041725993156433105e-01 6.117709279060363770e-01
5.900000000000000000e+01 4.297583389282226562e+01 -1.373159217834472656e+01 -8.368160724639892578e-01 -2.307433187961578369e-01 -3.202678263187408447e-01 4.761187434196472168e-01
6.000000000000000000e+01 4.108984756469726562e+01 -1.242412281036376953e+01 -8.230854868888854980e-01 -3.395205736160278320e-01 -3.487818241119384766e-01 5.201840400695800781e-01
6.100000000000000000e+01 4.069198989868164062e+01 -1.304873943328857422e+01 -1.028814196586608887e+00 -4.489906728267669678e-01 -4.433414638042449951e-01 6.550876498222351074e-01
6.200000000000000000e+01 4.171900177001953125e+01 -1.285902404785156250e+01 -8.518640398979187012e-01 -3.233527839183807373e-01 -3.525650501251220703e-01 5.292648077011108398e-01
6.300000000000000000e+01 4.255384826660156250e+01 -1.433948040008544922e+01 -8.939000368118286133e-01 -3.520765304565429688e-01 -3.737929761409759521e-01 5.857766270637512207e-01
6.400000000000000000e+01 4.234767913818359375e+01 -1.329486465454101562e+01 -8.413596749305725098e-01 -2.634782791137695312e-01 -3.314513862133026123e-01 5.179018378257751465e-01
6.500000000000000000e+01 3.905907440185546875e+01 -1.123355197906494141e+01 -7.334738373756408691e-01 -3.383500277996063232e-01 -3.215471804141998291e-01 4.801084101200103760e-01
6.600000000000000000e+01 3.974638366699218750e+01 -1.162254619598388672e+01 -7.526189088821411133e-01 -3.598358631134033203e-01 -3.337364196777343750e-01 5.249243378639221191e-01
6.700000000000000000e+01 3.805582809448242188e+01 -1.151677036285400391e+01 -9.477763772010803223e-01 -3.218982815742492676e-01 -3.809023797512054443e-01 5.078284740447998047e-01
6.800000000000000000e+01 3.938637542724609375e+01 -1.226908969879150391e+01 -9.869574904441833496e-01 -3.535843491554260254e-01 -4.021625518798828125e-01 5.849598050117492676e-01
6.900000000000000000e+01 4.004990386962890625e+01 -1.264503097534179688e+01 -1.041520357131958008e+00 -4.038520753383636475e-01 -4.336117208003997803e-01 6.326359510421752930e-01
7.000000000000000000e+01 4.043246459960937500e+01 -1.201124572753906250e+01 -7.835772633552551270e-01 -3.798172771930694580e-01 -3.490183651447296143e-01 5.199506878852844238e-01
7.100000000000000000e+01 3.837077713012695312e+01 -1.084462738037109375e+01 -6.389839649200439453e-01 -3.300925493240356445e-01 -2.907229363918304443e-01 4.280302226543426514e-01
7.200000000000000000e+01 3.872161483764648438e+01 -1.189285373687744141e+01 -9.349133968353271484e-01 -3.275537490844726562e-01 -3.787401318550109863e-01 5.573309659957885742e-01
7.300000000000000000e+01 3.044046974182128906e+01 -8.096991539001464844e+00 8.591138124465942383e-01 -1.110656931996345520e-02 2.544021904468536377e-01 1.671982854604721069e-01
7.400000000000000000e+01 2.967675399780273438e+01 -8.170035362243652344e+00 1.592012166976928711e+00 7.234552502632141113e-02 4.993073046207427979e-01 1.693479865789413452e-01
7.500000000000000000e+01 3.063189506530761719e+01 -2.451724529266357422e+00 -4.190562665462493896e-01 1.664543151855468750e-01 -7.578058540821075439e-02 1.540276855230331421e-01
7.600000000000000000e+01 3.100996780395507812e+01 -1.855646371841430664e+00 -3.569074273109436035e-01 1.305769979953765869e-01 -6.789913028478622437e-02 1.356084942817687988e-01
7.700000000000000000e+01 2.951055908203125000e+01 -1.918474793434143066e+00 -4.912002682685852051e-01 1.269539743661880493e-01 -1.092738807201385498e-01 -3.705211356282234192e-02
7.800000000000000000e+01 2.820421409606933594e+01 -2.233135938644409180e+00 -6.273803710937500000e-01 1.194677576422691345e-01 -1.523737758398056030e-01 -2.164153605699539185e-01
7.900000000000000000e+01 2.638702583312988281e+01 -4.872319698333740234e+00 -1.076386809349060059e+00 -4.096224904060363770e-01 -4.458027780055999756e-01 6.680309772491455078e-01
8.000000000000000000e+01 2.526055717468261719e+01 -5.290868282318115234e+00 -5.141198039054870605e-01 -9.339425563812255859e-01 -4.344187080860137939e-01 1.691688448190689087e-01
8.100000000000000000e+01 2.455109786987304688e+01 -5.106342792510986328e+00 -8.537918329238891602e-01 -7.655795812606811523e-01 -4.858114421367645264e-01 -2.212898880243301392e-01
8.200000000000000000e+01 2.307339477539062500e+01 -3.763503551483154297e+00 -1.454128146171569824e+00 1.197543367743492126e-01 -4.003121256828308105e-01 2.612167596817016602e-01
8.300000000000000000e+01 2.366863059997558594e+01 -3.028227806091308594e+00 -1.383815407752990723e+00 -1.678522080183029175e-01 -4.655002653598785400e-01 7.330646514892578125e-01
8.400000000000000000e+01 2.377303695678710938e+01 -2.536067962646484375e+00 -8.736246228218078613e-01 -3.334102630615234375e-01 -3.621104657649993896e-01 7.145898938179016113e-01
8.500000000000000000e+01 2.123806571960449219e+01 -1.096630692481994629e+00 -7.622056007385253906e-01 1.210340782999992371e-01 -1.923514604568481445e-01 3.239330053329467773e-01
8.600000000000000000e+01 1.806978034973144531e+01 -1.546598672866821289e+00 -1.030779719352722168e+00 8.846177160739898682e-02 -2.826953828334808350e-01 1.074770092964172363e-01
8.700000000000000000e+01 1.964500617980957031e+01 -2.093304395675659180e+00 -9.089649319648742676e-01 1.950430721044540405e-01 -2.141765654087066650e-01 2.619786858558654785e-01
8.800000000000000000e+01 2.044971466064453125e+01 -7.609029769897460938e+00 3.623749911785125732e-01 2.072400003671646118e-01 1.708845049142837524e-01 1.387635022401809692e-01
8.900000000000000000e+01 1.652983856201171875e+01 -1.119420528411865234e+01 1.102096557617187500e+00 8.715738058090209961e-01 5.921010971069335938e-01 3.990984559059143066e-01
9.000000000000000000e+01 1.540415191650390625e+01 -1.038220310211181641e+01 6.764206886291503906e-01 7.970528602600097656e-01 4.420420527458190918e-01 1.365106701850891113e-01
9.100000000000000000e+01 3.170229530334472656e+01 -7.884471893310546875e+00 4.205818772315979004e-01 -1.045659035444259644e-01 9.480479359626770020e-02 3.039294779300689697e-01
9.200000000000000000e+01 3.348802566528320312e+01 -7.542084217071533203e+00 1.545428931713104248e-01 -1.882083415985107422e-01 -1.009963359683752060e-02 3.506466746330261230e-01
9.300000000000000000e+01 3.556119155883789062e+01 -9.071858406066894531e+00 -1.814427226781845093e-01 -2.161075174808502197e-01 -1.192650720477104187e-01 3.137529194355010986e-01
9.400000000000000000e+01 3.632530593872070312e+01 -9.327306747436523438e+00 -2.481139302253723145e-01 -2.475379258394241333e-01 -1.486955583095550537e-01 3.596716225147247314e-01
9.500000000000000000e+01 3.939581298828125000e+01 -1.054293537139892578e+01 -4.775850772857666016e-01 -3.473189473152160645e-01 -2.474711984395980835e-01 4.314503073692321777e-01
9.600000000000000000e+01 4.042809295654296875e+01 -1.023481559753417969e+01 -3.470298647880554199e-01 -3.139341473579406738e-01 -1.982892006635665894e-01 3.989834487438201904e-01
9.700000000000000000e+01 4.210171890258789062e+01 -1.219975757598876953e+01 -6.960041522979736328e-01 -2.243234515190124512e-01 -2.760982811450958252e-01 4.481265246868133545e-01
9.800000000000000000e+01 4.464646530151367188e+01 -1.393924522399902344e+01 -8.296816349029541016e-01 7.492454349994659424e-02 -2.264271378517150879e-01 3.576764762401580811e-01
9.900000000000000000e+01 4.704681396484375000e+01 -1.445727443695068359e+01 -1.007498145103454590e+00 2.703099250793457031e-01 -2.211564630270004272e-01 2.362317293882369995e-01
1.000000000000000000e+02 4.710833358764648438e+01 -1.567414474487304688e+01 -9.407813549041748047e-01 2.138487100601196289e-01 -2.180797904729843140e-01 8.251854032278060913e-02
1.010000000000000000e+02 4.775525283813476562e+01 -1.404689121246337891e+01 -1.121732115745544434e+00 1.764337867498397827e-01 -2.835895121097564697e-01 2.886628508567810059e-01
1.020000000000000000e+02 4.779879379272460938e+01 -1.611908531188964844e+01 -8.838995099067687988e-01 -8.468586206436157227e-02 -2.905755937099456787e-01 -2.444671690464019775e-01
1.030000000000000000e+02 4.868745040893554688e+01 -1.292973232269287109e+01 -9.683392047882080078e-01 2.028910219669342041e-01 -2.296344637870788574e-01 2.956335842609405518e-01
1.040000000000000000e+02 4.949977874755859375e+01 -1.527297878265380859e+01 -1.719181418418884277e+00 -4.585880041122436523e-02 -5.295120477676391602e-01 -1.689816713333129883e-01
1.050000000000000000e+02 5.074513244628906250e+01 -1.513788700103759766e+01 -1.895380973815917969e+00 1.762481406331062317e-02 -5.633268356323242188e-01 -1.933121383190155029e-01
1.060000000000000000e+02 5.073819732666015625e+01 -1.396184539794921875e+01 -1.490608811378479004e+00 7.046929746866226196e-02 -4.260418713092803955e-01 -5.685123614966869354e-04
1.070000000000000000e+02 5.147018432617187500e+01 -9.374509811401367188e+00 1.066180970519781113e-02 5.087491869926452637e-01 1.558233052492141724e-01 2.470704168081283569e-01
1.080000000000000000e+02 5.234971618652343750e+01 -4.923094749450683594e+00 2.511483430862426758e+00 1.129256844520568848e+00 1.092222094535827637e+00 1.198401093482971191e+00
1.090000000000000000e+02 4.950923919677734375e+01 -5.508080005645751953e+00 2.312925815582275391e+00 1.053194105625152588e-01 7.254735827445983887e-01 6.571708619594573975e-02
1.100000000000000000e+02 4.987543106079101562e+01 -6.773942947387695312e+00 1.562400817871093750e+00 5.341413617134094238e-01 6.289626359939575195e-01 5.746398568153381348e-01
1.110000000000000000e+02 4.834138107299804688e+01 -6.031118392944335938e+00 1.664076209068298340e+00 1.962674260139465332e-01 5.581030845642089844e-01 3.710422664880752563e-02
1.120000000000000000e+02 4.621004867553710938e+01 -4.657063484191894531e+00 1.244960188865661621e+00 6.353621929883956909e-02 3.925489187240600586e-01 -3.226286470890045166e-01
1.130000000000000000e+02 4.361026000976562500e+01 -3.731886863708496094e+00 1.021905899047851562e+00 1.222607567906379700e-01 3.432500064373016357e-01 -3.063623905181884766e-01
1.140000000000000000e+02 4.235611343383789062e+01 -3.110212326049804688e+00 7.848936915397644043e-01 2.016639858484268188e-01 2.959673106670379639e-01 -3.273103535175323486e-01
1.150000000000000000e+02 3.650405120849609375e+01 -1.194294810295104980e+00 8.816734701395034790e-02 -3.713240846991539001e-02 1.531048119068145752e-02 5.541641637682914734e-02
1.160000000000000000e+02 3.497043991088867188e+01 -1.434474349021911621e+00 -2.652454935014247894e-02 -7.408509030938148499e-03 -1.017991732805967331e-02 1.234845295548439026e-01
1.170000000000000000e+02 3.432083892822265625e+01 -1.756170392036437988e+00 -6.384786963462829590e-02 4.398372489959001541e-03 -1.783484779298305511e-02 1.750346124172210693e-01
1.180000000000000000e+02 3.383814239501953125e+01 -2.195233345031738281e+00 -9.051699936389923096e-02 -1.706614531576633453e-02 -3.227494284510612488e-02 2.348437458276748657e-01
1.190000000000000000e+02 3.576980590820312500e+01 -8.440985679626464844e+00 -6.774516403675079346e-02 -2.500973939895629883e-01 -9.535276144742965698e-02 3.498090505599975586e-01
1.200000000000000000e+02 4.089426422119140625e+01 -7.184872150421142578e+00 2.607691884040832520e-01 -2.331215888261795044e-01 8.294280618429183960e-03 2.670697569847106934e-01
1.210000000000000000e+02 4.147303771972656250e+01 -7.812022686004638672e+00 1.848748624324798584e-01 -2.068257182836532593e-01 -6.585257127881050110e-03 2.796289324760437012e-01
1.220000000000000000e+02 4.503685760498046875e+01 -6.621996879577636719e+00 7.290813922882080078e-01 1.860164664685726166e-02 2.243049144744873047e-01 1.296142190694808960e-01
1.230000000000000000e+02 4.284004592895507812e+01 -1.075718212127685547e+01 -3.753563463687896729e-01 -1.103945672512054443e-01 -1.457252800464630127e-01 3.746220171451568604e-01
1.240000000000000000e+02 4.145602035522460938e+01 -1.176439571380615234e+01 -6.500934362411499023e-01 -2.913492619991302490e-01 -2.824328243732452393e-01 4.566329419612884521e-01
1.250000000000000000e+02 3.402549743652343750e+01 -8.527416229248046875e+00 -1.256958302110433578e-02 -1.759146451950073242e-01 -5.654526874423027039e-02 2.721900641918182373e-01
1.260000000000000000e+02 5.335168838500976562e+01 -1.479545879364013672e+01 -2.170719385147094727e+00 -2.466022036969661713e-02 -6.586138606071472168e-01 -2.406367808580398560e-01
1.270000000000000000e+02 5.410263061523437500e+01 -1.102477931976318359e+01 -6.693053841590881348e-01 2.553895711898803711e-01 -1.241747513413429260e-01 -1.212202236056327820e-01
1.280000000000000000e+02 5.598159790039062500e+01 -1.448813438415527344e+01 -1.992282748222351074e+00 -2.569456584751605988e-02 -6.053931713104248047e-01 -2.729028463363647461e-01
1.290000000000000000e+02 5.783304977416992188e+01 -5.597525119781494141e+00 5.523957610130310059e-01 2.850349247455596924e-01 2.512291967868804932e-01 1.401293277740478516e-01
1.300000000000000000e+02 5.544177627563476562e+01 -1.803816556930541992e+00 1.032769441604614258e+00 1.183223128318786621e+00 6.647977828979492188e-01 1.074556708335876465e+00
1.310000000000000000e+02 5.818964385986328125e+01 -4.144532382488250732e-01 7.502574920654296875e-01 8.743597865104675293e-01 4.873851835727691650e-01 7.192321419715881348e-01
1.320000000000000000e+02 5.875581359863281250e+01 2.732475042343139648e+00 5.621769428253173828e-01 1.108470559120178223e+00 5.011942386627197266e-01 7.769643664360046387e-01
1.330000000000000000e+02 5.794822692871093750e+01 1.613440990447998047e+00 5.571902394294738770e-01 1.076149463653564453e+00 4.900019168853759766e-01 7.759234905242919922e-01
1.340000000000000000e+02 5.729710006713867188e+01 -1.431970405578613281e+01 -1.774373888969421387e+00 -1.086381450295448303e-02 -5.355712771415710449e-01 -2.995506525039672852e-01
1.350000000000000000e+02 6.105089187622070312e+01 -1.326952552795410156e+01 -1.406049966812133789e+00 -2.204555422067642212e-01 -4.879516363143920898e-01 -6.059361100196838379e-01
1.360000000000000000e+02 6.221397781372070312e+01 -1.269028472900390625e+01 -1.684914112091064453e+00 -3.278780281543731689e-01 -6.038376092910766602e-01 -7.362470626831054688e-01
1.370000000000000000e+02 6.335071945190429688e+01 -1.217044830322265625e+01 -2.183133125305175781e+00 -3.871038556098937988e-01 -7.710710763931274414e-01 -5.554829835891723633e-01
1.380000000000000000e+02 6.428518676757812500e+01 -1.139058113098144531e+01 -1.620901465415954590e+00 -4.878433048725128174e-01 -6.326234340667724609e-01 -3.386602699756622314e-01
1.390000000000000000e+02 6.534624481201171875e+01 -1.225005531311035156e+01 -1.497888922691345215e+00 -2.184416055679321289e-01 -5.148991346359252930e-01 8.371525257825851440e-02
1.400000000000000000e+02 6.832704925537109375e+01 -1.324391651153564453e+01 -3.623846769332885742e-01 4.635815322399139404e-02 -9.480796009302139282e-02 2.017478086054325104e-02
1.410000000000000000e+02 6.902194976806640625e+01 -1.401330757141113281e+01 -2.319542765617370605e-01 2.464100159704685211e-02 -6.219398230314254761e-02 2.740375138819217682e-02
1.420000000000000000e+02 7.046383666992187500e+01 -1.456249332427978516e+01 -1.499551385641098022e-01 1.483214832842350006e-02 -4.053689539432525635e-02 -2.576770726591348648e-03
1.430000000000000000e+02 7.202597045898437500e+01 -1.446489524841308594e+01 -1.184102967381477356e-01 1.143014337867498398e-02 -3.209404647350311279e-02 -2.125266380608081818e-02
1.440000000000000000e+02 7.436096191406250000e+01 -1.443150997161865234e+01 -6.957754492759704590e-02 -2.468521008267998695e-03 -2.161381952464580536e-02 -3.082108311355113983e-02
1.450000000000000000e+02 7.538606262207031250e+01 -1.063884162902832031e+01 -1.117890700697898865e-01 -6.017256900668144226e-02 -5.158849060535430908e-02 -1.453966349363327026e-01
1.460000000000000000e+02 7.455493927001953125e+01 -5.768424510955810547e+00 -5.887774378061294556e-02 -2.080115824937820435e-01 -8.006680011749267578e-02 -3.312295377254486084e-01
1.470000000000000000e+02 7.582949829101562500e+01 -4.506612777709960938e+00 -1.952857337892055511e-02 -3.178083896636962891e-01 -1.012010872364044189e-01 -2.921999394893646240e-01
1.480000000000000000e+02 7.460877990722656250e+01 -5.975034832954406738e-01 3.379936143755912781e-02 -3.988020420074462891e-01 -1.095008030533790588e-01 -3.360193073749542236e-01
1.490000000000000000e+02 7.578688812255859375e+01 3.709908723831176758e+00 4.987629503011703491e-02 -6.568005681037902832e-01 -1.820772886276245117e-01 -2.281322032213211060e-01
1.500000000000000000e+02 7.433164978027343750e+01 6.244466304779052734e+00 8.390952646732330322e-02 -5.172221064567565918e-01 -1.299937814474105835e-01 -2.023976743221282959e-01
1.510000000000000000e+02 7.533916473388671875e+01 1.102407836914062500e+01 7.577767223119735718e-02 -7.225579619407653809e-01 -1.940340846776962280e-01 -6.776530295610427856e-02
1.520000000000000000e+02 7.415097808837890625e+01 1.405740928649902344e+01 1.091869771480560303e-01 -5.327698588371276855e-01 -1.270748674869537354e-01 6.859692744910717010e-03
1.530000000000000000e+02 7.415657043457031250e+01 1.664432334899902344e+01 9.646026045083999634e-02 -5.502552986145019531e-01 -1.361385136842727661e-01 8.999205380678176880e-02
1.540000000000000000e+02 7.474884033203125000e+01 2.053657341003417969e+01 5.671704187989234924e-02 -5.840156078338623047e-01 -1.581895798444747925e-01 1.816200911998748779e-01
1.550000000000000000e+02 7.280987548828125000e+01 2.202141380310058594e+01 6.973122060298919678e-02 -2.847736775875091553e-01 -6.451273709535598755e-02 2.160483896732330322e-01
1.560000000000000000e+02 7.526791381835937500e+01 2.828406143188476562e+01 -2.433468587696552277e-02 -4.911907613277435303e-01 -1.546576321125030518e-01 1.967124938964843750e-01
1.570000000000000000e+02 7.306726074218750000e+01 3.052269363403320312e+01 -6.493001431226730347e-02 -2.332025617361068726e-01 -8.943977206945419312e-02 2.035480141639709473e-01
1.580000000000000000e+02 7.357428741455078125e+01 3.768554687500000000e+01 -7.123766839504241943e-02 -2.242945283651351929e-01 -8.865965902805328369e-02 7.669594138860702515e-02
1.590000000000000000e+02 7.182524871826171875e+01 4.106161117553710938e+01 -9.648096561431884766e-02 -1.419769078493118286e-01 -7.153736054897308350e-02 2.276757918298244476e-02
1.600000000000000000e+02 7.041655731201171875e+01 3.553961944580078125e+01 -1.229783371090888977e-01 -3.831116110086441040e-02 -4.838684946298599243e-02 1.212784647941589355e-01
1.610000000000000000e+02 7.090148162841796875e+01 2.125593566894531250e+01 1.146037355065345764e-01 -1.070488803088665009e-02 3.116965293884277344e-02 2.254786193370819092e-01
1.620000000000000000e+02 7.150897979736328125e+01 1.846096992492675781e+01 1.644698381423950195e-01 -8.817092329263687134e-02 2.288967557251453400e-02 1.412818133831024170e-01
1.630000000000000000e+02 7.078301239013671875e+01 1.601098823547363281e+01 2.159434109926223755e-01 5.082162842154502869e-02 8.002950996160507202e-02 6.672610342502593994e-02
1.640000000000000000e+02 7.199375915527343750e+01 1.167407417297363281e+01 1.733184009790420532e-01 -1.466069668531417847e-01 8.013427257537841797e-03 -6.720062345266342163e-02
1.650000000000000000e+02 7.158174896240234375e+01 9.273108482360839844e+00 1.680080294609069824e-01 -1.019131392240524292e-01 1.982846483588218689e-02 -1.311007440090179443e-01
1.660000000000000000e+02 6.953960418701171875e+01 7.718538284301757812e+00 2.230250835418701172e-01 2.315954118967056274e-01 1.363861560821533203e-01 -1.333964616060256958e-01
1.670000000000000000e+02 7.126393127441406250e+01 7.429704070091247559e-01 1.136438921093940735e-01 -1.385067105293273926e-01 -7.458844687789678574e-03 -3.520520925521850586e-01
1.680000000000000000e+02 7.293221282958984375e+01 -4.697515010833740234e+00 -5.965747684240341187e-02 -1.772595942020416260e-01 -7.107511907815933228e-02 -4.000077545642852783e-01
1.690000000000000000e+02 7.156156921386718750e+01 -6.769830226898193359e+00 -1.592217087745666504e-01 -8.259160071611404419e-02 -7.254399359226226807e-02 -4.037241339683532715e-01
1.700000000000000000e+02 7.022110748291015625e+01 -1.110216999053955078e+01 -3.851814866065979004e-01 7.440811395645141602e-02 -9.323201328516006470e-02 -1.816632151603698730e-01
1.710000000000000000e+02 7.134536743164062500e+01 -1.067983913421630859e+01 -3.014220297336578369e-01 3.922119736671447754e-02 -7.866024971008300781e-02 -2.067037820816040039e-01
1.720000000000000000e+02 6.903159332275390625e+01 -1.472987461090087891e+01 -1.524802744388580322e-01 9.015415795147418976e-03 -4.303945973515510559e-02 3.490561991930007935e-02
1.730000000000000000e+02 7.513365173339843750e+01 -1.444999122619628906e+01 -5.251074954867362976e-02 -3.757677506655454636e-03 -1.688052900135517120e-02 -2.882392145693302155e-02
1.740000000000000000e+02 7.863507080078125000e+01 -1.321801376342773438e+01 -1.102841645479202271e-02 -1.943599805235862732e-02 -9.139324538409709930e-03 -1.328347157686948776e-02
1.750000000000000000e+02 7.941453552246093750e+01 -8.640856742858886719e+00 -7.317636627703905106e-04 -1.462675780057907104e-01 -4.409980028867721558e-02 -3.308913856744766235e-02
1.760000000000000000e+02 7.941735076904296875e+01 -1.003231525421142578e+01 -5.214408971369266510e-03 -7.565078884363174438e-02 -2.425955981016159058e-02 -2.566347643733024597e-02
1.770000000000000000e+02 7.940252685546875000e+01 -5.865416526794433594e+00 1.269588712602853775e-03 -3.431636691093444824e-01 -1.025682240724563599e-01 -4.825561866164207458e-02
1.780000000000000000e+02 7.699934387207031250e+01 -5.836699962615966797e+00 -2.041041105985641479e-02 -2.945531010627746582e-01 -9.448906034231185913e-02 -2.121655642986297607e-01
1.790000000000000000e+02 7.938657379150390625e+01 -1.685506343841552734e+00 -2.457138383761048317e-03 -7.184368968009948730e-01 -2.162681967020034790e-01 -5.515906587243080139e-02
1.800000000000000000e+02 7.815459442138671875e+01 -3.409545421600341797e-01 2.013576449826359749e-03 -7.220230698585510254e-01 -2.160028517246246338e-01 -1.533223837614059448e-01
1.810000000000000000e+02 7.688825988769531250e+01 5.210171222686767578e+00 3.070068918168544769e-02 -8.672248125076293945e-01 -2.509572505950927734e-01 -1.610345691442489624e-01
1.820000000000000000e+02 7.810874176025390625e+01 5.279811382293701172e+00 9.727949276566505432e-03 -1.061577200889587402e+00 -3.155547678470611572e-01 -1.077765002846717834e-01
1.830000000000000000e+02 7.805132293701171875e+01 1.097893238067626953e+01 1.596125960350036621e-02 -1.243120789527893066e+00 -3.681478500366210938e-01 -3.498891368508338928e-02
1.840000000000000000e+02 7.937776184082031250e+01 1.517740726470947266e+01 6.420755758881568909e-03 -1.532089233398437500e+00 -4.577005505561828613e-01 1.085325237363576889e-02
1.850000000000000000e+02 7.805013275146484375e+01 1.800174140930175781e+01 1.457512192428112030e-02 -1.201995372772216797e+00 -3.562260866165161133e-01 6.383851915597915649e-02
1.860000000000000000e+02 7.779016113281250000e+01 2.220434379577636719e+01 6.733870599418878555e-03 -1.015152812004089355e+00 -3.025256991386413574e-01 1.122763454914093018e-01
1.870000000000000000e+02 7.753630065917968750e+01 2.509847259521484375e+01 5.066545214504003525e-03 -8.573667407035827637e-01 -2.556900680065155029e-01 1.362650543451309204e-01
1.880000000000000000e+02 7.731169891357421875e+01 2.949792289733886719e+01 -1.216769218444824219e-02 -6.697480678558349609e-01 -2.045747190713882446e-01 1.264077275991439819e-01
1.890000000000000000e+02 7.747218322753906250e+01 3.195676803588867188e+01 -1.243782509118318558e-02 -5.772700905799865723e-01 -1.769123673439025879e-01 9.912232309579849243e-02
1.900000000000000000e+02 7.912658691406250000e+01 3.622407913208007812e+01 -7.366056554019451141e-03 -5.484018921852111816e-01 -1.667303889989852905e-01 2.229629829525947571e-02
1.910000000000000000e+02 7.798590850830078125e+01 3.788223266601562500e+01 -6.200671661645174026e-03 -4.562233090400695801e-01 -1.387271881103515625e-01 5.002419278025627136e-02
1.920000000000000000e+02 7.797817230224609375e+01 4.160639953613281250e+01 -2.875695750117301941e-02 -4.260219931602478027e-01 -1.364336907863616943e-01 8.111646398901939392e-03
1.930000000000000000e+02 6.737777709960937500e+01 4.117078399658203125e+01 -1.713118404150009155e-01 9.510461241006851196e-02 -2.286216989159584045e-02 1.605290919542312622e-02
1.940000000000000000e+02 6.724742126464843750e+01 3.839363861083984375e+01 -1.718999743461608887e-01 1.108696758747100830e-01 -1.830909028649330139e-02 5.016768351197242737e-02
1.950000000000000000e+02 6.738970947265625000e+01 3.553981399536132812e+01 -1.709580570459365845e-01 1.410341709852218628e-01 -8.977168239653110504e-03 9.100494533777236938e-02
1.960000000000000000e+02 6.825572204589843750e+01 3.059278297424316406e+01 -1.378605663776397705e-01 1.844606101512908936e-01 1.398001331835985184e-02 1.671178042888641357e-01
1.970000000000000000e+02 6.802436828613281250e+01 2.478973770141601562e+01 1.360131520777940750e-02 3.607981801033020020e-01 1.123198494315147400e-01 2.239134162664413452e-01
1.980000000000000000e+02 6.886264801025390625e+01 2.371636009216308594e+01 5.886799097061157227e-02 2.847769558429718018e-01 1.030934825539588928e-01 2.365827113389968872e-01
1.990000000000000000e+02 6.991012573242187500e+01 1.898432731628417969e+01 2.041051238775253296e-01 1.586582213640213013e-01 1.088289991021156311e-01 1.592362076044082642e-01
2.000000000000000000e+02 6.751197814941406250e+01 1.627311325073242188e+01 2.995377480983734131e-01 6.747962832450866699e-01 2.923002243041992188e-01 1.891027018427848816e-02
2.010000000000000000e+02 6.643356323242187500e+01 1.279239845275878906e+01 2.407188713550567627e-01 9.936071634292602539e-01 3.702978193759918213e-01 -3.348377998918294907e-03
2.020000000000000000e+02 6.733489227294921875e+01 1.004371356964111328e+01 2.479399591684341431e-01 6.998652815818786621e-01 2.843415737152099609e-01 -2.599792741239070892e-02
2.030000000000000000e+02 6.723361968994140625e+01 8.372748374938964844e+00 2.621370851993560791e-01 6.453208923339843750e-01 2.722373902797698975e-01 -4.223188757896423340e-02
2.040000000000000000e+02 6.773245239257812500e+01 4.119612216949462891e+00 2.669018208980560303e-01 3.657726943492889404e-01 1.898023635149002075e-01 -1.471779048442840576e-01
2.050000000000000000e+02 6.600235748291015625e+01 -4.254151880741119385e-01 2.524477243423461914e-01 2.349451333284378052e-01 1.462178528308868408e-01 -1.859562397003173828e-01
2.060000000000000000e+02 6.738677215576171875e+01 -5.248807907104492188e+00 -6.879718601703643799e-02 -5.200658738613128662e-02 -3.624113276600837708e-02 -4.569013714790344238e-01
2.070000000000000000e+02 6.806218719482421875e+01 -8.003169059753417969e+00 -3.208740949630737305e-01 -5.122469365596771240e-02 -1.116296350955963135e-01 -4.660220444202423096e-01
2.080000000000000000e+02 7.002207946777343750e+01 -9.943235397338867188e+00 -3.791227340698242188e-01 4.067904502153396606e-02 -1.015331000089645386e-01 -3.184191584587097168e-01
2.090000000000000000e+02 6.646979522705078125e+01 -1.296402645111083984e+01 -5.252749323844909668e-01 -1.845654845237731934e-02 -1.631194353103637695e-01 2.141738981008529663e-01
2.100000000000000000e+02 6.332977676391601562e+01 3.807603073120117188e+01 -2.006914168596267700e-01 2.592607140541076660e-01 1.757078804075717926e-02 8.963664993643760681e-03
2.110000000000000000e+02 6.417236328125000000e+01 3.505637741088867188e+01 -1.916872709989547729e-01 2.836648523807525635e-01 2.759327925741672516e-02 2.580914832651615143e-02
2.120000000000000000e+02 6.590349578857421875e+01 2.997636795043945312e+01 -1.482093036174774170e-01 3.602312207221984863e-01 6.360657513141632080e-02 1.066050603985786438e-01
2.130000000000000000e+02 6.506144714355468750e+01 2.695971298217773438e+01 -8.746171742677688599e-02 5.600054860115051270e-01 1.417631357908248901e-01 8.619006723165512085e-02
2.140000000000000000e+02 6.410626220703125000e+01 2.291259765625000000e+01 1.383057832717895508e-01 8.662046790122985840e-01 3.013531565666198730e-01 1.122311130166053772e-02
2.150000000000000000e+02 6.257055664062500000e+01 1.943498039245605469e+01 5.016235709190368652e-01 1.826777100563049316e+00 6.985201835632324219e-01 -5.142133235931396484e-01
2.160000000000000000e+02 6.268965530395507812e+01 1.356429767608642578e+01 8.157732337713241577e-02 2.119017124176025391e+00 6.601783633232116699e-01 6.356485933065414429e-02
2.170000000000000000e+02 6.573739624023437500e+01 1.010970306396484375e+01 2.469993233680725098e-01 1.048250198364257812e+00 3.885748386383056641e-01 4.178044945001602173e-02
2.180000000000000000e+02 6.389414596557617188e+01 8.049032211303710938e+00 2.879745662212371826e-01 1.299125671386718750e+00 4.761300683021545410e-01 2.089111953973770142e-01
2.190000000000000000e+02 6.300756072998046875e+01 2.929975032806396484e+00 3.704851269721984863e-01 9.136484265327453613e-01 3.852400779724121094e-01 2.477807402610778809e-01
2.200000000000000000e+02 6.468097686767578125e+01 5.725170373916625977e-01 3.277185857295989990e-01 4.084867835044860840e-01 2.208616137504577637e-01 -3.888476267457008362e-02
2.210000000000000000e+02 6.308270263671875000e+01 -9.113471031188964844e+00 -5.117067098617553711e-01 -2.625987231731414795e-01 -2.322916239500045776e-01 -3.441834449768066406e-01
2.220000000000000000e+02 6.594419097900390625e+01 -1.103703117370605469e+01 -9.736371636390686035e-01 -6.250814348459243774e-02 -3.108435869216918945e-01 -4.601026475429534912e-01
2.230000000000000000e+02 6.272675323486328125e+01 4.106974411010742188e+01 -2.012895643711090088e-01 2.527869939804077148e-01 1.544923335313796997e-02 3.266780113335698843e-04
2.240000000000000000e+02 5.955825805664062500e+01 3.732053756713867188e+01 -1.776363104581832886e-01 3.120957314968109131e-01 4.033782333135604858e-02 -4.461948946118354797e-02
2.250000000000000000e+02 5.922983932495117188e+01 3.260253906250000000e+01 -1.391793638467788696e-01 3.851308226585388184e-01 7.378543913364410400e-02 -1.117344871163368225e-01
2.260000000000000000e+02 5.774560928344726562e+01 3.146750831604003906e+01 -8.628249168395996094e-02 3.665135800838470459e-01 8.406932651996612549e-02 -1.581349670886993408e-01
2.270000000000000000e+02 6.160855102539062500e+01 2.766160964965820312e+01 -9.005427360534667969e-02 6.003617644309997559e-01 1.530922502279281616e-01 -1.175084337592124939e-01
2.280000000000000000e+02 6.006028366088867188e+01 2.471578598022460938e+01 7.060078531503677368e-02 7.683215141296386719e-01 2.516766786575317383e-01 -3.304291367530822754e-01
2.290000000000000000e+02 5.942844009399414062e+01 2.223625755310058594e+01 6.811370253562927246e-01 6.475782394409179688e-01 3.986145853996276855e-01 -4.609774053096771240e-01
2.300000000000000000e+02 6.070719528198242188e+01 2.126599502563476562e+01 7.196097373962402344e-01 1.150416851043701172e+00 5.610079765319824219e-01 -6.989797353744506836e-01
2.310000000000000000e+02 6.148886108398437500e+01 1.995903968811035156e+01 5.871779322624206543e-01 1.801572442054748535e+00 7.166251540184020996e-01 -8.206850886344909668e-01
2.320000000000000000e+02 6.266442489624023438e+01 2.087637710571289062e+01 4.748758077621459961e-01 1.229056000709533691e+00 5.111795067787170410e-01 -3.014345169067382812e-01
2.330000000000000000e+02 6.242333984375000000e+01 1.800208663940429688e+01 3.689147531986236572e-01 2.295152187347412109e+00 7.992200851440429688e-01 -5.034802556037902832e-01
2.340000000000000000e+02 6.259122085571289062e+01 1.659007072448730469e+01 1.074273958802223206e-01 2.261716842651367188e+00 7.107433080673217773e-01 -2.300404310226440430e-01
2.350000000000000000e+02 6.238557815551757812e+01 1.213732242584228516e+01 7.240590453147888184e-02 2.102836847305297852e+00 6.525728106498718262e-01 1.907447576522827148e-01
2.360000000000000000e+02 6.453059387207031250e+01 1.529325866699218750e+01 2.181648910045623779e-01 1.551995754241943359e+00 5.310481786727905273e-01 -8.256164938211441040e-02
2.370000000000000000e+02 6.211554718017578125e+01 1.076765632629394531e+01 6.326834112405776978e-02 2.121038198471069336e+00 6.552919745445251465e-01 2.920494377613067627e-01
2.380000000000000000e+02 6.292287063598632812e+01 9.229388236999511719e+00 1.977513432502746582e-01 1.704756259918212891e+00 5.707522630691528320e-01 2.947569191455841064e-01
2.390000000000000000e+02 6.154903411865234375e+01 8.097157478332519531e+00 1.518007814884185791e-01 1.912998318672180176e+00 6.194397211074829102e-01 5.291272401809692383e-01
2.400000000000000000e+02 6.129721069335937500e+01 6.820020198822021484e+00 3.284299373626708984e-01 1.831409811973571777e+00 6.479519605636596680e-01 6.235228180885314941e-01
2.410000000000000000e+02 6.042278289794921875e+01 4.835711002349853516e+00 5.462504625320434570e-01 1.528701543807983398e+00 6.224856376647949219e-01 7.768133878707885742e-01
2.420000000000000000e+02 6.133638000488281250e+01 3.581982374191284180e+00 3.850521147251129150e-01 1.175112485885620117e+00 4.680493772029876709e-01 4.316246509552001953e-01
2.430000000000000000e+02 6.212631988525390625e+01 4.133626222610473633e-01 4.464943110942840576e-01 6.271192431449890137e-01 3.220840692520141602e-01 2.530055046081542969e-01
2.440000000000000000e+02 6.019500732421875000e+01 -2.272687673568725586e+00 5.961030721664428711e-01 4.577714204788208008e-01 3.161623477935791016e-01 3.216129839420318604e-01
2.450000000000000000e+02 5.919693756103515625e+01 -6.110431671142578125e+00 2.980665862560272217e-01 1.664330065250396729e-01 1.393498778343200684e-01 1.307668257504701614e-02
2.460000000000000000e+02 6.163412857055664062e+01 -1.147788429260253906e+01 -1.359206080436706543e+00 -1.579197645187377930e-01 -4.551377594470977783e-01 -3.330524563789367676e-01
2.470000000000000000e+02 5.814076232910156250e+01 4.081086349487304688e+01 -1.751812547445297241e-01 2.908527553081512451e-01 3.470145165920257568e-02 -1.397880725562572479e-02
2.480000000000000000e+02 5.617104339599609375e+01 3.652890014648437500e+01 -1.318610608577728271e-01 2.931232750415802002e-01 4.837866127490997314e-02 -8.216364681720733643e-02
2.490000000000000000e+02 5.413475799560546875e+01 3.122145462036132812e+01 -1.762340776622295380e-02 2.493464797735214233e-01 6.951691955327987671e-02 -1.758633702993392944e-01
2.500000000000000000e+02 5.470062255859375000e+01 2.704808425903320312e+01 9.809619188308715820e-02 1.877316683530807495e-01 8.574835211038589478e-02 -2.087565660476684570e-01
2.510000000000000000e+02 5.840732574462890625e+01 2.552117347717285156e+01 1.495366394519805908e-01 5.288504362106323242e-01 2.035161256790161133e-01 -3.865558207035064697e-01
2.520000000000000000e+02 5.570455932617187500e+01 2.160384559631347656e+01 1.236592456698417664e-01 -6.382444407790899277e-03 3.518304228782653809e-02 -2.566911093890666962e-02
2.530000000000000000e+02 5.774893951416015625e+01 2.337593078613281250e+01 4.231571853160858154e-01 2.474880814552307129e-01 2.011935859918594360e-01 -3.085470199584960938e-01
2.540000000000000000e+02 5.385318756103515625e+01 4.041648101806640625e+01 -1.195498257875442505e-01 2.509067952632904053e-01 3.940708935260772705e-02 -2.383180893957614899e-02
2.550000000000000000e+02 5.346578979492187500e+01 3.542169570922851562e+01 -8.627205342054367065e-02 2.537843585014343262e-01 5.025369301438331604e-02 -9.772223979234695435e-02
2.560000000000000000e+02 5.129252624511718750e+01 3.420735931396484375e+01 -3.282447531819343567e-02 1.897764503955841064e-01 4.708559438586235046e-02 -1.019268184900283813e-01
2.570000000000000000e+02 5.220843887329101562e+01 2.880377769470214844e+01 6.235973164439201355e-02 1.365898847579956055e-01 5.968488380312919617e-02 -1.545297354459762573e-01
2.580000000000000000e+02 5.380154037475585938e+01 2.244166946411132812e+01 1.283005326986312866e-01 -4.786964040249586105e-03 3.705407306551933289e-02 -3.331454843282699585e-02
2.590000000000000000e+02 5.316268157958984375e+01 2.092419242858886719e+01 -1.152851060032844543e-02 -8.748468942940235138e-03 -6.083094049245119095e-03 -1.224566437304019928e-02
2.600000000000000000e+02 5.448212814331054688e+01 2.124207687377929688e+01 4.069122672080993652e-02 4.443591460585594177e-03 1.354044489562511444e-02 -2.496583573520183563e-02
2.610000000000000000e+02 5.096992874145507812e+01 3.880268096923828125e+01 -7.384182512760162354e-02 2.026656121015548706e-01 3.864713385701179504e-02 -4.218037799000740051e-02
2.620000000000000000e+02 4.953595352172851562e+01 3.637730026245117188e+01 -4.333834350109100342e-02 1.740693449974060059e-01 3.921930119395256042e-02 -6.960535049438476562e-02
2.630000000000000000e+02 4.901538085937500000e+01 3.406543350219726562e+01 -7.937362417578697205e-03 1.397061496973037720e-01 3.953063860535621643e-02 -8.366660773754119873e-02
2.640000000000000000e+02 4.915832901000976562e+01 3.136849403381347656e+01 1.940119080245494843e-02 1.165765523910522461e-01 4.079332202672958374e-02 -9.638443589210510254e-02
2.650000000000000000e+02 4.979133224487304688e+01 2.854550552368164062e+01 5.854059383273124695e-02 8.311916887760162354e-02 4.249792918562889099e-02 -1.007911264896392822e-01
2.660000000000000000e+02 5.056026077270507812e+01 2.395139694213867188e+01 9.268587082624435425e-02 3.587073879316449165e-03 2.888188324868679047e-02 -5.966075882315635681e-02
2.670000000000000000e+02 4.912567520141601562e+01 1.954653739929199219e+01 -4.665105417370796204e-02 -1.864006556570529938e-02 -1.958733610808849335e-02 -2.449564076960086823e-02
2.680000000000000000e+02 4.797206497192382812e+01 1.872260475158691406e+01 -4.030608385801315308e-02 -1.470944937318563461e-02 -1.650466024875640869e-02 -2.712962031364440918e-02
2.690000000000000000e+02 4.361520767211914062e+01 1.688540267944335938e+01 -2.226436138153076172e-02 1.318346476182341576e-03 -6.283804308623075485e-03 -8.870027959346771240e-03
2.700000000000000000e+02 4.142907714843750000e+01 1.696164321899414062e+01 -1.907097361981868744e-02 7.962484844028949738e-03 -3.332546446472406387e-03 -2.365952357649803162e-03
2.710000000000000000e+02 3.587731552124023438e+01 1.800055122375488281e+01 -1.568992808461189270e-02 5.670467857271432877e-03 -3.005838021636009216e-03 8.237047120928764343e-03
2.720000000000000000e+02 3.167687225341796875e+01 1.632930183410644531e+01 -4.601559601724147797e-03 -1.074602641165256500e-02 -4.604275804013013840e-03 7.181121502071619034e-03
2.730000000000000000e+02 3.118007087707519531e+01 1.764947509765625000e+01 -9.117754176259040833e-03 -1.670579239726066589e-02 -7.747064344584941864e-03 1.151184458285570145e-02
2.740000000000000000e+02 3.344816970825195312e+01 1.548521518707275391e+01 -6.685968954116106033e-03 -3.213941818103194237e-03 -2.969973254948854446e-03 7.083812728524208069e-03
2.750000000000000000e+02 3.283310699462890625e+01 1.232355022430419922e+01 -8.270445978268980980e-04 -5.952917272225022316e-04 -4.267008916940540075e-04 1.062672701664268970e-03
2.760000000000000000e+02 3.251045227050781250e+01 1.366868686676025391e+01 -1.682630972936749458e-03 -2.837785752490162849e-03 -1.356124994345009327e-03 2.420178847387433052e-03
2.770000000000000000e+02 3.456284713745117188e+01 1.004130077362060547e+01 -4.473954904824495316e-04 -1.864335208665579557e-04 -1.901486975839361548e-04 -4.029765477753244340e-05
2.780000000000000000e+02 3.361882400512695312e+01 8.294356346130371094e+00 -1.280342839891090989e-04 4.747101338580250740e-04 1.040027564158663154e-04 -2.548976917751133442e-04
2.790000000000000000e+02 3.374753570556640625e+01 4.138495445251464844e+00 2.682269259821623564e-04 1.938490458996966481e-05 8.628354407846927643e-05 1.103866743505932391e-04
2.800000000000000000e+02 3.319180297851562500e+01 2.130828619003295898e+00 5.646066711051389575e-05 4.744369289255701005e-05 3.117130836471915245e-05 1.373253035126253963e-04
2.810000000000000000e+02 3.304050827026367188e+01 2.467361450195312500e+00 -1.914604217745363712e-04 -1.508981076767668128e-04 -1.027075559250079095e-04 1.060937138390727341e-04
2.820000000000000000e+02 4.725665664672851562e+01 4.079061889648437500e+01 -4.992928355932235718e-02 1.599764972925186157e-01 3.301416337490081787e-02 -1.689535193145275116e-02
2.830000000000000000e+02 4.673765563964843750e+01 3.761426544189453125e+01 -2.833904512226581573e-02 1.372303962707519531e-01 3.266740217804908752e-02 -4.630765691399574280e-02
2.840000000000000000e+02 4.635580825805664062e+01 3.474907302856445312e+01 -5.296136718243360519e-03 1.152723357081413269e-01 3.299285843968391418e-02 -6.257139891386032104e-02
2.850000000000000000e+02 4.617015838623046875e+01 3.194111633300781250e+01 2.034713327884674072e-02 8.367662131786346436e-02 3.120712563395500183e-02 -6.366181373596191406e-02
2.860000000000000000e+02 4.778285217285156250e+01 2.787209129333496094e+01 4.920872673392295837e-02 5.508112162351608276e-02 3.128695487976074219e-02 -6.882126629352569580e-02
2.870000000000000000e+02 4.483829116821289062e+01 2.726191711425781250e+01 3.408407419919967651e-02 3.046333976089954376e-02 1.936422288417816162e-02 -3.388113155961036682e-02
2.880000000000000000e+02 4.787581634521484375e+01 2.115986251831054688e+01 -7.765928748995065689e-04 -1.347130746580660343e-03 -6.371170748025178909e-04 -1.250839047133922577e-02
2.890000000000000000e+02 4.320957183837890625e+01 4.104087829589843750e+01 -1.417179126292467117e-02 9.869413077831268311e-02 2.535670250654220581e-02 -5.283563397824764252e-03
2.900000000000000000e+02 4.370493698120117188e+01 3.829203033447265625e+01 -1.604936085641384125e-02 1.073058545589447021e-01 2.737694792449474335e-02 -2.679497934877872467e-02
2.910000000000000000e+02 4.333935546875000000e+01 3.561734008789062500e+01 4.895765450783073902e-04 8.581651747226715088e-02 2.589182741940021515e-02 -3.554035723209381104e-02
2.920000000000000000e+02 4.267376708984375000e+01 3.041747474670410156e+01 2.042459137737751007e-02 4.752356931567192078e-02 2.038444951176643372e-02 -3.253107517957687378e-02
2.930000000000000000e+02 4.219862365722656250e+01 2.391082382202148438e+01 7.348588202148675919e-03 1.770683191716670990e-02 7.516626268625259399e-03 -5.998901091516017914e-03
2.940000000000000000e+02 4.176011276245117188e+01 1.872555923461914062e+01 -1.814636774361133575e-02 1.059980224817991257e-02 -2.263969508931040764e-03 -6.503716576844453812e-05
2.950000000000000000e+02 4.319101333618164062e+01 2.070875167846679688e+01 -1.048217341303825378e-02 1.134454552084207535e-02 2.587116905488073826e-04 -2.346932742511853576e-04
2.960000000000000000e+02 4.082145309448242188e+01 3.957989501953125000e+01 1.071585807949304581e-03 7.090477645397186279e-02 2.159290947020053864e-02 -9.333138354122638702e-03
2.970000000000000000e+02 4.020860290527343750e+01 3.661275100708007812e+01 4.379802383482456207e-03 6.003926321864128113e-02 1.932572014629840851e-02 -1.708857715129852295e-02
2.980000000000000000e+02 3.989690017700195312e+01 3.377938079833984375e+01 1.123195607215166092e-02 4.776376113295555115e-02 1.769871450960636139e-02 -2.063248120248317719e-02
2.990000000000000000e+02 3.968943023681640625e+01 3.117569541931152344e+01 1.340479683130979538e-02 3.781246766448020935e-02 1.536517962813377380e-02 -1.959834806621074677e-02
3.000000000000000000e+02 3.606006240844726562e+01 2.659961891174316406e+01 2.109803957864642143e-03 1.459158491343259811e-02 5.010416731238365173e-03 -3.968525677919387817e-03
3.010000000000000000e+02 4.030496978759765625e+01 2.387327575683593750e+01 2.604540204629302025e-03 1.687658391892910004e-02 5.844337400048971176e-03 -2.784258918836712837e-03
3.020000000000000000e+02 4.255504226684570312e+01 1.961280441284179688e+01 -1.723471283912658691e-02 1.077498495578765869e-02 -1.937918132171034813e-03 1.716580009087920189e-04
3.030000000000000000e+02 4.186065292358398438e+01 2.120342826843261719e+01 -8.166620507836341858e-03 1.373309735208749771e-02 1.669942867010831833e-03 1.652920735068619251e-03
3.040000000000000000e+02 3.729896926879882812e+01 4.078513336181640625e+01 6.729189772158861160e-03 4.785680025815963745e-02 1.637579686939716339e-02 -4.529417958110570908e-03
3.050000000000000000e+02 3.692829895019531250e+01 3.749980163574218750e+01 1.058912090957164764e-02 3.850581124424934387e-02 1.472847908735275269e-02 -8.879700675606727600e-03
3.060000000000000000e+02 3.661242294311523438e+01 3.448194885253906250e+01 1.069735176861286163e-02 3.173557296395301819e-02 1.272987760603427887e-02 -1.090564951300621033e-02
3.070000000000000000e+02 3.642960357666015625e+01 3.163113975524902344e+01 1.100529544055461884e-02 2.376507967710494995e-02 1.043111272156238556e-02 -9.410772472620010376e-03
3.080000000000000000e+02 3.728525924682617188e+01 2.585184288024902344e+01 1.243977923877537251e-03 1.607498340308666229e-02 5.195687990635633469e-03 -3.292145906016230583e-03
3.090000000000000000e+02 3.685874176025390625e+01 2.054283332824707031e+01 -1.474726945161819458e-02 1.098749134689569473e-02 -1.127933384850621223e-03 6.041458807885646820e-03
3.100000000000000000e+02 3.568480682373046875e+01 2.153022575378417969e+01 -1.344365440309047699e-02 9.588646702468395233e-03 -1.156502054072916508e-03 5.039658397436141968e-03
3.110000000000000000e+02 3.317404556274414062e+01 4.099080657958984375e+01 1.305678859353065491e-02 2.187223359942436218e-02 1.047870703041553497e-02 2.864795969799160957e-04
3.120000000000000000e+02 3.361041259765625000e+01 3.809475708007812500e+01 1.194434426724910736e-02 2.508392743766307831e-02 1.110848132520914078e-02 -3.380056237801909447e-03
3.130000000000000000e+02 3.315601348876953125e+01 3.520963287353515625e+01 1.258268114179372787e-02 1.814334839582443237e-02 9.217808954417705536e-03 -3.348342608660459518e-03
3.140000000000000000e+02 3.274477005004882812e+01 3.215363693237304688e+01 8.957574144005775452e-03 1.188599970191717148e-02 6.253072060644626617e-03 -2.836998319253325462e-03
3.150000000000000000e+02 3.241838073730468750e+01 2.519632148742675781e+01 -7.063177879899740219e-03 5.137081607244908810e-04 -1.964841037988662720e-03 1.718136714771389961e-03
3.160000000000000000e+02 3.460541915893554688e+01 2.345850372314453125e+01 -1.027883030474185944e-02 7.237836718559265137e-03 -9.122981573455035686e-04 2.707769861444830894e-03
3.170000000000000000e+02 3.541531753540039062e+01 1.946533393859863281e+01 -1.724011451005935669e-02 7.260346785187721252e-03 -2.993930364027619362e-03 7.522537373006343842e-03
3.180000000000000000e+02 3.295903015136718750e+01 2.169981575012207031e+01 -1.747651956975460052e-02 1.113967853598296642e-03 -4.908765200525522232e-03 6.400784943252801895e-03
3.190000000000000000e+02 3.063315963745117188e+01 3.942827224731445312e+01 1.515873707830905914e-02 1.092263590544462204e-02 7.824411615729331970e-03 -6.067003778298385441e-05
3.200000000000000000e+02 2.977820968627929688e+01 3.628437805175781250e+01 1.225516386330127716e-02 7.356000598520040512e-03 5.883349105715751648e-03 2.697990275919437408e-04
3.210000000000000000e+02 2.912740707397460938e+01 3.328173446655273438e+01 1.025359984487295151e-02 1.994419144466519356e-03 3.674405626952648163e-03 1.901191659271717072e-03
3.220000000000000000e+02 2.791177749633789062e+01 3.080910682678222656e+01 5.049459636211395264e-03 -1.773346913978457451e-03 9.828337933868169785e-04 3.887460799887776375e-03
3.230000000000000000e+02 2.769322776794433594e+01 2.300954246520996094e+01 -2.612317167222499847e-02 -1.347529143095016479e-02 -1.187953911721706390e-02 1.453895308077335358e-02
3.240000000000000000e+02 2.524256515502929688e+01 2.385655021667480469e+01 -2.297545410692691803e-02 -7.758690509945154190e-03 -9.220243431627750397e-03 1.072963140904903412e-02
3.250000000000000000e+02 2.978734779357910156e+01 2.028370094299316406e+01 -3.088461235165596008e-02 -2.401466108858585358e-02 -1.646978221833705902e-02 2.130589261651039124e-02
3.260000000000000000e+02 3.056890869140625000e+01 1.896047210693359375e+01 -1.520515792071819305e-02 -2.195523679256439209e-02 -1.114811841398477554e-02 1.715101487934589386e-02
3.270000000000000000e+02 2.705772018432617188e+01 4.072726440429687500e+01 1.362627092748880386e-02 3.480271901935338974e-03 5.131962709128856659e-03 -1.558221993036568165e-04
3.280000000000000000e+02 2.633534812927246094e+01 3.738479232788085938e+01 1.268589217215776443e-02 -3.161702770739793777e-04 3.710916498675942421e-03 2.427774248644709587e-03
3.290000000000000000e+02 2.578677558898925781e+01 3.448535156250000000e+01 9.146307595074176788e-03 -1.945165568031370640e-03 2.160342643037438393e-03 3.841543802991509438e-03
3.300000000000000000e+02 2.684287452697753906e+01 2.637745475769042969e+01 -6.577877793461084366e-03 -9.103743359446525574e-03 -4.704486578702926636e-03 8.685549721121788025e-03
3.310000000000000000e+02 2.327635955810546875e+01 2.280702018737792969e+01 -2.871937118470668793e-02 -3.376662498340010643e-03 -9.628809988498687744e-03 6.887543946504592896e-03
3.320000000000000000e+02 2.714650917053222656e+01 2.164784049987792969e+01 -4.023284465074539185e-02 -6.421917583793401718e-03 -1.399642881006002426e-02 1.564358919858932495e-02
3.330000000000000000e+02 2.259966850280761719e+01 4.103015518188476562e+01 1.167283579707145691e-02 -3.939846064895391464e-03 2.319896826520562172e-03 1.451633172109723091e-03
3.340000000000000000e+02 2.257994842529296875e+01 3.805554962158203125e+01 1.030167657881975174e-02 -3.486315486952662468e-03 2.044608350843191147e-03 2.872742712497711182e-03
3.350000000000000000e+02 2.230022430419921875e+01 3.513823318481445312e+01 8.359977044165134430e-03 -4.839960020035505295e-03 1.056005130521953106e-03 5.451791919767856598e-03
3.360000000000000000e+02 2.146447181701660156e+01 2.898938560485839844e+01 -2.138884505257010460e-03 -5.396975670009851456e-03 -2.260758075863122940e-03 8.827037177979946136e-03
3.370000000000000000e+02 2.317893028259277344e+01 2.797426414489746094e+01 -3.740829648450016975e-03 -6.888045929372310638e-03 -3.188662696629762650e-03 8.944400586187839508e-03
3.380000000000000000e+02 2.218830680847167969e+01 2.380074310302734375e+01 -2.213774807751178741e-02 -4.597635939717292786e-03 -8.020615205168724060e-03 6.641471292823553085e-03
3.390000000000000000e+02 1.831806755065917969e+01 4.112723922729492188e+01 8.389470167458057404e-03 -5.672785919159650803e-03 8.150052744895219803e-04 4.960851510986685753e-04
3.400000000000000000e+02 1.899131202697753906e+01 3.847624969482421875e+01 8.694781921803951263e-03 -5.809089168906211853e-03 8.657077560201287270e-04 3.443637397140264511e-03
3.410000000000000000e+02 1.866058158874511719e+01 3.576237106323242188e+01 6.064442452043294907e-03 -5.144104361534118652e-03 2.761013456620275974e-04 4.880026448518037796e-03
3.420000000000000000e+02 1.747564315795898438e+01 3.043521690368652344e+01 -7.497159531340003014e-04 -3.761219326406717300e-03 -1.353280618786811829e-03 7.197503931820392609e-03
3.430000000000000000e+02 1.886761856079101562e+01 2.617621231079101562e+01 -7.667241618037223816e-03 -2.605316927656531334e-03 -3.081767586991190910e-03 7.602670695632696152e-03
3.440000000000000000e+02 1.971434020996093750e+01 2.261127090454101562e+01 -1.650329306721687317e-02 -7.742873858660459518e-04 -5.183273926377296448e-03 1.527277636341750622e-04
3.450000000000000000e+02 1.708045005798339844e+01 2.177926063537597656e+01 -8.151434361934661865e-03 -6.294872728176414967e-04 -2.634276635944843292e-03 -7.599303498864173889e-04
3.460000000000000000e+02 2.102001953125000000e+01 2.287017440795898438e+01 -2.316892519593238831e-02 -1.328646205365657806e-03 -7.349271792918443680e-03 2.226186683401465416e-03
3.470000000000000000e+02 1.590507030487060547e+01 3.968687820434570312e+01 5.835152231156826019e-03 -5.477734375745058060e-03 1.072254017344675958e-04 1.807213993743062019e-03
3.480000000000000000e+02 1.528232002258300781e+01 3.679685974121093750e+01 4.844739101827144623e-03 -5.371707491576671600e-03 -1.580904790898784995e-04 3.848332911729812622e-03
3.490000000000000000e+02 1.474283695220947266e+01 3.394618606567382812e+01 2.260606503114104271e-03 -4.341920837759971619e-03 -6.243942771106958389e-04 5.170977674424648285e-03
3.500000000000000000e+02 1.547641849517822266e+01 2.987158966064453125e+01 -1.429277122952044010e-03 -3.041124669834971428e-03 -1.341120456345379353e-03 6.583420094102621078e-03
3.510000000000000000e+02 1.629765892028808594e+01 2.319587516784667969e+01 -7.753224577754735947e-03 4.801347386091947556e-04 -2.181926975026726723e-03 1.814973889850080013e-03
3.520000000000000000e+02 1.586114120483398438e+01 2.107881927490234375e+01 -4.037932958453893661e-03 -1.355370914097875357e-04 -1.252040965482592583e-03 -9.166140225715935230e-04
3.530000000000000000e+02 1.231675910949707031e+01 4.085308837890625000e+01 4.341151565313339233e-03 -5.388188641518354416e-03 -3.141111228615045547e-04 1.143648289144039154e-03
3.540000000000000000e+02 1.204431533813476562e+01 3.769146728515625000e+01 2.986565930768847466e-03 -4.756828304380178452e-03 -5.310786655172705650e-04 2.695150440558791161e-03
3.550000000000000000e+02 1.179768371582031250e+01 3.482836532592773438e+01 2.140274504199624062e-03 -4.154088441282510757e-03 -6.041442393325269222e-04 3.930332139134407043e-03
3.560000000000000000e+02 1.109941864013671875e+01 3.040594291687011719e+01 -3.791910712607204914e-04 -2.412162255495786667e-03 -8.374060271307826042e-04 4.543041344732046127e-03
3.570000000000000000e+02 1.213699054718017578e+01 2.604549026489257812e+01 -3.255590796470642090e-03 -3.719851374626159668e-04 -1.088272780179977417e-03 3.281635232269763947e-03
3.580000000000000000e+02 1.303294181823730469e+01 2.282558441162109375e+01 -4.160840529948472977e-03 4.801788309123367071e-04 -1.104198512621223927e-03 1.297618960961699486e-03
3.590000000000000000e+02 1.364382934570312500e+01 1.938714790344238281e+01 -8.208385552279651165e-04 3.862703160848468542e-04 -1.303704630117863417e-04 -2.425605343887582421e-04
3.600000000000000000e+02 1.325843524932861328e+01 1.497832393646240234e+01 -1.303323952015489340e-04 1.716298138489946723e-04 1.238922595803160220e-05 6.050486990716308355e-05
3.610000000000000000e+02 1.393849849700927734e+01 1.222770690917968750e+01 -1.226703461725264788e-04 9.026304178405553102e-05 -9.722192771732807159e-06 -9.503867204330163077e-07
3.620000000000000000e+02 1.326727867126464844e+01 1.038535785675048828e+01 -7.773483957862481475e-05 1.624132164579350501e-05 -1.844805592554621398e-05 8.922415872802957892e-06
3.630000000000000000e+02 1.268954944610595703e+01 5.420982360839843750e+00 -5.398636130848899484e-05 -3.573011053958907723e-05 -2.691494228201918304e-05 1.491041803092230111e-05
3.640000000000000000e+02 1.110549163818359375e+01 1.858432531356811523e+00 2.484319702489301562e-05 2.870457319659180939e-05 1.606433033884968609e-05 -6.635032718804723118e-07
3.650000000000000000e+02 1.405114173889160156e+01 1.900435924530029297e+00 1.960321242222562432e-05 3.646285404101945460e-05 1.681982030277140439e-05 3.763012728086323477e-07
3.660000000000000000e+02 1.184835243225097656e+01 1.861448764801025391e+00 -8.180652912415098399e-06 -3.149879557895474136e-05 -1.190383500215830281e-05 8.444632840109989047e-06
3.670000000000000000e+02 8.060777664184570312e+00 4.097994995117187500e+01 1.789725502021610737e-03 -4.825889132916927338e-03 -9.108490776270627975e-04 4.348133224993944168e-04
3.680000000000000000e+02 8.822769165039062500e+00 3.801185989379882812e+01 2.129496773704886436e-03 -4.629141185432672501e-03 -7.498933118768036366e-04 2.099573845043778419e-03
3.690000000000000000e+02 9.444607734680175781e+00 3.058712768554687500e+01 -5.768904229626059532e-04 -2.381226047873497009e-03 -8.874349296092987061e-04 3.587972605600953102e-03
3.700000000000000000e+02 1.111123657226562500e+01 2.694336509704589844e+01 -2.938233548775315285e-03 -7.687194156460464001e-04 -1.112085883505642414e-03 3.608363214880228043e-03
3.710000000000000000e+02 9.382159233093261719e+00 2.509321975708007812e+01 -2.386716660112142563e-03 -4.007827665191143751e-04 -8.362497901543974876e-04 2.247644821181893349e-03
3.720000000000000000e+02 1.083398628234863281e+01 2.127733230590820312e+01 -1.843000762164592743e-03 -4.431455454323440790e-05 -5.661945906467735767e-04 4.216670931782573462e-04
3.730000000000000000e+02 8.556219100952148438e+00 1.723603439331054688e+01 -3.460923326201736927e-04 -2.561409783083945513e-04 -1.806700020097196102e-04 -2.276851046190131456e-05
3.740000000000000000e+02 9.992825508117675781e+00 1.381887626647949219e+01 1.408755197189748287e-04 -1.396498410031199455e-04 3.677072299979045056e-07 1.061063521774485707e-04
3.750000000000000000e+02 8.661982536315917969e+00 9.584648132324218750e+00 -6.920586019987240434e-05 -6.374824442900717258e-05 -3.988623211625963449e-05 1.251876165042631328e-05
3.760000000000000000e+02 9.065784454345703125e+00 5.327718257904052734e+00 9.144672367256134748e-05 -1.102400256058899686e-05 2.412681533314753324e-05 -8.259466994786635041e-06
3.770000000000000000e+02 8.075136184692382812e+00 1.857474446296691895e+00 2.875960853998549283e-05 1.952985803654883057e-05 1.448683997296029702e-05 -8.987522051029372960e-06
3.780000000000000000e+02 7.307715892791748047e+00 1.863764047622680664e+00 -4.598655777954263613e-06 -2.192304782511200756e-05 -7.956511581141967326e-06 7.775151061650831252e-06
3.790000000000000000e+02 4.975551128387451172e+00 4.024625396728515625e+01 5.853793700225651264e-04 -4.880900494754314423e-03 -1.288656378164887428e-03 7.650703191757202148e-04
3.800000000000000000e+02 6.228941917419433594e+00 3.784677124023437500e+01 1.053527812473475933e-03 -4.465980920940637589e-03 -1.023735967464745045e-03 1.409581862390041351e-03
3.810000000000000000e+02 5.772654533386230469e+00 2.771512794494628906e+01 -8.636207785457372665e-04 -1.446340465918183327e-03 -6.929883966222405434e-04 2.016379730775952339e-03
3.820000000000000000e+02 5.656732082366943359e+00 2.276723289489746094e+01 -1.024664845317602158e-03 -3.378208784852176905e-04 -4.087456909473985434e-04 7.862127968110144138e-04
3.830000000000000000e+02 5.224006652832031250e+00 2.050684356689453125e+01 -6.237226771190762520e-04 -2.359317586524412036e-04 -2.578963176347315311e-04 2.906848967541009188e-04
3.840000000000000000e+02 6.340724945068359375e+00 1.258461856842041016e+01 5.060211697127670050e-05 -1.246804167749360204e-04 -2.222349030489567667e-05 -3.562658093869686127e-05
3.850000000000000000e+02 5.725708007812500000e+00 1.172279930114746094e+01 1.073436287697404623e-04 -6.771106563974171877e-05 1.188976875710068271e-05 -7.697303226450458169e-05
3.860000000000000000e+02 3.970450878143310547e+00 8.044690132141113281e+00 -6.343099084915593266e-05 -1.379298737447243184e-05 -2.316719292139168829e-05 -2.457230493746465072e-06
3.870000000000000000e+02 4.233484745025634766e+00 1.942186951637268066e+00 -8.528052603651303798e-06 -1.535817136755213141e-05 -7.165867373259970918e-06 5.663756383000873029e-06
3.880000000000000000e+02 3.459645986557006836e+00 1.987021923065185547e+00 2.330185270693618804e-05 1.438150957255857065e-05 1.130500822910107672e-05 -1.255321967619238421e-05
3.890000000000000000e+02 5.040740489959716797e+00 2.737332105636596680e+00 -9.615087947167921811e-06 -1.665338822931516916e-05 -7.880542398197576404e-06 3.530153207975672558e-06
3.900000000000000000e+02 2.031741380691528320e+00 4.162178802490234375e+01 2.234948624391108751e-04 -5.909224040806293488e-03 -1.705718808807432652e-03 6.731747271260246634e-05
3.910000000000000000e+02 2.822350263595581055e+00 3.784830474853515625e+01 1.485051470808684826e-04 -5.040883552283048630e-03 -1.467713620513677597e-03 7.526964764110743999e-04
3.920000000000000000e+02 1.844002366065979004e+00 3.334043884277343750e+01 -3.718450898304581642e-05 -3.639081725850701332e-03 -1.102879876270890236e-03 8.113301591947674751e-04
3.930000000000000000e+02 1.971138238906860352e+00 3.199728202819824219e+01 1.698474079603329301e-04 -3.024279372766613960e-03 -8.563295705243945122e-04 1.009342609904706478e-03
3.940000000000000000e+02 2.133435249328613281e+00 2.776331520080566406e+01 -3.258207871112972498e-04 -1.270247856155037880e-03 -4.788206133525818586e-04 7.961129886098206043e-04
3.950000000000000000e+02 2.083357810974121094e+00 2.483490753173828125e+01 -3.516588767524808645e-04 -4.565473936963826418e-04 -2.424618724035099149e-04 4.722824378404766321e-04
3.960000000000000000e+02 1.821331501007080078e+00 2.060181808471679688e+01 1.481692888773977757e-04 1.592956250533461571e-04 9.223947563441470265e-05 5.791533112642355263e-05
3.970000000000000000e+02 1.867727875709533691e+00 1.783996391296386719e+01 1.637770474189892411e-04 2.063772117253392935e-04 1.110462762881070375e-04 -6.124322680989280343e-05
3.980000000000000000e+02 2.179239034652709961e+00 1.493483829498291016e+01 1.604228018550202250e-04 1.180848485091701150e-04 8.355229510925710201e-05 -9.025968029163777828e-05
3.990000000000000000e+02 1.795282721519470215e+00 1.054137420654296875e+01 -1.109455770347267389e-04 6.762542034266516566e-05 -1.299604718951741233e-05 -1.552701178297866136e-05
4.000000000000000000e+02 1.738606214523315430e+00 7.840661525726318359e+00 -8.986444299807772040e-05 2.917625897680409253e-05 -1.820645593397784978e-05 3.698435648402664810e-06
4.010000000000000000e+02 3.509801387786865234e+00 2.913190841674804688e+00 -2.144629615941084921e-05 -7.960433322296012193e-06 -8.822018571663647890e-06 6.830435268057044595e-06
4.020000000000000000e+02 5.210037827491760254e-01 3.515748023986816406e+00 -3.763929998967796564e-05 7.763684152450878173e-06 -8.962684660218656063e-06 8.839434485707897693e-06
4.030000000000000000e+02 1.655917167663574219e+01 3.341464281082153320e+00 -1.390366560372058302e-05 7.595609349664300680e-05 1.861572854977566749e-05 1.144185262091923505e-05
4.040000000000000000e+02 1.623777580261230469e+01 1.014251518249511719e+01 1.351983955828472972e-04 4.946721310261636972e-05 5.539967969525605440e-05 5.547690670937299728e-05
4.050000000000000000e+02 1.707889556884765625e+01 9.060298919677734375e+00 -1.283944438910111785e-04 -2.275794940942432731e-05 -4.534572144621051848e-05 -6.753625348210334778e-05
4.060000000000000000e+02 1.551082229614257812e+01 1.132298183441162109e+01 -1.323077594861388206e-04 5.668542507919482887e-05 -2.268670141347683966e-05 -6.639894854743033648e-05
4.070000000000000000e+02 2.117716407775878906e+01 4.456055164337158203e+00 -1.040473853208823130e-05 -8.421827260463032871e-06 -5.647969828714849427e-06 1.140924814535537735e-05
4.080000000000000000e+02 2.253541183471679688e+01 3.210279226303100586e+00 4.043597073177807033e-06 1.819551289372611791e-05 6.671732990071177483e-06 -2.891807753258035518e-06
4.090000000000000000e+02 1.969234275817871094e+01 2.458664178848266602e+00 1.727323433442506939e-05 1.426650851499289274e-05 9.461922672926448286e-06 -1.362181933473038953e-06
4.100000000000000000e+02 1.691128540039062500e+01 2.054786682128906250e+00 9.012571354105602950e-06 3.846207619062624872e-05 1.424239417247008532e-05 9.944819794327486306e-06
4.110000000000000000e+02 2.136770629882812500e+01 5.195652484893798828e+00 -1.214897929457947612e-05 -2.696010778890922666e-05 -1.173272630694555119e-05 -1.992136822082102299e-05
4.120000000000000000e+02 2.036382293701171875e+01 5.946832656860351562e+00 1.251555022463435307e-05 1.273289217351702973e-05 7.574532901344355196e-06 1.823366255848668516e-05
4.130000000000000000e+02 1.797601509094238281e+01 8.069259643554687500e+00 1.183525164378806949e-04 3.489544906187802553e-05 4.597438964992761612e-05 6.331310578389093280e-05
4.140000000000000000e+02 1.497701835632324219e+01 1.260734653472900391e+01 1.456079044146463275e-04 1.793404808267951012e-04 9.748451702762395144e-05 3.810241469182074070e-05
4.150000000000000000e+02 1.355553245544433594e+01 1.361247062683105469e+01 1.532171299913898110e-04 1.999158703256398439e-04 1.059399000951088965e-04 1.657169486861675978e-04
4.160000000000000000e+02 1.273134803771972656e+01 1.183273220062255859e+01 1.296963018830865622e-04 1.015130037558265030e-04 6.936278805369511247e-05 1.441162166884168983e-04
4.170000000000000000e+02 1.440305995941162109e+01 1.532125473022460938e+01 2.027849259320646524e-04 4.698029952123761177e-04 2.017763763433322310e-04 9.967164078261703253e-05
4.180000000000000000e+02 1.428976535797119141e+01 1.667665863037109375e+01 -2.044975844910368323e-04 5.715090082958340645e-04 1.101034358725883067e-04 8.657818398205563426e-06
4.190000000000000000e+02 1.135169506072998047e+01 1.703303146362304688e+01 -1.284999962081201375e-05 -1.554089249111711979e-04 -5.047767626820132136e-05 6.612468132516369224e-05
4.200000000000000000e+02 1.416180038452148438e+01 1.800466537475585938e+01 2.155356341972947121e-04 7.010073168203234673e-04 2.749628911260515451e-04 1.114861224777996540e-04
4.210000000000000000e+02 1.484638500213623047e+01 2.016965484619140625e+01 -1.379565685056149960e-03 3.806605527643114328e-04 -2.996715484187006950e-04 -2.778150374069809914e-04
4.220000000000000000e+02 1.391786861419677734e+01 2.153990364074707031e+01 -3.712319070473313332e-03 6.847208715043962002e-04 -9.082794422283768654e-04 -1.546002167742699385e-04
4.230000000000000000e+02 3.563210296630859375e+01 4.036590099334716797e+00 8.795714529696851969e-05 -5.031356704421341419e-05 1.129307383962441236e-05 9.847123146755620837e-05
4.240000000000000000e+02 3.591176986694335938e+01 2.462894678115844727e+00 1.401511253789067268e-04 -1.994559897866565734e-05 3.606166137615218759e-05 6.173283327370882034e-05
4.250000000000000000e+02 3.900167465209960938e+01 3.314435958862304688e+00 1.493681429565185681e-05 5.157837949809618294e-05 1.995455750147812068e-05 -8.012226317077875137e-05
4.260000000000000000e+02 3.958351135253906250e+01 3.534463644027709961e+00 -2.916626108344644308e-04 -1.029869235935620964e-04 -1.183948625111952424e-04 1.066931290552020073e-04
4.270000000000000000e+02 3.813356781005859375e+01 3.015125989913940430e+00 -1.146428712672786787e-05 -2.056089442703523673e-06 -4.056113084516255185e-06 5.520815102499909699e-05
4.280000000000000000e+02 3.832035827636718750e+01 5.177846431732177734e+00 2.236917353002354503e-04 -3.482392057776451111e-04 -3.736424696398898959e-05 6.304241105681285262e-05
4.290000000000000000e+02 3.651240539550781250e+01 8.188574790954589844e+00 2.231089601991698146e-04 -4.418949247337877750e-04 -6.563578790519386530e-05 2.658628181961830705e-05
4.300000000000000000e+02 3.337770462036132812e+01 9.630425453186035156e+00 6.929301162017509341e-05 6.531019462272524834e-04 2.167184866266325116e-04 -3.737058796104975045e-05
4.310000000000000000e+02 3.923048400878906250e+01 7.922157287597656250e+00 9.353209752589464188e-04 6.257348577491939068e-04 4.683167499024420977e-04 -9.068395593203604221e-05
4.320000000000000000e+02 3.968505096435546875e+01 9.212843894958496094e+00 -7.485251990146934986e-04 5.158273270353674889e-04 -6.980935722822323442e-05 4.945217515341937542e-04
4.330000000000000000e+02 4.034807586669921875e+01 1.047326278686523438e+01 9.391656203661113977e-05 4.003653011750429869e-04 1.482845545979216695e-04 -5.384832038544118404e-04
4.340000000000000000e+02 4.003167724609375000e+01 1.218333530426025391e+01 -4.623783752322196960e-03 6.335035432130098343e-04 -1.197084086015820503e-03 -2.229410922154784203e-03
4.350000000000000000e+02 3.991793060302734375e+01 1.520123386383056641e+01 -1.571201719343662262e-02 5.762499757111072540e-03 -2.984855556860566139e-03 -8.177407435141503811e-04
4.360000000000000000e+02 4.072485733032226562e+01 1.342253303527832031e+01 -1.048312056809663773e-02 1.233195303939282894e-03 -2.774977590888738632e-03 -2.771056024357676506e-03
4.370000000000000000e+02 4.143309020996093750e+01 1.469844436645507812e+01 -1.382933277636766434e-02 2.446967177093029022e-03 -3.414709586650133133e-03 -4.694504197686910629e-03
4.380000000000000000e+02 4.474916839599609375e+01 1.593239879608154297e+01 -2.287826687097549438e-02 -1.012214086949825287e-02 -9.900122880935668945e-03 -1.379873137921094894e-02
4.390000000000000000e+02 4.580839157104492188e+01 1.688607215881347656e+01 -2.745121158659458160e-02 -1.181858871132135391e-02 -1.178093999624252319e-02 -1.975051686167716980e-02
4.400000000000000000e+02 5.447916793823242188e+01 -2.859768867492675781e+00 1.196636676788330078e+00 1.140237331390380859e+00 7.010622024536132812e-01 1.102460503578186035e+00
4.410000000000000000e+02 5.094606018066406250e+01 -5.452795505523681641e+00 2.876002550125122070e+00 6.056638956069946289e-01 1.044499993324279785e+00 6.329694986343383789e-01
4.420000000000000000e+02 5.342453384399414062e+01 -5.961251735687255859e+00 1.433235287666320801e+00 7.165616154670715332e-01 6.449390649795532227e-01 3.839209377765655518e-01
4.430000000000000000e+02 5.434861373901367188e+01 -9.776335716247558594e+00 -2.431444376707077026e-01 3.565919995307922363e-01 3.403426706790924072e-02 -8.317463845014572144e-02
4.440000000000000000e+02 5.777752304077148438e+01 -1.161630725860595703e+01 -1.054894447326660156e+00 7.179445773363113403e-02 -2.949299812316894531e-01 -3.913167417049407959e-01
4.450000000000000000e+02 3.994791412353515625e+01 -4.887078404426574707e-01 8.416099846363067627e-02 1.726154051721096039e-02 3.042676113545894623e-02 -5.234222859144210815e-02
4.460000000000000000e+02 3.934498214721679688e+01 -6.489067077636718750e-01 1.056977435946464539e-01 -4.025725182145833969e-03 3.050160594284534454e-02 -5.155585706233978271e-02
4.470000000000000000e+02 3.943427276611328125e+01 -1.454160928726196289e+00 1.970114707946777344e-01 -2.375836856663227081e-02 5.197593197226524353e-02 -6.623774766921997070e-02
4.480000000000000000e+02 3.799118804931640625e+01 -9.232593774795532227e-01 1.368927210569381714e-01 -4.367688298225402832e-02 2.796475403010845184e-02 -1.074487622827291489e-02
4.490000000000000000e+02 3.427663040161132812e+01 -3.061833143234252930e+00 6.282477988861501217e-04 -5.166261643171310425e-02 -1.531031075865030289e-02 2.805533111095428467e-01
4.500000000000000000e+02 3.244595336914062500e+01 -8.019240379333496094e+00 2.589474916458129883e-01 -1.532350927591323853e-01 3.171371668577194214e-02 2.845821976661682129e-01
4.510000000000000000e+02 3.357605743408203125e+01 -2.776325225830078125e+00 -7.255242019891738892e-02 -2.349409274756908417e-02 -2.881395444273948669e-02 2.769504487514495850e-01
4.520000000000000000e+02 3.096572875976562500e+01 -2.723110198974609375e+00 -3.429468572139739990e-01 1.598720550537109375e-01 -5.492243543267250061e-02 2.187072336673736572e-01
4.530000000000000000e+02 3.181248092651367188e+01 -2.218025922775268555e+00 -2.742708027362823486e-01 5.942317098379135132e-02 -6.445428729057312012e-02 1.798452287912368774e-01
4.540000000000000000e+02 3.144823265075683594e+01 -1.955484390258789062e+00 -3.432447016239166260e-01 1.036996692419052124e-01 -7.186351716518402100e-02 1.357210874557495117e-01
4.550000000000000000e+02 1.434611415863037109e+01 -2.512045383453369141e+00 -8.855738043785095215e-01 6.196608394384384155e-02 -2.470823079347610474e-01 -1.383279561996459961e-01
4.560000000000000000e+02 1.500330924987792969e+01 -1.771727681159973145e+00 -1.069645047187805176e+00 3.063012659549713135e-02 -3.117044866085052490e-01 -8.996223658323287964e-02
4.570000000000000000e+02 1.599820995330810547e+01 -7.931908607482910156e+00 1.777690500020980835e-01 5.337747931480407715e-01 2.134631574153900146e-01 -1.164924120530486107e-03
4.580000000000000000e+02 1.563762283325195312e+01 -1.262621784210205078e+01 1.155711174011230469e+00 1.273770928382873535e+00 7.288446426391601562e-01 8.001073002815246582e-01
4.590000000000000000e+02 1.688832855224609375e+01 -1.242274951934814453e+01 1.624424219131469727e+00 1.114185214042663574e+00 8.215828537940979004e-01 1.076193571090698242e+00
4.600000000000000000e+02 1.347072315216064453e+01 -1.826384663581848145e+00 -1.015570759773254395e+00 1.969547010958194733e-02 -2.987625598907470703e-01 -1.562170684337615967e-01
4.610000000000000000e+02 1.130193424224853516e+01 -2.598298072814941406e+00 -7.319273352622985840e-01 3.077182359993457794e-02 -2.103466540575027466e-01 -2.741992473602294922e-01
4.620000000000000000e+02 1.195113086700439453e+01 -1.855250477790832520e+00 -9.174917340278625488e-01 1.323183719068765640e-02 -2.712779641151428223e-01 -2.053450495004653931e-01
4.630000000000000000e+02 1.330749607086181641e+01 -1.181202983856201172e+01 5.996060371398925781e-01 9.055255055427551270e-01 4.515394568443298340e-01 1.096311677247285843e-02
4.640000000000000000e+02 1.319523811340332031e+01 -1.449717998504638672e+01 6.809315681457519531e-01 1.387920022010803223e+00 6.206554770469665527e-01 2.225274145603179932e-01
4.650000000000000000e+02 1.267569923400878906e+01 -1.692290687561035156e+01 4.698579311370849609e-01 1.552977085113525391e+00 6.068505048751831055e-01 1.935884654521942139e-01
4.660000000000000000e+02 1.177577114105224609e+01 -2.222762680053710938e+01 3.016561865806579590e-01 9.963465332984924316e-01 3.894008100032806396e-01 4.601956158876419067e-02
4.670000000000000000e+02 1.255512332916259766e+01 -2.378772544860839844e+01 1.942725181579589844e-01 1.003560185432434082e+00 3.593498170375823975e-01 2.593741752207279205e-03
4.680000000000000000e+02 1.413674449920654297e+01 -2.854088211059570312e+01 -4.219051077961921692e-02 6.659319400787353516e-01 1.871224343776702881e-01 -7.170338928699493408e-02
4.690000000000000000e+02 1.154865074157714844e+01 -3.327597045898437500e+01 -1.515727341175079346e-01 3.013207018375396729e-01 4.492438957095146179e-02 9.681858867406845093e-02
4.700000000000000000e+02 1.251786613464355469e+01 -3.582280349731445312e+01 -1.724785715341567993e-01 2.780710160732269287e-01 3.167773038148880005e-02 5.632340535521507263e-02
4.710000000000000000e+02 9.187394142150878906e+00 -3.858470916748046875e+01 -1.396567821502685547e-01 4.303715005517005920e-02 -2.898588776588439941e-02 7.671609520912170410e-02
4.720000000000000000e+02 1.263073730468750000e+01 -4.125998687744140625e+01 -1.870073080062866211e-01 2.166119217872619629e-01 8.881385438144207001e-03 9.231429547071456909e-03
4.730000000000000000e+02 1.679575729370117188e+01 -3.833652114868164062e+01 -1.814919114112854004e-01 3.440966010093688965e-01 4.878140985965728760e-02 -2.670213580131530762e-02
4.740000000000000000e+02 1.584780406951904297e+01 -3.298839187622070312e+01 -1.253460049629211426e-01 4.544171690940856934e-01 9.872134774923324585e-02 -6.056523323059082031e-02
4.750000000000000000e+02 1.669691658020019531e+01 -3.108079338073730469e+01 -5.605615675449371338e-02 5.257698893547058105e-01 1.409141123294830322e-01 -1.314141452312469482e-01
4.760000000000000000e+02 1.555019950866699219e+01 -2.756608009338378906e+01 7.071390002965927124e-02 7.202693819999694824e-01 2.372949868440628052e-01 -2.258947044610977173e-01
4.770000000000000000e+02 1.780889701843261719e+01 -2.758777427673339844e+01 2.073481678962707520e-01 6.109970808029174805e-01 2.455035746097564697e-01 -3.424919843673706055e-01
4.780000000000000000e+02 1.705225181579589844e+01 -2.448573112487792969e+01 4.889141917228698730e-01 8.409075736999511719e-01 3.989465236663818359e-01 -5.943809151649475098e-01
4.790000000000000000e+02 1.613325691223144531e+01 -2.338484382629394531e+01 4.967124760150909424e-01 1.051788568496704102e+00 4.645503163337707520e-01 -7.009041309356689453e-01
4.800000000000000000e+02 1.488389301300048828e+01 -2.421829032897949219e+01 2.363913953304290771e-01 1.179305076599121094e+00 4.247089326381683350e-01 -4.045387208461761475e-01
4.810000000000000000e+02 1.461997985839843750e+01 -2.098175430297851562e+01 4.836457371711730957e-01 2.483375310897827148e+00 8.901062607765197754e-01 -6.665582656860351562e-01
4.820000000000000000e+02 1.434021759033203125e+01 -1.958631134033203125e+01 2.045034319162368774e-01 2.567065715789794922e+00 8.314707279205322266e-01 -2.291724681854248047e-01
4.830000000000000000e+02 1.426294326782226562e+01 -1.813563156127929688e+01 5.884687975049018860e-02 2.397867679595947266e+00 7.370143532752990723e-01 1.076445169746875763e-02
4.840000000000000000e+02 1.425217247009277344e+01 -1.661975669860839844e+01 3.211823105812072754e-01 2.457583665847778320e+00 8.336297869682312012e-01 3.540386855602264404e-01
4.850000000000000000e+02 1.462194156646728516e+01 -1.514097309112548828e+01 6.063998937606811523e-01 2.260767698287963867e+00 8.601503372192382812e-01 7.409082651138305664e-01
4.860000000000000000e+02 1.532883358001708984e+01 -1.388904666900634766e+01 9.729436039924621582e-01 1.740809679031372070e+00 8.141259551048278809e-01 1.024913311004638672e+00
4.870000000000000000e+02 1.200670337677001953e+01 -1.356934928894042969e+01 5.777776241302490234e-01 8.254023790359497070e-01 4.209539890289306641e-01 -4.998479411005973816e-02
4.880000000000000000e+02 1.119431877136230469e+01 -1.862989306449890137e+00 -8.585379719734191895e-01 1.269104611128568649e-02 -2.537540793418884277e-01 -2.233913540840148926e-01
4.890000000000000000e+02 6.612884998321533203e+00 -1.872940301895141602e+00 -4.073375463485717773e-01 -1.597012393176555634e-02 -1.269923001527786255e-01 -2.313591986894607544e-01
4.900000000000000000e+02 3.546716451644897461e+00 -1.970849633216857910e+00 -1.485252082347869873e-01 -4.698335379362106323e-02 -5.865256860852241516e-02 -1.532204747200012207e-01
4.910000000000000000e+02 1.196918845176696777e+00 -2.139035463333129883e+00 -2.265404537320137024e-02 -5.864658579230308533e-02 -2.439018897712230682e-02 -4.571683332324028015e-02
4.920000000000000000e+02 6.672529578208923340e-01 -6.457591056823730469e+00 -8.390755392611026764e-04 -4.277071356773376465e-01 -1.285638660192489624e-01 -8.807765692472457886e-02
4.930000000000000000e+02 1.804941058158874512e+00 -8.049874305725097656e+00 3.157735802233219147e-03 -5.526081323623657227e-01 -1.648351103067398071e-01 -2.232963740825653076e-01
4.940000000000000000e+02 5.903511643409729004e-01 -9.303796768188476562e+00 1.549513777717947960e-03 -8.236028552055358887e-01 -2.466160058975219727e-01 -7.745490968227386475e-02
4.950000000000000000e+02 1.784675240516662598e+00 -1.070762443542480469e+01 1.509654149413108826e-02 -8.169224262237548828e-01 -2.405477613210678101e-01 -2.034099847078323364e-01
4.960000000000000000e+02 4.295998096466064453e+00 -1.195581912994384766e+01 9.124355763196945190e-02 -5.138041973114013672e-01 -1.267681866884231567e-01 -3.391180634498596191e-01
4.970000000000000000e+02 8.930865287780761719e+00 -1.603129768371582031e+01 4.169208705425262451e-01 3.153310418128967285e-01 2.196755707263946533e-01 -1.105516031384468079e-01
4.980000000000000000e+02 1.007459735870361328e+01 -1.529016494750976562e+01 4.860882461071014404e-01 5.732618570327758789e-01 3.178050220012664795e-01 -9.793961048126220703e-02
4.990000000000000000e+02 1.019588947296142578e+01 -1.363782310485839844e+01 4.639490842819213867e-01 4.787202179431915283e-01 2.828007936477661133e-01 -2.024598568677902222e-01
5.000000000000000000e+02 8.654299736022949219e+00 -1.364763736724853516e+01 3.623103499412536621e-01 1.773531585931777954e-01 1.618990451097488403e-01 -2.724231779575347900e-01
5.010000000000000000e+02 3.840104818344116211e+00 -5.289693355560302734e+00 -8.533845096826553345e-02 -2.132222354412078857e-01 -8.956820517778396606e-02 -3.320296406745910645e-01
5.020000000000000000e+02 5.511253356933593750e+00 -1.068590354919433594e+01 9.742077440023422241e-02 -3.086882531642913818e-01 -6.338024139404296875e-02 -4.199678599834442139e-01
5.030000000000000000e+02 2.996291160583496094e+00 -1.071969890594482422e+01 3.550169616937637329e-02 -6.403257846832275391e-01 -1.814472377300262451e-01 -3.034338653087615967e-01
5.040000000000000000e+02 4.569881260395050049e-01 -3.566824913024902344e+00 -8.198253810405731201e-03 -1.106008514761924744e-01 -3.563973307609558105e-02 -3.529644757509231567e-02
5.050000000000000000e+02 6.002833843231201172e-01 -1.208768749237060547e+01 4.483870696276426315e-03 -1.171739816665649414e+00 -3.501767814159393311e-01 -6.340956687927246094e-02
5.060000000000000000e+02 1.837897181510925293e+00 -1.341577053070068359e+01 2.785653807222843170e-02 -1.029781579971313477e+00 -3.005775213241577148e-01 -1.524775028228759766e-01
5.070000000000000000e+02 5.673954486846923828e+00 -1.572070598602294922e+01 2.179987877607345581e-01 -3.609526157379150391e-01 -4.288614913821220398e-02 -1.695000976324081421e-01
5.080000000000000000e+02 9.501361846923828125e+00 -2.155486297607421875e+01 3.204394280910491943e-01 4.927462339401245117e-01 2.439557015895843506e-01 1.459113657474517822e-01
5.090000000000000000e+02 8.726660728454589844e+00 -1.749148559570312500e+01 4.123606383800506592e-01 3.140521943569183350e-01 2.179238647222518921e-01 -3.344995528459548950e-02
5.100000000000000000e+02 6.249819993972778320e-01 -1.629181480407714844e+01 6.214492022991180420e-03 -1.495057463645935059e+00 -4.466528892517089844e-01 -2.437784522771835327e-02
5.110000000000000000e+02 4.406253337860107422e+00 -1.589637851715087891e+01 1.463790684938430786e-01 -6.068192720413208008e-01 -1.381320655345916748e-01 -1.452240496873855591e-01
5.120000000000000000e+02 4.739102363586425781e+00 -2.003006935119628906e+01 1.336299479007720947e-01 -5.491547584533691406e-01 -1.246574446558952332e-01 7.242740690708160400e-02
5.130000000000000000e+02 6.941156387329101562e+00 -2.346952438354492188e+01 1.270143985748291016e-01 -7.368001341819763184e-02 1.600031554698944092e-02 2.169826179742813110e-01
5.140000000000000000e+02 1.025162506103515625e+01 -2.056644630432128906e+01 3.711962401866912842e-01 6.798830628395080566e-01 3.153237998485565186e-01 8.423552662134170532e-02
5.150000000000000000e+02 6.323837637901306152e-01 -1.910812187194824219e+01 6.795393303036689758e-03 -1.536371827125549316e+00 -4.588729143142700195e-01 7.981440052390098572e-03
5.160000000000000000e+02 1.903534412384033203e+00 -2.036358833312988281e+01 2.336048893630504608e-02 -1.187318563461303711e+00 -3.491874039173126221e-01 4.847279563546180725e-02
5.170000000000000000e+02 5.774357795715332031e+00 -2.364399909973144531e+01 9.537110477685928345e-02 -2.944602370262145996e-01 -5.972674489021301270e-02 2.114887684583663940e-01
5.180000000000000000e+02 1.009438133239746094e+01 -2.592160034179687500e+01 3.088906034827232361e-02 4.222675561904907227e-01 1.359469890594482422e-01 1.835436671972274780e-01
5.190000000000000000e+02 8.353395462036132812e+00 -2.324500083923339844e+01 1.514346748590469360e-01 1.736430078744888306e-01 9.752330929040908813e-02 2.085131406784057617e-01
5.200000000000000000e+02 6.150710582733154297e-01 -2.190217590332031250e+01 4.851545672863721848e-03 -1.449391007423400879e+00 -4.333618283271789551e-01 3.075349144637584686e-02
5.210000000000000000e+02 1.866633892059326172e+00 -2.304268646240234375e+01 1.573948748409748077e-02 -1.099304914474487305e+00 -3.250696361064910889e-01 1.055097356438636780e-01
5.220000000000000000e+02 5.938554286956787109e+00 -2.882304382324218750e+01 -3.397700935602188110e-02 -2.078226953744888306e-01 -7.253991067409515381e-02 2.388315945863723755e-01
5.230000000000000000e+02 8.384821891784667969e+00 -3.220402145385742188e+01 -1.056994795799255371e-01 4.963674768805503845e-02 -1.681881956756114960e-02 1.820531338453292847e-01
5.240000000000000000e+02 8.374732017517089844e+00 -2.621587371826171875e+01 2.078314125537872314e-02 1.815500259399414062e-01 6.069994717836380005e-02 2.446330487728118896e-01
5.250000000000000000e+02 8.370740413665771484e-01 -2.753980064392089844e+01 5.412861704826354980e-03 -1.052230715751647949e+00 -3.140453398227691650e-01 6.118620932102203369e-02
5.260000000000000000e+02 2.470216751098632812e+00 -2.884140777587890625e+01 -8.107656612992286682e-03 -7.157170772552490234e-01 -2.171474099159240723e-01 1.512218862771987915e-01
5.270000000000000000e+02 6.603987693786621094e+00 -3.201666641235351562e+01 -7.495850324630737305e-02 -1.312521547079086304e-01 -6.186319515109062195e-02 2.008104920387268066e-01
5.280000000000000000e+02 9.462203979492187500e+00 -3.616270065307617188e+01 -1.415230780839920044e-01 8.693835139274597168e-02 -1.637541875243186951e-02 1.129208281636238098e-01
5.290000000000000000e+02 9.009073257446289062e+00 -3.397972869873046875e+01 -1.255538016557693481e-01 7.823511213064193726e-02 -1.419560704380273819e-02 1.487695574760437012e-01
5.300000000000000000e+02 8.108099102973937988e-01 -2.897800064086914062e+01 -6.340171210467815399e-03 -9.511010646820068359e-01 -2.872323691844940186e-01 5.894572287797927856e-02
5.310000000000000000e+02 2.356403112411499023e+00 -3.029920387268066406e+01 -1.338676922023296356e-02 -6.677074432373046875e-01 -2.043282687664031982e-01 1.414557546377182007e-01
5.320000000000000000e+02 5.864952564239501953e+00 -3.328190231323242188e+01 -7.332914322614669800e-02 -2.054173052310943604e-01 -8.362393826246261597e-02 1.767200678586959839e-01
5.330000000000000000e+02 7.286955118179321289e-01 -3.461003875732421875e+01 -3.137325169518589973e-03 -6.181625723838806152e-01 -1.863899677991867065e-01 3.342238813638687134e-02
5.340000000000000000e+02 2.235895633697509766e+00 -3.442196655273437500e+01 -9.551381692290306091e-03 -5.269467234611511230e-01 -1.609494239091873169e-01 9.352084249258041382e-02
5.350000000000000000e+02 7.080449104309082031e+00 -3.616478347778320312e+01 -1.004120185971260071e-01 -9.498025476932525635e-02 -5.861768126487731934e-02 1.295273452997207642e-01
5.360000000000000000e+02 8.183726310729980469e+00 -4.117343902587890625e+01 -1.157293692231178284e-01 -3.995736315846443176e-02 -4.670602083206176758e-02 2.394078671932220459e-02
5.370000000000000000e+02 7.296218872070312500e-01 -3.600007247924804688e+01 -2.070720540359616280e-03 -5.585170388221740723e-01 -1.681763380765914917e-01 2.852360904216766357e-02
5.380000000000000000e+02 7.751298546791076660e-01 -3.736814117431640625e+01 2.353118732571601868e-03 -5.024582147598266602e-01 -1.500315368175506592e-01 2.972247637808322906e-02
5.390000000000000000e+02 2.037631273269653320e+00 -4.162662887573242188e+01 -3.763986378908157349e-02 -3.957132101058959961e-01 -1.300059258937835693e-01 1.067733205854892731e-02
5.400000000000000000e+02 1.336785793304443359e+00 -4.005180358886718750e+01 6.886206101626157761e-03 -4.110929369926452637e-01 -1.212620139122009277e-01 3.380743041634559631e-02
5.410000000000000000e+02 1.730200386047363281e+01 -4.118656921386718750e+01 -1.860540509223937988e-01 3.253354132175445557e-01 4.178440570831298828e-02 -9.321372024714946747e-03
5.420000000000000000e+02 2.086824035644531250e+01 -3.806938934326171875e+01 -1.250507384538650513e-01 3.221614360809326172e-01 5.913320556282997131e-02 -7.580390572547912598e-02
5.430000000000000000e+02 1.587026023864746094e+01 -3.543720245361328125e+01 -1.653129607439041138e-01 3.897588849067687988e-01 6.733377277851104736e-02 -3.309918940067291260e-02
5.440000000000000000e+02 1.756591415405273438e+01 -2.972131919860839844e+01 4.191978648304939270e-02 5.606591105461120605e-01 1.807736605405807495e-01 -2.110931575298309326e-01
5.450000000000000000e+02 2.217410659790039062e+01 -2.919653701782226562e+01 2.833532989025115967e-01 2.242910861968994141e-01 1.522933095693588257e-01 -2.356084883213043213e-01
5.460000000000000000e+02 1.904088020324707031e+01 -2.650010871887207031e+01 4.144395887851715088e-01 4.860583245754241943e-01 2.701493799686431885e-01 -4.304539263248443604e-01
5.470000000000000000e+02 2.007624816894531250e+01 -2.744997978210449219e+01 3.606130778789520264e-01 3.835834860801696777e-01 2.232589721679687500e-01 -3.657785654067993164e-01
5.480000000000000000e+02 2.195388603210449219e+01 -4.105256271362304688e+01 -1.246873289346694946e-01 2.890982329845428467e-01 4.932327196002006531e-02 -2.259734272956848145e-02
5.490000000000000000e+02 2.456128120422363281e+01 -3.758393859863281250e+01 -4.805729538202285767e-02 2.129604667425155640e-01 4.947095364332199097e-02 -8.573154360055923462e-02
5.500000000000000000e+02 2.298384857177734375e+01 -3.033056259155273438e+01 1.825122386217117310e-01 1.977787911891937256e-01 1.140873134136199951e-01 -1.816584467887878418e-01
5.510000000000000000e+02 2.642724227905273438e+01 -4.078152847290039062e+01 -4.549575969576835632e-02 1.736516803503036499e-01 3.844677656888961792e-02 -2.490544132888317108e-02
5.520000000000000000e+02 2.756586074829101562e+01 -3.655873870849609375e+01 -3.917636815458536148e-03 1.245375350117683411e-01 3.618596866726875305e-02 -6.779628992080688477e-02
5.530000000000000000e+02 2.777405166625976562e+01 -3.156510925292968750e+01 3.747893497347831726e-02 2.167206071317195892e-02 1.774529926478862762e-02 -5.682281032204627991e-02
5.540000000000000000e+02 2.930718040466308594e+01 -3.095703887939453125e+01 6.711086258292198181e-03 2.600664971396327019e-03 2.793525345623493195e-03 -2.435849606990814209e-02
5.550000000000000000e+02 3.444591140747070312e+01 -2.730966567993164062e+01 -1.906280405819416046e-02 1.781767467036843300e-03 -5.184310954064130783e-03 -6.661974359303712845e-03
5.560000000000000000e+02 3.552019882202148438e+01 -2.601096343994140625e+01 -1.581475138664245605e-02 1.924681011587381363e-03 -4.167020786553621292e-03 -4.675472155213356018e-03
5.570000000000000000e+02 4.007049179077148438e+01 -2.724792289733886719e+01 -1.146876532584428787e-02 6.084532942622900009e-03 -1.615269691683351994e-03 3.163138171657919884e-03
5.580000000000000000e+02 4.314789199829101562e+01 -2.591214942932128906e+01 -8.915403857827186584e-03 1.678052474744617939e-03 -2.171205356717109680e-03 4.884047433733940125e-03
5.590000000000000000e+02 4.454315185546875000e+01 -2.600095558166503906e+01 -8.564947172999382019e-03 -1.515849144198000431e-03 -3.024238860234618187e-03 6.179247051477432251e-03
5.600000000000000000e+02 4.591069030761718750e+01 -2.568484115600585938e+01 -6.377395242452621460e-03 -7.660162169486284256e-03 -4.211266990751028061e-03 6.085933651775121689e-03
5.610000000000000000e+02 4.567722320556640625e+01 -1.968844032287597656e+01 -1.213356881635263562e-04 9.042018791660666466e-04 2.348598645767197013e-04 5.588390195043757558e-05
5.620000000000000000e+02 4.430826187133789062e+01 -1.845870590209960938e+01 -1.362205512123182416e-04 1.964196853805333376e-04 1.805974170565605164e-05 -2.275994484080001712e-04
5.630000000000000000e+02 4.306929016113281250e+01 -1.748163986206054688e+01 -6.309184391284361482e-05 6.109746027505025268e-05 -5.983158075650862884e-07 -1.628058089409023523e-04
5.640000000000000000e+02 4.129937744140625000e+01 -1.621948242187500000e+01 2.867597795557230711e-04 -1.356613065581768751e-04 4.532954335445538163e-05 -8.787431579548865557e-05
5.650000000000000000e+02 4.070104217529296875e+01 -1.580347347259521484e+01 1.835757866501808167e-04 -1.306676713284105062e-04 1.587243605172261596e-05 -1.680168497841805220e-05
5.660000000000000000e+02 3.974080657958984375e+01 -1.603369140625000000e+01 5.379018693929538131e-05 -1.976748899323865771e-04 -4.316541162552312016e-05 7.828747766325250268e-05
5.670000000000000000e+02 3.823357772827148438e+01 -1.421028995513916016e+01 1.629688049433752894e-04 -1.056746332324109972e-04 1.718824933050200343e-05 1.002666031126864254e-04
5.680000000000000000e+02 3.717659378051757812e+01 -1.351134490966796875e+01 -3.631144863902591169e-05 -3.131281482637859881e-05 -2.028727976721711457e-05 3.924581687897443771e-05
5.690000000000000000e+02 3.556761169433593750e+01 -1.812340927124023438e+01 -4.970987210981547832e-04 5.972409271635115147e-04 3.004265636263880879e-05 2.162647724617272615e-04
5.700000000000000000e+02 3.668636703491210938e+01 -1.725065994262695312e+01 -4.041520005557686090e-04 9.029851935338228941e-05 -9.415604290552437305e-05 2.563511952757835388e-04
5.710000000000000000e+02 3.559173583984375000e+01 -1.947988128662109375e+01 4.810423415619879961e-04 9.119936148636043072e-04 4.179107781965285540e-04 -6.933276017662137747e-05
5.720000000000000000e+02 3.889616394042968750e+01 -2.416497039794921875e+01 -8.319480344653129578e-03 3.001595381647348404e-03 -1.595365465618669987e-03 -3.570104308892041445e-04
5.730000000000000000e+02 4.436059570312500000e+01 -2.310948562622070312e+01 -1.577257760800421238e-03 -1.376230968162417412e-03 -8.860466186888515949e-04 2.348630689084529877e-03
5.740000000000000000e+02 4.543603134155273438e+01 -2.284152793884277344e+01 -6.733505288138985634e-04 -7.032711873762309551e-04 -4.129865264985710382e-04 8.176795672625303268e-04
5.750000000000000000e+02 4.016369628906250000e+01 -1.808159446716308594e+01 -3.659683279693126678e-04 -3.390296478755772114e-04 -2.114993985742330551e-04 1.158467639470472932e-04
5.760000000000000000e+02 3.788235473632812500e+01 -2.020959854125976562e+01 -5.761397187598049641e-04 -3.579798794817179441e-04 -2.802358940243721008e-04 -4.399657482281327248e-04
5.770000000000000000e+02 2.981743240356445312e+01 -3.930427551269531250e+01 -3.310953965410590172e-03 9.817861020565032959e-02 2.846029587090015411e-02 -2.574545703828334808e-02
5.780000000000000000e+02 3.185579872131347656e+01 -3.695690917968750000e+01 1.548884343355894089e-02 4.605837166309356689e-02 1.846416480839252472e-02 -2.210367657244205475e-02
5.790000000000000000e+02 3.138799095153808594e+01 -3.386651992797851562e+01 2.030496858060359955e-02 2.230376377701759338e-02 1.278262026607990265e-02 -2.047892101109027863e-02
5.800000000000000000e+02 3.073950576782226562e+01 -3.019703483581542969e+01 -1.649033837020397186e-02 -4.782276693731546402e-03 -6.381784565746784210e-03 -6.132497917860746384e-03
5.810000000000000000e+02 2.864772796630859375e+01 -2.947381210327148438e+01 -4.210853576660156250e-02 -6.807209458202123642e-03 -1.467472407966852188e-02 -2.150428667664527893e-02
5.820000000000000000e+02 3.332783508300781250e+01 -4.093924713134765625e+01 7.417822722345590591e-03 5.839024856686592102e-02 1.974242180585861206e-02 -4.499881993979215622e-03
5.830000000000000000e+02 3.473703765869140625e+01 -3.806275558471679688e+01 1.376395951956510544e-02 3.439982980489730835e-02 1.444913633167743683e-02 -8.303486742079257965e-03
5.840000000000000000e+02 3.318226242065429688e+01 -3.496707916259765625e+01 1.481230836361646652e-02 2.523936145007610321e-02 1.201550103724002838e-02 -1.156815886497497559e-02
5.850000000000000000e+02 3.294060897827148438e+01 -3.057451438903808594e+01 -1.257579214870929718e-02 5.340811330825090408e-03 -2.170494524762034416e-03 1.408079289831221104e-03
5.860000000000000000e+02 3.778342437744140625e+01 -4.120090103149414062e+01 1.582225225865840912e-02 1.836146228015422821e-02 1.025511417537927628e-02 9.596683084964752197e-04
5.870000000000000000e+02 3.832527160644531250e+01 -3.851743316650390625e+01 1.285649184137582779e-02 1.692663133144378662e-02 8.934936486184597015e-03 1.608127378858625889e-03
5.880000000000000000e+02 3.870085525512695312e+01 -3.572299194335937500e+01 8.299628272652626038e-03 1.220054924488067627e-02 6.150053348392248154e-03 2.840701024979352951e-03
5.890000000000000000e+02 3.429422760009765625e+01 -2.969097518920898438e+01 -1.646114327013492584e-02 7.138024084270000458e-03 -2.796935616061091423e-03 1.250306260772049427e-03
5.900000000000000000e+02 3.552432632446289062e+01 -2.859984016418457031e+01 -1.841696351766586304e-02 7.883272133767604828e-03 -3.160107415169477463e-03 9.072801185538992286e-05
5.910000000000000000e+02 4.243783187866210938e+01 -4.125559997558593750e+01 1.279768999665975571e-02 3.209815360605716705e-03 4.802251700311899185e-03 5.143422167748212814e-04
5.920000000000000000e+02 4.230804061889648438e+01 -3.862649917602539062e+01 1.153959333896636963e-02 3.003147430717945099e-03 4.362822044640779495e-03 2.625880530104041100e-03
5.930000000000000000e+02 4.221081161499023438e+01 -3.581885147094726562e+01 5.830056499689817429e-03 4.142169374972581863e-03 2.991667715832591057e-03 4.801751580089330673e-03
5.940000000000000000e+02 3.811892700195312500e+01 -3.068622779846191406e+01 -7.629937492311000824e-03 9.678329341113567352e-03 6.145174847915768623e-04 4.933082498610019684e-03
5.950000000000000000e+02 4.122575759887695312e+01 -3.067849731445312500e+01 -6.632050964981317520e-03 6.168215535581111908e-03 -1.391505211358889937e-04 5.239755380898714066e-03
5.960000000000000000e+02 4.252600479125976562e+01 -3.322107315063476562e+01 -4.126121348235756159e-04 4.235443659126758575e-03 1.146849477663636208e-03 5.059620831161737442e-03
5.970000000000000000e+02 4.491646194458007812e+01 -3.087464714050292969e+01 -6.403759121894836426e-03 -3.400186251383274794e-04 -2.023133449256420135e-03 4.837605170905590057e-03
5.980000000000000000e+02 4.708960342407226562e+01 -4.115759277343750000e+01 9.636332280933856964e-03 -4.577749408781528473e-03 1.517574768513441086e-03 1.032219966873526573e-03
5.990000000000000000e+02 4.627720260620117188e+01 -3.844437789916992188e+01 7.822651416063308716e-03 -3.212096169590950012e-03 1.383166527375578880e-03 2.871144097298383713e-03
6.000000000000000000e+02 4.858408355712890625e+01 -3.529190063476562500e+01 2.784996991977095604e-03 -5.546717904508113861e-03 -8.285162039101123810e-04 4.639296792447566986e-03
6.010000000000000000e+02 4.783855438232421875e+01 -3.296897506713867188e+01 -1.595348934642970562e-03 -5.612825974822044373e-03 -2.162452554330229759e-03 4.873708821833133698e-03
6.020000000000000000e+02 4.662714385986328125e+01 -2.707831954956054688e+01 -9.900280274450778961e-03 -9.489409625530242920e-03 -5.816907156258821487e-03 9.235585108399391174e-03
6.030000000000000000e+02 5.154718017578125000e+01 -4.083872604370117188e+01 5.708471871912479401e-03 -6.062988657504320145e-03 -1.063549279933795333e-04 1.177114201709628105e-03
6.040000000000000000e+02 4.984598541259765625e+01 -3.781509017944335938e+01 5.462296772748231888e-03 -6.045440211892127991e-03 -1.749431103235110641e-04 3.466839203611016273e-03
6.050000000000000000e+02 4.976920318603515625e+01 -3.265271759033203125e+01 -3.264724509790539742e-03 -7.122828625142574310e-03 -3.116265870630741119e-03 6.081919651478528976e-03
6.060000000000000000e+02 5.433998489379882812e+01 -3.088730430603027344e+01 -6.160699296742677689e-03 -1.000747666694223881e-03 -2.148434054106473923e-03 2.253198996186256409e-03
6.070000000000000000e+02 5.587695312500000000e+01 -3.088421440124511719e+01 -3.750663250684738159e-03 -4.965563421137630939e-04 -1.274165930226445198e-03 1.225433778017759323e-03
6.080000000000000000e+02 6.014314270019531250e+01 -2.960867118835449219e+01 -1.441063432139344513e-05 1.234013034263625741e-04 3.269720036769285798e-05 2.000937238335609436e-04
6.090000000000000000e+02 6.344218063354492188e+01 -2.925125312805175781e+01 6.531790131703019142e-05 1.550016168039292097e-05 2.424541889922693372e-05 1.221824786625802517e-04
6.100000000000000000e+02 6.371323394775390625e+01 -2.729323196411132812e+01 2.354960161028429866e-04 1.272564404644072056e-04 1.088257413357496262e-04 2.250358666060492396e-04
6.110000000000000000e+02 6.669210815429687500e+01 -2.427365684509277344e+01 1.208356625284068286e-04 5.721318302676081657e-05 5.341465293895453215e-05 6.767730519641190767e-05
6.120000000000000000e+02 7.049432373046875000e+01 -2.310364151000976562e+01 9.644114470575004816e-05 -4.503985474002547562e-05 1.542038808111101389e-05 -1.105768478737445548e-05
6.130000000000000000e+02 7.794335937500000000e+01 -2.574739265441894531e+01 2.401472193014342338e-05 3.724835187313146889e-05 1.837892159528564662e-05 -2.114076050929725170e-05
6.140000000000000000e+02 7.744256591796875000e+01 -2.041430282592773438e+01 -1.225494543177774176e-05 -4.745346814161166549e-06 -5.100087491882732138e-06 5.130423232913017273e-07
6.150000000000000000e+02 7.769691467285156250e+01 -1.841630744934082031e+01 -9.611569112166762352e-06 1.350203888250689488e-06 -2.478409442119300365e-06 1.743260327202733606e-06
6.160000000000000000e+02 7.572297668457031250e+01 -1.825192642211914062e+01 7.206672307802364230e-06 -1.494006255597923882e-06 1.713799861136067193e-06 1.227644588652765378e-06
6.170000000000000000e+02 7.428826904296875000e+01 -1.816938209533691406e+01 1.438716299162479118e-05 7.988253400981193408e-07 4.555796294880565256e-06 6.929150231371750124e-07
6.180000000000000000e+02 7.287604522705078125e+01 -1.816022109985351562e+01 1.400251494487747550e-05 5.846339718118542805e-06 5.954656444373540580e-06 -5.328396923687250819e-07
6.190000000000000000e+02 7.219709777832031250e+01 -1.894200706481933594e+01 2.208495061495341361e-05 6.839111392764607444e-06 8.677218829689081758e-06 2.981662987622257788e-07
6.200000000000000000e+02 7.126568603515625000e+01 -2.207330703735351562e+01 1.781907485565170646e-05 2.746045538515318185e-06 6.169535936351167038e-06 1.850775697675999254e-05
6.210000000000000000e+02 7.076419067382812500e+01 -1.835017395019531250e+01 -4.040123258164385334e-06 -1.280434116779360920e-05 -5.053339464211603627e-06 -4.819762580154929310e-06
6.220000000000000000e+02 7.516887664794921875e+01 -2.023916435241699219e+01 -1.998525840463116765e-05 1.586525399943639059e-06 -5.519619662663899362e-06 -6.175380349304759875e-06
6.230000000000000000e+02 7.573010253906250000e+01 -2.305298805236816406e+01 4.481096766539849341e-05 1.249649176315870136e-05 1.719223837426397949e-05 -1.171595886262366548e-05
6.240000000000000000e+02 5.277763366699218750e+01 -3.647462844848632812e+01 2.112935995683073997e-03 -5.681558512151241302e-03 -1.070586731657385826e-03 4.037554375827312469e-03
6.250000000000000000e+02 5.098120880126953125e+01 -3.431149673461914062e+01 1.347370998701080680e-04 -6.205839104950428009e-03 -1.821330515667796135e-03 5.497832316905260086e-03
6.260000000000000000e+02 5.504303359985351562e+01 -3.919004058837890625e+01 3.059607697650790215e-03 -4.657377023249864578e-03 -4.793307161889970303e-04 1.972787082195281982e-03
6.270000000000000000e+02 5.738197708129882812e+01 -3.658730316162109375e+01 -7.797066245984751731e-06 -2.743477467447519302e-03 -8.253823616541922092e-04 2.493415726348757744e-03
6.280000000000000000e+02 5.510716247558593750e+01 -3.481327438354492188e+01 -6.897552520968019962e-04 -3.163832006976008415e-03 -1.156076206825673580e-03 3.876145463436841965e-03
6.290000000000000000e+02 5.848674774169921875e+01 -4.090559387207031250e+01 1.852571498602628708e-03 -3.539075376465916634e-03 -5.059511167928576469e-04 5.444692214950919151e-04
6.300000000000000000e+02 6.023608779907226562e+01 -3.806234359741210938e+01 6.455403054133057594e-04 -2.040547085925936699e-03 -4.185020225122570992e-04 1.415731851011514664e-03
6.310000000000000000e+02 5.928452301025390625e+01 -3.458840179443359375e+01 -7.954539032652974129e-04 -1.035164226777851582e-03 -5.491854390129446983e-04 1.765427179634571075e-03
6.320000000000000000e+02 6.219435882568359375e+01 -3.006302070617675781e+01 -9.275033517042174935e-05 1.140296662924811244e-04 6.383800609910394996e-06 6.267787830438464880e-05
6.330000000000000000e+02 6.713178253173828125e+01 -3.173334312438964844e+01 -1.940854272106662393e-04 -1.218150064232759178e-04 -9.477013372816145420e-05 3.587964965845458210e-05
6.340000000000000000e+02 7.154914855957031250e+01 -2.985745811462402344e+01 7.607692532474175096e-05 -6.639617640757933259e-05 2.904225084421341307e-06 -2.112101901730056852e-05
6.350000000000000000e+02 7.429914093017578125e+01 -3.182465934753417969e+01 -1.606462501513306051e-05 1.114850510930409655e-05 -1.474836039960791823e-06 -9.688309364719316363e-05
6.360000000000000000e+02 7.804785156250000000e+01 -2.988718223571777344e+01 -1.637428067624568939e-05 9.421172580914571881e-05 2.335123281227424741e-05 -4.350190647528506815e-05
6.370000000000000000e+02 7.931950378417968750e+01 -2.831033897399902344e+01 -9.099057024286594242e-06 8.960784907685592771e-05 2.415263770672027022e-05 -1.588865598023403436e-05
6.380000000000000000e+02 7.931550598144531250e+01 -2.557240104675292969e+01 -7.047960025374777615e-06 3.933155676349997520e-05 9.685079021437559277e-06 -1.389213775837561116e-05
6.390000000000000000e+02 6.290310668945312500e+01 -4.123742675781250000e+01 4.225648881401866674e-04 -1.519763260148465633e-03 -3.291595203336328268e-04 1.114644546760246158e-04
6.400000000000000000e+02 6.366122436523437500e+01 -3.872612380981445312e+01 2.640627499204128981e-04 -1.363603514619171619e-03 -3.298622323200106621e-04 4.190964391455054283e-04
6.410000000000000000e+02 6.421538543701171875e+01 -3.637065505981445312e+01 -8.731435809750109911e-05 -7.473698351532220840e-04 -2.504052536096423864e-04 6.579165346920490265e-04
6.420000000000000000e+02 6.746241760253906250e+01 -4.125039672851562500e+01 3.636242763604968786e-05 -6.891017546877264977e-04 -1.958217908395454288e-04 7.035916496533900499e-05
6.430000000000000000e+02 6.659005737304687500e+01 -3.402524566650390625e+01 -2.348743291804566979e-04 -2.367167035117745399e-04 -1.414773141732439399e-04 2.212100807810202241e-04
6.440000000000000000e+02 7.195498657226562500e+01 -4.094712066650390625e+01 -5.143836096976883709e-05 -1.859290350694209337e-04 -7.121021917555481195e-05 -1.674228224146645516e-05
6.450000000000000000e+02 7.315969848632812500e+01 -3.672825622558593750e+01 -8.530660124961286783e-05 -9.505275374976918101e-05 -5.410780431702733040e-05 -6.686054257443174720e-05
6.460000000000000000e+02 7.196122741699218750e+01 -3.481943893432617188e+01 -1.822270314733032137e-05 -1.582649565534666181e-04 -5.294629590935073793e-05 -4.548986180452629924e-05
6.470000000000000000e+02 7.355267333984375000e+01 -3.385937881469726562e+01 -4.161746255704201758e-05 -3.071034007007256150e-05 -2.169834078813437372e-05 -9.329266322311013937e-05
6.480000000000000000e+02 7.548653411865234375e+01 -4.016176986694335938e+01 2.642253548401640728e-06 1.284336758544668555e-04 3.932278195861726999e-05 -3.521880353218875825e-05
6.490000000000000000e+02 7.482293701171875000e+01 -3.289857101440429688e+01 -9.344126738142222166e-06 3.188000846421346068e-05 6.760764790669782087e-06 -6.978117744438350201e-05
6.500000000000000000e+02 7.556322479248046875e+01 -3.385617065429687500e+01 -3.726012437255121768e-05 4.491789150051772594e-05 2.297330638612038456e-06 -6.472231325460597873e-05
6.510000000000000000e+02 7.808768463134765625e+01 -4.166343688964843750e+01 5.633107775793178007e-06 2.376906195422634482e-04 7.299711433006450534e-05 9.856835276877973229e-07
6.520000000000000000e+02 7.894425201416015625e+01 -4.023851394653320312e+01 7.981443559401668608e-06 2.420097007416188717e-04 7.499734056182205677e-05 9.529569069854915142e-06
6.530000000000000000e+02 7.911154937744140625e+01 -3.772780609130859375e+01 5.857384167029522359e-06 2.655122079886496067e-04 8.141087891999632120e-05 5.003894784749718383e-06
6.540000000000000000e+02 7.786898803710937500e+01 -3.486771011352539062e+01 -3.281698445789515972e-05 1.687940675765275955e-04 4.079312566318549216e-05 -4.982943210052326322e-05
6.550000000000000000e+02 7.941076660156250000e+01 -3.230522155761718750e+01 2.263753412989899516e-05 1.912576262839138508e-04 6.416854739654809237e-05 -1.254568269359879196e-05
6.560000000000000000e+02 7.899904632568359375e+01 -1.854412078857421875e+01 2.117517396982293576e-06 -5.202396096137817949e-06 -9.254635529032384511e-07 -6.091342584113590419e-06
6.570000000000000000e+02 6.829953765869140625e+01 -2.184902381896972656e+01 2.948878682218492031e-05 1.575373426021542400e-05 1.357275596092222258e-05 1.990591226785909384e-05
6.580000000000000000e+02 6.871071624755859375e+01 -2.384895706176757812e+01 1.115345585276372731e-04 -3.596393526095198467e-06 3.238144927308894694e-05 2.399302138655912131e-05
6.590000000000000000e+02 6.472893524169921875e+01 -2.631394195556640625e+01 2.198164293076843023e-04 1.228651235578581691e-04 1.028044644044712186e-04 1.250041677849367261e-04
6.600000000000000000e+02 6.262127304077148438e+01 -2.820090675354003906e+01 3.662633243948221207e-04 2.000646927626803517e-04 1.698984124232083559e-04 1.878763723652809858e-04
6.610000000000000000e+02 5.880820083618164062e+01 -3.019233131408691406e+01 -7.335367845371365547e-04 -2.694765680644195527e-05 -2.281453344039618969e-04 3.405054158065468073e-04
6.620000000000000000e+02 5.143306732177734375e+01 -3.031927871704101562e+01 -1.338171120733022690e-02 -3.614313900470733643e-03 -5.098807625472545624e-03 5.827278364449739456e-03
6.630000000000000000e+02 4.959151077270507812e+01 -3.119040870666503906e+01 -7.326497230678796768e-03 -7.664822507649660110e-03 -4.497395828366279602e-03 6.783374585211277008e-03
6.640000000000000000e+02 4.879313659667968750e+01 -2.918379020690917969e+01 -1.640321873128414154e-02 -9.293851442635059357e-03 -7.709121331572532654e-03 1.071894355118274689e-02
6.650000000000000000e+02 3.535635757446289062e+01 -2.230402183532714844e+01 -7.656678790226578712e-04 -7.694941596128046513e-04 -4.605486174114048481e-04 -1.593687571585178375e-03
6.660000000000000000e+02 3.644250106811523438e+01 -2.267388153076171875e+01 -4.101810045540332794e-03 -5.751667194999754429e-04 -1.403092988766729832e-03 -2.548384713008999825e-03
6.670000000000000000e+02 3.671687316894531250e+01 -2.733025741577148438e+01 -1.483858004212379456e-02 6.816477514803409576e-03 -2.406630665063858032e-03 -1.242522848770022392e-03
6.680000000000000000e+02 3.496283340454101562e+01 -2.373715400695800781e+01 -6.039211060851812363e-03 -4.130577668547630310e-03 -3.050936618819832802e-03 -4.341188352555036545e-03
6.690000000000000000e+02 3.425526046752929688e+01 -2.503875541687011719e+01 -1.048121973872184753e-02 -6.598499603569507599e-03 -5.123915616422891617e-03 -8.614825084805488586e-03
6.700000000000000000e+02 3.331896591186523438e+01 -2.616752624511718750e+01 -1.771147735416889191e-02 -9.372754022479057312e-03 -8.125269785523414612e-03 -1.139199826866388321e-02
6.710000000000000000e+02 3.231243133544921875e+01 -2.720067787170410156e+01 -2.347833663225173950e-02 -1.135955844074487686e-02 -1.045136805623769760e-02 -1.779591850936412811e-02
6.720000000000000000e+02 2.439196205139160156e+01 -2.994902420043945312e+01 1.781986653804779053e-01 8.985552936792373657e-02 8.041626214981079102e-02 -1.229626685380935669e-01
6.730000000000000000e+02 1.937556838989257812e+01 -1.004755783081054688e+01 1.142146706581115723e+00 3.466541767120361328e-01 4.466402530670166016e-01 4.522822201251983643e-01
6.740000000000000000e+02 1.943105316162109375e+01 -1.141898536682128906e+01 1.759140014648437500e+00 2.304343730211257935e-01 5.968723297119140625e-01 4.423250257968902588e-01
6.750000000000000000e+02 2.182313156127929688e+01 -9.767099380493164062e+00 1.248509764671325684e+00 -1.129153836518526077e-02 3.711654841899871826e-01 3.296419680118560791e-01
6.760000000000000000e+02 2.570114135742187500e+01 -9.406866073608398438e+00 1.830271959304809570e+00 4.902694821357727051e-01 6.961624026298522949e-01 9.896655082702636719e-01
6.770000000000000000e+02 2.769202613830566406e+01 -5.180780410766601562e+00 -6.328524947166442871e-01 4.247035384178161621e-01 -6.244468316435813904e-02 6.567703485488891602e-01
6.780000000000000000e+02 2.750886917114257812e+01 -7.907485961914062500e+00 1.935522198677062988e+00 5.746502876281738281e-01 7.530517578125000000e-01 8.316884040832519531e-01
6.790000000000000000e+02 2.384979438781738281e+01 -5.089607715606689453e+00 -9.116822481155395508e-01 -3.590641915798187256e-01 -3.812239170074462891e-01 -2.011059075593948364e-01
6.800000000000000000e+02 7.578856658935546875e+01 -5.817453384399414062e+00 -5.045621097087860107e-02 -2.528921961784362793e-01 -9.100452065467834473e-02 -2.738565504550933838e-01
6.810000000000000000e+02 7.163135528564453125e+01 -4.218236923217773438e+00 -4.249968007206916809e-02 -1.402133107185363770e-01 -5.481389537453651428e-02 -4.323312342166900635e-01
6.820000000000000000e+02 7.583060455322265625e+01 -3.184688568115234375e+00 -1.060732547193765640e-02 -3.833111822605133057e-01 -1.181755512952804565e-01 -2.977375388145446777e-01
6.830000000000000000e+02 6.896031188964843750e+01 -7.150283336639404297e+00 -2.507295012474060059e-01 -3.717329725623130798e-02 -8.637084066867828369e-02 -4.726463556289672852e-01
6.840000000000000000e+02 5.930414962768554688e+01 -7.491669178009033203e+00 3.849944844841957092e-02 7.690270990133285522e-02 3.462064638733863831e-02 -1.281046867370605469e-01
6.850000000000000000e+02 5.644723129272460938e+01 -2.680742979049682617e+00 9.614349007606506348e-01 8.684684038162231445e-01 5.489709973335266113e-01 7.669913172721862793e-01
6.860000000000000000e+02 5.749105453491210938e+01 -3.558158636093139648e+00 8.090723752975463867e-01 5.579918622970581055e-01 4.101192653179168701e-01 5.093099474906921387e-01
6.870000000000000000e+02 4.744011306762695312e+01 -6.987082004547119141e+00 1.013920664787292480e+00 1.709262877702713013e-01 3.554540872573852539e-01 2.559778094291687012e-01
6.880000000000000000e+02 4.845279312133789062e+01 -1.032429695129394531e+01 -2.274917960166931152e-01 3.619379699230194092e-01 4.033384844660758972e-02 4.449128210544586182e-01
6.890000000000000000e+02 4.284327697753906250e+01 -5.763739585876464844e+00 6.083334088325500488e-01 -5.388831347227096558e-02 1.663335263729095459e-01 5.308406800031661987e-02
6.900000000000000000e+02 4.096426773071289062e+01 -6.012708663940429688e+00 4.141858220100402832e-01 -1.853383779525756836e-01 6.865423172712326050e-02 1.709227114915847778e-01
6.910000000000000000e+02 4.015697860717773438e+01 -2.581373214721679688e+00 3.745223581790924072e-01 -4.970949515700340271e-02 9.744385629892349243e-02 -9.880471974611282349e-02
6.920000000000000000e+02 3.660724258422851562e+01 -1.896753311157226562e+00 1.258670389652252197e-01 -7.062046229839324951e-02 1.657397300004959106e-02 8.817248791456222534e-02
6.930000000000000000e+02 3.522452163696289062e+01 -1.984386563301086426e+00 2.621323429048061371e-02 -3.340574726462364197e-02 -2.157753566280007362e-03 1.591220051050186157e-01
6.940000000000000000e+02 2.971260070800781250e+01 -6.583745479583740234e+00 3.744140565395355225e-01 3.766693472862243652e-01 2.253250330686569214e-01 7.558121085166931152e-01
6.950000000000000000e+02 2.310674476623535156e+01 -5.279878616333007812e+00 -7.607717514038085938e-01 -4.774617403745651245e-02 -2.425553798675537109e-01 -1.240160241723060608e-01
6.960000000000000000e+02 2.404039382934570312e+01 -9.056434631347656250e+00 1.443102717399597168e+00 -6.745672225952148438e-02 4.126937985420227051e-01 4.731980860233306885e-01
6.970000000000000000e+02 1.667654037475585938e+01 -4.712266921997070312e+00 -4.920744299888610840e-01 2.934319972991943359e-01 -5.959272384643554688e-02 9.658554568886756897e-03
6.980000000000000000e+02 1.246478939056396484e+01 -5.635515689849853516e+00 -2.889618575572967529e-01 2.197991609573364258e-01 -2.074881270527839661e-02 -3.262334764003753662e-01
6.990000000000000000e+02 8.908428192138671875e+00 -1.868272185325622559e+00 -6.392470598220825195e-01 -6.394973024725914001e-05 -1.917933076620101929e-01 -2.457277625799179077e-01
7.000000000000000000e+02 4.154595375061035156e+00 -7.390848636627197266e+00 -2.510862424969673157e-02 -3.167895376682281494e-01 -1.025694459676742554e-01 -4.009207785129547119e-01
7.010000000000000000e+02 5.079948425292968750e+00 -1.904864072799682617e+00 -2.647894322872161865e-01 -3.051070496439933777e-02 -8.859004080295562744e-02 -2.010545879602432251e-01
7.020000000000000000e+02 9.400640487670898438e+00 -5.610939502716064453e+00 -2.392812669277191162e-01 4.951998218894004822e-02 -5.692838504910469055e-02 -4.541656374931335449e-01
7.030000000000000000e+02 8.201312065124511719e+00 -1.219001007080078125e+01 2.734154760837554932e-01 4.346067085862159729e-02 9.506283700466156006e-02 -3.722312152385711670e-01
7.040000000000000000e+02 4.499730587005615234e+00 -2.789767026901245117e+00 -1.981008797883987427e-01 -6.960183382034301758e-02 -8.031081408262252808e-02 -2.468245029449462891e-01
7.050000000000000000e+02 1.381200695037841797e+01 -9.133232116699218750e+00 2.677455246448516846e-01 5.793382525444030762e-01 2.541251480579376221e-01 -1.531059592962265015e-01
7.060000000000000000e+02 3.649349975585937500e+01 -8.673455238342285156e+00 -1.178072243928909302e-01 -2.868016064167022705e-01 -1.213826462626457214e-01 3.568044006824493408e-01
7.070000000000000000e+02 5.582449722290039062e+01 -7.680406570434570312e+00 3.087531328201293945e-01 3.449577689170837402e-01 1.961132735013961792e-01 -1.344113983213901520e-02
7.080000000000000000e+02 5.999193954467773438e+01 -1.084342384338378906e+01 -1.017462372779846191e+00 5.122473929077386856e-03 -3.037019670009613037e-01 -3.197793364524841309e-01
7.090000000000000000e+02 6.727098083496093750e+01 -8.932297706604003906e+00 -4.969671070575714111e-01 -4.073948040604591370e-02 -1.613119840621948242e-01 -4.951461255550384521e-01
7.100000000000000000e+02 1.950813484191894531e+01 -6.886596202850341797e+00 8.008395880460739136e-02 3.223381042480468750e-01 1.207266226410865784e-01 1.035068780183792114e-01
7.110000000000000000e+02 7.053836059570312500e+01 7.920309156179428101e-02 1.228054612874984741e-01 -9.076220542192459106e-02 9.612975642085075378e-03 -3.675263822078704834e-01
7.120000000000000000e+02 7.579663848876953125e+01 -1.852127552032470703e+00 1.108594797551631927e-02 -4.419419169425964355e-01 -1.292567849159240723e-01 -2.988465726375579834e-01
7.130000000000000000e+02 6.640152740478515625e+01 -4.343113899230957031e+00 7.248975336551666260e-02 -2.254277467727661133e-02 1.498409453779459000e-02 -3.912348151206970215e-01
7.140000000000000000e+02 6.401550292968750000e+01 -2.354759216308593750e+00 3.081429302692413330e-01 2.002765536308288574e-01 1.525258421897888184e-01 -1.081559509038925171e-01
7.150000000000000000e+02 2.210765457153320312e+01 -1.968165040016174316e+00 -8.248896002769470215e-01 7.833524048328399658e-02 -2.239663153886795044e-01 4.731050133705139160e-01
7.160000000000000000e+02 1.813853454589843750e+01 -2.254328250885009766e+00 -9.268959164619445801e-01 1.501578092575073242e-01 -2.330214232206344604e-01 1.405382901430130005e-01
7.170000000000000000e+02 9.674349784851074219e+00 -1.869300603866577148e+00 -7.165514826774597168e-01 5.310440901666879654e-03 -2.133723199367523193e-01 -2.426688671112060547e-01
7.180000000000000000e+02 7.818418121337890625e+01 -3.110503196716308594e+00 -4.787161014974117279e-03 -5.207374691963195801e-01 -1.576573848724365234e-01 -1.560055613517761230e-01
7.190000000000000000e+02 7.063169097900390625e+01 4.392619132995605469e+00 1.821493953466415405e-01 -2.847927808761596680e-02 4.610103741288185120e-02 -2.453013360500335693e-01
7.200000000000000000e+02 7.577233886718750000e+01 2.316587448120117188e+00 3.769670799374580383e-02 -6.118467450141906738e-01 -1.722450107336044312e-01 -2.527095973491668701e-01
7.210000000000000000e+02 6.728031158447265625e+01 1.292546510696411133e+00 2.379923313856124878e-01 2.300634384155273438e-01 1.404167264699935913e-01 -2.181222736835479736e-01
7.220000000000000000e+02 6.333878707885742188e+01 1.720224738121032715e+00 3.877043426036834717e-01 6.785250306129455566e-01 3.198688030242919922e-01 1.563102155923843384e-01
7.230000000000000000e+02 6.084575653076171875e+01 8.817884922027587891e-01 4.738223850727081299e-01 8.428304791450500488e-01 3.949958682060241699e-01 4.584618806838989258e-01
7.240000000000000000e+02 7.938124084472656250e+01 -2.876119017601013184e-01 3.567509585991501808e-03 -8.455643653869628906e-01 -2.525990605354309082e-01 -5.379335209727287292e-02
7.250000000000000000e+02 7.570629882812500000e+01 5.098770141601562500e+00 4.832090064883232117e-02 -6.913487315177917480e-01 -1.929083615541458130e-01 -2.028152644634246826e-01
7.260000000000000000e+02 6.868988037109375000e+01 5.144897460937500000e+00 2.321290671825408936e-01 2.620935440063476562e-01 1.482667773962020874e-01 -1.645284593105316162e-01
7.270000000000000000e+02 6.362490081787109375e+01 4.578749656677246094e+00 3.861135840415954590e-01 1.034582257270812988e+00 4.262087345123291016e-01 2.134528607130050659e-01
7.280000000000000000e+02 5.958638000488281250e+01 3.819183349609375000e+00 5.695384740829467773e-01 1.205860137939453125e+00 5.326195955276489258e-01 8.117653131484985352e-01
7.290000000000000000e+02 7.812305450439453125e+01 3.866605043411254883e+00 1.347261201590299606e-02 -9.895193576812744141e-01 -2.928140163421630859e-01 -1.227296441793441772e-01
7.300000000000000000e+02 6.890607452392578125e+01 9.945048332214355469e+00 2.275075316429138184e-01 3.902750015258789062e-01 1.853347569704055786e-01 -7.045298814773559570e-02
7.310000000000000000e+02 7.402313995361328125e+01 9.062381744384765625e+00 1.015370264649391174e-01 -4.977135062217712402e-01 -1.188529431819915771e-01 -1.331116259098052979e-01
7.320000000000000000e+02 6.650228118896484375e+01 9.232685089111328125e+00 2.661828994750976562e-01 8.429338335990905762e-01 3.327350020408630371e-01 1.751342602074146271e-02
7.330000000000000000e+02 6.476074981689453125e+01 7.648770332336425781e+00 2.838510274887084961e-01 1.139405488967895508e+00 4.269769489765167236e-01 1.482054144144058228e-01
7.340000000000000000e+02 7.935919952392578125e+01 6.733291149139404297e+00 1.510583912022411823e-03 -1.359933733940124512e+00 -4.075269401073455811e-01 -3.162523731589317322e-02
7.350000000000000000e+02 7.133721923828125000e+01 1.279752254486083984e+01 1.945539116859436035e-01 -3.198577463626861572e-02 4.877043887972831726e-02 -4.080587998032569885e-02
7.360000000000000000e+02 7.547280883789062500e+01 1.254369163513183594e+01 7.610285282135009766e-02 -7.618787288665771484e-01 -2.057327628135681152e-01 -3.094639442861080170e-02
7.370000000000000000e+02 6.481742095947265625e+01 1.093863868713378906e+01 2.360437512397766113e-01 1.351062059402465820e+00 4.761317670345306396e-01 9.123393148183822632e-02
7.380000000000000000e+02 7.115586090087890625e+01 1.713211822509765625e+01 1.898223310708999634e-01 -4.430750384926795959e-03 5.561747401952743530e-02 1.071993857622146606e-01
7.390000000000000000e+02 7.550917816162109375e+01 1.661040115356445312e+01 5.738821625709533691e-02 -7.716742753982543945e-01 -2.142858207225799561e-01 7.910782843828201294e-02
7.400000000000000000e+02 6.839324951171875000e+01 1.256919097900390625e+01 2.430344820022583008e-01 5.481873750686645508e-01 2.373665571212768555e-01 -2.537245117127895355e-02
7.410000000000000000e+02 7.811067199707031250e+01 1.381863880157470703e+01 1.690672896802425385e-02 -1.275333523750305176e+00 -3.775280416011810303e-01 9.383955039083957672e-03
7.420000000000000000e+02 7.234200286865234375e+01 2.080788040161132812e+01 8.844456076622009277e-02 -2.271631211042404175e-01 -4.161557182669639587e-02 1.992737948894500732e-01
7.430000000000000000e+02 6.708351135253906250e+01 1.733822441101074219e+01 3.260369300842285156e-01 7.523520588874816895e-01 3.235166966915130615e-01 5.975586827844381332e-04
7.440000000000000000e+02 6.421074676513671875e+01 1.674984169006347656e+01 3.409667909145355225e-01 1.600739121437072754e+00 5.825117826461791992e-01 -2.159096598625183105e-01
7.450000000000000000e+02 7.146543884277343750e+01 2.232748603820800781e+01 9.085604548454284668e-02 -5.410509184002876282e-02 1.102528721094131470e-02 2.387530058622360229e-01
7.460000000000000000e+02 7.326432037353515625e+01 2.413395500183105469e+01 2.258599922060966492e-02 -3.301293551921844482e-01 -9.226300567388534546e-02 2.374796420335769653e-01
7.470000000000000000e+02 6.888359069824218750e+01 2.061648941040039062e+01 1.870213299989700317e-01 3.067524731159210205e-01 1.481321454048156738e-01 1.985124498605728149e-01
7.480000000000000000e+02 6.413971710205078125e+01 2.115243148803710938e+01 3.441223502159118652e-01 1.079963207244873047e+00 4.272256493568420410e-01 -6.075567379593849182e-02
7.490000000000000000e+02 5.102800369262695312e+01 2.215096473693847656e+01 4.320660233497619629e-02 -6.227111443877220154e-03 1.109384745359420776e-02 -2.949312701821327209e-02
7.500000000000000000e+02 9.725358963012695312e+00 2.061794853210449219e+01 -1.297239330597221851e-03 -8.951861673267558217e-05 -4.160274111200124025e-04 1.535422925371676683e-04
7.510000000000000000e+02 4.249346733093261719e+00 2.182365226745605469e+01 -6.287194555625319481e-04 -2.186221099691465497e-04 -2.542024594731628895e-04 3.750760806724429131e-04
7.520000000000000000e+02 5.559036254882812500e+00 1.713071060180664062e+01 2.291188138769939542e-05 -1.450815034331753850e-04 -3.665088661364279687e-05 -1.320861338172107935e-04
7.530000000000000000e+02 9.206912994384765625e+00 1.889120101928710938e+01 -7.037295727059245110e-04 -1.949014404090121388e-04 -2.695893053896725178e-04 1.019147930492181331e-05
7.540000000000000000e+02 6.120960712432861328e-01 2.059245872497558594e+01 -2.281529159517958760e-04 4.728257772512733936e-04 7.340186130022630095e-05 7.245387223520083353e-06
7.550000000000000000e+02 7.073166656494140625e+01 2.592722129821777344e+01 -1.286043785512447357e-02 -2.810159698128700256e-03 -4.701179452240467072e-03 2.468542009592056274e-01
7.560000000000000000e+02 6.419982910156250000e+01 2.500282669067382812e+01 -3.536154050379991531e-03 7.432895302772521973e-01 2.219260185956954956e-01 3.699492290616035461e-02
7.570000000000000000e+02 5.960369491577148438e+01 2.694451332092285156e+01 -1.178492885082960129e-02 5.662722587585449219e-01 1.663462072610855103e-01 -2.186157703399658203e-01
7.580000000000000000e+02 5.659300613403320312e+01 2.657437705993652344e+01 1.238299384713172913e-01 2.830416858196258545e-01 1.220614835619926453e-01 -2.720861434936523438e-01
7.590000000000000000e+02 5.471290206909179688e+01 2.286824607849121094e+01 2.543732523918151855e-01 1.488054823130369186e-02 8.077614009380340576e-02 -9.458898752927780151e-02
7.600000000000000000e+02 5.038920211791992188e+01 2.602951240539550781e+01 8.542091399431228638e-02 4.578955471515655518e-02 3.936314210295677185e-02 -9.475293010473251343e-02
7.610000000000000000e+02 4.690898895263671875e+01 2.631237030029296875e+01 4.519428685307502747e-02 3.216676041483879089e-02 2.320831455290317535e-02 -4.299159348011016846e-02
7.620000000000000000e+02 4.022745132446289062e+01 2.567645835876464844e+01 7.805687375366687775e-03 2.253986895084381104e-02 9.103666990995407104e-03 -8.284240961074829102e-03
7.630000000000000000e+02 3.681165313720703125e+01 2.444184494018554688e+01 -3.811805509030818939e-03 1.308683026582002640e-02 2.782507566735148430e-03 -9.254649048671126366e-04
7.640000000000000000e+02 3.369916152954101562e+01 2.626486968994140625e+01 -2.859309548512101173e-03 5.413328763097524643e-03 7.662057178094983101e-04 -6.214858876774087548e-05
7.650000000000000000e+02 2.795922279357910156e+01 2.431712341308593750e+01 -1.445479132235050201e-02 -1.135201752185821533e-02 -7.742042653262615204e-03 9.976699016988277435e-03
7.660000000000000000e+02 2.694078254699707031e+01 2.455547904968261719e+01 -1.624398119747638702e-02 -1.144193857908248901e-02 -8.305775932967662811e-03 1.181187853217124939e-02
7.670000000000000000e+02 1.415228271484375000e+01 2.370491027832031250e+01 -5.332182627171278000e-03 6.056066486053168774e-04 -1.417972729541361332e-03 1.949428347870707512e-03
7.680000000000000000e+02 1.316024208068847656e+01 2.494823265075683594e+01 -4.759702831506729126e-03 1.023774239001795650e-04 -1.397197600454092026e-03 3.156787483021616936e-03
7.690000000000000000e+02 4.804611682891845703e+00 2.452079391479492188e+01 -8.590156212449073792e-04 -6.396618555299937725e-04 -4.496032488532364368e-04 9.828797774389386177e-04
7.700000000000000000e+02 6.614801287651062012e-01 2.341659164428710938e+01 -2.320613566553220153e-04 2.135021932190284133e-04 -5.567747393797617406e-06 9.809883340494707227e-05
7.710000000000000000e+02 7.768350982666015625e+01 2.363053512573242188e+01 7.178914267569780350e-03 -9.410711526870727539e-01 -2.801676690578460693e-01 1.214319840073585510e-01
7.720000000000000000e+02 7.046276855468750000e+01 3.299691772460937500e+01 -1.207914128899574280e-01 -2.034847252070903778e-02 -4.234196618199348450e-02 1.645533442497253418e-01
7.730000000000000000e+02 6.058831405639648438e+01 3.019204330444335938e+01 -1.347211599349975586e-01 4.672957360744476318e-01 9.977237880229949951e-02 -1.043720468878746033e-01
7.740000000000000000e+02 4.558675384521484375e+01 2.942690467834472656e+01 3.239692375063896179e-02 5.664853379130363464e-02 2.671363763511180878e-02 -5.347084254026412964e-02
7.750000000000000000e+02 3.956469726562500000e+01 2.876611137390136719e+01 1.356650236994028091e-02 2.767135947942733765e-02 1.237135846167802811e-02 -1.451428979635238647e-02
7.760000000000000000e+02 3.681753921508789062e+01 2.909329795837402344e+01 8.147813379764556885e-03 2.040488459169864655e-02 8.565809577703475952e-03 -8.655917830765247345e-03
7.770000000000000000e+02 2.886143684387207031e+01 2.611111450195312500e+01 -5.931598134338855743e-03 -6.168335210531949997e-03 -3.629979910328984261e-03 6.398698315024375916e-03
7.780000000000000000e+02 2.638910675048828125e+01 2.882156562805175781e+01 3.876528935506939888e-04 -6.937285419553518295e-03 -1.964889932423830032e-03 6.949496455490589142e-03
7.790000000000000000e+02 2.023315429687500000e+01 2.587196731567382812e+01 -1.078541204333305359e-02 -3.273190231993794441e-03 -4.217580892145633698e-03 7.627277635037899017e-03
7.800000000000000000e+02 9.513244628906250000e+00 2.916225814819335938e+01 -8.625846239738166332e-04 -1.797028118744492531e-03 -7.978838402777910233e-04 3.796939970925450325e-03
7.810000000000000000e+02 7.117256522178649902e-01 2.768585586547851562e+01 1.590246101841330528e-04 -1.013132277876138687e-03 -2.562323061283677816e-04 3.038006252609193325e-04
7.820000000000000000e+02 7.737422180175781250e+01 2.658899116516113281e+01 -5.825661588460206985e-03 -7.714654207229614258e-01 -2.331873178482055664e-01 1.421676278114318848e-01
7.830000000000000000e+02 7.523677825927734375e+01 3.302780914306640625e+01 -4.277960211038589478e-02 -3.928762376308441162e-01 -1.306967586278915405e-01 1.443942785263061523e-01
7.840000000000000000e+02 6.778178405761718750e+01 3.288768386840820312e+01 -1.553620100021362305e-01 1.631481647491455078e-01 2.335845958441495895e-03 1.302251815795898438e-01
7.850000000000000000e+02 6.506855010986328125e+01 3.230956649780273438e+01 -1.809018105268478394e-01 3.323340117931365967e-01 4.542966187000274658e-02 6.241974234580993652e-02
7.860000000000000000e+02 5.184088897705078125e+01 3.146114921569824219e+01 2.850000048056244850e-03 1.747810244560241699e-01 5.328930914402008057e-02 -1.300683617591857910e-01
7.870000000000000000e+02 2.516357040405273438e+01 3.204136657714843750e+01 6.924756336957216263e-03 -4.506453406065702438e-03 7.254909141920506954e-04 5.907484795898199081e-03
7.880000000000000000e+02 2.223211669921875000e+01 3.072004699707031250e+01 2.365837572142481804e-03 -5.834931042045354843e-03 -1.040728064253926277e-03 8.195855654776096344e-03
7.890000000000000000e+02 1.791513442993164062e+01 3.297920227050781250e+01 3.394955536350607872e-03 -4.869893193244934082e-03 -4.424813378136605024e-04 6.618031300604343414e-03
7.900000000000000000e+02 1.273271560668945312e+01 2.967728996276855469e+01 -1.897337730042636395e-03 -2.114364178851246834e-03 -1.203510561026632786e-03 5.126928444951772690e-03
7.910000000000000000e+02 9.146702766418457031e+00 3.258744812011718750e+01 5.484608118422329426e-04 -3.128784475848078728e-03 -7.740970468148589134e-04 3.628873499110341072e-03
7.920000000000000000e+02 4.620757102966308594e+00 3.160904312133789062e+01 1.122960748034529388e-04 -2.708452753722667694e-03 -7.788469665683805943e-04 1.970540266484022141e-03
7.930000000000000000e+02 6.772210597991943359e-01 3.051800918579101562e+01 1.847888051997870207e-04 -2.324733184650540352e-03 -6.419833516702055931e-04 3.656431799754500389e-04
7.940000000000000000e+02 7.752307891845703125e+01 3.076545333862304688e+01 -8.442712016403675079e-03 -6.326596140861511230e-01 -1.923307031393051147e-01 1.136628687381744385e-01
7.950000000000000000e+02 7.081374359130859375e+01 3.824512863159179688e+01 -1.196793988347053528e-01 -7.828547805547714233e-02 -5.938946455717086792e-02 7.816448807716369629e-02
7.960000000000000000e+02 6.120944595336914062e+01 3.407105255126953125e+01 -1.801742762327194214e-01 3.607023358345031738e-01 5.415841564536094666e-02 -4.771485179662704468e-02
7.970000000000000000e+02 4.677004337310791016e+00 3.580568695068359375e+01 4.093894676771014929e-04 -4.188514314591884613e-03 -1.133737503550946712e-03 1.511026057414710522e-03
7.980000000000000000e+02 5.666339993476867676e-01 3.465772247314453125e+01 -1.685901515884324908e-04 -4.368130117654800415e-03 -1.361016067676246166e-03 2.482722338754683733e-04
7.990000000000000000e+02 7.718264007568359375e+01 3.333056259155273438e+01 -1.834699511528015137e-02 -5.306554436683654785e-01 -1.647007316350936890e-01 9.237566590309143066e-02
8.000000000000000000e+02 7.997295260429382324e-01 3.729898071289062500e+01 -9.333540947409346700e-05 -5.342120304703712463e-03 -1.630636746995151043e-03 1.909052807604894042e-04
8.010000000000000000e+02 7.738486480712890625e+01 3.646103286743164062e+01 -9.360733442008495331e-03 -4.707370698451995850e-01 -1.440293490886688232e-01 7.394946366548538208e-02
8.020000000000000000e+02 5.452606201171875000e+00 1.337909603118896484e+01 1.039953131112270057e-04 -7.843261118978261948e-05 7.668810212635435164e-06 -1.400190230924636126e-04
8.030000000000000000e+02 8.544004440307617188e+00 1.384193706512451172e+01 3.055362685699947178e-05 -2.730829291976988316e-04 -7.275879761436954141e-05 3.662779636215418577e-05
8.040000000000000000e+02 6.700757145881652832e-01 1.635560607910156250e+01 1.631989580346271396e-04 3.383247822057455778e-04 1.504571264376863837e-04 -4.254726445651613176e-05
8.050000000000000000e+02 4.022303104400634766e+00 1.020693206787109375e+01 -5.651605533785186708e-05 -2.671088259376119822e-05 -2.496808156138285995e-05 -6.556593689310830086e-06
8.060000000000000000e+02 1.019905948638916016e+01 1.288802242279052734e+01 -2.565230533946305513e-05 -1.692793739493936300e-04 -5.847950524184852839e-05 4.654416989069432020e-05
8.070000000000000000e+02 7.125590443611145020e-01 1.348315525054931641e+01 1.309380313614383340e-04 2.057927486021071672e-04 1.010192354442551732e-04 -3.793610449065454304e-05
8.080000000000000000e+02 3.680266618728637695e+00 4.739734649658203125e+00 -2.906029476434923708e-05 -1.441741915186867118e-05 -1.304331453866325319e-05 -1.282094035559566692e-05
8.090000000000000000e+02 9.960396766662597656e+00 6.741420745849609375e+00 -6.671798473689705133e-05 -2.192220199503935874e-05 -2.659205711097456515e-05 4.364295455161482096e-05
8.100000000000000000e+02 1.655923461914062500e+01 6.276335239410400391e+00 -5.408113065641373396e-05 -4.271627403795719147e-05 -2.903922177210915834e-05 -3.560632467269897461e-05
8.110000000000000000e+02 1.185914897918701172e+01 5.280004978179931641e+00 5.138579581398516893e-05 4.920416176901198924e-05 3.017698691110126674e-05 2.413698894088156521e-06
8.120000000000000000e+02 5.819284319877624512e-01 9.247294425964355469e+00 -1.050695282174274325e-04 6.060154919396154583e-05 -1.334039461653446779e-05 2.687024107217439450e-06
8.130000000000000000e+02 5.772833824157714844e+00 1.890459060668945312e+00 -4.843755505135050043e-06 -1.891357351269107312e-05 -7.127198841772042215e-06 5.780149422207614407e-06
8.140000000000000000e+02 8.848714828491210938e+00 2.559257984161376953e+00 3.496525459922850132e-05 2.013332596106920391e-05 1.652957507758401334e-05 -7.445188657584367320e-06
8.150000000000000000e+02 6.043298244476318359e-01 6.431284904479980469e+00 -6.041080268914811313e-05 1.868571962404530495e-05 -1.251752564712660387e-05 5.419362423708662391e-06
8.160000000000000000e+02 1.976382827758789062e+01 4.114217758178710938e+00 -1.566631908644922078e-05 -3.166102396789938211e-05 -1.419820273440564051e-05 -8.257675290224142373e-06
8.170000000000000000e+02 3.729308319091796875e+01 1.678055763244628906e+01 -1.483017951250076294e-02 6.643189117312431335e-03 -2.456097165122628212e-03 5.737730301916599274e-03
8.180000000000000000e+02 3.517955780029296875e+01 1.444877338409423828e+01 -7.588426116853952408e-03 6.496724672615528107e-04 -2.081626094877719879e-03 4.938864149153232574e-03
8.190000000000000000e+02 4.109334945678710938e+01 1.167590141296386719e+01 -3.490526927635073662e-03 -8.952313219197094440e-04 -1.315727480687201023e-03 -1.250175992026925087e-03
8.200000000000000000e+02 3.528186035156250000e+01 1.301516819000244141e+01 -4.872809629887342453e-03 2.512190840207040310e-04 -1.386477146297693253e-03 2.859829925000667572e-03
8.210000000000000000e+02 3.741663742065429688e+01 1.188264560699462891e+01 -4.720104858279228210e-03 3.479045699350535870e-04 -1.311660162173211575e-03 4.905383684672415257e-04
8.220000000000000000e+02 3.555893707275390625e+01 6.684764385223388672e+00 -1.435086160199716687e-04 -2.769958809949457645e-04 -1.261513534700497985e-04 -9.807605238165706396e-05
8.230000000000000000e+02 3.755776214599609375e+01 7.077000141143798828e+00 9.063932229764759541e-04 -1.284816244151443243e-04 2.333734737476333976e-04 1.471430005040019751e-04
8.240000000000000000e+02 3.733111190795898438e+01 2.791114330291748047e+00 1.456145546399056911e-04 -3.521667895256541669e-05 3.311936234240420163e-05 -1.567071558383759111e-05
8.250000000000000000e+02 3.381323623657226562e+01 6.948616981506347656e+00 1.937713677762076259e-04 2.491822233423590660e-04 1.328860671492293477e-04 -7.668487523915246129e-05
8.260000000000000000e+02 4.363860130310058594e+00 -1.457401847839355469e+01 1.387220472097396851e-01 -5.886012911796569824e-01 -1.349637657403945923e-01 -2.166911512613296509e-01
8.270000000000000000e+02 1.286059856414794922e+01 -1.848899650573730469e+01 3.124629557132720947e-01 1.829603791236877441e+00 6.426200270652770996e-01 1.651124842464923859e-02
8.280000000000000000e+02 6.992529392242431641e+00 -1.794046783447265625e+01 2.832149267196655273e-01 -8.487925678491592407e-02 5.950069800019264221e-02 -3.593907877802848816e-02
8.290000000000000000e+02 3.948605298995971680e+00 -2.212623023986816406e+01 7.111962884664535522e-02 -6.901100277900695801e-01 -1.856971234083175659e-01 1.396223306655883789e-01
8.300000000000000000e+02 1.400786876678466797e+01 -2.294222450256347656e+01 2.618733048439025879e-01 1.472644925117492676e+00 5.203554630279541016e-01 -2.494805455207824707e-01
8.310000000000000000e+02 5.091604709625244141e+00 -2.139702987670898438e+01 1.215687617659568787e-01 -4.623016715049743652e-01 -1.022198721766471863e-01 1.276175230741500854e-01
8.320000000000000000e+02 1.341686153411865234e+01 -2.728529357910156250e+01 -9.370822459459304810e-03 7.539426088333129883e-01 2.233715355396270752e-01 -3.660516440868377686e-02
8.330000000000000000e+02 4.437378883361816406e+00 -2.729809951782226562e+01 4.817419685423374176e-04 -4.776678383350372314e-01 -1.431558281183242798e-01 2.272128313779830933e-01
8.340000000000000000e+02 1.505952262878417969e+01 -2.998714828491210938e+01 -6.054423004388809204e-02 5.866487622261047363e-01 1.578313559293746948e-01 -8.371133357286453247e-02
8.350000000000000000e+02 1.356223583221435547e+01 -3.171646118164062500e+01 -1.315671205520629883e-01 4.727374017238616943e-01 1.023510769009590149e-01 1.445842813700437546e-02
8.360000000000000000e+02 1.939655303955078125e+01 -3.222964477539062500e+01 -1.790317706763744354e-02 4.089920520782470703e-01 1.173266619443893433e-01 -1.736283898353576660e-01
8.370000000000000000e+02 4.655032348632812500e+01 -2.978882408142089844e+01 -9.428245015442371368e-03 -4.562332294881343842e-03 -4.197173286229372025e-03 6.198266055434942245e-03
8.380000000000000000e+02 7.724158477783203125e+01 -3.245494842529296875e+01 2.103018414345569909e-05 1.048064077622257173e-04 3.775097866309806705e-05 -5.066017911303788424e-05
8.390000000000000000e+02 7.425074005126953125e+01 -2.787415122985839844e+01 6.494308036053553224e-05 -1.019081537378951907e-05 1.642567985982168466e-05 -6.413194932974874973e-05
8.400000000000000000e+02 7.186594390869140625e+01 -2.607184982299804688e+01 1.036193280015140772e-04 -4.435859591467306018e-05 1.777822035364806652e-05 -1.751531453919596970e-05
8.410000000000000000e+02 7.014125823974609375e+01 -2.551122093200683594e+01 1.239479897776618600e-04 -2.805607982736546546e-05 2.876757207559421659e-05 4.082771283719921485e-06
8.420000000000000000e+02 6.888535308837890625e+01 -2.628660202026367188e+01 1.289767096750438213e-04 -8.445433923043310642e-05 1.335671004198957235e-05 -1.373817576677538455e-05
8.430000000000000000e+02 6.670484161376953125e+01 -2.842381095886230469e+01 1.609288301551714540e-04 -1.026486352202482522e-04 1.748405520629603416e-05 -2.764781129371840507e-05
8.440000000000000000e+02 6.641152954101562500e+01 -3.051852226257324219e+01 5.590999535343144089e-06 -1.520215446362271905e-04 -4.392916162032634020e-05 -2.277937346661929041e-05
8.450000000000000000e+02 6.296922683715820312e+01 -3.117552185058593750e+01 -2.972756628878414631e-04 -6.245827535167336464e-05 -1.079201756510883570e-04 2.561188885010778904e-04
8.460000000000000000e+02 3.830435752868652344e+00 -3.436644363403320312e+01 -3.783594071865081787e-02 -3.776321709156036377e-01 -1.246404349803924561e-01 1.295457780361175537e-01
8.470000000000000000e+02 1.276223468780517578e+01 -3.863518142700195312e+01 -1.838955730199813843e-01 2.343363463878631592e-01 1.513223163783550262e-02 3.050496987998485565e-02
8.480000000000000000e+02 2.055138015747070312e+01 -3.532462692260742188e+01 -8.941142261028289795e-02 3.418632745742797852e-01 7.573555409908294678e-02 -1.224507093429565430e-01
8.490000000000000000e+02 3.562337875366210938e+01 -3.557393646240234375e+01 1.119132805615663528e-02 1.944607309997081757e-02 9.191220626235008240e-03 -2.163584809750318527e-03
8.500000000000000000e+02 4.563264083862304688e+01 -3.578610610961914062e+01 4.898112732917070389e-03 -2.658074721693992615e-03 6.720113451592624187e-04 3.914378117769956589e-03
8.510000000000000000e+02 6.154413604736328125e+01 -3.582514190673828125e+01 -4.781724419444799423e-04 -1.080382149666547775e-03 -4.675663658417761326e-04 1.106717390939593315e-03
8.520000000000000000e+02 6.520408630371093750e+00 -3.814758682250976562e+01 -8.823330700397491455e-02 -1.287413090467453003e-01 -6.509238481521606445e-02 8.133321255445480347e-02
8.530000000000000000e+02 6.732039642333984375e+01 -3.871561050415039062e+01 -3.103158815065398812e-05 -5.544531741179525852e-04 -1.756454294081777334e-04 1.494866592111065984e-04
8.540000000000000000e+02 7.077669525146484375e+01 -3.810176086425781250e+01 -1.909031925606541336e-05 -2.726597012951970100e-04 -8.752500434638932347e-05 -4.864645234192721546e-06
8.550000000000000000e+02 7.515997314453125000e+01 -3.776091766357421875e+01 -3.311112232040613890e-05 7.629484025528654456e-05 1.295511628995882347e-05 -3.405435199965722859e-05
8.560000000000000000e+02 7.955164337158203125e+01 -1.997031211853027344e+01 -1.224132756760809571e-05 5.617649208033981267e-07 -3.503868583720759489e-06 -7.716355980846856255e-07
8.570000000000000000e+02 7.553289031982421875e+01 -1.900752639770507812e+01 -3.557491709216265008e-06 6.431342171708820388e-06 8.621551614851341583e-07 -1.474585019423102494e-06
8.580000000000000000e+02 7.148530578613281250e+01 -1.824404144287109375e+01 7.934821951494086534e-06 1.456088648410513997e-05 6.748712621629238129e-06 6.388391966538620181e-07
8.590000000000000000e+02 4.141997909545898438e+01 -2.898230171203613281e+01 -9.422965347766876221e-03 6.001953501254320145e-03 -1.026303740218281746e-03 5.542294122278690338e-03
8.600000000000000000e+02 4.068218231201171875e+01 -2.479060935974121094e+01 -8.557652123272418976e-03 3.221741877496242523e-03 -1.600773073732852936e-03 2.271664328873157501e-03
8.610000000000000000e+02 3.673423385620117188e+01 -1.977775192260742188e+01 -7.572265458293259144e-04 -1.930311009346041828e-05 -2.329588896827772260e-04 3.213223317288793623e-05
8.620000000000000000e+02 3.649580383300781250e+01 -1.328846168518066406e+01 1.136416685767471790e-04 5.119835623190738261e-05 4.945200635120272636e-05 8.735297569728572853e-07
8.630000000000000000e+02 4.356396484375000000e+01 -2.028548431396484375e+01 -6.749147432856261730e-04 -1.324872282566502690e-04 -2.422205870971083641e-04 7.888767868280410767e-05
8.640000000000000000e+02 3.479636001586914062e+01 -8.803833961486816406e+00 -8.392253518104553223e-02 -1.885556280612945557e-01 -8.174344897270202637e-02 2.950132191181182861e-01
8.650000000000000000e+02 3.790550231933593750e+01 -9.773372650146484375e+00 -3.376469314098358154e-01 -3.278595209121704102e-01 -1.996519267559051514e-01 3.949768841266632080e-01
8.660000000000000000e+02 4.008936691284179688e+01 -1.094892406463623047e+01 -5.562626719474792480e-01 -3.440203964710235596e-01 -2.700849175453186035e-01 4.452950358390808105e-01
8.670000000000000000e+02 4.078348922729492188e+01 -1.134767341613769531e+01 -5.954282879829406738e-01 -3.161683678627014160e-01 -2.734790146350860596e-01 4.542353749275207520e-01
8.680000000000000000e+02 4.311836242675781250e+01 -1.192556190490722656e+01 -6.056160330772399902e-01 -8.980866521596908569e-02 -2.086274176836013794e-01 4.003690183162689209e-01
8.690000000000000000e+02 4.401330566406250000e+01 -1.350635910034179688e+01 -7.955116629600524902e-01 -3.000953234732151031e-02 -2.476563602685928345e-01 3.954992890357971191e-01
8.700000000000000000e+02 4.337972259521484375e+01 -1.307218742370605469e+01 -7.699291110038757324e-01 -9.130410850048065186e-02 -2.583699822425842285e-01 4.243154823780059814e-01
8.710000000000000000e+02 4.274197006225585938e+01 -1.263688278198242188e+01 -7.369289398193359375e-01 -1.793412417173385620e-01 -2.748810350894927979e-01 4.457111954689025879e-01
8.720000000000000000e+02 4.528564071655273438e+01 -1.436930561065673828e+01 -8.555013537406921387e-01 1.465553939342498779e-01 -2.126837819814682007e-01 3.124415576457977295e-01
8.730000000000000000e+02 4.591943359375000000e+01 -1.479941749572753906e+01 -8.747079968452453613e-01 2.022447437047958374e-01 -2.017389684915542603e-01 2.580395042896270752e-01
8.740000000000000000e+02 4.651305389404296875e+01 -1.524155998229980469e+01 -8.749935626983642578e-01 1.956364810466766357e-01 -2.038071155548095703e-01 1.823052912950515747e-01
8.750000000000000000e+02 5.445573043823242188e+01 -1.347894763946533203e+01 -1.581815004348754883e+00 2.195168100297451019e-02 -4.679589867591857910e-01 -2.282410115003585815e-01
8.760000000000000000e+02 5.466545867919921875e+01 -1.464493656158447266e+01 -2.098296880722045898e+00 -1.441121753305196762e-02 -6.338124275207519531e-01 -2.557331025600433350e-01
8.770000000000000000e+02 5.571642303466796875e+01 -1.330998229980468750e+01 -1.504189491271972656e+00 2.798547223210334778e-02 -4.428611993789672852e-01 -3.104235529899597168e-01
8.780000000000000000e+02 5.859312820434570312e+01 -1.410604763031005859e+01 -1.497093796730041504e+00 -1.384215336292982101e-02 -4.532807767391204834e-01 -3.609060943126678467e-01
8.790000000000000000e+02 5.936235427856445312e+01 -1.245233821868896484e+01 -1.326559662818908691e+00 2.801456861197948456e-02 -3.895635306835174561e-01 -4.633167982101440430e-01
8.800000000000000000e+02 6.834616851806640625e+01 -1.480361557006835938e+01 -9.850152581930160522e-02 -1.655410788953304291e-02 -3.451669216156005859e-02 4.678070545196533203e-02
8.810000000000000000e+02 6.972881317138671875e+01 -1.463861751556396484e+01 -1.436106711626052856e-01 1.540957298129796982e-02 -3.846032917499542236e-02 2.580469474196434021e-02
8.820000000000000000e+02 7.280371093750000000e+01 -1.368190193176269531e+01 -1.342098563909530640e-01 9.262484498322010040e-03 -3.748420998454093933e-02 -5.139770731329917908e-02
8.830000000000000000e+02 7.359258270263671875e+01 -1.441115856170654297e+01 -8.636432886123657227e-02 4.626315087080001831e-03 -2.452140487730503082e-02 -3.256891295313835144e-02
8.840000000000000000e+02 7.436221313476562500e+01 -1.368921661376953125e+01 -9.263982623815536499e-02 -1.843772595748305321e-03 -2.834508009254932404e-02 -5.087445303797721863e-02
8.850000000000000000e+02 7.592916107177734375e+01 -1.444563484191894531e+01 -3.852290660142898560e-02 -9.497522376477718353e-03 -1.440612878650426865e-02 -2.225136384367942810e-02
8.860000000000000000e+02 7.661811065673828125e+01 -1.453996372222900391e+01 -2.713722735643386841e-02 -9.045558050274848938e-03 -1.085483562201261520e-02 -1.512664929032325745e-02
8.870000000000000000e+02 7.835103607177734375e+01 -1.449166679382324219e+01 -6.927352398633956909e-03 -1.143282372504472733e-02 -5.508053116500377655e-03 -2.627753652632236481e-03
8.880000000000000000e+02 7.939727783203125000e+01 -1.146368408203125000e+01 -3.411847166717052460e-03 -2.721408568322658539e-02 -9.187779389321804047e-03 -1.515368930995464325e-02
8.890000000000000000e+02 7.897489166259765625e+01 -1.437637901306152344e+01 -6.481787422671914101e-04 -1.274434616789221764e-03 -5.767840193584561348e-04 3.137735184282064438e-03
8.900000000000000000e+02 7.964914703369140625e+01 -1.429979896545410156e+01 5.882134428247809410e-04 9.139066562056541443e-03 2.918184036388993263e-03 6.594511214643716812e-04
8.910000000000000000e+02 7.499288177490234375e+01 4.015699768066406250e+01 -4.812983050942420959e-02 -3.188009560108184814e-01 -1.100792363286018372e-01 2.517957799136638641e-02
8.920000000000000000e+02 7.872891998291015625e+01 4.002118682861328125e+01 9.861281141638755798e-03 -4.373551309108734131e-01 -1.282481551170349121e-01 2.619868144392967224e-02
8.930000000000000000e+02 7.671844482421875000e+01 3.880388259887695312e+01 -1.368996687233448029e-02 -4.250453114509582520e-01 -1.316205859184265137e-01 5.416786670684814453e-02
8.940000000000000000e+02 7.905445098876953125e+01 3.480860137939453125e+01 -4.349754657596349716e-03 -5.887057781219482422e-01 -1.779166609048843384e-01 3.096416220068931580e-02
8.950000000000000000e+02 7.912942504882812500e+01 2.925754737854003906e+01 -8.908347226679325104e-03 -8.349964022636413574e-01 -2.531714141368865967e-01 4.603702202439308167e-02
8.960000000000000000e+02 7.911691284179687500e+01 2.787166786193847656e+01 -1.142038032412528992e-03 -9.139626026153564453e-01 -2.745313942432403564e-01 5.319663882255554199e-02
8.970000000000000000e+02 7.927635955810546875e+01 2.219439697265625000e+01 3.412201767787337303e-03 -1.255885362625122070e+00 -3.757419586181640625e-01 4.229429736733436584e-02
8.980000000000000000e+02 7.787632751464843750e+01 2.080123710632324219e+01 1.000605151057243347e-02 -1.085879564285278320e+00 -3.227620422840118408e-01 1.019803285598754883e-01
8.990000000000000000e+02 7.935534667968750000e+01 1.798306083679199219e+01 6.843773648142814636e-03 -1.461240410804748535e+00 -4.363189935684204102e-01 2.336445823311805725e-02
9.000000000000000000e+02 7.810387420654296875e+01 1.660441780090332031e+01 1.465375162661075592e-02 -1.245464563369750977e+00 -3.692432641983032227e-01 4.268909990787506104e-02
9.010000000000000000e+02 7.935523223876953125e+01 1.096215152740478516e+01 3.607176477089524269e-03 -1.516045570373535156e+00 -4.537315070629119873e-01 -1.265688333660364151e-02
9.020000000000000000e+02 7.804244995117187500e+01 9.545896530151367188e+00 1.597709394991397858e-02 -1.211546659469604492e+00 -3.586708605289459229e-01 -5.699099227786064148e-02
9.030000000000000000e+02 7.808763885498046875e+01 6.692469596862792969e+00 1.543690729886293411e-02 -1.122513532638549805e+00 -3.321229815483093262e-01 -9.311309456825256348e-02
9.040000000000000000e+02 7.936793518066406250e+01 3.919885635375976562e+00 1.291553198825567961e-04 -1.186489582061767578e+00 -3.559081256389617920e-01 -4.277885332703590393e-02
9.050000000000000000e+02 7.813526916503906250e+01 2.455126047134399414e+00 7.800242397934198380e-03 -9.079622626304626465e-01 -2.700486183166503906e-01 -1.358076333999633789e-01
9.060000000000000000e+02 7.939167785644531250e+01 -3.081502199172973633e+00 2.650650218129158020e-03 -5.895292758941650391e-01 -1.760635823011398315e-01 -5.488224327564239502e-02
9.070000000000000000e+02 7.819423675537109375e+01 -4.485861778259277344e+00 -2.234465209767222404e-03 -4.205207526683807373e-01 -1.268265694379806519e-01 -1.499144285917282104e-01
9.080000000000000000e+02 7.821649932861328125e+01 -7.209699630737304688e+00 -1.065382175147533417e-02 -2.399573326110839844e-01 -7.518334686756134033e-02 -1.203805804252624512e-01
9.090000000000000000e+02 7.820066070556640625e+01 -1.125586605072021484e+01 -2.275128662586212158e-02 -6.098418682813644409e-02 -2.512064203619956970e-02 -4.938761144876480103e-02
9.100000000000000000e+02 3.985567688941955566e-01 2.164541006088256836e+00 2.992533882206771523e-05 9.861188118520658463e-06 1.193595835502492264e-05 -9.376369234814774245e-06
9.110000000000000000e+02 6.231680512428283691e-01 4.960672855377197266e+00 4.475304376683197916e-05 1.322554999205749482e-05 1.739357867336366326e-05 -1.051222170644905418e-05
9.120000000000000000e+02 1.819794178009033203e+00 6.441003799438476562e+00 8.281222835648804903e-05 2.599630170152522624e-05 3.264256156398914754e-05 -3.541871046763844788e-05
9.130000000000000000e+02 1.729225873947143555e+00 9.194408416748046875e+00 1.144129200838506222e-04 4.661873026634566486e-05 4.830949546885676682e-05 -5.643153781420551240e-05
9.140000000000000000e+02 6.548122763633728027e-01 1.205746364593505859e+01 -1.215697920997627079e-04 1.461521169403567910e-04 7.374696451734052971e-06 -1.914631684485357255e-05
9.150000000000000000e+02 1.943687438964843750e+00 1.192069435119628906e+01 1.521280355518683791e-04 7.594549242639914155e-05 6.842205766588449478e-05 -8.578911365475505590e-05
9.160000000000000000e+02 1.980908632278442383e+00 1.643359947204589844e+01 -1.759617298375815153e-04 1.821590267354622483e-04 1.859189410424733069e-06 -8.256902947323396802e-05
9.170000000000000000e+02 1.816017389297485352e+00 1.922255897521972656e+01 -2.402906393399462104e-04 2.235875872429460287e-04 -5.010913355363300070e-06 -1.918356429086998105e-05
9.180000000000000000e+02 6.308071017265319824e-01 2.200183486938476562e+01 1.898289337987080216e-04 3.901474992744624615e-04 1.739929284667596221e-04 6.399778067134320736e-05
9.190000000000000000e+02 6.947540640830993652e-01 2.483694267272949219e+01 1.582859404152259231e-04 -8.593205711804330349e-05 2.170616244256962091e-05 1.889726117951795459e-04
9.200000000000000000e+02 7.148424983024597168e-01 2.626181793212890625e+01 -2.132852678187191486e-04 -4.955899203196167946e-04 -2.126625477103516459e-04 2.245859359391033649e-04
9.210000000000000000e+02 6.979489922523498535e-01 2.910612869262695312e+01 -2.001044049393385649e-04 -1.631543273106217384e-03 -5.494942888617515564e-04 3.141351335216313601e-04
9.220000000000000000e+02 2.092097520828247070e+00 2.920054817199707031e+01 9.370788029627874494e-05 -1.845103222876787186e-03 -5.254186107777059078e-04 1.004876336082816124e-03
9.230000000000000000e+02 6.042823195457458496e-01 3.329972457885742188e+01 2.022108383243903518e-04 -3.714697901159524918e-03 -1.053746091201901436e-03 2.871930773835629225e-04
9.240000000000000000e+02 6.275591254234313965e-01 3.598919296264648438e+01 1.681677822489291430e-04 -4.942786879837512970e-03 -1.432385761290788651e-03 2.093073853757232428e-04
9.250000000000000000e+02 3.437086343765258789e+00 3.551287841796875000e+01 1.724476314848288894e-04 -4.172345623373985291e-03 -1.199969439767301083e-03 1.157806254923343658e-03
9.260000000000000000e+02 1.340144276618957520e+00 4.003776168823242188e+01 -7.940146315377205610e-05 -5.821910221129655838e-03 -1.770393457263708115e-03 1.856679737102240324e-04
9.270000000000000000e+02 9.606848716735839844e+00 1.852782964706420898e+00 2.728410254349000752e-05 2.316390418855007738e-05 1.513440201961202547e-05 -4.081392489752033725e-06
9.280000000000000000e+02 8.841779708862304688e+00 1.854017615318298340e+00 -4.213513875583885238e-06 -2.473638960509561002e-05 -8.684971362526994199e-06 8.874494596966542304e-06
9.290000000000000000e+02 6.541092395782470703e+00 1.874465465545654297e+00 2.742912147368770093e-05 1.739220715535338968e-05 1.344639804301550612e-05 -1.284860900341300294e-05
9.300000000000000000e+02 5.003013610839843750e+00 1.912783861160278320e+00 2.279362706758547574e-05 1.688990596449002624e-05 1.190505918202688918e-05 -1.470011739002075046e-05
9.310000000000000000e+02 2.648343801498413086e+00 2.088804006576538086e+00 -2.020396277657710016e-05 -1.039811559166992083e-05 -9.180623237625695765e-06 8.863261768965458032e-08
9.320000000000000000e+02 1.873411774635314941e+00 2.061316251754760742e+00 1.982614594453480095e-05 2.769581260508857667e-05 1.425658683729125187e-05 9.046751983987633139e-06
9.330000000000000000e+02 1.036137199401855469e+01 1.854759335517883301e+00 -5.823566425533499569e-06 -2.844724804162979126e-05 -1.028124461299739778e-05 9.003176273836288601e-06
9.340000000000000000e+02 1.109968090057373047e+01 2.559252977371215820e+00 -1.199516464112093672e-05 -3.077392830164171755e-05 -1.283072742808144540e-05 1.226238964591175318e-05
9.350000000000000000e+02 1.332235813140869141e+01 1.878882408142089844e+00 -1.226919630425982177e-05 -3.364681106177158654e-05 -1.377480293740518391e-05 6.432198460970539600e-06
9.360000000000000000e+02 1.549719524383544922e+01 1.944184780120849609e+00 1.283414076169719920e-05 4.019974585389718413e-05 1.591016552993096411e-05 9.865591010793650639e-08
9.370000000000000000e+02 1.620766830444335938e+01 1.985517263412475586e+00 -7.173178346420172602e-06 -3.981578629463911057e-05 -1.409668948326725513e-05 -1.920064050864311866e-06
9.380000000000000000e+02 1.761128997802734375e+01 2.139792680740356445e+00 -1.501622864452656358e-05 -2.875617792597040534e-05 -1.313172197114909068e-05 -1.205733951792353764e-05
9.390000000000000000e+02 1.900295066833496094e+01 2.334123373031616211e+00 -2.071425114991143346e-05 -1.447168415324995294e-05 -1.055578013620106503e-05 -1.547092892906221095e-06
9.400000000000000000e+02 2.072191810607910156e+01 3.557548761367797852e+00 -2.969104571093339473e-05 -7.996718522917944938e-06 -1.130632972490275279e-05 -2.572664925537537783e-06
9.410000000000000000e+02 2.105932807922363281e+01 2.735929727554321289e+00 1.945744406839367002e-05 7.513935543101979420e-06 8.091414201771840453e-06 -5.017419425712432712e-06
9.420000000000000000e+02 2.323953628540039062e+01 3.530337810516357422e+00 -1.437996616004966199e-05 -1.731664087856188416e-05 -9.508981747785583138e-06 -8.857306966092437506e-06
9.430000000000000000e+02 2.193356132507324219e+01 3.978622674942016602e+00 -3.879959422192769125e-06 -1.179906757897697389e-05 -4.703707872977247462e-06 1.013961264106910676e-05
9.440000000000000000e+02 1.978409004211425781e+01 5.237186908721923828e+00 -6.693209434160962701e-05 4.975872798240743577e-06 -1.858686664490960538e-05 -3.683921022457070649e-05
9.450000000000000000e+02 1.929633903503417969e+01 6.115116596221923828e+00 1.067035700543783605e-04 1.169571260106749833e-05 3.551978443283587694e-05 3.626338002504780889e-05
9.460000000000000000e+02 1.838579940795898438e+01 2.226640701293945312e+01 -1.183289941400289536e-02 -1.106831914512440562e-04 -3.583074780181050301e-03 -7.322691380977630615e-04
9.470000000000000000e+02 2.859103202819824219e+01 2.120782279968261719e+01 -4.180388525128364563e-02 -1.836363412439823151e-02 -1.805025525391101837e-02 1.933831162750720978e-02
9.480000000000000000e+02 3.211416244506835938e+01 1.500144767761230469e+01 -2.861879533156752586e-03 -6.051437463611364365e-03 -2.673994982615113258e-03 4.366201348602771759e-03
9.490000000000000000e+02 3.387136840820312500e+01 5.523150920867919922e+00 -1.254159433301538229e-04 2.622007195896003395e-05 -2.975876304844859987e-05 -1.529910950921475887e-04
9.500000000000000000e+02 3.520619583129882812e+01 2.291298627853393555e+00 -1.587689621374011040e-04 3.614835804910399020e-05 -3.678618304547853768e-05 -9.793920617084950209e-05
9.510000000000000000e+02 3.651210021972656250e+01 3.424920797348022461e+00 3.001812438014894724e-04 -1.033509688568301499e-04 5.904908175580203533e-05 5.675083593814633787e-05
9.520000000000000000e+02 3.938732910156250000e+01 4.783796310424804688e+00 2.042814303422346711e-04 1.612868654774501920e-04 1.096704872907139361e-04 4.010283191746566445e-06
9.530000000000000000e+02 3.921432113647460938e+01 5.934548377990722656e+00 -8.478532981825992465e-05 2.861728426069021225e-04 6.041625238140113652e-05 6.444839527830481529e-05
9.540000000000000000e+02 4.189089584350585938e+01 1.282572746276855469e+01 -5.304377060383558273e-03 -2.343196654692292213e-03 -2.294272184371948242e-03 -4.584610927850008011e-03
9.550000000000000000e+02 4.370071411132812500e+01 1.495938587188720703e+01 -1.540765725076198578e-02 -6.851910147815942764e-03 -6.677870173007249832e-03 -1.141144428402185440e-02
9.560000000000000000e+02 5.040046310424804688e+01 2.018338584899902344e+01 -4.354853555560112000e-02 -1.202856563031673431e-02 -1.667313091456890106e-02 -2.523342519998550415e-02
9.570000000000000000e+02 5.682477951049804688e+01 2.206123161315917969e+01 3.620995879173278809e-01 5.157386511564254761e-02 1.241020411252975464e-01 -1.194139197468757629e-01
9.580000000000000000e+02 6.275118255615234375e+01 1.508224582672119141e+01 1.075027957558631897e-01 2.135000705718994141e+00 6.727510690689086914e-01 -6.653355807065963745e-02
9.590000000000000000e+02 6.185014343261718750e+01 9.416417121887207031e+00 1.926523149013519287e-01 2.130972862243652344e+00 6.970875859260559082e-01 4.363065361976623535e-01
9.600000000000000000e+02 5.716770172119140625e+01 4.573609232902526855e-01 6.462887525558471680e-01 1.198900699615478516e+00 5.535568594932556152e-01 8.660898208618164062e-01
9.610000000000000000e+02 5.347998428344726562e+01 -3.909717798233032227e+00 1.472576260566711426e+00 1.177753567695617676e+00 7.950989603996276855e-01 1.281301856040954590e+00
9.620000000000000000e+02 4.741697311401367188e+01 -5.147044658660888672e+00 1.692971706390380859e+00 1.431605666875839233e-01 5.508397221565246582e-01 -2.152245193719863892e-01
9.630000000000000000e+02 4.492767715454101562e+01 -4.191812992095947266e+00 1.106608867645263672e+00 8.333720266819000244e-02 3.569838106632232666e-01 -2.684645354747772217e-01
9.640000000000000000e+02 3.869379425048828125e+01 -7.895553112030029297e-01 1.314862072467803955e-01 -2.640663273632526398e-02 3.152387216687202454e-02 -4.071396961808204651e-02
9.650000000000000000e+02 2.957298088073730469e+01 -2.418539762496948242e+00 -5.419059395790100098e-01 2.007806897163391113e-01 -1.023375689983367920e-01 1.252075657248497009e-02
9.660000000000000000e+02 3.017309951782226562e+01 -2.348593473434448242e+00 -4.581909775733947754e-01 1.822080463171005249e-01 -8.279487490653991699e-02 1.048218384385108948e-01
9.670000000000000000e+02 2.720414543151855469e+01 -2.811640977859497070e+00 -9.969103932380676270e-01 7.733237743377685547e-02 -2.758734226226806641e-01 -4.112827777862548828e-01
9.680000000000000000e+02 2.764782905578613281e+01 -2.015478372573852539e+00 -5.426090955734252930e-01 1.092429552227258682e-02 -1.595054417848587036e-01 -3.010138273239135742e-01
9.690000000000000000e+02 2.748562240600585938e+01 -2.276729822158813477e+00 -6.642415523529052734e-01 2.800557576119899750e-02 -1.908707916736602783e-01 -3.435713350772857666e-01
9.700000000000000000e+02 2.717552185058593750e+01 -3.001227140426635742e+00 -1.127330303192138672e+00 1.151114329695701599e-01 -3.036656677722930908e-01 -3.911891579627990723e-01
9.710000000000000000e+02 2.750131225585937500e+01 -3.509389877319335938e+00 -1.295638799667358398e+00 3.178778588771820068e-01 -2.933282852172851562e-01 -8.539698272943496704e-02
9.720000000000000000e+02 2.713884925842285156e+01 -3.198882341384887695e+00 -1.296864509582519531e+00 1.731661111116409302e-01 -3.371095061302185059e-01 -3.183531165122985840e-01
9.730000000000000000e+02 2.698764801025390625e+01 -3.868677854537963867e+00 -1.696088314056396484e+00 2.939100265502929688e-01 -4.206534922122955322e-01 9.499646723270416260e-02
9.740000000000000000e+02 2.401277923583984375e+01 -1.910449981689453125e+00 -4.008068442344665527e-01 -3.952161669731140137e-01 -2.388069033622741699e-01 4.863376319408416748e-01
9.750000000000000000e+02 2.409960174560546875e+01 -1.462612748146057129e+00 -2.370679825544357300e-01 -3.141297399997711182e-01 -1.653593182563781738e-01 3.008462190628051758e-01
9.760000000000000000e+02 2.443084907531738281e+01 -5.654146671295166016e-01 -8.388723433017730713e-02 -1.651677638292312622e-01 -7.471650093793869019e-02 7.003109902143478394e-02
9.770000000000000000e+02 2.416573524475097656e+01 -4.789639711380004883e-01 -1.193066984415054321e-01 -1.578525602817535400e-01 -8.314777910709381104e-02 9.786493331193923950e-02
9.780000000000000000e+02 2.436435890197753906e+01 -9.548083543777465820e-01 -1.206076666712760925e-01 -2.148737311363220215e-01 -1.006444171071052551e-01 1.293869614601135254e-01
9.790000000000000000e+02 1.883706855773925781e+01 -1.471414089202880859e+00 -9.877240657806396484e-01 1.135045960545539856e-01 -2.622658610343933105e-01 1.650713384151458740e-01
9.800000000000000000e+02 2.042800712585449219e+01 -1.276899099349975586e+00 -8.590545058250427246e-01 1.453185528516769409e-01 -2.141207903623580933e-01 2.872759103775024414e-01
9.810000000000000000e+02 1.653610229492187500e+01 -1.688704252243041992e+00 -1.074912786483764648e+00 5.322552844882011414e-02 -3.065061569213867188e-01 1.961713889613747597e-03
9.820000000000000000e+02 1.576870727539062500e+01 -1.739620208740234375e+00 -1.078627228736877441e+00 4.051443189382553101e-02 -3.114338517189025879e-01 -4.561617970466613770e-02
9.830000000000000000e+02 1.270839881896972656e+01 -1.845262885093688965e+00 -9.706948399543762207e-01 1.441258285194635391e-02 -2.868846654891967773e-01 -1.829355508089065552e-01
9.840000000000000000e+02 1.043645095825195312e+01 -1.867913007736206055e+00 -7.894434332847595215e-01 9.818591177463531494e-03 -2.338874489068984985e-01 -2.339951545000076294e-01
9.850000000000000000e+02 8.267333030700683594e+00 -2.601306915283203125e+00 -4.993104636669158936e-01 -6.146130152046680450e-03 -1.516369879245758057e-01 -3.133241832256317139e-01
9.860000000000000000e+02 7.378019332885742188e+00 -1.868195176124572754e+00 -4.831707179546356201e-01 -1.073348987847566605e-02 -1.481712609529495239e-01 -2.403368651866912842e-01
9.870000000000000000e+02 6.761729240417480469e+00 -2.612932920455932617e+00 -3.747386932373046875e-01 -2.681415528059005737e-02 -1.204658597707748413e-01 -2.998021245002746582e-01
9.880000000000000000e+02 4.313258171081542969e+00 -1.933416604995727539e+00 -2.028765529394149780e-01 -3.797241300344467163e-02 -7.225468754768371582e-02 -1.782182008028030396e-01
9.890000000000000000e+02 2.168411016464233398e+00 -3.172824621200561523e+00 -5.774306133389472961e-02 -1.327444911003112793e-01 -5.714626610279083252e-02 -1.509359776973724365e-01
9.900000000000000000e+02 1.989002108573913574e+00 -2.073652505874633789e+00 -5.568033456802368164e-02 -6.603788584470748901e-02 -3.651546686887741089e-02 -8.340777456760406494e-02
9.910000000000000000e+02 3.998295962810516357e-01 -2.189270257949829102e+00 -4.054971970617771149e-03 -2.462168037891387939e-02 -8.602995425462722778e-03 -1.386925019323825836e-02
9.920000000000000000e+02 5.065054416656494141e+00 -4.033380126953125000e+01 -6.143496558070182800e-02 -2.521556019783020020e-01 -9.407716989517211914e-02 2.558879926800727844e-02
9.930000000000000000e+02 9.569053053855895996e-01 -3.869748687744140625e+01 -2.562275156378746033e-03 -4.524530768394470215e-01 -1.365046054124832153e-01 2.825859189033508301e-02
9.940000000000000000e+02 7.390300631523132324e-01 -3.321862792968750000e+01 -3.206958295777440071e-03 -6.873865723609924316e-01 -2.071780562400817871e-01 3.952696546912193298e-02
9.950000000000000000e+02 7.528361678123474121e-01 -3.182424354553222656e+01 -2.334654331207275391e-03 -7.667717337608337402e-01 -2.307319194078445435e-01 4.486368969082832336e-02
9.960000000000000000e+02 7.944637537002563477e-01 -2.611618995666503906e+01 -2.744043013080954552e-04 -1.150844097137451172e+00 -3.453355431556701660e-01 5.593381077051162720e-02
9.970000000000000000e+02 1.845411300659179688e+00 -2.171018981933593750e+01 2.717460133135318756e-02 -1.162686705589294434e+00 -3.406536281108856201e-01 8.140424638986587524e-02
9.980000000000000000e+02 1.917562961578369141e+00 -1.897631072998046875e+01 3.397405520081520081e-02 -1.192399859428405762e+00 -3.475277423858642578e-01 1.307566370815038681e-02
9.990000000000000000e+02 1.810920357704162598e+00 -1.205343437194824219e+01 2.133053541183471680e-02 -9.315995573997497559e-01 -2.730807065963745117e-01 -1.830317378044128418e-01
1.000000000000000000e+03 1.947068691253662109e+00 -6.700951576232910156e+00 -1.240114308893680573e-02 -4.076884388923645020e-01 -1.260268837213516235e-01 -2.268258631229400635e-01
1.001000000000000000e+03 1.664462208747863770e+00 -4.639737606048583984e+00 -3.022519126534461975e-02 -2.346195429563522339e-01 -7.945342361927032471e-02 -1.636866182088851929e-01
1.002000000000000000e+03 7.966172027587890625e+01 -1.863333129882812500e+01 1.308430910285096616e-05 3.453367753536440432e-06 4.961303147865692154e-06 1.702963004390767310e-06
1.003000000000000000e+03 7.939296722412109375e+01 -2.280712318420410156e+01 -1.022723517962731421e-05 1.032271575240883976e-05 2.864424963888723141e-08 -7.045549864415079355e-06
1.004000000000000000e+03 7.817911529541015625e+01 -2.290655517578125000e+01 2.400967605353798717e-05 1.277219143958063796e-05 1.103455997508717701e-05 -5.117858108860673383e-06
1.005000000000000000e+03 7.930458068847656250e+01 -2.694565010070800781e+01 8.793818778940476477e-06 6.522130570374429226e-05 2.220453825430013239e-05 -1.098452321457443759e-05
1.006000000000000000e+03 7.790657806396484375e+01 -2.716360092163085938e+01 -9.534326636639889330e-06 4.567535870592109859e-05 1.084230916603701189e-05 -4.331885793362744153e-05
1.007000000000000000e+03 7.939517974853515625e+01 -3.097590446472167969e+01 -2.102342477883212268e-05 1.565845741424709558e-04 4.066834299010224640e-05 -1.604580575076397508e-05
1.008000000000000000e+03 7.826855468750000000e+01 -3.235370254516601562e+01 -2.470475919835735112e-05 1.526951818959787488e-04 3.839712735498324037e-05 -4.631185947800986469e-05
1.009000000000000000e+03 7.927568817138671875e+01 -3.498891067504882812e+01 1.068342589860549197e-05 2.545434108469635248e-04 7.956805347930639982e-05 -7.939235729281790555e-06
1.010000000000000000e+03 7.751882934570312500e+01 -3.626633071899414062e+01 -1.468311074859229848e-05 1.841846824390813708e-04 5.085047087050043046e-05 -1.967049684026278555e-05
1.011000000000000000e+03 7.915621185302734375e+01 -3.902788925170898438e+01 -1.094474100682418793e-05 2.556935651227831841e-04 7.342464959947392344e-05 7.032320354483090341e-06
1.012000000000000000e+03 7.672471618652343750e+01 -2.034003829956054688e+01 1.108467859012307599e-05 1.432716726412763819e-05 7.623553756275214255e-06 -4.643622105504618958e-06
1.013000000000000000e+03 7.704727935791015625e+01 -1.837778282165527344e+01 7.590146196889691055e-06 1.707353590063576121e-06 2.789249947454663925e-06 -3.856226612697355449e-06
1.014000000000000000e+03 7.640150451660156250e+01 -1.832148551940917969e+01 4.303934417748678243e-07 5.503608804247051012e-07 2.942263108707265928e-07 -1.122644945894535340e-07
1.015000000000000000e+03 7.357815551757812500e+01 -1.815316200256347656e+01 -5.796537607238860801e-06 -4.450223059393465519e-06 -3.074028199989697896e-06 -1.292371791805635439e-07
1.016000000000000000e+03 7.500479125976562500e+01 -1.819845581054687500e+01 -4.920145329379010946e-06 1.281328422919614241e-06 -1.091645117412554100e-06 -2.586240952950902283e-06
1.017000000000000000e+03 7.218206024169921875e+01 -1.819343566894531250e+01 -2.632740688568446785e-06 -9.807474270928651094e-06 -3.732064442374394275e-06 3.224988631700398400e-06
1.018000000000000000e+03 6.572069549560546875e+01 -2.531268882751464844e+01 1.245052262675017118e-04 7.172265031840652227e-05 5.886836515855975449e-05 1.232827344210818410e-04
1.019000000000000000e+03 6.141720962524414062e+01 -2.895464324951171875e+01 2.940987469628453255e-04 8.557551336707547307e-05 1.139022715506143868e-04 2.425040875095874071e-04
1.020000000000000000e+03 5.738409423828125000e+01 -3.065788650512695312e+01 -1.980141969397664070e-03 -9.749409218784421682e-05 -6.232907762750983238e-04 6.129426765255630016e-04
1.021000000000000000e+03 5.235399246215820312e+01 -3.264941024780273438e+01 -4.089283291250467300e-03 -4.835196770727634430e-03 -2.677344018593430519e-03 5.769901443272829056e-03
1.022000000000000000e+03 5.284682464599609375e+01 -3.071542739868164062e+01 -9.271690621972084045e-03 -1.411444740369915962e-03 -3.204940585419535637e-03 3.585632424801588058e-03
1.023000000000000000e+03 4.557653045654296875e+01 -2.421642112731933594e+01 -1.546209678053855896e-03 -3.754877019673585892e-03 -1.590326079167425632e-03 2.729116939008235931e-03
1.024000000000000000e+03 4.434238052368164062e+01 -1.975868988037109375e+01 -2.797392953652888536e-04 1.381491019856184721e-04 -4.247705510351806879e-05 4.154620910412631929e-05
1.025000000000000000e+03 4.366059112548828125e+01 -1.792501831054687500e+01 -4.599008389050140977e-05 6.878803105792030692e-05 6.839384241175139323e-06 -2.385627303738147020e-04
1.026000000000000000e+03 4.248026657104492188e+01 -1.705757331848144531e+01 1.674240047577768564e-04 -6.174764712341129780e-05 3.170290801790542901e-05 -1.791396352928131819e-04
1.027000000000000000e+03 3.909524154663085938e+01 -1.563806343078613281e+01 3.532594128046184778e-04 -2.086167514789849520e-04 4.339279257692396641e-05 7.319403084693476558e-05
1.028000000000000000e+03 3.841724777221679688e+01 -1.523950576782226562e+01 2.847750693035777658e-05 -9.344993304694071412e-05 -1.949172838067170233e-05 2.235797437606379390e-04
1.029000000000000000e+03 3.769560241699218750e+01 -1.380566120147705078e+01 1.253272057510912418e-04 -1.677806903899181634e-05 3.256474155932664871e-05 7.836240547476336360e-05
1.030000000000000000e+03 3.460015487670898438e+01 -1.378610515594482422e+01 2.309956762474030256e-04 9.944364865077659488e-05 9.913180110743269324e-05 5.959634290775284171e-05
1.031000000000000000e+03 3.420004653930664062e+01 -1.262613105773925781e+01 -2.207841025665402412e-04 -7.979646034073084593e-05 -9.017416596179828048e-05 1.499196787335677072e-05
1.032000000000000000e+03 3.569764709472656250e+01 -1.302218437194824219e+01 -2.201461938966531307e-06 -9.590504487277939916e-05 -2.943195249827113003e-05 5.119859633850865066e-05
1.033000000000000000e+03 3.572732925415039062e+01 -1.378966140747070312e+01 4.392885603010654449e-05 1.233390648849308491e-04 5.018037700210697949e-05 -2.089742702082730830e-05
1.034000000000000000e+03 3.553523635864257812e+01 -2.087449836730957031e+01 -7.275973912328481674e-04 7.155557977966964245e-04 -3.612470209191087633e-06 -4.408644599607214332e-05
1.035000000000000000e+03 3.123676300048828125e+01 -2.816720199584960938e+01 -4.250494390726089478e-02 -1.748729310929775238e-02 -1.799767091870307922e-02 -2.173716574907302856e-02
1.036000000000000000e+03 2.111340332031250000e+01 -2.838071060180664062e+01 3.379866778850555420e-01 3.184083402156829834e-01 1.969185024499893188e-01 -3.074367046356201172e-01
1.037000000000000000e+03 1.802371025085449219e+01 -2.552644920349121094e+01 4.662442505359649658e-01 6.437878608703613281e-01 3.330096304416656494e-01 -5.188919901847839355e-01
1.038000000000000000e+03 1.526973915100097656e+01 -2.223983955383300781e+01 5.837561488151550293e-01 1.631302595138549805e+00 6.645175814628601074e-01 -8.114839792251586914e-01
1.039000000000000000e+03 2.212097358703613281e+01 -1.096195602416992188e+01 1.472929000854492188e+00 8.450060337781906128e-02 4.672288596630096436e-01 4.084063470363616943e-01
1.040000000000000000e+03 2.723008346557617188e+01 -2.983436012268066406e+01 -2.286832779645919800e-03 5.061823409050703049e-03 8.324972004629671574e-04 -3.188202530145645142e-02
1.041000000000000000e+03 2.710492515563964844e+01 -3.407431840896606445e+00 -1.448515057563781738e+00 2.320944666862487793e-01 -3.649261891841888428e-01 -2.169035375118255615e-01
1.042000000000000000e+03 2.874799537658691406e+01 -2.021287918090820312e+00 -5.465706586837768555e-01 1.306605041027069092e-01 -1.247730478644371033e-01 -1.447451263666152954e-01
1.043000000000000000e+03 2.705945777893066406e+01 -3.626545190811157227e+00 -1.580199241638183594e+00 2.580943405628204346e-01 -3.966314494609832764e-01 -9.245897829532623291e-02
1.044000000000000000e+03 2.677970314025878906e+01 -4.308371543884277344e+00 -1.578865051269531250e+00 7.725061476230621338e-02 -4.504843056201934814e-01 4.226595163345336914e-01
1.045000000000000000e+03 2.851574707031250000e+01 -2.638778924942016602e+00 -7.107046246528625488e-01 2.351537048816680908e-01 -1.426652818918228149e-01 -1.089672669768333435e-01
1.046000000000000000e+03 2.379709053039550781e+01 -2.656500637531280518e-01 -1.682102233171463013e-01 -9.982045739889144897e-02 -8.040920644998550415e-02 1.121418178081512451e-01
1.047000000000000000e+03 2.343256187438964844e+01 -1.245136141777038574e+00 -4.004915058612823486e-01 -1.922288686037063599e-01 -1.778161078691482544e-01 3.629326820373535156e-01
1.048000000000000000e+03 2.422476959228515625e+01 -1.283508896827697754e+00 -1.568849086761474609e-01 -2.891059219837188721e-01 -1.337972432374954224e-01 2.157500386238098145e-01
1.049000000000000000e+03 2.274595642089843750e+01 -7.181921601295471191e-01 -4.122039675712585449e-01 -4.335267841815948486e-02 -1.366669982671737671e-01 2.700529694557189941e-01
1.050000000000000000e+03 2.384686088562011719e+01 -9.091387391090393066e-01 -2.113692164421081543e-01 -2.153543829917907715e-01 -1.280170828104019165e-01 2.110514640808105469e-01
1.051000000000000000e+03 2.444603157043457031e+01 4.790461808443069458e-02 -4.212874174118041992e-02 -7.642114162445068359e-02 -3.556496649980545044e-02 -9.647971019148826599e-03
1.052000000000000000e+03 3.443831253051757812e+01 2.747370958328247070e+00 -3.055261331610381603e-04 1.705325412331148982e-04 -4.049807466799393296e-05 -9.212424629367887974e-05
1.053000000000000000e+03 3.136143112182617188e+01 -2.995799779891967773e+00 -2.989617288112640381e-01 1.514478474855422974e-01 -4.425416886806488037e-02 2.684059441089630127e-01
1.054000000000000000e+03 3.028773498535156250e+01 -1.852107644081115723e+00 -4.272896349430084229e-01 1.152722537517547607e-01 -9.360521286725997925e-02 5.726027488708496094e-02
1.055000000000000000e+03 3.324325942993164062e+01 -8.254495620727539062e+00 1.287565231323242188e-01 -1.659920811653137207e-01 -1.117066759616136551e-02 2.576111853122711182e-01
1.056000000000000000e+03 3.103963470458984375e+01 -7.912047863006591797e+00 5.845357775688171387e-01 -8.016770333051681519e-02 1.513104289770126343e-01 3.103588223457336426e-01
1.057000000000000000e+03 3.115213203430175781e+01 -6.555562496185302734e+00 3.830418884754180908e-01 2.386686205863952637e-02 1.220726221799850464e-01 6.107503175735473633e-01
1.058000000000000000e+03 3.106516265869140625e+01 -7.266412258148193359e+00 5.659791827201843262e-01 -4.160981997847557068e-02 1.573108136653900146e-01 4.648123979568481445e-01
1.059000000000000000e+03 7.717470550537109375e+01 -1.461591625213623047e+01 -2.024593949317932129e-02 -7.806411944329738617e-03 -8.415705524384975433e-03 -1.129690464586019516e-02
1.060000000000000000e+03 7.754408264160156250e+01 -1.390344333648681641e+01 -2.564524486660957336e-02 -1.543182227760553360e-02 -1.232312060892581940e-02 -1.426926162093877792e-02
1.061000000000000000e+03 7.784949493408203125e+01 -1.240122127532958984e+01 -1.860580779612064362e-02 -3.168517351150512695e-02 -1.508729439228773117e-02 -3.261421248316764832e-02
1.062000000000000000e+03 7.774973297119140625e+01 -1.456643295288085938e+01 -9.999544359743595123e-03 -6.287423428148031235e-03 -4.886090289801359177e-03 -6.553470622748136520e-03
1.063000000000000000e+03 7.755087280273437500e+01 -1.940587806701660156e+01 1.664447518123779446e-05 3.664227278932230547e-06 6.092610419727861881e-06 -5.296292329148855060e-06
1.064000000000000000e+03 7.834798431396484375e+01 -1.846145057678222656e+01 8.107403118629008532e-06 -1.994392135884481831e-07 2.372389189986279234e-06 3.006245378855965100e-06
1.065000000000000000e+03 7.943946075439453125e+01 -2.138125991821289062e+01 1.214459734910633415e-05 3.080208671235595830e-06 4.567441919789416716e-06 -4.693875155226123752e-07
1.066000000000000000e+03 2.375169563293457031e+01 -4.253181934356689453e+00 -1.628195524215698242e+00 -1.631433516740798950e-01 -5.374016761779785156e-01 -8.214761316776275635e-02
1.067000000000000000e+03 2.072420310974121094e+01 -6.103093147277832031e+00 -1.771614104509353638e-01 2.525815069675445557e-01 2.262603119015693665e-02 7.259145379066467285e-02
1.068000000000000000e+03 3.873287200927734375e+01 -1.548086762428283691e+00 1.955520957708358765e-01 -6.048981472849845886e-02 4.051868617534637451e-02 -2.911825291812419891e-02
1.069000000000000000e+03 4.573722457885742188e+01 -1.358429527282714844e+01 -8.611137270927429199e-01 2.158865928649902344e-01 -1.935681551694869995e-01 3.496326208114624023e-01
1.070000000000000000e+03 6.904348754882812500e+01 -1.332440090179443359e+01 -3.376275002956390381e-01 4.468294978141784668e-02 -8.788336068391799927e-02 7.909765467047691345e-03
1.071000000000000000e+03 7.046381378173828125e+01 -1.384765529632568359e+01 -2.060677856206893921e-01 3.672831505537033081e-02 -5.080183967947959900e-02 -9.079194627702236176e-03
1.072000000000000000e+03 6.830258941650390625e+01 -1.404070186614990234e+01 -2.690025866031646729e-01 2.045005373656749725e-02 -7.456576079130172729e-02 6.543315201997756958e-02
1.073000000000000000e+03 3.722178649902343750e+01 -1.413655567169189453e+01 2.478638780303299427e-04 -2.386892811045981944e-05 6.719848170178011060e-05 9.334980859421193600e-05
1.074000000000000000e+03 3.770495986938476562e+01 -1.475983810424804688e+01 1.181541301775723696e-04 -1.812627488106954843e-05 3.000835749844554812e-05 -8.081283908722980414e-07
1.075000000000000000e+03 3.884873580932617188e+01 -1.459678173065185547e+01 2.428325387882068753e-04 -9.067905193660408258e-05 4.564604387269355357e-05 -4.767875907418783754e-06
1.076000000000000000e+03 3.803520202636718750e+01 -1.589142227172851562e+01 4.111411981284618378e-04 -1.501802616985514760e-04 7.828827801859006286e-05 1.474398304708302021e-04
1.077000000000000000e+03 2.178613090515136719e+01 2.929096221923828125e+00 -1.089846227841917425e-05 -8.491822882206179202e-06 -5.817085366288665682e-06 7.451426881743827835e-06
1.078000000000000000e+03 1.836953353881835938e+01 4.800436019897460938e+00 8.231358515331521630e-05 -3.085342086706077680e-06 2.376847260165959597e-05 1.630976839805953205e-05
1.079000000000000000e+03 1.778586196899414062e+01 3.788635492324829102e+00 5.033326669945381582e-05 1.678028638707473874e-05 2.013406628975644708e-05 2.957897049782332033e-05
1.080000000000000000e+03 2.037888908386230469e+01 2.593930959701538086e+00 -1.771595452737528831e-05 -1.188772330351639539e-05 -8.881102985469624400e-06 -4.133584496912590112e-08
1.081000000000000000e+03 2.138295745849609375e+01 3.703377485275268555e+00 2.311748357897158712e-05 4.123400003663846292e-07 7.058947176119545475e-06 -1.021687421598471701e-05
1.082000000000000000e+03 7.156600952148437500e+01 -1.897354698181152344e+01 4.337479424521006877e-07 -1.207868808705825359e-05 -3.493481926852837205e-06 1.030732346407603472e-05
1.083000000000000000e+03 6.994966125488281250e+01 -1.840355682373046875e+01 9.590653462510090321e-06 6.376193141477415338e-06 4.790053935721516609e-06 4.877324045082787052e-06
1.084000000000000000e+03 7.097020721435546875e+01 -1.916957855224609375e+01 1.431770306226098910e-05 2.336661600566003472e-05 1.130529562942683697e-05 1.533815861876064446e-06
1.085000000000000000e+03 7.037857055664062500e+01 -1.973063850402832031e+01 1.156638882093830034e-05 -2.558300002419855446e-05 -4.204983270028606057e-06 6.821786428190534934e-06
1.086000000000000000e+03 1.610338211059570312e+01 2.637391567230224609e+00 7.967998499225359410e-06 5.024633719585835934e-05 1.746430098137352616e-05 2.282737114001065493e-06
1.087000000000000000e+03 1.830974960327148438e+01 2.229155302047729492e+00 2.164954275940544903e-05 1.937481101776938885e-05 1.230730595125351101e-05 7.921660653664730489e-06
1.088000000000000000e+03 1.874386978149414062e+01 3.110815286636352539e+00 3.517320874379947782e-05 1.196102311951108277e-05 1.414026883139740676e-05 1.203117108161677606e-06
1.089000000000000000e+03 1.675589179992675781e+01 2.716897010803222656e+00 -2.725947524595540017e-06 -4.975893170922063291e-05 -1.574546331539750099e-05 -1.305715068156132475e-05
1.090000000000000000e+03 3.768014144897460938e+01 4.596744537353515625e+00 -1.494629832450300455e-04 2.682214835658669472e-04 3.562755227903835475e-05 1.202985804411582649e-04
1.091000000000000000e+03 3.661698150634765625e+01 2.625654458999633789e+00 -1.195951117551885545e-04 2.642027720867190510e-05 -2.795245018205605447e-05 -3.993109930888749659e-05
1.092000000000000000e+03 3.512468719482421875e+01 2.965235948562622070e+00 1.915904140332713723e-04 -6.007919000694528222e-05 3.945337084587663412e-05 6.444472091970965266e-06
1.093000000000000000e+03 3.721516036987304688e+01 3.606280326843261719e+00 -2.251726109534502029e-04 9.457486157771199942e-05 -3.917932190233841538e-05 6.615705933654680848e-05
1.094000000000000000e+03 3.581303405761718750e+01 3.219829797744750977e+00 -9.263772517442703247e-05 1.930018515849951655e-05 -2.200126255047507584e-05 -9.222743392456322908e-05
1.095000000000000000e+03 4.035464477539062500e+01 -1.644559288024902344e+01 2.529147313907742500e-04 -2.433705958537757397e-04 2.863243480533128604e-06 2.951640453829895705e-05
1.096000000000000000e+03 4.151852035522460938e+01 -1.729310417175292969e+01 7.766119961161166430e-05 -1.859777694335207343e-04 -3.249497240176424384e-05 -9.469291399000212550e-05
1.097000000000000000e+03 4.009350204467773438e+01 -1.539043903350830078e+01 3.419449785724282265e-04 -1.709609641693532467e-04 5.129520650370977819e-05 -1.233572766068391502e-05
1.098000000000000000e+03 3.947510528564453125e+01 -1.498315429687500000e+01 1.647159224376082420e-04 -1.126291244872845709e-04 1.562603756610769778e-05 8.504063589498400688e-05
1.099000000000000000e+03 1.400557613372802734e+01 3.286481857299804688e+00 2.841461900970898569e-05 4.935063407174311578e-05 2.332957592443563044e-05 7.056695267237955704e-06
1.100000000000000000e+03 1.184182643890380859e+01 2.562495470046997070e+00 2.966945066873449832e-05 3.190126881236210465e-05 1.847121529863215983e-05 1.884990474820824602e-08
1.101000000000000000e+03 1.477715396881103516e+01 1.921489715576171875e+00 -1.290345517190871760e-05 -3.562565325410105288e-05 -1.455873189115663990e-05 5.455985046864952892e-06
1.102000000000000000e+03 1.543070983886718750e+01 2.616087675094604492e+00 -1.494347270636353642e-05 -3.890795414918102324e-05 -1.615542896615806967e-05 7.008965894783614203e-06
1.103000000000000000e+03 1.473483562469482422e+01 2.606074571609497070e+00 2.528901859477628022e-05 3.801078491960652173e-05 1.898994014482013881e-05 5.973153633931360673e-07
1.104000000000000000e+03 7.486508941650390625e+01 -1.891271400451660156e+01 1.697975858405698091e-05 -7.932505354801833164e-07 4.855952283833175898e-06 -1.482709990341390949e-06
1.105000000000000000e+03 7.352723693847656250e+01 -1.892057228088378906e+01 2.261423651361837983e-05 2.299156903973198496e-06 7.474017820641165599e-06 -3.283691057731630281e-06
1.106000000000000000e+03 7.419502258300781250e+01 -1.890373420715332031e+01 -8.027722287806682289e-06 -2.059017560895881616e-06 -3.026022113772341982e-06 -2.881065938709070906e-06
1.107000000000000000e+03 4.224974441528320312e+01 -1.868595695495605469e+01 -5.762953078374266624e-04 -1.589273742865771055e-04 -2.205667988164350390e-04 -5.908169623580761254e-05
1.108000000000000000e+03 4.189180755615234375e+01 -1.663814735412597656e+01 1.053513988154008985e-04 -6.830315396655350924e-05 1.111447545554256067e-05 -8.291379344882443547e-05
1.109000000000000000e+03 4.208573150634765625e+01 -1.769465446472167969e+01 -2.027418086072430015e-04 -1.269050844712182879e-04 -9.889406646834686399e-05 -3.993115024059079587e-05
1.110000000000000000e+03 4.094295120239257812e+01 -1.687027168273925781e+01 8.675551725900731981e-06 -2.347322879359126091e-04 -6.781702541047707200e-05 -2.758005166469956748e-06
1.111000000000000000e+03 1.399101543426513672e+01 3.980604410171508789e+00 -2.107097498083021492e-05 -5.523190338863059878e-05 -2.289086296514142305e-05 8.083742613962385803e-06
1.112000000000000000e+03 1.258843708038330078e+01 1.865526556968688965e+00 2.164017314498778433e-05 3.376075255800969899e-05 1.662027716520242393e-05 9.851262348092859611e-07
1.113000000000000000e+03 1.257648944854736328e+01 2.567399024963378906e+00 -1.501060978625901043e-05 -3.436139013501815498e-05 -1.481159961258526891e-05 1.079981302609667182e-05
1.114000000000000000e+03 1.330288600921630859e+01 2.577567577362060547e+00 2.630583185236901045e-05 3.905853372998535633e-05 1.960930967470631003e-05 2.676536041690269485e-06
1.115000000000000000e+03 1.140380287170410156e+01 -3.338314771652221680e+00 -6.147177219390869141e-01 5.660024657845497131e-02 -1.674352437257766724e-01 -3.138428330421447754e-01
1.116000000000000000e+03 1.054370784759521484e+01 -2.605964183807373047e+00 -6.794912815093994141e-01 2.240669168531894684e-02 -1.971253901720046997e-01 -2.945347428321838379e-01
1.117000000000000000e+03 1.205864810943603516e+01 -2.585238456726074219e+00 -7.811866402626037598e-01 3.667929396033287048e-02 -2.233521938323974609e-01 -2.485782504081726074e-01
1.118000000000000000e+03 4.645268249511718750e+01 -1.396683120727539062e+01 -9.349641799926757812e-01 2.644966840744018555e-01 -2.011402547359466553e-01 3.124916851520538330e-01
1.119000000000000000e+03 4.505958938598632812e+01 -1.318967533111572266e+01 -7.896274924278259277e-01 1.429135203361511230e-01 -1.940141916275024414e-01 3.700409233570098877e-01
1.120000000000000000e+03 4.440887832641601562e+01 -1.277626323699951172e+01 -7.327408790588378906e-01 7.094546407461166382e-02 -1.985386312007904053e-01 3.856967389583587646e-01
1.121000000000000000e+03 7.281340026855468750e+01 -1.442231082916259766e+01 -1.057455241680145264e-01 9.091272018849849701e-03 -2.899627573788166046e-02 -2.596887387335300446e-02
1.122000000000000000e+03 7.512310028076171875e+01 -1.371015262603759766e+01 -7.172735780477523804e-02 -1.098144426941871643e-02 -2.481264062225818634e-02 -4.488276690244674683e-02
1.123000000000000000e+03 7.589899444580078125e+01 -1.363658332824707031e+01 -4.956436529755592346e-02 -1.521700620651245117e-02 -1.943441107869148254e-02 -3.900339081883430481e-02
1.124000000000000000e+03 7.669341278076171875e+01 -1.334960365295410156e+01 -4.306725785136222839e-02 -2.230468206107616425e-02 -1.961158215999603271e-02 -3.439415618777275085e-02
1.125000000000000000e+03 1.423736095428466797e+01 -1.799676537513732910e+00 -1.050548672676086426e+00 2.354031614959239960e-02 -3.081024885177612305e-01 -1.258588880300521851e-01
1.126000000000000000e+03 1.369040679931640625e+01 -3.267022371292114258e+00 -7.155290842056274414e-01 9.259213507175445557e-02 -1.868810951709747314e-01 -1.933737546205520630e-01
1.127000000000000000e+03 1.281732463836669922e+01 -2.566065788269042969e+00 -8.226306438446044922e-01 4.330733045935630798e-02 -2.337969988584518433e-01 -2.158752232789993286e-01
1.128000000000000000e+03 1.358048057556152344e+01 -2.539950370788574219e+00 -8.580682873725891113e-01 4.932051151990890503e-02 -2.426243275403976440e-01 -1.800445765256881714e-01
1.129000000000000000e+03 1.511070537567138672e+01 -2.482083320617675781e+00 -9.050101041793823242e-01 7.390465587377548218e-02 -2.493316233158111572e-01 -8.869642019271850586e-02
1.130000000000000000e+03 7.329822540283203125e+00 2.591424465179443359e+00 3.638999987742863595e-05 1.581986543897073716e-05 1.566295941302087158e-05 -1.294070807489333674e-05
1.131000000000000000e+03 8.089718818664550781e+00 2.571578264236450195e+00 -8.706184416951145977e-06 -2.493000101821962744e-05 -1.009085553960176185e-05 1.015781072055688128e-05
1.132000000000000000e+03 2.739445686340332031e+00 3.062871694564819336e+00 3.228637433494441211e-05 -6.027321433066390455e-06 7.877715688664466143e-06 -3.261763049522414804e-05
1.133000000000000000e+03 2.817950248718261719e+00 3.898005723953247070e+00 -1.614606298971921206e-05 -2.104645864164922386e-05 -1.115775648941053078e-05 2.619830775074660778e-05
1.134000000000000000e+03 4.273536205291748047e+00 2.817810058593750000e+00 2.910534749389626086e-05 1.570884160173591226e-05 1.344425618299283087e-05 -1.874113877420313656e-05
1.135000000000000000e+03 6.571553707122802734e+00 2.623847484588623047e+00 -1.029813665809342638e-05 -2.049386785074602813e-05 -9.237601261702366173e-06 6.808355010434752330e-06
1.136000000000000000e+03 5.810099124908447266e+00 2.672606706619262695e+00 3.322764314361847937e-05 1.413987592968624085e-05 1.421025535819353536e-05 -1.530147892481181771e-05
1.137000000000000000e+03 1.433225512504577637e+00 3.016719341278076172e+00 -1.040154711517971009e-05 -8.933220669860020280e-06 -5.800430244562448934e-06 -1.222949049406452104e-05
1.138000000000000000e+03 1.158967971801757812e+00 2.041424751281738281e+00 1.537681964691728354e-05 -2.257370579172857106e-05 -2.159065843443386257e-06 -4.988814907846972346e-07
1.139000000000000000e+03 1.035476875305175781e+01 2.555081129074096680e+00 3.339722388773225248e-05 2.521142232581041753e-05 1.758259350026492029e-05 -2.928572030214127153e-06
1.140000000000000000e+03 9.604990959167480469e+00 2.553784608840942383e+00 -9.654401765146758407e-06 -2.782469709927681834e-05 -1.124373011407442391e-05 1.147985585703281686e-05
1.141000000000000000e+03 8.142957687377929688e+00 -1.867235422134399414e+00 -5.618183612823486328e-01 -4.438146017491817474e-03 -1.698769629001617432e-01 -2.452359795570373535e-01
1.142000000000000000e+03 9.783652305603027344e+00 -2.607596397399902344e+00 -6.210885047912597656e-01 1.376587059348821640e-02 -1.821967959403991699e-01 -3.060488998889923096e-01
1.143000000000000000e+03 5.846819400787353516e+00 -1.884455800056457520e+00 -3.337014913558959961e-01 -2.303818799555301666e-02 -1.070219054818153381e-01 -2.187610864639282227e-01
1.144000000000000000e+03 3.984832763671875000e+00 -3.841656684875488281e+00 -1.377877444028854370e-01 -1.282006949186325073e-01 -7.979653030633926392e-02 -2.829339802265167236e-01
1.145000000000000000e+03 3.197154521942138672e+00 -3.957676887512207031e+00 -9.824427217245101929e-02 -1.507030129432678223e-01 -7.468418776988983154e-02 -2.490473389625549316e-01
1.146000000000000000e+03 7.644355773925781250e+00 -3.331527948379516602e+00 -3.838784396648406982e-01 -2.101914584636688232e-02 -1.214692816138267517e-01 -3.644934594631195068e-01
1.147000000000000000e+03 7.513815879821777344e+00 -2.602425813674926758e+00 -4.380192756652832031e-01 -1.601157337427139282e-02 -1.362092494964599609e-01 -3.086011707782745361e-01
1.148000000000000000e+03 6.009319782257080078e+00 -2.642232656478881836e+00 -3.140089511871337891e-01 -3.847790136933326721e-02 -1.057460606098175049e-01 -2.857770621776580811e-01
1.149000000000000000e+03 2.773556709289550781e+00 -2.016475200653076172e+00 -9.752252697944641113e-02 -5.985337495803833008e-02 -4.721277207136154175e-02 -1.222554519772529602e-01
1.150000000000000000e+03 6.067910194396972656e-01 -4.983928203582763672e+00 -1.629618555307388306e-02 -2.679920792579650879e-01 -8.528648316860198975e-02 -7.144682109355926514e-02
1.151000000000000000e+03 4.376549530029296875e+01 -1.235382461547851562e+01 -6.649267077445983887e-01 -2.516250684857368469e-02 -2.070267647504806519e-01 4.024851322174072266e-01
1.152000000000000000e+03 4.246461105346679688e+01 -1.148943614959716797e+01 -5.434873700141906738e-01 -1.721894592046737671e-01 -2.147030383348464966e-01 4.108856022357940674e-01
1.153000000000000000e+03 4.179864501953125000e+01 -1.105161571502685547e+01 -4.739851653575897217e-01 -2.218828797340393066e-01 -2.087604105472564697e-01 4.038813412189483643e-01
1.154000000000000000e+03 3.284788513183593750e+01 -2.589563369750976562e+00 -1.469980478286743164e-01 3.854956012219190598e-03 -4.294293001294136047e-02 2.589482367038726807e-01
1.155000000000000000e+03 3.476939392089843750e+01 -2.208155870437622070e+00 -6.833586376160383224e-03 -3.915180638432502747e-02 -1.379561796784400940e-02 1.953211575746536255e-01
1.156000000000000000e+03 3.224829483032226562e+01 -2.828053712844848633e+00 -2.012246698141098022e-01 5.147987604141235352e-02 -4.492343589663505554e-02 2.693115472793579102e-01
1.157000000000000000e+03 3.310027313232421875e+01 -4.204882144927978516e+00 2.360762562602758408e-03 -2.868645824491977692e-02 -7.897708564996719360e-03 4.047954082489013672e-01
1.158000000000000000e+03 3.576283645629882812e+01 -1.316302895545959473e+00 6.241116300225257874e-02 -1.858689635992050171e-02 1.314727962017059326e-02 7.266530394554138184e-02
1.159000000000000000e+03 1.739304542541503906e+01 -2.333046436309814453e+00 -9.265903830528259277e-01 1.251797527074813843e-01 -2.404231876134872437e-01 8.263895660638809204e-02
1.160000000000000000e+03 1.670434188842773438e+01 -3.122787475585937500e+00 -7.859428524971008301e-01 1.667316108942031860e-01 -1.857633739709854126e-01 2.806900255382061005e-02
1.161000000000000000e+03 1.730396270751953125e+01 -1.619369387626647949e+00 -1.060802459716796875e+00 6.929849833250045776e-02 -2.974511682987213135e-01 5.200524255633354187e-02
1.162000000000000000e+03 1.587425708770751953e+01 -2.446193933486938477e+00 -9.169155955314636230e-01 9.107109904289245605e-02 -2.477533370256423950e-01 -3.642855957150459290e-02
1.163000000000000000e+03 1.663684272766113281e+01 -2.398838758468627930e+00 -9.261600971221923828e-01 1.086742877960205078e-01 -2.452457398176193237e-01 2.398806624114513397e-02
1.164000000000000000e+03 2.311881065368652344e+01 -3.171825408935546875e+00 -1.314178466796875000e+00 7.481935620307922363e-02 -3.718077242374420166e-01 5.587335228919982910e-01
1.165000000000000000e+03 2.363743782043457031e+01 -3.534740209579467773e+00 -1.671331524848937988e+00 -2.336121164262294769e-03 -5.021002888679504395e-01 4.969031214714050293e-01
1.166000000000000000e+03 2.579602622985839844e+01 -6.488540649414062500e+00 4.131531119346618652e-01 -3.030515909194946289e-01 3.303045406937599182e-02 3.439290523529052734e-01
1.167000000000000000e+03 2.723157310485839844e+01 -6.596747398376464844e+00 4.649127721786499023e-01 3.472013771533966064e-01 2.436342388391494751e-01 6.642563939094543457e-01
1.168000000000000000e+03 2.387033271789550781e+01 -5.999589920043945312e+00 -1.731532216072082520e-01 -3.974206745624542236e-01 -1.711721569299697876e-01 -1.707288920879364014e-01
1.169000000000000000e+03 2.591173934936523438e+01 -7.899703025817871094e+00 1.264575600624084473e+00 4.432360082864761353e-02 3.926697671413421631e-01 4.048370718955993652e-01
1.170000000000000000e+03 7.124143218994140625e+01 -1.451254272460937500e+01 -1.351496577262878418e-01 2.261405251920223236e-02 -3.376067802309989929e-02 -4.896733909845352173e-03
1.171000000000000000e+03 7.201184844970703125e+01 -1.373663806915283203e+01 -1.639163643121719360e-01 2.550942078232765198e-02 -4.152208194136619568e-02 -3.857817128300666809e-02
1.172000000000000000e+03 7.122882080078125000e+01 -1.379335880279541016e+01 -1.891812235116958618e-01 2.451953105628490448e-02 -4.939850792288780212e-02 -3.428764641284942627e-02
1.173000000000000000e+03 7.359146118164062500e+01 -1.366435813903808594e+01 -1.134028434753417969e-01 5.891968496143817902e-03 -3.225326165556907654e-02 -4.746364429593086243e-02
1.174000000000000000e+03 2.199818420410156250e+01 -8.885053396224975586e-01 -5.960708260536193848e-01 4.870919138193130493e-02 -1.642084866762161255e-01 3.241620957851409912e-01
1.175000000000000000e+03 2.021094322204589844e+01 -3.467785120010375977e+00 -8.553871512413024902e-01 3.023651838302612305e-01 -1.659065932035446167e-01 2.522901594638824463e-01
1.176000000000000000e+03 1.961325836181640625e+01 -1.377492785453796387e+00 -9.389209151268005371e-01 1.353060603141784668e-01 -2.410844564437866211e-01 2.238088101148605347e-01
1.177000000000000000e+03 4.076531982421875000e+01 -9.472559928894042969e+00 -1.845913529396057129e-01 -2.862866818904876709e-01 -1.412634104490280151e-01 3.627523183822631836e-01
1.178000000000000000e+03 3.976105117797851562e+01 -9.836359024047851562e+00 -3.003568053245544434e-01 -3.359300196170806885e-01 -1.908860504627227783e-01 3.885642290115356445e-01
1.179000000000000000e+03 3.912258148193359375e+01 -9.370920181274414062e+00 -1.962168812751770020e-01 -3.439258337020874023e-01 -1.620428115129470825e-01 3.845001757144927979e-01
1.180000000000000000e+03 3.868651962280273438e+01 -1.010232925415039062e+01 -3.991789519786834717e-01 -3.561342358589172363e-01 -2.265939563512802124e-01 4.079783856868743896e-01
1.181000000000000000e+03 3.709725189208984375e+01 -9.564197540283203125e+00 -2.896172702312469482e-01 -3.033664524555206299e-01 -1.778951138257980347e-01 3.737762272357940674e-01
1.182000000000000000e+03 3.386067962646484375e+01 -6.866585731506347656e+00 1.695493459701538086e-01 -1.882982552051544189e-01 -5.624673794955015182e-03 3.927463591098785400e-01
1.183000000000000000e+03 3.722250366210937500e+01 -8.854552268981933594e+00 -1.520101279020309448e-01 -3.122000098228454590e-01 -1.392630338668823242e-01 3.780651390552520752e-01
1.184000000000000000e+03 3.504045104980468750e+01 -8.168030738830566406e+00 -1.825316436588764191e-02 -2.269953191280364990e-01 -7.357455044984817505e-02 3.304745554924011230e-01
1.185000000000000000e+03 3.428994369506835938e+01 -7.868129730224609375e+00 7.338353246450424194e-02 -2.059150040149688721e-01 -3.975943848490715027e-02 3.257420957088470459e-01
1.186000000000000000e+03 3.797850036621093750e+01 -8.963458061218261719e+00 -1.481082588434219360e-01 -3.425285220146179199e-01 -1.471910327672958374e-01 3.784548938274383545e-01
1.187000000000000000e+03 3.262371444702148438e+01 -7.350752830505371094e+00 2.544418275356292725e-01 -1.426707059144973755e-01 3.353133425116539001e-02 3.784373402595520020e-01
1.188000000000000000e+03 2.237028694152832031e+01 4.418659210205078125e+00 1.581847755005583167e-05 2.950555062852799892e-05 1.359720863547408953e-05 1.401891313435044140e-05
1.189000000000000000e+03 2.736738395690917969e+01 -2.477738857269287109e+00 -7.529111504554748535e-01 2.167937159538269043e-02 -2.193695455789566040e-01 -3.891862034797668457e-01
1.190000000000000000e+03 2.995319747924804688e+01 -4.794738292694091797e+00 -2.884843945503234863e-01 3.705290853977203369e-01 2.461340650916099548e-02 5.492951273918151855e-01
1.191000000000000000e+03 2.791630744934082031e+01 -2.507103204727172852e+00 -7.569585442543029785e-01 1.378214955329895020e-01 -1.857411116361618042e-01 -2.719664275646209717e-01
1.192000000000000000e+03 2.342671966552734375e+01 -7.221704721450805664e-01 -2.781137526035308838e-01 -1.256796866655349731e-01 -1.211380288004875183e-01 2.314164787530899048e-01
1.193000000000000000e+03 3.501203155517578125e+01 -1.492694091796875000e+01 -2.125209575751796365e-04 4.995226845494471490e-05 -4.877060564467683434e-05 -8.649800292914733291e-05
1.194000000000000000e+03 3.511894989013671875e+01 -1.368374347686767578e+01 -2.829714321705978364e-05 -7.564318366348743439e-05 -3.118209860986098647e-05 2.654747004271484911e-05
1.195000000000000000e+03 3.553957366943359375e+01 -1.441597175598144531e+01 1.045677636284381151e-04 4.695397819887148216e-06 3.277894938946701586e-05 9.887501801131293178e-05
1.196000000000000000e+03 1.883224487304687500e+01 7.120682239532470703e+00 -1.152215481852181256e-04 -2.922082785516977310e-05 -4.333271135692484677e-05 -4.647898094845004380e-05
1.197000000000000000e+03 1.922536468505859375e+01 4.665637016296386719e+00 -1.563663499837275594e-05 1.525855714135104790e-05 -1.134232547883584630e-07 2.632617724884767085e-05
1.198000000000000000e+03 3.448183822631835938e+01 -2.608536720275878906e+00 -1.167933549731969833e-02 -3.031897358596324921e-02 -1.259949244558811188e-02 2.465221434831619263e-01
1.199000000000000000e+03 3.588187026977539062e+01 -1.970955967903137207e+00 5.941811203956604004e-02 -4.583954066038131714e-02 4.073571413755416870e-03 1.338295936584472656e-01
1.200000000000000000e+03 3.443009948730468750e+01 2.140719890594482422e+00 1.386291260132566094e-04 1.423314915882656351e-05 4.585868009598925710e-05 8.239111048169434071e-05
1.201000000000000000e+03 6.924383544921875000e+01 -1.898283958435058594e+01 2.265719376737251878e-05 -2.167119600926525891e-05 2.957989408969297074e-07 -7.277749887180107180e-07
1.202000000000000000e+03 6.863343811035156250e+01 -2.048908042907714844e+01 2.717363486226531677e-06 1.368987454952730332e-06 1.225905293722462375e-06 5.411044639913598076e-06
1.203000000000000000e+03 4.536355972290039062e+01 -2.155692863464355469e+01 7.974841719260439277e-05 5.669154343195259571e-04 1.939991634571924806e-04 3.336461377330124378e-04
1.204000000000000000e+03 4.497863769531250000e+01 -2.053561401367187500e+01 -2.492705825716257095e-04 4.244007577653974295e-04 5.253905692370608449e-05 -1.880566924228332937e-05
1.205000000000000000e+03 4.502066040039062500e+01 -1.910158729553222656e+01 -6.364683213178068399e-05 3.224751562811434269e-04 7.764849578961730003e-05 -1.838803291320800781e-04
1.206000000000000000e+03 5.605805969238281250e+01 2.481270027160644531e+01 1.866492480039596558e-01 1.835507005453109741e-01 1.110599860548973083e-01 -2.647937238216400146e-01
1.207000000000000000e+03 1.277932262420654297e+01 2.076585960388183594e+01 -2.073936630040407181e-03 1.307862985413521528e-04 -5.829451256431639194e-04 -2.427030085527803749e-05
1.208000000000000000e+03 5.984694290161132812e+01 -1.376423835754394531e+01 -1.345137476921081543e+00 -6.678479909896850586e-02 -4.235766828060150146e-01 -4.835825264453887939e-01
1.209000000000000000e+03 5.697065734863281250e+01 -1.309501647949218750e+01 -1.393321633338928223e+00 1.710471510887145996e-02 -4.128650724887847900e-01 -4.008769989013671875e-01
1.210000000000000000e+03 5.818690109252929688e+01 -1.280918693542480469e+01 -1.330364227294921875e+00 3.707946836948394775e-02 -3.879854381084442139e-01 -4.649629294872283936e-01
1.211000000000000000e+03 5.203982925415039062e+01 -1.496424579620361328e+01 -2.087829351425170898e+00 -3.965238481760025024e-02 -6.382445096969604492e-01 -2.409620732069015503e-01
1.212000000000000000e+03 6.776927947998046875e+01 -1.210166358947753906e+01 -6.290590167045593262e-01 1.139533892273902893e-01 -1.545316874980926514e-01 1.899001747369766235e-02
1.213000000000000000e+03 5.195326995849609375e+01 -1.382145690917968750e+01 -1.566946506500244141e+00 5.795938894152641296e-02 -4.526961147785186768e-01 -6.436860561370849609e-02
1.214000000000000000e+03 5.320483779907226562e+01 -1.364974594116210938e+01 -1.581284999847412109e+00 1.246441435068845749e-02 -4.706461727619171143e-01 -1.732576340436935425e-01
1.215000000000000000e+03 1.220638561248779297e+01 1.880333709716796875e+01 -4.630151961464434862e-04 -1.282209559576585889e-04 -1.773708499968051910e-04 -1.379528021061560139e-05
1.216000000000000000e+03 5.538838958740234375e+01 2.364778137207031250e+01 2.940478622913360596e-01 6.993379443883895874e-02 1.091944947838783264e-01 -2.201170623302459717e-01
1.217000000000000000e+03 1.505963706970214844e+01 2.237612342834472656e+01 -5.827425047755241394e-03 7.290299981832504272e-04 -1.529518514871597290e-03 9.467100026085972786e-04
1.218000000000000000e+03 7.824535369873046875e+01 -2.033746337890625000e+01 3.104104689555242658e-05 1.506881108070956543e-05 1.383295784762594849e-05 1.585518134561425541e-06
1.219000000000000000e+03 7.818952178955078125e+01 -3.113032531738281250e+01 2.114725612045731395e-05 1.220616541104391217e-04 4.296267434256151319e-05 -4.139425800531171262e-05
1.220000000000000000e+03 7.935492706298828125e+01 -2.965145492553710938e+01 1.515378062322270125e-05 1.231254282174631953e-04 4.148375955992378294e-05 -1.574046109453774989e-05
1.221000000000000000e+03 7.934777832031250000e+01 -2.419400787353515625e+01 1.198490554088493809e-05 2.365154432482086122e-05 1.069093468686332926e-05 -3.999740329163614661e-06
1.222000000000000000e+03 7.917234802246093750e+01 -3.635928726196289062e+01 -1.596412948856595904e-05 2.647980873007327318e-04 7.465019007213413715e-05 -4.933714535582112148e-06
1.223000000000000000e+03 7.936908721923828125e+01 -3.364082717895507812e+01 -1.989854536077473313e-05 2.263217029394581914e-04 6.192694854689761996e-05 -1.909734055516310036e-05
1.224000000000000000e+03 7.816088104248046875e+01 -3.358255767822265625e+01 2.360420876357238740e-05 1.631600607652217150e-04 5.602927922154776752e-05 -3.161998029099777341e-05
1.225000000000000000e+03 7.805094909667968750e+01 -2.432723617553710938e+01 -1.138484185503330082e-05 1.984011032618582249e-05 2.536580495871021412e-06 -2.728549225139431655e-05
1.226000000000000000e+03 7.794541931152343750e+01 -2.856370353698730469e+01 1.865074773377273232e-05 7.888443360570818186e-05 2.926055458374321461e-05 -3.920562812709249556e-05
1.227000000000000000e+03 7.756330108642578125e+01 -3.928799057006835938e+01 -9.726161806611344218e-06 2.239796449430286884e-04 6.427604239434003830e-05 1.097288713935995474e-05
1.228000000000000000e+03 3.093714714050292969e+01 2.294571495056152344e+01 -1.774783618748188019e-02 -7.095336914062500000e-03 -7.452952209860086441e-03 5.220874212682247162e-03
1.229000000000000000e+03 1.449200344085693359e+01 1.089094924926757812e+01 1.025748933898285031e-04 9.597097232472151518e-05 5.956375753157772124e-05 6.354856304824352264e-05
1.230000000000000000e+03 2.031712150573730469e+01 2.449974632263183594e+01 -1.341038849204778671e-02 -3.236170625314116478e-03 -4.993967711925506592e-03 7.860153913497924805e-03
1.231000000000000000e+03 4.329856872558593750e+01 -2.452384376525878906e+01 -6.289717741310596466e-03 2.200823073508217931e-04 -1.820890698581933975e-03 4.392907023429870605e-03
1.232000000000000000e+03 1.461449527740478516e+01 1.395699310302734375e+01 -1.457220350857824087e-04 2.777396002784371376e-04 3.960527101298794150e-05 -5.350474020815454423e-05
1.233000000000000000e+03 1.588911914825439453e+01 7.141070365905761719e+00 4.906770482193678617e-05 4.445359809324145317e-05 2.805639087455347180e-05 4.582890323945321143e-05
1.234000000000000000e+03 2.579578399658203125e+01 2.202029418945312500e+01 -3.622889518737792969e-02 -5.714420694857835770e-03 -1.258299406617879868e-02 1.129272673279047012e-02
1.235000000000000000e+03 2.639666938781738281e+01 2.335748863220214844e+01 -2.552644535899162292e-02 -7.036679890006780624e-03 -9.768937714397907257e-03 1.279917731881141663e-02
1.236000000000000000e+03 2.450502204895019531e+01 2.239917564392089844e+01 -3.164325281977653503e-02 -2.397035015746951103e-03 -1.021208614110946655e-02 9.541538543999195099e-03
1.237000000000000000e+03 2.319088172912597656e+01 2.535283851623535156e+01 -1.345647498965263367e-02 -5.828991532325744629e-03 -5.785639863461256027e-03 9.075704030692577362e-03
1.238000000000000000e+03 3.404616546630859375e+01 1.270449638366699219e+01 -2.687114756554365158e-03 -8.859285735525190830e-04 -1.071913051418960094e-03 2.367113018408417702e-03
1.239000000000000000e+03 3.725889587402343750e+01 4.994537830352783203e+00 -4.981779493391513824e-04 -1.694599195616319776e-04 -2.002913679461926222e-04 2.920012047979980707e-04
1.240000000000000000e+03 2.419232177734375000e+01 2.446700096130371094e+01 -1.831729337573051453e-02 -6.099921651184558868e-03 -7.325164508074522018e-03 9.391969069838523865e-03
1.241000000000000000e+03 3.379385757446289062e+01 1.408926677703857422e+01 -4.642446059733629227e-03 -1.694131293334066868e-03 -1.900973264127969742e-03 4.627031739801168442e-03
1.242000000000000000e+03 3.428477478027343750e+01 1.135407543182373047e+01 -1.454051816835999489e-03 -2.722089993767440319e-04 -5.178782157599925995e-04 1.040039351209998131e-03
1.243000000000000000e+03 3.300719451904296875e+01 1.687161827087402344e+01 -1.052161213010549545e-02 -4.958637990057468414e-03 -4.644075408577919006e-03 1.017245464026927948e-02
1.244000000000000000e+03 3.311060333251953125e+01 1.097476196289062500e+01 -3.670088772196322680e-04 3.926990320906043053e-04 7.707050826866179705e-06 1.113094112952239811e-04
1.245000000000000000e+03 1.901841163635253906e+01 2.436664581298828125e+01 -1.327345147728919983e-02 -7.259545964188873768e-04 -4.199821967631578445e-03 5.399713758379220963e-03
1.246000000000000000e+03 1.812228012084960938e+01 5.745418548583984375e+00 -9.159391629509627819e-05 -3.117946835118345916e-05 -3.683201430249027908e-05 -3.687922799144871533e-05
1.247000000000000000e+03 1.691053009033203125e+01 7.606894493103027344e+00 -8.224279008572921157e-05 -2.195429806306492537e-05 -3.125912553514353931e-05 -5.044061981607228518e-05
1.248000000000000000e+03 1.760557937622070312e+01 6.680801391601562500e+00 9.439558198209851980e-05 4.971332236891612411e-05 4.323267057770863175e-05 4.540131340036168694e-05
1.249000000000000000e+03 1.414952850341796875e+01 9.113489151000976562e+00 4.679862831835635006e-05 4.766566416947171092e-05 2.833928920153994113e-05 7.549329893663525581e-05
1.250000000000000000e+03 5.178264236450195312e+01 2.059956741333007812e+01 -2.812843024730682373e-02 -1.035823300480842590e-02 -1.154599897563457489e-02 -2.097643539309501648e-02
1.251000000000000000e+03 3.930089569091796875e+01 1.093111610412597656e+01 -3.193147713318467140e-03 1.034476008499041200e-04 -9.269100264646112919e-04 -4.569663433358073235e-04
1.252000000000000000e+03 4.764701843261718750e+01 -2.825917434692382812e+01 -1.345018297433853149e-02 -1.037793699651956558e-02 -7.148435804992914200e-03 1.072136964648962021e-02
1.253000000000000000e+03 5.008279800415039062e+01 -2.981675148010253906e+01 -1.654314622282981873e-02 -6.136908195912837982e-03 -6.804016418755054474e-03 9.167561307549476624e-03
1.254000000000000000e+03 5.606318664550781250e+01 -3.296740722656250000e+01 -2.497487701475620270e-03 -1.408446696586906910e-03 -1.171780284494161606e-03 2.687383210286498070e-03
1.255000000000000000e+03 5.087438583374023438e+01 -3.171186447143554688e+01 -6.295195315033197403e-03 -6.160379853099584579e-03 -3.736672457307577133e-03 6.685690488666296005e-03
1.256000000000000000e+03 4.274517822265625000e+01 1.392564487457275391e+01 -1.179836411029100418e-02 -5.185015033930540085e-03 -5.095013882964849472e-03 -6.790356244891881943e-03
1.257000000000000000e+03 3.859860229492187500e+01 6.720079421997070312e+00 -6.255785701796412468e-04 -1.864710211521014571e-04 -2.436148788547143340e-04 4.461190546862781048e-04
1.258000000000000000e+03 4.615697860717773438e+01 2.257913589477539062e+01 1.488555781543254852e-02 8.915012702345848083e-03 7.140171248465776443e-03 -9.762920439243316650e-03
1.259000000000000000e+03 4.687567520141601562e+01 1.781926536560058594e+01 -3.717331960797309875e-02 -1.589512079954147339e-02 -1.592053286731243134e-02 -2.124228514730930328e-02
1.260000000000000000e+03 6.757850646972656250e+01 -2.313791847229003906e+01 5.612365566776134074e-05 3.902983371517620981e-05 2.854604645108338445e-05 5.131739817443303764e-05
1.261000000000000000e+03 4.800432586669921875e+01 -3.085369300842285156e+01 -7.464136928319931030e-03 -6.707187741994857788e-03 -4.251397214829921722e-03 6.206333171576261520e-03
1.262000000000000000e+03 5.252000808715820312e+01 2.229969787597656250e+01 9.298299998044967651e-02 -1.372008118778467178e-02 2.377887442708015442e-02 -4.142041876912117004e-02
1.263000000000000000e+03 4.470043563842773438e+01 1.789378738403320312e+01 -2.772466652095317841e-02 -1.817282172851264477e-04 -8.371918462216854095e-03 -8.937981911003589630e-03
1.264000000000000000e+03 4.242492675781250000e+01 1.587058258056640625e+01 -1.987621933221817017e-02 2.035264158621430397e-03 -5.352286621928215027e-03 -5.133257247507572174e-03
1.265000000000000000e+03 3.848536682128906250e+01 9.612644195556640625e+00 8.902820263756439090e-05 -1.224848820129409432e-04 -1.003700526780448854e-05 -3.209255810361355543e-04
1.266000000000000000e+03 4.935735321044921875e+01 2.189650726318359375e+01 2.250293642282485962e-02 -7.539403159171342850e-03 4.489060491323471069e-03 -1.827570796012878418e-02
1.267000000000000000e+03 4.675413894653320312e+01 2.003264427185058594e+01 -2.233771793544292450e-02 -5.334395682439208031e-04 -6.861347239464521408e-03 -8.118861354887485504e-03
1.268000000000000000e+03 4.572614669799804688e+01 1.894038200378417969e+01 -2.571006678044795990e-02 -1.843878562794998288e-04 -7.768336217850446701e-03 -1.054141949862241745e-02
1.269000000000000000e+03 3.208583831787109375e+01 -2.933590316772460938e+01 -2.712509408593177795e-02 7.471927674487233162e-04 -7.913370616734027863e-03 -4.533384460955858231e-03
1.270000000000000000e+03 3.001029396057128906e+01 -2.893819236755371094e+01 -5.472415313124656677e-02 -1.250230148434638977e-02 -2.016793563961982727e-02 -2.356576174497604370e-02
1.271000000000000000e+03 6.079439163208007812e+01 -3.311217880249023438e+01 -1.129079144448041916e-03 -3.051495004910975695e-04 -4.302686138544231653e-04 8.824355318211019039e-04
1.272000000000000000e+03 6.093070220947265625e+01 -3.086467361450195312e+01 -5.363457021303474903e-04 -3.969711906393058598e-05 -1.728128409013152122e-04 3.559070173650979996e-04
1.273000000000000000e+03 5.795423126220703125e+01 -3.271965408325195312e+01 -1.979604829102754593e-03 -6.937385187484323978e-04 -8.020030218176543713e-04 1.819554250687360764e-03
1.274000000000000000e+03 5.960157012939453125e+01 -3.177115631103515625e+01 -1.078607630915939808e-03 -7.859443030611146241e-06 -3.259401128161698580e-04 6.772664492018520832e-04
1.275000000000000000e+03 1.806662940979003906e+01 -1.177998542785644531e+01 1.958866715431213379e+00 5.598312020301818848e-01 7.556093931198120117e-01 7.827026247978210449e-01
1.276000000000000000e+03 4.554156112670898438e+01 -2.828851318359375000e+01 -1.055381540209054947e-02 -2.793232444673776627e-03 -4.004114307463169098e-03 6.373363547027111053e-03
1.277000000000000000e+03 5.418047332763671875e+01 -3.294501113891601562e+01 -3.196873003616929054e-03 -2.897007158026099205e-03 -1.828164095059037209e-03 4.296627361327409744e-03
1.278000000000000000e+03 6.461911010742187500e+01 -2.831970787048339844e+01 2.141742152161896229e-04 3.248917664677719586e-06 6.522693729493767023e-05 3.737505176104605198e-05
1.279000000000000000e+03 7.025379180908203125e+01 -2.133137512207031250e+01 2.573394522187300026e-05 -2.116743235092144459e-05 1.369953906760201789e-06 -6.178016519697848707e-06
1.280000000000000000e+03 6.676963043212890625e+01 -2.630401611328125000e+01 1.844791549956426024e-04 -2.156611844839062542e-05 4.887391332886181772e-05 3.636405381257645786e-05
1.281000000000000000e+03 6.783692169189453125e+01 -2.517919731140136719e+01 9.811556083150207996e-05 -1.094526123779360205e-05 2.615108860481996089e-05 4.956622797180898488e-05
1.282000000000000000e+03 4.375812149047851562e+01 -1.908620834350585938e+01 -2.898451930377632380e-04 4.851535322814015672e-06 -8.549809717806056142e-05 -1.425382943125441670e-04
1.283000000000000000e+03 4.397230911254882812e+01 -2.104430580139160156e+01 -5.255176802165806293e-04 -2.955270756501704454e-04 -2.463134296704083681e-04 5.804881802760064602e-04
1.284000000000000000e+03 2.860538673400878906e+01 -8.175672531127929688e+00 2.449858188629150391e+00 3.859537243843078613e-01 8.507435321807861328e-01 6.991641521453857422e-01
1.285000000000000000e+03 2.877944755554199219e+01 -7.269622325897216797e+00 8.334900140762329102e-01 5.320592522621154785e-01 4.096647799015045166e-01 7.919501066207885742e-01
1.286000000000000000e+03 2.579018020629882812e+01 -2.998760223388671875e+01 6.712903827428817749e-02 1.666644774377346039e-02 2.513864636421203613e-02 -5.315804481506347656e-02
1.287000000000000000e+03 6.203329849243164062e+01 2.495452880859375000e+01 8.799720555543899536e-03 8.076173663139343262e-01 2.449251264333724976e-01 -1.359272897243499756e-01
1.288000000000000000e+03 1.434138679504394531e+01 -1.227964115142822266e+01 7.323392629623413086e-01 1.134819269180297852e+00 5.601475834846496582e-01 3.082658946514129639e-01
1.289000000000000000e+03 2.458420944213867188e+01 -1.006974029541015625e+01 1.485530734062194824e+00 2.402520775794982910e-01 5.177348256111145020e-01 7.047890424728393555e-01
1.290000000000000000e+03 1.824246215820312500e+01 -9.726943016052246094e+00 8.681828379631042480e-01 5.490197539329528809e-01 4.251607954502105713e-01 3.848873078823089600e-01
1.291000000000000000e+03 2.521752929687500000e+01 -7.164501667022705078e+00 8.066047430038452148e-01 -2.081884145736694336e-01 1.795248985290527344e-01 2.881644666194915771e-01
1.292000000000000000e+03 2.676233291625976562e+01 -8.712732315063476562e+00 2.343363761901855469e+00 6.123794317245483398e-01 8.867229819297790527e-01 1.089899063110351562e+00
1.293000000000000000e+03 3.332076644897460938e+01 -2.839157867431640625e+01 -2.725484222173690796e-02 1.736367470584809780e-03 -7.655542343854904175e-03 -5.932472180575132370e-03
1.294000000000000000e+03 2.338419914245605469e+01 -1.057894802093505859e+01 1.453254103660583496e+00 1.123304814100265503e-01 4.696753919124603271e-01 5.168426632881164551e-01
1.295000000000000000e+03 2.062886619567871094e+01 -9.976007461547851562e+00 1.296376228332519531e+00 1.061266660690307617e-01 4.207508563995361328e-01 3.960327804088592529e-01
1.296000000000000000e+03 2.081361770629882812e+01 -1.124914646148681641e+01 1.500401973724365234e+00 2.537577785551548004e-02 4.577333033084869385e-01 3.374602198600769043e-01
1.297000000000000000e+03 3.630431365966796875e+01 -1.493260478973388672e+01 1.264539023395627737e-04 8.980877464637160301e-05 6.487880455097183585e-05 -5.606554259429685771e-05
1.298000000000000000e+03 3.552698135375976562e+01 -1.682542991638183594e+01 4.229782498441636562e-04 3.973772109020501375e-04 2.461066469550132751e-04 -4.222209463478066027e-05
1.299000000000000000e+03 1.881934547424316406e+01 -2.861082267761230469e+01 1.947445422410964966e-01 4.957722723484039307e-01 2.071550339460372925e-01 -2.973726093769073486e-01
1.300000000000000000e+03 3.580907821655273438e+01 -1.576874732971191406e+01 -2.112984802806749940e-04 1.265167811652645469e-04 -2.543450682424008846e-05 3.152303106617182493e-04
1.301000000000000000e+03 2.503589630126953125e+01 -8.530951499938964844e+00 1.565347194671630859e+00 -5.232570320367813110e-02 4.539064168930053711e-01 4.490893185138702393e-01
1.302000000000000000e+03 1.584386062622070312e+01 -2.541246414184570312e+01 2.534168660640716553e-01 8.826814889907836914e-01 3.408295214176177979e-01 -4.036441743373870850e-01
1.303000000000000000e+03 3.672697067260742188e+01 -1.844451332092285156e+01 3.467925125733017921e-04 7.263300358317792416e-05 1.258276461157947779e-04 1.796093856683000922e-04
1.304000000000000000e+03 2.460077095031738281e+01 -3.193658447265625000e+01 4.564978182315826416e-02 1.498757600784301758e-01 5.865766480565071106e-02 -1.532725244760513306e-01
1.305000000000000000e+03 2.615999984741210938e+01 -3.191250610351562500e+01 6.963995099067687988e-02 7.066807150840759277e-02 4.209240525960922241e-02 -1.165520921349525452e-01
1.306000000000000000e+03 3.659754180908203125e+01 -2.117348480224609375e+01 -4.565900890156626701e-04 -4.292143858037889004e-04 -2.657413424458354712e-04 -9.263473912142217159e-04
1.307000000000000000e+03 5.470272827148437500e+01 -6.845800876617431641e+00 7.132555246353149414e-01 5.089905261993408203e-01 3.666738271713256836e-01 1.804582327604293823e-01
1.308000000000000000e+03 5.452035140991210938e+01 -4.861230850219726562e+00 1.497198462486267090e+00 6.786076426506042480e-01 6.527418494224548340e-01 7.460142970085144043e-01
1.309000000000000000e+03 7.928070831298828125e+01 3.755886077880859375e+01 4.844760056585073471e-03 -5.123651623725891113e-01 -1.522561311721801758e-01 1.957360096275806427e-02
1.310000000000000000e+03 7.713262176513671875e+01 3.488721466064453125e+01 -1.225200947374105453e-02 -4.962415695190429688e-01 -1.525480747222900391e-01 8.101963996887207031e-02
1.311000000000000000e+03 7.916268920898437500e+01 3.062172126770019531e+01 3.112496808171272278e-03 -7.638711333274841309e-01 -2.282275855541229248e-01 4.051119834184646606e-02
1.312000000000000000e+03 7.727228546142578125e+01 2.807120704650878906e+01 -1.349437329918146133e-02 -7.074323296546936035e-01 -2.162780016660690308e-01 1.323990225791931152e-01
1.313000000000000000e+03 7.823791503906250000e+01 -9.909778594970703125e+00 -1.331952027976512909e-02 -1.053183674812316895e-01 -3.559136763215065002e-02 -7.242228835821151733e-02
1.314000000000000000e+03 7.822982788085937500e+01 -8.564479827880859375e+00 -2.125533111393451691e-02 -1.639264672994613647e-01 -5.555453896522521973e-02 -9.900165349245071411e-02
1.315000000000000000e+03 7.940828704833984375e+01 -7.253359794616699219e+00 -6.549386773258447647e-03 -2.360077053308486938e-01 -7.276713103055953979e-02 -4.183067753911018372e-02
1.316000000000000000e+03 7.936406707763671875e+01 5.326273918151855469e+00 4.329753108322620392e-03 -1.279401659965515137e+00 -3.825215697288513184e-01 -3.779640048742294312e-02
1.317000000000000000e+03 7.936479187011718750e+01 1.237046623229980469e+01 4.399355035275220871e-03 -1.538277029991149902e+00 -4.601632952690124512e-01 -3.972277510911226273e-03
1.318000000000000000e+03 7.808155059814453125e+01 1.240568351745605469e+01 1.726177148520946503e-02 -1.265754699707031250e+00 -3.745478689670562744e-01 -1.581452041864395142e-02
1.319000000000000000e+03 7.937463378906250000e+01 1.377597236633300781e+01 1.228312379680573940e-03 -1.543455719947814941e+00 -4.626682400703430176e-01 2.416907344013452530e-03
1.320000000000000000e+03 7.932955169677734375e+01 1.938630294799804688e+01 2.045878442004323006e-03 -1.402860879898071289e+00 -4.202444851398468018e-01 3.314933925867080688e-02
1.321000000000000000e+03 7.923806762695312500e+01 2.360685348510742188e+01 2.588969655334949493e-03 -1.171219587326049805e+00 -3.505891859531402588e-01 4.798931255936622620e-02
1.322000000000000000e+03 7.919136047363281250e+01 2.502990722656250000e+01 3.000329597853124142e-04 -1.084012746810913086e+00 -3.251138031482696533e-01 5.079207196831703186e-02
1.323000000000000000e+03 7.914496612548828125e+01 2.645607376098632812e+01 1.731271739117801189e-03 -9.976213574409484863e-01 -2.987670302391052246e-01 5.234143137931823730e-02
1.324000000000000000e+03 7.913927459716796875e+01 3.199500846862792969e+01 -4.204666242003440857e-03 -6.954026818275451660e-01 -2.098822146654129028e-01 3.973232582211494446e-02
1.325000000000000000e+03 7.907095336914062500e+01 3.339081954956054688e+01 -1.552516710944473743e-03 -6.371478438377380371e-01 -1.916100978851318359e-01 3.527750819921493530e-02
1.326000000000000000e+03 7.918760681152343750e+01 3.876060867309570312e+01 -5.290850531309843063e-03 -4.710029661655426025e-01 -1.428881436586380005e-01 1.749105565249919891e-02
1.327000000000000000e+03 7.816952514648437500e+01 -1.729001522064208984e+00 5.446095950901508331e-03 -6.226330995559692383e-01 -1.851560920476913452e-01 -1.568801999092102051e-01
1.328000000000000000e+03 7.937683105468750000e+01 1.112119674682617188e+00 -9.964973432943224907e-04 -9.675714373588562012e-01 -2.905703783035278320e-01 -5.139382928609848022e-02
1.329000000000000000e+03 7.935251617431640625e+01 8.142008781433105469e+00 4.043755587190389633e-03 -1.426094412803649902e+00 -4.266152083873748779e-01 -2.558008022606372833e-02
1.330000000000000000e+03 7.796575164794921875e+01 1.940140914916992188e+01 1.559826731681823730e-02 -1.148816227912902832e+00 -3.399654030799865723e-01 7.983596622943878174e-02
1.331000000000000000e+03 7.930185699462890625e+01 2.078919410705566406e+01 1.822628430090844631e-03 -1.332892060279846191e+00 -3.993208110332489014e-01 3.706039860844612122e-02
1.332000000000000000e+03 7.812053680419921875e+01 1.521317481994628906e+01 1.208817586302757263e-02 -1.266022920608520508e+00 -3.761804103851318359e-01 2.473646961152553558e-02
1.333000000000000000e+03 7.937077331542968750e+01 1.657909584045410156e+01 -1.020306255668401718e-03 -1.503332734107971191e+00 -4.513059258460998535e-01 1.720327883958816528e-02
1.334000000000000000e+03 7.805941009521484375e+01 8.114000320434570312e+00 1.332453638315200806e-02 -1.172122240066528320e+00 -3.476393222808837891e-01 -7.497949153184890747e-02
1.335000000000000000e+03 7.934990692138671875e+01 9.552081108093261719e+00 2.230942016467452049e-03 -1.478180766105651855e+00 -4.427849352359771729e-01 -1.894574798643589020e-02
1.336000000000000000e+03 7.814414215087890625e+01 1.053776383399963379e+00 9.829105809330940247e-03 -8.177952766418457031e-01 -2.423898428678512573e-01 -1.465229839086532593e-01
1.337000000000000000e+03 7.937309265136718750e+01 2.514310836791992188e+00 4.418063908815383911e-03 -1.082106232643127441e+00 -3.233064413070678711e-01 -4.742258042097091675e-02
1.338000000000000000e+03 7.820362854003906250e+01 -5.851834774017333984e+00 -1.374257076531648636e-02 -3.259808123111724854e-01 -1.019170135259628296e-01 -1.382559984922409058e-01
1.339000000000000000e+03 7.939766693115234375e+01 -4.474928379058837891e+00 -4.655522294342517853e-03 -4.628329575061798096e-01 -1.402465403079986572e-01 -5.258381739258766174e-02
1.340000000000000000e+03 7.747599792480468750e+01 -1.323272800445556641e+01 -2.929324284195899963e-02 -2.311313897371292114e-02 -1.572191342711448669e-02 -2.882739342749118805e-02
1.341000000000000000e+03 7.949288940429687500e+01 -1.291041088104248047e+01 -4.223320633172988892e-03 -2.277032472193241119e-03 -1.950106001459062099e-03 -6.686619948595762253e-03
1.342000000000000000e+03 5.257654190063476562e+01 -7.189412117004394531e+00 9.053564071655273438e-01 7.638722658157348633e-01 5.007686018943786621e-01 2.552847564220428467e-01
1.343000000000000000e+03 4.129775619506835938e+01 -2.283943891525268555e+00 3.636202216148376465e-01 1.563479453325271606e-01 1.559904515743255615e-01 -2.294437885284423828e-01
1.344000000000000000e+03 4.048299026489257812e+01 -3.960584402084350586e+00 4.944588243961334229e-01 -1.163340508937835693e-01 1.134374290704727173e-01 2.449709735810756683e-02
1.345000000000000000e+03 6.407032012939453125e+01 1.814495086669921875e+01 4.205983877182006836e-01 1.384112596511840820e+00 5.414133071899414062e-01 -1.883391141891479492e-01
1.346000000000000000e+03 4.659307861328125000e+01 -6.256703376770019531e+00 1.083074212074279785e+00 4.930476099252700806e-02 3.397136926651000977e-01 1.336620599031448364e-01
1.347000000000000000e+03 2.157079935073852539e+00 2.630339050292968750e+01 6.041115557309240103e-05 -8.389919530600309372e-04 -2.335742465220391750e-04 7.065529352985322475e-04
1.348000000000000000e+03 6.478409767150878906e-01 3.191781616210937500e+01 -1.617406378500163555e-04 -3.046023426577448845e-03 -9.623292135074734688e-04 3.096943255513906479e-04
1.349000000000000000e+03 2.585268497467041016e+00 3.480876159667968750e+01 2.919324615504592657e-04 -4.277406260371208191e-03 -1.195642049424350262e-03 9.811329655349254608e-04
1.350000000000000000e+03 3.468940258026123047e+00 3.903942871093750000e+01 3.539085737429559231e-04 -5.191972944885492325e-03 -1.451419317163527012e-03 7.020267075859010220e-04
1.351000000000000000e+03 1.009438991546630859e+00 3.864124298095703125e+01 8.349918061867356300e-05 -5.598361603915691376e-03 -1.654458697885274887e-03 1.524330873508006334e-04
1.352000000000000000e+03 1.972478270530700684e+00 2.339698410034179688e+01 9.209840209223330021e-05 -1.603355922270566225e-04 -2.047115776804275811e-05 3.419119457248598337e-04
1.353000000000000000e+03 2.042986631393432617e+00 3.061236190795898438e+01 -1.663779694354161620e-04 -2.420581644400954247e-03 -7.760879234410822392e-04 9.411106002517044544e-04
1.354000000000000000e+03 2.559745073318481445e+00 -3.801882171630859375e+01 -6.482304539531469345e-03 -4.078586101531982422e-01 -1.243022754788398743e-01 7.164542376995086670e-02
1.355000000000000000e+03 7.744459509849548340e-01 -3.041010284423828125e+01 -3.644071519374847412e-03 -8.543887734413146973e-01 -2.574098408222198486e-01 5.029404535889625549e-02
1.356000000000000000e+03 2.596679687500000000e+00 -2.729936027526855469e+01 -1.397997722961008549e-03 -7.672563195228576660e-01 -2.305962890386581421e-01 1.637631952762603760e-01
1.357000000000000000e+03 1.833895444869995117e+00 4.978634834289550781e+00 -5.465253343572840095e-05 -6.626069534831913188e-06 -1.838358002714812756e-05 -6.097334335208870471e-06
1.358000000000000000e+03 2.457035541534423828e+00 -4.141004562377929688e+00 -6.145657226443290710e-02 -1.833794116973876953e-01 -7.345079630613327026e-02 -2.097309231758117676e-01
1.359000000000000000e+03 5.918279290199279785e-01 -1.069475746154785156e+01 3.116622800007462502e-03 -1.006723761558532715e+00 -3.010821342468261719e-01 -7.214969396591186523e-02
1.360000000000000000e+03 1.773196339607238770e+00 -9.376696586608886719e+00 8.148191496729850769e-03 -6.873953938484191895e-01 -2.037741541862487793e-01 -2.179461717605590820e-01
1.361000000000000000e+03 6.098421812057495117e-01 -1.348472690582275391e+01 4.844956099987030029e-03 -1.310796976089477539e+00 -3.917856216430664062e-01 -5.267732590436935425e-02
1.362000000000000000e+03 6.307913661003112793e-01 -1.769964218139648438e+01 7.939514704048633575e-03 -1.534211874008178711e+00 -4.578816890716552734e-01 -8.399492129683494568e-03
1.363000000000000000e+03 1.879207253456115723e+00 -1.617947959899902344e+01 3.356869146227836609e-02 -1.158994317054748535e+00 -3.376276791095733643e-01 -7.421604543924331665e-02
1.364000000000000000e+03 6.254788637161254883e-01 -2.050965499877929688e+01 4.323911387473344803e-03 -1.506527900695800781e+00 -4.506612122058868408e-01 2.013260312378406525e-02
1.365000000000000000e+03 1.901259899139404297e+00 -1.757370567321777344e+01 3.547149524092674255e-02 -1.185603857040405273e+00 -3.450397253036499023e-01 -2.966587617993354797e-02
1.366000000000000000e+03 6.327595114707946777e-01 -2.329988288879394531e+01 6.937937811017036438e-03 -1.361545443534851074e+00 -4.063822329044342041e-01 4.477688670158386230e-02
1.367000000000000000e+03 2.438952445983886719e+00 -2.577920150756835938e+01 9.478909894824028015e-03 -8.599609136581420898e-01 -2.551445960998535156e-01 1.588301360607147217e-01
1.368000000000000000e+03 2.281887531280517578e+00 -3.305453109741210938e+01 -1.631279103457927704e-02 -5.670165419578552246e-01 -1.749988049268722534e-01 1.055840328335762024e-01
1.369000000000000000e+03 2.190695524215698242e+00 -3.576350402832031250e+01 -1.185013167560100555e-02 -4.821046292781829834e-01 -1.481864303350448608e-01 8.370757848024368286e-02
1.370000000000000000e+03 1.877704143524169922e+00 2.198908615112304688e+01 -3.182885993737727404e-04 7.082729280227795243e-05 -7.423839269904419780e-05 1.469015405746176839e-04
1.371000000000000000e+03 6.106129884719848633e-01 1.918484497070312500e+01 1.956972992047667503e-04 4.646729503292590380e-04 1.981110690394416451e-04 -1.284701920667430386e-05
1.372000000000000000e+03 6.298371553421020508e-01 1.777493095397949219e+01 -1.927768025780096650e-04 4.177183436695486307e-04 6.748246232746168971e-05 -2.869858508347533643e-05
1.373000000000000000e+03 7.172824144363403320e-01 1.492018318176269531e+01 -1.391224213875830173e-04 2.681215701159089804e-04 3.869974898407235742e-05 -2.722289900702890009e-05
1.374000000000000000e+03 6.048485636711120605e-01 1.064714527130126953e+01 1.247058535227552056e-04 9.290383604820817709e-05 6.528291123686358333e-05 -2.818327448039781302e-05
1.375000000000000000e+03 5.847975611686706543e-01 7.845625400543212891e+00 8.568776684114709496e-05 3.821514837909489870e-05 3.717087383847683668e-05 -2.150034197256900370e-05
1.376000000000000000e+03 2.171458005905151367e+00 1.338806247711181641e+01 -1.377453590976074338e-04 9.579778998158872128e-05 -1.258427164430031553e-05 -6.241601658985018730e-05
1.377000000000000000e+03 3.497859954833984375e+00 -3.902561950683593750e+01 -2.138893119990825653e-02 -3.815313577651977539e-01 -1.208760887384414673e-01 5.843637138605117798e-02
1.378000000000000000e+03 2.302175521850585938e+00 -3.169720077514648438e+01 -1.301264856010675430e-02 -6.100342869758605957e-01 -1.869140863418579102e-01 1.236858144402503967e-01
1.379000000000000000e+03 2.071296930313110352e+00 -2.438572311401367188e+01 7.990392856299877167e-03 -1.002417683601379395e+00 -2.983281910419464111e-01 1.232938244938850403e-01
1.380000000000000000e+03 7.014114260673522949e-01 -2.470701408386230469e+01 2.512121107429265976e-03 -1.254245638847351074e+00 -3.755200505256652832e-01 5.427927896380424500e-02
1.381000000000000000e+03 1.858605861663818359e+00 -1.479341220855712891e+01 3.093284182250499725e-02 -1.106615424156188965e+00 -3.227047622203826904e-01 -1.151964217424392700e-01
1.382000000000000000e+03 6.175981760025024414e-01 -1.488674163818359375e+01 6.914348807185888290e-03 -1.419951915740966797e+00 -4.239112734794616699e-01 -3.919950500130653381e-02
1.383000000000000000e+03 3.103490114212036133e+00 -7.107095241546630859e+00 -2.075606212019920349e-02 -3.712989985942840576e-01 -1.176165193319320679e-01 -3.354492783546447754e-01
1.384000000000000000e+03 6.057544946670532227e-01 -7.905710697174072266e+00 4.533864557743072510e-03 -6.267699003219604492e-01 -1.866708248853683472e-01 -8.453562855720520020e-02
1.385000000000000000e+03 1.338986873626708984e+00 -3.396422147750854492e+00 -2.401790767908096313e-02 -1.419821679592132568e-01 -4.980002343654632568e-02 -9.589906781911849976e-02
1.386000000000000000e+03 4.316077423095703125e+01 -4.659096240997314453e+00 7.876975536346435547e-01 5.856594443321228027e-02 2.538790404796600342e-01 -9.629993140697479248e-02
1.387000000000000000e+03 6.238269424438476562e+01 4.128914356231689453e+00 4.048675894737243652e-01 1.077751874923706055e+00 4.447858631610870361e-01 3.323726058006286621e-01
1.388000000000000000e+03 6.160967254638671875e+01 5.465321063995361328e+00 4.618023931980133057e-01 1.543239116668701172e+00 6.015124917030334473e-01 5.531740784645080566e-01
1.389000000000000000e+03 5.634827423095703125e+01 -6.987609863281250000e-01 8.902912139892578125e-01 1.277342677116394043e+00 6.502901911735534668e-01 9.767869114875793457e-01
1.390000000000000000e+03 6.273901367187500000e+01 6.919975757598876953e+00 3.262319564819335938e-01 1.426225423812866211e+00 5.257372260093688965e-01 3.933714926242828369e-01
1.391000000000000000e+03 6.304273986816406250e+01 5.776807308197021484e+00 3.559150397777557373e-01 1.215971112251281738e+00 4.715658426284790039e-01 2.992539703845977783e-01
1.392000000000000000e+03 4.559690856933593750e+01 -5.675646305084228516e+00 1.147926926612854004e+00 5.748052615672349930e-03 3.461025059223175049e-01 -4.050824046134948730e-02
1.393000000000000000e+03 5.551710891723632812e+01 -3.781879186630249023e+00 1.080879449844360352e+00 8.113849163055419922e-01 5.676792860031127930e-01 8.295933008193969727e-01
1.394000000000000000e+03 5.899406814575195312e+01 6.916392445564270020e-01 5.915535688400268555e-01 9.680667519569396973e-01 4.678860902786254883e-01 7.169911265373229980e-01
1.395000000000000000e+03 6.607450103759765625e+01 1.580774211883544922e+01 3.322050571441650391e-01 1.038282871246337891e+00 4.111464023590087891e-01 -7.015492767095565796e-02
1.396000000000000000e+03 6.428729248046875000e+01 1.289205265045166016e+01 1.807505041360855103e-01 1.591700315475463867e+00 5.317352414131164551e-01 2.273151837289333344e-02
1.397000000000000000e+03 6.532905578613281250e+01 1.393256759643554688e+01 2.321326434612274170e-01 1.325157165527343750e+00 4.671869575977325439e-01 -2.098646387457847595e-02
1.398000000000000000e+03 6.133627700805664062e+01 1.939093232154846191e+00 4.343473017215728760e-01 9.071071743965148926e-01 4.024363458156585693e-01 4.011036753654479980e-01
1.399000000000000000e+03 3.370178985595703125e+01 3.148953437805175781e+00 -2.283161884406581521e-04 1.324535405728965998e-04 -2.875879545172210783e-05 -2.122865698765963316e-04
1.400000000000000000e+03 5.974615478515625000e+01 1.777140140533447266e+00 5.163221359252929688e-01 1.004768967628479004e+00 4.563273489475250244e-01 6.639619469642639160e-01
1.401000000000000000e+03 3.620446777343750000e+01 -2.438166046142578125e+01 -9.039308875799179077e-03 8.724312065169215202e-04 -2.450063358992338181e-03 -4.432618618011474609e-03
1.402000000000000000e+03 2.077522659301757812e+01 -3.066454696655273438e+01 8.591298758983612061e-02 3.791023194789886475e-01 1.395045816898345947e-01 -2.233603149652481079e-01
1.403000000000000000e+03 2.186123466491699219e+01 -3.151474761962890625e+01 7.712992280721664429e-02 3.170443177223205566e-01 1.182522773742675781e-01 -2.132628262042999268e-01
1.404000000000000000e+03 1.302251434326171875e+01 -2.003020668029785156e+01 4.280938506126403809e-01 1.679705977439880371e+00 6.323399543762207031e-01 -2.047938555479049683e-01
1.405000000000000000e+03 1.149767017364501953e+01 -1.891383552551269531e+01 4.805301725864410400e-01 1.111047625541687012e+00 4.774733483791351318e-01 1.089873071759939194e-02
1.406000000000000000e+03 6.493520355224609375e+01 -1.018607997894287109e+01 -7.388495206832885742e-01 -3.160667717456817627e-01 -3.164748847484588623e-01 -4.675388932228088379e-01
1.407000000000000000e+03 2.749539184570312500e+01 -3.058095216751098633e+00 -1.067321777343750000e+00 2.004079371690750122e-01 -2.600741386413574219e-01 -2.796652317047119141e-01
1.408000000000000000e+03 2.823882675170898438e+01 -2.809455156326293945e+00 -8.251322507858276367e-01 2.483359128236770630e-01 -1.730388998985290527e-01 -1.435060501098632812e-01
1.409000000000000000e+03 2.445739936828613281e+01 -3.586271107196807861e-01 -9.575970470905303955e-02 -1.030658930540084839e-01 -5.964767932891845703e-02 3.505518659949302673e-02
1.410000000000000000e+03 2.418608283996582031e+01 -9.816879630088806152e-01 -1.518193185329437256e-01 -2.410540431737899780e-01 -1.178620085120201111e-01 1.765969544649124146e-01
1.411000000000000000e+03 7.685121154785156250e+01 -1.936162948608398438e+01 -3.414083039388060570e-06 -4.922961807096726261e-07 -1.171913709185901098e-06 -2.252780177514068782e-06
1.412000000000000000e+03 7.617519378662109375e+01 -1.920953178405761719e+01 7.907098733994644135e-06 -6.286557436396833509e-06 4.861624347540782765e-07 -7.013392888666203362e-08
1.413000000000000000e+03 7.805772399902343750e+01 -1.368553924560546875e+01 -1.601537503302097321e-02 -1.310575101524591446e-02 -8.736337535083293915e-03 -1.489044167101383209e-02
1.414000000000000000e+03 2.333847618103027344e+01 -2.734362363815307617e+00 -1.123182773590087891e+00 -8.741763979196548462e-02 -3.631801307201385498e-01 6.661177277565002441e-01
1.415000000000000000e+03 7.285610961914062500e+01 -1.891876220703125000e+01 -1.749905436554399785e-06 -9.527407200948800892e-06 -3.383193643458071165e-06 2.032421889452962205e-06
1.416000000000000000e+03 7.416628265380859375e+01 -1.965597724914550781e+01 3.036129601241555065e-05 6.333339570119278505e-06 1.100839108403306454e-05 5.023368430556729436e-06
1.417000000000000000e+03 3.624231719970703125e+01 -2.978184461593627930e+00 1.439867615699768066e-01 -1.112040802836418152e-01 9.834802709519863129e-03 1.834202259778976440e-01
1.418000000000000000e+03 1.942276382446289062e+01 3.222112178802490234e+00 -2.202166979259345680e-05 -1.658498331380542368e-05 -1.158199575002072379e-05 4.389692549011670053e-06
1.419000000000000000e+03 1.711578750610351562e+01 3.579179286956787109e+00 -1.462320869904942811e-05 -4.867961979471147060e-05 -1.899084963952191174e-05 -3.594073132262565196e-05
1.420000000000000000e+03 2.706050491333007812e+01 -5.129257202148437500e+00 -8.154833912849426270e-01 1.559588611125946045e-01 -1.978573650121688843e-01 6.100779175758361816e-01
1.421000000000000000e+03 3.874782180786132812e+01 -2.319870233535766602e+00 2.600789964199066162e-01 -1.038007661700248718e-01 4.688347131013870239e-02 -1.235812233062461019e-04
1.422000000000000000e+03 4.031320953369140625e+01 -4.585352241992950439e-01 6.426420807838439941e-02 7.013568282127380371e-02 4.031996801495552063e-02 -6.613289564847946167e-02
1.423000000000000000e+03 7.695497131347656250e+01 -1.406312561035156250e+01 -2.150960639119148254e-02 -1.014234591275453568e-02 -9.495586156845092773e-03 -1.869762502610683441e-02
1.424000000000000000e+03 1.602765655517578125e+01 3.258322477340698242e+00 -4.682724920712644234e-06 -4.794464257429353893e-05 -1.578820956638082862e-05 1.203203828481491655e-05
1.425000000000000000e+03 1.540240859985351562e+01 3.300371170043945312e+00 3.177029066137038171e-05 3.498663863865658641e-05 2.002707879000809044e-05 -9.818683821549711865e-08
1.426000000000000000e+03 6.973343658447265625e+01 -1.393752002716064453e+01 -2.234938591718673706e-01 2.854272164404392242e-02 -5.848534032702445984e-02 2.963499864563345909e-03
1.427000000000000000e+03 3.648810577392578125e+01 -1.409012222290039062e+01 -5.376769695430994034e-05 -4.236907625454477966e-05 -2.884103196265641600e-05 1.658692926866933703e-04
1.428000000000000000e+03 2.007955932617187500e+01 3.376751899719238281e+00 2.139631760655902326e-05 2.001049324462655932e-05 1.242204234586097300e-05 2.573756319179665297e-06
1.429000000000000000e+03 2.037755203247070312e+01 4.427632331848144531e+00 4.620806794264353812e-05 1.242346479557454586e-05 1.758946018526330590e-05 9.222420885635074228e-06
1.430000000000000000e+03 7.105815124511718750e+01 -2.045857238769531250e+01 2.034721183008514345e-05 7.911903594504110515e-06 8.477734809275716543e-06 1.356427037535468116e-05
1.431000000000000000e+03 7.150672912597656250e+01 -1.967940902709960938e+01 2.357287849008571357e-05 -2.099327730320510454e-06 6.442065568990074098e-06 -2.446250391585635953e-06
1.432000000000000000e+03 3.720975494384765625e+01 -1.542668056488037109e+01 -9.855657845037057996e-05 -3.611157808336429298e-06 -3.065032069571316242e-05 2.928415487986057997e-04
1.433000000000000000e+03 4.000659179687500000e+01 -1.705630111694335938e+01 -9.466404299018904567e-05 -3.088924568146467209e-04 -1.210669506690464914e-04 6.800240225857123733e-05
1.434000000000000000e+03 1.402274417877197266e+01 2.592479944229125977e+00 -1.954508297785650939e-05 -3.490013841656036675e-05 -1.633356623642612249e-05 5.115750809636665508e-06
1.435000000000000000e+03 1.257537174224853516e+01 3.261745452880859375e+00 3.344055221532471478e-05 3.929930244339630008e-05 2.182195567002054304e-05 -1.527087221120382310e-07
1.436000000000000000e+03 1.740251541137695312e+01 2.854406118392944336e+00 1.914030508487485349e-05 3.833297887467779219e-05 1.724198409647215158e-05 2.448869963700417429e-05
1.437000000000000000e+03 1.806533432006835938e+01 2.993595361709594727e+00 -3.408553675399161875e-05 -1.686749419604893774e-05 -1.528590837551746517e-05 -1.625714503461495042e-05
1.438000000000000000e+03 1.919438552856445312e+01 3.957688808441162109e+00 2.782329829642549157e-05 1.762364627211354673e-05 1.363408318866277114e-05 -1.595297362655401230e-05
1.439000000000000000e+03 4.112341690063476562e+01 -1.797113609313964844e+01 -2.860962122213095427e-04 -3.392200451344251633e-04 -1.875948801171034575e-04 3.547549567883834243e-05
1.440000000000000000e+03 4.168660736083984375e+01 -1.838367271423339844e+01 -1.506979315308853984e-04 -2.500210539437830448e-04 -1.202157000079751015e-04 -1.029117192956618965e-04
1.441000000000000000e+03 3.454060745239257812e+01 4.114789009094238281e+00 -4.106613632757216692e-04 -7.442694186465814710e-05 -1.455264864489436150e-04 1.579155650688335299e-04
1.442000000000000000e+03 3.495615768432617188e+01 3.620352506637573242e+00 -5.416187923401594162e-05 1.320631854468956590e-04 2.337039222766179591e-05 -4.263104983692755923e-06
1.443000000000000000e+03 7.529650115966796875e+01 -1.966522598266601562e+01 2.406684143352322280e-05 -1.017823433357989416e-05 4.166582129982998595e-06 -1.397011237713741139e-05
1.444000000000000000e+03 3.779266357421875000e+01 5.742966175079345703e+00 7.242348510771989822e-04 1.288344210479408503e-04 2.559207787271589041e-04 -2.913023636210709810e-04
1.445000000000000000e+03 3.940945816040039062e+01 -1.664444160461425781e+01 2.656689321156591177e-04 -2.558926935307681561e-04 2.932873485406162217e-06 1.320624869549646974e-04
1.446000000000000000e+03 7.474144744873046875e+01 -1.956872177124023438e+01 5.256749702198248997e-08 -3.878029474435606971e-06 -1.147638613474555314e-06 5.023713583796052262e-06
1.447000000000000000e+03 4.320466232299804688e+01 -1.853566169738769531e+01 -2.988212509080767632e-04 -4.882744633505353704e-06 -9.111120016314089298e-05 -1.267033076146617532e-04
1.448000000000000000e+03 4.265240097045898438e+01 -1.808842658996582031e+01 -6.992758426349610090e-05 -1.471448922529816628e-04 -6.512174149975180626e-05 -1.476635516155511141e-04
1.449000000000000000e+03 4.056986618041992188e+01 -1.750492286682128906e+01 2.763102656899718568e-06 -3.028745413757860661e-04 -9.003342711366713047e-05 2.273044265166390687e-05
1.450000000000000000e+03 1.110186576843261719e+01 3.247656822204589844e+00 3.948994708480313420e-05 2.739607771218288690e-05 2.006580689339898527e-05 -2.551307943576830439e-06
1.451000000000000000e+03 1.329515361785888672e+01 3.270206212997436523e+00 -1.953598439285997301e-05 -4.027980321552604437e-05 -1.794473610061686486e-05 1.190561488328967243e-05
1.452000000000000000e+03 3.378601837158203125e+01 2.569302797317504883e+00 3.420085704419761896e-05 -1.257216499652713537e-04 -2.745623896771576256e-05 1.497759658377617598e-04
1.453000000000000000e+03 8.129868507385253906e+00 3.284039735794067383e+00 4.254578016116283834e-05 1.617435191292315722e-05 1.761603925842791796e-05 -1.189800332213053480e-05
1.454000000000000000e+03 1.074917221069335938e+01 -4.103332042694091797e+00 -4.670449197292327881e-01 6.604959070682525635e-02 -1.202986016869544983e-01 -3.732567727565765381e-01
1.455000000000000000e+03 9.889187812805175781e+00 -3.348468303680419922e+00 -5.281711220741271973e-01 2.575276419520378113e-02 -1.507254987955093384e-01 -3.565624654293060303e-01
1.456000000000000000e+03 3.460219573974609375e+01 -7.235110759735107422e+00 9.791431576013565063e-02 -2.256369292736053467e-01 -3.831678256392478943e-02 3.647081255912780762e-01
1.457000000000000000e+03 2.263184928894042969e+01 -8.368101119995117188e+00 9.606876373291015625e-01 -1.173997148871421814e-01 2.529863715171813965e-01 1.907767504453659058e-01
1.458000000000000000e+03 2.406784629821777344e+01 -6.843875408172607422e+00 4.724417328834533691e-01 -3.322379589080810547e-01 4.206113144755363464e-02 2.980408817529678345e-02
1.459000000000000000e+03 4.611858749389648438e+01 -1.278173160552978516e+01 -7.836056947708129883e-01 2.511699199676513672e-01 -1.597307473421096802e-01 3.804631829261779785e-01
1.460000000000000000e+03 4.543974304199218750e+01 -1.243893241882324219e+01 -7.101104259490966797e-01 1.897962242364883423e-01 -1.560942530632019043e-01 3.948435187339782715e-01
1.461000000000000000e+03 4.686705398559570312e+01 -1.304953289031982422e+01 -8.799151182174682617e-01 2.526390552520751953e-01 -1.881828308105468750e-01 3.838400840759277344e-01
1.462000000000000000e+03 7.509464263916015625e+01 -1.305297756195068359e+01 -8.742430061101913452e-02 -1.308133173733949661e-02 -3.015168942511081696e-02 -6.433292478322982788e-02
1.463000000000000000e+03 7.439939117431640625e+01 -1.295523357391357422e+01 -1.063912436366081238e-01 -7.118713576346635818e-03 -3.405298665165901184e-02 -6.695058196783065796e-02
1.464000000000000000e+03 7.632368469238281250e+01 -1.255586147308349609e+01 -4.475378617644309998e-02 -3.361774608492851257e-02 -2.351145818829536438e-02 -5.537232756614685059e-02
1.465000000000000000e+03 7.569474792480468750e+01 -1.294958019256591797e+01 -7.361544668674468994e-02 -2.568056061863899231e-02 -2.978880330920219421e-02 -6.052084267139434814e-02
1.466000000000000000e+03 1.444841861724853516e+01 -3.225559711456298828e+00 -7.371319532394409180e-01 1.047295108437538147e-01 -1.897207349538803101e-01 -1.465649753808975220e-01
1.467000000000000000e+03 9.024005889892578125e+00 -2.604673385620117188e+00 -5.620663762092590332e-01 3.733969759196043015e-03 -1.674997210502624512e-01 -3.130700290203094482e-01
1.468000000000000000e+03 1.064712524414062500e+01 -3.346416711807250977e+00 -5.718528032302856445e-01 4.245622456073760986e-02 -1.588189601898193359e-01 -3.385815918445587158e-01
1.469000000000000000e+03 7.385858535766601562e+00 3.321454763412475586e+00 -1.360784062853781506e-05 -2.416099596302956343e-05 -1.133065143221756443e-05 1.174143562820972875e-05
1.470000000000000000e+03 8.875983238220214844e+00 3.258945226669311523e+00 -1.309535218751989305e-05 -2.834952101693488657e-05 -1.243346196133643389e-05 1.284296831727260724e-05
1.471000000000000000e+03 5.132279396057128906e+00 3.558884620666503906e+00 3.698009459185414016e-05 1.159778003056999296e-05 1.457336202292935923e-05 -1.800466270651668310e-05
1.472000000000000000e+03 2.839236974716186523e+00 4.889346122741699219e+00 1.469006519982940517e-06 4.804500713362358510e-05 1.485420398239511997e-05 -2.494659202056936920e-05
1.473000000000000000e+03 5.281824111938476562e+00 4.354220390319824219e+00 -1.813341077649965882e-05 -9.425780262972693890e-06 -8.267757038993295282e-06 -3.742385388250113465e-06
1.474000000000000000e+03 6.645735740661621094e+00 3.376837253570556641e+00 4.657491081161424518e-05 9.463880815019365400e-06 1.681163666944485158e-05 -1.766343120834790170e-05
1.475000000000000000e+03 6.761044025421142578e+00 4.133297920227050781e+00 -2.285759364895056933e-05 -1.983220863621681929e-05 -1.280694050365127623e-05 1.496594359196024016e-05
1.476000000000000000e+03 1.035943412780761719e+01 3.242698907852172852e+00 -1.671715108386706561e-05 -3.023128556378651410e-05 -1.408453135809395462e-05 1.555203743919264525e-05
1.477000000000000000e+03 9.618871688842773438e+00 3.245245933532714844e+00 4.268987322575412691e-05 2.099109042319469154e-05 1.910428909468464553e-05 -5.608514584309887141e-06
1.478000000000000000e+03 6.912437915802001953e+00 -3.338563442230224609e+00 -3.363440334796905518e-01 -3.693329170346260071e-02 -1.119832023978233337e-01 -3.545118272304534912e-01
1.479000000000000000e+03 5.254977703094482422e+00 -2.700623035430908203e+00 -2.545178830623626709e-01 -5.200650915503501892e-02 -9.195732325315475464e-02 -2.695769369602203369e-01
1.480000000000000000e+03 3.743175506591796875e+00 -2.902486324310302734e+00 -1.490315496921539307e-01 -8.455950766801834106e-02 -7.007731497287750244e-02 -2.185914963483810425e-01
1.481000000000000000e+03 6.358572006225585938e+00 -4.071477890014648438e+00 -2.529283463954925537e-01 -6.693412363529205322e-02 -9.595873951911926270e-02 -3.861819207668304443e-01
1.482000000000000000e+03 2.968427896499633789e+00 -3.014604568481445312e+00 -1.065388321876525879e-01 -1.034344211220741272e-01 -6.299197673797607422e-02 -1.904945373535156250e-01
1.483000000000000000e+03 4.407588481903076172e+00 -4.682504177093505859e+00 -1.258526444435119629e-01 -1.575552523136138916e-01 -8.502236753702163696e-02 -3.386521339416503906e-01
1.484000000000000000e+03 7.048231124877929688e+00 -4.057413101196289062e+00 -2.891965210437774658e-01 -4.534162580966949463e-02 -1.003614515066146851e-01 -4.003334641456604004e-01
1.485000000000000000e+03 8.384256362915039062e+00 -3.335610151290893555e+00 -4.344275593757629395e-01 -5.556570831686258316e-03 -1.319952309131622314e-01 -3.681761920452117920e-01
1.486000000000000000e+03 4.456837844848632812e+01 -1.087592124938964844e+01 -3.727254271507263184e-01 7.015785574913024902e-02 -9.077027440071105957e-02 3.962523937225341797e-01
1.487000000000000000e+03 4.391597747802734375e+01 -1.043790435791015625e+01 -2.841770052909851074e-01 1.928354846313595772e-03 -8.467459678649902344e-02 3.701566755771636963e-01
1.488000000000000000e+03 4.350395965576171875e+01 -1.119606018066406250e+01 -4.573105275630950928e-01 -4.596965759992599487e-02 -1.509840637445449829e-01 3.916529119014739990e-01
1.489000000000000000e+03 4.111432647705078125e+01 -1.063029193878173828e+01 -4.218802452087402344e-01 -2.817844450473785400e-01 -2.110994160175323486e-01 4.071366190910339355e-01
1.490000000000000000e+03 7.603510284423828125e+01 -2.056795883178710938e+01 6.441037839977070689e-06 -2.391131602053064853e-05 -5.241083727014483884e-06 -2.250595753139350563e-05
1.491000000000000000e+03 3.732630920410156250e+01 -1.750978469848632812e+00 1.547780632972717285e-01 -7.610196620225906372e-02 2.360283024609088898e-02 4.638869315385818481e-02
1.492000000000000000e+03 3.724869155883789062e+01 -1.056722521781921387e+00 1.232527494430541992e-01 -4.496270790696144104e-02 2.348701283335685730e-02 1.749656535685062408e-02
1.493000000000000000e+03 4.479508209228515625e+01 -1.204196262359619141e+01 -6.113182306289672852e-01 1.108810454607009888e-01 -1.501311510801315308e-01 4.006156623363494873e-01
1.494000000000000000e+03 4.415547943115234375e+01 -1.162247180938720703e+01 -5.361724495887756348e-01 3.903961181640625000e-02 -1.491398513317108154e-01 3.867098987102508545e-01
1.495000000000000000e+03 1.744802284240722656e+01 -3.067413568496704102e+00 -8.062515854835510254e-01 1.891880631446838379e-01 -1.851190626621246338e-01 8.985265344381332397e-02
1.496000000000000000e+03 1.817965888977050781e+01 -2.984461307525634766e+00 -8.249370455741882324e-01 2.072180360555648804e-01 -1.853156983852386475e-01 1.478334218263626099e-01
1.497000000000000000e+03 2.609911537170410156e+01 -5.613236427307128906e+00 -3.375718593597412109e-01 -4.307046532630920410e-01 -2.304829508066177368e-01 4.816674888134002686e-01
1.498000000000000000e+03 1.216384696960449219e+01 -3.325835943222045898e+00 -6.516652703285217285e-01 7.048343122005462646e-02 -1.743545681238174438e-01 -2.799701690673828125e-01
1.499000000000000000e+03 1.292805957794189453e+01 -3.303459405899047852e+00 -6.866543889045715332e-01 8.100752532482147217e-02 -1.816940605640411377e-01 -2.402040958404541016e-01
1.500000000000000000e+03 3.378431701660156250e+01 -5.884715080261230469e+00 1.520019322633743286e-01 -1.506615728139877319e-01 4.021109489258378744e-04 4.274514615535736084e-01
1.501000000000000000e+03 7.199577331542968750e+01 -1.300985527038574219e+01 -1.940496414899826050e-01 1.858445070683956146e-02 -5.263955518603324890e-02 -7.559689879417419434e-02
1.502000000000000000e+03 7.279492950439453125e+01 -1.290945911407470703e+01 -1.699995994567871094e-01 1.970286108553409576e-02 -4.508902132511138916e-02 -7.177689671516418457e-02
1.503000000000000000e+03 7.122689819335937500e+01 -1.306673145294189453e+01 -2.349087446928024292e-01 4.408381879329681396e-02 -5.724747851490974426e-02 -6.016564741730690002e-02
1.504000000000000000e+03 3.962604141235351562e+01 -8.704098701477050781e+00 -4.248956963419914246e-02 -3.248570859432220459e-01 -1.102039963006973267e-01 3.502157330513000488e-01
1.505000000000000000e+03 4.105682373046875000e+01 -8.628471374511718750e+00 3.911410272121429443e-02 -2.467158585786819458e-01 -6.228052452206611633e-02 3.204698562622070312e-01
1.506000000000000000e+03 1.520489788055419922e+01 -3.185952186584472656e+00 -7.609974741935729980e-01 1.297845840454101562e-01 -1.893638670444488525e-01 -9.437938034534454346e-02
1.507000000000000000e+03 7.043734741210937500e+01 -1.306216144561767578e+01 -2.782721817493438721e-01 4.391141608357429504e-02 -7.030823081731796265e-02 -5.292835831642150879e-02
1.508000000000000000e+03 3.853724670410156250e+01 -8.145546913146972656e+00 3.162949532270431519e-02 -3.419957458972930908e-01 -9.310987591743469238e-02 3.490929603576660156e-01
1.509000000000000000e+03 3.597620010375976562e+01 -7.824076652526855469e+00 1.130702067166566849e-02 -2.745200395584106445e-01 -7.896389812231063843e-02 3.557753860950469971e-01
1.510000000000000000e+03 3.179848289489746094e+01 -7.293143749237060547e+00 3.915308117866516113e-01 -1.053094565868377686e-01 8.586641401052474976e-02 4.258998930454254150e-01
1.511000000000000000e+03 2.901373291015625000e+01 -6.544186115264892578e+00 3.589477539062500000e-01 4.526322484016418457e-01 2.434740066528320312e-01 7.712108492851257324e-01
1.512000000000000000e+03 3.793870162963867188e+01 3.893983364105224609e+00 1.690355857135728002e-04 -6.004150782246142626e-05 3.269822263973765075e-05 -1.229597692145034671e-04
1.513000000000000000e+03 3.658208847045898438e+01 5.170911788940429688e+00 7.762882742099463940e-04 -1.248006446985527873e-04 1.954462932189926505e-04 7.459810603904770687e-06
1.514000000000000000e+03 7.361457061767578125e+01 -1.288268852233886719e+01 -1.380490958690643311e-01 6.865264731459319592e-04 -4.120877012610435486e-02 -8.171032369136810303e-02
1.515000000000000000e+03 1.890064048767089844e+01 -2.893929004669189453e+00 -8.451791405677795410e-01 2.312376797199249268e-01 -1.841824352741241455e-01 2.024384140968322754e-01
1.516000000000000000e+03 1.888714981079101562e+01 -2.171141147613525391e+00 -9.243131875991821289e-01 1.719604581594467163e-01 -2.257058173418045044e-01 2.007909715175628662e-01
1.517000000000000000e+03 3.324284744262695312e+01 -6.325014114379882812e+00 1.808456480503082275e-01 -1.450973451137542725e-01 1.072449237108230591e-02 4.387347102165222168e-01
1.518000000000000000e+03 3.219619369506835938e+01 -6.162576675415039062e+00 2.082879841327667236e-01 -5.167413875460624695e-02 4.698415473103523254e-02 5.171211361885070801e-01
1.519000000000000000e+03 4.216003417968750000e+01 -1.030749034881591797e+01 -3.055443167686462402e-01 -1.814135015010833740e-01 -1.460873484611511230e-01 3.763913214206695557e-01
1.520000000000000000e+03 7.217575836181640625e+01 -1.971240425109863281e+01 -7.111778813850833103e-06 -1.414753387507516891e-05 -6.377793852152535692e-06 -6.456617484218440950e-06
1.521000000000000000e+03 3.530358505249023438e+01 -7.549760341644287109e+00 6.184234097599983215e-02 -2.482262700796127319e-01 -5.591518059372901917e-02 3.559954762458801270e-01
1.522000000000000000e+03 2.926616477966308594e+01 -3.649847745895385742e+00 -6.623079776763916016e-01 3.895660638809204102e-01 -8.182257413864135742e-02 2.375739365816116333e-01
1.523000000000000000e+03 2.897494125366210938e+01 -2.528623104095458984e+00 -6.360991597175598145e-01 2.177023738622665405e-01 -1.255190372467041016e-01 -6.174048036336898804e-02
1.524000000000000000e+03 3.663415908813476562e+01 -8.021385192871093750e+00 -1.197460573166608810e-02 -2.967157363891601562e-01 -9.260710328817367554e-02 3.658401966094970703e-01
1.525000000000000000e+03 3.496454238891601562e+01 -6.623692035675048828e+00 1.413935422897338867e-01 -2.310602217912673950e-01 -2.690000459551811218e-02 3.813625276088714600e-01
1.526000000000000000e+03 3.037760925292968750e+01 -7.308050155639648438e+00 8.633785843849182129e-01 2.798760496079921722e-02 2.674098610877990723e-01 5.946150422096252441e-01
1.527000000000000000e+03 2.449872207641601562e+01 -5.902806282043457031e+00 -1.146378368139266968e-01 -5.780049562454223633e-01 -2.077928483486175537e-01 -3.802447021007537842e-02
1.528000000000000000e+03 3.566606521606445312e+01 -3.147916078567504883e+00 1.120888888835906982e-01 -1.118374690413475037e-01 7.542551611550152302e-05 2.269376665353775024e-01
1.529000000000000000e+03 2.283221435546875000e+01 -1.332031965255737305e+00 -5.594523549079895020e-01 -7.043569535017013550e-02 -1.889664083719253540e-01 4.118791520595550537e-01
1.530000000000000000e+03 2.217572784423828125e+01 -1.445975661277770996e+00 -6.933969855308532715e-01 3.833716362714767456e-02 -1.965179443359375000e-01 4.052805900573730469e-01
1.531000000000000000e+03 3.866568756103515625e+01 -8.799769401550292969e+00 -1.241308748722076416e-01 -3.463220894336700439e-01 -1.411359012126922607e-01 3.672955930233001709e-01
1.532000000000000000e+03 3.523109054565429688e+01 -2.456241130828857422e+00 4.464696720242500305e-02 -5.288061872124671936e-02 -2.470095409080386162e-03 1.999337226152420044e-01
1.533000000000000000e+03 6.960813903808593750e+01 -2.038576316833496094e+01 4.081033330294303596e-05 3.066203862545080483e-05 2.144171048712451011e-05 2.900748404499609023e-05
1.534000000000000000e+03 6.934411621093750000e+01 -1.955335426330566406e+01 -4.438880205270834267e-05 3.769244813156547025e-06 -1.218586658069398254e-05 -1.298770894209155813e-05
1.535000000000000000e+03 4.422742080688476562e+01 -2.196883392333984375e+01 -1.123343128710985184e-03 -8.134322124533355236e-04 -5.810325965285301208e-04 1.137653016485273838e-03
1.536000000000000000e+03 3.926884841918945312e+01 -3.071176767349243164e+00 3.627980649471282959e-01 -1.385303884744644165e-01 6.728029996156692505e-02 1.940514659509062767e-03
1.537000000000000000e+03 4.054306030273437500e+01 -5.928460359573364258e-01 4.697787761688232422e-02 9.799288213253021240e-02 4.349122941493988037e-02 -6.006279960274696350e-02
1.538000000000000000e+03 4.843320465087890625e+01 -1.516406822204589844e+01 -1.387244224548339844e+00 -5.729001015424728394e-02 -4.333602488040924072e-01 -3.310836106538772583e-02
1.539000000000000000e+03 4.962485504150390625e+01 -1.404297065734863281e+01 -1.284136056900024414e+00 7.004287838935852051e-02 -3.642279505729675293e-01 9.949830174446105957e-02
1.540000000000000000e+03 3.300635910034179688e+01 -3.502893447875976562e+00 -6.526401638984680176e-02 5.297025199979543686e-03 -1.799009740352630615e-02 3.612281978130340576e-01
1.541000000000000000e+03 3.368690490722656250e+01 -4.800307750701904297e+00 7.268645614385604858e-02 -8.852551132440567017e-02 -4.751714877784252167e-03 4.137868583202362061e-01
1.542000000000000000e+03 2.177741050720214844e+01 -4.704802036285400391e+00 -8.103439807891845703e-01 2.427141070365905762e-01 -1.702889502048492432e-01 9.391696006059646606e-02
1.543000000000000000e+03 2.308495903015136719e+01 -4.479718208312988281e+00 -1.160902261734008789e+00 6.111332029104232788e-02 -3.299366831779479980e-01 2.149087749421596527e-02
1.544000000000000000e+03 4.444711303710937500e+01 -5.157840251922607422e+00 9.160836935043334961e-01 2.568492107093334198e-02 2.825305759906768799e-01 -1.470461934804916382e-01
1.545000000000000000e+03 6.274760437011718750e+01 8.049083709716796875e+00 2.576838135719299316e-01 1.697545886039733887e+00 5.865688920021057129e-01 3.825695514678955078e-01
1.546000000000000000e+03 1.360214138031005859e+01 -2.511374473571777344e+01 1.024296134710311890e-01 1.007056355476379395e+00 3.328458070755004883e-01 -1.073381006717681885e-01
1.547000000000000000e+03 6.746671295166015625e+01 -1.326543903350830078e+01 -3.631070852279663086e-01 -2.638954110443592072e-02 -1.168489903211593628e-01 6.925427168607711792e-02
1.548000000000000000e+03 5.392477798461914062e+01 2.464441299438476562e+01 1.488092690706253052e-01 8.321221172809600830e-02 6.960644572973251343e-02 -1.666722893714904785e-01
1.549000000000000000e+03 5.663691711425781250e+01 -1.194566917419433594e+01 -1.071636438369750977e+00 1.013008803129196167e-01 -2.911006808280944824e-01 -3.687619566917419434e-01
1.550000000000000000e+03 2.296550369262695312e+01 -9.462320327758789062e+00 1.306270122528076172e+00 -2.719120681285858154e-02 3.837236762046813965e-01 3.992012143135070801e-01
1.551000000000000000e+03 2.053584098815917969e+01 -8.754076004028320312e+00 7.766893506050109863e-01 1.863090842962265015e-01 2.888995110988616943e-01 2.734025418758392334e-01
1.552000000000000000e+03 4.444471359252929688e+01 -2.445534706115722656e+01 -4.630561918020248413e-03 -2.225135918706655502e-03 -2.056709490716457367e-03 4.631310701370239258e-03
1.553000000000000000e+03 1.949298858642578125e+01 -8.790189743041992188e+00 6.682657003402709961e-01 3.215488493442535400e-01 2.969443798065185547e-01 2.581772506237030029e-01
1.554000000000000000e+03 6.571832275390625000e+01 -2.733555984497070312e+01 1.441639178665354848e-04 -1.497336870670551434e-05 3.875716356560587883e-05 9.500196756562218070e-05
1.555000000000000000e+03 6.980121612548828125e+01 -2.744177627563476562e+01 5.144192982697859406e-05 -6.166182720335200429e-05 -3.065970304305665195e-06 -2.216336724814027548e-05
1.556000000000000000e+03 3.640762710571289062e+01 4.272458553314208984e+00 -4.051905998494476080e-04 1.011192434816621244e-04 -9.122140909312292933e-05 -7.497493061237037182e-05
1.557000000000000000e+03 6.427922821044921875e+01 -3.041540718078613281e+01 -5.993013110128231347e-05 -4.337853170000016689e-05 -3.099259993177838624e-05 8.369371244043577462e-06
1.558000000000000000e+03 6.185033416748046875e+01 -3.192968177795410156e+01 -5.368169513531029224e-04 -8.191990673367399722e-06 -1.635026856092736125e-04 3.418963751755654812e-04
1.559000000000000000e+03 5.185312271118164062e+01 -1.266863632202148438e+01 -1.113782525062561035e+00 1.713172942399978638e-01 -2.827395796775817871e-01 2.511120401322841644e-02
1.560000000000000000e+03 5.071614456176757812e+01 -1.278822612762451172e+01 -1.054786920547485352e+00 1.713844388723373413e-01 -2.650207579135894775e-01 1.569086462259292603e-01
1.561000000000000000e+03 3.543656539916992188e+01 1.171206951141357422e+01 -2.705301158130168915e-03 -2.994688984472304583e-04 -9.014310198836028576e-04 1.136784325353801250e-03
1.562000000000000000e+03 2.359642219543457031e+01 -8.065340995788574219e+00 1.022565960884094238e+00 -1.812039762735366821e-01 2.524085938930511475e-01 1.694643348455429077e-01
1.563000000000000000e+03 2.159901428222656250e+01 -8.594059944152832031e+00 9.129244089126586914e-01 1.993739418685436249e-02 2.798585295677185059e-01 2.475951015949249268e-01
1.564000000000000000e+03 3.652392196655273438e+01 7.142512798309326172e+00 -2.178621653001755476e-04 -1.840415934566408396e-04 -1.205711305374279618e-04 -2.138013805961236358e-04
1.565000000000000000e+03 6.656580352783203125e+01 -9.928492546081542969e+00 -6.560344696044921875e-01 -9.828248620033264160e-02 -2.262950837612152100e-01 -4.210857450962066650e-01
1.566000000000000000e+03 6.689757537841796875e+01 -1.169376564025878906e+01 -1.074286818504333496e+00 9.994041174650192261e-02 -2.923039197921752930e-01 -1.558556556701660156e-01
1.567000000000000000e+03 5.425098800659179688e+01 -1.228780269622802734e+01 -1.118060946464538574e+00 1.089575365185737610e-01 -3.027310371398925781e-01 -1.946517229080200195e-01
1.568000000000000000e+03 5.546304321289062500e+01 -1.216565418243408203e+01 -1.090127229690551758e+00 1.147457286715507507e-01 -2.926144599914550781e-01 -2.913769185543060303e-01
1.569000000000000000e+03 3.486109924316406250e+01 8.781682968139648438e+00 -6.971284619794460014e-06 -2.300794003531336784e-04 -7.111520244507119060e-05 -5.052196866017766297e-05
1.570000000000000000e+03 5.304268264770507812e+01 -1.245735454559326172e+01 -1.140115022659301758e+00 1.315169483423233032e-01 -3.025794029235839844e-01 -6.889862567186355591e-02
1.571000000000000000e+03 6.051101684570312500e+01 -1.200983619689941406e+01 -1.319198846817016602e+00 -1.478425599634647369e-02 -4.001949429512023926e-01 -4.627811014652252197e-01
1.572000000000000000e+03 6.574778747558593750e+01 2.120494842529296875e+01 2.581782937049865723e-01 7.867646217346191406e-01 3.134828805923461914e-01 1.090478450059890747e-01
1.573000000000000000e+03 3.439718246459960938e+01 1.742551612854003906e+01 -1.384266465902328491e-02 1.174280419945716858e-03 -3.800515318289399147e-03 9.651895612478256226e-03
1.574000000000000000e+03 7.830877685546875000e+01 -2.148327636718750000e+01 -1.646583586989436299e-05 2.014317260545794852e-06 -4.335455287218792364e-06 -1.400500968884443864e-05
1.575000000000000000e+03 7.678474426269531250e+01 -2.439272117614746094e+01 4.520836228039115667e-05 9.719385161588434130e-06 1.647832505113910884e-05 -2.199749178544152528e-05
1.576000000000000000e+03 7.654425048828125000e+01 -2.586630439758300781e+01 -1.348638579656835645e-05 1.794262607290875167e-05 1.336872060164751019e-06 -5.487792077474296093e-05
1.577000000000000000e+03 7.701175689697265625e+01 -3.144140052795410156e+01 -1.587967562954872847e-05 9.413153748027980328e-05 2.347555891901720315e-05 -6.422237493097782135e-05
1.578000000000000000e+03 7.648661041259765625e+01 -2.737202835083007812e+01 3.553050555638037622e-05 3.807746179518289864e-05 2.208238947787322104e-05 -4.051106225233525038e-05
1.579000000000000000e+03 7.711820983886718750e+01 -3.340992736816406250e+01 -4.025480302516371012e-05 1.214925505337305367e-04 2.437132388877216727e-05 -6.045745612937025726e-05
1.580000000000000000e+03 7.696220397949218750e+01 -2.294089317321777344e+01 -1.291941771341953427e-05 4.754329438583226874e-06 -2.449526391501422040e-06 -2.246780604764353484e-05
1.581000000000000000e+03 7.654984283447265625e+01 -2.888099288940429688e+01 -6.572728580067632720e-06 3.123604983557015657e-05 7.398995876428671181e-06 -7.365509372903034091e-05
1.582000000000000000e+03 7.670494079589843750e+01 -3.026442337036132812e+01 1.433454508514842018e-05 7.540696242358535528e-05 2.692245288926642388e-05 -6.378241232596337795e-05
1.583000000000000000e+03 6.941057586669921875e+01 -2.244788742065429688e+01 3.197096884832717478e-05 9.730018973641563207e-06 1.251029607374221087e-05 3.506362554617226124e-05
1.584000000000000000e+03 2.210431289672851562e+01 2.642956733703613281e+01 -1.037333998829126358e-02 -5.853629671037197113e-03 -4.868091084063053131e-03 9.090526029467582703e-03
1.585000000000000000e+03 3.791427612304687500e+01 8.276714324951171875e+00 -6.440854049287736416e-04 -4.417950985953211784e-04 -3.257641510572284460e-04 3.149185795336961746e-04
1.586000000000000000e+03 4.318803024291992188e+01 -2.225245285034179688e+01 -1.945137395523488522e-03 -5.598637508228421211e-04 -7.515003089793026447e-04 1.761607010848820210e-03
1.587000000000000000e+03 3.988385009765625000e+01 -4.630832672119140625e+00 4.506536424160003662e-01 -1.945172548294067383e-01 7.684091478586196899e-02 1.235987544059753418e-01
1.588000000000000000e+03 4.193582534790039062e+01 -3.958951473236083984e+00 6.525394320487976074e-01 1.650750450789928436e-02 2.007140815258026123e-01 -8.264728635549545288e-02
1.589000000000000000e+03 1.266748523712158203e+01 1.754552841186523438e+01 -3.032684908248484135e-04 -1.184151842608116567e-04 -1.265050959773361683e-04 9.371340638608671725e-06
1.590000000000000000e+03 1.298374748229980469e+01 1.629084777832031250e+01 1.973467878997325897e-04 1.957300555659458041e-04 1.179230530397035182e-04 2.435902133584022522e-04
1.591000000000000000e+03 1.242289161682128906e+01 1.325122547149658203e+01 -1.000560514512471855e-04 2.159859104722272605e-05 -2.353723721171263605e-05 5.284605867927893996e-05
1.592000000000000000e+03 4.262144470214843750e+01 1.782845497131347656e+01 -2.244356647133827209e-02 6.613290403038263321e-03 -4.749082960188388824e-03 -2.816074760630726814e-03
1.593000000000000000e+03 1.531496334075927734e+01 2.463307762145996094e+01 -7.031552959233522415e-03 2.566492476034909487e-04 -2.032471122220158577e-03 3.685039468109607697e-03
1.594000000000000000e+03 7.692435455322265625e+01 3.796216726303100586e+00 2.571933530271053314e-02 -8.153303265571594238e-01 -2.368832975625991821e-01 -1.834030151367187500e-01
1.595000000000000000e+03 7.693209075927734375e+01 2.385926485061645508e+00 2.583406679332256317e-02 -7.505010366439819336e-01 -2.174000889062881470e-01 -2.047077566385269165e-01
1.596000000000000000e+03 7.533211517333984375e+01 9.431746482849121094e+00 7.084769010543823242e-02 -7.109510302543640137e-01 -1.920310109853744507e-01 -1.087738126516342163e-01
1.597000000000000000e+03 7.671136474609375000e+01 9.514963150024414062e+00 3.647591173648834229e-02 -9.608290791511535645e-01 -2.773059606552124023e-01 -8.563829213380813599e-02
1.598000000000000000e+03 7.681583404541015625e+01 1.661179351806640625e+01 3.546864166855812073e-02 -9.991236329078674316e-01 -2.890965044498443604e-01 6.495495140552520752e-02
1.599000000000000000e+03 7.636985015869140625e+01 2.073658561706542969e+01 2.846173755824565887e-02 -8.398273587226867676e-01 -2.434096783399581909e-01 1.430485993623733521e-01
1.600000000000000000e+03 7.609200286865234375e+01 2.357446670532226562e+01 1.737485639750957489e-02 -7.132895588874816895e-01 -2.087744027376174927e-01 1.862255930900573730e-01
1.601000000000000000e+03 7.621167755126953125e+01 2.214196205139160156e+01 1.842848584055900574e-02 -7.858131527900695801e-01 -2.302154004573822021e-01 1.659508347511291504e-01
1.602000000000000000e+03 7.586879730224609375e+01 2.505775642395019531e+01 4.240115173161029816e-03 -6.212592720985412598e-01 -1.851057410240173340e-01 1.945873200893402100e-01
1.603000000000000000e+03 7.656404113769531250e+01 1.934926795959472656e+01 3.605790436267852783e-02 -9.003126621246337891e-01 -2.592764198780059814e-01 1.215027719736099243e-01
1.604000000000000000e+03 7.684359741210937500e+01 1.525376605987548828e+01 3.305325284600257874e-02 -1.023352742195129395e+00 -2.970898449420928955e-01 3.706160187721252441e-02
1.605000000000000000e+03 7.682531738281250000e+01 1.387738800048828125e+01 3.630753606557846069e-02 -1.019069910049438477e+00 -2.948287129402160645e-01 8.404135704040527344e-03
1.606000000000000000e+03 7.677845764160156250e+01 1.245857906341552734e+01 4.433539882302284241e-02 -1.008220791816711426e+00 -2.891656458377838135e-01 -1.806533895432949066e-02
1.607000000000000000e+03 7.677143096923828125e+01 8.047096252441406250e+00 3.873381391167640686e-02 -9.361532926559448242e-01 -2.692258358001708984e-01 -1.163529753684997559e-01
1.608000000000000000e+03 7.683531951904296875e+01 6.616460323333740234e+00 2.854649350047111511e-02 -9.062822461128234863e-01 -2.633207142353057861e-01 -1.395140737295150757e-01
1.609000000000000000e+03 7.693367767333984375e+01 9.871316552162170410e-01 1.435602549463510513e-02 -6.818736791610717773e-01 -2.002553045749664307e-01 -2.193654030561447144e-01
1.610000000000000000e+03 7.694680786132812500e+01 -4.057880342006683350e-01 1.528222393244504929e-02 -6.078887581825256348e-01 -1.777819693088531494e-01 -2.313915044069290161e-01
1.611000000000000000e+03 7.697010040283203125e+01 -1.782164692878723145e+00 1.930284313857555389e-03 -5.304700732231140137e-01 -1.585619300603866577e-01 -2.371137142181396484e-01
1.612000000000000000e+03 7.700521087646484375e+01 -7.162120819091796875e+00 -3.926590830087661743e-02 -2.240457236766815186e-01 -7.899349182844161987e-02 -1.890113353729248047e-01
1.613000000000000000e+03 7.701579284667968750e+01 -8.479663848876953125e+00 -3.836760669946670532e-02 -1.628028899431228638e-01 -6.035114824771881104e-02 -1.574662774801254272e-01
1.614000000000000000e+03 7.691082000732421875e+01 -1.191190624237060547e+01 -4.933212697505950928e-02 -4.959933459758758545e-02 -2.967943809926509857e-02 -6.586360931396484375e-02
1.615000000000000000e+03 7.699687194824218750e+01 -9.786281585693359375e+00 -5.140285193920135498e-02 -1.078849434852600098e-01 -4.778633639216423035e-02 -1.238666623830795288e-01
1.616000000000000000e+03 7.706220245361328125e+01 -1.097535896301269531e+01 -4.681108519434928894e-02 -7.125820219516754150e-02 -3.542078658938407898e-02 -8.688422292470932007e-02
1.617000000000000000e+03 7.699192047119140625e+01 -3.143806457519531250e+00 -5.362600204534828663e-04 -4.506447017192840576e-01 -1.353542953729629517e-01 -2.360912561416625977e-01
1.618000000000000000e+03 7.699847412109375000e+01 -4.497282505035400391e+00 -1.826620288193225861e-02 -3.708699345588684082e-01 -1.167408451437950134e-01 -2.279618978500366211e-01
1.619000000000000000e+03 7.671788787841796875e+01 1.099577140808105469e+01 4.215818271040916443e-02 -9.856098890304565430e-01 -2.830355167388916016e-01 -5.758623778820037842e-02
1.620000000000000000e+03 7.516569519042968750e+01 3.503422164916992188e+01 -4.209123551845550537e-02 -3.485530912876129150e-01 -1.171932965517044067e-01 1.149089410901069641e-01
1.621000000000000000e+03 7.551292419433593750e+01 2.662375450134277344e+01 -1.472538523375988007e-02 -5.510520935058593750e-01 -1.697332412004470825e-01 1.936778277158737183e-01
1.622000000000000000e+03 4.449461364746093750e+01 1.992925071716308594e+01 -1.832404918968677521e-02 7.167882751673460007e-03 -3.346850164234638214e-03 -2.808009041473269463e-03
1.623000000000000000e+03 3.847140884399414062e+01 -1.689720344543457031e+01 3.053465334232896566e-04 -1.649054320296272635e-04 4.213233114569447935e-05 2.819180081132799387e-04
1.624000000000000000e+03 3.443535327911376953e+00 3.074693679809570312e+01 2.909317845478653908e-05 -2.399770775809884071e-03 -7.112032617442309856e-04 1.649813726544380188e-03
1.625000000000000000e+03 3.248541831970214844e+00 2.331180763244628906e+01 -5.461014225147664547e-04 -3.155489685013890266e-04 -2.584951289463788271e-04 4.783414769917726517e-04
1.626000000000000000e+03 3.456337690353393555e+00 2.476060867309570312e+01 -1.110791054088622332e-04 -6.381241255439817905e-04 -2.247609663754701614e-04 8.171834633685648441e-04
1.627000000000000000e+03 3.498311758041381836e+00 2.933038330078125000e+01 -3.434029640629887581e-04 -1.993087353184819221e-03 -7.009471300989389420e-04 1.390839926898479462e-03
1.628000000000000000e+03 3.661757469177246094e+00 2.636283302307128906e+01 -5.659215385094285011e-04 -1.037283916957676411e-03 -4.809616075363010168e-04 1.063401810824871063e-03
1.629000000000000000e+03 3.551736116409301758e+00 2.789952468872070312e+01 -1.341490860795602202e-04 -1.448304741643369198e-03 -4.747361526824533939e-04 1.413957914337515831e-03
1.630000000000000000e+03 4.679083824157714844e+00 2.877818489074707031e+01 -2.395769406575709581e-04 -1.764168497174978256e-03 -6.011236109770834446e-04 1.742766587994992733e-03
1.631000000000000000e+03 3.870993375778198242e+00 -2.504026031494140625e+01 2.428371645510196686e-02 -6.317226290702819824e-01 -1.822316795587539673e-01 1.997887492179870605e-01
1.632000000000000000e+03 3.961919069290161133e+00 -3.160178756713867188e+01 -3.784782066941261292e-02 -4.316307902336120605e-01 -1.408435851335525513e-01 1.767226606607437134e-01
1.633000000000000000e+03 4.599666118621826172e+00 1.581546115875244141e+01 6.060627492843195796e-05 -7.911376451374962926e-05 -5.552247330342652276e-06 -1.018165276036597788e-04
1.634000000000000000e+03 3.066012144088745117e+00 1.796785354614257812e+01 -2.297739702044054866e-04 4.517566776485182345e-05 -5.537949255085550249e-05 -4.259891284164041281e-05
1.635000000000000000e+03 3.565387725830078125e+00 1.298556518554687500e+01 1.222764549311250448e-04 3.383431248948909342e-05 4.683322913479059935e-05 -1.461413776269182563e-04
1.636000000000000000e+03 3.530240058898925781e+00 1.527415275573730469e+01 -8.794933819444850087e-05 5.213887561694718897e-06 -2.482063428033143282e-05 -1.251257344847545028e-04
1.637000000000000000e+03 3.014447927474975586e+00 6.661999702453613281e+00 -6.682932871626690030e-05 -3.114141918558743782e-06 -2.098304139508400112e-05 -8.586170224589295685e-06
1.638000000000000000e+03 2.868372917175292969e+00 7.909575939178466797e+00 1.055486864061094820e-04 2.490959377610124648e-05 3.913748514605686069e-05 -5.386073098634369671e-05
1.639000000000000000e+03 2.409338474273681641e+00 -5.577538967132568359e+00 -3.806719928979873657e-02 -2.904714047908782959e-01 -9.856157749891281128e-02 -2.453129738569259644e-01
1.640000000000000000e+03 2.963052034378051758e+00 -9.461244583129882812e+00 2.025029994547367096e-02 -5.568578839302062988e-01 -1.609822660684585571e-01 -3.196724653244018555e-01
1.641000000000000000e+03 3.082228899002075195e+00 -1.333616447448730469e+01 6.691606342792510986e-02 -7.807114124298095703e-01 -2.141385972499847412e-01 -2.293009459972381592e-01
1.642000000000000000e+03 3.043977022171020508e+00 -1.200959873199462891e+01 5.374041199684143066e-02 -7.166300415992736816e-01 -1.988668888807296753e-01 -2.723182141780853271e-01
1.643000000000000000e+03 3.275178432464599609e+00 -2.027285957336425781e+01 6.766651570796966553e-02 -8.588240146636962891e-01 -2.373472452163696289e-01 6.846541911363601685e-02
1.644000000000000000e+03 3.238311052322387695e+00 -1.882645034790039062e+01 8.480101823806762695e-02 -8.739545941352844238e-01 -2.367460727691650391e-01 9.944492019712924957e-03
1.645000000000000000e+03 3.324827432632446289e+00 -2.386047363281250000e+01 2.841727435588836670e-02 -7.961797118186950684e-01 -2.303287386894226074e-01 1.659760773181915283e-01
1.646000000000000000e+03 3.073651790618896484e+00 -2.160912513732910156e+01 5.825813487172126770e-02 -8.774622678756713867e-01 -2.457612305879592896e-01 1.047148630023002625e-01
1.647000000000000000e+03 3.672428846359252930e+00 -3.573291778564453125e+01 -2.816002443432807922e-02 -3.917916715145111084e-01 -1.259855031967163086e-01 9.775763750076293945e-02
1.648000000000000000e+03 2.940535545349121094e+00 1.038963603973388672e+01 1.320852024946361780e-04 3.573016874724999070e-05 5.034461355535313487e-05 -9.846912143984809518e-05
1.649000000000000000e+03 4.858092784881591797e+00 -2.412377929687500000e+01 5.579495802521705627e-02 -4.502931237220764160e-01 -1.183494478464126587e-01 2.143321931362152100e-01
1.650000000000000000e+03 3.142861366271972656e+00 -1.604972457885742188e+01 8.175435662269592285e-02 -8.664266467094421387e-01 -2.354016900062561035e-01 -1.128737702965736389e-01
1.651000000000000000e+03 3.111254453659057617e+00 -1.468889617919921875e+01 7.798808813095092773e-02 -8.341935873031616211e-01 -2.268616557121276855e-01 -1.744610220193862915e-01
1.652000000000000000e+03 2.977245092391967773e+00 -8.244851112365722656e+00 1.219126861542463303e-03 -4.635829031467437744e-01 -1.387091279029846191e-01 -3.283046782016754150e-01
1.653000000000000000e+03 3.433865070343017578e+00 5.622699260711669922e+00 8.959585829870775342e-05 1.090230171030270867e-06 2.720582597248721868e-05 -1.510188030806602910e-05
1.654000000000000000e+03 3.185017824172973633e+00 -1.742244720458984375e+01 8.368220180273056030e-02 -8.800007700920104980e-01 -2.388955801725387573e-01 -5.350548401474952698e-02
1.655000000000000000e+03 2.994476795196533203e+00 2.060106658935546875e+01 -3.854857350233942270e-04 -8.181531484297011048e-06 -1.181001789518631995e-04 1.185488144983537495e-04
1.656000000000000000e+03 3.086636066436767578e+00 2.193531990051269531e+01 1.695267746981699020e-05 -1.841522462200373411e-04 -5.015987335355021060e-05 2.776505425572395325e-04
1.657000000000000000e+03 2.987940311431884766e+00 1.928156471252441406e+01 1.017676113406196237e-04 8.535249435226432979e-06 3.309085877845063806e-05 -2.587977405710262246e-06
1.658000000000000000e+03 4.119452476501464844e+00 1.936262130737304688e+01 -3.995415463577955961e-04 -7.620747783221304417e-05 -1.427247043466195464e-04 7.870879198890179396e-05
1.659000000000000000e+03 3.168854713439941406e+00 1.165340900421142578e+01 -8.204891491914168000e-05 1.512271137471543625e-05 -2.007786133617628366e-05 -1.744582914398051798e-05
1.660000000000000000e+03 2.847720384597778320e+00 9.149123191833496094e+00 -8.511786290910094976e-05 1.903612792375497520e-05 -1.982451976800803095e-05 -6.206273610587231815e-06
1.661000000000000000e+03 6.994715118408203125e+01 -2.423499679565429688e+01 4.047200491186231375e-05 -5.771410724264569581e-05 -5.172630608285544440e-06 -7.495277259295107797e-06
1.662000000000000000e+03 7.881208801269531250e+01 -1.968473434448242188e+01 1.479573825236002449e-06 -1.163997694675344974e-05 -3.048121016036020592e-06 7.059973995637847111e-06
1.663000000000000000e+03 7.820379638671875000e+01 -1.944416046142578125e+01 -1.724068897601682693e-05 5.544416126213036478e-06 -3.508881945890607312e-06 -4.039081886730855331e-06
1.664000000000000000e+03 3.892587280273437500e+01 1.263852214813232422e+01 -7.608693558722734451e-03 1.569804619066417217e-03 -1.811666763387620449e-03 -6.500199087895452976e-04
1.665000000000000000e+03 3.831545257568359375e+01 1.142429351806640625e+01 -3.163767745718359947e-03 5.912423366680741310e-04 -7.717576227150857449e-04 -6.562431808561086655e-04
1.666000000000000000e+03 1.850961112976074219e+01 3.918849468231201172e+00 -5.267811502562835813e-05 -1.225528649229090661e-06 -1.617109410290140659e-05 -1.987598778896426666e-07
1.667000000000000000e+03 1.174295711517333984e+01 1.583255672454833984e+01 -1.248952466994524002e-04 -1.620672992430627346e-04 -8.608875941717997193e-05 5.660756505676545203e-05
1.668000000000000000e+03 3.771300888061523438e+01 -1.844025421142578125e+01 -3.190592688042670488e-04 -1.860455813584849238e-04 -1.515314652351662517e-04 2.436929389659781009e-05
1.669000000000000000e+03 6.771446990966796875e+01 -2.965138435363769531e+01 3.254369630667497404e-06 -9.355231304652988911e-05 -2.708938336581923068e-05 7.681435818085446954e-06
1.670000000000000000e+03 3.649094772338867188e+01 1.198257064819335938e+01 -4.160371609032154083e-03 4.733596288133412600e-04 -1.106103532947599888e-03 1.151311793364584446e-03
1.671000000000000000e+03 2.853598022460937500e+01 -3.339013290405273438e+01 3.081952035427093506e-02 4.958883300423622131e-02 2.412250638008117676e-02 -5.934787541627883911e-02
1.672000000000000000e+03 1.155080890655517578e+01 -2.050906753540039062e+01 4.124261438846588135e-01 1.063212394714355469e+00 4.426915645599365234e-01 5.514813214540481567e-02
1.673000000000000000e+03 3.805885696411132812e+01 -2.633319854736328125e+01 -1.304336264729499817e-02 5.715263076126575470e-03 -2.198430011048913002e-03 -2.448724080750253052e-05
1.674000000000000000e+03 6.752677154541015625e+01 -1.481192302703857422e+01 -9.693556278944015503e-02 -5.872504413127899170e-02 -4.669818282127380371e-02 5.268196761608123779e-02
1.675000000000000000e+03 2.126777458190917969e+01 2.513545036315917969e+01 -1.204492244869470596e-02 -3.999299369752407074e-03 -4.813266452401876450e-03 7.800631225109100342e-03
1.676000000000000000e+03 6.200399017333984375e+01 2.566958904266357422e+00 4.250087141990661621e-01 9.330226778984069824e-01 4.074093997478485107e-01 3.585501611232757568e-01
1.677000000000000000e+03 6.570895385742187500e+01 1.703190994262695312e+01 3.482323586940765381e-01 1.048998117446899414e+00 4.191691279411315918e-01 -3.492916375398635864e-02
1.678000000000000000e+03 1.609352302551269531e+01 8.592630386352539062e+00 8.004893606994301081e-05 3.721173197845928371e-05 3.517820005072280765e-05 5.253175186226144433e-05
1.679000000000000000e+03 1.508463668823242188e+01 8.069478034973144531e+00 -4.710607754532247782e-05 5.756618520535994321e-06 -1.240483834408223629e-05 -3.910852683475241065e-05
1.680000000000000000e+03 1.979274749755859375e+01 -2.966292572021484375e+01 1.420018225908279419e-01 4.053393006324768066e-01 1.642023324966430664e-01 -2.480462193489074707e-01
1.681000000000000000e+03 3.944373703002929688e+01 1.388589096069335938e+01 -1.025098562240600586e-02 3.177305217832326889e-03 -2.122103935107588768e-03 -1.307673868723213673e-03
1.682000000000000000e+03 1.524730300903320312e+01 9.675428390502929688e+00 -1.022440555971115828e-04 3.854630267596803606e-05 -1.910932405735366046e-05 -4.150012318859808147e-05
1.683000000000000000e+03 5.835633468627929688e+01 -2.420852184295654297e+00 7.723811864852905273e-01 6.084392666816711426e-01 4.142461419105529785e-01 5.231629014015197754e-01
1.684000000000000000e+03 5.733996963500976562e+01 -1.547784924507141113e+00 8.369184136390686035e-01 8.658655285835266113e-01 5.108351707458496094e-01 7.296224236488342285e-01
1.685000000000000000e+03 3.686630249023437500e+01 -1.627026557922363281e+01 4.299799329601228237e-04 5.713854989153333008e-05 1.461355423089116812e-04 1.347673533018678427e-04
1.686000000000000000e+03 5.922047042846679688e+01 -1.326768159866333008e+00 6.677764654159545898e-01 6.707513928413391113e-01 4.015583693981170654e-01 5.195406675338745117e-01
1.687000000000000000e+03 2.660393524169921875e+01 -7.172332286834716797e+00 8.134424686431884766e-01 2.226112633943557739e-01 3.108161091804504395e-01 5.737885236740112305e-01
1.688000000000000000e+03 3.766865539550781250e+01 -2.146266555786132812e+01 -2.576531376689672470e-03 -2.800892689265310764e-04 -8.569862111471593380e-04 -1.172001240774989128e-03
1.689000000000000000e+03 2.112060928344726562e+01 -3.318338775634765625e+01 -2.673666924238204956e-02 3.488352596759796143e-01 9.662957489490509033e-02 -1.680005788803100586e-01
1.690000000000000000e+03 3.499145126342773438e+01 5.667428493499755859e+00 3.505913191474974155e-04 1.994227350223809481e-04 1.650042249821126461e-04 -3.825696330750361085e-05
1.691000000000000000e+03 7.191091156005859375e+01 -2.105540657043457031e+01 3.372684295754879713e-05 -1.445532325305975974e-05 5.781455911346711218e-06 -1.430821248504798859e-05
1.692000000000000000e+03 1.552792644500732422e+01 -1.137162685394287109e+01 9.678704738616943359e-01 8.811784982681274414e-01 5.547146797180175781e-01 3.515406847000122070e-01
1.693000000000000000e+03 1.391138267517089844e+01 -1.334331989288330078e+01 7.263633608818054199e-01 1.343582868576049805e+00 6.209838390350341797e-01 2.936211228370666504e-01
1.694000000000000000e+03 2.070229530334472656e+00 3.698038101196289062e+00 4.598010127665475011e-05 2.625045090098865330e-05 2.166916601709090173e-05 -4.756431053465348668e-07
1.695000000000000000e+03 4.978890228271484375e+01 -7.810316562652587891e+00 7.628799676895141602e-01 6.490894556045532227e-01 4.235908389091491699e-01 5.172083377838134766e-01
1.696000000000000000e+03 5.089107131958007812e+01 -7.997228145599365234e+00 5.517287254333496094e-01 6.243160963058471680e-01 3.528134524822235107e-01 3.467772305011749268e-01
1.697000000000000000e+03 6.322370529174804688e+01 1.043483448028564453e+01 1.907982528209686279e-01 1.767302632331848145e+00 5.874302387237548828e-01 2.480193376541137695e-01
1.698000000000000000e+03 2.790288162231445312e+01 -7.076258659362792969e+00 7.967444658279418945e-01 4.932297766208648682e-01 3.869922757148742676e-01 7.081406116485595703e-01
1.699000000000000000e+03 1.753125190734863281e+01 -1.066331481933593750e+01 1.079783797264099121e+00 7.507798671722412109e-01 5.491691231727600098e-01 4.395559132099151611e-01
1.700000000000000000e+03 2.601158714294433594e+01 2.515554237365722656e+01 -1.439105905592441559e-02 -8.343733847141265869e-03 -6.820437964051961899e-03 1.042668335139751434e-02
1.701000000000000000e+03 2.505586242675781250e+01 2.577160072326660156e+01 -1.190353743731975555e-02 -8.841449394822120667e-03 -6.223496049642562866e-03 1.060288120061159134e-02
1.702000000000000000e+03 3.755205917358398438e+01 -2.286906623840332031e+01 -4.877828061580657959e-03 4.241779679432511330e-04 -1.336094923317432404e-03 -2.299542771652340889e-03
1.703000000000000000e+03 1.589239883422851562e+01 -9.527615547180175781e+00 4.811019301414489746e-01 7.024091482162475586e-01 3.550533056259155273e-01 1.019158884882926941e-01
1.704000000000000000e+03 2.919815635681152344e+01 2.279162025451660156e+01 -2.125617489218711853e-02 -1.428863964974880219e-02 -1.066344417631626129e-02 1.003958657383918762e-02
1.705000000000000000e+03 4.402264404296875000e+01 -6.133535385131835938e+00 7.571349143981933594e-01 -1.379196345806121826e-02 2.230028808116912842e-01 6.305389851331710815e-02
1.706000000000000000e+03 3.588552474975585938e+01 -3.324980163574218750e+01 4.325737245380878448e-03 1.295454613864421844e-02 5.184085108339786530e-03 2.023112494498491287e-03
1.707000000000000000e+03 6.345686721801757812e+01 -1.054532909393310547e+01 -9.246675968170166016e-01 -4.335873723030090332e-01 -4.074764847755432129e-01 -3.555066585540771484e-01
1.708000000000000000e+03 3.512775039672851562e+01 7.566330909729003906e+00 3.458150604274123907e-05 -8.972983050625771284e-05 -1.654449624766130000e-05 -1.679692795732989907e-04
1.709000000000000000e+03 5.890408706665039062e+01 -1.125615119934082031e+01 -1.007955074310302734e+00 5.288214236497879028e-02 -2.865218818187713623e-01 -3.967204391956329346e-01
1.710000000000000000e+03 6.759033966064453125e+01 -1.418642807006835938e+01 -2.337422966957092285e-01 -5.501094087958335876e-02 -8.662597090005874634e-02 7.250039279460906982e-02
1.711000000000000000e+03 2.458702278137207031e+01 -1.262084096670150757e-01 -5.595636740326881409e-02 -8.510379493236541748e-02 -4.231804981827735901e-02 7.604092243127524853e-04
1.712000000000000000e+03 2.722971725463867188e+01 -4.555634021759033203e+00 -1.203388929367065430e+00 2.207753509283065796e-01 -2.947840690612792969e-01 4.750428199768066406e-01
1.713000000000000000e+03 2.776164436340332031e+01 -3.207150220870971680e+00 -1.053238153457641602e+00 2.778655588626861572e-01 -2.326117753982543945e-01 -1.622442007064819336e-01
1.714000000000000000e+03 2.383400917053222656e+01 -1.212143063545227051e+00 -2.578962147235870361e-01 -2.498717755079269409e-01 -1.523303985595703125e-01 2.785011231899261475e-01
1.715000000000000000e+03 7.640253448486328125e+01 -2.126345634460449219e+01 1.053253618010785431e-05 1.943252937053330243e-05 8.989519301394466311e-06 -3.209192300346330740e-06
1.716000000000000000e+03 7.576932525634765625e+01 -1.993539810180664062e+01 1.500015605415683240e-05 2.071934977720957249e-05 1.071585211320780218e-05 4.837778760702349246e-06
1.717000000000000000e+03 3.021720123291015625e+01 -2.778626680374145508e+00 -4.605167210102081299e-01 2.193458229303359985e-01 -7.235126942396163940e-02 1.494275033473968506e-01
1.718000000000000000e+03 3.437382125854492188e+01 3.370057344436645508e+00 5.486677400767803192e-04 -1.983212714549154043e-04 1.051039434969425201e-04 -8.988371700979769230e-05
1.719000000000000000e+03 2.314445114135742188e+01 -6.163727283477783203e+00 -1.319156736135482788e-01 -1.770382225513458252e-01 -9.268616884946823120e-02 -1.327845752239227295e-01
1.720000000000000000e+03 1.618821716308593750e+01 5.053470134735107422e+00 -1.790210990293417126e-05 -6.848056364106014371e-05 -2.591480188129935414e-05 -2.883873094106093049e-05
1.721000000000000000e+03 3.803366851806640625e+01 -1.648285746574401855e+00 1.803391575813293457e-01 -7.244685292243957520e-02 3.236769139766693115e-02 5.406008567661046982e-03
1.722000000000000000e+03 1.469676494598388672e+01 4.006584644317626953e+00 2.723246871028095484e-05 6.673465395579114556e-05 2.819013570842798799e-05 1.529231121821794659e-05
1.723000000000000000e+03 1.331198787689208984e+01 4.626532554626464844e+00 -1.288237672270042822e-05 -5.149536082171835005e-05 -1.931332008098252118e-05 4.573904880089685321e-05
1.724000000000000000e+03 2.508728790283203125e+01 -6.048644542694091797e+00 1.469571888446807861e-02 -5.671821236610412598e-01 -1.657459139823913574e-01 1.178183928132057190e-01
1.725000000000000000e+03 3.964597320556640625e+01 -1.761870193481445312e+01 3.441094349909690209e-06 -2.785889082588255405e-04 -8.254434942500665784e-05 4.141815588809549809e-05
1.726000000000000000e+03 1.185164070129394531e+01 3.938318252563476562e+00 4.578043808578513563e-05 3.074722917517647147e-05 2.295830017828848213e-05 -2.922136218330706470e-06
1.727000000000000000e+03 3.709757995605468750e+01 4.331204891204833984e+00 5.786383990198373795e-04 -1.755590637912973762e-04 1.209238107549026608e-04 -1.597725349711254239e-04
1.728000000000000000e+03 1.746855926513671875e+01 4.604414463043212891e+00 -5.524342122953385115e-05 -3.667785858851857483e-05 -2.757638321781996638e-05 -4.244039882905781269e-05
1.729000000000000000e+03 3.900204086303710938e+01 -2.066852760314941406e+01 -2.262864960357546806e-03 -2.211724640801548958e-04 -7.452112622559070587e-04 -4.533047322183847427e-04
1.730000000000000000e+03 4.066572189331054688e+01 -1.865362548828125000e+01 -4.461363423615694046e-04 -3.849888744298368692e-04 -2.493375504855066538e-04 2.541454705351497978e-06
1.731000000000000000e+03 3.875851058959960938e+01 -1.626690673828125000e+01 -1.007387254503555596e-04 -2.017746301135048270e-04 -9.075400885194540024e-05 1.391948317177593708e-04
1.732000000000000000e+03 3.909532165527343750e+01 -1.722168350219726562e+01 -1.275071699637919664e-04 -4.018668259959667921e-04 -1.588121958775445819e-04 1.050434293574653566e-04
1.733000000000000000e+03 1.471070003509521484e+01 3.303115606307983398e+00 -2.744604898907709867e-05 -3.562171696103177965e-05 -1.892033105832524598e-05 -1.526962478237692267e-06
1.734000000000000000e+03 1.329670810699462891e+01 3.955263614654541016e+00 2.930307891801930964e-05 5.606871491181664169e-05 2.561153814895078540e-05 -2.324546812815242447e-06
1.735000000000000000e+03 3.675036621093750000e+01 -7.371410846710205078e+00 7.529969513416290283e-02 -3.021517992019653320e-01 -6.805562973022460938e-02 3.498602807521820068e-01
1.736000000000000000e+03 1.546202754974365234e+01 4.015248298645019531e+00 -3.995419319835491478e-05 -3.717562503879889846e-05 -2.313894583494402468e-05 -2.105924977513495833e-05
1.737000000000000000e+03 1.184375667572021484e+01 3.254864931106567383e+00 -1.837950730987358838e-05 -3.363711221027188003e-05 -1.560498640174046159e-05 1.696555955277290195e-05
1.738000000000000000e+03 1.110864925384521484e+01 3.920964479446411133e+00 -2.327000765944831073e-05 -3.293002009741030633e-05 -1.686000723566394299e-05 2.097786637023091316e-05
1.739000000000000000e+03 1.037370967864990234e+01 3.916910648345947266e+00 5.110881829750724137e-05 2.256783227494452149e-05 2.210299498983658850e-05 -6.608062449231510982e-06
1.740000000000000000e+03 2.301881027221679688e+01 -2.485821008682250977e+00 -9.626383781433105469e-01 -5.135007575154304504e-02 -3.041965365409851074e-01 5.959606766700744629e-01
1.741000000000000000e+03 2.245332145690917969e+01 -3.252675294876098633e+00 -1.206207871437072754e+00 1.882195174694061279e-01 -3.053964972496032715e-01 4.142554700374603271e-01
1.742000000000000000e+03 1.258432388305664062e+01 3.952609062194824219e+00 -2.408520413155201823e-05 -3.858411218971014023e-05 -1.880079435068182647e-05 2.555706851126160473e-05
1.743000000000000000e+03 3.588538169860839844e+00 3.809570550918579102e+00 3.944304626202210784e-05 1.725169749988708645e-05 1.700842403806746006e-05 -2.537941873015370220e-05
1.744000000000000000e+03 2.043175315856933594e+01 -2.054953813552856445e+00 -9.027007818222045898e-01 2.044785916805267334e-01 -2.094666659832000732e-01 3.282267749309539795e-01
1.745000000000000000e+03 1.150398826599121094e+01 -4.096990108489990234e+00 -4.988242387771606445e-01 9.175188839435577393e-02 -1.221217066049575806e-01 -3.442094027996063232e-01
1.746000000000000000e+03 7.622117614746093750e+01 -1.125560760498046875e+01 -6.432621926069259644e-02 -5.863210931420326233e-02 -3.688750043511390686e-02 -1.006615906953811646e-01
1.747000000000000000e+03 7.455526733398437500e+01 -1.222706413269042969e+01 -1.236287653446197510e-01 -1.960898935794830322e-02 -4.297132790088653564e-02 -1.028466075658798218e-01
1.748000000000000000e+03 4.641323089599609375e+01 -1.199754047393798828e+01 -6.731863617897033691e-01 2.531867325305938721e-01 -1.259998828172683716e-01 4.341949224472045898e-01
1.749000000000000000e+03 9.133078575134277344e+00 -3.343262434005737305e+00 -4.805133938789367676e-01 1.081870310008525848e-02 -1.409084051847457886e-01 -3.651524782180786133e-01
1.750000000000000000e+03 4.503255462646484375e+01 -1.011877632141113281e+01 -1.932136416435241699e-01 1.062583401799201965e-01 -2.608659118413925171e-02 3.867317736148834229e-01
1.751000000000000000e+03 1.398599815368652344e+01 -4.799138069152832031e+00 -4.542871713638305664e-01 2.091728299856185913e-01 -7.353430241346359253e-02 -2.012679874897003174e-01
1.752000000000000000e+03 1.595742321014404297e+01 -3.153075695037841797e+00 -7.774609327316284180e-01 1.476470381021499634e-01 -1.889441758394241333e-01 -2.888770587742328644e-02
1.753000000000000000e+03 9.648851394653320312e+00 3.928356647491455078e+00 -2.279064574395306408e-05 -2.898043567256536335e-05 -1.553132460685446858e-05 1.776347926352173090e-05
1.754000000000000000e+03 1.382000064849853516e+01 -4.019608497619628906e+00 -5.809378027915954590e-01 1.425347924232482910e-01 -1.315208971500396729e-01 -2.028743177652359009e-01
1.755000000000000000e+03 6.285791397094726562e+00 5.750636577606201172e+00 9.185295493807643652e-05 -1.538472020001790952e-06 2.709434374992270023e-05 -4.330361844040453434e-05
1.756000000000000000e+03 7.476596832275390625e+00 4.054182529449462891e+00 5.056596273789182305e-05 1.209087986353551969e-05 1.879705268947873265e-05 -2.087453140120487660e-05
1.757000000000000000e+03 4.501832485198974609e+00 4.604947566986083984e+00 3.555687726475298405e-05 1.073197927325963974e-05 1.388665623380802572e-05 -2.648543886607512832e-05
1.758000000000000000e+03 5.898155689239501953e+00 3.453339815139770508e+00 -1.619113754713907838e-05 -1.646048622205853462e-05 -9.795487130759283900e-06 2.836738531186711043e-06
1.759000000000000000e+03 4.362184047698974609e+00 3.694723129272460938e+00 -1.422722561983391643e-05 -1.419985801476286724e-05 -8.528125363227445632e-06 3.342038326081819832e-06
1.760000000000000000e+03 6.186678886413574219e+00 -3.372125148773193359e+00 -2.856598198413848877e-01 -5.322472006082534790e-02 -1.016653627157211304e-01 -3.425712287425994873e-01
1.761000000000000000e+03 7.144316673278808594e+00 -4.796433925628662109e+00 -2.386544048786163330e-01 -5.578887090086936951e-02 -8.833298087120056152e-02 -4.368173182010650635e-01
1.762000000000000000e+03 7.758288383483886719e+00 -4.064982891082763672e+00 -3.280209302902221680e-01 -2.540296688675880432e-02 -1.060271635651588440e-01 -4.084437191486358643e-01
1.763000000000000000e+03 5.463549137115478516e+00 -3.454889535903930664e+00 -2.359268069267272949e-01 -7.312050461769104004e-02 -9.271419048309326172e-02 -3.251925706863403320e-01
1.764000000000000000e+03 4.738086700439453125e+00 -3.607762336730957031e+00 -1.863637119531631470e-01 -9.663268178701400757e-02 -8.489891886711120605e-02 -3.082843124866485596e-01
1.765000000000000000e+03 3.037010908126831055e+00 -4.778140068054199219e+00 -7.545674592256546021e-02 -2.010765224695205688e-01 -8.295997977256774902e-02 -2.689007520675659180e-01
1.766000000000000000e+03 8.487070083618164062e+00 -4.078205585479736328e+00 -3.620527386665344238e-01 -1.740152016282081604e-03 -1.091378629207611084e-01 -4.117916226387023926e-01
1.767000000000000000e+03 9.991648674011230469e+00 -4.101728916168212891e+00 -4.336076080799102783e-01 4.449825361371040344e-02 -1.167328059673309326e-01 -3.926350474357604980e-01
1.768000000000000000e+03 1.745127868652343750e+01 -4.649776458740234375e+00 -5.123508572578430176e-01 3.030132055282592773e-01 -6.280129402875900269e-02 6.334829330444335938e-02
1.769000000000000000e+03 1.818572807312011719e+01 -3.743381261825561523e+00 -7.080650329589843750e-01 2.689765393733978271e-01 -1.317265480756759644e-01 1.353562176227569580e-01
1.770000000000000000e+03 3.828495025634765625e+01 -1.753759384155273438e+01 -1.383393828291445971e-04 -4.295450344216078520e-04 -1.703653251752257347e-04 1.031376887112855911e-04
1.771000000000000000e+03 8.925450325012207031e+00 3.952830791473388672e+00 5.156846600584685802e-05 1.507767501607304439e-05 1.999384221562650055e-05 -7.122400802472839132e-06
1.772000000000000000e+03 3.432293319702148438e+01 -6.284126281738281250e+00 1.413623988628387451e-01 -1.937784701585769653e-01 -1.572481915354728699e-02 4.071330130100250244e-01
1.773000000000000000e+03 4.704697036743164062e+01 -1.216840267181396484e+01 -7.018080353736877441e-01 2.634483873844146729e-01 -1.315078884363174438e-01 4.023013710975646973e-01
1.774000000000000000e+03 1.672397994995117188e+01 -3.875547170639038086e+00 -6.562998890876770020e-01 2.223138809204101562e-01 -1.301958113908767700e-01 2.762633562088012695e-02
1.775000000000000000e+03 1.227291774749755859e+01 -4.088778972625732422e+00 -5.299957394599914551e-01 1.132494062185287476e-01 -1.250239014625549316e-01 -3.036256134510040283e-01
1.776000000000000000e+03 6.858105468750000000e+01 -1.237442398071289062e+01 -4.814286231994628906e-01 5.641770362854003906e-02 -1.275032758712768555e-01 -5.626539140939712524e-02
1.777000000000000000e+03 6.969720458984375000e+01 -1.321158885955810547e+01 -3.106054067611694336e-01 5.452686920762062073e-02 -7.682356238365173340e-02 -2.949185669422149658e-02
1.778000000000000000e+03 3.717424392700195312e+01 -3.042368888854980469e+00 2.213305681943893433e-01 -1.423510015010833740e-01 2.369387261569499969e-02 1.347970813512802124e-01
1.779000000000000000e+03 7.194798278808593750e+01 -1.232766151428222656e+01 -2.394755482673645020e-01 3.750339895486831665e-02 -6.059164553880691528e-02 -1.043423935770988464e-01
1.780000000000000000e+03 7.567641448974609375e+01 -1.193467903137207031e+01 -9.237329661846160889e-02 -4.185792058706283569e-02 -4.026936367154121399e-02 -9.760002791881561279e-02
1.781000000000000000e+03 4.012507247924804688e+01 -9.153436660766601562e+00 -1.134549230337142944e-01 -3.134393990039825439e-01 -1.280682981014251709e-01 3.642636239528656006e-01
1.782000000000000000e+03 4.034625625610351562e+01 -6.606860160827636719e+00 2.997149229049682617e-01 -2.499226182699203491e-01 1.493769232183694839e-02 2.314594388008117676e-01
1.783000000000000000e+03 2.030445098876953125e+01 -2.784339666366577148e+00 -9.032478332519531250e-01 2.661775052547454834e-01 -1.911211013793945312e-01 3.068370521068572998e-01
1.784000000000000000e+03 2.240677642822265625e+01 -4.634275913238525391e+00 -9.759326577186584473e-01 1.747927069664001465e-01 -2.403419911861419678e-01 5.421357229351997375e-02
1.785000000000000000e+03 2.241212654113769531e+01 -7.307484149932861328e+00 4.545254707336425781e-01 -6.941850483417510986e-02 1.155320852994918823e-01 2.222321368753910065e-02
1.786000000000000000e+03 1.456582260131835938e+01 -3.947582244873046875e+00 -6.084640622138977051e-01 1.587410867214202881e-01 -1.349169015884399414e-01 -1.488690823316574097e-01
1.787000000000000000e+03 1.529166984558105469e+01 -3.875815391540527344e+00 -6.228663921356201172e-01 1.804947853088378906e-01 -1.327114701271057129e-01 -9.582138061523437500e-02
1.788000000000000000e+03 4.762252426147460938e+01 -1.487782096862792969e+01 -1.045785427093505859e+00 1.937873512506484985e-01 -2.555994093418121338e-01 1.791346520185470581e-01
1.789000000000000000e+03 7.165483856201171875e+01 -1.177955818176269531e+01 -2.526606917381286621e-01 3.611588478088378906e-02 -6.496344506740570068e-02 -1.299036890268325806e-01
1.790000000000000000e+03 4.146091842651367188e+01 -9.868599891662597656e+00 -2.192141264677047729e-01 -2.332856506109237671e-01 -1.357499361038208008e-01 3.640106618404388428e-01
1.791000000000000000e+03 4.181808471679687500e+01 -9.082733154296875000e+00 -4.936257749795913696e-02 -1.961743235588073730e-01 -7.366106659173965454e-02 3.315572738647460938e-01
1.792000000000000000e+03 3.481079483032226562e+01 -3.402496814727783203e+00 6.225797161459922791e-02 -8.471465855836868286e-02 -6.737006362527608871e-03 2.864125967025756836e-01
1.793000000000000000e+03 3.792559432983398438e+01 -8.201154708862304688e+00 -7.359809707850217819e-03 -3.238902986049652100e-01 -9.937502443790435791e-02 3.572666645050048828e-01
1.794000000000000000e+03 7.367991638183593750e+01 -1.203947448730468750e+01 -1.567654609680175781e-01 3.207057015970349312e-04 -4.693342372775077820e-02 -1.033863425254821777e-01
1.795000000000000000e+03 3.728478622436523438e+01 -8.151383399963378906e+00 -1.783836632966995239e-02 -3.251859247684478760e-01 -1.029072850942611694e-01 3.606492280960083008e-01
1.796000000000000000e+03 3.619030761718750000e+01 -7.247618675231933594e+00 8.230382204055786133e-02 -2.806209325790405273e-01 -5.949513241648674011e-02 3.582125604152679443e-01
1.797000000000000000e+03 3.110366821289062500e+01 -3.689054489135742188e+00 -2.826976478099822998e-01 2.077566832304000854e-01 -2.248228713870048523e-02 3.648310303688049316e-01
1.798000000000000000e+03 3.043608093261718750e+01 -3.189807415008544922e+00 -4.221258461475372314e-01 2.450021952390670776e-01 -5.313709378242492676e-02 2.533141672611236572e-01
1.799000000000000000e+03 4.324045562744140625e+01 -9.994144439697265625e+00 -2.029824703931808472e-01 -7.536885142326354980e-02 -8.350539952516555786e-02 3.682936728000640869e-01
1.800000000000000000e+03 1.888958358764648438e+01 -3.648027896881103516e+00 -7.475550770759582520e-01 2.725805640220642090e-01 -1.424923688173294067e-01 1.798910200595855713e-01
1.801000000000000000e+03 7.274401092529296875e+01 -1.208883571624755859e+01 -1.873249560594558716e-01 5.961283110082149506e-03 -5.440910160541534424e-02 -1.191685348749160767e-01
1.802000000000000000e+03 6.978330230712890625e+01 -1.192675495147705078e+01 -4.206325411796569824e-01 6.800416111946105957e-02 -1.057885140180587769e-01 -1.217447668313980103e-01
1.803000000000000000e+03 7.280229187011718750e+01 -1.966373634338378906e+01 1.885717756522353739e-05 9.132450941251590848e-06 8.396888915740419179e-06 -5.395211701397784054e-06
1.804000000000000000e+03 3.248331832885742188e+01 -3.612013339996337891e+00 -9.327945858240127563e-02 3.295973688364028931e-02 -1.809591799974441528e-02 3.698127865791320801e-01
1.805000000000000000e+03 3.413292694091796875e+01 -5.452772617340087891e+00 1.219854801893234253e-01 -1.553542464971542358e-01 -1.001063082367181778e-02 4.089288711547851562e-01
1.806000000000000000e+03 3.316492080688476562e+01 -4.776196002960205078e+00 4.833692312240600586e-02 -5.048223957419395447e-02 -6.435951800085604191e-04 4.335226416587829590e-01
1.807000000000000000e+03 3.944302749633789062e+01 -2.319079399108886719e+00 2.896148264408111572e-01 -6.565070897340774536e-02 6.718923896551132202e-02 -5.020630359649658203e-02
1.808000000000000000e+03 3.429477691650390625e+01 -4.889459609985351562e+00 1.139924526214599609e-01 -1.353217810392379761e-01 -6.398797500878572464e-03 3.909449875354766846e-01
1.809000000000000000e+03 3.430765151977539062e+01 -3.610800027847290039e+00 3.446125984191894531e-02 -7.992289960384368896e-02 -1.363849267363548279e-02 3.195371925830841064e-01
1.810000000000000000e+03 3.187220001220703125e+01 -6.668102741241455078e+00 3.063683211803436279e-01 -5.656976252794265747e-02 7.493956387042999268e-02 4.962906837463378906e-01
1.811000000000000000e+03 2.816545677185058594e+01 -4.698402404785156250e+00 -7.913810014724731445e-01 4.820655882358551025e-01 -9.279463440179824829e-02 5.131663084030151367e-01
1.812000000000000000e+03 4.309872055053710938e+01 -1.963467788696289062e+01 -4.595023638103157282e-04 -1.867540122475475073e-04 -1.938769128173589706e-04 1.280339201912283897e-04
1.813000000000000000e+03 3.273574829101562500e+01 -5.752388477325439453e+00 1.621622294187545776e-01 -7.078095525503158569e-02 2.741438336670398712e-02 4.919990003108978271e-01
1.814000000000000000e+03 3.258205795288085938e+01 -6.681822299957275391e+00 2.477332055568695068e-01 -1.270598173141479492e-01 3.620201721787452698e-02 4.448429942131042480e-01
1.815000000000000000e+03 3.759683227539062500e+01 -1.745942497253417969e+01 3.171573043800890446e-04 -3.177246981067582965e-05 8.561545109841972589e-05 3.671602171380072832e-04
1.816000000000000000e+03 4.294531631469726562e+01 -8.760469436645507812e+00 6.223898753523826599e-02 -1.079143285751342773e-01 -1.370260212570428848e-02 3.178329467773437500e-01
1.817000000000000000e+03 4.455434417724609375e+01 -7.516626834869384766e+00 5.046049952507019043e-01 3.474460681900382042e-03 1.524238288402557373e-01 2.168352454900741577e-01
1.818000000000000000e+03 1.367412567138671875e+01 -1.002699375152587891e+01 4.252317249774932861e-01 6.995205879211425781e-01 3.374256789684295654e-01 -9.857903420925140381e-02
1.819000000000000000e+03 1.451091861724853516e+01 -1.123086261749267578e+01 7.340599298477172852e-01 9.250807762145996094e-01 4.977422058582305908e-01 1.827434450387954712e-01
1.820000000000000000e+03 3.533124542236328125e+01 -6.019102573394775391e+00 1.411376297473907471e-01 -2.274730205535888672e-01 -2.590061351656913757e-02 3.735778331756591797e-01
1.821000000000000000e+03 3.652680587768554688e+01 1.313734245300292969e+01 -6.567017175257205963e-03 1.073833205737173557e-03 -1.647955155931413174e-03 2.172351581975817680e-03
1.822000000000000000e+03 2.856213569641113281e+01 -6.185016632080078125e+00 1.201630830764770508e-01 4.921303391456604004e-01 1.836880296468734741e-01 7.502066493034362793e-01
1.823000000000000000e+03 4.269854736328125000e+01 -1.906906509399414062e+01 -5.013750051148235798e-04 -1.974383922060951591e-04 -2.096440148307010531e-04 3.645398919616127387e-06
1.824000000000000000e+03 3.118944931030273438e+01 -5.821661949157714844e+00 1.402423232793807983e-01 1.250481158494949341e-01 7.958713173866271973e-02 6.159819960594177246e-01
1.825000000000000000e+03 4.864465713500976562e+01 -1.404598903656005859e+01 -1.185669422149658203e+00 1.226696893572807312e-01 -3.188999295234680176e-01 2.059267908334732056e-01
1.826000000000000000e+03 4.966230010986328125e+01 -1.284180927276611328e+01 -1.044441342353820801e+00 1.974003314971923828e-01 -2.541123032569885254e-01 2.376534938812255859e-01
1.827000000000000000e+03 3.860786819458007812e+01 -2.284460639953613281e+01 -6.094974000006914139e-03 1.489070942625403404e-03 -1.381770940497517586e-03 -1.378402928821742535e-03
1.828000000000000000e+03 4.147106933593750000e+01 -2.086241531372070312e+01 -2.003078348934650421e-03 -2.281931083416566253e-04 -6.693814648315310478e-04 6.690327427349984646e-04
1.829000000000000000e+03 3.739503479003906250e+01 -2.455262660980224609e+00 1.911948472261428833e-01 -1.083877012133598328e-01 2.484214305877685547e-02 7.235454767942428589e-02
1.830000000000000000e+03 1.539520263671875000e+01 4.749475479125976562e+00 1.741879168548621237e-05 8.517206879332661629e-05 3.077725705225020647e-05 2.010754724324215204e-05
1.831000000000000000e+03 1.707887649536132812e+01 5.433033466339111328e+00 5.326702375896275043e-05 6.598357140319421887e-05 3.577517782105132937e-05 4.035637903143651783e-05
1.832000000000000000e+03 1.275109004974365234e+01 -1.265891265869140625e+01 6.026501059532165527e-01 9.221360087394714355e-01 4.574358165264129639e-01 -1.550026517361402512e-02
1.833000000000000000e+03 1.113146114349365234e+01 -1.449793720245361328e+01 5.638363361358642578e-01 7.557347416877746582e-01 3.958713412284851074e-01 -5.845215916633605957e-02
1.834000000000000000e+03 2.951700019836425781e+01 -5.164039611816406250e+00 -2.616827785968780518e-01 4.045671224594116211e-01 4.286530613899230957e-02 5.981895923614501953e-01
1.835000000000000000e+03 2.910391235351562500e+01 -5.961746215820312500e+00 -3.095368109643459320e-02 4.442041814327239990e-01 1.239751502871513367e-01 7.167153358459472656e-01
1.836000000000000000e+03 4.666527557373046875e+01 -1.128766345977783203e+01 -4.291016757488250732e-01 2.666467726230621338e-01 -4.873647168278694153e-02 4.602739214897155762e-01
1.837000000000000000e+03 6.380250167846679688e+01 -8.480987548828125000e+00 -3.763773739337921143e-01 -3.195137977600097656e-01 -2.087673395872116089e-01 -3.718253970146179199e-01
1.838000000000000000e+03 6.268036651611328125e+01 -1.107604312896728516e+01 -1.073624491691589355e+00 -3.526858687400817871e-01 -4.278931021690368652e-01 -2.697021365165710449e-01
1.839000000000000000e+03 3.931440353393554688e+00 9.120879173278808594e+00 1.155613717855885625e-04 1.605347279109992087e-05 3.948445373680442572e-05 -7.916623872006312013e-05
1.840000000000000000e+03 3.566074371337890625e+01 -5.412836074829101562e+00 1.675801575183868408e-01 -2.142947316169738770e-01 -1.401437073945999146e-02 3.460637927055358887e-01
1.841000000000000000e+03 3.579941940307617188e+01 -2.582762718200683594e+00 8.927168697118759155e-02 -8.272078633308410645e-02 1.965269912034273148e-03 1.632297933101654053e-01
1.842000000000000000e+03 4.480157375335693359e+00 2.312289047241210938e+01 -2.548268821556121111e-04 -4.670207563322037458e-04 -2.165542973671108484e-04 6.200153147801756859e-04
1.843000000000000000e+03 3.746360397338867188e+01 1.024717044830322266e+01 -1.833496033214032650e-03 -6.128564709797501564e-04 -7.339057628996670246e-04 2.096664829878136516e-04
1.844000000000000000e+03 5.358901977539062500e+01 2.355361938476562500e+01 1.960770040750503540e-01 1.161661744117736816e-02 6.230808794498443604e-02 -1.340581029653549194e-01
1.845000000000000000e+03 6.099046707153320312e+01 -1.031282997131347656e+01 -8.172292709350585938e-01 -1.278115659952163696e-01 -2.835122346878051758e-01 -2.779300212860107422e-01
1.846000000000000000e+03 1.650213432312011719e+01 -2.872017288208007812e+01 6.035181507468223572e-02 6.452240347862243652e-01 2.116727679967880249e-01 -2.203433066606521606e-01
1.847000000000000000e+03 1.682240295410156250e+01 -2.653424835205078125e+01 2.304779142141342163e-01 7.417054176330566406e-01 2.916550040245056152e-01 -3.688820600509643555e-01
1.848000000000000000e+03 6.779373168945312500e+01 -2.739031982421875000e+01 8.777803304838016629e-05 -5.910921390750445426e-05 8.600645742262713611e-06 9.698782378109171987e-06
1.849000000000000000e+03 6.823255920410156250e+01 -1.110951519012451172e+01 -7.503737807273864746e-01 1.238632798194885254e-01 -1.879531592130661011e-01 -2.518122494220733643e-01
1.850000000000000000e+03 5.734370422363281250e+01 -1.047608947753906250e+01 -6.891664266586303711e-01 1.373956352472305298e-01 -1.655312329530715942e-01 -3.041083216667175293e-01
1.851000000000000000e+03 2.075314331054687500e+01 2.733695602416992188e+01 -5.795209668576717377e-03 -4.669890739023685455e-03 -3.139530075713992119e-03 8.945214562118053436e-03
1.852000000000000000e+03 1.760528945922851562e+01 2.395146369934082031e+01 -1.056232582777738571e-02 -2.516777021810412407e-04 -3.244200954213738441e-03 3.738584928214550018e-03
1.853000000000000000e+03 7.354232788085937500e+01 2.638138580322265625e+01 -1.829752326011657715e-02 -3.160771131515502930e-01 -1.003123894333839417e-01 2.421711385250091553e-01
1.854000000000000000e+03 3.626867675781250000e+01 6.305157661437988281e+00 6.293286569416522980e-04 -1.549142762087285519e-04 1.423243083991110325e-04 1.902014046208932996e-04
1.855000000000000000e+03 3.706789779663085938e+01 6.077928066253662109e+00 -6.660011131316423416e-04 3.104183633695356548e-05 -1.904877863125875592e-04 4.889356205239892006e-05
1.856000000000000000e+03 7.659188079833984375e+01 -3.452296829223632812e+01 1.954924482561182231e-05 1.090906807803548872e-04 3.859197749989107251e-05 -5.040836185798980296e-05
1.857000000000000000e+03 7.639579772949218750e+01 -3.291523361206054688e+01 2.336899115107371472e-06 9.619678894523531199e-05 2.956010575871914625e-05 -6.970362301217392087e-05
1.858000000000000000e+03 7.574649810791015625e+01 9.158452749252319336e-01 3.403378650546073914e-02 -5.580297112464904785e-01 -1.571987718343734741e-01 -2.761282026767730713e-01
1.859000000000000000e+03 6.401968002319335938e+00 -2.996901130676269531e+01 -5.897966772317886353e-02 -1.415485441684722900e-01 -6.015846505761146545e-02 2.285268157720565796e-01
1.860000000000000000e+03 3.985429286956787109e+00 -3.030305862426757812e+01 -2.535920776426792145e-02 -4.537732899188995361e-01 -1.437397450208663940e-01 1.983246952295303345e-01
1.861000000000000000e+03 3.401730298995971680e+00 -6.125511646270751953e+00 -4.851691424846649170e-02 -2.952544093132019043e-01 -1.031313985586166382e-01 -3.338106870651245117e-01
1.862000000000000000e+03 6.769038200378417969e+00 -2.222804832458496094e+01 1.649700850248336792e-01 -1.153674796223640442e-01 1.488078013062477112e-02 1.866915076971054077e-01
1.863000000000000000e+03 1.097740077972412109e+01 1.419808864593505859e+01 -6.544543430209159851e-05 -1.368800585623830557e-04 -6.069764640415087342e-05 5.014032285544089973e-05
1.864000000000000000e+03 1.210082626342773438e+01 1.458209419250488281e+01 1.937137858476489782e-04 2.204524389526341110e-05 6.472770473919808865e-05 2.196227142121642828e-04
1.865000000000000000e+03 4.046369552612304688e+01 -5.326246738433837891e+00 4.113513231277465820e-01 -1.968391686677932739e-01 6.435364484786987305e-02 1.587991863489151001e-01
1.866000000000000000e+03 3.852452087402343750e+01 -5.572309017181396484e+00 3.067910969257354736e-01 -2.669723629951477051e-01 1.194562204182147980e-02 2.345893234014511108e-01
1.867000000000000000e+03 4.867114543914794922e+00 5.354556560516357422e+00 4.991961031919345260e-05 -3.306232656541396864e-06 1.398401309415930882e-05 7.519400696764932945e-06
1.868000000000000000e+03 3.519497299194335938e+01 4.761517524719238281e+00 2.320970816072076559e-04 1.401359186274930835e-04 1.116698986152186990e-04 -4.192498163320124149e-04
1.869000000000000000e+03 3.622788238525390625e+01 9.364136695861816406e+00 -3.867252962663769722e-04 -3.077899455092847347e-04 -2.083545841742306948e-04 -2.173385437345132232e-04
1.870000000000000000e+03 7.231967926025390625e+01 -2.360648155212402344e+01 2.692602902243379503e-05 -4.999302473152056336e-05 -6.920098257978679612e-06 -3.246131382184103131e-05
1.871000000000000000e+03 2.447146987915039062e+01 -7.673814296722412109e+00 9.333755970001220703e-01 -2.094174921512603760e-01 2.171874195337295532e-01 1.853599697351455688e-01
1.872000000000000000e+03 3.574832534790039062e+01 1.050671482086181641e+01 -1.600611954927444458e-03 -3.616854082792997360e-04 -5.886891740374267101e-04 5.078817484900355339e-04
1.873000000000000000e+03 7.553423309326171875e+01 1.531450557708740234e+01 6.836934387683868408e-02 -7.835422754287719727e-01 -2.145518809556961060e-01 4.758308827877044678e-02
1.874000000000000000e+03 5.072982406616210938e+01 -1.164950561523437500e+01 -7.220154404640197754e-01 2.978543341159820557e-01 -1.272483319044113159e-01 2.160299718379974365e-01
1.875000000000000000e+03 4.968371200561523438e+01 -1.157143020629882812e+01 -6.406582593917846680e-01 2.931725978851318359e-01 -1.042456924915313721e-01 3.095822632312774658e-01
1.876000000000000000e+03 5.554564285278320312e+01 -1.019170475006103516e+01 -4.757080078125000000e-01 2.254950255155563354e-01 -7.506389170885086060e-02 -1.959976404905319214e-01
1.877000000000000000e+03 5.283216094970703125e+01 -1.120717430114746094e+01 -6.753703355789184570e-01 2.961153686046600342e-01 -1.137764826416969299e-01 -9.081978350877761841e-04
1.878000000000000000e+03 1.208216476440429688e+01 -1.554731464385986328e+01 5.670247077941894531e-01 1.164854884147644043e+00 5.195639133453369141e-01 1.069149971008300781e-01
1.879000000000000000e+03 1.206821632385253906e+01 9.894875526428222656e+00 7.492416625609621406e-05 5.816321936435997486e-05 3.992621714132837951e-05 6.665346154477447271e-05
1.880000000000000000e+03 3.678092956542968750e+01 1.106337356567382812e+01 -2.166673541069030762e-03 -1.244012091774493456e-04 -6.873224047012627125e-04 2.301200875081121922e-04
1.881000000000000000e+03 6.423480224609375000e+01 1.000845432281494141e+01 1.978145390748977661e-01 1.470950007438659668e+00 5.006293654441833496e-01 1.382450312376022339e-01
1.882000000000000000e+03 4.361699676513671875e+01 1.881816864013671875e+01 -2.067764103412628174e-02 7.110922597348690033e-03 -4.070015624165534973e-03 -4.039784893393516541e-03
1.883000000000000000e+03 7.525869750976562500e+01 -2.769910049438476562e+01 1.416877876181388274e-05 -1.681124194874428213e-05 -7.927390583972737659e-07 -8.117502147797495127e-05
1.884000000000000000e+03 7.526270294189453125e+01 -2.899510765075683594e+01 3.246181222493760288e-05 3.837793337879702449e-05 2.125192258972674608e-05 -5.913202039664611220e-05
1.885000000000000000e+03 7.275014495849609375e+01 -3.115981292724609375e+01 -6.433144335460383445e-06 -1.680863169895019382e-05 -6.972532446525292471e-06 -5.757660255767405033e-05
1.886000000000000000e+03 7.721926879882812500e+01 -2.156967735290527344e+01 2.770895298453979194e-05 2.234974317616433837e-06 8.983178304333705455e-06 -8.811464795144274831e-06
1.887000000000000000e+03 7.532842254638671875e+01 3.005386924743652344e+01 -3.160995244979858398e-02 -4.504556059837341309e-01 -1.446196734905242920e-01 1.799855083227157593e-01
1.888000000000000000e+03 1.335743904113769531e+01 -2.154179382324218750e+01 4.488738477230072021e-01 1.542363405227661133e+00 5.973712205886840820e-01 -1.462380439043045044e-01
1.889000000000000000e+03 4.297809219360351562e+01 -2.745794677734375000e+01 -1.013189088553190231e-02 2.616059500724077225e-03 -2.254749415442347527e-03 5.687658209353685379e-03
1.890000000000000000e+03 4.439462280273437500e+01 -2.756628227233886719e+01 -1.010459475219249725e-02 -4.166960425209254026e-04 -3.156387247145175934e-03 6.046588998287916183e-03
1.891000000000000000e+03 5.575520992279052734e+00 -1.316395664215087891e+01 1.805656254291534424e-01 -3.428826928138732910e-01 -4.869511723518371582e-02 -3.195095956325531006e-01
1.892000000000000000e+03 3.390437316894531250e+01 1.881878852844238281e+01 -1.772198267281055450e-02 8.715362637303769588e-04 -5.055133718997240067e-03 1.141396816819906235e-02
1.893000000000000000e+03 3.250357055664062500e+01 1.824786567687988281e+01 -1.442736387252807617e-02 -6.488478276878595352e-03 -6.274752784520387650e-03 1.236305665224790573e-02
1.894000000000000000e+03 4.318099021911621094e+00 1.414110374450683594e+01 -1.148313731391681358e-05 -6.010582001181319356e-05 -2.147668783436529338e-05 -8.862989488989114761e-06
1.895000000000000000e+03 4.744067192077636719e+00 1.234863185882568359e+01 -3.580531119951047003e-05 -7.697592081967741251e-05 -3.383436705917119980e-05 -2.952907379949465394e-05
1.896000000000000000e+03 1.156589889526367188e+01 2.007113647460937500e+01 -1.308946637436747551e-03 4.640340193873271346e-05 -3.787629830185323954e-04 -1.041300129145383835e-04
1.897000000000000000e+03 1.090201473236083984e+01 1.823897552490234375e+01 -5.816673510707914829e-04 -1.759752485668286681e-04 -2.272927667945623398e-04 -2.021131331275682896e-05
1.898000000000000000e+03 1.193825817108154297e+01 2.201557350158691406e+01 -2.885409398004412651e-03 3.884130564983934164e-04 -7.490988937206566334e-04 4.270863137207925320e-04
1.899000000000000000e+03 1.324068927764892578e+01 8.325983047485351562e+00 1.951605372596532106e-05 3.699806984513998032e-05 1.695423634373582900e-05 2.156947857656632550e-06
1.900000000000000000e+03 1.497164440155029297e+01 6.611662864685058594e+00 -2.263276655867230147e-05 -4.188365892332512885e-06 -8.046339644351974130e-06 -2.176016096200328320e-05
1.901000000000000000e+03 7.578501129150390625e+01 -8.373157501220703125e+00 -8.183097839355468750e-02 -1.420228183269500732e-01 -6.715613603591918945e-02 -2.138307690620422363e-01
1.902000000000000000e+03 7.540718841552734375e+01 1.789175415039062500e+01 6.429125368595123291e-02 -7.331305742263793945e-01 -2.006517946720123291e-01 1.110832616686820984e-01
1.903000000000000000e+03 1.618247795104980469e+01 -1.025112724304199219e+01 7.352052330970764160e-01 7.591502666473388672e-01 4.483066499233245850e-01 2.188704460859298706e-01
1.904000000000000000e+03 6.562980651855468750e+01 -9.056489944458007812e+00 -5.806750059127807617e-01 -1.727098226547241211e-01 -2.260154336690902710e-01 -4.955003857612609863e-01
1.905000000000000000e+03 6.477889251708984375e+01 -7.970496177673339844e+00 -2.928216159343719482e-01 -2.066445797681808472e-01 -1.498398631811141968e-01 -4.631954133510589600e-01
1.906000000000000000e+03 7.549716949462890625e+01 7.901336193084716797e+00 6.255251914262771606e-02 -7.201585173606872559e-01 -1.972818076610565186e-01 -1.428426206111907959e-01
1.907000000000000000e+03 3.362227916717529297e+00 3.214138412475585938e+01 -2.331352698092814535e-05 -3.095595631748437881e-03 -9.356727241538465023e-04 1.456347061321139336e-03
1.908000000000000000e+03 3.171001911163330078e+00 3.356335830688476562e+01 1.892234431579709053e-04 -3.519969526678323746e-03 -9.992239065468311310e-04 1.507295761257410049e-03
1.909000000000000000e+03 3.999287796020507812e+01 1.658558273315429688e+01 -1.705889031291007996e-02 7.405070587992668152e-03 -2.896146150305867195e-03 6.301405956037342548e-04
1.910000000000000000e+03 4.371650314331054688e+01 2.198129272460937500e+01 3.539801982697099447e-04 1.236265618354082108e-02 3.814990865066647530e-03 -1.723324414342641830e-03
1.911000000000000000e+03 4.593061828613281250e+01 -7.189339160919189453e+00 7.541863918304443359e-01 7.796961814165115356e-02 2.496467977762222290e-01 2.032237648963928223e-01
1.912000000000000000e+03 4.674587631225585938e+01 -7.855138778686523438e+00 6.103292107582092285e-01 1.421968191862106323e-01 2.257578223943710327e-01 3.393747508525848389e-01
1.913000000000000000e+03 4.150703430175781250e+01 -6.534736633300781250e+00 3.829554319381713867e-01 -1.616056114435195923e-01 6.640494614839553833e-02 1.873967200517654419e-01
1.914000000000000000e+03 4.225781631469726562e+01 -2.440908622741699219e+01 -6.940365768969058990e-03 1.465124194510281086e-03 -1.642572460696101189e-03 3.244101535528898239e-03
1.915000000000000000e+03 5.114316558837890625e+01 -6.777548789978027344e+00 1.337473750114440918e+00 8.600506186485290527e-01 6.592573523521423340e-01 5.121480226516723633e-01
1.916000000000000000e+03 6.555023956298828125e+01 1.832048416137695312e+01 3.644709587097167969e-01 1.072719931602478027e+00 4.311572611331939697e-01 -4.060138389468193054e-02
1.917000000000000000e+03 5.447997283935546875e+01 2.571361160278320312e+01 1.646903604269027710e-01 1.286993026733398438e-01 8.801689743995666504e-02 -1.956025958061218262e-01
1.918000000000000000e+03 6.557949066162109375e+01 1.969341278076171875e+01 3.661375045776367188e-01 9.169039726257324219e-01 3.849124312400817871e-01 1.849418389610946178e-03
1.919000000000000000e+03 6.409258270263671875e+01 1.957905387878417969e+01 4.281346201896667480e-01 1.288492798805236816e+00 5.149881839752197266e-01 -1.167642250657081604e-01
1.920000000000000000e+03 5.849266052246093750e+01 -1.013376903533935547e+01 -7.070922255516052246e-01 7.451184093952178955e-02 -1.897741109132766724e-01 -2.977684140205383301e-01
1.921000000000000000e+03 3.702212905883789062e+01 1.568507289886474609e+01 -1.313795242458581924e-02 4.738899413496255875e-03 -2.519715810194611549e-03 4.785326309502124786e-03
1.922000000000000000e+03 6.368117141723632812e+01 1.164566135406494141e+01 1.313857585191726685e-01 1.759603857994079590e+00 5.672969222068786621e-01 1.261542290449142456e-01
1.923000000000000000e+03 7.605496978759765625e+01 3.143943405151367188e+01 -2.657931111752986908e-02 -4.708953499794006348e-01 -1.492424011230468750e-01 1.508362591266632080e-01
1.924000000000000000e+03 6.552953338623046875e+01 -2.939692306518554688e+01 1.237750075233634561e-05 -6.828938057878986001e-05 -1.677356522122863680e-05 5.866433275514282286e-05
1.925000000000000000e+03 4.666541671752929688e+01 2.436639404296875000e+01 3.539472073316574097e-02 1.428285799920558929e-02 1.490327343344688416e-02 -2.498267590999603271e-02
1.926000000000000000e+03 1.952324485778808594e+01 -7.733225345611572266e+00 3.307251930236816406e-01 3.169536590576171875e-01 1.943036466836929321e-01 1.831742227077484131e-01
1.927000000000000000e+03 4.531805038452148438e+01 2.117135810852050781e+01 -5.966570228338241577e-03 6.529009900987148285e-03 1.687319017946720123e-04 -3.654958214610815048e-03
1.928000000000000000e+03 2.314380645751953125e+01 -3.188660621643066406e+01 4.473179951310157776e-02 2.313575446605682373e-01 8.282680809497833252e-02 -1.658628582954406738e-01
1.929000000000000000e+03 5.662231063842773438e+01 -4.694015502929687500e+00 9.467341899871826172e-01 4.878582060337066650e-01 4.303777217864990234e-01 4.640172421932220459e-01
1.930000000000000000e+03 5.854953765869140625e+01 -4.376540660858154297e+00 6.591687798500061035e-01 3.471893072128295898e-01 3.019074201583862305e-01 2.816454172134399414e-01
1.931000000000000000e+03 4.614915084838867188e+01 -1.104629993438720703e+01 -3.906789422035217285e-01 1.995793581008911133e-01 -5.732987821102142334e-02 4.299882054328918457e-01
1.932000000000000000e+03 4.818891525268554688e+01 -7.871264934539794922e+00 8.208423852920532227e-01 3.367316126823425293e-01 3.472721874713897705e-01 4.106450378894805908e-01
1.933000000000000000e+03 2.923410034179687500e+01 2.448314666748046875e+01 -1.293220184743404388e-02 -8.093573153018951416e-03 -6.307732313871383667e-03 6.210709456354379654e-03
1.934000000000000000e+03 5.568206024169921875e+01 -5.781511306762695312e+00 9.097180962562561035e-01 4.777609407901763916e-01 4.162437021732330322e-01 2.726536989212036133e-01
1.935000000000000000e+03 4.330524444580078125e+01 -2.330312538146972656e+01 -3.590637119486927986e-03 -7.708576158620417118e-04 -1.308448379859328270e-03 2.959015080705285072e-03
1.936000000000000000e+03 4.233597564697265625e+01 -2.342491149902343750e+01 -4.933459218591451645e-03 5.574927781708538532e-04 -1.312789972871541977e-03 2.857633400708436966e-03
1.937000000000000000e+03 7.589929962158203125e+01 -3.592678070068359375e+01 -6.863223825348541141e-05 7.874476432334631681e-05 3.033758730452973396e-06 -6.313084304565563798e-05
1.938000000000000000e+03 5.779832077026367188e+01 -7.837209224700927734e+00 6.346610933542251587e-02 1.874356865882873535e-01 7.527054101228713989e-02 -1.058184579014778137e-01
1.939000000000000000e+03 3.829847335815429688e+01 -1.927454757690429688e+01 -8.320081396959722042e-04 -4.087886773049831390e-04 -3.722390683833509684e-04 1.884145603980869055e-04
1.940000000000000000e+03 4.404214382171630859e+00 3.752541732788085938e+01 5.056813242845237255e-04 -4.490630701184272766e-03 -1.195484772324562073e-03 1.305532641708850861e-03
1.941000000000000000e+03 3.841459655761718750e+01 -3.302103424072265625e+01 -1.643267023609951138e-05 1.010794099420309067e-02 3.027452388778328896e-03 5.231100134551525116e-03
1.942000000000000000e+03 6.743003082275390625e+01 -1.060706138610839844e+01 -6.641830801963806152e-01 2.630687132477760315e-02 -1.913628727197647095e-01 -4.093496203422546387e-01
1.943000000000000000e+03 5.252553462982177734e+00 -3.595981597900390625e+01 -5.854438617825508118e-02 -2.550140023231506348e-01 -9.406751394271850586e-02 1.185702458024024963e-01
1.944000000000000000e+03 4.118572235107421875e+00 -8.402355194091796875e+00 8.395242504775524139e-03 -3.706893026828765869e-01 -1.086882129311561584e-01 -4.046160280704498291e-01
1.945000000000000000e+03 5.152697086334228516e+00 -7.520251274108886719e+00 -2.968533337116241455e-02 -2.414596378803253174e-01 -8.134349435567855835e-02 -4.490290582180023193e-01
1.946000000000000000e+03 6.429329681396484375e+01 6.185336112976074219e+00 3.153909444808959961e-01 1.101270794868469238e+00 4.249985218048095703e-01 1.831431537866592407e-01
1.947000000000000000e+03 4.134732246398925781e+00 7.013792514801025391e+00 9.652405424276366830e-05 2.022256740019656718e-05 3.502398612909018993e-05 -5.553366281674243510e-05
1.948000000000000000e+03 4.536857604980468750e+01 -8.038142204284667969e+00 4.110088646411895752e-01 6.428483128547668457e-02 1.425881087779998779e-01 3.113026022911071777e-01
1.949000000000000000e+03 2.561124801635742188e+01 2.710130882263183594e+01 -5.930205807089805603e-03 -7.205409929156303406e-03 -3.940684720873832703e-03 8.278671652078628540e-03
1.950000000000000000e+03 6.431164550781250000e+01 3.314033985137939453e+00 3.429884910583496094e-01 7.367268204689025879e-01 3.239145874977111816e-01 8.565626293420791626e-02
1.951000000000000000e+03 1.077038383483886719e+01 -1.629804992675781250e+01 4.851846396923065186e-01 8.284419178962707520e-01 3.940879702568054199e-01 -1.330144982784986496e-02
1.952000000000000000e+03 6.309067535400390625e+01 -3.246850967407226562e+01 -6.388734327629208565e-04 -1.357149303657934070e-04 -2.323765074834227562e-04 2.731061831582337618e-04
1.953000000000000000e+03 6.458323669433593750e+01 -3.269396591186523438e+01 -2.526266325730830431e-04 -1.710773503873497248e-04 -1.271111977985128760e-04 2.837850479409098625e-04
1.954000000000000000e+03 3.950126266479492188e+01 -2.566766166687011719e+01 -1.039484795182943344e-02 4.986811894923448563e-03 -1.622410723939538002e-03 1.131895929574966431e-03
1.955000000000000000e+03 2.306115722656250000e+01 -1.817188739776611328e+00 -6.750419139862060547e-01 -1.069269031286239624e-01 -2.345906347036361694e-01 5.108703970909118652e-01
1.956000000000000000e+03 2.774603843688964844e+01 -5.754312038421630859e+00 -1.926544904708862305e-01 4.192258417606353760e-01 6.797140091657638550e-02 7.073695659637451172e-01
1.957000000000000000e+03 2.264533424377441406e+01 -2.173472404479980469e+00 -8.362987041473388672e-01 1.081222947686910629e-02 -2.476459443569183350e-01 5.191088914871215820e-01
1.958000000000000000e+03 2.340224456787109375e+01 -2.153792858123779297e+00 -7.617943882942199707e-01 -2.227067500352859497e-01 -2.953503429889678955e-01 6.275728344917297363e-01
1.959000000000000000e+03 3.469141769409179688e+01 -5.710731506347656250e+00 1.474892199039459229e-01 -1.878966540098190308e-01 -1.212223060429096222e-02 3.915870785713195801e-01
1.960000000000000000e+03 3.561060333251953125e+01 -6.945664882659912109e+00 9.505319595336914062e-02 -2.601223289966583252e-01 -4.952073842287063599e-02 3.665562272071838379e-01
1.961000000000000000e+03 1.565765857696533203e+01 5.843422889709472656e+00 2.207525903941132128e-05 5.731531200581230223e-05 2.381717240496072918e-05 3.826016109087504447e-05
1.962000000000000000e+03 1.615511322021484375e+01 3.831088781356811523e+00 2.729056541284080595e-05 -1.115997747547226027e-05 4.839176654058974236e-06 1.591154068592004478e-05
1.963000000000000000e+03 3.505534744262695312e+01 -2.921622276306152344e+00 6.221526488661766052e-02 -8.696132153272628784e-02 -7.423817645758390427e-03 2.376370429992675781e-01
1.964000000000000000e+03 1.667856788635253906e+01 4.288998603820800781e+00 1.455834808439249173e-05 6.448372005252167583e-05 2.371261871303431690e-05 3.289006053819321096e-05
1.965000000000000000e+03 1.253826618194580078e+01 7.500392436981201172e+00 9.900635632220655680e-06 -6.376904821081552655e-06 1.057119220604363363e-06 7.760008156765252352e-05
1.966000000000000000e+03 1.395149230957031250e+01 4.698179721832275391e+00 2.207986472058109939e-05 7.905253733042627573e-05 3.033972097910009325e-05 4.006041081083822064e-07
1.967000000000000000e+03 2.157221221923828125e+01 -1.674765467643737793e+00 -8.245787024497985840e-01 1.397650688886642456e-01 -2.054440975189208984e-01 3.992740213871002197e-01
1.968000000000000000e+03 4.129170989990234375e+01 -1.920771026611328125e+01 -9.308308362960815430e-04 -3.915070847142487764e-04 -3.967013617511838675e-04 1.137620638473890722e-04
1.969000000000000000e+03 4.221885681152343750e+01 -2.141716003417968750e+01 -2.036155667155981064e-03 -1.295376860070973635e-04 -6.497080321423709393e-04 9.859171696007251740e-04
1.970000000000000000e+03 3.925828170776367188e+01 -1.814312553405761719e+01 -3.288653097115457058e-04 -4.442668869160115719e-04 -2.319396589882671833e-04 2.226285141659900546e-04
1.971000000000000000e+03 2.910618782043457031e+01 -3.067337751388549805e+00 -6.984795331954956055e-01 3.196510970592498779e-01 -1.136485263705253601e-01 6.546542048454284668e-02
1.972000000000000000e+03 1.112026214599609375e+01 4.580032348632812500e+00 5.211478855926543474e-05 3.230835864087566733e-05 2.532694452384021133e-05 -6.701488018734380603e-06
1.973000000000000000e+03 2.967820167541503906e+01 -2.937191486358642578e+00 -5.628555417060852051e-01 2.819041609764099121e-01 -8.428542315959930420e-02 1.373944878578186035e-01
1.974000000000000000e+03 3.060661888122558594e+01 -3.695316076278686523e+00 -3.718090057373046875e-01 2.453762441873550415e-01 -3.792982548475265503e-02 3.278807699680328369e-01
1.975000000000000000e+03 1.040003871917724609e+01 4.581858158111572266e+00 -2.914062861236743629e-05 -3.478630605968646705e-05 -1.917808003781829029e-05 3.202680090907961130e-05
1.976000000000000000e+03 7.328103637695312500e+01 -2.062260437011718750e+01 4.685349995270371437e-05 -1.562306715641170740e-05 9.369129656988661736e-06 -1.431162218068493530e-05
1.977000000000000000e+03 1.186318206787109375e+01 4.617811203002929688e+00 -3.044399090867955238e-05 -3.551265035639517009e-05 -1.978699219762347639e-05 2.024843706749379635e-05
1.978000000000000000e+03 1.160845565795898438e+01 -4.874439239501953125e+00 -3.833937644958496094e-01 1.300736963748931885e-01 -7.599601894617080688e-02 -3.660576641559600830e-01
1.979000000000000000e+03 1.085513877868652344e+01 -4.887710571289062500e+00 -3.632240295410156250e-01 9.683704376220703125e-02 -7.991609722375869751e-02 -3.951092660427093506e-01
1.980000000000000000e+03 9.695609092712402344e+00 4.607746124267578125e+00 6.917240534676238894e-05 1.004156911221798509e-05 2.376419251959305257e-05 -1.246079955308232456e-05
1.981000000000000000e+03 2.166346168518066406e+01 -5.465073108673095703e+00 -5.312574505805969238e-01 2.014205753803253174e-01 -9.895107150077819824e-02 2.384984679520130157e-02
1.982000000000000000e+03 2.244039916992187500e+01 -3.920319318771362305e+00 -1.158443331718444824e+00 2.214764207601547241e-01 -2.810900509357452393e-01 2.277492731809616089e-01
1.983000000000000000e+03 4.315257549285888672e+00 -6.528468608856201172e+00 -5.877010151743888855e-02 -2.552096545696258545e-01 -9.419392794370651245e-02 -3.978006541728973389e-01
1.984000000000000000e+03 5.002452850341796875e+00 -5.304460525512695312e+00 -1.244050934910774231e-01 -1.671449691057205200e-01 -8.746501803398132324e-02 -3.921104669570922852e-01
1.985000000000000000e+03 2.895604705810546875e+01 -5.409883499145507812e+00 -2.427880764007568359e-01 4.825241565704345703e-01 7.192082703113555908e-02 6.668506860733032227e-01
1.986000000000000000e+03 4.366568756103515625e+01 -9.198747634887695312e+00 1.681358367204666138e-02 -4.737859964370727539e-02 -9.169504046440124512e-03 3.320203125476837158e-01
1.987000000000000000e+03 1.473722457885742188e+01 -4.682171821594238281e+00 -4.769779443740844727e-01 2.164438813924789429e-01 -7.816021144390106201e-02 -1.417472064495086670e-01
1.988000000000000000e+03 6.481627941131591797e+00 -4.758540630340576172e+00 -2.112072855234146118e-01 -7.974991202354431152e-02 -8.728715777397155762e-02 -4.228748381137847900e-01
1.989000000000000000e+03 5.048296928405761719e+00 -4.336479187011718750e+00 -1.705713421106338501e-01 -1.188231632113456726e-01 -8.681835234165191650e-02 -3.541375994682312012e-01
1.990000000000000000e+03 3.081177330017089844e+01 -4.193701744079589844e+00 -2.884914875030517578e-01 2.590825259685516357e-01 -8.822683244943618774e-03 4.377683997154235840e-01
1.991000000000000000e+03 5.513615608215332031e+00 5.694944381713867188e+00 -6.689167639706283808e-05 -4.187716058368096128e-06 -2.132381814590189606e-05 1.201599570777034387e-05
1.992000000000000000e+03 6.032536983489990234e+00 4.222462654113769531e+00 6.146700616227462888e-05 -2.745906385825946927e-06 1.761633029673248529e-05 -2.070907976303715259e-05
1.993000000000000000e+03 9.233206748962402344e+00 -4.091619968414306641e+00 -4.007590115070343018e-01 2.088558487594127655e-02 -1.139620319008827209e-01 -4.071270525455474854e-01
1.994000000000000000e+03 1.008917903900146484e+01 -4.871575832366943359e+00 -3.421012759208679199e-01 6.781141459941864014e-02 -8.228695392608642578e-02 -4.211002290248870850e-01
1.995000000000000000e+03 8.197841644287109375e+00 3.992656230926513672e+00 -1.317604892392409965e-05 -3.035303052456583828e-05 -1.305872410739539191e-05 1.366189553664298728e-05
1.996000000000000000e+03 6.911068916320800781e+00 4.899668693542480469e+00 6.687288259854540229e-05 3.384702949915663339e-06 2.107727596012409776e-05 -3.592934808693826199e-05
1.997000000000000000e+03 1.305153751373291016e+01 -4.068169116973876953e+00 -5.546008348464965820e-01 1.314561814069747925e-01 -1.269433945417404175e-01 -2.536922097206115723e-01
1.998000000000000000e+03 4.612819194793701172e+00 -5.834335803985595703e+00 -9.585137665271759033e-02 -2.063776254653930664e-01 -9.066870063543319702e-02 -3.958301246166229248e-01
1.999000000000000000e+03 7.845566749572753906e+00 -4.824236392974853516e+00 -2.633464336395263672e-01 -2.475273050367832184e-02 -8.642974495887756348e-02 -4.451734721660614014e-01
2.000000000000000000e+03 7.604707717895507812e+00 4.782955169677734375e+00 -6.597539140784647316e-06 -4.078027268406003714e-05 -1.421334309270605445e-05 2.182027492381166667e-05
2.001000000000000000e+03 8.994210243225097656e+00 4.640709877014160156e+00 -2.969401612062938511e-05 -2.299954212503507733e-05 -1.580806747369933873e-05 1.344123938906705007e-05
2.002000000000000000e+03 8.290304183959960938e+00 4.686779022216796875e+00 5.399606379796750844e-05 1.090174191631376743e-05 1.946934207808226347e-05 -5.272846010484499857e-06
2.003000000000000000e+03 8.572727203369140625e+00 -4.839583396911621094e+00 -2.922980487346649170e-01 2.045778324827551842e-03 -8.707568794488906860e-02 -4.447108507156372070e-01
2.004000000000000000e+03 1.745672035217285156e+01 -3.832675695419311523e+00 -6.702407002449035645e-01 2.469076216220855713e-01 -1.269999295473098755e-01 7.460319250822067261e-02
2.005000000000000000e+03 1.816386985778808594e+01 -4.531222343444824219e+00 -5.594186782836914062e-01 3.099083304405212402e-01 -7.485310733318328857e-02 1.053569614887237549e-01
2.006000000000000000e+03 2.128874778747558594e+01 -4.071623802185058594e+00 -8.896378874778747559e-01 3.006359636783599854e-01 -1.767005771398544312e-01 2.073094248771667480e-01
2.007000000000000000e+03 1.961339950561523438e+01 -2.813523054122924805e+00 -8.760526776313781738e-01 2.475890517234802246e-01 -1.885390877723693848e-01 2.565308511257171631e-01
2.008000000000000000e+03 1.600675392150878906e+01 -3.855854749679565430e+00 -6.434558629989624023e-01 2.145587652921676636e-01 -1.286691278219223022e-01 -3.763826936483383179e-02
2.009000000000000000e+03 4.774165725708007812e+01 -1.307441806793212891e+01 -9.212540388107299805e-01 2.641867101192474365e-01 -1.971201896667480469e-01 3.605417907238006592e-01
2.010000000000000000e+03 1.238323020935058594e+01 -4.866102695465087891e+00 -4.047569334506988525e-01 1.672171056270599365e-01 -7.126194983720779419e-02 -3.202120661735534668e-01
2.011000000000000000e+03 1.318732643127441406e+01 -4.858813762664794922e+00 -4.304377436637878418e-01 1.882579922676086426e-01 -7.265391945838928223e-02 -2.651256918907165527e-01
2.012000000000000000e+03 3.877627944946289062e+01 -4.485132217407226562e+00 3.747535347938537598e-01 -2.246671468019485474e-01 4.502591118216514587e-02 1.603398621082305908e-01
2.013000000000000000e+03 3.678448104858398438e+01 -2.572583913803100586e+00 1.445291340351104736e-01 -1.043893024325370789e-01 1.204194873571395874e-02 1.222837790846824646e-01
2.014000000000000000e+03 3.879914093017578125e+01 -1.775573348999023438e+01 -8.572515798732638359e-05 -1.701832079561427236e-04 -7.677251414861530066e-05 7.208656461443752050e-05
2.015000000000000000e+03 7.525640106201171875e+01 -1.249718952178955078e+01 -8.006664365530014038e-02 -2.258957177400588989e-02 -3.079686500132083893e-02 -7.391853630542755127e-02
2.016000000000000000e+03 3.774133682250976562e+01 -1.661684417724609375e+01 -2.769823186099529266e-04 -1.188340393127873540e-04 -1.187449088320136070e-04 1.660300476942211390e-04
2.017000000000000000e+03 7.241657257080078125e+01 -1.132676887512207031e+01 -2.536718845367431641e-01 2.440095134079456329e-02 -6.878127902746200562e-02 -1.557354182004928589e-01
2.018000000000000000e+03 7.099414825439453125e+01 -1.141671466827392578e+01 -3.512904942035675049e-01 5.435109883546829224e-02 -8.908181637525558472e-02 -1.746314615011215210e-01
2.019000000000000000e+03 3.912952423095703125e+01 -8.244214057922363281e+00 1.331707742065191269e-02 -3.302562832832336426e-01 -9.508176147937774658e-02 3.464589118957519531e-01
2.020000000000000000e+03 3.788301467895507812e+01 -7.524501800537109375e+00 8.985915035009384155e-02 -3.275850117206573486e-01 -7.131775468587875366e-02 3.381968438625335693e-01
2.021000000000000000e+03 7.396340942382812500e+01 -1.117948818206787109e+01 -1.707186996936798096e-01 -1.875885017216205597e-02 -5.684326589107513428e-02 -1.547256559133529663e-01
2.022000000000000000e+03 3.361835479736328125e+01 -3.530294656753540039e+00 -2.170425653457641602e-02 -3.944986686110496521e-02 -1.834623701870441437e-02 3.424547016620635986e-01
2.023000000000000000e+03 3.918470382690429688e+01 -1.972382354736328125e+01 -5.475027719512581825e-04 -4.346953064668923616e-04 -2.946594322565943003e-04 -1.288923522224649787e-04
2.024000000000000000e+03 1.538885784149169922e+01 -4.525621891021728516e+00 -5.141888856887817383e-01 2.257279902696609497e-01 -8.653827011585235596e-02 -9.880831092596054077e-02
2.025000000000000000e+03 3.593807601928710938e+01 -4.786447525024414062e+00 1.627531200647354126e-01 -2.006068825721740723e-01 -1.135613210499286652e-02 3.089435994625091553e-01
2.026000000000000000e+03 6.900791168212890625e+01 -1.152314949035644531e+01 -5.066053271293640137e-01 1.079479977488517761e-01 -1.195972040295600891e-01 -1.203264221549034119e-01
2.027000000000000000e+03 2.236371421813964844e+01 -5.422307014465332031e+00 -5.758201479911804199e-01 9.935851395130157471e-02 -1.429384946823120117e-01 -3.756518289446830750e-02
2.028000000000000000e+03 5.309055328369140625e+00 -6.221161842346191406e+00 -9.458544850349426270e-02 -1.844856292009353638e-01 -8.372132480144500732e-02 -4.325010776519775391e-01
2.029000000000000000e+03 5.356819629669189453e+00 6.419757843017578125e+00 1.002529752440750599e-04 7.478570751118240878e-06 3.231946175219491124e-05 -4.891267235507257283e-05
2.030000000000000000e+03 4.254319381713867188e+01 -9.541135787963867188e+00 -1.045501828193664551e-01 -1.411901712417602539e-01 -7.372210174798965454e-02 3.396199047565460205e-01
2.031000000000000000e+03 3.496178436279296875e+01 -5.100684642791748047e+00 1.286651492118835449e-01 -1.768988370895385742e-01 -1.447010692209005356e-02 3.659213185310363770e-01
2.032000000000000000e+03 7.058008575439453125e+01 -1.221785831451416016e+01 -3.141790032386779785e-01 6.677396595478057861e-02 -7.422150671482086182e-02 -8.691441267728805542e-02
2.033000000000000000e+03 3.805892944335937500e+01 -2.420338153839111328e+00 2.185337096452713013e-01 -1.067882031202316284e-01 3.352365270256996155e-02 4.626667499542236328e-02
2.034000000000000000e+03 2.329267883300781250e+01 -7.100055694580078125e+00 4.553520679473876953e-01 -2.114507108926773071e-01 7.317040860652923584e-02 -1.507832389324903488e-02
2.035000000000000000e+03 3.761553955078125000e+01 -6.954960823059082031e+00 1.255280077457427979e-01 -3.087390661239624023e-01 -5.496332049369812012e-02 3.273709118366241455e-01
2.036000000000000000e+03 3.598583984375000000e+01 -6.370846748352050781e+00 1.550042182207107544e-01 -2.637560665607452393e-01 -3.262555599212646484e-02 3.576209545135498047e-01
2.037000000000000000e+03 2.838414382934570312e+01 -5.612417697906494141e+00 -2.714229226112365723e-01 4.685141146183013916e-01 5.912735313177108765e-02 6.906558871269226074e-01
2.038000000000000000e+03 2.972752761840820312e+01 -5.843901157379150391e+00 1.172649301588535309e-02 3.944030702114105225e-01 1.218388676643371582e-01 7.089718580245971680e-01
2.039000000000000000e+03 3.935197830200195312e+01 -4.034608364105224609e+00 3.887726366519927979e-01 -1.848529577255249023e-01 6.117590144276618958e-02 9.559424966573715210e-02
2.040000000000000000e+03 3.188484573364257812e+01 -4.845758914947509766e+00 -2.208969183266162872e-02 9.056574851274490356e-02 2.054281532764434814e-02 5.123401284217834473e-01
2.041000000000000000e+03 3.873382568359375000e+01 -2.173368835449218750e+01 -3.083256306126713753e-03 2.319164341315627098e-04 -8.554019732400774956e-04 -8.756829774938523769e-04
2.042000000000000000e+03 4.307377624511718750e+01 -2.138945198059082031e+01 -1.709134434349834919e-03 -5.150015349499881268e-04 -6.672407616861164570e-04 1.044982462190091610e-03
2.043000000000000000e+03 4.004943084716796875e+01 -1.982792663574218750e+01 -1.352961058728396893e-03 -4.065658722538501024e-04 -5.278580938465893269e-04 -3.034473629668354988e-04
2.044000000000000000e+03 2.698180961608886719e+01 -5.834294319152832031e+00 -1.853079795837402344e-01 2.312041968107223511e-01 1.376886479556560516e-02 6.631289124488830566e-01
2.045000000000000000e+03 1.687956237792968750e+01 -9.841427803039550781e+00 6.668230891227722168e-01 6.864448785781860352e-01 4.059804081916809082e-01 2.244996279478073120e-01
2.046000000000000000e+03 1.465087032318115234e+01 -9.393516540527343750e+00 3.895300030708312988e-01 6.733390092849731445e-01 3.188607096672058105e-01 -4.442894831299781799e-02
2.047000000000000000e+03 3.228177642822265625e+01 -5.255063533782958984e+00 6.490423530340194702e-02 1.175584364682435989e-02 2.299802377820014954e-02 5.084528923034667969e-01
2.048000000000000000e+03 4.278408432006835938e+01 -2.074624824523925781e+01 -1.123382826335728168e-03 -3.906145284418016672e-04 -4.541992093436419964e-04 6.462037563323974609e-04
2.049000000000000000e+03 5.529670333862304688e+01 -1.110840797424316406e+01 -7.472392916679382324e-01 1.903099715709686279e-01 -1.670787930488586426e-01 -2.465638965368270874e-01
2.050000000000000000e+03 7.077239227294921875e+01 -2.660884284973144531e+01 8.212708053179085255e-05 -7.873844151617959142e-05 1.016590886138146743e-06 -6.620204658247530460e-05
2.051000000000000000e+03 7.080313110351562500e+01 -2.826936912536621094e+01 1.427999668521806598e-04 -1.046455654432065785e-04 1.144632096838904545e-05 -6.080186722101643682e-05
2.052000000000000000e+03 7.547473907470703125e+01 -2.192110252380371094e+01 -7.188878043962176889e-06 -1.563517434988170862e-05 -6.847215445304755121e-06 -2.617105019453447312e-05
2.053000000000000000e+03 7.451004028320312500e+01 -2.015213775634765625e+01 2.481732553860638291e-05 -8.863299626682419330e-06 4.786207682627718896e-06 -2.241991933260578662e-05
2.054000000000000000e+03 2.469728851318359375e+01 -6.538952350616455078e+00 3.439830839633941650e-01 -4.341562986373901367e-01 -2.705197222530841827e-02 3.594916686415672302e-02
2.055000000000000000e+03 5.602800750732421875e+01 -9.290500640869140625e+00 -2.270285636186599731e-01 2.610099315643310547e-01 1.019440870732069016e-02 -1.648502200841903687e-01
2.056000000000000000e+03 1.010864543914794922e+01 1.649769401550292969e+01 -2.372638991801068187e-04 -2.534198283683508635e-04 -1.472051226301118731e-04 2.489321923349052668e-05
2.057000000000000000e+03 9.688659667968750000e+00 1.770469474792480469e+01 -1.865231170086190104e-04 -2.986635372508317232e-04 -1.455559977330267429e-04 5.689142926712520421e-05
2.058000000000000000e+03 3.818306732177734375e+01 -3.170884609222412109e+00 2.899402976036071777e-01 -1.589090079069137573e-01 3.930938243865966797e-02 8.100965619087219238e-02
2.059000000000000000e+03 3.875279617309570312e+01 -3.010340452194213867e+00 2.990017831325531006e-01 -1.333255618810653687e-01 4.970286786556243896e-02 3.222103789448738098e-02
2.060000000000000000e+03 6.537651062011718750e+01 6.790094852447509766e+00 3.020982742309570312e-01 8.876334428787231445e-01 3.569195270538330078e-01 5.177782475948333740e-02
2.061000000000000000e+03 6.949544525146484375e+01 -1.070008277893066406e+01 -5.321748256683349609e-01 9.381610155105590820e-02 -1.315076202154159546e-01 -2.606393396854400635e-01
2.062000000000000000e+03 6.389623260498046875e+01 7.126330852508544922e+00 3.085087835788726807e-01 1.241560339927673340e+00 4.650207161903381348e-01 1.979383975267410278e-01
2.063000000000000000e+03 6.634071350097656250e+01 7.553412437438964844e+00 2.813982963562011719e-01 7.818278670310974121e-01 3.189678490161895752e-01 1.715325564146041870e-02
2.064000000000000000e+03 4.369173812866210938e+01 -7.077296733856201172e+00 4.625151455402374268e-01 -3.443238139152526855e-02 1.284248232841491699e-01 1.874008327722549438e-01
2.065000000000000000e+03 4.084111785888671875e+01 1.807462310791015625e+01 -1.944094151258468628e-02 1.029276009649038315e-02 -2.744454657658934593e-03 9.804400615394115448e-04
2.066000000000000000e+03 3.854709625244140625e+01 1.665497970581054688e+01 -1.665607281029224396e-02 8.781526237726211548e-03 -2.362363971769809723e-03 3.152526216581463814e-03
2.067000000000000000e+03 7.283280181884765625e+01 -2.149810409545898438e+01 -3.187463789799949154e-06 7.137599368434166536e-06 1.185040559903427493e-06 1.278733634535456076e-05
2.068000000000000000e+03 1.128315162658691406e+01 -1.022058773040771484e+01 2.888092696666717529e-01 4.142251908779144287e-01 2.109103351831436157e-01 -3.268542885780334473e-01
2.069000000000000000e+03 3.839482116699218750e+01 1.541579151153564453e+01 -1.320598367601633072e-02 5.808265879750251770e-03 -2.219315618276596069e-03 2.354106632992625237e-03
2.070000000000000000e+03 3.045767021179199219e+01 -5.757940769195556641e+00 5.264373868703842163e-02 2.680808007717132568e-01 9.621736407279968262e-02 6.569582223892211914e-01
2.071000000000000000e+03 3.033822441101074219e+01 -4.461596012115478516e+00 -3.215388357639312744e-01 3.001044094562530518e-01 -6.430327892303466797e-03 4.589687585830688477e-01
2.072000000000000000e+03 1.218179607391357422e+01 8.843315124511718750e+00 -8.504200377501547337e-05 -3.258939614170230925e-05 -3.528942033881321549e-05 5.210303061176091433e-05
2.073000000000000000e+03 1.112999057769775391e+01 8.752108573913574219e+00 8.967998292064294219e-05 4.298235944588668644e-05 3.979870234616100788e-05 6.706884596496820450e-05
2.074000000000000000e+03 4.861156463623046875e+01 -1.170775032043457031e+01 -6.599073410034179688e-01 3.025499582290649414e-01 -1.072072088718414307e-01 3.853086233139038086e-01
2.075000000000000000e+03 3.898862457275390625e+01 -6.406219005584716797e+00 2.499943226575851440e-01 -2.937868237495422363e-01 -1.313774753361940384e-02 2.757118046283721924e-01
2.076000000000000000e+03 7.456444549560546875e+01 -8.291823387145996094e+00 -1.125027760863304138e-01 -1.130613908171653748e-01 -6.766925007104873657e-02 -2.560873031616210938e-01
2.077000000000000000e+03 7.577080535888671875e+01 -7.108943939208984375e+00 -5.548566579818725586e-02 -1.975993812084197998e-01 -7.592551410198211670e-02 -2.471943795680999756e-01
2.078000000000000000e+03 4.212767028808593750e+01 -2.240879440307617188e+01 -3.513382980599999428e-03 -4.865808932663640007e-06 -1.055474625900387764e-03 1.798998331651091576e-03
2.079000000000000000e+03 7.559947204589843750e+01 6.478107929229736328e+00 5.627501755952835083e-02 -7.136943936347961426e-01 -1.972258239984512329e-01 -1.760571748018264771e-01
2.080000000000000000e+03 7.285643768310546875e+01 4.070900917053222656e+00 1.188438460230827332e-01 -2.840383648872375488e-01 -4.955835267901420593e-02 -2.690937519073486328e-01
2.081000000000000000e+03 4.279401302337646484e+00 1.128411865234375000e+01 1.217814933625049889e-04 3.595093858166364953e-06 3.761297557502985001e-05 -1.187777234008535743e-04
2.082000000000000000e+03 5.628622817993164062e+01 -1.089220237731933594e+01 -7.376470565795898438e-01 1.631115078926086426e-01 -1.723606735467910767e-01 -2.810107171535491943e-01
2.083000000000000000e+03 1.201881122589111328e+01 -1.191794681549072266e+01 4.838606715202331543e-01 6.512746214866638184e-01 3.405405879020690918e-01 -1.722136586904525757e-01
2.084000000000000000e+03 1.088951015472412109e+01 -1.279909992218017578e+01 4.754478633403778076e-01 5.537337660789489746e-01 3.087544739246368408e-01 -1.935729831457138062e-01
2.085000000000000000e+03 1.417155170440673828e+01 7.445533752441406250e+00 1.104513466998469085e-05 3.164901136187836528e-05 1.280824380955891684e-05 3.869106512865982950e-05
2.086000000000000000e+03 4.332267284393310547e+00 -1.324876403808593750e+01 1.224086135625839233e-01 -5.586622953414916992e-01 -1.308760941028594971e-01 -2.864119708538055420e-01
2.087000000000000000e+03 6.926977634429931641e+00 -1.186958885192871094e+01 1.962590962648391724e-01 -1.274552345275878906e-01 2.064116112887859344e-02 -3.945575356483459473e-01
2.088000000000000000e+03 5.171583938598632812e+01 -1.160722637176513672e+01 -7.564131021499633789e-01 2.665949463844299316e-01 -1.469454467296600342e-01 1.369355022907257080e-01
2.089000000000000000e+03 2.793393516540527344e+01 -6.389741897583007812e+00 1.470555663108825684e-01 4.421522915363311768e-01 1.767623573541641235e-01 7.508798837661743164e-01
2.090000000000000000e+03 6.886940002441406250e+01 -2.859571838378906250e+01 1.313952379859983921e-04 -1.200536717078648508e-04 3.402469246793771163e-06 -4.834120409213937819e-05
2.091000000000000000e+03 7.016433715820312500e+01 -2.949152183532714844e+01 -5.615963527816347778e-05 -9.186011448036879301e-05 -4.440592601895332336e-05 -9.373158536618575454e-05
2.092000000000000000e+03 4.178947830200195312e+01 -2.562998580932617188e+01 -8.814696222543716431e-03 2.980751916766166687e-03 -1.750183408148586750e-03 3.718332154676318169e-03
2.093000000000000000e+03 4.001441955566406250e+01 -2.354783248901367188e+01 -6.781653501093387604e-03 2.408223459497094154e-03 -1.312029082328081131e-03 6.710070883855223656e-04
2.094000000000000000e+03 1.902582168579101562e+01 -5.245104789733886719e+00 -4.536199569702148438e-01 3.374189734458923340e-01 -3.486029803752899170e-02 1.264199614524841309e-01
2.095000000000000000e+03 2.144102096557617188e+01 -7.438202857971191406e+00 3.665886521339416504e-01 9.186843782663345337e-02 1.375371217727661133e-01 8.388192206621170044e-02
2.096000000000000000e+03 3.775747680664062500e+01 1.299012279510498047e+01 -7.068377919495105743e-03 2.020353917032480240e-03 -1.514407224021852016e-03 6.764098652638494968e-04
2.097000000000000000e+03 3.807721710205078125e+01 1.420317840576171875e+01 -1.129542291164398193e-02 3.871648339554667473e-03 -2.227132441475987434e-03 1.330419676378369331e-03
2.098000000000000000e+03 4.874015045166015625e+01 2.391837692260742188e+01 5.315300822257995605e-02 1.278889179229736328e-02 1.978257112205028534e-02 -3.807644546031951904e-02
2.099000000000000000e+03 5.935354995727539062e+01 -3.277505636215209961e+00 6.150421500205993652e-01 4.282844960689544678e-01 3.129979968070983887e-01 3.133223950862884521e-01
2.100000000000000000e+03 3.882640838623046875e+01 -1.867020225524902344e+01 -2.890544128604233265e-04 -2.389955770922824740e-04 -1.584150013513863087e-04 -1.340385206276550889e-04
2.101000000000000000e+03 7.558622741699218750e+01 -2.435808372497558594e+01 -4.929364422423532233e-06 4.332831622377852909e-07 -1.348824298474937677e-06 -3.103516792180016637e-05
2.102000000000000000e+03 7.457142639160156250e+01 -2.686521148681640625e+01 -1.106625040847575292e-05 4.600405191013123840e-06 -1.939753701662993990e-06 -5.283069913275539875e-05
2.103000000000000000e+03 7.417520141601562500e+01 1.541326999664306641e+01 1.057659536600112915e-01 -5.522152781486511230e-01 -1.339347958564758301e-01 5.070083215832710266e-02
2.104000000000000000e+03 3.975826644897460938e+01 1.794723510742187500e+01 -1.820730976760387421e-02 1.099180150777101517e-02 -2.164652338251471519e-03 2.266223775222897530e-03
2.105000000000000000e+03 1.054711151123046875e+01 1.534176158905029297e+01 1.357103756163269281e-04 -1.807487133191898465e-04 -1.351150149275781587e-05 1.062728333636187017e-04
2.106000000000000000e+03 1.125948238372802734e+01 1.298305130004882812e+01 1.838609314290806651e-04 -2.700333971006330103e-05 4.705727769760414958e-05 1.532219903310760856e-04
2.107000000000000000e+03 5.381842136383056641e+00 2.162943840026855469e+01 -3.077674191445112228e-04 -3.450480871833860874e-04 -1.958446664502844214e-04 3.282748511992394924e-04
2.108000000000000000e+03 7.519014739990234375e+01 -2.097911834716796875e+01 4.415574949234724045e-05 1.908555759655428119e-06 1.381929087074240670e-05 9.114304702961817384e-06
2.109000000000000000e+03 1.464385128021240234e+01 4.734819889068603516e+00 -1.752190291881561279e-05 -6.763239071005955338e-05 -2.554628736106678843e-05 1.604159479029476643e-05
2.110000000000000000e+03 7.455415344238281250e+01 -2.424780845642089844e+01 4.914639066555537283e-05 9.085671081265900284e-06 1.746961788740009069e-05 -3.084267154918052256e-05
2.111000000000000000e+03 7.576438140869140625e+01 -4.870890378952026367e-01 1.905407942831516266e-02 -5.001849532127380371e-01 -1.443392634391784668e-01 -2.915197610855102539e-01
2.112000000000000000e+03 7.346001434326171875e+01 -7.475822567939758301e-01 3.875152021646499634e-02 -3.086608946323394775e-01 -8.097280561923980713e-02 -3.669151663780212402e-01
2.113000000000000000e+03 6.263756561279296875e+01 -1.007804203033447266e+01 -8.474641442298889160e-01 -2.705288529396057129e-01 -3.353978991508483887e-01 -3.098388910293579102e-01
2.114000000000000000e+03 4.614492034912109375e+01 -8.647067070007324219e+00 3.077107369899749756e-01 1.474119126796722412e-01 1.365367919206619263e-01 3.575769662857055664e-01
2.115000000000000000e+03 6.029429244995117188e+01 -9.268836021423339844e+00 -5.034668445587158203e-01 -3.212060034275054932e-02 -1.606762409210205078e-01 -2.825793623924255371e-01
2.116000000000000000e+03 5.951314926147460938e+01 -9.810374259948730469e+00 -6.111720204353332520e-01 -1.376563683152198792e-02 -1.874812990427017212e-01 -2.818106412887573242e-01
2.117000000000000000e+03 3.664252471923828125e+01 1.446993446350097656e+01 -9.504017420113086700e-03 2.922900253906846046e-03 -1.974334940314292908e-03 3.829814493656158447e-03
2.118000000000000000e+03 6.224466705322265625e+01 1.599933266639709473e+00 4.009538888931274414e-01 8.262385725975036621e-01 3.681577444076538086e-01 3.067046701908111572e-01
2.119000000000000000e+03 6.049381637573242188e+01 2.788486719131469727e+00 4.404467940330505371e-01 1.164926290512084961e+00 4.816119372844696045e-01 5.991899967193603516e-01
2.120000000000000000e+03 4.160969257354736328e+00 -9.525826454162597656e+00 3.606707602739334106e-02 -4.258606135845184326e-01 -1.169380545616149902e-01 -3.946538269519805908e-01
2.121000000000000000e+03 1.026986026763916016e+01 -1.921389389038085938e+01 4.355088174343109131e-01 7.230945229530334473e-01 3.475809991359710693e-01 3.448531404137611389e-02
2.122000000000000000e+03 1.107860374450683594e+01 2.315524291992187500e+01 -2.948041306808590889e-03 1.047617188305594027e-04 -8.529838523827493191e-04 1.389406970702111721e-03
2.123000000000000000e+03 7.672531127929687500e+01 1.797472000122070312e+01 3.421534970402717590e-02 -9.620113372802734375e-01 -2.783387899398803711e-01 8.979284018278121948e-02
2.124000000000000000e+03 4.150160217285156250e+01 -2.723768615722656250e+01 -1.094269845634698868e-02 5.060601513832807541e-03 -1.764629152603447437e-03 4.066827241331338882e-03
2.125000000000000000e+03 6.553272247314453125e+01 1.189867019653320312e+01 2.245902866125106812e-01 1.186342120170593262e+00 4.232797026634216309e-01 3.455731645226478577e-02
2.126000000000000000e+03 5.690424346923828125e+01 -6.721217155456542969e+00 4.557502269744873047e-01 3.013105392456054688e-01 2.271182239055633545e-01 7.380045205354690552e-02
2.127000000000000000e+03 5.386115264892578125e+01 -7.955415725708007812e+00 4.487788379192352295e-01 5.410529375076293945e-01 2.969495356082916260e-01 7.062030583620071411e-02
2.128000000000000000e+03 4.954852676391601562e+01 -8.945597648620605469e+00 2.816541492938995361e-01 4.840807616710662842e-01 2.297204732894897461e-01 4.376526176929473877e-01
2.129000000000000000e+03 7.435370635986328125e+01 -1.031291484832763672e+01 -1.374930441379547119e-01 -4.976006224751472473e-02 -5.617593228816986084e-02 -1.788881421089172363e-01
2.130000000000000000e+03 4.125067234039306641e+00 2.058078765869140625e+01 -3.531802212819457054e-05 -2.068959875032305717e-04 -7.266420288942754269e-05 1.554675109218806028e-04
2.131000000000000000e+03 6.425967216491699219e+00 2.186481666564941406e+01 -8.508342434652149677e-04 -3.289022133685648441e-04 -3.539209428709000349e-04 4.554731422103941441e-04
2.132000000000000000e+03 5.203576278686523438e+01 -8.409049034118652344e+00 3.647775053977966309e-01 6.528413295745849609e-01 3.052856624126434326e-01 2.425818741321563721e-01
2.133000000000000000e+03 5.312404632568359375e+01 2.680620193481445312e+01 9.981042146682739258e-02 1.091147512197494507e-01 6.267755478620529175e-02 -1.575786769390106201e-01
2.134000000000000000e+03 5.227558135986328125e+01 2.553732490539550781e+01 1.265066117048263550e-01 5.890116468071937561e-02 5.562233179807662964e-02 -1.304674297571182251e-01
2.135000000000000000e+03 7.325469207763671875e+01 1.996582221984863281e+01 9.454644471406936646e-02 -3.677017390727996826e-01 -8.194658905267715454e-02 1.744750589132308960e-01
2.136000000000000000e+03 7.447427368164062500e+01 2.205691528320312500e+01 4.164358228445053101e-02 -5.124295353889465332e-01 -1.412357836961746216e-01 2.058102190494537354e-01
2.137000000000000000e+03 4.411428928375244141e+00 -2.317744827270507812e+01 6.750694662332534790e-02 -5.571535825729370117e-01 -1.468939930200576782e-01 1.800435334444046021e-01
2.138000000000000000e+03 6.518765449523925781e+00 -2.092838478088378906e+01 2.047013491392135620e-01 -1.681709289550781250e-01 1.095912512391805649e-02 1.271072179079055786e-01
2.139000000000000000e+03 3.974357223510742188e+01 -5.960214614868164062e+00 3.417057991027832031e-01 -2.465099394321441650e-01 2.855875715613365173e-02 2.158267945051193237e-01
2.140000000000000000e+03 7.454317474365234375e+01 4.902180671691894531e+00 7.708944380283355713e-02 -5.286931991577148438e-01 -1.354811191558837891e-01 -2.318435609340667725e-01
2.141000000000000000e+03 7.179640769958496094e+00 3.178969764709472656e+01 2.073368523269891739e-04 -2.868269570171833038e-03 -7.982798269949853420e-04 2.816606080159544945e-03
2.142000000000000000e+03 6.595350265502929688e+00 -2.610494613647460938e+01 2.739320881664752960e-02 -1.444304436445236206e-01 -3.511117026209831238e-02 2.497381120920181274e-01
2.143000000000000000e+03 4.241504669189453125e+00 -2.886292457580566406e+01 -1.961271278560161591e-02 -4.712668657302856445e-01 -1.472638845443725586e-01 2.176192551851272583e-01
2.144000000000000000e+03 1.852148056030273438e+01 -8.609809875488281250e+00 5.414092540740966797e-01 4.375128149986267090e-01 2.936766147613525391e-01 2.420771569013595581e-01
2.145000000000000000e+03 5.818745422363281250e+01 -9.024019241333007812e+00 -3.151173293590545654e-01 1.087479367852210999e-01 -6.191082298755645752e-02 -2.152315825223922729e-01
2.146000000000000000e+03 4.050785827636718750e+01 -2.168650054931640625e+01 -3.483711741864681244e-03 5.232606199570000172e-04 -8.881353423930704594e-04 3.722234978340566158e-04
2.147000000000000000e+03 1.920911216735839844e+01 2.798117065429687500e+01 -4.852239042520523071e-03 -3.471784526482224464e-03 -2.497207140550017357e-03 8.237347938120365143e-03
2.148000000000000000e+03 3.130313682556152344e+01 2.119986724853515625e+01 -2.515958994626998901e-02 -6.321452558040618896e-03 -9.444312192499637604e-03 8.995064534246921539e-03
2.149000000000000000e+03 4.531699371337890625e+01 -3.320497894287109375e+01 -5.856830393895506859e-04 -1.615287153981626034e-03 -6.602910580113530159e-04 5.130589473992586136e-03
2.150000000000000000e+03 9.626277923583984375e+00 -1.693443679809570312e+01 4.472716450691223145e-01 5.199157595634460449e-01 2.901562154293060303e-01 -5.706318467855453491e-02
2.151000000000000000e+03 1.125649833679199219e+01 -1.750836372375488281e+01 4.592049419879913330e-01 1.028860449790954590e+00 4.464195966720581055e-01 4.721566801890730858e-04
2.152000000000000000e+03 4.154290008544921875e+01 2.019165039062500000e+01 -1.267299242317676544e-02 1.263422146439552307e-02 -1.163128308689920232e-05 1.829416025429964066e-03
2.153000000000000000e+03 6.596391296386718750e+01 -3.252383041381835938e+01 -1.541809760965406895e-04 -2.806179982144385576e-04 -1.304397010244429111e-04 1.104487455449998379e-04
2.154000000000000000e+03 7.113512420654296875e+01 -2.396180915832519531e+01 7.174162601586431265e-05 8.622771019872743636e-06 2.410932029306422919e-05 1.375146439386298880e-05
2.155000000000000000e+03 5.145583629608154297e+00 2.611149978637695312e+01 -4.259236447978764772e-04 -1.017057918943464756e-03 -4.328944487497210503e-04 1.406195922754704952e-03
2.156000000000000000e+03 1.461466979980468750e+01 -2.635506820678710938e+01 8.292675763368606567e-02 8.745188117027282715e-01 2.872336804866790771e-01 -2.036910802125930786e-01
2.157000000000000000e+03 4.231819152832031250e+00 -1.071801376342773438e+01 6.581780314445495605e-02 -4.743341505527496338e-01 -1.225549057126045227e-01 -3.710762262344360352e-01
2.158000000000000000e+03 7.451441192626953125e+01 -3.510788726806640625e+01 -6.155129085527732968e-06 4.048900154884904623e-05 1.030016119329957291e-05 -7.027569517958909273e-05
2.159000000000000000e+03 2.456686210632324219e+01 -3.391501617431640625e+01 1.105870772153139114e-02 1.805237233638763428e-01 5.747473239898681641e-02 -1.296457648277282715e-01
2.160000000000000000e+03 1.766571044921875000e+01 2.836452484130859375e+01 -3.436061087995767593e-03 -3.231821348890662193e-03 -2.000364707782864571e-03 7.833166047930717468e-03
2.161000000000000000e+03 7.423701477050781250e+01 7.636806011199951172e+00 9.438716620206832886e-02 -5.212168097496032715e-01 -1.280488967895507812e-01 -1.706258058547973633e-01
2.162000000000000000e+03 5.653364944458007812e+01 2.880207633972167969e+01 2.177621237933635712e-02 3.474450111389160156e-01 1.107663661241531372e-01 -2.496721595525741577e-01
2.163000000000000000e+03 6.798540592193603516e+00 -1.432759284973144531e+01 2.764090299606323242e-01 -1.394309103488922119e-01 4.109343886375427246e-02 -2.567837536334991455e-01
2.164000000000000000e+03 5.165358543395996094e+00 1.502936744689941406e+01 2.684101309569086879e-05 -5.238340600044466555e-05 -7.662717507628258318e-06 -1.656248787185177207e-04
2.165000000000000000e+03 2.821108818054199219e+01 -4.366275787353515625e+00 -9.231956601142883301e-01 4.614800214767456055e-01 -1.385146826505661011e-01 3.644813299179077148e-01
2.166000000000000000e+03 2.825343513488769531e+01 -5.111281394958496094e+00 -5.123471021652221680e-01 4.686870276927947998e-01 -1.309802103787660599e-02 6.199876666069030762e-01
2.167000000000000000e+03 3.207427215576171875e+01 -4.360920429229736328e+00 -6.945014744997024536e-02 6.455776840448379517e-02 -1.467712805606424809e-03 4.441482424736022949e-01
2.168000000000000000e+03 3.156108283996582031e+01 -3.840747594833374023e+00 -2.039647847414016724e-01 1.465613543987274170e-01 -1.722102984786033630e-02 3.876890838146209717e-01
2.169000000000000000e+03 3.517250442504882812e+01 -4.444897174835205078e+00 1.301954984664916992e-01 -1.544644087553024292e-01 -7.280676160007715225e-03 3.286507427692413330e-01
2.170000000000000000e+03 2.246585273742675781e+01 -2.666082143783569336e+00 -1.038227319717407227e+00 1.149585470557212830e-01 -2.769806087017059326e-01 5.254365801811218262e-01
2.171000000000000000e+03 4.025947570800781250e+01 -8.382545471191406250e+00 3.079281561076641083e-02 -2.910573482513427734e-01 -7.807935774326324463e-02 3.224035203456878662e-01
2.172000000000000000e+03 3.843912506103515625e+01 -3.842068195343017578e+00 3.129632771015167236e-01 -1.919495910406112671e-01 3.630410879850387573e-02 1.254683881998062134e-01
2.173000000000000000e+03 2.153174972534179688e+01 -3.034314632415771484e+00 -1.010704874992370605e+00 2.540479600429534912e-01 -2.269970774650573730e-01 3.671695590019226074e-01
2.174000000000000000e+03 1.261511516571044922e+01 4.660609722137451172e+00 5.618889917968772352e-05 3.002898665727116168e-05 2.586536538728978485e-05 -6.293299065873725340e-06
2.175000000000000000e+03 1.353200435638427734e+01 5.282610416412353516e+00 1.737070851959288120e-05 3.838787961285561323e-05 1.672757571213878691e-05 -6.778525403206003830e-06
2.176000000000000000e+03 4.579462051391601562e+01 -1.170428085327148438e+01 -5.501489043235778809e-01 2.100474685430526733e-01 -1.020304262638092041e-01 4.264628887176513672e-01
2.177000000000000000e+03 4.436613082885742188e+01 -9.649419784545898438e+00 -8.389154076576232910e-02 2.908935770392417908e-02 -1.644065417349338531e-02 3.803086280822753906e-01
2.178000000000000000e+03 3.007398605346679688e+01 -3.960903882980346680e+00 -4.413514435291290283e-01 3.317631483078002930e-01 -3.287648782134056091e-02 3.645451664924621582e-01
2.179000000000000000e+03 4.731184005737304688e+01 -1.140937519073486328e+01 -5.464737415313720703e-01 3.015624880790710449e-01 -7.347337156534194946e-02 4.555045366287231445e-01
2.180000000000000000e+03 4.741624832153320312e+01 -1.043099212646484375e+01 -2.223546653985977173e-01 2.944238483905792236e-01 2.162075042724609375e-02 4.512607455253601074e-01
2.181000000000000000e+03 4.261767196655273438e+01 -7.587006092071533203e+00 2.862301766872406006e-01 -1.285854727029800415e-01 4.729341343045234680e-02 2.463309168815612793e-01
2.182000000000000000e+03 2.984800529479980469e+01 -3.443063259124755859e+00 -5.263646841049194336e-01 3.160755932331085205e-01 -6.308672577142715454e-02 2.431342303752899170e-01
2.183000000000000000e+03 1.097106075286865234e+01 -5.720452785491943359e+00 -2.569311261177062988e-01 1.378215104341506958e-01 -3.573288396000862122e-02 -4.093477427959442139e-01
2.184000000000000000e+03 5.408887386322021484e+00 -4.917863845825195312e+00 -1.537893563508987427e-01 -1.359148919582366943e-01 -8.691126853227615356e-02 -3.932956755161285400e-01
2.185000000000000000e+03 7.489058685302734375e+01 -1.148081111907958984e+01 -1.088605672121047974e-01 -3.038615174591541290e-02 -4.177401587367057800e-02 -1.120340228080749512e-01
2.186000000000000000e+03 7.572763061523437500e+01 -9.589246749877929688e+00 -8.277542889118194580e-02 -9.682010114192962646e-02 -5.387866124510765076e-02 -1.699875742197036743e-01
2.187000000000000000e+03 5.481806755065917969e+00 5.058210372924804688e+00 7.565315172541886568e-05 -2.235666033811867237e-05 1.598894596099853516e-05 -2.646572647790890187e-05
2.188000000000000000e+03 6.318721294403076172e+00 7.404850006103515625e+00 8.234026608988642693e-05 3.499407830531708896e-05 3.520030440995469689e-05 -6.427007610909640789e-05
2.189000000000000000e+03 1.074098682403564453e+01 6.604541778564453125e+00 7.962447125464677811e-05 9.307565960625652224e-06 2.667961052793543786e-05 -3.529801324475556612e-05
2.190000000000000000e+03 3.849376296997070312e+01 -7.414786815643310547e+00 1.009400784969329834e-01 -3.190941214561462402e-01 -6.544621288776397705e-02 3.253389596939086914e-01
2.191000000000000000e+03 3.709569931030273438e+01 -6.348381042480468750e+00 1.789870262145996094e-01 -2.825199663639068604e-01 -3.105988539755344391e-02 3.241271674633026123e-01
2.192000000000000000e+03 4.416331291198730469e+00 6.058449745178222656e+00 -5.530405906029045582e-05 -1.409504966431995854e-05 -2.081973252643365413e-05 -8.824946235108654946e-06
2.193000000000000000e+03 7.058862304687500000e+01 -9.291844367980957031e+00 -3.576279580593109131e-01 2.239311672747135162e-02 -1.005704551935195923e-01 -3.314604461193084717e-01
2.194000000000000000e+03 5.836209774017333984e+00 -6.677194118499755859e+00 -8.090129494667053223e-02 -1.659399121999740601e-01 -7.405236363410949707e-02 -4.618250727653503418e-01
2.195000000000000000e+03 8.649066925048828125e+00 -5.611660957336425781e+00 -2.188187092542648315e-01 2.022529579699039459e-02 -5.957802385091781616e-02 -4.711276888847351074e-01
2.196000000000000000e+03 1.545371341705322266e+01 -6.231558799743652344e+00 -1.864489167928695679e-01 3.783365190029144287e-01 5.756628140807151794e-02 -9.606520086526870728e-02
2.197000000000000000e+03 3.257197189331054688e+01 -4.308538436889648438e+00 -3.724237903952598572e-02 2.699299342930316925e-02 -3.074815962463617325e-03 4.308300614356994629e-01
2.198000000000000000e+03 3.368624114990234375e+01 -4.198195457458496094e+00 3.358255699276924133e-02 -6.397390365600585938e-02 -9.117405861616134644e-03 3.839259445667266846e-01
2.199000000000000000e+03 1.331030368804931641e+01 -5.683650016784667969e+00 -2.861931025981903076e-01 2.548472583293914795e-01 -9.403758682310581207e-03 -2.701394855976104736e-01
2.200000000000000000e+03 2.117548751831054688e+01 -2.214645624160766602e+00 -8.968716859817504883e-01 2.009660005569458008e-01 -2.087717056274414062e-01 3.858592808246612549e-01
2.201000000000000000e+03 1.956818389892578125e+01 -3.538393735885620117e+00 -7.924355268478393555e-01 2.952588200569152832e-01 -1.491530090570449829e-01 2.167868465185165405e-01
2.202000000000000000e+03 3.546611022949218750e+01 -3.774172544479370117e+00 1.135978251695632935e-01 -1.336525678634643555e-01 -6.016423460096120834e-03 2.718823552131652832e-01
2.203000000000000000e+03 3.438750839233398438e+01 -4.252439498901367188e+00 7.351077347993850708e-02 -1.078663393855094910e-01 -1.030666939914226532e-02 3.540602028369903564e-01
2.204000000000000000e+03 1.970999336242675781e+01 -4.991674900054931641e+00 -5.235111117362976074e-01 3.280761837959289551e-01 -5.863047391176223755e-02 1.394920200109481812e-01
2.205000000000000000e+03 4.773374938964843750e+01 -1.201217555999755859e+01 -6.836250424385070801e-01 2.916177213191986084e-01 -1.176021993160247803e-01 4.047082364559173584e-01
2.206000000000000000e+03 1.763811683654785156e+01 -8.285034179687500000e+00 3.621696233749389648e-01 5.210621953010559082e-01 2.649695575237274170e-01 1.748851686716079712e-01
2.207000000000000000e+03 1.878781509399414062e+01 -6.753246307373046875e+00 -4.405272658914327621e-03 3.714313209056854248e-01 1.101078093051910400e-01 1.102593168616294861e-01
2.208000000000000000e+03 2.011200714111328125e+01 -5.602485179901123047e+00 -3.731015920639038086e-01 3.082990646362304688e-01 -1.944076269865036011e-02 1.066329106688499451e-01
2.209000000000000000e+03 7.249444580078125000e+01 -2.030786132812500000e+01 2.128472260665148497e-05 1.644668941480631474e-06 6.878817202959908172e-06 1.935026557475794107e-05
2.210000000000000000e+03 4.205254745483398438e+01 -1.937788009643554688e+01 -6.152976420708000660e-04 -2.300381747772917151e-04 -2.536007377784699202e-04 1.250066416105255485e-04
2.211000000000000000e+03 4.081303787231445312e+01 -2.010625076293945312e+01 -1.496823620982468128e-03 -9.527725342195481062e-05 -4.776302666869014502e-04 1.096335763577371836e-04
2.212000000000000000e+03 3.838785934448242188e+01 -1.814999198913574219e+01 -1.312132371822372079e-04 -4.509380378294736147e-04 -1.746453781379386783e-04 2.029427560046315193e-04
2.213000000000000000e+03 4.334624481201171875e+01 -7.947554588317871094e+00 2.911020815372467041e-01 -9.235974401235580444e-02 5.962270125746726990e-02 2.676483988761901855e-01
2.214000000000000000e+03 7.348633575439453125e+01 -1.013838672637939453e+01 -1.943436264991760254e-01 -2.748645097017288208e-02 -6.654901802539825439e-02 -2.152801454067230225e-01
2.215000000000000000e+03 3.726559066772460938e+01 -3.998528957366943359e+00 2.494302988052368164e-01 -1.956388503313064575e-01 1.613743603229522705e-02 2.045747190713882446e-01
2.216000000000000000e+03 7.115778350830078125e+01 -9.650905609130859375e+00 -2.887670099735260010e-01 9.341386146843433380e-03 -8.382768929004669189e-02 -2.922070920467376709e-01
2.217000000000000000e+03 5.125459289550781250e+01 -1.079827690124511719e+01 -4.865321516990661621e-01 3.431914150714874268e-01 -4.300222173333168030e-02 1.980687230825424194e-01
2.218000000000000000e+03 2.914690780639648438e+01 -4.593623638153076172e+00 -5.406876206398010254e-01 4.668091833591461182e-01 -2.216353081166744232e-02 4.889586567878723145e-01
2.219000000000000000e+03 3.107825088500976562e+01 -4.743773460388183594e+00 -1.337912976741790771e-01 2.073155492544174194e-01 2.205727621912956238e-02 5.223494172096252441e-01
2.220000000000000000e+03 3.179444313049316406e+01 -5.687147140502929688e+00 1.590169072151184082e-01 2.880653180181980133e-02 5.634703114628791809e-02 5.675011873245239258e-01
2.221000000000000000e+03 3.047291374206542969e+01 -5.016772747039794922e+00 -1.487805098295211792e-01 2.974332869052886963e-01 4.459583386778831482e-02 5.881711840629577637e-01
2.222000000000000000e+03 6.732019805908203125e+01 -7.130301952362060547e+00 -2.538717091083526611e-01 -6.860879808664321899e-02 -9.674414992332458496e-02 -4.841990470886230469e-01
2.223000000000000000e+03 6.646109008789062500e+01 -8.088838577270507812e+00 -3.316925466060638428e-01 -1.183353662490844727e-01 -1.350083649158477783e-01 -4.928947687149047852e-01
2.224000000000000000e+03 1.016895103454589844e+01 -5.639159679412841797e+00 -2.453486472368240356e-01 9.328366070985794067e-02 -4.561949893832206726e-02 -4.403742849826812744e-01
2.225000000000000000e+03 7.316896820068359375e+01 -1.082262134552001953e+01 -1.825194656848907471e-01 -1.163933984935283661e-02 -5.824764445424079895e-02 -1.711128801107406616e-01
2.226000000000000000e+03 9.322332382202148438e+00 -4.853002071380615234e+00 -3.145704567432403564e-01 3.652761876583099365e-02 -8.341285586357116699e-02 -4.380800724029541016e-01
2.227000000000000000e+03 1.779896926879882812e+01 -7.370759963989257812e+00 1.228057891130447388e-01 4.499164521694183350e-01 1.718166619539260864e-01 1.119711175560951233e-01
2.228000000000000000e+03 1.865477943420410156e+01 -7.623166084289550781e+00 2.438848465681076050e-01 3.988346457481384277e-01 1.928158402442932129e-01 1.600063741207122803e-01
2.229000000000000000e+03 3.667254257202148438e+01 -3.546485900878906250e+00 1.805572211742401123e-01 -1.591720879077911377e-01 6.415542215108871460e-03 1.935381591320037842e-01
2.230000000000000000e+03 6.939847564697265625e+01 -9.407913208007812500e+00 -4.449695348739624023e-01 3.334274888038635254e-02 -1.234880387783050537e-01 -3.563649952411651611e-01
2.231000000000000000e+03 4.691709136962890625e+01 -9.396811485290527344e+00 1.167054325342178345e-01 2.393737137317657471e-01 1.068237423896789551e-01 4.376669824123382568e-01
2.232000000000000000e+03 4.556513595581054688e+01 -9.374908447265625000e+00 5.156089738011360168e-02 1.228880435228347778e-01 5.233468115329742432e-02 4.029341936111450195e-01
2.233000000000000000e+03 3.361158752441406250e+01 -5.376527309417724609e+00 1.231380403041839600e-01 -1.127543598413467407e-01 3.115103347226977348e-03 4.418444335460662842e-01
2.234000000000000000e+03 2.233763122558593750e+01 -6.314196109771728516e+00 -1.116132214665412903e-01 2.448750101029872894e-02 -2.613771706819534302e-02 -5.728725716471672058e-02
2.235000000000000000e+03 5.068051528930664062e+01 -1.000071334838867188e+01 -2.030451893806457520e-01 4.593483507633209229e-01 7.689095288515090942e-02 3.083649575710296631e-01
2.236000000000000000e+03 1.116411876678466797e+01 5.804986000061035156e+00 5.793467789771966636e-05 3.856080002151429653e-05 2.894864337577018887e-05 -3.805821324931457639e-05
2.237000000000000000e+03 1.598226261138916016e+01 -4.531167984008789062e+00 -5.127820968627929688e-01 2.700719833374023438e-01 -7.281303405761718750e-02 -4.642290621995925903e-02
2.238000000000000000e+03 5.136682033538818359e+00 -6.769731044769287109e+00 -6.340671330690383911e-02 -2.183000296354293823e-01 -8.451202511787414551e-02 -4.398186504840850830e-01
2.239000000000000000e+03 5.886638164520263672e+00 -4.746877670288085938e+00 -1.865307688713073730e-01 -1.039645075798034668e-01 -8.714858442544937134e-02 -4.057561755180358887e-01
2.240000000000000000e+03 7.322283172607421875e+01 -2.781125259399414062e+01 -1.112364134314702824e-05 -3.029434265044983476e-05 -1.242539565282640979e-05 -1.005661906674504280e-04
2.241000000000000000e+03 7.412303924560546875e+01 -2.891249465942382812e+01 1.360244255010911729e-06 -4.254999294062145054e-05 -1.235692434420343488e-05 -1.121473396779038012e-04
2.242000000000000000e+03 7.144068908691406250e+01 -2.507014083862304688e+01 4.922200605506077409e-05 -6.525489152409136295e-05 -4.809865458810236305e-06 -3.537076918291859329e-05
2.243000000000000000e+03 7.349467468261718750e+01 -2.345919609069824219e+01 5.696662628906778991e-05 1.186180816148407757e-05 2.064853106276132166e-05 -9.292496542911976576e-06
2.244000000000000000e+03 6.099393844604492188e+00 -7.427363872528076172e+00 -4.718213155865669250e-02 -1.695483177900314331e-01 -6.501913815736770630e-02 -4.773402214050292969e-01
2.245000000000000000e+03 7.808647155761718750e+00 5.497805118560791016e+00 2.624845728860236704e-05 1.632678686291910708e-05 1.277257342735538259e-05 -1.837732452258933336e-05
2.246000000000000000e+03 3.271675109863281250e+01 -4.898113727569580078e+00 4.799999296665191650e-02 -1.178158447146415710e-02 1.086552254855632782e-02 4.729715883731842041e-01
2.247000000000000000e+03 3.308961868286132812e+01 -5.282560348510742188e+00 1.003246605396270752e-01 -7.436355203390121460e-02 7.788330782204866409e-03 4.607934057712554932e-01
2.248000000000000000e+03 7.421013641357421875e+01 -2.092112922668457031e+01 -5.066117410024162382e-06 3.328965703985886648e-06 -5.211455231801664922e-07 5.837580374645767733e-07
2.249000000000000000e+03 7.379190826416015625e+01 -2.179338645935058594e+01 5.109583798912353814e-05 -2.539380511734634638e-05 7.710609679634217173e-06 -2.351426883251406252e-05
2.250000000000000000e+03 7.472172546386718750e+01 -3.243517160415649414e+00 -3.080212045460939407e-03 -3.185694813728332520e-01 -9.649490565061569214e-02 -3.462845981121063232e-01
2.251000000000000000e+03 7.464950561523437500e+01 -1.955076456069946289e+00 7.062844932079315186e-03 -3.609719276428222656e-01 -1.061727255582809448e-01 -3.428794741630554199e-01
2.252000000000000000e+03 5.575603961944580078e+00 -1.189806461334228516e+01 1.407805532217025757e-01 -3.306452333927154541e-01 -5.695940554141998291e-02 -3.785038888454437256e-01
2.253000000000000000e+03 7.592513561248779297e+00 1.947077369689941406e+01 -6.834275554865598679e-04 -2.012811164604499936e-04 -2.654126146808266640e-04 8.235404675360769033e-05
2.254000000000000000e+03 1.035714530944824219e+01 1.944881629943847656e+01 -7.232608622871339321e-04 -2.796078042592853308e-04 -3.008605854120105505e-04 1.421074557583779097e-04
2.255000000000000000e+03 7.456500244140625000e+01 8.513520956039428711e-01 4.737732931971549988e-02 -4.367388784885406494e-01 -1.168084666132926941e-01 -3.162880837917327881e-01
2.256000000000000000e+03 4.279753494262695312e+01 -6.801063537597656250e+00 4.632637798786163330e-01 -1.114511713385581970e-01 1.055437773466110229e-01 1.934435963630676270e-01
2.257000000000000000e+03 7.239199829101562500e+01 -2.249316596984863281e+01 8.369681017939001322e-05 -2.148352905351202935e-05 1.866398270067293197e-05 1.340894641543854959e-06
2.258000000000000000e+03 1.115559768676757812e+01 1.057983684539794922e+01 1.598387170815840364e-04 -1.910254832182545215e-05 4.222085044602863491e-05 4.753542089019902050e-05
2.259000000000000000e+03 3.922489166259765625e+01 -5.173010826110839844e+00 3.354410529136657715e-01 -2.388673722743988037e-01 2.897210977971553802e-02 1.957890689373016357e-01
2.260000000000000000e+03 3.823222351074218750e+01 -6.655462265014648438e+00 1.904934644699096680e-01 -3.085323572158813477e-01 -3.541166707873344421e-02 3.066106140613555908e-01
2.261000000000000000e+03 5.224041461944580078e+00 1.089851951599121094e+01 -1.504777083027875051e-05 -6.361841224133968353e-05 -2.359985592192970216e-05 -1.210976097354432568e-05
2.262000000000000000e+03 7.389586925506591797e+00 1.423112773895263672e+01 1.549778098706156015e-04 -1.435260637663304806e-04 3.435524149608681910e-06 -7.119706424418836832e-05
2.263000000000000000e+03 1.492121505737304688e+01 5.364400386810302734e+00 1.125223116105189547e-05 -1.449715273338370025e-05 -9.734764034874388017e-07 -1.326789879385614768e-05
2.264000000000000000e+03 6.878016662597656250e+01 -1.021376895904541016e+01 -4.919075965881347656e-01 4.951933398842811584e-02 -1.327164769172668457e-01 -3.542498052120208740e-01
2.265000000000000000e+03 3.973022842407226562e+01 -1.854524803161621094e+01 -2.746129757724702358e-04 -3.666616394184529781e-04 -1.923823874676600099e-04 -9.675625915406271815e-05
2.266000000000000000e+03 5.668246459960937500e+01 -8.491142272949218750e+00 2.048504725098609924e-02 2.501484155654907227e-01 8.119004219770431519e-02 -1.043727621436119080e-01
2.267000000000000000e+03 6.652050018310546875e+01 1.095416736602783203e+01 2.557123899459838867e-01 9.108805656433105469e-01 3.499778807163238525e-01 1.548996381461620331e-02
2.268000000000000000e+03 4.220854187011718750e+01 -8.313953399658203125e+00 1.508491784334182739e-01 -1.665719002485275269e-01 -4.716819617897272110e-03 2.916221618652343750e-01
2.269000000000000000e+03 3.951592254638671875e+01 -2.239781188964843750e+01 -5.009659565985202789e-03 1.118585118092596531e-03 -1.167322392575442791e-03 -2.140278811566531658e-04
2.270000000000000000e+03 1.456545257568359375e+01 -1.027189159393310547e+01 5.438008904457092285e-01 7.392897605895996094e-01 3.849271833896636963e-01 2.997929044067859650e-02
2.271000000000000000e+03 1.235273075103759766e+01 -7.439664363861083984e+00 -2.516611106693744659e-02 3.403151631355285645e-01 9.454471617937088013e-02 -3.302521407604217529e-01
2.272000000000000000e+03 3.616097640991210938e+01 1.652577590942382812e+01 -1.308109238743782043e-02 4.843334201723337173e-03 -2.471327316015958786e-03 6.642450578510761261e-03
2.273000000000000000e+03 3.786676025390625000e+01 -4.094636440277099609e+00 3.017790913581848145e-01 -2.166064083576202393e-01 2.555180341005325317e-02 1.694665551185607910e-01
2.274000000000000000e+03 9.340649604797363281e+00 -1.441612815856933594e+01 4.477286040782928467e-01 3.614913225173950195e-01 2.427659779787063599e-01 -1.896871328353881836e-01
2.275000000000000000e+03 5.315258407592773438e+01 -9.138572692871093750e+00 1.556586567312479019e-02 5.168297886848449707e-01 1.597187072038650513e-01 5.628857761621475220e-02
2.276000000000000000e+03 6.411790466308593750e+01 -6.804185390472412109e+00 -1.177279651165008545e-01 -1.662432998418807983e-01 -8.519137650728225708e-02 -3.580153286457061768e-01
2.277000000000000000e+03 5.234370708465576172e+00 7.314429759979248047e+00 -3.958087108912877738e-05 -5.037134906160645187e-05 -2.698566459002904594e-05 9.174244951282162219e-06
2.278000000000000000e+03 4.292416763305664062e+01 -2.914882659912109375e+01 -9.367729537189006805e-03 3.107271157205104828e-03 -1.878137583844363689e-03 4.946785047650337219e-03
2.279000000000000000e+03 9.164770126342773438e+00 -2.053607749938964844e+01 3.205794394016265869e-01 4.000362455844879150e-01 2.161847054958343506e-01 1.168950796127319336e-01
2.280000000000000000e+03 7.454846191406250000e+01 -9.367029190063476562e+00 -1.406348645687103271e-01 -7.589226961135864258e-02 -6.495814025402069092e-02 -2.226354628801345825e-01
2.281000000000000000e+03 4.519008636474609375e+01 -1.130872249603271484e+01 -4.685492217540740967e-01 1.396051347255706787e-01 -9.868323057889938354e-02 4.021899700164794922e-01
2.282000000000000000e+03 7.932369709014892578e+00 -1.777364349365234375e+01 3.435871005058288574e-01 1.097247898578643799e-01 1.359935551881790161e-01 -2.964543737471103668e-02
2.283000000000000000e+03 7.447544860839843750e+01 -7.065259456634521484e+00 -1.037762910127639771e-01 -1.539316624402999878e-01 -7.731238752603530884e-02 -3.052224814891815186e-01
2.284000000000000000e+03 7.277007293701171875e+01 -1.025777721405029297e+01 -2.419133186340332031e-01 4.195862915366888046e-03 -7.131523638963699341e-02 -2.112355381250381470e-01
2.285000000000000000e+03 6.804806518554687500e+01 -9.638585090637207031e+00 -5.516965985298156738e-01 7.953051477670669556e-03 -1.631230562925338745e-01 -3.843610584735870361e-01
2.286000000000000000e+03 6.875540924072265625e+01 -8.765130043029785156e+00 -4.042616486549377441e-01 5.504869855940341949e-03 -1.196270287036895752e-01 -4.567264318466186523e-01
2.287000000000000000e+03 2.148561859130859375e+01 -6.366712570190429688e+00 -8.114751428365707397e-02 1.401677578687667847e-01 1.770607195794582367e-02 9.674480184912681580e-03
2.288000000000000000e+03 6.029357528686523438e+01 -4.115499019622802734e+00 4.927251935005187988e-01 2.198648750782012939e-01 2.137770205736160278e-01 1.355010867118835449e-01
2.289000000000000000e+03 6.112978363037109375e+01 -3.215963125228881836e+00 4.556132256984710693e-01 2.835476100444793701e-01 2.217482626438140869e-01 1.021188870072364807e-01
2.290000000000000000e+03 7.472650146484375000e+01 -4.497577190399169922e+00 -3.883394226431846619e-02 -2.693364918231964111e-01 -9.245113283395767212e-02 -3.396617174148559570e-01
2.291000000000000000e+03 1.136380863189697266e+01 1.169572353363037109e+01 -8.001517562661319971e-05 -5.630071973428130150e-05 -4.089477079105563462e-05 6.029739233781583607e-05
2.292000000000000000e+03 3.487369155883789062e+01 1.595659732818603516e+01 -1.083946414291858673e-02 1.010178821161389351e-03 -2.948785666376352310e-03 7.704581134021282196e-03
2.293000000000000000e+03 6.833928680419921875e+01 -3.114674949645996094e+01 -6.218660564627498388e-05 -1.794241397874429822e-04 -7.248322071973234415e-05 -8.568204793846234679e-05
2.294000000000000000e+03 6.220928192138671875e+01 -9.907327890396118164e-01 4.413220882415771484e-01 4.574415385723114014e-01 2.696290910243988037e-01 1.576548963785171509e-01
2.295000000000000000e+03 7.440557861328125000e+01 -2.236551475524902344e+01 4.074766548001207411e-05 2.065275293716695160e-05 1.842012534325476736e-05 -2.992637519128038548e-06
2.296000000000000000e+03 6.542590618133544922e+00 2.557110977172851562e+01 -1.369182486087083817e-03 -7.959058275446295738e-04 -6.495264824479818344e-04 1.628051046282052994e-03
2.297000000000000000e+03 6.495426177978515625e+01 9.325894355773925781e+00 2.746781110763549805e-01 1.185698390007019043e+00 4.381129443645477295e-01 1.224462166428565979e-01
2.298000000000000000e+03 5.434136390686035156e+00 1.836812400817871094e+01 -3.890725492965430021e-04 -1.529489964013919234e-04 -1.626064622541889548e-04 8.052936755120754242e-05
2.299000000000000000e+03 7.414778137207031250e+01 1.777756690979003906e+01 9.122712910175323486e-02 -5.387072563171386719e-01 -1.342440247535705566e-01 1.208180040121078491e-01
2.300000000000000000e+03 1.567877483367919922e+01 -5.071923732757568359e+00 -4.135394990444183350e-01 2.913408279418945312e-01 -3.665960580110549927e-02 -7.414815574884414673e-02
2.301000000000000000e+03 1.211295509338378906e+01 2.400342178344726562e+01 -3.649117425084114075e-03 2.716066373977810144e-04 -1.013253233395516872e-03 1.783689949661493301e-03
2.302000000000000000e+03 3.889130020141601562e+01 -2.795809745788574219e+01 -1.226601656526327133e-02 7.998487912118434906e-03 -1.280258758924901485e-03 2.408405300229787827e-03
2.303000000000000000e+03 7.290467834472656250e+01 1.427409744262695312e+01 1.424031406641006470e-01 -3.224999904632568359e-01 -5.402905121445655823e-02 2.313598059117794037e-02
2.304000000000000000e+03 7.551270294189453125e+01 1.396262645721435547e+01 6.516021490097045898e-02 -7.883301377296447754e-01 -2.169509828090667725e-01 9.713109582662582397e-03
2.305000000000000000e+03 1.000482368469238281e+01 -2.284928321838378906e+01 2.219620347023010254e-01 5.544704794883728027e-01 2.329297512769699097e-01 1.656324863433837891e-01
2.306000000000000000e+03 1.132287597656250000e+01 -2.492018699645996094e+01 9.774718433618545532e-02 7.178436517715454102e-01 2.446772605180740356e-01 1.147871762514114380e-01
2.307000000000000000e+03 3.893885803222656250e+01 -3.544984340667724609e+00 3.780047297477722168e-01 -1.747370958328247070e-01 6.098029389977455139e-02 7.782842218875885010e-02
2.308000000000000000e+03 4.390542984008789062e+00 1.693914031982421875e+01 -1.725648762658238411e-04 -1.102717069443315268e-04 -8.485097350785508752e-05 -2.444088931952137500e-05
2.309000000000000000e+03 5.728424549102783203e+00 3.031235504150390625e+01 -3.635274770203977823e-04 -2.309027127921581268e-03 -8.017663494683802128e-04 2.335482742637395859e-03
2.310000000000000000e+03 6.867670440673828125e+01 1.679759216308593750e+01 2.834938466548919678e-01 4.525617063045501709e-01 2.208166569471359253e-01 4.790418595075607300e-02
2.311000000000000000e+03 6.825515747070312500e+01 1.762573432922363281e+01 2.978190779685974121e-01 4.783816635608673096e-01 2.328602224588394165e-01 8.392844349145889282e-02
2.312000000000000000e+03 5.798210620880126953e+00 3.329531097412109375e+01 1.216344244312494993e-04 -3.267722204327583313e-03 -9.438263368792831898e-04 2.353627700358629227e-03
2.313000000000000000e+03 6.540355205535888672e+00 3.542322540283203125e+01 9.945881320163607597e-04 -3.897856920957565308e-03 -8.709806133992969990e-04 2.320792293176054955e-03
2.314000000000000000e+03 4.053638458251953125e+01 2.031340599060058594e+01 -1.160546764731407166e-02 1.416632439941167831e-02 7.682571886107325554e-04 2.762359566986560822e-03
2.315000000000000000e+03 3.853372192382812500e+01 1.798757553100585938e+01 -1.649735122919082642e-02 1.017299294471740723e-02 -1.897307345643639565e-03 4.161776509135961533e-03
2.316000000000000000e+03 7.379502105712890625e+01 1.881805610656738281e+01 9.345592558383941650e-02 -4.517219960689544678e-01 -1.074798256158828735e-01 1.528892219066619873e-01
2.317000000000000000e+03 7.515254974365234375e+01 1.918201828002929688e+01 6.264732778072357178e-02 -6.751211285591125488e-01 -1.837421357631683350e-01 1.434754133224487305e-01
2.318000000000000000e+03 7.453895568847656250e+01 2.352683639526367188e+01 2.858831547200679779e-02 -4.907183349132537842e-01 -1.386390030384063721e-01 2.198723405599594116e-01
2.319000000000000000e+03 4.664116287231445312e+01 -1.062194538116455078e+01 -2.712477445602416992e-01 2.401855289936065674e-01 -9.318662807345390320e-03 4.282493889331817627e-01
2.320000000000000000e+03 4.438634490966796875e+01 -2.907056045532226562e+01 -1.027355808764696121e-02 4.807669902220368385e-04 -2.937837271019816399e-03 5.520667880773544312e-03
2.321000000000000000e+03 1.836191940307617188e+01 -3.088445663452148438e+01 1.019623668980784714e-04 4.772061705589294434e-01 1.431924402713775635e-01 -1.876373291015625000e-01
2.322000000000000000e+03 4.021967411041259766e+00 -3.295172500610351562e+01 -3.676343336701393127e-02 -3.992498219013214111e-01 -1.308039724826812744e-01 1.606742739677429199e-01
2.323000000000000000e+03 5.642185211181640625e+00 -2.464950180053710938e+01 6.310410797595977783e-02 -3.161739408969879150e-01 -7.592095434665679932e-02 2.363940477371215820e-01
2.324000000000000000e+03 4.992736816406250000e+00 -2.583821105957031250e+01 1.890690624713897705e-02 -4.185673594474792480e-01 -1.198981404304504395e-01 2.359550595283508301e-01
2.325000000000000000e+03 9.860676765441894531e+00 -1.211144256591796875e+01 3.673201799392700195e-01 3.140066266059875488e-01 2.043980360031127930e-01 -3.195475935935974121e-01
2.326000000000000000e+03 6.564634704589843750e+01 3.994552135467529297e+00 3.232181668281555176e-01 6.404974460601806641e-01 2.891146838665008545e-01 -1.082317065447568893e-02
2.327000000000000000e+03 7.300311279296875000e+01 3.286904144287109375e+01 -7.385590672492980957e-02 -2.189555913209915161e-01 -8.784344792366027832e-02 1.665817350149154663e-01
2.328000000000000000e+03 7.302552032470703125e+01 2.831682395935058594e+01 -4.175465181469917297e-02 -2.418636977672576904e-01 -8.508550375699996948e-02 2.329920083284378052e-01
2.329000000000000000e+03 6.948824405670166016e+00 2.695918273925781250e+01 -7.637310191057622433e-04 -1.249302527867257595e-03 -6.039100699126720428e-04 2.215443179011344910e-03
2.330000000000000000e+03 5.800004005432128906e+00 8.787677764892578125e+00 3.901639502146281302e-06 2.477094858477357775e-05 8.601776244177017361e-06 -1.293254081247141585e-05
2.331000000000000000e+03 5.894104480743408203e+00 1.032346916198730469e+01 2.651154318300541490e-05 -5.465039430418983102e-05 -8.441656063951086253e-06 -2.479491195117589086e-05
2.332000000000000000e+03 6.224138259887695312e+01 2.254946708679199219e+01 2.981539666652679443e-01 1.060130715370178223e+00 4.074854254722595215e-01 -1.802452951669692993e-01
2.333000000000000000e+03 4.104953002929687500e+01 -2.281113052368164062e+01 -5.036998074501752853e-03 1.155380159616470337e-03 -1.164485467597842216e-03 1.492050127126276493e-03
2.334000000000000000e+03 7.351012420654296875e+01 -5.443512439727783203e+00 -8.009760826826095581e-02 -1.828268319368362427e-01 -7.887732982635498047e-02 -3.676432073116302490e-01
2.335000000000000000e+03 3.075312232971191406e+01 2.480429458618164062e+01 -1.050153095275163651e-02 -4.996644333004951477e-03 -4.649452865123748779e-03 3.909860271960496902e-03
2.336000000000000000e+03 7.411106109619140625e+01 -2.513396453857421875e+01 2.852703983080573380e-05 -4.117825028515653685e-06 7.322764759010169655e-06 -2.267400122946128249e-05
2.337000000000000000e+03 2.772332382202148438e+01 -4.676012992858886719e+00 -9.480150938034057617e-01 4.090032577514648438e-01 -1.617035567760467529e-01 4.841710031032562256e-01
2.338000000000000000e+03 3.142261505126953125e+01 -5.248260021209716797e+00 3.658404340967535973e-03 1.426576972007751465e-01 4.389483109116554260e-02 5.714738368988037109e-01
2.339000000000000000e+03 3.641337966918945312e+01 -5.791110992431640625e+00 1.721713989973068237e-01 -2.552547156810760498e-01 -2.492498978972434998e-02 3.280637264251708984e-01
2.340000000000000000e+03 1.113610553741455078e+01 5.216009616851806641e+00 -2.598666287667583674e-05 -4.902121509076096117e-05 -2.250236502732150257e-05 4.518322748481296003e-05
2.341000000000000000e+03 1.218461799621582031e+01 -6.277414798736572266e+00 -1.921833604574203491e-01 2.376174181699752808e-01 1.363021787256002426e-02 -3.503362536430358887e-01
2.342000000000000000e+03 1.172552204132080078e+01 -5.664768695831298828e+00 -2.751853466033935547e-01 1.729838252067565918e-01 -3.066045604646205902e-02 -3.783881664276123047e-01
2.343000000000000000e+03 2.182617759704589844e+01 -2.514243841171264648e+00 -9.833592772483825684e-01 1.811722815036773682e-01 -2.406561076641082764e-01 4.551142454147338867e-01
2.344000000000000000e+03 1.249118232727050781e+01 6.201922416687011719e+00 6.068622678867541254e-05 9.835785022005438805e-06 2.115660390700213611e-05 3.243586252210661769e-05
2.345000000000000000e+03 9.761032104492187500e+00 5.294990539550781250e+00 -4.530433216132223606e-05 -2.429384767310693860e-05 -2.087945358653087169e-05 3.897100032190792263e-05
2.346000000000000000e+03 8.327656745910644531e+00 5.927083969116210938e+00 1.164729910669848323e-04 -2.621743078634608537e-05 2.707666862988844514e-05 1.772897462615219411e-06
2.347000000000000000e+03 7.903470993041992188e+00 -5.622348785400390625e+00 -1.969849169254302979e-01 -2.993025816977024078e-02 -6.807455420494079590e-02 -4.751198291778564453e-01
2.348000000000000000e+03 2.184178352355957031e+01 -4.030402183532714844e+00 -1.023085951805114746e+00 2.600486278533935547e-01 -2.289111763238906860e-01 2.105794399976730347e-01
2.349000000000000000e+03 4.620370864868164062e+01 -9.970120429992675781e+00 -1.348530054092407227e-01 1.917207986116409302e-01 1.706033945083618164e-02 4.216499626636505127e-01
2.350000000000000000e+03 7.066828918457031250e+01 -1.035578536987304688e+01 -4.024383425712585449e-01 5.975411087274551392e-02 -1.028052642941474915e-01 -2.613242864608764648e-01
2.351000000000000000e+03 7.011771392822265625e+01 -8.705245971679687500e+00 -3.330688178539276123e-01 1.048845518380403519e-02 -9.677410870790481567e-02 -4.060154259204864502e-01
2.352000000000000000e+03 2.018007469177246094e+01 -4.119307518005371094e+00 -7.423958778381347656e-01 3.262203931808471680e-01 -1.248526349663734436e-01 1.951620429754257202e-01
2.353000000000000000e+03 3.777249145507812500e+01 -5.901302337646484375e+00 2.274868637323379517e-01 -2.842071056365966797e-01 -1.701607368886470795e-02 2.917645871639251709e-01
2.354000000000000000e+03 3.668178176879882812e+01 -5.145295143127441406e+00 2.129067927598953247e-01 -2.406407445669174194e-01 -8.320182561874389648e-03 2.944402396678924561e-01
2.355000000000000000e+03 5.623487472534179688e+00 -5.751161098480224609e+00 -1.252767443656921387e-01 -1.573565155267715454e-01 -8.478997647762298584e-02 -4.314582347869873047e-01
2.356000000000000000e+03 2.052927780151367188e+01 -5.111536026000976562e+00 -5.362382531166076660e-01 3.137583136558532715e-01 -6.674398481845855713e-02 1.160330176353454590e-01
2.357000000000000000e+03 1.887388038635253906e+01 -4.463512420654296875e+00 -6.067617535591125488e-01 3.129471838474273682e-01 -8.814437687397003174e-02 1.371800005435943604e-01
2.358000000000000000e+03 9.621348381042480469e+00 -7.857255935668945312e+00 5.490778130479156971e-04 1.171556189656257629e-01 3.531140834093093872e-02 -4.695772826671600342e-01
2.359000000000000000e+03 6.302075862884521484e+00 6.544742584228515625e+00 -4.011913188151083887e-05 -5.064740616944618523e-05 -2.722996032389346510e-05 3.311788168502971530e-05
2.360000000000000000e+03 3.925869750976562500e+01 -7.369775772094726562e+00 1.470839530229568481e-01 -3.166247010231018066e-01 -5.086222290992736816e-02 3.054715394973754883e-01
2.361000000000000000e+03 4.410563278198242188e+01 -8.372609138488769531e+00 2.121894210577011108e-01 -1.202706433832645416e-02 6.004871055483818054e-02 3.127476572990417480e-01
2.362000000000000000e+03 7.206189727783203125e+01 -1.063206672668457031e+01 -2.544525265693664551e-01 6.762863136827945709e-03 -7.430689781904220581e-02 -2.131607532501220703e-01
2.363000000000000000e+03 7.175025939941406250e+01 -1.001192569732666016e+01 -3.127075731754302979e-01 2.360866591334342957e-02 -8.672967553138732910e-02 -2.605109512805938721e-01
2.364000000000000000e+03 3.810374450683593750e+01 -4.809373855590820312e+00 2.856162488460540771e-01 -2.398049384355545044e-01 1.374339032918214798e-02 2.161682397127151489e-01
2.365000000000000000e+03 4.004651260375976562e+01 -2.069766044616699219e+01 -2.162313554435968399e-03 -1.785383756214287132e-05 -6.540502072311937809e-04 5.380089532991405576e-06
2.366000000000000000e+03 4.205425262451171875e+01 -7.080135345458984375e+00 3.757056891918182373e-01 -1.560017764568328857e-01 6.591117382049560547e-02 2.164056301116943359e-01
2.367000000000000000e+03 6.474421024322509766e+00 -5.455712318420410156e+00 -1.642941981554031372e-01 -9.870443493127822876e-02 -7.889959216117858887e-02 -4.519913792610168457e-01
2.368000000000000000e+03 8.235131263732910156e+00 -7.214515686035156250e+00 -5.774913728237152100e-02 2.110238652676343918e-03 -1.669166982173919678e-02 -5.041168928146362305e-01
2.369000000000000000e+03 7.117195129394531250e+00 5.705108165740966797e+00 -2.378409953962545842e-05 -3.677510176203213632e-05 -1.816776057239621878e-05 2.787420271488372236e-05
2.370000000000000000e+03 8.394649505615234375e+00 5.335634708404541016e+00 -3.007868144777603447e-05 -1.657420943956822157e-05 -1.399586744810221717e-05 -1.805474880711699370e-06
2.371000000000000000e+03 2.019137382507324219e+01 -6.715855598449707031e+00 1.601337920874357224e-03 2.588048577308654785e-01 7.812185585498809814e-02 8.562708646059036255e-02
2.372000000000000000e+03 1.686919021606445312e+01 -7.083214759826660156e+00 -5.041986703872680664e-03 4.574732184410095215e-01 1.357293725013732910e-01 3.611299023032188416e-02
2.373000000000000000e+03 1.419622993469238281e+01 -5.599355697631835938e+00 -3.176864087581634521e-01 2.840230762958526611e-01 -1.009899936616420746e-02 -2.002698779106140137e-01
2.374000000000000000e+03 5.029956340789794922e+00 8.227284431457519531e+00 1.260628778254613280e-04 -1.906890429381746799e-05 3.209819260518997908e-05 -6.441325967898592353e-05
2.375000000000000000e+03 6.238441467285156250e+01 -6.396591663360595703e+00 7.048283703625202179e-03 -7.985059171915054321e-02 -2.184069342911243439e-02 -2.259525805711746216e-01
2.376000000000000000e+03 5.370863437652587891e+00 -9.533818244934082031e+00 6.271781027317047119e-02 -2.900342941284179688e-01 -6.819494813680648804e-02 -4.439542591571807861e-01
2.377000000000000000e+03 7.103766918182373047e+00 -6.454114913940429688e+00 -1.108934357762336731e-01 -8.667768537998199463e-02 -5.927133932709693909e-02 -4.869330823421478271e-01
2.378000000000000000e+03 3.762866210937500000e+01 -3.482888460159301758e+00 2.370934784412384033e-01 -1.614124625921249390e-01 2.270430512726306915e-02 1.333210468292236328e-01
2.379000000000000000e+03 3.694152069091796875e+01 -4.554584980010986328e+00 2.188944965600967407e-01 -2.128571420907974243e-01 1.811207504943013191e-03 2.390957474708557129e-01
2.380000000000000000e+03 7.104782867431640625e+01 -5.805999755859375000e+00 -1.235706657171249390e-01 -8.844809234142303467e-02 -6.360562890768051147e-02 -4.416944980621337891e-01
2.381000000000000000e+03 9.253591537475585938e+00 -1.287920475006103516e+01 3.785794675350189209e-01 2.732953727245330811e-01 1.955624520778656006e-01 -2.905031144618988037e-01
2.382000000000000000e+03 1.802594947814941406e+01 -6.491265773773193359e+00 -1.062554121017456055e-01 4.034085571765899658e-01 8.914594352245330811e-02 8.253249526023864746e-02
2.383000000000000000e+03 6.492051696777343750e+01 -6.242394447326660156e+00 -7.403261214494705200e-02 -1.172630637884140015e-01 -5.738870054483413696e-02 -3.998108506202697754e-01
2.384000000000000000e+03 7.168432712554931641e+00 -5.585743904113769531e+00 -1.770195960998535156e-01 -6.399148702621459961e-02 -7.230332493782043457e-02 -4.658443629741668701e-01
2.385000000000000000e+03 8.213155746459960938e+00 6.599186420440673828e+00 -3.646550248959101737e-05 -5.821014565299265087e-05 -2.840269371517933905e-05 1.480917489971034229e-05
2.386000000000000000e+03 1.349310588836669922e+01 -6.473192214965820312e+00 -1.667848080396652222e-01 3.189113438129425049e-01 4.563795775175094604e-02 -2.533472776412963867e-01
2.387000000000000000e+03 6.559767913818359375e+01 8.433702468872070312e+00 2.694919109344482422e-01 9.842904210090637207e-01 3.761346936225891113e-01 4.837106913328170776e-02
2.388000000000000000e+03 6.706468200683593750e+01 6.692073345184326172e+00 2.715746760368347168e-01 5.773959755897521973e-01 2.546911835670471191e-01 -5.764121562242507935e-02
2.389000000000000000e+03 1.348373699188232422e+01 -7.191042423248291016e+00 -4.623855650424957275e-02 3.793292045593261719e-01 9.992719441652297974e-02 -2.463767677545547485e-01
2.390000000000000000e+03 9.845445632934570312e+00 6.000211238861083984e+00 1.007086466415785253e-04 -9.223102210853539873e-07 2.993590169353410602e-05 -2.146065708075184375e-05
2.391000000000000000e+03 1.165682601928710938e+01 8.066090583801269531e+00 4.455013549886643887e-05 -1.325915945926681161e-05 9.387292266183067113e-06 -4.999197699362412095e-05
2.392000000000000000e+03 6.343817901611328125e+01 4.342985451221466064e-01 3.714914321899414062e-01 5.313592553138732910e-01 2.708552181720733643e-01 9.023039042949676514e-02
2.393000000000000000e+03 1.333710002899169922e+01 6.747326850891113281e+00 -1.257653730135643855e-05 1.154544861492468044e-05 -3.093267366693908116e-07 5.879915988771244884e-06
2.394000000000000000e+03 1.107630538940429688e+01 7.358935356140136719e+00 -4.273807280696928501e-05 -1.045410590450046584e-05 -1.595765388628933579e-05 7.242935680551454425e-05
2.395000000000000000e+03 5.499288940429687500e+01 -8.670445442199707031e+00 8.490367233753204346e-02 3.706224858760833740e-01 1.366578489542007446e-01 -4.941426590085029602e-02
2.396000000000000000e+03 1.099273681640625000e+01 9.661402702331542969e+00 -4.174440255155786872e-05 -5.852045796927995980e-05 -3.007945815625134856e-05 8.693287963978946209e-05
2.397000000000000000e+03 1.269521713256835938e+01 -9.782355308532714844e+00 3.062337934970855713e-01 5.415163636207580566e-01 2.543250322341918945e-01 -2.423543632030487061e-01
2.398000000000000000e+03 1.267692184448242188e+01 -1.064349937438964844e+01 4.094790816307067871e-01 6.646484136581420898e-01 3.222382664680480957e-01 -1.880306303501129150e-01
2.399000000000000000e+03 4.563798904418945312e+01 -1.059996891021728516e+01 -2.907913923263549805e-01 1.642202436923980713e-01 -3.797134384512901306e-02 4.106817245483398438e-01
2.400000000000000000e+03 7.338069152832031250e+01 -8.373680114746093750e+00 -1.698775440454483032e-01 -7.498046010732650757e-02 -7.345740497112274170e-02 -3.007563650608062744e-01
2.401000000000000000e+03 1.630588531494140625e+01 -5.588937759399414062e+00 -3.199979066848754883e-01 3.460824787616729736e-01 7.825371809303760529e-03 -2.703671716153621674e-02
2.402000000000000000e+03 1.414047431945800781e+01 5.966862201690673828e+00 2.588087681942852214e-06 1.374339990434236825e-05 4.899446139461360872e-06 2.904642678913660347e-05
2.403000000000000000e+03 9.990544319152832031e+00 1.184374332427978516e+01 1.560283562866970897e-04 -4.362221443443559110e-05 3.372184437466785312e-05 7.795297278789803386e-05
2.404000000000000000e+03 7.347113037109375000e+01 -2.258972167968750000e+01 1.274740679946262389e-05 -3.012377783306874335e-05 -5.212911219132365659e-06 -2.284312540723476559e-05
2.405000000000000000e+03 6.776988983154296875e+00 -1.311740875244140625e+01 2.448612898588180542e-01 -1.521874964237213135e-01 2.780214138329029083e-02 -3.318415880203247070e-01
2.406000000000000000e+03 6.576330184936523438e+00 -9.418496131896972656e+00 7.539797574281692505e-02 -1.575952023267745972e-01 -2.465916797518730164e-02 -4.752530455589294434e-01
2.407000000000000000e+03 4.013809967041015625e+01 -7.437268733978271484e+00 1.858072578907012939e-01 -2.772438228130340576e-01 -2.743097208440303802e-02 2.968268692493438721e-01
2.408000000000000000e+03 7.250624084472656250e+01 3.687704503536224365e-01 7.607334107160568237e-02 -2.461346834897994995e-01 -5.101840198040008545e-02 -3.567748963832855225e-01
2.409000000000000000e+03 7.364114379882812500e+01 -2.435465431213378906e+01 3.384516094229184091e-05 -4.819776950171217322e-05 -4.305782567826099694e-06 -4.486050602281466126e-05
2.410000000000000000e+03 7.457547760009765625e+01 -2.327632904052734375e+01 1.193130992760416120e-05 -3.212931551388464868e-05 -6.059401584934676066e-06 -3.286554419901221991e-05
2.411000000000000000e+03 7.865779399871826172e+00 -1.413398265838623047e+01 3.355730473995208740e-01 3.588378429412841797e-02 1.114370524883270264e-01 -2.595945894718170166e-01
2.412000000000000000e+03 7.474839019775390625e+01 3.611988067626953125e+00 6.277497112751007080e-02 -5.308680534362792969e-01 -1.404279172420501709e-01 -2.569997906684875488e-01
2.413000000000000000e+03 7.465153503417968750e+01 2.283403635025024414e+00 6.513120979070663452e-02 -4.811100959777832031e-01 -1.247936636209487915e-01 -2.901043593883514404e-01
2.414000000000000000e+03 7.026961326599121094e+00 -1.674984359741210938e+01 3.074412345886230469e-01 -7.574728131294250488e-02 6.950818002223968506e-02 -1.083583608269691467e-01
2.415000000000000000e+03 7.261766815185546875e+01 -2.468943405151367188e+01 7.832149276509881020e-05 -1.018300918076420203e-05 2.044154643954243511e-05 -7.816709512553643435e-06
2.416000000000000000e+03 7.348462677001953125e+01 -2.122148990631103516e+00 1.972697302699089050e-02 -2.785572111606597900e-01 -7.764907181262969971e-02 -3.814887702465057373e-01
2.417000000000000000e+03 7.365758514404296875e+01 -3.371984243392944336e+00 -1.894877292215824127e-02 -2.535362839698791504e-01 -8.174552023410797119e-02 -3.785794973373413086e-01
2.418000000000000000e+03 6.196092605590820312e+01 -2.232435464859008789e+00 4.387964010238647461e-01 3.048075735569000244e-01 2.230811864137649536e-01 9.238368272781372070e-02
2.419000000000000000e+03 6.864193725585937500e+01 1.431030654907226562e+01 2.556667923927307129e-01 4.799806475639343262e-01 2.206942290067672729e-01 -1.104801986366510391e-02
2.420000000000000000e+03 4.290766143798828125e+01 -3.103825378417968750e+01 -6.085515953600406647e-03 3.132508136332035065e-03 -8.859024383127689362e-04 5.222057458013296127e-03
2.421000000000000000e+03 5.520514011383056641e+00 1.597119140625000000e+01 -1.417736057192087173e-04 -2.068214089376851916e-04 -1.045785029418766499e-04 4.617308877641335130e-05
2.422000000000000000e+03 9.022258758544921875e+00 -1.840027427673339844e+01 3.979086279869079590e-01 3.629995882511138916e-01 2.282724678516387939e-01 2.481978386640548706e-03
2.423000000000000000e+03 7.919627189636230469e+00 -2.069580268859863281e+01 2.834986746311187744e-01 1.250848919153213501e-01 1.225750669836997986e-01 1.094784513115882874e-01
2.424000000000000000e+03 4.242852687835693359e+00 1.814623069763183594e+01 6.409530760720372200e-05 -9.812097414396703243e-05 -1.020770014292793348e-05 -6.850316276540979743e-05
2.425000000000000000e+03 5.167063713073730469e+00 1.948048019409179688e+01 -6.092226976761594415e-05 -2.744323865044862032e-04 -1.006063976092264056e-04 6.429893255699425936e-05
2.426000000000000000e+03 1.490155887603759766e+01 -8.565620422363281250e+00 2.146831154823303223e-01 5.566360354423522949e-01 2.313957512378692627e-01 -8.063883334398269653e-02
2.427000000000000000e+03 7.473608970642089844e+00 2.349834060668945312e+01 -1.600257004611194134e-03 -3.680404042825102806e-04 -5.904891877435147762e-04 1.156589714810252190e-03
2.428000000000000000e+03 2.768537902832031250e+01 2.543799018859863281e+01 -9.677770547568798065e-03 -9.102151729166507721e-03 -5.633976776152849197e-03 7.737563457340002060e-03
2.429000000000000000e+03 4.575309753417968750e+00 -1.859244537353515625e+01 1.464152783155441284e-01 -5.882133841514587402e-01 -1.325394213199615479e-01 -3.410668577998876572e-03
2.430000000000000000e+03 1.005866527557373047e+01 -1.800197982788085938e+01 4.577084183692932129e-01 6.542150378227233887e-01 3.335770368576049805e-01 -1.556025259196758270e-02
2.431000000000000000e+03 3.279101943969726562e+01 2.343058204650878906e+01 -1.356726791709661484e-02 1.465313369408249855e-03 -3.630586434155702591e-03 3.475351259112358093e-03
2.432000000000000000e+03 8.392470359802246094e+00 -2.465694999694824219e+01 1.042399331927299500e-01 1.967225074768066406e-01 9.028872847557067871e-02 2.408028990030288696e-01
2.433000000000000000e+03 1.001007366180419922e+01 -2.443929290771484375e+01 1.274717301130294800e-01 5.039582848548889160e-01 1.894290000200271606e-01 1.871951520442962646e-01
2.434000000000000000e+03 7.277880859375000000e+01 1.552834320068359375e+01 1.450576782226562500e-01 -2.895359098911285400e-01 -4.334346577525138855e-02 5.471034720540046692e-02
2.435000000000000000e+03 9.382033348083496094e+00 1.475644397735595703e+01 -6.591461715288460255e-05 -1.849437248893082142e-04 -7.525750697823241353e-05 9.782064580576843582e-07
2.436000000000000000e+03 6.465835571289062500e+01 1.940478563308715820e+00 3.384311199188232422e-01 5.744861960411071777e-01 2.738751769065856934e-01 2.439939789474010468e-02
2.437000000000000000e+03 1.005873870849609375e+01 2.239709281921386719e+01 -2.125212457031011581e-03 4.835613799514248967e-05 -6.230568978935480118e-04 6.938792066648602486e-04
2.438000000000000000e+03 1.650595664978027344e+01 2.558504486083984375e+01 -7.111379876732826233e-03 -5.574138485826551914e-04 -2.300638007000088692e-03 5.411861930042505264e-03
2.439000000000000000e+03 7.541923522949218750e+00 1.691275215148925781e+01 -3.078313966398127377e-05 -2.507118624635040760e-04 -8.444849663646891713e-05 -2.373947245359886438e-05
2.440000000000000000e+03 6.169662475585937500e+00 -1.958226966857910156e+01 2.137109488248825073e-01 -2.320527434349060059e-01 -5.502536427229642868e-03 5.397127196192741394e-02
2.441000000000000000e+03 6.668561553955078125e+01 1.465420055389404297e+01 2.669505774974822998e-01 9.344576001167297363e-01 3.604224324226379395e-01 -3.894913196563720703e-02
2.442000000000000000e+03 7.308361053466796875e+01 -2.569874954223632812e+01 2.359493919357191771e-05 -3.672468665172345936e-05 -3.938924692192813382e-06 -6.681238301098346710e-05
2.443000000000000000e+03 7.333558654785156250e+01 -2.673933219909667969e+01 1.036106332321651280e-04 -3.868027124553918839e-05 1.947910823218990117e-05 -3.098847082583233714e-05
2.444000000000000000e+03 6.487991333007812500e+01 5.130423069000244141e+00 3.312117457389831543e-01 8.409253954887390137e-01 3.516411483287811279e-01 8.837799727916717529e-02
2.445000000000000000e+03 6.603144836425781250e+01 5.855053424835205078e+00 2.986150383949279785e-01 7.281122803688049316e-01 3.080182075500488281e-01 4.200167953968048096e-03
2.446000000000000000e+03 3.758123016357421875e+01 -2.454801940917968750e+01 -1.021364610642194748e-02 3.125663381069898605e-03 -2.126394771039485931e-03 -2.426682040095329285e-03
2.447000000000000000e+03 7.296114349365234375e+01 1.799718284606933594e+01 1.240615546703338623e-01 -3.262320160865783691e-01 -6.065113842487335205e-02 1.322034895420074463e-01
2.448000000000000000e+03 4.960798263549804688e+01 -1.024765872955322266e+01 -2.540493309497833252e-01 4.032062888145446777e-01 4.474708065390586853e-02 3.816350698471069336e-01
2.449000000000000000e+03 1.967569923400878906e+01 -6.193414211273193359e+00 -2.013742923736572266e-01 3.259542584419250488e-01 3.737398609519004822e-02 1.024215444922447205e-01
2.450000000000000000e+03 5.707002258300781250e+01 -9.399943351745605469e+00 -3.639281094074249268e-01 1.812239885330200195e-01 -5.481123924255371094e-02 -2.162458747625350952e-01
2.451000000000000000e+03 4.859873962402343750e+01 2.592644119262695312e+01 6.516934186220169067e-02 3.613970056176185608e-02 3.039271384477615356e-02 -6.329102069139480591e-02
2.452000000000000000e+03 7.181833648681640625e+01 -7.282464951276779175e-02 8.770032972097396851e-02 -1.832283139228820801e-01 -2.865839377045631409e-02 -3.766414523124694824e-01
2.453000000000000000e+03 7.375796508789062500e+01 -4.464880466461181641e+00 -3.398790210485458374e-02 -2.284352630376815796e-01 -7.872694730758666992e-02 -3.735734522342681885e-01
2.454000000000000000e+03 3.976767349243164062e+01 -3.046990394592285156e+01 -7.233590353280305862e-03 9.139209054410457611e-03 5.716855521313846111e-04 5.704624578356742859e-03
2.455000000000000000e+03 3.998903274536132812e+01 -2.879244232177734375e+01 -1.123184058815240860e-02 8.236016146838665009e-03 -8.987473556771874428e-04 4.399881232529878616e-03
2.456000000000000000e+03 3.217882871627807617e+00 1.665038108825683594e+01 1.129289303207769990e-04 5.117361433804035187e-05 4.923076267004944384e-05 -7.789176743244752288e-05
2.457000000000000000e+03 6.447299194335937500e+01 -3.436363601684570312e+01 -4.159138188697397709e-04 -4.375538264866918325e-04 -2.560403081588447094e-04 3.703725815284997225e-04
2.458000000000000000e+03 7.145230293273925781e+00 1.191376399993896484e+01 1.674948143772780895e-04 -8.374036406166851521e-05 2.512633545848075300e-05 -6.364828004734590650e-05
2.459000000000000000e+03 3.799445343017578125e+01 1.931659889221191406e+01 -1.532552763819694519e-02 1.149650663137435913e-02 -1.148706302046775818e-03 4.864332266151905060e-03
2.460000000000000000e+03 5.862290573120117188e+01 2.920561408996582031e+01 -7.097047567367553711e-02 4.610967636108398438e-01 1.170378848910331726e-01 -2.079965919256210327e-01
2.461000000000000000e+03 8.870661735534667969e+00 1.593920040130615234e+01 4.352568794274702668e-05 -2.295699086971580982e-04 -5.581326331594027579e-05 1.519296165497507900e-05
2.462000000000000000e+03 6.703863525390625000e+01 1.967399978637695312e+01 2.850636839866638184e-01 6.566139459609985352e-01 2.825033068656921387e-01 1.167533472180366516e-01
2.463000000000000000e+03 6.734547424316406250e+01 2.100741767883300781e+01 2.254789769649505615e-01 5.617069005966186523e-01 2.361557632684707642e-01 1.456115841865539551e-01
2.464000000000000000e+03 8.363699913024902344e+00 2.274394416809082031e+01 -1.559461816214025021e-03 -2.077885001199319959e-04 -5.301751079969108105e-04 8.691196562722325325e-04
2.465000000000000000e+03 6.967240333557128906e+00 2.060511970520019531e+01 -6.041122251190245152e-04 -3.498819132801145315e-04 -2.861982502508908510e-04 3.743800334632396698e-04
2.466000000000000000e+03 7.145088195800781250e+01 -3.297286605834960938e+01 -4.989608351024799049e-05 -6.837229739176109433e-05 -3.548051245161332190e-05 -3.545045547070913017e-05
2.467000000000000000e+03 7.481912994384765625e+01 -3.016154861450195312e+01 -1.742665699566714466e-05 5.475714715430513024e-06 -3.585282684070989490e-06 -9.799252438824623823e-05
2.468000000000000000e+03 7.546306610107421875e+01 -3.097413825988769531e+01 5.404653620644239709e-06 2.967219916172325611e-05 1.052305560733657330e-05 -6.951358227524906397e-05
2.469000000000000000e+03 1.235387516021728516e+01 -2.614456558227539062e+01 4.261683300137519836e-02 7.789061665534973145e-01 2.464568912982940674e-01 3.738222271203994751e-02
2.470000000000000000e+03 6.739161682128906250e+01 1.178256607055664062e+01 2.486020624637603760e-01 7.445637583732604980e-01 2.979497313499450684e-01 -1.212058588862419128e-02
2.471000000000000000e+03 6.693324279785156250e+01 1.845908927917480469e+01 3.372445404529571533e-01 6.987438201904296875e-01 3.107964992523193359e-01 4.629581421613693237e-02
2.472000000000000000e+03 1.785897970199584961e+00 3.559906005859375000e+01 -7.383904448943212628e-05 -4.478566348552703857e-03 -1.365721574984490871e-03 6.196820177137851715e-04
2.473000000000000000e+03 1.653306126594543457e+00 3.455978775024414062e+01 2.011721080634742975e-04 -4.131738562136888504e-03 -1.179169863462448120e-03 7.253895164467394352e-04
2.474000000000000000e+03 7.079334259033203125e+01 8.197033882141113281e+00 1.856104284524917603e-01 2.044806815683841705e-02 6.181754916906356812e-02 -1.474608331918716431e-01
2.475000000000000000e+03 7.299693298339843750e+01 6.058463096618652344e+00 1.238745376467704773e-01 -3.277185261249542236e-01 -6.115319579839706421e-02 -2.197581976652145386e-01
2.476000000000000000e+03 1.019467449188232422e+01 -6.348517894744873047e+00 -1.817323863506317139e-01 1.031567826867103577e-01 -2.357268147170543671e-02 -4.502263367176055908e-01
2.477000000000000000e+03 8.740227699279785156e+00 -6.365434169769287109e+00 -1.446584463119506836e-01 3.344483673572540283e-02 -3.336408361792564392e-02 -4.872445166110992432e-01
2.478000000000000000e+03 1.175701332092285156e+01 5.884557723999023438e+00 -2.720018892432563007e-05 -2.745731944742146879e-05 -1.639725269342307001e-05 3.111668775090947747e-05
2.479000000000000000e+03 1.169046115875244141e+01 -9.546037673950195312e+00 2.441674619913101196e-01 4.310055673122406006e-01 2.025519162416458130e-01 -3.277112245559692383e-01
2.480000000000000000e+03 1.282082939147949219e+01 -8.841184616088867188e+00 1.839356422424316406e-01 4.788120687007904053e-01 1.988243162631988525e-01 -2.658062577247619629e-01
2.481000000000000000e+03 2.133383369445800781e+01 -3.518426895141601562e+00 -9.688906669616699219e-01 2.835486531257629395e-01 -2.056026011705398560e-01 2.870024442672729492e-01
2.482000000000000000e+03 2.080496215820312500e+01 -3.469477653503417969e+00 -9.082376956939697266e-01 3.053408861160278320e-01 -1.808690428733825684e-01 2.722150683403015137e-01
2.483000000000000000e+03 7.256046772003173828e+00 6.532670021057128906e+00 9.088155638892203569e-05 1.772142240952234715e-05 3.258089418523013592e-05 -4.567517680698074400e-05
2.484000000000000000e+03 1.523278045654296875e+01 -7.712056159973144531e+00 7.817725092172622681e-02 4.908035397529602051e-01 1.706942319869995117e-01 -7.690402120351791382e-02
2.485000000000000000e+03 3.624288177490234375e+01 -4.138785839080810547e+00 1.863949596881866455e-01 -1.772332787513732910e-01 2.748502884060144424e-03 2.567367255687713623e-01
2.486000000000000000e+03 7.348918914794921875e+01 -9.329298973083496094e+00 -1.756722480058670044e-01 -5.042709410190582275e-02 -6.782980263233184814e-02 -2.435654848814010620e-01
2.487000000000000000e+03 2.120985603332519531e+01 -4.686547279357910156e+00 -7.503313422203063965e-01 2.820497453212738037e-01 -1.404844671487808228e-01 1.279676258563995361e-01
2.488000000000000000e+03 3.739921951293945312e+01 -5.132740497589111328e+00 2.534218728542327881e-01 -2.503631711006164551e-01 9.176140883937478065e-04 2.579729557037353516e-01
2.489000000000000000e+03 1.902719688415527344e+01 -5.970766544342041016e+00 -2.414956837892532349e-01 3.520213365554809570e-01 3.315769508481025696e-02 9.460578858852386475e-02
2.490000000000000000e+03 1.716647148132324219e+01 -6.096232891082763672e+00 -2.093496769666671753e-01 3.986708223819732666e-01 5.679634213447570801e-02 2.742328494787216187e-02
2.491000000000000000e+03 2.070692253112792969e+01 -4.621737480163574219e+00 -6.985737681388854980e-01 3.136518597602844238e-01 -1.154765710234642029e-01 1.499006450176239014e-01
2.492000000000000000e+03 6.282989501953125000e+00 -8.376475334167480469e+00 1.511220354586839676e-02 -1.655353754758834839e-01 -4.512695223093032837e-02 -4.822015762329101562e-01
2.493000000000000000e+03 6.289978504180908203e+00 -6.159909725189208984e+00 -1.103434041142463684e-01 -1.287049800157546997e-01 -7.171452045440673828e-02 -4.648075997829437256e-01
2.494000000000000000e+03 6.045999526977539062e+00 1.993294334411621094e+01 -5.027672159485518932e-04 -2.053140633506700397e-04 -2.124243765138089657e-04 1.525043917354196310e-04
2.495000000000000000e+03 6.957343292236328125e+01 -7.992984294891357422e+00 -2.926726341247558594e-01 -2.705141156911849976e-02 -9.591721743345260620e-02 -4.227498769760131836e-01
2.496000000000000000e+03 1.283434581756591797e+01 -6.794354438781738281e+00 -1.198130100965499878e-01 3.178158104419708252e-01 5.940084159374237061e-02 -3.030751347541809082e-01
2.497000000000000000e+03 7.968195438385009766e+00 -6.453994750976562500e+00 -1.214199736714363098e-01 -2.006048709154129028e-02 -4.244413599371910095e-02 -4.955020248889923096e-01
2.498000000000000000e+03 9.134864807128906250e+00 7.474761486053466797e+00 -4.286655166652053595e-05 -6.940785533515736461e-05 -3.368232137290760875e-05 -5.222702839091653004e-07
2.499000000000000000e+03 7.311785697937011719e+00 7.331404209136962891e+00 -1.297210201300913468e-05 -8.692081610206514597e-05 -2.996787407028023154e-05 2.063045212707947940e-05
2.500000000000000000e+03 5.743851184844970703e+00 -1.697179031372070312e+01 2.237127721309661865e-01 -3.562346100807189941e-01 -3.975655511021614075e-02 -9.463910758495330811e-02
2.501000000000000000e+03 5.858480453491210938e+00 -1.825976562500000000e+01 2.130535840988159180e-01 -3.173929452896118164e-01 -3.130180761218070984e-02 -1.434561796486377716e-02
2.502000000000000000e+03 7.267229461669921875e+01 -6.208763599395751953e+00 -1.142451092600822449e-01 -1.267601400613784790e-01 -7.230157405138015747e-02 -3.926477134227752686e-01
2.503000000000000000e+03 7.317099761962890625e+01 -7.269665241241455078e+00 -1.362492293119430542e-01 -1.109021902084350586e-01 -7.414542883634567261e-02 -3.401690721511840820e-01
2.504000000000000000e+03 5.233450412750244141e+00 -8.461823463439941406e+00 1.079219300299882889e-02 -2.700300812721252441e-01 -7.777136564254760742e-02 -4.538971185684204102e-01
2.505000000000000000e+03 8.638575553894042969e+00 2.003109359741210938e+01 -7.099413778632879257e-04 -3.448766365181654692e-04 -3.164453955832868814e-04 2.909251488745212555e-04
2.506000000000000000e+03 8.470552444458007812e+00 1.067797565460205078e+01 1.849387917900457978e-04 -6.480307638412341475e-05 3.604071389418095350e-05 1.315163808612851426e-05
2.507000000000000000e+03 6.635452270507812500e+00 1.105205059051513672e+01 4.536468622973188758e-05 -1.024805897031910717e-04 -1.713477104203775525e-05 -4.216527031530858949e-06
2.508000000000000000e+03 4.973087787628173828e+00 9.122638702392578125e+00 -2.813433820847421885e-05 -5.752242941525764763e-05 -2.569703065091744065e-05 -2.048235728580038995e-05
2.509000000000000000e+03 6.459515094757080078e+00 9.607699394226074219e+00 9.122099436353892088e-05 -8.756024180911481380e-05 1.098226675821933895e-06 -4.100989099242724478e-05
2.510000000000000000e+03 9.145754814147949219e+00 -1.943988990783691406e+01 3.631755113601684570e-01 3.855694234371185303e-01 2.246234714984893799e-01 6.306298822164535522e-02
2.511000000000000000e+03 1.311522293090820312e+01 -7.953072071075439453e+00 5.266070738434791565e-02 4.105373919010162354e-01 1.389594227075576782e-01 -2.689552605152130127e-01
2.512000000000000000e+03 6.817990875244140625e+01 1.848209762573242188e+01 2.625767588615417480e-01 4.839365780353546143e-01 2.239540070295333862e-01 1.088992282748222351e-01
2.513000000000000000e+03 1.437410736083984375e+01 -7.366938114166259766e+00 -1.766704209148883820e-02 4.338837862014770508e-01 1.248650178313255310e-01 -1.684159189462661743e-01
2.514000000000000000e+03 1.442326354980468750e+01 -6.452942371368408203e+00 -1.529256701469421387e-01 3.629225194454193115e-01 6.299905478954315186e-02 -1.759975999593734741e-01
2.515000000000000000e+03 8.193449974060058594e+00 1.175932693481445312e+01 -6.881183799123391509e-05 -1.291385560762137175e-04 -5.938511822023428977e-05 1.705942304397467524e-05
2.516000000000000000e+03 7.301609802246093750e+01 -2.885857009887695312e+01 7.592641486553475261e-05 -3.912384272553026676e-05 1.104077182390028611e-05 -3.299764284747652709e-05
2.517000000000000000e+03 1.605506324768066406e+01 -8.655634880065917969e+00 2.858925759792327881e-01 6.071133017539978027e-01 2.679017484188079834e-01 3.773131221532821655e-02
2.518000000000000000e+03 1.680727577209472656e+01 -7.999195575714111328e+00 2.369403690099716187e-01 5.554222464561462402e-01 2.377087771892547607e-01 6.369140744209289551e-02
2.519000000000000000e+03 1.089424705505371094e+01 -6.543529510498046875e+00 -1.507664620876312256e-01 1.752541214227676392e-01 7.346294354647397995e-03 -4.203622639179229736e-01
2.520000000000000000e+03 9.480353355407714844e+00 -6.350447177886962891e+00 -1.632605195045471191e-01 7.924946397542953491e-02 -2.520331926643848419e-02 -4.700563848018646240e-01
2.521000000000000000e+03 2.183378410339355469e+01 -3.427299976348876953e+00 -1.044895410537719727e+00 2.628021836280822754e-01 -2.346279770135879517e-01 3.316070139408111572e-01
2.522000000000000000e+03 7.400498962402343750e+01 1.135237503051757812e+01 1.106773987412452698e-01 -4.989218413829803467e-01 -1.164733394980430603e-01 -7.536721974611282349e-02
2.523000000000000000e+03 4.469142436981201172e+00 -1.722125244140625000e+01 1.450648456811904907e-01 -6.053761839866638184e-01 -1.380933970212936401e-01 -7.157945632934570312e-02
2.524000000000000000e+03 6.847282409667968750e+01 1.947472000122070312e+01 2.529829442501068115e-01 4.076612889766693115e-01 1.981932669878005981e-01 1.281311661005020142e-01
2.525000000000000000e+03 4.485224151611328125e+01 -8.847356796264648438e+00 1.651269793510437012e-01 5.326590687036514282e-02 6.551786512136459351e-02 3.299278914928436279e-01
2.526000000000000000e+03 6.679962158203125000e+01 4.937344551086425781e+00 2.804293334484100342e-01 5.161650180816650391e-01 2.389782965183258057e-01 -7.771264016628265381e-02
2.527000000000000000e+03 1.054115200042724609e+01 5.914212703704833984e+00 -4.150279710302129388e-05 -3.510465830913744867e-05 -2.298223625984974205e-05 6.538527668453752995e-05
2.528000000000000000e+03 1.405672931671142578e+01 -8.260869026184082031e+00 1.449860334396362305e-01 5.263657569885253906e-01 2.014055252075195312e-01 -1.688021719455718994e-01
2.529000000000000000e+03 8.268198966979980469e+00 -1.511220359802246094e+01 3.750517964363098145e-01 1.447969824075698853e-01 1.559546291828155518e-01 -1.833115518093109131e-01
2.530000000000000000e+03 8.108630180358886719e+00 -1.686934471130371094e+01 3.648586571216583252e-01 1.476818919181823730e-01 1.537621766328811646e-01 -9.075379371643066406e-02
2.531000000000000000e+03 6.611778259277343750e+00 1.699173164367675781e+01 -1.979092194233089685e-04 -3.547514206729829311e-04 -1.657981920288875699e-04 1.276014372706413269e-04
2.532000000000000000e+03 8.340537071228027344e+00 2.439267730712890625e+01 -1.574050402268767357e-03 -4.705684841610491276e-04 -6.133856368251144886e-04 1.361907809041440487e-03
2.533000000000000000e+03 7.438430786132812500e+00 2.231350135803222656e+01 -9.194544982165098190e-04 -4.154170455876737833e-04 -4.004614602308720350e-04 7.603823323734104633e-04
2.534000000000000000e+03 6.202867889404296875e+01 -4.247671604156494141e+00 3.291341364383697510e-01 9.874988347291946411e-02 1.283652037382125854e-01 -5.706730857491493225e-02
2.535000000000000000e+03 5.954589843750000000e+01 -5.017921447753906250e+00 4.801481664180755615e-01 2.224790453910827637e-01 2.107881605625152588e-01 9.055893123149871826e-02
2.536000000000000000e+03 7.199151611328125000e+01 -7.704104900360107422e+00 -2.043027281761169434e-01 -5.422750115394592285e-02 -7.755906879901885986e-02 -3.809344470500946045e-01
2.537000000000000000e+03 7.315419006347656250e+01 3.238535165786743164e+00 1.031692475080490112e-01 -3.108172118663787842e-01 -6.229439005255699158e-02 -2.933551967144012451e-01
2.538000000000000000e+03 6.751999664306640625e+01 1.358082580566406250e+01 2.656535804271697998e-01 7.432814836502075195e-01 3.026805222034454346e-01 -1.831194199621677399e-02
2.539000000000000000e+03 6.981425476074218750e+01 -3.556482696533203125e+01 -1.037729671224951744e-04 -1.918339548865333200e-04 -8.868207805790007114e-05 5.427642099675722420e-05
2.540000000000000000e+03 6.672836303710937500e+01 3.042018413543701172e+00 2.822097241878509521e-01 4.118489027023315430e-01 2.082175910472869873e-01 -1.175618767738342285e-01
2.541000000000000000e+03 6.796894836425781250e+01 1.522857761383056641e+01 2.884242832660675049e-01 6.250994205474853516e-01 2.740571200847625732e-01 -7.160123903304338455e-03
2.542000000000000000e+03 1.422159576416015625e+01 2.598361206054687500e+01 -4.698974546045064926e-03 -3.059551818296313286e-04 -1.501478953287005424e-03 4.321667831391096115e-03
2.543000000000000000e+03 1.118045711517333984e+01 2.504468154907226562e+01 -3.360602771863341331e-03 -1.482549123466014862e-04 -1.052657258696854115e-03 2.630866831168532372e-03
2.544000000000000000e+03 7.626211166381835938e+00 1.565705680847167969e+01 -1.754969707690179348e-04 -2.828628348652273417e-04 -1.375079446006566286e-04 3.757036029128357768e-05
2.545000000000000000e+03 6.151828765869140625e+00 1.452218532562255859e+01 -5.578399577643722296e-05 -2.085517917294055223e-04 -7.930073479656130075e-05 1.126352253777440637e-05
2.546000000000000000e+03 8.131340980529785156e+00 1.838623428344726562e+01 -2.524873416405171156e-04 -3.722283872775733471e-04 -1.874147274065762758e-04 1.223819708684459329e-04
2.547000000000000000e+03 7.136355590820312500e+01 -3.128268051147460938e+01 -2.675287396414205432e-05 -1.440797350369393826e-04 -5.124978270032443106e-05 -1.169522074633277953e-04
2.548000000000000000e+03 6.175864791870117188e+01 -9.590689659118652344e+00 -6.889314055442810059e-01 -1.949282586574554443e-01 -2.651578783988952637e-01 -3.222251236438751221e-01
2.549000000000000000e+03 3.471122741699218750e+01 2.068478775024414062e+01 -1.675594225525856018e-02 5.899748764932155609e-03 -3.256858093664050102e-03 7.619360927492380142e-03
2.550000000000000000e+03 7.247727203369140625e+01 -6.466130018234252930e-01 5.838829278945922852e-02 -2.332524508237838745e-01 -5.245924741029739380e-02 -3.830461800098419189e-01
2.551000000000000000e+03 6.797850799560546875e+01 7.559778690338134766e+00 2.553126215934753418e-01 4.869010150432586670e-01 2.226640880107879639e-01 -7.947912812232971191e-02
2.552000000000000000e+03 6.357430267333984375e+01 -9.688050746917724609e-01 3.606531918048858643e-01 3.548638820648193359e-01 2.146551162004470825e-01 2.678209915757179260e-03
2.553000000000000000e+03 6.106505584716796875e+01 -1.328342080116271973e+00 5.149508118629455566e-01 5.370341539382934570e-01 3.155954778194427490e-01 2.952619493007659912e-01
2.554000000000000000e+03 9.046288490295410156e+00 2.172307968139648438e+01 -1.438029343262314796e-03 -2.410597808193415403e-04 -5.037267110310494900e-04 6.645829998888075352e-04
2.555000000000000000e+03 4.208004379272460938e+01 2.242913436889648438e+01 4.898498882539570332e-04 1.431821845471858978e-02 4.442420322448015213e-03 -1.987183000892400742e-03
2.556000000000000000e+03 4.058104705810546875e+01 2.133667945861816406e+01 -8.393277414143085480e-03 1.393853593617677689e-02 1.663577626459300518e-03 1.992729026824235916e-03
2.557000000000000000e+03 7.263539123535156250e+01 -3.697153806686401367e+00 -2.031758055090904236e-02 -1.963812410831451416e-01 -6.500964611768722534e-02 -4.103767871856689453e-01
2.558000000000000000e+03 7.180947113037109375e+01 -1.556762814521789551e+00 4.795495420694351196e-02 -1.883141845464706421e-01 -4.210776835680007935e-02 -4.016722440719604492e-01
2.559000000000000000e+03 3.336433792114257812e+01 2.020330810546875000e+01 -2.031860128045082092e-02 2.008600626140832901e-03 -5.493000149726867676e-03 8.811047300696372986e-03
2.560000000000000000e+03 7.226338958740234375e+01 -8.658855438232421875e+00 -2.235306203365325928e-01 -3.714708983898162842e-02 -7.820331305265426636e-02 -3.129566311836242676e-01
2.561000000000000000e+03 9.905449867248535156e+00 -1.076648521423339844e+01 2.729344964027404785e-01 2.493425160646438599e-01 1.566831022500991821e-01 -3.930292725563049316e-01
2.562000000000000000e+03 1.078789329528808594e+01 -1.084741592407226562e+01 3.179063796997070312e-01 3.992727994918823242e-01 2.151537537574768066e-01 -3.254139125347137451e-01
2.563000000000000000e+03 2.797900390625000000e+01 2.761816215515136719e+01 -1.932956278324127197e-03 -6.179144140332937241e-03 -2.433630172163248062e-03 6.201383657753467560e-03
2.564000000000000000e+03 1.105593776702880859e+01 -2.730285072326660156e+01 -2.120978198945522308e-02 4.872381389141082764e-01 1.398085057735443115e-01 1.538930088281631470e-01
2.565000000000000000e+03 6.025127410888671875e+01 -5.720103263854980469e+00 2.697963118553161621e-01 6.372938305139541626e-02 1.000577062368392944e-01 -2.822420746088027954e-02
2.566000000000000000e+03 6.320193099975585938e+01 -7.285503864288330078e+00 -1.495479494333267212e-01 -1.630532443523406982e-01 -9.378036111593246460e-02 -3.144215047359466553e-01
2.567000000000000000e+03 7.127321624755859375e+01 1.023393630981445312e+01 1.661835163831710815e-01 -2.324900031089782715e-02 4.288035258650779724e-02 -1.019200086593627930e-01
2.568000000000000000e+03 6.820510101318359375e+01 1.083182239532470703e+01 2.418148815631866455e-01 5.504462122917175293e-01 2.376783341169357300e-01 -3.693620488047599792e-02
2.569000000000000000e+03 6.886218070983886719e+00 -1.059802246093750000e+01 1.451929956674575806e-01 -1.343215107917785645e-01 3.261448582634329796e-03 -4.400613903999328613e-01
2.570000000000000000e+03 7.419599914550781250e+01 1.266565418243408203e+01 1.024598851799964905e-01 -5.488854050636291504e-01 -1.339276432991027832e-01 -2.516534738242626190e-02
2.571000000000000000e+03 1.166442203521728516e+01 -6.921445369720458984e+00 -1.154423356056213379e-01 2.367312312126159668e-01 3.638666868209838867e-02 -3.899162411689758301e-01
2.572000000000000000e+03 1.001759719848632812e+01 8.528127670288085938e+00 -6.586033123312518001e-05 -4.012406134279444814e-05 -3.179531995556317270e-05 1.990784221561625600e-05
2.573000000000000000e+03 9.098952293395996094e+00 6.015244007110595703e+00 -5.929134567850269377e-05 -2.347665758861694485e-05 -2.483040043443907052e-05 3.099095556535758078e-05
2.574000000000000000e+03 2.074111938476562500e+01 -4.067383766174316406e+00 -8.146221041679382324e-01 3.089404404163360596e-01 -1.517044901847839355e-01 2.063663154840469360e-01
2.575000000000000000e+03 7.130395507812500000e+01 -8.921666145324707031e+00 -2.925762236118316650e-01 1.596155110746622086e-03 -8.729402720928192139e-02 -3.533282876014709473e-01
2.576000000000000000e+03 7.204643726348876953e+00 1.294793510437011719e+01 -1.022407304844819009e-04 -1.415447331964969635e-04 -7.313563401112332940e-05 3.219678546884097159e-05
2.577000000000000000e+03 7.169996738433837891e+00 -8.171082496643066406e+00 1.505849650129675865e-03 -9.997683763504028320e-02 -2.954129688441753387e-02 -4.949426054954528809e-01
2.578000000000000000e+03 8.494210243225097656e+00 8.723043441772460938e+00 1.584153797011822462e-04 -7.673063373658806086e-05 2.450542342558037490e-05 -2.473087261023465544e-05
2.579000000000000000e+03 7.455944061279296875e+00 8.099699020385742188e+00 1.083651513908989727e-04 -1.846547274908516556e-05 2.696990486583672464e-05 -6.005389423080487177e-06
2.580000000000000000e+03 7.693007469177246094e+00 8.809112548828125000e+00 -5.699130633729510009e-05 -3.282884790678508580e-05 -2.694604700081981719e-05 -1.237670676346169785e-05
2.581000000000000000e+03 6.573093414306640625e+00 8.293880462646484375e+00 2.671640868356917053e-05 -8.907699520932510495e-05 -1.870817686722148210e-05 -7.379139788099564612e-06
2.582000000000000000e+03 6.583322143554687500e+01 6.098079085350036621e-01 2.886224389076232910e-01 3.392814099788665771e-01 1.883711516857147217e-01 -1.268152147531509399e-01
2.583000000000000000e+03 7.713514328002929688e+00 -9.078342437744140625e+00 7.416943460702896118e-02 -3.845297545194625854e-02 1.071493793278932571e-02 -4.829314947128295898e-01
2.584000000000000000e+03 9.585260391235351562e+00 -7.082863807678222656e+00 -7.836744189262390137e-02 1.000476032495498657e-01 6.504047662019729614e-03 -4.802542626857757568e-01
2.585000000000000000e+03 1.780001449584960938e+01 -5.267324924468994141e+00 -4.130150973796844482e-01 3.345966041088104248e-01 -2.352554537355899811e-02 7.352458685636520386e-02
2.586000000000000000e+03 8.237331390380859375e+00 7.351078987121582031e+00 1.005232043098658323e-04 1.298255210713250563e-05 3.405172901693731546e-05 -2.281000988091363979e-08
2.587000000000000000e+03 9.372035980224609375e+00 1.319608688354492188e+01 6.731251778546720743e-05 -8.613109821453690529e-05 -5.645573764923028648e-06 7.474703306797891855e-05
2.588000000000000000e+03 7.252494812011718750e+01 9.589729309082031250e+00 1.390660107135772705e-01 -2.459230422973632812e-01 -3.205710649490356445e-02 -1.216409355401992798e-01
2.589000000000000000e+03 6.559607982635498047e+00 1.883946037292480469e+01 -2.216419670730829239e-04 -3.418478008825331926e-04 -1.690469362074509263e-04 9.198093175655230880e-05
2.590000000000000000e+03 6.111505126953125000e+01 -8.693058967590332031e+00 -3.674494028091430664e-01 -9.192236512899398804e-02 -1.378115266561508179e-01 -2.380154132843017578e-01
2.591000000000000000e+03 8.815372467041015625e+00 -7.693199634552001953e+00 -1.860142685472965240e-02 5.820997431874275208e-02 1.188256405293941498e-02 -4.924233853816986084e-01
2.592000000000000000e+03 6.981781005859375000e+01 -3.115628623962402344e+01 4.502785304794088006e-05 -9.938266157405450940e-05 -1.630644328542985022e-05 -6.288093572948127985e-06
2.593000000000000000e+03 7.298955535888671875e+01 -3.248516845703125000e+01 -2.921419763879384845e-06 -9.053703251993283629e-05 -2.803753523039631546e-05 -8.114019874483346939e-05
2.594000000000000000e+03 6.492908954620361328e+00 1.577997303009033203e+01 5.036019865656271577e-05 -1.160153769887983799e-04 -1.969655204447917640e-05 -1.715844700811430812e-04
2.595000000000000000e+03 9.811575889587402344e+00 1.073464298248291016e+01 -6.019823194947093725e-05 -1.041471041389741004e-04 -4.930359864374622703e-05 5.570915163843892515e-05
2.596000000000000000e+03 8.975519180297851562e+00 1.229496765136718750e+01 6.710761954309418797e-05 -1.929720165207982063e-04 -3.775932054850272834e-05 -7.372084837697912008e-06
2.597000000000000000e+03 1.010353755950927734e+01 7.569606304168701172e+00 1.346329227089881897e-04 -1.178423099190695211e-05 3.685460615088231862e-05 2.640544153109658509e-05
2.598000000000000000e+03 6.997617340087890625e+01 -6.419823646545410156e+00 -1.617442667484283447e-01 -6.381957232952117920e-02 -6.766915321350097656e-02 -4.519032239913940430e-01
2.599000000000000000e+03 8.926126480102539062e+00 -1.129184055328369141e+01 2.647755444049835205e-01 1.406890302896499634e-01 1.216393783688545227e-01 -3.905861675739288330e-01
2.600000000000000000e+03 7.750712394714355469e+00 -7.716158866882324219e+00 -2.963567711412906647e-02 -4.772266373038291931e-02 -2.320750243961811066e-02 -5.015281438827514648e-01
2.601000000000000000e+03 6.877954101562500000e+01 6.819178581237792969e+00 2.324817627668380737e-01 3.078788518905639648e-01 1.621081829071044922e-01 -1.309079229831695557e-01
2.602000000000000000e+03 6.878047943115234375e+01 8.391506195068359375e+00 2.346852570772171021e-01 3.659164309501647949e-01 1.801805049180984497e-01 -9.899780899286270142e-02
2.603000000000000000e+03 7.206508636474609375e+01 -5.233998775482177734e+00 -7.596434652805328369e-02 -1.405502259731292725e-01 -6.495437026023864746e-02 -4.203270375728607178e-01
2.604000000000000000e+03 1.057815647125244141e+01 -7.803807735443115234e+00 -2.905952744185924530e-03 2.106667608022689819e-01 6.232824549078941345e-02 -4.418586492538452148e-01
2.605000000000000000e+03 6.952797698974609375e+01 9.153608322143554688e+00 2.154955416917800903e-01 2.643330693244934082e-01 1.439485847949981689e-01 -9.905448555946350098e-02
2.606000000000000000e+03 8.173217773437500000e+00 1.276497077941894531e+01 1.605490251677110791e-04 -1.121179229812696576e-04 1.452932974643772468e-05 -3.747959272004663944e-05
2.607000000000000000e+03 1.587697219848632812e+01 -7.103690624237060547e+00 -3.254932537674903870e-02 4.578735232353210449e-01 1.275972574949264526e-01 -4.785355925559997559e-02
2.608000000000000000e+03 6.301705551147460938e+01 -5.215778827667236328e+00 1.616623550653457642e-01 -3.229894791729748249e-04 4.840181022882461548e-02 -2.080363631248474121e-01
2.609000000000000000e+03 7.239802551269531250e+01 1.335293006896972656e+01 1.611049622297286987e-01 -2.244221121072769165e-01 -1.899514347314834595e-02 -1.520101074129343033e-02
2.610000000000000000e+03 7.186269378662109375e+01 1.426130580902099609e+01 1.789914220571517944e-01 -1.302246451377868652e-01 1.463003549724817276e-02 1.851480803452432156e-03
2.611000000000000000e+03 1.073248577117919922e+01 -9.560190200805664062e+00 1.967704743146896362e-01 2.950767278671264648e-01 1.475541591644287109e-01 -3.964606523513793945e-01
2.612000000000000000e+03 6.559729003906250000e+01 -5.277339935302734375e+00 -1.990988617762923241e-03 -7.094740867614746094e-02 -2.188151888549327850e-02 -3.965173959732055664e-01
2.613000000000000000e+03 6.566391754150390625e+01 -7.146923542022705078e+00 -2.263382971286773682e-01 -1.342307329177856445e-01 -1.081707105040550232e-01 -4.545001387596130371e-01
2.614000000000000000e+03 6.991202354431152344e+00 -1.553064250946044922e+01 3.042868077754974365e-01 -9.592425823211669922e-02 6.250876933336257935e-02 -1.813220381736755371e-01
2.615000000000000000e+03 7.255667686462402344e+00 -1.903252410888671875e+01 2.759175002574920654e-01 -2.571769617497920990e-02 7.505994290113449097e-02 3.178615495562553406e-02
2.616000000000000000e+03 7.283785247802734375e+01 8.552980422973632812e+00 1.462180167436599731e-01 -2.796328365802764893e-01 -4.002444446086883545e-02 -1.426972150802612305e-01
2.617000000000000000e+03 7.336474609375000000e+01 1.024012947082519531e+01 1.242567524313926697e-01 -3.977853655815124512e-01 -8.205858618021011353e-02 -9.642370045185089111e-02
2.618000000000000000e+03 6.951132965087890625e+01 1.334336566925048828e+01 2.484701871871948242e-01 3.211209774017333984e-01 1.708773523569107056e-01 -1.755005493760108948e-02
2.619000000000000000e+03 6.922038269042968750e+01 1.524504756927490234e+01 2.600560784339904785e-01 3.305310904979705811e-01 1.771761476993560791e-01 2.246539294719696045e-02
2.620000000000000000e+03 6.606359863281250000e+01 1.818134188652038574e+00 2.908969223499298096e-01 4.069828093051910400e-01 2.093639224767684937e-01 -1.096973195672035217e-01
2.621000000000000000e+03 7.392128753662109375e+01 -3.085084533691406250e+01 1.074593637895304710e-05 -4.276446270523592830e-05 -9.605558261682745069e-06 -9.629342821426689625e-05
2.622000000000000000e+03 7.233190155029296875e+01 -2.556925535202026367e+00 1.299367845058441162e-02 -2.030220478773117065e-01 -5.700851231813430786e-02 -4.063911736011505127e-01
2.623000000000000000e+03 7.840354442596435547e+00 -1.320294189453125000e+01 2.975791990756988525e-01 1.054435409605503082e-02 9.243706613779067993e-02 -3.134896159172058105e-01
2.624000000000000000e+03 7.097683715820312500e+01 -8.151905059814453125e+00 -2.512705624103546143e-01 -3.173922002315521240e-02 -8.490292727947235107e-02 -3.722017407417297363e-01
2.625000000000000000e+03 6.114635086059570312e+01 -6.151805400848388672e+00 1.477983891963958740e-01 1.524014119058847427e-02 4.891155660152435303e-02 -1.266543269157409668e-01
2.626000000000000000e+03 6.952973937988281250e+01 1.627417755126953125e+01 2.393275797367095947e-01 2.717266976833343506e-01 1.533162891864776611e-01 4.114093258976936340e-02
2.627000000000000000e+03 7.158102416992187500e+01 1.531014347076416016e+01 1.883747726678848267e-01 -8.122288435697555542e-02 3.214556351304054260e-02 4.648837447166442871e-02
2.628000000000000000e+03 7.073281860351562500e+01 1.390673828125000000e+01 2.088022381067276001e-01 8.686780929565429688e-02 8.870101720094680786e-02 8.810629369691014290e-04
2.629000000000000000e+03 1.020738792419433594e+01 2.418171691894531250e+01 -2.466151723638176918e-03 -1.158642699010670185e-04 -7.746047922410070896e-04 1.577618415467441082e-03
2.630000000000000000e+03 1.309556961059570312e+01 2.719875717163085938e+01 -3.528808709233999252e-03 -1.027134945616126060e-03 -1.366783049888908863e-03 4.643130116164684296e-03
2.631000000000000000e+03 3.629119491577148438e+01 2.290938377380371094e+01 -9.318718686699867249e-03 1.205183006823062897e-02 8.199334261007606983e-04 2.801693044602870941e-03
2.632000000000000000e+03 6.942791748046875000e+01 2.180333518981933594e+01 1.353360563516616821e-01 2.179173678159713745e-01 1.059760302305221558e-01 2.244974076747894287e-01
2.633000000000000000e+03 7.186724090576171875e+01 1.970630836486816406e+01 1.269477009773254395e-01 -1.534519940614700317e-01 -7.951287552714347839e-03 1.829787939786911011e-01
2.634000000000000000e+03 1.028274440765380859e+01 2.593331146240234375e+01 -2.269372111186385155e-03 -5.511135095730423927e-04 -8.461456745862960815e-04 2.574065001681447029e-03
2.635000000000000000e+03 9.235996246337890625e+00 2.343133735656738281e+01 -2.107227919623255730e-03 -1.683911686995998025e-04 -6.826856988482177258e-04 1.352026360109448433e-03
2.636000000000000000e+03 3.936262512207031250e+01 2.154018974304199219e+01 -8.864056318998336792e-03 1.453815121203660965e-02 1.702228328213095665e-03 3.023426048457622528e-03
2.637000000000000000e+03 3.515995407104492188e+01 2.516117477416992188e+01 -4.414262715727090836e-03 1.099996175616979599e-02 1.975709805265069008e-03 6.070650997571647167e-04
2.638000000000000000e+03 6.964091491699218750e+01 -3.321696090698242188e+01 -1.161869804491288960e-04 -2.292802091687917709e-04 -1.036401590681634843e-04 -7.129632285796105862e-05
2.639000000000000000e+03 8.060191154479980469e+00 -2.776718711853027344e+01 -2.801714465022087097e-02 1.066439896821975708e-01 2.358805388212203979e-02 2.384876459836959839e-01
2.640000000000000000e+03 9.870162010192871094e+00 -2.863883209228515625e+01 -5.948597192764282227e-02 3.031724989414215088e-01 7.310596108436584473e-02 1.923998892307281494e-01
2.641000000000000000e+03 5.509407997131347656e+00 -2.259331321716308594e+01 1.204413101077079773e-01 -3.472932875156402588e-01 -6.805559247732162476e-02 1.813115924596786499e-01
2.642000000000000000e+03 7.237605285644531250e+01 2.777787923812866211e+00 1.238216608762741089e-01 -2.369968146085739136e-01 -3.395254537463188171e-02 -3.021087050437927246e-01
2.643000000000000000e+03 7.196415710449218750e+01 3.757224559783935547e+00 1.365686655044555664e-01 -2.000943422317504883e-01 -1.905770227313041687e-02 -2.794700562953948975e-01
2.644000000000000000e+03 1.528735351562500000e+01 2.705584716796875000e+01 -4.562224261462688446e-03 -1.343953888863325119e-03 -1.771853538230061531e-03 5.811196751892566681e-03
2.645000000000000000e+03 1.636273956298828125e+01 2.803756141662597656e+01 -3.628690494224429131e-03 -2.058662008494138718e-03 -1.706205774098634720e-03 6.717853713780641556e-03
2.646000000000000000e+03 6.827575683593750000e+01 -6.168999195098876953e+00 -1.401955485343933105e-01 -6.012016162276268005e-02 -6.009471416473388672e-02 -4.717851281166076660e-01
2.647000000000000000e+03 7.046774291992187500e+01 1.502309322357177734e+01 2.388223558664321899e-01 1.325848996639251709e-01 1.114221736788749695e-01 2.202620171010494232e-02
2.648000000000000000e+03 7.115817260742187500e+01 -7.417160272598266602e-01 8.618824183940887451e-02 -1.393277198076248169e-01 -1.594184152781963348e-02 -3.868460357189178467e-01
2.649000000000000000e+03 8.472488403320312500e+00 -8.416899681091308594e+00 4.381857439875602722e-02 3.731436654925346375e-02 2.433988265693187714e-02 -4.910324513912200928e-01
2.650000000000000000e+03 7.707200527191162109e+00 9.485419273376464844e+00 1.431783020962029696e-04 -4.537073255050927401e-05 2.934227086370810866e-05 2.314474477316252887e-05
2.651000000000000000e+03 9.032540321350097656e+00 8.257079124450683594e+00 9.964913624571636319e-05 -5.209783466852968559e-06 2.833180587913375348e-05 4.303723471821285784e-05
2.652000000000000000e+03 9.584350585937500000e+00 -9.794936180114746094e+00 1.814718991518020630e-01 1.933287829160690308e-01 1.124402061104774475e-01 -4.322559833526611328e-01
2.653000000000000000e+03 9.498568534851074219e+00 -8.759708404541015625e+00 7.797247916460037231e-02 1.316778063774108887e-01 6.289508193731307983e-02 -4.665262103080749512e-01
2.654000000000000000e+03 1.036067199707031250e+01 -7.010445117950439453e+00 -8.756658434867858887e-02 1.603106558322906494e-01 2.182321995496749878e-02 -4.489670693874359131e-01
2.655000000000000000e+03 9.829143524169921875e+00 9.609785079956054688e+00 1.665940944803878665e-04 -4.647081368602812290e-05 3.603698496590368450e-05 3.326353180455043912e-05
2.656000000000000000e+03 7.084866333007812500e+01 -2.235442161560058594e+00 4.151969403028488159e-02 -1.213738396763801575e-01 -2.395624294877052307e-02 -4.167605340480804443e-01
2.657000000000000000e+03 7.231403350830078125e+01 1.055940818786621094e+01 1.448702812194824219e-01 -2.182589620351791382e-01 -2.201660536229610443e-02 -9.643399715423583984e-02
2.658000000000000000e+03 8.258629798889160156e+00 -1.020996379852294922e+01 1.641714870929718018e-01 2.367946319282054901e-02 5.635528638958930969e-02 -4.569573700428009033e-01
2.659000000000000000e+03 6.293524932861328125e+01 -3.139919757843017578e+00 3.325870931148529053e-01 1.739654392004013062e-01 1.519657522439956665e-01 -6.404972076416015625e-02
2.660000000000000000e+03 6.678641510009765625e+01 2.439096421003341675e-01 2.398707717657089233e-01 2.260773330926895142e-01 1.397844254970550537e-01 -2.230629473924636841e-01
2.661000000000000000e+03 6.940583038330078125e+01 -5.389976501464843750e+00 -1.062083989381790161e-01 -6.108839809894561768e-02 -5.018903687596321106e-02 -4.630469679832458496e-01
2.662000000000000000e+03 1.159451389312744141e+01 -7.752120971679687500e+00 3.678226610645651817e-03 2.950993478298187256e-01 8.963327854871749878e-02 -3.807010650634765625e-01
2.663000000000000000e+03 6.088071823120117188e+01 -7.464588165283203125e+00 -1.364268362522125244e-01 -4.523772746324539185e-02 -5.449936911463737488e-02 -1.879675388336181641e-01
2.664000000000000000e+03 6.108405303955078125e+01 -5.031170368194580078e+00 3.052308857440948486e-01 9.310510754585266113e-02 1.195007935166358948e-01 -5.555536597967147827e-02
2.665000000000000000e+03 6.784281158447265625e+01 5.881899356842041016e+00 2.566480338573455811e-01 4.319552481174468994e-01 2.065809816122055054e-01 -1.115965619683265686e-01
2.666000000000000000e+03 7.040863037109375000e+01 5.394309520721435547e+00 1.863285601139068604e-01 3.688431903719902039e-02 6.696386635303497314e-02 -2.098596543073654175e-01
2.667000000000000000e+03 6.984621429443359375e+01 -5.654426217079162598e-01 1.196150779724121094e-01 -4.412626102566719055e-02 2.264664508402347565e-02 -3.705555200576782227e-01
2.668000000000000000e+03 5.601922035217285156e+00 -1.445465183258056641e+01 2.113237529993057251e-01 -3.574765324592590332e-01 -4.384583607316017151e-02 -2.477848380804061890e-01
2.669000000000000000e+03 7.296125793457031250e+01 7.334385871887207031e+00 1.196601018309593201e-01 -3.219057321548461914e-01 -6.067368388175964355e-02 -1.833218634128570557e-01
2.670000000000000000e+03 8.028765678405761719e+00 -1.955436706542968750e+01 2.903863787651062012e-01 1.282005012035369873e-01 1.255760639905929565e-01 7.448434084653854370e-02
2.671000000000000000e+03 7.309453582763671875e+01 1.230601310729980469e+01 1.440434455871582031e-01 -3.325831294059753418e-01 -5.656190589070320129e-02 -4.412924125790596008e-02
2.672000000000000000e+03 6.804473114013671875e+01 -3.281834793090820312e+01 -9.486216185905504972e-06 -2.291497366968542337e-04 -7.159078813856467605e-05 9.823424625210464001e-05
2.673000000000000000e+03 7.341777801513671875e+00 1.027183532714843750e+01 -1.330481268269068096e-06 -8.715162402950227261e-05 -2.654463060025591403e-05 -1.169587631011381745e-05
2.674000000000000000e+03 3.850859451293945312e+01 2.393280220031738281e+01 -2.192535437643527985e-03 1.609084010124206543e-02 4.169491119682788849e-03 -4.581840767059475183e-04
2.675000000000000000e+03 6.921483612060546875e+01 1.808682060241699219e+01 2.510835826396942139e-01 2.804253399372100830e-01 1.594526767730712891e-01 9.988481551408767700e-02
2.676000000000000000e+03 7.007398986816406250e+01 2.473346138000488281e+01 2.394070150330662727e-03 7.061038166284561157e-02 2.190133556723594666e-02 2.498506605625152588e-01
2.677000000000000000e+03 3.193348693847656250e+01 1.966389465332031250e+01 -2.226647734642028809e-02 -7.181035354733467102e-03 -8.834253996610641479e-03 1.445463486015796661e-02
2.678000000000000000e+03 7.051586914062500000e+01 -7.334877490997314453e+00 -2.326851636171340942e-01 -3.600504249334335327e-02 -8.060705661773681641e-02 -4.348352253437042236e-01
2.679000000000000000e+03 6.484767913818359375e+01 -7.018154263496398926e-01 2.957150638103485107e-01 2.877960801124572754e-01 1.750533431768417358e-01 -1.065880134701728821e-01
2.680000000000000000e+03 6.885168075561523438e+00 -2.475195312500000000e+01 6.594146788120269775e-02 -9.560966491699218750e-02 -8.900458924472332001e-03 2.286245971918106079e-01
2.681000000000000000e+03 7.286971282958984375e+01 4.950648784637451172e+00 1.136491000652313232e-01 -3.069747984409332275e-01 -5.799771100282669067e-02 -2.483937293291091919e-01
2.682000000000000000e+03 7.082942199707031250e+01 1.121240615844726562e+01 2.033013403415679932e-01 5.235919356346130371e-02 7.669816166162490845e-02 -6.644480675458908081e-02
2.683000000000000000e+03 7.088604736328125000e+01 3.300134181976318359e+00 1.631651669740676880e-01 -7.033382356166839600e-02 2.784940227866172791e-02 -2.813091874122619629e-01
2.684000000000000000e+03 7.038383483886718750e+01 -1.363740444183349609e+00 8.333308249711990356e-02 -9.549800306558609009e-02 -3.649477614089846611e-03 -3.961426913738250732e-01
2.685000000000000000e+03 6.866232299804687500e+01 -2.175652265548706055e+00 1.062722653150558472e-01 1.199496327899396420e-03 3.224152699112892151e-02 -3.889765739440917969e-01
2.686000000000000000e+03 6.882489776611328125e+01 3.398617267608642578e+00 2.258024215698242188e-01 1.706886142492294312e-01 1.189473122358322144e-01 -2.225056886672973633e-01
2.687000000000000000e+03 9.193169593811035156e+00 2.818614959716796875e+01 -1.918293652124702930e-03 -1.182551146484911442e-03 -9.302534162998199463e-04 3.184876171872019768e-03
2.688000000000000000e+03 9.426630020141601562e+00 2.669297027587890625e+01 -2.364031737670302391e-03 -7.072493899613618851e-04 -9.213843732140958309e-04 2.852775389328598976e-03
2.689000000000000000e+03 1.063383007049560547e+01 -8.707511901855468750e+00 1.059483587741851807e-01 2.665861546993255615e-01 1.117603555321693420e-01 -4.193596243858337402e-01
2.690000000000000000e+03 6.650725555419921875e+01 -6.212197303771972656e+00 -1.233917847275733948e-01 -8.040189743041992188e-02 -6.113810464739799500e-02 -4.572801887989044189e-01
2.691000000000000000e+03 7.177259063720703125e+01 4.778279304504394531e+00 1.440419405698776245e-01 -1.600699126720428467e-01 -4.808392375707626343e-03 -2.495499551296234131e-01
2.692000000000000000e+03 1.172703361511230469e+01 -8.669660568237304688e+00 1.285870075225830078e-01 3.579905629158020020e-01 1.459732651710510254e-01 -3.565591573715209961e-01
2.693000000000000000e+03 7.057445526123046875e+01 -4.801329135894775391e+00 -5.658132582902908325e-02 -9.668941795825958252e-02 -4.598122462630271912e-02 -4.511539638042449951e-01
2.694000000000000000e+03 6.407331848144531250e+01 -5.720880508422851562e+00 1.232391782104969025e-02 -1.064949110150337219e-01 -2.825129777193069458e-02 -3.323930799961090088e-01
2.695000000000000000e+03 6.827460479736328125e+01 7.246586084365844727e-01 2.002405822277069092e-01 1.280314177274703979e-01 9.848160296678543091e-02 -2.811858952045440674e-01
2.696000000000000000e+03 6.981465148925781250e+01 2.572002887725830078e+00 1.803724020719528198e-01 3.751397505402565002e-02 6.536591053009033203e-02 -2.791199386119842529e-01
2.697000000000000000e+03 7.271172332763671875e+01 1.679597854614257812e+01 1.508113443851470947e-01 -2.859653830528259277e-01 -4.054621234536170959e-02 8.992801606655120850e-02
2.698000000000000000e+03 6.462007904052734375e+01 -3.583730220794677734e+00 2.042082548141479492e-01 5.529481172561645508e-02 7.785092294216156006e-02 -2.441693842411041260e-01
2.699000000000000000e+03 6.987924957275390625e+01 -2.769762754440307617e+00 5.240176618099212646e-02 -7.697393745183944702e-02 -7.371651008725166321e-03 -4.272880852222442627e-01
2.700000000000000000e+03 7.163634490966796875e+01 5.887321949005126953e+00 1.643685698509216309e-01 -1.189062073826789856e-01 1.363870594650506973e-02 -2.132649272680282593e-01
2.701000000000000000e+03 7.147848510742187500e+01 2.270622491836547852e+00 1.309001743793487549e-01 -1.500249058008193970e-01 -5.737419705837965012e-03 -3.125580847263336182e-01
2.702000000000000000e+03 6.981230926513671875e+01 8.833813071250915527e-01 1.563981175422668457e-01 -7.187710143625736237e-03 4.476312547922134399e-02 -3.298114538192749023e-01
2.703000000000000000e+03 1.412651634216308594e+01 2.848639869689941406e+01 -2.317069331184029579e-03 -1.666811760514974594e-03 -1.195164280943572521e-03 5.296838469803333282e-03
2.704000000000000000e+03 7.059342956542968750e+01 1.631064653396606445e+00 1.440102458000183105e-01 -7.346738129854202271e-02 2.116286009550094604e-02 -3.249372541904449463e-01
2.705000000000000000e+03 7.230791473388671875e+01 2.320859718322753906e+01 4.419534653425216675e-02 -2.035184204578399658e-01 -4.779692366719245911e-02 2.411306649446487427e-01
2.706000000000000000e+03 6.968112945556640625e+01 6.154092311859130859e+00 2.161722183227539062e-01 1.489316821098327637e-01 1.095311641693115234e-01 -1.766685396432876587e-01
2.707000000000000000e+03 7.172644042968750000e+01 8.258279800415039062e+00 1.640331298112869263e-01 -1.240527331829071045e-01 1.199411880224943161e-02 -1.522632241249084473e-01
2.708000000000000000e+03 7.021926116943359375e+01 1.224277019500732422e+01 2.046026587486267090e-01 1.684934198856353760e-01 1.119288206100463867e-01 -4.717143997550010681e-02
2.709000000000000000e+03 6.907075500488281250e+01 -4.243256568908691406e+00 -1.026562694460153580e-02 -5.811830237507820129e-02 -2.051517926156520844e-02 -4.549268186092376709e-01
2.710000000000000000e+03 6.672254180908203125e+01 -2.679529905319213867e+00 1.480474174022674561e-01 4.947055876255035400e-02 5.925539135932922363e-02 -3.318310379981994629e-01
2.711000000000000000e+03 6.568821716308593750e+01 -3.189226627349853516e+00 1.739837378263473511e-01 5.937917903065681458e-02 7.000887393951416016e-02 -2.887295484542846680e-01
2.712000000000000000e+03 6.521198272705078125e+01 -1.933178305625915527e+00 2.593733072280883789e-01 1.766083538532257080e-01 1.307944953441619873e-01 -1.873409599065780640e-01
2.713000000000000000e+03 7.163604736328125000e+01 7.099889755249023438e+00 1.653072386980056763e-01 -1.042768657207489014e-01 1.830911077558994293e-02 -1.792845427989959717e-01
2.714000000000000000e+03 6.958629608154296875e+01 4.483216285705566406e+00 2.093254774808883667e-01 1.344713717699050903e-01 1.031390577554702759e-01 -2.167543470859527588e-01
2.715000000000000000e+03 6.798524475097656250e+01 -3.313044786453247070e+00 7.265910506248474121e-02 -7.546050939708948135e-03 1.953391544520854950e-02 -4.035665094852447510e-01
2.716000000000000000e+03 6.720492553710937500e+01 -3.657327651977539062e+00 7.345288246870040894e-02 -3.278768621385097504e-03 2.105223387479782104e-02 -3.848583996295928955e-01
2.717000000000000000e+03 7.034087371826171875e+01 9.774857521057128906e+00 1.989866495132446289e-01 1.176640763878822327e-01 9.499522298574447632e-02 -9.637143462896347046e-02
2.718000000000000000e+03 7.073709869384765625e+01 8.995345115661621094e+00 1.805082708597183228e-01 4.681325331330299377e-02 6.819646060466766357e-02 -1.270850896835327148e-01
2.719000000000000000e+03 6.914276123046875000e+01 1.290961205959320068e-01 1.632362306118011475e-01 2.580495178699493408e-02 5.671235546469688416e-02 -3.343457579612731934e-01
2.720000000000000000e+03 6.890387725830078125e+01 -3.132471561431884766e+00 5.578485503792762756e-02 -3.267237171530723572e-02 6.933745928108692169e-03 -4.146565496921539307e-01
2.721000000000000000e+03 7.019992828369140625e+01 -3.773338556289672852e+00 -1.276445668190717697e-02 -9.164496511220932007e-02 -3.132282570004463196e-02 -4.434705376625061035e-01
2.722000000000000000e+03 6.955175018310546875e+01 -1.863178133964538574e+00 8.644079416990280151e-02 -4.408892989158630371e-02 1.270555797964334488e-02 -3.960461914539337158e-01
2.723000000000000000e+03 1.380099201202392578e+01 3.151850318908691406e+01 6.364334258250892162e-04 -3.290702821686863899e-03 -7.962808012962341309e-04 5.590656306594610214e-03
2.724000000000000000e+03 6.761118412017822266e+00 2.906863975524902344e+01 -3.714490158017724752e-04 -1.948442310094833374e-03 -6.959674065001308918e-04 2.540784189477562904e-03
2.725000000000000000e+03 1.190516090393066406e+01 2.817883110046386719e+01 -1.844067825004458427e-03 -1.410208758898079395e-03 -9.762829868122935295e-04 4.152107983827590942e-03
2.726000000000000000e+03 6.895443725585937500e+01 1.643653273582458496e+00 1.941252946853637695e-01 9.575694799423217773e-02 8.696467429399490356e-02 -2.818773388862609863e-01
2.727000000000000000e+03 6.794007110595703125e+01 2.340654611587524414e+00 2.338155061006546021e-01 2.268789559602737427e-01 1.382083445787429810e-01 -2.187222689390182495e-01
2.728000000000000000e+03 6.770986175537109375e+01 -2.368784189224243164e+00 1.229312643408775330e-01 3.264155238866806030e-02 4.667184501886367798e-02 -3.584429025650024414e-01
2.729000000000000000e+03 6.638408660888671875e+01 -1.524197936058044434e+00 2.119094133377075195e-01 1.369302719831466675e-01 1.046519055962562561e-01 -2.546206116676330566e-01
2.730000000000000000e+03 6.772179412841796875e+01 -2.516182065010070801e-01 1.958510875701904297e-01 1.228619292378425598e-01 9.561390429735183716e-02 -2.875783741474151611e-01
2.731000000000000000e+03 6.752033233642578125e+01 -1.322473645210266113e+00 1.729724705219268799e-01 9.170274436473846436e-02 7.940256595611572266e-02 -3.171261548995971680e-01
2.732000000000000000e+03 1.067272186279296875e+01 2.884211730957031250e+01 -2.017348073422908783e-03 -1.511659938842058182e-03 -1.058702473528683186e-03 3.912433050572872162e-03
2.733000000000000000e+03 7.044921112060546875e+01 7.210619449615478516e+00 1.902097314596176147e-01 5.538789555430412292e-02 7.367929071187973022e-02 -1.683199703693389893e-01
2.734000000000000000e+03 8.702147483825683594e+00 2.590188217163085938e+01 -1.646422431804239750e-03 -7.382762269116938114e-04 -7.154095801524817944e-04 2.209353260695934296e-03
2.735000000000000000e+03 6.196826934814453125e+00 2.405551147460937500e+01 -7.018301985226571560e-04 -6.129480898380279541e-04 -3.944334748666733503e-04 1.074088155291974545e-03
2.736000000000000000e+03 1.146570682525634766e+01 3.238386154174804688e+01 4.660306440200656652e-04 -3.317944006994366646e-03 -8.555740350857377052e-04 4.342377185821533203e-03
2.737000000000000000e+03 6.862303161621093750e+01 -5.856540203094482422e-01 1.554023772478103638e-01 4.177291318774223328e-02 5.915258452296257019e-02 -3.385570347309112549e-01
2.738000000000000000e+03 7.665073871612548828e+00 2.808291053771972656e+01 -1.310319523327052593e-03 -1.358242239803075790e-03 -8.005684940144419670e-04 2.707880921661853790e-03
2.739000000000000000e+03 7.209211730957031250e+01 2.539494895935058594e+01 -3.476237878203392029e-03 -1.532253772020339966e-01 -4.701048135757446289e-02 2.559439241886138916e-01
2.740000000000000000e+03 7.434841918945312500e+01 2.485206794738769531e+01 1.653735060244798660e-03 -4.528900682926177979e-01 -1.353708952665328979e-01 2.290716767311096191e-01
2.741000000000000000e+03 3.728113555908203125e+01 1.809022331237792969e+01 -1.677460037171840668e-02 9.631817229092121124e-03 -2.142834709957242012e-03 6.329868920147418976e-03
2.742000000000000000e+03 6.222607612609863281e+00 -2.748248481750488281e+01 -1.034765411168336868e-02 -1.798337548971176147e-01 -5.705442279577255249e-02 2.554658353328704834e-01
2.743000000000000000e+03 3.792701721191406250e+01 2.217272567749023438e+01 -8.218927308917045593e-03 1.357316412031650543e-02 1.606271020136773586e-03 2.249327488243579865e-03
2.744000000000000000e+03 2.651143455505371094e+01 -3.407561874389648438e+01 1.577421091496944427e-02 1.166467368602752686e-01 3.972628340125083923e-02 -1.033352985978126526e-01
2.745000000000000000e+03 7.038803863525390625e+01 2.013132095336914062e+01 1.554150879383087158e-01 7.631105184555053711e-02 6.951784342527389526e-02 1.845567673444747925e-01
2.746000000000000000e+03 3.397500753402709961e+00 -3.700416564941406250e+01 -1.815884932875633240e-02 -3.997482657432556152e-01 -1.253721266984939575e-01 9.450703859329223633e-02
2.747000000000000000e+03 4.446530914306640625e+01 2.522965049743652344e+01 2.305268682539463043e-02 2.244880422949790955e-02 1.365044806152582169e-02 -1.907364837825298309e-02
2.748000000000000000e+03 3.251864624023437500e+01 -3.263457107543945312e+01 8.294103667140007019e-03 1.240851264446973801e-02 6.210784893482923508e-03 -5.433508194983005524e-03
2.749000000000000000e+03 6.603849792480468750e+01 2.286768913269042969e+01 1.222631782293319702e-01 6.750500202178955078e-01 2.391939610242843628e-01 1.442297846078872681e-01
2.750000000000000000e+03 6.942227172851562500e+01 2.547065734863281250e+01 -7.898955605924129486e-03 1.799449324607849121e-01 5.161379277706146240e-02 2.555547356605529785e-01
2.751000000000000000e+03 4.414705276489257812e+01 2.345915222167968750e+01 1.390726678073406219e-02 1.434814278036355972e-02 8.476622402667999268e-03 -9.480672888457775116e-03
2.752000000000000000e+03 7.970887660980224609e+00 3.010371017456054688e+01 -5.780100473202764988e-04 -2.105691004544496536e-03 -8.051103213801980019e-04 3.242593724280595779e-03
2.753000000000000000e+03 1.165509223937988281e+01 -2.999387550354003906e+01 -1.079464703798294067e-01 4.380989968776702881e-01 9.904575347900390625e-02 1.076347604393959045e-01
2.754000000000000000e+03 3.662876510620117188e+01 -3.006922340393066406e+01 -1.030891016125679016e-02 9.675182402133941650e-03 -1.901181676657870412e-04 3.980513196438550949e-03
2.755000000000000000e+03 3.773189926147460938e+01 -2.889618682861328125e+01 -1.374704856425523758e-02 8.970083668828010559e-03 -1.433089491911232471e-03 3.083940129727125168e-03
2.756000000000000000e+03 7.394280433654785156e+00 -2.905359649658203125e+01 -5.328151211142539978e-02 8.939513005316257477e-03 -1.330259907990694046e-02 2.428122609853744507e-01
2.757000000000000000e+03 7.561302185058593750e+01 3.699211120605468750e+01 -3.049046732485294342e-02 -3.737920224666595459e-01 -1.212847456336021423e-01 7.224952429533004761e-02
2.758000000000000000e+03 6.372810745239257812e+01 2.877152824401855469e+01 -1.451005786657333374e-01 5.254321098327636719e-01 1.140994653105735779e-01 1.215434726327657700e-02
2.759000000000000000e+03 3.737247848510742188e+01 2.723336219787597656e+01 6.939520593732595444e-03 1.735273376107215881e-02 7.287676446139812469e-03 -6.337496452033519745e-03
2.760000000000000000e+03 1.960936164855957031e+01 2.986500740051269531e+01 -1.342588366242125630e-04 -4.663439001888036728e-03 -1.439309446141123772e-03 8.128829300403594971e-03
2.761000000000000000e+03 1.016063594818115234e+01 -3.134571075439453125e+01 -1.180474013090133667e-01 2.534539699554443359e-01 4.062196984887123108e-02 1.542077064514160156e-01
2.762000000000000000e+03 3.530753707885742188e+01 -3.123794746398925781e+01 -7.331799250096082687e-03 9.902846999466419220e-03 7.713143713772296906e-04 4.222792107611894608e-03
2.763000000000000000e+03 4.044760894775390625e+01 -3.222616195678710938e+01 -1.927698729559779167e-03 7.422016467899084091e-03 1.648295205086469650e-03 5.493130534887313843e-03
2.764000000000000000e+03 7.065537261962890625e+01 3.067030906677246094e+01 -1.006176844239234924e-01 -2.047244086861610413e-02 -3.632703796029090881e-02 2.026921510696411133e-01
2.765000000000000000e+03 8.977709770202636719e+00 3.515186691284179688e+01 1.163237495347857475e-03 -3.907761070877313614e-03 -8.233570843003690243e-04 2.851043362170457840e-03
2.766000000000000000e+03 6.709839630126953125e+01 -3.615209197998046875e+01 -7.190571341197937727e-05 -5.282762576825916767e-04 -1.800545869627967477e-04 1.329810911556705832e-04
2.767000000000000000e+03 2.040267372131347656e+01 3.182202339172363281e+01 2.611385425552725792e-03 -5.169586744159460068e-03 -7.674603257328271866e-04 7.605758029967546463e-03
2.768000000000000000e+03 2.431030845642089844e+01 2.985258865356445312e+01 6.065773195587098598e-04 -5.773226730525493622e-03 -1.549994805827736855e-03 7.790955714881420135e-03
2.769000000000000000e+03 2.980638122558593750e+01 -3.526132583618164062e+01 1.858237199485301971e-02 5.652258545160293579e-02 2.253148704767227173e-02 -3.977983444929122925e-02
2.770000000000000000e+03 3.371882629394531250e+01 -3.185461616516113281e+01 1.410128606949001551e-04 9.323487058281898499e-03 2.839349908754229546e-03 6.852101651020348072e-04
2.771000000000000000e+03 4.721382617950439453e+00 -3.752045440673828125e+01 -4.188488423824310303e-02 -2.968818545341491699e-01 -1.016300246119499207e-01 7.456069439649581909e-02
2.772000000000000000e+03 6.264341354370117188e+01 3.130566978454589844e+01 -1.659644246101379395e-01 4.338279068470001221e-01 8.035904169082641602e-02 -3.023586235940456390e-02
2.773000000000000000e+03 3.443408584594726562e+01 2.190986633300781250e+01 -1.528427284210920334e-02 6.140287499874830246e-03 -2.743195509538054466e-03 5.356496665626764297e-03
2.774000000000000000e+03 7.115939331054687500e+01 2.408185577392578125e+01 3.765152394771575928e-02 -2.049490064382553101e-02 5.146986339241266251e-03 2.583590149879455566e-01
2.775000000000000000e+03 6.623513031005859375e+01 2.459333610534667969e+01 1.048857253044843674e-02 5.475277900695800781e-01 1.674049049615859985e-01 1.565999686717987061e-01
2.776000000000000000e+03 7.073037719726562500e+01 2.853664016723632812e+01 -7.093638181686401367e-02 -1.607882604002952576e-02 -2.610456198453903198e-02 2.366416007280349731e-01
2.777000000000000000e+03 6.862258148193359375e+01 2.874011611938476562e+01 -1.017317250370979309e-01 2.121543288230895996e-01 3.312677890062332153e-02 1.978557705879211426e-01
2.778000000000000000e+03 6.785995483398437500e+01 2.244140815734863281e+01 1.233239024877548218e-01 4.145428836345672607e-01 1.613600403070449829e-01 2.087989747524261475e-01
2.779000000000000000e+03 6.651634216308593750e+01 2.607650566101074219e+01 -3.760768845677375793e-02 4.758871793746948242e-01 1.314838528633117676e-01 1.621708124876022339e-01
2.780000000000000000e+03 4.217269134521484375e+01 2.580433273315429688e+01 1.592057012021541595e-02 2.162163890898227692e-02 1.126266270875930786e-02 -1.336573064327239990e-02
2.781000000000000000e+03 6.670854949951171875e+01 2.820730590820312500e+01 -1.228495389223098755e-01 3.608921170234680176e-01 7.141277194023132324e-02 1.459443718194961548e-01
2.782000000000000000e+03 6.741816711425781250e+01 2.699960327148437500e+01 -6.555878371000289917e-02 3.681761920452117920e-01 9.078522026538848877e-02 1.859142035245895386e-01
2.783000000000000000e+03 4.228134536743164062e+01 2.804634094238281250e+01 2.031246200203895569e-02 3.352142125368118286e-02 1.615016534924507141e-02 -2.345262281596660614e-02
2.784000000000000000e+03 3.873445129394531250e+01 2.551856040954589844e+01 3.456025617197155952e-03 1.607365906238555908e-02 5.858905147761106491e-03 -4.445472732186317444e-03
2.785000000000000000e+03 6.981321716308593750e+01 1.063549423217773438e+01 2.107387334108352661e-01 2.318219989538192749e-01 1.327682286500930786e-01 -7.446904480457305908e-02
2.786000000000000000e+03 6.916239166259765625e+01 1.157635593414306641e+01 2.334976196289062500e-01 3.751211464405059814e-01 1.825856268405914307e-01 -4.616836458444595337e-02
2.787000000000000000e+03 6.779142761230468750e+01 2.597947692871093750e+01 -2.998401410877704620e-02 3.559046983718872070e-01 9.777620434761047363e-02 2.023925185203552246e-01
2.788000000000000000e+03 4.003380203247070312e+01 -1.144676685333251953e+00 1.614445000886917114e-01 8.170154877007007599e-03 5.088439583778381348e-02 -8.378142863512039185e-02
2.789000000000000000e+03 3.867820358276367188e+01 4.340255260467529297e+00 -9.951274842023849487e-05 -1.680036984907928854e-05 -3.489393566269427538e-05 2.061471604974940419e-04
2.790000000000000000e+03 3.491775131225585938e+01 -1.279573059082031250e+01 5.380680522648617625e-05 1.393206912325695157e-04 5.793825039290823042e-05 1.121600416809087619e-05
2.791000000000000000e+03 2.408961868286132812e+01 -7.587902545928955078e-01 -1.552343517541885376e-01 -1.938737779855728149e-01 -1.047324389219284058e-01 1.457814574241638184e-01
2.792000000000000000e+03 2.438117027282714844e+01 -7.646208405494689941e-01 -9.042981266975402832e-02 -1.813776642084121704e-01 -8.154223859310150146e-02 8.423179388046264648e-02
2.793000000000000000e+03 2.726271820068359375e+01 -2.643517971038818359e+00 -8.522269725799560547e-01 4.148226603865623474e-02 -2.432234138250350952e-01 -3.967678248882293701e-01
2.794000000000000000e+03 2.746767044067382812e+01 -2.835515022277832031e+00 -9.757519960403442383e-01 1.462586224079132080e-01 -2.488480061292648315e-01 -3.349463045597076416e-01
2.795000000000000000e+03 2.747538757324218750e+01 -3.267423629760742188e+00 -1.191207408905029297e+00 2.666918933391571045e-01 -2.773546576499938965e-01 -1.896553635597229004e-01
2.796000000000000000e+03 6.874858093261718750e+01 -1.954876518249511719e+01 -3.856854164041578770e-06 -2.522054455766920000e-05 -8.723220162210054696e-06 -1.381372658215695992e-05
2.797000000000000000e+03 3.363256835937500000e+01 2.040839672088623047e+00 -8.276437438325956464e-05 -1.230755879078060389e-04 -6.175199087010696530e-05 -6.816376753704389557e-06
2.798000000000000000e+03 2.431704139709472656e+01 -1.120674610137939453e+00 -1.249090358614921570e-01 -2.625315487384796143e-01 -1.162321716547012329e-01 1.761435866355895996e-01
2.799000000000000000e+03 2.403004646301269531e+01 -1.101101398468017578e+00 -1.715349853038787842e-01 -2.672450244426727295e-01 -1.316339969635009766e-01 2.196383327245712280e-01
2.800000000000000000e+03 2.401854705810546875e+01 -1.682314634323120117e+00 -3.206130266189575195e-01 -3.598637580871582031e-01 -2.041430324316024780e-01 3.980823457241058350e-01
2.801000000000000000e+03 2.382873535156250000e+01 -2.312315464019775391e+00 -7.020295858383178711e-01 -3.655497431755065918e-01 -3.202738165855407715e-01 6.776557564735412598e-01
2.802000000000000000e+03 2.374517631530761719e+01 -2.761179208755493164e+00 -1.162867665290832520e+00 -2.521773278713226318e-01 -4.245134890079498291e-01 7.727431058883666992e-01
2.803000000000000000e+03 6.787754058837890625e+01 -1.487245559692382812e+01 -8.106882125139236450e-02 4.369435831904411316e-03 -2.300981618463993073e-02 5.087848380208015442e-02
2.804000000000000000e+03 6.910829925537109375e+01 -1.842575073242187500e+01 -3.705141580212512054e-06 -2.494083219062304124e-06 -1.859767394307709765e-06 -5.960529961157590151e-06
2.805000000000000000e+03 6.848122406005859375e+01 -1.897556304931640625e+01 4.200183411739999428e-06 3.318390781714697368e-06 2.255572326248511672e-06 1.418305055267410353e-05
2.806000000000000000e+03 6.860991668701171875e+01 -1.848999404907226562e+01 1.441916901967488229e-05 2.119182136084418744e-05 1.068329675035784021e-05 3.359557013027369976e-06
2.807000000000000000e+03 6.881971740722656250e+01 -1.900977134704589844e+01 -1.084989526134449989e-05 -1.506940520812349860e-06 -3.707050836965208873e-06 -2.707855628614197485e-06
2.808000000000000000e+03 4.049925231933593750e+01 -1.635425329208374023e+00 2.017947584390640259e-01 7.324429601430892944e-02 8.251171559095382690e-02 -1.168236359953880310e-01
2.809000000000000000e+03 2.964163589477539062e+01 -7.342225551605224609e+00 1.011872410774230957e+00 3.284212648868560791e-01 4.020881056785583496e-01 8.101847171783447266e-01
2.810000000000000000e+03 2.369797897338867188e+01 -1.948025703430175781e+00 -5.385701656341552734e-01 -3.110512793064117432e-01 -2.548864185810089111e-01 5.327223539352416992e-01
2.811000000000000000e+03 2.355357551574707031e+01 -1.654144406318664551e+00 -4.596599340438842773e-01 -2.596765756607055664e-01 -2.158009558916091919e-01 4.586547315120697021e-01
2.812000000000000000e+03 2.395942497253417969e+01 -2.101841211318969727e+00 -5.457594394683837891e-01 -3.919113576412200928e-01 -2.813012301921844482e-01 5.746497511863708496e-01
2.813000000000000000e+03 2.186637878417968750e+00 -3.699633026123046875e+01 -1.341977901756763458e-02 -4.522253274917602539e-01 -1.396935284137725830e-01 6.397335231304168701e-02
2.814000000000000000e+03 3.178745269775390625e+01 -3.306407690048217773e+00 -2.277432829141616821e-01 1.166415438055992126e-01 -3.333052247762680054e-02 3.159026503562927246e-01
2.815000000000000000e+03 3.041946792602539062e+01 -6.555325984954833984e+00 4.176903665065765381e-01 2.251258492469787598e-01 1.928448677062988281e-01 7.503325343132019043e-01
2.816000000000000000e+03 2.427475547790527344e+01 2.673919296264648438e+01 -8.415903896093368530e-03 -7.573680020868778229e-03 -4.796875175088644028e-03 9.806782938539981842e-03
2.817000000000000000e+03 3.582941818237304688e+01 5.440115451812744141e+00 -1.693406957201659679e-04 -2.986887702718377113e-04 -1.404088397976011038e-04 -9.801156920730136335e-06
2.818000000000000000e+03 4.303570556640625000e+01 3.292353057861328125e+01 1.169356051832437515e-02 6.574372202157974243e-02 2.323118411004543304e-02 -3.707213699817657471e-02
2.819000000000000000e+03 6.981253051757812500e+01 -1.913112449645996094e+01 -8.692270967003423721e-06 3.019725591002497822e-05 6.451495664805406705e-06 3.662141807581065223e-06
2.820000000000000000e+03 7.300080871582031250e+01 3.527653121948242188e+01 -8.252554386854171753e-02 -2.088526487350463867e-01 -8.741346001625061035e-02 1.250590533018112183e-01
2.821000000000000000e+03 1.356035041809082031e+01 -1.092448520660400391e+01 5.191377401351928711e-01 7.780444622039794922e-01 3.891546726226806641e-01 -2.966454811394214630e-02
2.822000000000000000e+03 7.729115295410156250e+01 -3.777657699584960938e+01 -2.438026785966940224e-05 1.963698596227914095e-04 5.159687498235143721e-05 -1.364598483633017167e-05
2.823000000000000000e+03 6.246565628051757812e+01 -3.401628494262695312e+01 -4.859340551774948835e-04 -4.194288630969822407e-04 -2.716088783927261829e-04 7.773471879772841930e-04
2.824000000000000000e+03 5.419265747070312500e+00 -3.454778289794921875e+01 -6.261340528726577759e-02 -2.654691934585571289e-01 -9.842478483915328979e-02 1.404254287481307983e-01
2.825000000000000000e+03 5.282908916473388672e+00 -3.094580078125000000e+01 -5.006279423832893372e-02 -2.906455099582672119e-01 -1.022124886512756348e-01 2.041611224412918091e-01
2.826000000000000000e+03 2.770161437988281250e+01 -2.719817638397216797e+00 -8.804472684860229492e-01 1.590341478586196899e-01 -2.164239436388015747e-01 -2.862733006477355957e-01
2.827000000000000000e+03 2.352636814117431641e+00 3.661419296264648438e+01 2.500042028259485960e-04 -4.755299538373947144e-03 -1.351588522084057331e-03 7.516766781918704510e-04
2.828000000000000000e+03 6.931925201416015625e+01 -1.267268371582031250e+01 -3.567721843719482422e-01 7.181967049837112427e-02 -8.548574894666671753e-02 -3.813077136874198914e-02
2.829000000000000000e+03 2.747726631164550781e+01 -3.784900903701782227e+00 -1.355175018310546875e+00 3.608389198780059814e-01 -2.983008325099945068e-01 5.236107110977172852e-02
2.830000000000000000e+03 2.738605499267578125e+01 -4.107380390167236328e+00 -1.386833906173706055e+00 3.414994776248931885e-01 -3.136003315448760986e-01 2.568703591823577881e-01
2.831000000000000000e+03 3.159854888916015625e+01 -4.423360824584960938e+00 -1.360976248979568481e-01 1.473790556192398071e-01 3.384429495781660080e-03 4.591415822505950928e-01
2.832000000000000000e+03 3.201266860961914062e+01 -3.781651973724365234e+00 -1.380376219749450684e-01 7.950124144554138184e-02 -1.756091229617595673e-02 3.782082498073577881e-01
2.833000000000000000e+03 6.012269973754882812e+01 -2.620342671871185303e-01 5.896620750427246094e-01 6.998466253280639648e-01 3.868525922298431396e-01 4.805649518966674805e-01
2.834000000000000000e+03 4.095312118530273438e+01 -3.162503957748413086e+00 5.386535525321960449e-01 -1.808718405663967133e-02 1.561699211597442627e-01 -9.747834503650665283e-02
2.835000000000000000e+03 3.981688690185546875e+01 -3.411230564117431641e+00 4.461583793163299561e-01 -1.321718692779541016e-01 9.419594705104827881e-02 1.390585862100124359e-02
2.836000000000000000e+03 4.126137161254882812e+01 -4.722214221954345703e+00 5.697340369224548340e-01 -1.034597605466842651e-01 1.398822814226150513e-01 5.055209621787071228e-02
2.837000000000000000e+03 6.973305702209472656e+00 -3.444218063354492188e+01 -9.499140828847885132e-02 -9.398689866065979004e-02 -5.669349059462547302e-02 1.677469313144683838e-01
2.838000000000000000e+03 5.691360950469970703e+00 -4.143783569335937500e+00 -2.120686024427413940e-01 -9.007620066404342651e-02 -9.064344316720962524e-02 -3.725333213806152344e-01
2.839000000000000000e+03 2.095042991638183594e+01 -2.857019424438476562e+00 -9.538607001304626465e-01 2.627595365047454834e-01 -2.073303461074829102e-01 3.506051301956176758e-01
2.840000000000000000e+03 2.327426338195800781e+01 -3.522237014770507812e+01 -4.227139055728912354e-02 2.453350871801376343e-01 6.091910973191261292e-02 -1.278458088636398315e-01
2.841000000000000000e+03 1.533896446228027344e+01 -9.585889816284179688e+00 4.569140970706939697e-01 6.651704907417297363e-01 3.366253674030303955e-01 3.805652260780334473e-02
2.842000000000000000e+03 2.290660476684570312e+01 -3.350663375854492188e+01 -2.053240081295371056e-03 2.598555982112884521e-01 7.734070718288421631e-02 -1.706936508417129517e-01
2.843000000000000000e+03 5.601876449584960938e+01 3.101490402221679688e+01 -6.000194698572158813e-02 3.278285861015319824e-01 8.034799247980117798e-02 -1.800445169210433960e-01
2.844000000000000000e+03 5.438878250122070312e+01 2.894608879089355469e+01 5.617563053965568542e-02 2.028876692056655884e-01 7.771898806095123291e-02 -1.934760808944702148e-01
2.845000000000000000e+03 4.897823715209960938e+01 -7.199479579925537109e+00 1.238646626472473145e+00 2.819699048995971680e-01 4.561849832534790039e-01 4.384975135326385498e-01
2.846000000000000000e+03 5.505234527587890625e+01 3.292182159423828125e+01 -6.890158355236053467e-02 2.720073163509368896e-01 6.093172356486320496e-02 -1.357440352439880371e-01
2.847000000000000000e+03 4.753969573974609375e+01 -8.626585006713867188e+00 3.735990524291992188e-01 2.567985355854034424e-01 1.891192793846130371e-01 4.318454861640930176e-01
2.848000000000000000e+03 1.252568817138671875e+01 -1.134394836425781250e+01 4.729039072990417480e-01 7.359036803245544434e-01 3.626422584056854248e-01 -1.601759791374206543e-01
2.849000000000000000e+03 3.016567230224609375e+01 -3.245244598388671875e+01 1.984769850969314575e-02 1.453765481710433960e-02 1.031560637056827545e-02 -2.247549593448638916e-02
2.850000000000000000e+03 6.395376968383789062e+01 -9.586902618408203125e+00 -7.288578748703002930e-01 -4.013175368309020996e-01 -3.390526175498962402e-01 -4.245894253253936768e-01
2.851000000000000000e+03 2.782025718688964844e+01 -4.250630855560302734e+00 -1.131713032722473145e+00 4.295373558998107910e-01 -2.106527090072631836e-01 3.277699351310729980e-01
2.852000000000000000e+03 3.157092666625976562e+01 -3.147224426269531250e+01 2.444552490487694740e-03 5.547916982322931290e-03 2.397740958258509636e-03 -6.813971791416406631e-03
2.853000000000000000e+03 4.229375457763671875e+01 -2.012745857238769531e+01 -1.081482623703777790e-03 -2.330157149117439985e-04 -3.943494812119752169e-04 2.233090344816446304e-04
2.854000000000000000e+03 1.737610244750976562e+01 -9.156968116760253906e+00 5.653899908065795898e-01 6.455764770507812500e-01 3.632899522781372070e-01 2.162503004074096680e-01
2.855000000000000000e+03 7.129924011230468750e+01 -1.237271499633789062e+01 -2.748615741729736328e-01 3.640643134713172913e-02 -7.153654098510742188e-02 -1.032699421048164368e-01
2.856000000000000000e+03 5.218209075927734375e+01 2.383915328979492188e+01 1.160705983638763428e-01 1.620556414127349854e-02 3.968285024166107178e-02 -8.109100908041000366e-02
2.857000000000000000e+03 4.845878219604492188e+01 -8.960487365722656250e+00 3.073249757289886475e-01 3.919168412685394287e-01 2.097725421190261841e-01 4.654624164104461670e-01
2.858000000000000000e+03 6.215586471557617188e+01 -8.644849777221679688e+00 -4.082728326320648193e-01 -2.029262185096740723e-01 -1.833597123622894287e-01 -2.705220878124237061e-01
2.859000000000000000e+03 2.957271575927734375e+01 -4.242633819580078125e+00 -5.210713148117065430e-01 4.058547317981719971e-01 -3.456497937440872192e-02 4.087978005409240723e-01
2.860000000000000000e+03 2.850175666809082031e+01 -4.564146518707275391e+00 -6.981811523437500000e-01 4.845385253429412842e-01 -6.409278512001037598e-02 4.814463555812835693e-01
2.861000000000000000e+03 2.873852157592773438e+01 -4.921305179595947266e+00 -5.279376506805419922e-01 4.789308607578277588e-01 -1.470204722136259079e-02 5.501129627227783203e-01
2.862000000000000000e+03 4.332868099212646484e+00 3.433906555175781250e+01 5.810902221128344536e-04 -3.790121758356690407e-03 -9.627094841562211514e-04 1.764257671311497688e-03
2.863000000000000000e+03 7.348800659179687500e+01 -1.975630760192871094e+01 -7.959111826494336128e-06 -5.012660494685405865e-06 -3.891531832778127864e-06 4.697809345088899136e-06
2.864000000000000000e+03 1.637952232360839844e+01 -9.233663558959960938e+00 5.129382014274597168e-01 6.617123484611511230e-01 3.523951768875122070e-01 1.424425840377807617e-01
2.865000000000000000e+03 2.103920173645019531e+01 -5.353568077087402344e+00 -5.042848587036132812e-01 2.590835988521575928e-01 -7.356037944555282593e-02 6.927763670682907104e-02
2.866000000000000000e+03 1.810332107543945312e+01 -3.419490432739257812e+01 -1.108973771333694458e-01 4.167856872081756592e-01 9.176649153232574463e-02 -1.079462543129920959e-01
2.867000000000000000e+03 2.992267370223999023e+00 -2.274395370483398438e+01 2.994444780051708221e-02 -8.883752822875976562e-01 -2.575292587280273438e-01 1.314132660627365112e-01
2.868000000000000000e+03 6.521147918701171875e+01 -3.145344924926757812e+01 -3.286050632596015930e-04 -6.676129123661667109e-05 -1.186099107144400477e-04 1.214559306390583515e-04
2.869000000000000000e+03 2.237440109252929688e+01 3.266030883789062500e+01 5.007223691791296005e-03 -5.041752941906452179e-03 -1.035878722177585587e-05 6.406436208635568619e-03
2.870000000000000000e+03 4.174552917480468750e+01 -5.675924301147460938e+00 5.123155117034912109e-01 -1.137703359127044678e-01 1.195635572075843811e-01 1.157674118876457214e-01
2.871000000000000000e+03 1.125352859497070312e+01 -1.197560691833496094e+01 4.603884518146514893e-01 5.358830690383911133e-01 2.988814711570739746e-01 -2.203771471977233887e-01
2.872000000000000000e+03 8.021192550659179688e+00 2.115064811706542969e+01 -1.121253590099513531e-03 -1.933861785801127553e-04 -3.943919145967811346e-04 3.252841415815055370e-04
2.873000000000000000e+03 3.387858963012695312e+01 -3.327419281005859375e+01 8.454667404294013977e-03 1.363720931112766266e-02 6.627562921494245529e-03 -2.331614494323730469e-03
2.874000000000000000e+03 5.227921676635742188e+01 -1.012524890899658203e+01 -2.722238600254058838e-01 4.380019605159759521e-01 4.973342642188072205e-02 1.299919039011001587e-01
2.875000000000000000e+03 8.786178588867187500e+00 -2.996293640136718750e+01 -8.314594626426696777e-02 1.324574500322341919e-01 1.479345187544822693e-02 2.082911133766174316e-01
2.876000000000000000e+03 1.042267227172851562e+01 -1.147966575622558594e+01 3.503800332546234131e-01 3.827459216117858887e-01 2.199377864599227905e-01 -3.193791210651397705e-01
2.877000000000000000e+03 5.868663787841796875e+00 -5.266695022583007812e+00 -1.508437842130661011e-01 -1.273974627256393433e-01 -8.347237855195999146e-02 -4.278124868869781494e-01
2.878000000000000000e+03 2.801371574401855469e+01 -3.027949571609497070e+00 -9.460732340812683105e-01 2.642172276973724365e-01 -2.045567929744720459e-01 -1.730154752731323242e-01
2.879000000000000000e+03 2.793848037719726562e+01 -3.519436597824096680e+00 -1.076630830764770508e+00 3.721188604831695557e-01 -2.113536000251770020e-01 1.275607664138078690e-02
2.880000000000000000e+03 3.732860946655273438e+01 -7.466516494750976562e+00 7.877997308969497681e-02 -3.088706433773040771e-01 -6.902720034122467041e-02 3.462814390659332275e-01
2.881000000000000000e+03 1.197449588775634766e+01 -1.080041599273681641e+01 3.900463581085205078e-01 5.224087238311767578e-01 2.737365365028381348e-01 -2.558641433715820312e-01
2.882000000000000000e+03 1.150471115112304688e+01 -1.132562828063964844e+01 3.944132626056671143e-01 4.999913871288299561e-01 2.683213949203491211e-01 -2.436227649450302124e-01
2.883000000000000000e+03 7.565837860107421875e+00 -3.095475387573242188e+01 -8.067302405834197998e-02 -1.142777688801288605e-02 -2.763024158775806427e-02 2.161110639572143555e-01
2.884000000000000000e+03 3.655480957031250000e+01 -6.802131175994873047e+00 1.154059246182441711e-01 -2.889421582221984863e-01 -5.206086859107017517e-02 3.530484139919281006e-01
2.885000000000000000e+03 6.401038360595703125e+01 9.049263000488281250e+00 2.427170127630233765e-01 1.452735185623168945e+00 5.086356401443481445e-01 2.053953707218170166e-01
2.886000000000000000e+03 1.742156410217285156e+01 2.677825546264648438e+01 -6.906425580382347107e-03 -1.847090083174407482e-03 -2.626054687425494194e-03 7.024694699794054031e-03
2.887000000000000000e+03 2.837222290039062500e+01 -3.372006893157958984e+00 -8.951519131660461426e-01 3.622160255908966064e-01 -1.598807573318481445e-01 3.397360816597938538e-02
2.888000000000000000e+03 2.794686889648437500e+01 -3.878350496292114258e+00 -1.121003746986389160e+00 4.184226989746093750e-01 -2.107743173837661743e-01 1.551757007837295532e-01
2.889000000000000000e+03 1.957252120971679688e+01 -4.265594005584716797e+00 -6.827685832977294922e-01 3.196556270122528076e-01 -1.089338883757591248e-01 1.724314689636230469e-01
2.890000000000000000e+03 2.860340881347656250e+01 -3.042702198028564453e+00 -7.924699783325195312e-01 3.155679702758789062e-01 -1.430706083774566650e-01 -1.892846636474132538e-02
2.891000000000000000e+03 5.720541763305664062e+01 3.360000610351562500e+01 -1.243586987257003784e-01 3.285228312015533447e-01 6.124924123287200928e-02 -1.158171817660331726e-01
2.892000000000000000e+03 3.941249465942382812e+01 -1.903518676757812500e+01 -8.969600312411785126e-04 -3.903930191881954670e-04 -3.862059384118765593e-04 1.022522119455970824e-04
2.893000000000000000e+03 2.973446846008300781e+01 2.889711380004882812e+01 2.907991874963045120e-03 -2.569593198131769896e-04 7.953097810968756676e-04 2.809792757034301758e-03
2.894000000000000000e+03 3.476492691040039062e+01 2.808465003967285156e+01 3.760316874831914902e-03 1.303925365209579468e-02 5.039871204644441605e-03 -2.848477335646748543e-03
2.895000000000000000e+03 2.837243080139160156e+01 -4.044413566589355469e+00 -9.583918452262878418e-01 4.688817858695983887e-01 -1.468530148267745972e-01 2.570772171020507812e-01
2.896000000000000000e+03 2.875281715393066406e+01 -4.251472949981689453e+00 -7.025813460350036621e-01 4.483891129493713379e-01 -7.625766843557357788e-02 3.725293874740600586e-01
2.897000000000000000e+03 7.143075561523437500e+01 -2.740166282653808594e+01 2.997922820213716477e-05 -4.298350540921092033e-05 -3.901282980223186314e-06 -3.178639599354937673e-05
2.898000000000000000e+03 7.222760009765625000e+01 -2.693573760986328125e+01 2.018743180087767541e-05 -4.949313733959570527e-05 -8.791711479716468602e-06 -8.586813783040270209e-05
2.899000000000000000e+03 7.222539520263671875e+01 -2.776044845581054688e+01 1.295438269153237343e-04 -7.946247205836698413e-05 1.502440682088490576e-05 -3.466566340648569167e-05
2.900000000000000000e+03 5.060343551635742188e+01 -9.032990455627441406e+00 1.925266534090042114e-01 5.680873394012451172e-01 2.281841933727264404e-01 3.627664446830749512e-01
2.901000000000000000e+03 1.841611862182617188e+01 -5.694614410400390625e+00 -3.089967370033264160e-01 3.695223927497863770e-01 1.815769821405410767e-02 9.487352520227432251e-02
2.902000000000000000e+03 4.011977005004882812e+01 1.892077445983886719e+01 -1.653634943068027496e-02 1.189972832798957825e-02 -1.390986377373337746e-03 2.836126601323485374e-03
2.903000000000000000e+03 7.019779205322265625e+01 2.296276473999023438e+01 7.863899320363998413e-02 8.464162051677703857e-02 4.898418486118316650e-02 2.474407255649566650e-01
2.904000000000000000e+03 4.006654357910156250e+01 -1.908013153076171875e+01 -6.222797092050313950e-04 -3.181726788170635700e-04 -2.821357047650963068e-04 1.177811136585660279e-04
2.905000000000000000e+03 1.553309726715087891e+01 -8.976693153381347656e+00 3.554782271385192871e-01 6.103802323341369629e-01 2.897575199604034424e-01 2.809954434633255005e-02
2.906000000000000000e+03 6.217849349975585938e+01 -7.536688804626464844e+00 -1.661197245121002197e-01 -1.568736582994461060e-01 -9.689801931381225586e-02 -2.537467181682586670e-01
2.907000000000000000e+03 3.238987731933593750e+01 2.926848030090332031e+01 5.217697471380233765e-03 5.392230581492185593e-03 3.182978369295597076e-03 -1.172479125671088696e-03
2.908000000000000000e+03 3.039471626281738281e+01 2.673104095458984375e+01 -2.886434551328420639e-03 -1.903657219372689724e-03 -1.437027589417994022e-03 2.831521211192011833e-03
2.909000000000000000e+03 3.215203857421875000e+01 2.698025321960449219e+01 -1.795537071302533150e-03 1.110742799937725067e-03 -2.054382930509746075e-04 5.085936281830072403e-04
2.910000000000000000e+03 4.151459884643554688e+01 -2.385167694091796875e+01 -6.240108981728553772e-03 1.553901005536317825e-03 -1.405862276442348957e-03 2.437929622828960419e-03
2.911000000000000000e+03 1.668833541870117188e+01 -8.744479179382324219e+00 3.866278827190399170e-01 5.876743793487548828e-01 2.922906577587127686e-01 1.179923489689826965e-01
2.912000000000000000e+03 2.024681663513183594e+01 -4.702185630798339844e+00 -6.295532584190368652e-01 3.225199282169342041e-01 -9.210999310016632080e-02 1.461965739727020264e-01
2.913000000000000000e+03 6.185960292816162109e+00 4.981678962707519531e+00 -4.011642522527836263e-05 -7.401628408842952922e-06 -1.425541631761007011e-05 1.499805421190103516e-05
2.914000000000000000e+03 7.279814910888671875e+01 -2.995022773742675781e+01 -9.828469956119079143e-06 -8.094117947621271014e-05 -2.723089528444688767e-05 -1.340805174550041556e-04
2.915000000000000000e+03 1.011049652099609375e+01 2.764126014709472656e+01 -1.481847953982651234e-03 -1.269165892153978348e-03 -8.253041887655854225e-04 3.327030921354889870e-03
2.916000000000000000e+03 8.523663520812988281e+00 2.890510940551757812e+01 -7.242678548209369183e-04 -1.873806002549827099e-03 -7.794221746735274792e-04 3.101346781477332115e-03
2.917000000000000000e+03 6.877352905273437500e+01 2.739596557617187500e+01 -8.754663914442062378e-02 2.142063379287719727e-01 3.799790889024734497e-02 2.151299268007278442e-01
2.918000000000000000e+03 6.902867126464843750e+01 2.639690208435058594e+01 -1.601722836494445801e-02 2.141488045454025269e-01 5.943947285413742065e-02 2.459307760000228882e-01
2.919000000000000000e+03 7.189912414550781250e+01 -2.870474052429199219e+01 -3.565939186955802143e-05 -5.240972677711397409e-05 -2.642073559400159866e-05 -1.150657844846136868e-04
2.920000000000000000e+03 6.974052429199218750e+01 1.722635650634765625e+01 2.377510815858840942e-01 1.956966221332550049e-01 1.300343126058578491e-01 8.683745563030242920e-02
2.921000000000000000e+03 2.871608924865722656e+01 -3.810066938400268555e+00 -8.299854993820190430e-01 4.386262297630310059e-01 -1.174077764153480530e-01 2.163708508014678955e-01
2.922000000000000000e+03 7.591460418701171875e+01 -3.203948211669921875e+01 -3.922553787560900673e-06 5.558947304962202907e-05 1.550007618789095432e-05 -7.670342165511101484e-05
2.923000000000000000e+03 4.097002792358398438e+01 1.949153518676757812e+01 -1.649183966219425201e-02 1.288051344454288483e-02 -1.083398004993796349e-03 1.905465731397271156e-03
2.924000000000000000e+03 4.046772384643554688e+01 2.243957138061523438e+01 -3.937776666134595871e-03 1.614421792328357697e-02 3.661932190880179405e-03 -1.927512203110381961e-04
2.925000000000000000e+03 7.783658981323242188e+00 2.543030357360839844e+01 -1.363291754387319088e-03 -6.845709285698831081e-04 -6.143588107079267502e-04 2.023016801103949547e-03
2.926000000000000000e+03 8.552728652954101562e+00 2.735426139831542969e+01 -1.070924568921327591e-03 -1.308373757638037205e-03 -7.137894863262772560e-04 2.812994411215186119e-03
2.927000000000000000e+03 3.915703582763671875e+01 2.692903137207031250e+01 8.704663254320621490e-03 2.158414386212825775e-02 9.086642414331436157e-03 -8.980198763310909271e-03
2.928000000000000000e+03 6.460734558105468750e+01 -4.680736064910888672e+00 1.390221863985061646e-01 -2.159106545150279999e-02 3.522933274507522583e-02 -2.975121140480041504e-01
2.929000000000000000e+03 1.188309192657470703e+01 6.860876560211181641e+00 2.365663749515078962e-05 2.261492909383377992e-06 7.775438461976591498e-06 -2.817463609972037375e-05
2.930000000000000000e+03 8.127830505371093750e+00 -2.196173477172851562e+01 2.326317429542541504e-01 1.542516350746154785e-01 1.160650104284286499e-01 1.796177774667739868e-01
2.931000000000000000e+03 8.096106529235839844e+00 -1.864052200317382812e+01 3.506706655025482178e-01 1.468743085861206055e-01 1.492634862661361694e-01 2.691685035824775696e-02
2.932000000000000000e+03 7.251818847656250000e+01 -9.535429000854492188e+00 -2.317067682743072510e-01 -1.802623830735683441e-02 -7.491990178823471069e-02 -2.780398130416870117e-01
2.933000000000000000e+03 1.138479709625244141e+01 6.328784465789794922e+00 5.149311618879437447e-06 -3.192229632986709476e-05 -8.031895049498416483e-06 6.618067709496244788e-05
2.934000000000000000e+03 1.257184982299804688e+01 -2.847937583923339844e+01 -5.989915877580642700e-02 5.821228027343750000e-01 1.566670984029769897e-01 4.486359283328056335e-02
2.935000000000000000e+03 7.389379882812500000e+01 -2.992996597290039062e+01 2.775582288450095803e-05 -5.056471152897756838e-08 8.311577403219416738e-06 -4.411804547999054193e-05
2.936000000000000000e+03 6.372837066650390625e+01 -4.140577793121337891e+00 2.227643430233001709e-01 4.852582141757011414e-02 8.138705044984817505e-02 -1.980678290128707886e-01
2.937000000000000000e+03 7.136240482330322266e+00 1.786389732360839844e+01 -3.702953981701284647e-04 -1.494111493229866028e-04 -1.559119555167853832e-04 -7.122205715859308839e-05
2.938000000000000000e+03 7.515673828125000000e+01 -2.568955993652343750e+01 6.664887769147753716e-05 -1.168354719993658364e-05 1.648959914746228606e-05 -4.941610677633434534e-05
2.939000000000000000e+03 5.038288593292236328e+00 1.004770374298095703e+01 1.190156908705830574e-04 2.177767100874916650e-06 3.635803659562952816e-05 -9.722862159833312035e-05
2.940000000000000000e+03 6.798436737060546875e+01 -4.265881061553955078e+00 1.165504008531570435e-02 -4.382006451487541199e-02 -9.649507701396942139e-03 -4.335415661334991455e-01
2.941000000000000000e+03 3.935051727294921875e+01 2.001474952697753906e+01 -1.399119757115840912e-02 1.315208338201045990e-02 -2.517340763006359339e-04 4.036807455122470856e-03
2.942000000000000000e+03 1.502254486083984375e+01 -5.419079780578613281e+00 -3.672270476818084717e-01 2.832081615924835205e-01 -2.520567178726196289e-02 -1.285565942525863647e-01
2.943000000000000000e+03 9.114486694335937500e+00 6.724946498870849609e+00 1.124788759625516832e-04 3.315312540053128032e-07 3.384312367415986955e-05 5.079152288089971989e-06
2.944000000000000000e+03 7.957133293151855469e+00 2.646257019042968750e+01 -1.789850182831287384e-03 -8.201941382139921188e-04 -7.830132963135838509e-04 2.200640970841050148e-03
2.945000000000000000e+03 6.806710052490234375e+01 9.180496215820312500e+00 2.467179745435714722e-01 5.329496264457702637e-01 2.339002788066864014e-01 -5.379078537225723267e-02
2.946000000000000000e+03 7.017848968505859375e+01 2.706860923767089844e+01 -4.436168074607849121e-02 4.500327631831169128e-02 1.924789394252002239e-04 2.507772743701934814e-01
2.947000000000000000e+03 5.936295700073242188e+01 -8.792113304138183594e+00 -3.766686320304870605e-01 3.486134856939315796e-02 -1.025421842932701111e-01 -2.273093611001968384e-01
2.948000000000000000e+03 7.051488399505615234e+00 9.051310539245605469e+00 5.158351996215060353e-05 -4.033576624351553619e-05 3.374325615368434228e-06 -8.748418622417375445e-06
2.949000000000000000e+03 8.866943359375000000e+00 -7.061238765716552734e+00 -7.990883290767669678e-02 4.920641705393791199e-02 -9.210723452270030975e-03 -4.876544177532196045e-01
2.950000000000000000e+03 1.044799995422363281e+01 5.244838237762451172e+00 7.020944758551195264e-05 2.186942401749547571e-05 2.762366057140752673e-05 -2.594787656562402844e-05
2.951000000000000000e+03 7.005918502807617188e+00 -7.336631774902343750e+00 -4.905991256237030029e-02 -9.899291396141052246e-02 -4.441585019230842590e-02 -4.913608729839324951e-01
2.952000000000000000e+03 8.269416809082031250e+00 8.049935340881347656e+00 -3.294370981166139245e-05 -5.953028448857367039e-05 -2.774219865386839956e-05 2.135455360985361040e-05
2.953000000000000000e+03 6.847454833984375000e+01 -1.329122543334960938e+00 1.346103996038436890e-01 2.972211875021457672e-02 4.929975792765617371e-02 -3.556389212608337402e-01
2.954000000000000000e+03 6.919537353515625000e+01 -1.098639965057373047e+00 1.201680749654769897e-01 -1.014492381364107132e-02 3.300694748759269714e-02 -3.711670339107513428e-01
2.955000000000000000e+03 7.125731658935546875e+01 -3.194439649581909180e+00 9.662771597504615784e-03 -1.370755136013031006e-01 -3.822382166981697083e-02 -4.326841235160827637e-01
2.956000000000000000e+03 7.010759735107421875e+01 8.507837295532226562e+00 1.997730731964111328e-01 1.386206895112991333e-01 1.015181317925453186e-01 -1.239836215972900391e-01
2.957000000000000000e+03 7.298623657226562500e+01 1.816444873809814453e+00 8.550791442394256592e-02 -3.035109341144561768e-01 -6.540090590715408325e-02 -3.279289603233337402e-01
2.958000000000000000e+03 7.371056365966796875e+01 2.551919937133789062e+00 8.347406238317489624e-02 -3.908523023128509521e-01 -9.221347421407699585e-02 -3.048236668109893799e-01
2.959000000000000000e+03 7.207028961181640625e+01 1.313051819801330566e+00 1.011871695518493652e-01 -2.101748287677764893e-01 -3.269629925489425659e-02 -3.398074805736541748e-01
2.960000000000000000e+03 7.343507385253906250e+01 6.495520472526550293e-01 6.965560466051101685e-02 -3.326772451400756836e-01 -7.890649139881134033e-02 -3.446708917617797852e-01
2.961000000000000000e+03 7.388143920898437500e+01 3.514548540115356445e+00 7.992976158857345581e-02 -4.322706758975982666e-01 -1.057022660970687866e-01 -2.779116034507751465e-01
2.962000000000000000e+03 7.361144256591796875e+01 4.480716705322265625e+00 9.939324110746383667e-02 -3.958930373191833496e-01 -8.894994109869003296e-02 -2.576311528682708740e-01
2.963000000000000000e+03 3.359871292114257812e+01 1.501616358757019043e+00 1.402736088493838906e-04 -7.713201193837448955e-05 1.894247907330282032e-05 -8.059509127633646131e-06
2.964000000000000000e+03 3.386261749267578125e+01 1.048467040061950684e+00 -2.736011992965359241e-05 -1.187953967018984258e-04 -4.384665589896030724e-05 -5.951290586381219327e-05
2.965000000000000000e+03 3.461767959594726562e+01 9.406403899192810059e-01 1.760538871167227626e-04 9.169861732516437769e-05 8.032575715333223343e-05 -1.480468290537828580e-05
2.966000000000000000e+03 3.428038787841796875e+01 6.043561100959777832e-01 -7.967066630953922868e-05 3.101426409557461739e-05 -1.459692066418938339e-05 6.089593443903140724e-05
2.967000000000000000e+03 3.448412704467773438e+01 1.531275749206542969e+00 -1.420449261786416173e-04 1.660891211940906942e-05 -3.763080167118459940e-05 -2.452614171488676220e-05
2.968000000000000000e+03 3.088315010070800781e+01 1.369637846946716309e-01 -9.673385648056864738e-05 1.429394615115597844e-04 1.386168150929734111e-05 -6.700591620756313205e-05
2.969000000000000000e+03 3.085827255249023438e+01 4.608943760395050049e-01 1.029021368594840169e-04 3.017939525307156146e-05 3.992445999756455421e-05 1.921626972034573555e-05
2.970000000000000000e+03 3.164820289611816406e+01 3.707765936851501465e-01 -4.869646090810419992e-06 -6.860147550469264388e-05 -2.204133670602459460e-05 -7.280927547981264070e-06
2.971000000000000000e+03 3.293296813964843750e+01 -1.437336444854736328e+00 -2.097064554691314697e-01 -5.056281387805938721e-02 -7.808078080415725708e-02 1.488000303506851196e-01
2.972000000000000000e+03 3.369779968261718750e+01 -1.458120226860046387e+00 -1.192060783505439758e-01 8.893202058970928192e-03 -3.309386223554611206e-02 1.757848411798477173e-01
2.973000000000000000e+03 3.284732055664062500e+01 -1.682937741279602051e+00 -2.056235074996948242e-01 -3.120842948555946350e-02 -7.104957848787307739e-02 1.577074527740478516e-01
2.974000000000000000e+03 3.231448364257812500e+01 -1.727027297019958496e+00 -2.664259970188140869e-01 2.053535135928541422e-04 -7.986619323492050171e-02 1.453172415494918823e-01
2.975000000000000000e+03 3.330375671386718750e+01 -1.829273939132690430e+00 -1.449998319149017334e-01 -1.408243644982576370e-02 -4.772468283772468567e-02 2.168708741664886475e-01
2.976000000000000000e+03 3.277976608276367188e+01 -1.938349246978759766e+00 -1.953361779451370239e-01 -8.818026981316506863e-04 -5.886539444327354431e-02 2.027526050806045532e-01
2.977000000000000000e+03 3.212217712402343750e+01 -1.481541037559509277e+00 -3.246243000030517578e-01 5.311839282512664795e-03 -9.579373896121978760e-02 1.064805313944816589e-01
2.978000000000000000e+03 3.100585174560546875e+01 -8.920080184936523438e+00 3.722123205661773682e-01 3.751879557967185974e-02 1.229193359613418579e-01 -3.564088791608810425e-02
2.979000000000000000e+03 3.131526565551757812e+01 -8.545426368713378906e+00 4.604603946208953857e-01 -7.551731169223785400e-02 1.154829263687133789e-01 1.462629139423370361e-01
2.980000000000000000e+03 3.186168861389160156e+01 -9.464828491210937500e+00 -8.590012788772583008e-02 -4.403753578662872314e-02 -3.898129984736442566e-02 -3.139202250167727470e-03
2.981000000000000000e+03 3.251086044311523438e+01 -9.066474914550781250e+00 4.295434430241584778e-02 -1.012210324406623840e-01 -1.748000644147396088e-02 8.309783041477203369e-02
2.982000000000000000e+03 3.371839904785156250e+01 -9.191536903381347656e+00 -6.878735870122909546e-02 -1.144803315401077271e-01 -5.498030781745910645e-02 1.994566470384597778e-01
2.983000000000000000e+03 3.426917648315429688e+01 -1.016659069061279297e+01 -3.109545707702636719e-01 -7.031787186861038208e-02 -1.143817305564880371e-01 1.652172058820724487e-01
2.984000000000000000e+03 3.580917358398437500e+01 -1.068415164947509766e+01 -5.547580718994140625e-01 -1.086560934782028198e-01 -1.990242451429367065e-01 2.545597255229949951e-01
2.985000000000000000e+03 3.609215927124023438e+01 -9.995286941528320312e+00 -3.972759544849395752e-01 -1.907198280096054077e-01 -1.763987392187118530e-01 3.154122829437255859e-01
2.986000000000000000e+03 3.657500457763671875e+01 -1.094214725494384766e+01 -6.976286768913269043e-01 -1.369870603084564209e-01 -2.503847181797027588e-01 3.085768520832061768e-01
2.987000000000000000e+03 3.734017562866210938e+01 -1.120081138610839844e+01 -8.752089142799377441e-01 -2.271076887845993042e-01 -3.306949734687805176e-01 4.106129407882690430e-01
2.988000000000000000e+03 3.763973999023437500e+01 -1.052015495300292969e+01 -5.505276918411254883e-01 -3.225078880786895752e-01 -2.619106769561767578e-01 4.102531075477600098e-01
2.989000000000000000e+03 3.187426185607910156e+01 -8.957004547119140625e+00 2.629351317882537842e-01 -9.544286131858825684e-02 5.024767667055130005e-02 2.347940392792224884e-02
2.990000000000000000e+03 3.298913574218750000e+01 -8.844696044921875000e+00 2.021816000342369080e-02 -1.418352574110031128e-01 -3.648513182997703552e-02 1.639109551906585693e-01
2.991000000000000000e+03 3.453558349609375000e+01 -9.469518661499023438e+00 -2.064098119735717773e-01 -1.441285908222198486e-01 -1.051615253090858459e-01 2.282206267118453979e-01
2.992000000000000000e+03 3.531685638427734375e+01 -9.733313560485839844e+00 -2.965984046459197998e-01 -1.551828384399414062e-01 -1.355343610048294067e-01 2.777909636497497559e-01
2.993000000000000000e+03 3.686627960205078125e+01 -1.025738620758056641e+01 -4.930237233638763428e-01 -2.434537857770919800e-01 -2.209432572126388550e-01 3.873965740203857422e-01
2.994000000000000000e+03 3.263451004028320312e+01 -9.674182891845703125e+00 -1.077033132314682007e-01 -4.282959923148155212e-02 -4.515987262129783630e-02 8.001971989870071411e-02
2.995000000000000000e+03 3.346028137207031250e+01 -9.892712593078613281e+00 -2.008403688669204712e-01 -6.680673360824584961e-02 -8.029413223266601562e-02 1.204027161002159119e-01
2.996000000000000000e+03 3.504216003417968750e+01 -1.042628192901611328e+01 -4.309044182300567627e-01 -9.451033920049667358e-02 -1.576244235038757324e-01 2.030193954706192017e-01
2.997000000000000000e+03 3.235822677612304688e+01 -8.564474105834960938e+00 2.783705592155456543e-01 -1.441362649202346802e-01 4.027028381824493408e-02 1.863429546356201172e-01
2.998000000000000000e+03 3.176610565185546875e+01 -8.452316284179687500e+00 3.467625975608825684e-01 -1.033807471394538879e-01 7.301454991102218628e-02 2.132458984851837158e-01
2.999000000000000000e+03 3.047484588623046875e+01 -4.881738126277923584e-01 -4.144459664821624756e-01 1.569387095514684916e-04 -1.242867037653923035e-01 -7.955874316394329071e-03
3.000000000000000000e+03 2.937402915954589844e+01 -4.531394243240356445e-01 -4.243765771389007568e-01 -1.578035205602645874e-02 -1.320470720529556274e-01 -6.494347751140594482e-02
3.001000000000000000e+03 2.951961517333984375e+01 -3.458977118134498596e-02 -6.137822056189179420e-04 5.651240353472530842e-04 -1.459745271858992055e-05 -1.398728272761218250e-05
3.002000000000000000e+03 2.881153869628906250e+01 -1.715450733900070190e-02 1.173538839793764055e-05 -1.710129872662946582e-04 -4.778328002430498600e-05 1.787308283383026719e-04
3.003000000000000000e+03 2.647131156921386719e+01 -1.452585905790328979e-01 3.460549516603350639e-03 1.449129357933998108e-02 5.385552998632192612e-03 7.734085433185100555e-03
3.004000000000000000e+03 2.794427108764648438e+01 -1.338451355695724487e-02 1.805455540306866169e-04 8.146813343046233058e-05 7.860410551074892282e-05 -3.103253766312263906e-05
3.005000000000000000e+03 2.639600372314453125e+01 5.219856500625610352e-01 -6.605501752346754074e-03 2.313182130455970764e-02 4.957896191626787186e-03 -4.932557698339223862e-03
3.006000000000000000e+03 2.531742095947265625e+01 2.922551333904266357e-01 -1.400190684944391251e-02 4.189931787550449371e-03 -2.943592378869652748e-03 -4.147421568632125854e-02
3.007000000000000000e+03 2.627714729309082031e+01 -8.622434735298156738e-01 -1.820736005902290344e-02 6.820825394243001938e-03 -3.415960352867841721e-03 8.735773153603076935e-03
3.008000000000000000e+03 2.641696739196777344e+01 -3.848643302917480469e+00 -2.172021150588989258e+00 2.932018786668777466e-02 -6.428102850914001465e-01 2.016951888799667358e-01
3.009000000000000000e+03 2.618512916564941406e+01 -4.385862350463867188e+00 -1.529736161231994629e+00 -4.256173372268676758e-01 -5.866060256958007812e-01 5.097783207893371582e-01
3.010000000000000000e+03 2.533835411071777344e+01 -4.633370399475097656e+00 -1.143051743507385254e+00 -1.380960106849670410e+00 -7.572035789489746094e-01 1.978358626365661621e-01
3.011000000000000000e+03 2.487517547607421875e+01 -4.416660785675048828e+00 -1.726604819297790527e+00 -1.414029479026794434e+00 -9.421902894973754883e-01 -3.696417510509490967e-01
3.012000000000000000e+03 2.411929321289062500e+01 -3.945081949234008789e+00 -2.020307779312133789e+00 -2.772887945175170898e-01 -6.892789602279663086e-01 -1.339939888566732407e-02
3.013000000000000000e+03 2.426472091674804688e+01 -3.697733879089355469e+00 -2.385123252868652344e+00 -2.638182342052459717e-01 -7.946824431419372559e-01 3.711136877536773682e-01
3.014000000000000000e+03 2.557520675659179688e+01 -1.936754941940307617e+00 1.496703363955020905e-02 2.054606378078460693e-01 6.612829864025115967e-02 4.448083415627479553e-02
3.015000000000000000e+03 2.436009025573730469e+01 -1.772653698921203613e+00 -1.853814721107482910e-01 -4.454412162303924561e-01 -1.892468035221099854e-01 3.308232128620147705e-01
3.016000000000000000e+03 2.487544441223144531e+01 -6.859205365180969238e-01 -4.210606962442398071e-02 -1.051626950502395630e-01 -4.418063163757324219e-02 9.220969863235950470e-03
3.017000000000000000e+03 2.422419929504394531e+01 -3.464291810989379883e+00 -2.366038084030151367e+00 -2.358039617538452148e-01 -7.805526256561279297e-01 6.004804372787475586e-01
3.018000000000000000e+03 2.610988616943359375e+01 -4.280397415161132812e+00 -1.933085083961486816e+00 -3.964565694332122803e-01 -6.988624930381774902e-01 4.935292899608612061e-01
3.019000000000000000e+03 2.622498130798339844e+01 -4.003594398498535156e+00 -2.340224504470825195e+00 -2.919866740703582764e-01 -7.896633744239807129e-01 5.765388607978820801e-01
3.020000000000000000e+03 3.022347450256347656e+01 -1.315659284591674805e+00 -4.169031977653503418e-01 5.924559384584426880e-02 -1.072972789406776428e-01 1.736085675656795502e-02
3.021000000000000000e+03 2.865731811523437500e+01 -9.516230821609497070e-01 -3.569209575653076172e-01 -4.957794211804866791e-03 -1.085636243224143982e-01 -1.309227049350738525e-01
3.022000000000000000e+03 2.772545051574707031e+01 -1.567528009414672852e+00 -4.021457731723785400e-01 2.450726227834820747e-03 -1.199085190892219543e-01 -2.297736704349517822e-01
3.023000000000000000e+03 3.099403762817382812e+01 -1.178382873535156250e+00 -3.530423343181610107e-01 7.731398940086364746e-02 -8.271850645542144775e-02 8.027493208646774292e-02
3.024000000000000000e+03 2.943593025207519531e+01 -1.434093475341796875e+00 -4.518225491046905518e-01 8.821368217468261719e-02 -1.090826615691184998e-01 -5.660346150398254395e-02
3.025000000000000000e+03 2.858838844299316406e+01 -1.479720354080200195e+00 -4.534957110881805420e-01 4.361733794212341309e-02 -1.229635104537010193e-01 -1.637312918901443481e-01
3.026000000000000000e+03 2.513871955871582031e+01 -1.072214007377624512e+00 -3.291877731680870056e-02 -7.785305380821228027e-02 -3.323154896497726440e-02 7.540641818195581436e-03
3.027000000000000000e+03 2.596033668518066406e+01 -2.546619474887847900e-01 -6.434807553887367249e-03 9.848386049270629883e-02 2.761471644043922424e-02 3.374826861545443535e-03
3.028000000000000000e+03 2.784863853454589844e+01 5.525388717651367188e-01 -2.501385752111673355e-04 -5.016070790588855743e-04 -2.255236904602497816e-04 1.727442868286743760e-04
3.029000000000000000e+03 2.716625785827636719e+01 -5.884153395891189575e-02 -1.401541754603385925e-03 -3.031800966709852219e-03 -1.330002793110907078e-03 -2.056370722129940987e-03
3.030000000000000000e+03 2.994002342224121094e+01 1.808187961578369141e-01 6.315312930382788181e-04 -1.678066182648763061e-04 1.391173864249140024e-04 -2.657473487488459796e-05
3.031000000000000000e+03 3.011889648437500000e+01 6.317054852843284607e-03 -6.286717834882438183e-04 -4.592582699842751026e-04 -3.263790276832878590e-04 -1.451270218240097165e-04
3.032000000000000000e+03 2.673573875427246094e+01 -2.282588243484497070e+00 -4.600725173950195312e-01 -2.123308032751083374e-01 -2.017209976911544800e-01 -4.182117879390716553e-01
3.033000000000000000e+03 2.573735809326171875e+01 -2.392378330230712891e+00 -2.356257475912570953e-02 -2.755644619464874268e-01 -8.973811566829681396e-02 -1.274609416723251343e-01
3.034000000000000000e+03 2.609886169433593750e+01 -4.123750686645507812e+00 -2.296311378479003906e+00 -4.233912229537963867e-01 -8.159108161926269531e-01 6.253585815429687500e-01
3.035000000000000000e+03 2.649908065795898438e+01 -3.626982450485229492e+00 -2.086084842681884766e+00 8.979885280132293701e-02 -5.988858342170715332e-01 -1.327970921993255615e-01
3.036000000000000000e+03 2.633674812316894531e+01 -2.979785203933715820e+00 -1.252936124801635742e+00 -2.941412627696990967e-01 -4.641232192516326904e-01 -7.430103421211242676e-01
3.037000000000000000e+03 2.593580055236816406e+01 -2.488607168197631836e+00 -1.998354345560073853e-01 -4.643661677837371826e-01 -1.992604732513427734e-01 -3.223738670349121094e-01
3.038000000000000000e+03 2.552112960815429688e+01 -2.335449218750000000e+00 2.001941204071044922e-02 2.412392646074295044e-01 7.837760448455810547e-02 5.114095285534858704e-02
3.039000000000000000e+03 2.471400642395019531e+01 -2.522758483886718750e+00 -3.259378969669342041e-01 -8.549056649208068848e-01 -3.542530834674835205e-01 5.984587669372558594e-01
3.040000000000000000e+03 2.423478507995605469e+01 -2.987142801284790039e+00 -1.406057834625244141e+00 -4.532569050788879395e-01 -5.577944517135620117e-01 9.620442986488342285e-01
3.041000000000000000e+03 2.451340675354003906e+01 -4.361357688903808594e+00 -1.662664175033569336e+00 -7.742686867713928223e-01 -7.310798764228820801e-01 -2.260226011276245117e-01
3.042000000000000000e+03 2.503470802307128906e+01 -4.552381992340087891e+00 -1.330771684646606445e+00 -1.208239436149597168e+00 -7.617033720016479492e-01 -2.768992073833942413e-02
3.043000000000000000e+03 2.516429710388183594e+01 -2.041472680866718292e-02 -2.738832868635654449e-02 -1.039349380880594254e-02 -1.133454684168100357e-02 -3.747603669762611389e-02
3.044000000000000000e+03 2.489126396179199219e+01 2.028051912784576416e-01 -1.787003874778747559e-02 -1.369435898959636688e-02 -9.469320066273212433e-03 -2.795591577887535095e-02
3.045000000000000000e+03 2.455616569519042969e+01 -2.659918785095214844e+00 -6.303278803825378418e-01 -8.400954604148864746e-01 -4.411270022392272949e-01 8.544699549674987793e-01
3.046000000000000000e+03 2.405515670776367188e+01 -2.691116571426391602e+00 -1.008827924728393555e+00 -4.411780238151550293e-01 -4.350017905235290527e-01 8.065827488899230957e-01
3.047000000000000000e+03 2.454002571105957031e+01 -1.193373680114746094e+00 -9.693779051303863525e-02 -2.572140097618103027e-01 -1.062455400824546814e-01 1.354577988386154175e-01
3.048000000000000000e+03 2.475949096679687500e+01 -1.450516700744628906e+00 -7.000996172428131104e-02 -2.696754336357116699e-01 -1.019056141376495361e-01 1.159156262874603271e-01
3.049000000000000000e+03 2.458522796630859375e+01 -1.001698017120361328e+00 -7.955188304185867310e-02 -2.035009562969207764e-01 -8.491585403680801392e-02 8.962552994489669800e-02
3.050000000000000000e+03 2.482336044311523438e+01 -2.428017854690551758e-01 -5.231254920363426208e-02 -7.023594528436660767e-02 -3.676454722881317139e-02 -4.997472278773784637e-03
3.051000000000000000e+03 2.575684738159179688e+01 3.671036064624786377e-01 -2.087455429136753082e-02 2.862625755369663239e-02 2.325510606169700623e-03 -2.822647988796234131e-02
3.052000000000000000e+03 2.510176467895507812e+01 2.383687347173690796e-01 -1.897582784295082092e-02 -1.147284917533397675e-02 -9.134603664278984070e-03 -4.096918553113937378e-02
3.053000000000000000e+03 2.597979927062988281e+01 -4.585270404815673828e+00 -1.373103857040405273e+00 -7.729390263557434082e-01 -6.438128352165222168e-01 6.914153695106506348e-01
3.054000000000000000e+03 2.598095893859863281e+01 -4.235805511474609375e+00 -2.031098604202270508e+00 -8.463276624679565430e-01 -8.632279038429260254e-01 6.636644601821899414e-01
3.055000000000000000e+03 2.622498130798339844e+01 -4.153981685638427734e+00 -2.281610727310180664e+00 -3.269660472869873047e-01 -7.825729846954345703e-01 5.894936919212341309e-01
3.056000000000000000e+03 2.640505409240722656e+01 -3.178993463516235352e+00 -1.667754292488098145e+00 -1.308140009641647339e-01 -5.395705103874206543e-01 -6.676867008209228516e-01
3.057000000000000000e+03 2.644863128662109375e+01 -3.394097566604614258e+00 -2.013584136962890625e+00 4.012100026011466980e-02 -5.920389294624328613e-01 -4.501737058162689209e-01
3.058000000000000000e+03 2.672631072998046875e+01 -3.615456819534301758e+00 -1.876762628555297852e+00 1.610085964202880859e-01 -5.147262215614318848e-01 -1.605560332536697388e-01
3.059000000000000000e+03 2.664478492736816406e+01 -3.411216020584106445e+00 -1.837004780769348145e+00 7.186971604824066162e-02 -5.295405387878417969e-01 -3.626315891742706299e-01
3.060000000000000000e+03 2.709663772583007812e+01 -2.171180248260498047e+00 -5.121239423751831055e-01 -1.153279617428779602e-01 -1.882355809211730957e-01 -3.846235573291778564e-01
3.061000000000000000e+03 2.699556159973144531e+01 -2.549802541732788086e+00 -7.685871124267578125e-01 -5.995189398527145386e-02 -2.485616952180862427e-01 -4.594937562942504883e-01
3.062000000000000000e+03 2.644385147094726562e+01 -4.154514789581298828e+00 -1.991477131843566895e+00 -2.739245630800724030e-02 -6.056609153747558594e-01 4.576657712459564209e-01
3.063000000000000000e+03 2.530815505981445312e+01 -2.326277971267700195e+00 -3.677124856039881706e-03 -1.229618042707443237e-01 -3.799168020486831665e-02 4.949022829532623291e-02
3.064000000000000000e+03 2.482074356079101562e+01 -2.244156599044799805e+00 -1.239703223109245300e-01 -6.217300295829772949e-01 -2.237101048231124878e-01 3.212467432022094727e-01
3.065000000000000000e+03 2.399725151062011719e+01 -3.445193529129028320e+00 -1.911725044250488281e+00 -1.583699434995651245e-01 -6.210284829139709473e-01 6.322320103645324707e-01
3.066000000000000000e+03 2.431794738769531250e+01 -2.428363084793090820e+00 -5.746563076972961426e-01 -6.483303308486938477e-01 -3.668960034847259521e-01 7.307485938072204590e-01
3.067000000000000000e+03 2.688554382324218750e+01 -3.124080896377563477e+00 -1.361138939857482910e+00 7.529573142528533936e-02 -3.857529759407043457e-01 -4.715366959571838379e-01
3.068000000000000000e+03 2.703727149963378906e+01 -2.355017185211181641e+00 -6.476922631263732910e-01 -7.306963950395584106e-02 -2.162285745143890381e-01 -4.102297425270080566e-01
3.069000000000000000e+03 2.692308998107910156e+01 -2.936453342437744141e+00 -1.142357587814331055e+00 1.364860869944095612e-02 -3.386126756668090820e-01 -4.844918847084045410e-01
3.070000000000000000e+03 2.672569656372070312e+01 -3.089684724807739258e+00 -1.359871268272399902e+00 -1.879556849598884583e-02 -4.136000573635101318e-01 -5.281969904899597168e-01
3.071000000000000000e+03 2.706258964538574219e+01 -1.692327260971069336e+00 -2.953156828880310059e-01 -1.220150142908096313e-01 -1.251991987228393555e-01 -2.628355920314788818e-01
3.072000000000000000e+03 2.642939758300781250e+01 -6.297486424446105957e-01 1.949517056345939636e-02 2.348543144762516022e-03 6.553114391863346100e-03 6.761753465980291367e-03
3.073000000000000000e+03 2.641558837890625000e+01 -1.667750239372253418e+00 -1.252116709947586060e-01 -1.529357284307479858e-01 -8.344422280788421631e-02 -1.659474968910217285e-01
3.074000000000000000e+03 2.615332412719726562e+01 -1.053246259689331055e+00 -1.396572589874267578e-02 8.781632408499717712e-03 -1.555228023789823055e-03 -1.009558420628309250e-02
3.075000000000000000e+03 2.603223609924316406e+01 -1.615538716316223145e+00 -2.900011092424392700e-02 -8.124373853206634521e-02 -3.307315334677696228e-02 -5.920208990573883057e-02
3.076000000000000000e+03 2.581940078735351562e+01 -2.205476284027099609e+00 -5.905043706297874451e-02 -2.117979824542999268e-01 -8.125452697277069092e-02 -9.850927442312240601e-02
3.077000000000000000e+03 2.590225219726562500e+01 -2.014160871505737305e+00 -2.488165535032749176e-02 -1.617472916841506958e-01 -5.598868429660797119e-02 -8.745386451482772827e-02
3.078000000000000000e+03 2.636942291259765625e+01 -1.190798401832580566e+00 -5.840441212058067322e-02 -6.411797553300857544e-02 -3.675671666860580444e-02 -7.270050793886184692e-02
3.079000000000000000e+03 2.419844818115234375e+01 -2.590930461883544922e+00 -8.483539819717407227e-01 -5.739814639091491699e-01 -4.267006218433380127e-01 8.160303235054016113e-01
3.080000000000000000e+03 2.409086227416992188e+01 -2.532878398895263672e+00 -7.923068404197692871e-01 -4.992732107639312744e-01 -3.874740302562713623e-01 7.744491100311279297e-01
3.081000000000000000e+03 2.423811531066894531e+01 -2.164443016052246094e+00 -4.333814978599548340e-01 -5.282993316650390625e-01 -2.885042428970336914e-01 5.750172734260559082e-01
3.082000000000000000e+03 2.465863227844238281e+01 -1.634950757026672363e+00 -8.580286800861358643e-02 -3.544683754444122314e-01 -1.320813745260238647e-01 1.868812143802642822e-01
3.083000000000000000e+03 2.542900657653808594e+01 -1.465266227722167969e+00 -1.276459265500307083e-02 7.564990222454071045e-02 1.886559277772903442e-02 8.370311930775642395e-03
3.084000000000000000e+03 2.488056182861328125e+01 -2.775134518742561340e-02 -3.978543356060981750e-02 -3.842669352889060974e-02 -2.346363849937915802e-02 -2.375162579119205475e-02
3.085000000000000000e+03 2.544243812561035156e+01 -1.280014514923095703e+00 -1.146104186773300171e-02 6.188170984387397766e-02 1.512620039284229279e-02 5.805260036140680313e-03
3.086000000000000000e+03 2.405844879150390625e+01 -2.843507289886474609e+00 -1.252372622489929199e+00 -3.886836767196655273e-01 -4.923169016838073730e-01 8.608075380325317383e-01
3.087000000000000000e+03 2.595104408264160156e+01 -7.482476830482482910e-01 -8.505502715706825256e-03 1.445976346731185913e-01 4.082763940095901489e-02 3.653086721897125244e-02
3.088000000000000000e+03 2.525023651123046875e+01 -6.023106575012207031e-01 -2.807276882231235504e-02 -1.439581066370010376e-02 -1.274057384580373764e-02 -1.775585860013961792e-02
3.089000000000000000e+03 2.562710762023925781e+01 -1.730937957763671875e+00 1.875345408916473389e-02 1.953519284725189209e-01 6.423161923885345459e-02 4.820215329527854919e-02
3.090000000000000000e+03 2.569635391235351562e+01 -1.533924937248229980e+00 6.397678051143884659e-03 1.902181059122085571e-01 5.898473411798477173e-02 5.031301081180572510e-02
3.091000000000000000e+03 2.599691390991210938e+01 -5.760630369186401367e-01 2.735493704676628113e-02 1.333976835012435913e-01 4.822578653693199158e-02 2.683465555310249329e-02
3.092000000000000000e+03 2.473574638366699219e+01 -4.340275228023529053e-01 -4.760164022445678711e-02 -9.130742400884628296e-02 -4.167272150516510010e-02 1.973051694221794605e-04
3.093000000000000000e+03 2.555204582214355469e+01 -2.141647100448608398e+00 4.396237898617982864e-03 2.202751338481903076e-01 6.740140914916992188e-02 4.995107650756835938e-02
3.094000000000000000e+03 2.672518157958984375e+01 -2.911330938339233398e+00 -1.146425843238830566e+00 -7.129164040088653564e-02 -3.653152585029602051e-01 -5.625278353691101074e-01
3.095000000000000000e+03 2.647673416137695312e+01 -2.513683795928955078e+00 -5.976334810256958008e-01 -3.097896873950958252e-01 -2.722269594669342041e-01 -5.280727744102478027e-01
3.096000000000000000e+03 2.667280578613281250e+01 -1.842402577400207520e+00 -2.302943766117095947e-01 -1.838486492633819580e-01 -1.242429018020629883e-01 -2.764104604721069336e-01
3.097000000000000000e+03 2.646523094177246094e+01 -1.423004746437072754e+00 -9.598959237337112427e-02 -1.130396351218223572e-01 -6.270876526832580566e-02 -1.229168474674224854e-01
3.098000000000000000e+03 2.666707992553710938e+01 -1.013430595397949219e+00 -9.692606329917907715e-02 -4.439071565866470337e-02 -4.239503294229507446e-02 -7.372922450304031372e-02
3.099000000000000000e+03 2.607744026184082031e+01 -1.415226459503173828e+00 -2.822834625840187073e-02 -4.774760827422142029e-02 -2.279278635978698730e-02 -4.477610439062118530e-02
3.100000000000000000e+03 2.442019653320312500e+01 -1.577244997024536133e+00 -1.537439227104187012e-01 -3.897860944271087646e-01 -1.630590111017227173e-01 2.540265619754791260e-01
3.101000000000000000e+03 2.485099220275878906e+01 -1.052485942840576172e+00 -4.678989574313163757e-02 -1.608235836029052734e-01 -6.228404492139816284e-02 4.794541373848915100e-02
3.102000000000000000e+03 2.509831809997558594e+01 -2.354961156845092773e+00 -2.076897956430912018e-02 -4.547596573829650879e-01 -1.426585912704467773e-01 1.469195038080215454e-01
3.103000000000000000e+03 2.578040313720703125e+01 -1.125876903533935547e+00 5.201479420065879822e-03 1.726907640695571899e-01 5.336767435073852539e-02 3.352670371532440186e-02
3.104000000000000000e+03 2.538640403747558594e+01 -8.353871703147888184e-01 -2.370051480829715729e-02 2.036082558333873749e-02 -1.001907163299620152e-03 -1.316974591463804245e-02
3.105000000000000000e+03 2.611754226684570312e+01 -2.619162082672119141e+00 -4.481566250324249268e-01 -4.958122372627258301e-01 -2.831906676292419434e-01 -5.337042808532714844e-01
3.106000000000000000e+03 2.625331306457519531e+01 -2.788035631179809570e+00 -8.320405483245849609e-01 -4.427493810653686523e-01 -3.824369907379150391e-01 -6.872451901435852051e-01
3.107000000000000000e+03 2.645071983337402344e+01 -2.299835920333862305e+00 -3.684611320495605469e-01 -2.848376035690307617e-01 -1.959896236658096313e-01 -3.990083932876586914e-01
3.108000000000000000e+03 2.489649200439453125e+01 -2.419006347656250000e+00 -1.143281087279319763e-01 -7.427413463592529297e-01 -2.571208477020263672e-01 3.806437253952026367e-01
3.109000000000000000e+03 2.507448387145996094e+01 -3.908360302448272705e-01 -3.811778873205184937e-02 -3.204007074236869812e-02 -2.104735746979713440e-02 -1.943274401128292084e-02
3.110000000000000000e+03 2.752050971984863281e+01 -9.836779832839965820e-01 -2.217061370611190796e-01 -3.028690256178379059e-02 -7.559791207313537598e-02 -1.310039907693862915e-01
3.111000000000000000e+03 2.626869392395019531e+01 -2.452065944671630859e+00 -4.121594429016113281e-01 -3.989565670490264893e-01 -2.433348000049591064e-01 -4.502134621143341064e-01
3.112000000000000000e+03 2.623533439636230469e+01 -2.123111963272094727e+00 -2.009688913822174072e-01 -2.946173846721649170e-01 -1.486758887767791748e-01 -2.763997316360473633e-01
3.113000000000000000e+03 2.527983283996582031e+01 -1.946007490158081055e+00 1.018530502915382385e-02 -9.597531706094741821e-02 -2.573700249195098877e-02 4.516385123133659363e-02
3.114000000000000000e+03 2.460821723937988281e+01 -2.366398572921752930e+00 -2.993565797805786133e-01 -7.228600978851318359e-01 -3.066650032997131348e-01 5.556563138961791992e-01
3.115000000000000000e+03 2.479187011718750000e+01 -1.865445494651794434e+00 -7.946816086769104004e-02 -4.147619009017944336e-01 -1.482690125703811646e-01 1.999328583478927612e-01
3.116000000000000000e+03 2.519254684448242188e+01 -1.468132138252258301e+00 -1.480388175696134567e-02 -1.206032037734985352e-01 -4.062212631106376648e-02 2.478998713195323944e-02
3.117000000000000000e+03 2.684662246704101562e+01 -2.068747997283935547e+00 -4.029479920864105225e-01 -1.696228981018066406e-01 -1.717712730169296265e-01 -3.441670536994934082e-01
3.118000000000000000e+03 2.552784538269042969e+01 -1.534349024295806885e-01 -1.304416824132204056e-02 4.178847000002861023e-02 8.623289875686168671e-03 -3.105484321713447571e-02
3.119000000000000000e+03 2.506137275695800781e+01 -2.181909084320068359e+00 -1.725841686129570007e-02 -3.995560407638549805e-01 -1.250443309545516968e-01 1.437056064605712891e-01
3.120000000000000000e+03 2.528011703491210938e+01 -2.606833875179290771e-01 -3.038552030920982361e-02 -3.053316846489906311e-03 -1.003165077418088913e-02 -3.026738017797470093e-02
3.121000000000000000e+03 2.545164108276367188e+01 -4.947670400142669678e-01 -2.282773517072200775e-02 2.753303386270999908e-02 1.411589561030268669e-03 -2.551885880529880524e-02
3.122000000000000000e+03 2.703945541381835938e+01 -6.591960787773132324e-01 -8.246649801731109619e-02 -1.857325620949268341e-02 -3.031192719936370850e-02 -4.018408805131912231e-02
3.123000000000000000e+03 2.573363685607910156e+01 2.894556149840354919e-02 -1.957698538899421692e-02 4.769121855497360229e-02 8.434269577264785767e-03 -2.528962306678295135e-02
3.124000000000000000e+03 2.513941764831542969e+01 -1.274497151374816895e+00 -1.946886070072650909e-02 -1.072744950652122498e-01 -3.802300617098808289e-02 2.159919962286949158e-02
3.125000000000000000e+03 2.530065727233886719e+01 -2.141579627990722656e+00 1.049435138702392578e-02 -8.855666220188140869e-02 -2.341869287192821503e-02 4.007561504840850830e-02
3.126000000000000000e+03 2.497607040405273438e+01 -1.842044234275817871e+00 -3.445437923073768616e-02 -3.137874007225036621e-01 -1.044725403189659119e-01 1.214962378144264221e-01
3.127000000000000000e+03 2.873468589782714844e+01 -4.964119493961334229e-01 -3.971984088420867920e-01 -1.132182590663433075e-02 -1.225560680031776428e-01 -4.052726179361343384e-02
3.128000000000000000e+03 2.813566970825195312e+01 -6.392342448234558105e-01 -2.883103787899017334e-01 1.689835079014301300e-02 -8.142360299825668335e-02 -8.528509736061096191e-02
3.129000000000000000e+03 2.988959884643554688e+01 -7.315934896469116211e-01 -4.207600951194763184e-01 4.327616468071937561e-02 -1.132451742887496948e-01 -3.241188824176788330e-02
3.130000000000000000e+03 2.934182167053222656e+01 -9.457839727401733398e-01 -4.263194203376770020e-01 2.233941853046417236e-02 -1.211939975619316101e-01 -6.131515279412269592e-02
3.131000000000000000e+03 2.914690780639648438e+01 3.360006213188171387e-01 1.398310268996283412e-04 2.849637239705771208e-04 1.274384267162531614e-04 -1.470429651817539707e-06
3.132000000000000000e+03 2.606849288940429688e+01 -2.312824010848999023e+00 -1.770425438880920410e-01 -3.846246004104614258e-01 -1.685001403093338013e-01 -3.123571574687957764e-01
3.133000000000000000e+03 2.633803176879882812e+01 -1.903956174850463867e+00 -1.570743322372436523e-01 -2.329382300376892090e-01 -1.170037686824798584e-01 -2.314764410257339478e-01
3.134000000000000000e+03 2.597260665893554688e+01 -1.817565202713012695e+00 -3.884808719158172607e-02 -1.195157244801521301e-01 -4.750914499163627625e-02 -7.386476546525955200e-02
3.135000000000000000e+03 2.609645271301269531e+01 -1.227401256561279297e+00 -2.113442495465278625e-02 -1.692848093807697296e-02 -1.141887158155441284e-02 -2.836605533957481384e-02
3.136000000000000000e+03 2.574292182922363281e+01 -1.336517095565795898e+00 3.504980588331818581e-03 1.849227398633956909e-01 5.652831867337226868e-02 4.092829674482345581e-02
3.137000000000000000e+03 2.585262298583984375e+01 -9.211770296096801758e-01 1.691761612892150879e-02 1.593092381954193115e-01 5.286805331707000732e-02 3.117216564714908600e-02
3.138000000000000000e+03 2.544901084899902344e+01 -1.070123076438903809e+00 -6.072731222957372665e-03 4.198739305138587952e-02 1.077439915388822556e-02 -1.925859134644269943e-03
3.139000000000000000e+03 2.579433822631835938e+01 -6.061848998069763184e-01 4.822936374694108963e-03 1.060925722122192383e-01 3.327465429902076721e-02 1.052589155733585358e-02
3.140000000000000000e+03 2.561600303649902344e+01 -7.336121201515197754e-01 -1.570140011608600616e-02 7.839018106460571289e-02 1.880663447082042694e-02 -1.429349835962057114e-02
3.141000000000000000e+03 2.648126029968261719e+01 -2.723199844360351562e+00 -8.354845046997070312e-01 -2.852083742618560791e-01 -3.362078666687011719e-01 -6.135110855102539062e-01
3.142000000000000000e+03 2.652520370483398438e+01 -2.927272319793701172e+00 -1.187474012374877930e+00 -2.065166532993316650e-01 -4.181971848011016846e-01 -6.623422503471374512e-01
3.143000000000000000e+03 2.657476043701171875e+01 -3.119835853576660156e+00 -1.499819755554199219e+00 -5.876220017671585083e-02 -4.675745666027069092e-01 -5.878391861915588379e-01
3.144000000000000000e+03 2.679064178466796875e+01 -3.476740121841430664e+00 -1.711634993553161621e+00 1.704780608415603638e-01 -4.623470604419708252e-01 -2.435389757156372070e-01
3.145000000000000000e+03 2.683884429931640625e+01 -3.304121971130371094e+00 -1.591504931449890137e+00 1.275763660669326782e-01 -4.391785562038421631e-01 -3.627060055732727051e-01
3.146000000000000000e+03 2.668430900573730469e+01 -3.241981744766235352e+00 -1.643181681632995605e+00 4.740679264068603516e-02 -4.787324666976928711e-01 -4.883863031864166260e-01
3.147000000000000000e+03 2.695839691162109375e+01 -2.744846820831298828e+00 -9.575718045234680176e-01 -2.349256724119186401e-02 -2.943193018436431885e-01 -4.818533658981323242e-01
3.148000000000000000e+03 2.673330307006835938e+01 -2.512325048446655273e+00 -6.961982846260070801e-01 -1.927284598350524902e-01 -2.666780054569244385e-01 -5.082081556320190430e-01
3.149000000000000000e+03 2.712307167053222656e+01 -1.991014599800109863e+00 -4.188139438629150391e-01 -1.065847203135490417e-01 -1.576195955276489258e-01 -3.337264060974121094e-01
3.150000000000000000e+03 2.598661231994628906e+01 -4.334656238555908203e+00 -1.582351088523864746e+00 -9.642899036407470703e-01 -7.639923095703125000e-01 6.216197013854980469e-01
3.151000000000000000e+03 2.444658660888671875e+01 -2.239191055297851562e+00 -3.525221645832061768e-01 -6.297801733016967773e-01 -2.946906983852386475e-01 5.254356265068054199e-01
3.152000000000000000e+03 2.441086387634277344e+01 -2.816246747970581055e+00 -1.031529426574707031e+00 -7.202387452125549316e-01 -5.255304574966430664e-01 9.822912216186523438e-01
3.153000000000000000e+03 2.428391075134277344e+01 -2.696747064590454102e+00 -9.162174463272094727e-01 -6.461840271949768066e-01 -4.687204658985137939e-01 9.063718318939208984e-01
3.154000000000000000e+03 2.416332054138183594e+01 -2.355244874954223633e+00 -6.114308834075927734e-01 -5.600464344024658203e-01 -3.514431715011596680e-01 6.821642518043518066e-01
3.155000000000000000e+03 2.453759765625000000e+01 -2.031391143798828125e+00 -1.968146562576293945e-01 -5.538122653961181641e-01 -2.251880764961242676e-01 3.796878457069396973e-01
3.156000000000000000e+03 2.430325889587402344e+01 -1.969303607940673828e+00 -3.110181987285614014e-01 -4.866203367710113525e-01 -2.392915636301040649e-01 4.425620436668395996e-01
3.157000000000000000e+03 2.448370933532714844e+01 -1.384961485862731934e+00 -1.191128194332122803e-01 -3.125789761543273926e-01 -1.295075416564941406e-01 1.852805912494659424e-01
3.158000000000000000e+03 2.462661743164062500e+01 -8.108735680580139160e-01 -6.691823899745941162e-02 -1.689549237489700317e-01 -7.076194882392883301e-02 6.165204197168350220e-02
3.159000000000000000e+03 2.467247772216796875e+01 -6.210334897041320801e-01 -7.340057939291000366e-02 -1.168954595923423767e-01 -5.708881095051765442e-02 3.746522963047027588e-02
3.160000000000000000e+03 2.493980216979980469e+01 -5.360660552978515625e-01 -4.679174721240997314e-02 -7.492163777351379395e-02 -3.651401400566101074e-02 2.819682937115430832e-03
3.161000000000000000e+03 2.695671844482421875e+01 6.634216904640197754e-01 3.743930254131555557e-03 -4.282154608517885208e-03 -1.614672364667057991e-04 2.345579676330089569e-03
3.162000000000000000e+03 2.582448768615722656e+01 -4.409635066986083984e+00 -1.746053695678710938e+00 -1.163041114807128906e+00 -8.727284073829650879e-01 7.545491456985473633e-01
3.163000000000000000e+03 2.565153694152832031e+01 -4.548878192901611328e+00 -1.341239333152770996e+00 -1.043432474136352539e+00 -7.154015302658081055e-01 4.355500042438507080e-01
3.164000000000000000e+03 2.472431373596191406e+01 -4.305469512939453125e+00 -1.667270421981811523e+00 -1.175973176956176758e+00 -8.529731035232543945e-01 -2.711845338344573975e-01
3.165000000000000000e+03 2.468655014038085938e+01 -4.576406955718994141e+00 -1.427686452865600586e+00 -9.874010086059570312e-01 -7.245262265205383301e-01 -3.133580386638641357e-01
3.166000000000000000e+03 2.444955062866210938e+01 -4.173179149627685547e+00 -1.992620348930358887e+00 -6.055090427398681641e-01 -7.794388532638549805e-01 -2.078250944614410400e-01
3.167000000000000000e+03 2.460396575927734375e+01 -4.207048416137695312e+00 -2.201073646545410156e+00 -8.689108490943908691e-01 -9.209953546524047852e-01 -3.950058221817016602e-01
3.168000000000000000e+03 2.433459472656250000e+01 -3.992681503295898438e+00 -2.141123771667480469e+00 -3.826396465301513672e-01 -7.571290135383605957e-01 -7.278494536876678467e-02
3.169000000000000000e+03 2.417754745483398438e+01 -3.206251144409179688e+00 -1.751715064048767090e+00 -3.124567866325378418e-01 -6.192515492439270020e-01 8.190574049949645996e-01
3.170000000000000000e+03 2.692745018005371094e+01 -1.308214664459228516e+00 -1.754361242055892944e-01 -9.709939360618591309e-02 -8.176065236330032349e-02 -1.770341396331787109e-01
3.171000000000000000e+03 2.444330215454101562e+01 -2.535293340682983398e+00 -6.063945293426513672e-01 -7.398446798324584961e-01 -4.038717746734619141e-01 7.571200728416442871e-01
3.172000000000000000e+03 2.517751693725585938e+01 -1.753103017807006836e+00 -1.236857753247022629e-02 -1.425031125545501709e-01 -4.646150767803192139e-02 3.972055017948150635e-02
3.173000000000000000e+03 2.542115402221679688e+01 4.868363589048385620e-02 -2.486328780651092529e-02 1.121751964092254639e-02 -4.093730822205543518e-03 -4.219957068562507629e-02
3.174000000000000000e+03 2.502674674987792969e+01 -2.007492303848266602e+00 -2.502170391380786896e-02 -3.505372107028961182e-01 -1.126676797866821289e-01 1.152735650539398193e-01
3.175000000000000000e+03 2.478247451782226562e+01 -2.050447702407836914e+00 -1.065737530589103699e-01 -5.240814089775085449e-01 -1.891965568065643311e-01 2.752321362495422363e-01
3.176000000000000000e+03 2.458742332458496094e+01 -1.824967384338378906e+00 -1.323307305574417114e-01 -4.566598534584045410e-01 -1.766971796751022339e-01 2.712129652500152588e-01
3.177000000000000000e+03 2.482952690124511719e+01 -1.252909302711486816e+00 -5.393402278423309326e-02 -2.046950757503509521e-01 -7.758872956037521362e-02 7.289521396160125732e-02
3.178000000000000000e+03 2.499598503112792969e+01 -1.575972437858581543e+00 -3.145018965005874634e-02 -2.105458974838256836e-01 -7.259882986545562744e-02 7.978065311908721924e-02
3.179000000000000000e+03 2.511672973632812500e+01 -8.724522590637207031e-01 -2.905129641294479370e-02 -6.357555836439132690e-02 -2.778805606067180634e-02 -6.474594702012836933e-04
3.180000000000000000e+03 2.568060684204101562e+01 -3.785998821258544922e-01 -2.518626116216182709e-02 6.535286456346511841e-02 1.204998046159744263e-02 -2.682778239250183105e-02
3.181000000000000000e+03 2.485703849792480469e+01 -1.716162562370300293e+00 -5.632050707936286926e-02 -3.217111229896545410e-01 -1.134094893932342529e-01 1.365665346384048462e-01
3.182000000000000000e+03 2.672568511962890625e+01 -2.717700004577636719e+00 -9.039329886436462402e-01 -1.491216272115707397e-01 -3.159163892269134521e-01 -5.518087148666381836e-01
3.183000000000000000e+03 2.506285476684570312e+01 -6.827530264854431152e-01 -3.972608223557472229e-02 -5.160263925790786743e-02 -2.739861607551574707e-02 -2.722775097936391830e-03
3.184000000000000000e+03 2.486346244812011719e+01 -8.631022572517395020e-01 -5.436992645263671875e-02 -1.232079043984413147e-01 -5.327335000038146973e-02 3.126979619264602661e-02
3.185000000000000000e+03 2.535615539550781250e+01 -1.627015113830566406e+00 -3.936703782528638840e-03 -4.114635288715362549e-03 -2.415401628240942955e-03 1.551656890660524368e-02
3.186000000000000000e+03 3.470178604125976562e+01 -2.625477313995361328e-02 5.084820836782455444e-02 8.040564134716987610e-03 1.766663044691085815e-02 2.107126265764236450e-02
3.187000000000000000e+03 3.480463027954101562e+01 -7.595628499984741211e-01 1.902129588415846229e-04 1.720502227544784546e-02 5.218570586293935776e-03 6.177772209048271179e-02
3.188000000000000000e+03 3.355125427246093750e+01 4.824572801589965820e-01 2.506250166334211826e-05 -1.695256651146337390e-04 -4.333894685260020196e-05 -3.205595930921845138e-05
3.189000000000000000e+03 3.286275482177734375e+01 1.366154551506042480e+00 -7.413998537231236696e-05 1.477211189921945333e-04 2.207434044976253062e-05 -2.700732693483587354e-05
3.190000000000000000e+03 3.228193283081054688e+01 9.034321308135986328e-01 -8.129071829898748547e-06 -7.132291648304089904e-05 -2.383559694862924516e-05 3.006022950557962758e-07
3.191000000000000000e+03 3.287930679321289062e+01 4.690015316009521484e-01 2.828478136507328600e-05 1.793398259906098247e-04 6.228738493518903852e-05 1.972558493434917182e-06
3.192000000000000000e+03 3.326515960693359375e+01 8.809211850166320801e-01 -2.308964940311852843e-05 -1.897568108688574284e-05 -1.261959914700128138e-05 6.150712579255923629e-05
3.193000000000000000e+03 3.216930389404296875e+01 -3.035623431205749512e-01 -1.942291408777236938e-01 -3.431742638349533081e-02 -6.856396794319152832e-02 8.164805918931961060e-02
3.194000000000000000e+03 3.272078323364257812e+01 -9.904289841651916504e-01 -3.285669088363647461e-01 -6.498642265796661377e-02 -1.180659979581832886e-01 1.333173513412475586e-01
3.195000000000000000e+03 3.127615165710449219e+01 -3.863770067691802979e-01 -3.288301825523376465e-01 4.623938724398612976e-02 -8.477724343538284302e-02 1.314924843609333038e-02
3.196000000000000000e+03 3.328374481201171875e+01 -6.707072257995605469e-01 -1.975029408931732178e-01 -2.062956243753433228e-02 -6.543975323438644409e-02 2.020358480513095856e-02
3.197000000000000000e+03 3.391827011108398438e+01 -9.151379764080047607e-02 5.873424187302589417e-02 2.202020958065986633e-02 2.422633580863475800e-02 -1.259569544345140457e-02
3.198000000000000000e+03 3.331254196166992188e+01 -1.001184135675430298e-01 3.015409968793392181e-02 -6.262417137622833252e-02 -9.741021320223808289e-03 4.295781254768371582e-02
3.199000000000000000e+03 3.283485412597656250e+01 -1.750577986240386963e-01 -2.628552319947630167e-04 5.683657154440879822e-02 1.697211526334285736e-02 9.864139137789607048e-04
3.200000000000000000e+03 3.182851982116699219e+01 -1.073151588439941406e+00 -2.911741137504577637e-01 5.023168772459030151e-02 -7.228273153305053711e-02 9.548480808734893799e-02
3.201000000000000000e+03 3.394290924072265625e+01 -8.329172134399414062e-01 -1.422815620899200439e-01 2.399371750652790070e-02 -3.548635542392730713e-02 8.467053622007369995e-02
3.202000000000000000e+03 2.606805801391601562e+01 8.736732006072998047e-01 1.028158329427242279e-02 1.331656519323587418e-02 7.079444359987974167e-03 -1.508661173284053802e-02
3.203000000000000000e+03 2.541969490051269531e+01 8.198022246360778809e-01 1.714406535029411316e-04 1.078253728337585926e-03 3.749083261936903000e-04 -3.734015673398971558e-02
3.204000000000000000e+03 2.557369804382324219e+01 6.554924845695495605e-01 -8.290559053421020508e-03 1.102591771632432938e-02 8.206076454371213913e-04 -2.832180261611938477e-02
3.205000000000000000e+03 2.331616210937500000e+01 9.553393721580505371e-01 3.745613247156143188e-02 -6.464206613600254059e-03 9.297578595578670502e-03 3.696009889245033264e-02
3.206000000000000000e+03 2.423918342590332031e+01 1.199202895164489746e+00 5.702001228928565979e-02 -1.054024975746870041e-02 1.394392922520637512e-02 4.139939323067665100e-03
3.207000000000000000e+03 2.514934921264648438e+01 1.402895808219909668e+00 3.091920353472232819e-02 -2.064256696030497551e-03 8.656484074890613556e-03 -1.042757928371429443e-02
3.208000000000000000e+03 2.440349769592285156e+01 4.681853353977203369e-01 -1.314333267509937286e-02 -4.562354832887649536e-02 -1.763006485998630524e-02 -9.879440069198608398e-03
3.209000000000000000e+03 2.245861434936523438e+01 6.854391098022460938e-01 -9.954313188791275024e-02 1.600179076194763184e-02 -2.506240084767341614e-02 5.652298033237457275e-02
3.210000000000000000e+03 2.263665962219238281e+01 -3.625113889575004578e-02 -2.948026359081268311e-01 1.334303087787702680e-04 -8.840075880289077759e-02 1.610218286514282227e-01
3.211000000000000000e+03 2.348734283447265625e+01 2.289854735136032104e-01 -1.135350018739700317e-01 -4.905321076512336731e-02 -4.877646267414093018e-02 7.430293411016464233e-02
3.212000000000000000e+03 2.613602447509765625e+01 1.302997589111328125e+00 7.588247302919626236e-03 9.100909344851970673e-03 5.006746854633092880e-03 -9.586735628545284271e-03
3.213000000000000000e+03 2.682167434692382812e+01 1.106394290924072266e+00 -2.248166501522064209e-02 -5.113077349960803986e-03 -8.278422057628631592e-03 1.097206864506006241e-02
3.214000000000000000e+03 2.538566780090332031e+01 -3.117314100265502930e+00 1.396322101354598999e-01 1.197541713714599609e+00 4.011521935462951660e-01 -1.186720877885818481e-01
3.215000000000000000e+03 2.541963958740234375e+01 -2.921196222305297852e+00 -4.481511935591697693e-02 2.245443165302276611e-01 5.391876026988029480e-02 1.369048207998275757e-01
3.216000000000000000e+03 2.545361137390136719e+01 -2.725078582763671875e+00 4.855301603674888611e-02 3.008648455142974854e-01 1.048253551125526428e-01 4.456342011690139771e-02
3.217000000000000000e+03 2.548758316040039062e+01 -2.528960704803466797e+00 -2.625796245411038399e-03 2.515224218368530273e-01 7.466898858547210693e-02 7.081657648086547852e-02
3.218000000000000000e+03 2.532734107971191406e+01 -3.113023996353149414e+00 2.605890035629272461e-01 -6.826618909835815430e-01 -1.266218721866607666e-01 -2.825466096401214600e-01
3.219000000000000000e+03 2.532243156433105469e+01 -2.914046287536621094e+00 7.217486388981342316e-03 -1.413277834653854370e-01 -4.023309051990509033e-02 -1.075737457722425461e-02
3.220000000000000000e+03 2.531752014160156250e+01 -2.715068578720092773e+00 -1.657664659433066845e-03 -2.717429101467132568e-01 -8.202017098665237427e-02 8.019319921731948853e-02
3.221000000000000000e+03 2.531260871887207031e+01 -2.516090631484985352e+00 2.092022635042667389e-02 -1.466479748487472534e-01 -3.771832212805747986e-02 3.064449504017829895e-02
3.222000000000000000e+03 2.526929855346679688e+01 -3.120186328887939453e+00 1.419488936662673950e-01 -1.716362595558166504e+00 -4.723241031169891357e-01 3.004026412963867188e-01
3.223000000000000000e+03 2.522569274902343750e+01 -2.925983428955078125e+00 8.962624520063400269e-02 -9.731724262237548828e-01 -2.650638520717620850e-01 1.485060304403305054e-01
3.224000000000000000e+03 2.518208885192871094e+01 -2.731780290603637695e+00 -3.060275502502918243e-02 -6.526215076446533203e-01 -2.049672752618789673e-01 1.759129315614700317e-01
3.225000000000000000e+03 2.513848114013671875e+01 -2.537577390670776367e+00 -1.407360471785068512e-02 -5.813966393470764160e-01 -1.786410808563232422e-01 1.887289583683013916e-01
3.226000000000000000e+03 2.521376609802246094e+01 -3.138525962829589844e+00 -1.936696171760559082e-01 -2.317825794219970703e+00 -7.534486055374145508e-01 9.211511015892028809e-01
3.227000000000000000e+03 2.513313865661621094e+01 -2.956549406051635742e+00 -1.207700073719024658e-01 -1.433483600616455078e+00 -4.662760794162750244e-01 5.835123658180236816e-01
3.228000000000000000e+03 2.505251121520996094e+01 -2.774572849273681641e+00 -1.015687137842178345e-01 -1.089990258216857910e+00 -3.574677109718322754e-01 4.552086293697357178e-01
3.229000000000000000e+03 2.497188377380371094e+01 -2.592596292495727539e+00 -1.311813741922378540e-01 -8.510254025459289551e-01 -2.946620285511016846e-01 3.988850414752960205e-01
3.230000000000000000e+03 2.516287422180175781e+01 -3.167339324951171875e+00 -8.657888174057006836e-01 -2.453933000564575195e+00 -9.959165453910827637e-01 1.541299939155578613e+00
3.231000000000000000e+03 2.504831886291503906e+01 -3.004571676254272461e+00 -4.910242259502410889e-01 -1.663493275642395020e+00 -6.463552713394165039e-01 1.023372411727905273e+00
3.232000000000000000e+03 2.493376350402832031e+01 -2.841804027557373047e+00 -4.150281548500061035e-01 -1.262216925621032715e+00 -5.031735301017761230e-01 8.003998994827270508e-01
3.233000000000000000e+03 2.481920814514160156e+01 -2.679036378860473633e+00 -3.360567986965179443e-01 -1.028264045715332031e+00 -4.092962443828582764e-01 6.962080597877502441e-01
3.234000000000000000e+03 2.511857795715332031e+01 -3.205520868301391602e+00 -1.658647775650024414e+00 -2.294841051101684570e+00 -1.186046600341796875e+00 1.981057286262512207e+00
3.235000000000000000e+03 2.497448921203613281e+01 -3.068207502365112305e+00 -1.126704931259155273e+00 -1.617190241813659668e+00 -8.231685161590576172e-01 1.368298411369323730e+00
3.236000000000000000e+03 2.483040046691894531e+01 -2.930894136428833008e+00 -8.272283673286437988e-01 -1.262130379676818848e+00 -6.268076300621032715e-01 1.107437014579772949e+00
3.237000000000000000e+03 2.468631362915039062e+01 -2.793581008911132812e+00 -7.294462323188781738e-01 -1.017514228820800781e+00 -5.240881443023681641e-01 9.405634403228759766e-01
3.238000000000000000e+03 2.508257102966308594e+01 -3.251605510711669922e+00 -2.652696132659912109e+00 -1.951819181442260742e+00 -1.381354570388793945e+00 2.125714540481567383e+00
3.239000000000000000e+03 2.491448020935058594e+01 -3.145015239715576172e+00 -1.766237616539001465e+00 -1.404425144195556641e+00 -9.511988162994384766e-01 1.575530648231506348e+00
3.240000000000000000e+03 2.474638748168945312e+01 -3.038425207138061523e+00 -1.446708440780639648e+00 -1.107278466224670410e+00 -7.661960721015930176e-01 1.254931569099426270e+00
3.241000000000000000e+03 2.457829666137695312e+01 -2.931834936141967773e+00 -1.159471631050109863e+00 -8.790072202682495117e-01 -6.115436553955078125e-01 1.104171752929687500e+00
3.242000000000000000e+03 2.505624008178710938e+01 -3.303825139999389648e+00 -3.528386116027832031e+00 -1.529374122619628906e+00 -1.517328023910522461e+00 2.019768476486206055e+00
3.243000000000000000e+03 2.487059402465820312e+01 -3.232047796249389648e+00 -2.494058847427368164e+00 -1.155475139617919922e+00 -1.094860196113586426e+00 1.526629090309143066e+00
3.244000000000000000e+03 2.468494987487792969e+01 -3.160270690917968750e+00 -1.996373891830444336e+00 -8.537158370018005371e-01 -8.550269007682800293e-01 1.293649554252624512e+00
3.245000000000000000e+03 2.449930381774902344e+01 -3.088493347167968750e+00 -1.753510117530822754e+00 -7.209960222244262695e-01 -7.423518300056457520e-01 1.092585802078247070e+00
3.246000000000000000e+03 2.504059410095214844e+01 -3.360175609588623047e+00 -4.288584709167480469e+00 -1.228154420852661133e+00 -1.655021667480468750e+00 1.625526189804077148e+00
3.247000000000000000e+03 2.484451675415039062e+01 -3.325965642929077148e+00 -3.086314201354980469e+00 -9.082297086715698242e-01 -1.198363184928894043e+00 1.325548291206359863e+00
3.248000000000000000e+03 2.464844131469726562e+01 -3.291755437850952148e+00 -2.536704540252685547e+00 -6.482762098312377930e-01 -9.554942250251770020e-01 1.119883060455322266e+00
3.249000000000000000e+03 2.445236396789550781e+01 -3.257545471191406250e+00 -2.173948049545288086e+00 -5.243638753890991211e-01 -8.094936013221740723e-01 9.775429368019104004e-01
3.250000000000000000e+03 2.503623390197753906e+01 -3.418495416641235352e+00 -4.771031856536865234e+00 -1.118779540061950684e+00 -1.766943454742431641e+00 1.112930893898010254e+00
3.251000000000000000e+03 2.483724975585937500e+01 -3.423165082931518555e+00 -3.551522731781005859e+00 -7.516185045242309570e-01 -1.290942311286926270e+00 9.426486492156982422e-01
3.252000000000000000e+03 2.463826560974121094e+01 -3.427834749221801758e+00 -2.911156177520751953e+00 -5.586730241775512695e-01 -1.040948748588562012e+00 8.474293947219848633e-01
3.253000000000000000e+03 2.443928337097167969e+01 -3.432504415512084961e+00 -2.503661394119262695e+00 -3.215734064579010010e-01 -8.475704193115234375e-01 6.832224130630493164e-01
3.254000000000000000e+03 2.504332542419433594e+01 -3.476546287536621094e+00 -4.976988315582275391e+00 -1.232287287712097168e+00 -1.862782716751098633e+00 5.020840167999267578e-01
3.255000000000000000e+03 2.484906768798828125e+01 -3.519916534423828125e+00 -3.793236494064331055e+00 -7.606794834136962891e-01 -1.366174817085266113e+00 5.563399195671081543e-01
3.256000000000000000e+03 2.465481376647949219e+01 -3.563286781311035156e+00 -3.128464937210083008e+00 -5.507336258888244629e-01 -1.103759527206420898e+00 4.300238192081451416e-01
3.257000000000000000e+03 2.446055793762207031e+01 -3.606657028198242188e+00 -2.756071805953979492e+00 -3.302806019783020020e-01 -9.259057641029357910e-01 4.356625974178314209e-01
3.258000000000000000e+03 2.506159782409667969e+01 -3.532100915908813477e+00 -4.943417549133300781e+00 -1.480933427810668945e+00 -1.927305221557617188e+00 1.611843146383762360e-02
3.259000000000000000e+03 2.487952232360839844e+01 -3.612507581710815430e+00 -3.799903631210327148e+00 -1.002441287040710449e+00 -1.440703511238098145e+00 1.197076588869094849e-01
3.260000000000000000e+03 2.469744873046875000e+01 -3.692914247512817383e+00 -3.185090303421020508e+00 -6.071354746818542480e-01 -1.137667775154113770e+00 1.143481209874153137e-01
3.261000000000000000e+03 2.451537513732910156e+01 -3.773320913314819336e+00 -2.780697345733642578e+00 -5.504542589187622070e-01 -9.993454813957214355e-01 1.166960820555686951e-01
3.262000000000000000e+03 2.509034919738769531e+01 -3.583027601242065430e+00 -4.699425220489501953e+00 -1.935596227645874023e+00 -1.990506410598754883e+00 -3.342854380607604980e-01
3.263000000000000000e+03 2.492744255065917969e+01 -3.697385787963867188e+00 -3.679164409637451172e+00 -1.281992673873901367e+00 -1.488347053527832031e+00 -2.188510596752166748e-01
3.264000000000000000e+03 2.476453590393066406e+01 -3.811743736267089844e+00 -3.016088008880615234e+00 -9.452427029609680176e-01 -1.188399195671081543e+00 -1.532197743654251099e-01
3.265000000000000000e+03 2.460162925720214844e+01 -3.926101446151733398e+00 -2.525985479354858398e+00 -6.847097873687744141e-01 -9.632085561752319336e-01 -9.828361868858337402e-02
3.266000000000000000e+03 2.512847709655761719e+01 -3.627372503280639648e+00 -4.413545131683349609e+00 -2.473963499069213867e+00 -2.066252708435058594e+00 -4.848111867904663086e-01
3.267000000000000000e+03 2.499098777770996094e+01 -3.771293878555297852e+00 -3.370565652847290039e+00 -1.630861639976501465e+00 -1.500428199768066406e+00 -4.182149469852447510e-01
3.268000000000000000e+03 2.485350036621093750e+01 -3.915215253829956055e+00 -2.804051160812377930e+00 -1.327658295631408691e+00 -1.239512801170349121e+00 -3.152134716510772705e-01
3.269000000000000000e+03 2.471601104736328125e+01 -4.059136390686035156e+00 -2.153946161270141602e+00 -1.046399354934692383e+00 -9.601036906242370605e-01 -3.316014707088470459e-01
3.270000000000000000e+03 2.517451667785644531e+01 -3.663434028625488281e+00 -3.949298858642578125e+00 -2.842967510223388672e+00 -2.037679910659790039e+00 -5.219070315361022949e-01
3.271000000000000000e+03 2.506772422790527344e+01 -3.831396341323852539e+00 -3.180680751800537109e+00 -2.114054203033447266e+00 -1.588420510292053223e+00 -3.722268640995025635e-01
3.272000000000000000e+03 2.496092987060546875e+01 -3.999358654022216797e+00 -2.399733781814575195e+00 -1.590411067008972168e+00 -1.197043418884277344e+00 -4.111981689929962158e-01
3.273000000000000000e+03 2.485413551330566406e+01 -4.167320728302001953e+00 -2.130915880203247070e+00 -1.431044697761535645e+00 -1.068588256835937500e+00 -4.175939559936523438e-01
3.274000000000000000e+03 2.522670555114746094e+01 -3.689828395843505859e+00 -3.831481933593750000e+00 -3.245017766952514648e+00 -2.122949838638305664e+00 -3.265981972217559814e-01
3.275000000000000000e+03 2.515470314025878906e+01 -3.875386953353881836e+00 -2.726756811141967773e+00 -2.429292201995849609e+00 -1.546814680099487305e+00 -2.813332676887512207e-01
3.276000000000000000e+03 2.508270072937011719e+01 -4.060945510864257812e+00 -2.354588747024536133e+00 -1.931199669837951660e+00 -1.285736560821533203e+00 -2.377695292234420776e-01
3.277000000000000000e+03 2.501069831848144531e+01 -4.246503829956054688e+00 -1.789169549942016602e+00 -1.466491699218750000e+00 -9.766983985900878906e-01 -3.062227070331573486e-01
3.278000000000000000e+03 2.528303718566894531e+01 -3.705542802810668945e+00 -3.551572322845458984e+00 -3.456879615783691406e+00 -2.102535486221313477e+00 -1.836848258972167969e-02
3.279000000000000000e+03 2.524858856201171875e+01 -3.901577711105346680e+00 -2.640550374984741211e+00 -2.639426231384277344e+00 -1.583992958068847656e+00 -6.590413302183151245e-02
3.280000000000000000e+03 2.521413993835449219e+01 -4.097612380981445312e+00 -2.091075658798217773e+00 -2.150181531906127930e+00 -1.272377133369445801e+00 2.510034479200839996e-02
3.281000000000000000e+03 2.517969131469726562e+01 -4.293646812438964844e+00 -1.766212224960327148e+00 -1.701921820640563965e+00 -1.040440201759338379e+00 -6.901628803461790085e-03
3.282000000000000000e+03 2.534135055541992188e+01 -3.709974527359008789e+00 -3.492858886718750000e+00 -3.512516498565673828e+00 -2.101612567901611328e+00 2.755786478519439697e-01
3.283000000000000000e+03 2.534577751159667969e+01 -3.908963918685913086e+00 -2.617557287216186523e+00 -2.665191650390625000e+00 -1.584824562072753906e+00 2.803403437137603760e-01
3.284000000000000000e+03 2.535020637512207031e+01 -4.107953071594238281e+00 -1.992331743240356445e+00 -2.186494827270507812e+00 -1.253647923469543457e+00 2.496961802244186401e-01
3.285000000000000000e+03 2.535463333129882812e+01 -4.306942462921142578e+00 -1.815888047218322754e+00 -1.982151269912719727e+00 -1.139411807060241699e+00 2.490550279617309570e-01
3.286000000000000000e+03 2.539940834045410156e+01 -3.702953577041625977e+00 -3.597088336944580078e+00 -3.375217676162719727e+00 -2.091691732406616211e+00 6.190553307533264160e-01
3.287000000000000000e+03 2.544254302978515625e+01 -3.897262096405029297e+00 -2.697378396987915039e+00 -2.533130884170532227e+00 -1.569152712821960449e+00 5.664733052253723145e-01
3.288000000000000000e+03 2.548567581176757812e+01 -4.091570854187011719e+00 -2.121655702590942383e+00 -2.059381246566772461e+00 -1.254311084747314453e+00 4.979934990406036377e-01
3.289000000000000000e+03 2.552881050109863281e+01 -4.285879135131835938e+00 -1.849383473396301270e+00 -1.668292999267578125e+00 -1.055302977561950684e+00 4.212075769901275635e-01
3.290000000000000000e+03 2.545498466491699219e+01 -3.684749364852905273e+00 -3.868835449218750000e+00 -3.100157976150512695e+00 -2.090698003768920898e+00 8.562751412391662598e-01
3.291000000000000000e+03 2.553516960144042969e+01 -3.866921663284301758e+00 -2.872529983520507812e+00 -2.213481426239013672e+00 -1.525803446769714355e+00 8.170730471611022949e-01
3.292000000000000000e+03 2.561535453796386719e+01 -4.049094200134277344e+00 -2.412863254547119141e+00 -1.754965901374816895e+00 -1.250348806381225586e+00 6.396939754486083984e-01
3.293000000000000000e+03 2.569553947448730469e+01 -4.231266498565673828e+00 -1.918755888938903809e+00 -1.245192170143127441e+00 -9.491844177246093750e-01 7.243340611457824707e-01
3.294000000000000000e+03 2.550594711303710938e+01 -3.656060218811035156e+00 -4.168276309967041016e+00 -2.575697183609008789e+00 -2.023191928863525391e+00 1.050063014030456543e+00
3.295000000000000000e+03 2.562010574340820312e+01 -3.819106578826904297e+00 -3.216001510620117188e+00 -1.855804324150085449e+00 -1.521541833877563477e+00 8.192860484123229980e-01
3.296000000000000000e+03 2.573426437377929688e+01 -3.982152938842773438e+00 -2.635059833526611328e+00 -1.277507543563842773e+00 -1.173770189285278320e+00 8.163154125213623047e-01
3.297000000000000000e+03 2.584842300415039062e+01 -4.145199298858642578e+00 -2.199041366577148438e+00 -1.097108364105224609e+00 -9.888449311256408691e-01 7.483435273170471191e-01
3.298000000000000000e+03 2.555033874511718750e+01 -3.617987155914306641e+00 -4.511421203613281250e+00 -2.119897603988647461e+00 -1.989395618438720703e+00 9.827863574028015137e-01
3.299000000000000000e+03 2.569409179687500000e+01 -3.755651473999023438e+00 -3.576837062835693359e+00 -1.294264793395996094e+00 -1.461330533027648926e+00 7.595775127410888672e-01
3.300000000000000000e+03 2.583784484863281250e+01 -3.893315792083740234e+00 -2.835264682769775391e+00 -9.854786396026611328e-01 -1.146222949028015137e+00 7.030149102210998535e-01
3.301000000000000000e+03 2.598159790039062500e+01 -4.030980110168457031e+00 -2.459288835525512695e+00 -6.774573326110839844e-01 -9.410238862037658691e-01 6.786475181579589844e-01
3.302000000000000000e+03 2.558645629882812500e+01 -3.571990966796875000e+00 -4.934382915496826172e+00 -1.527466893196105957e+00 -1.938554883003234863e+00 6.962114572525024414e-01
3.303000000000000000e+03 2.575428581237792969e+01 -3.678991079330444336e+00 -3.735342979431152344e+00 -8.979248404502868652e-01 -1.389980316162109375e+00 5.405308008193969727e-01
3.304000000000000000e+03 2.592211723327636719e+01 -3.785990953445434570e+00 -3.130617618560791016e+00 -5.947040915489196777e-01 -1.117596507072448730e+00 4.126871526241302490e-01
3.305000000000000000e+03 2.608994865417480469e+01 -3.892991065979003906e+00 -2.513098955154418945e+00 -3.584531247615814209e-01 -8.614656329154968262e-01 4.601472914218902588e-01
3.306000000000000000e+03 2.561291313171386719e+01 -3.519836425781250000e+00 -5.077076911926269531e+00 -1.033823370933532715e+00 -1.833270072937011719e+00 2.836973965167999268e-01
3.307000000000000000e+03 2.579838371276855469e+01 -3.592066764831542969e+00 -3.869958877563476562e+00 -6.006250977516174316e-01 -1.341175198554992676e+00 8.438031375408172607e-02
3.308000000000000000e+03 2.598385238647460938e+01 -3.664297103881835938e+00 -3.144402027130126953e+00 -2.953190207481384277e-01 -1.031916260719299316e+00 1.263282448053359985e-01
3.309000000000000000e+03 2.616932296752929688e+01 -3.736527442932128906e+00 -2.737213373184204102e+00 -1.727727800607681274e-01 -8.729958534240722656e-01 8.105617761611938477e-02
3.310000000000000000e+03 2.562869644165039062e+01 -3.463524818420410156e+00 -5.069136142730712891e+00 -7.600237131118774414e-01 -1.748747944831848145e+00 -3.539780974388122559e-01
3.311000000000000000e+03 2.582468986511230469e+01 -3.498214006423950195e+00 -3.719153881072998047e+00 -4.180912673473358154e-01 -1.241173505783081055e+00 -3.504037559032440186e-01
3.312000000000000000e+03 2.602068138122558594e+01 -3.532902956008911133e+00 -3.048071622848510742e+00 -1.952295750379562378e-01 -9.729903936386108398e-01 -3.111779987812042236e-01
3.313000000000000000e+03 2.621667289733886719e+01 -3.567592144012451172e+00 -2.618204116821289062e+00 -8.953554183244705200e-02 -8.123219013214111328e-01 -1.904855072498321533e-01
3.314000000000000000e+03 2.563319969177246094e+01 -3.405216455459594727e+00 -4.717716217041015625e+00 -7.066882252693176270e-01 -1.627321362495422363e+00 -9.698965549468994141e-01
3.315000000000000000e+03 2.583219528198242188e+01 -3.401033639907836914e+00 -3.369315385818481445e+00 -4.238625466823577881e-01 -1.137953400611877441e+00 -8.403018712997436523e-01
3.316000000000000000e+03 2.603119087219238281e+01 -3.396850585937500000e+00 -2.725106716156005859e+00 -2.520297169685363770e-01 -8.931409716606140137e-01 -6.390587687492370605e-01
3.317000000000000000e+03 2.623018455505371094e+01 -3.392667531967163086e+00 -2.273804664611816406e+00 -1.052645072340965271e-01 -7.137207388877868652e-01 -5.848111510276794434e-01
3.318000000000000000e+03 2.562625122070312500e+01 -3.347149133682250977e+00 -4.044046401977539062e+00 -8.792614936828613281e-01 -1.476992487907409668e+00 -1.558907866477966309e+00
3.319000000000000000e+03 2.582061195373535156e+01 -3.304254293441772461e+00 -2.806597232818603516e+00 -6.010599732398986816e-01 -1.022297143936157227e+00 -1.144663929939270020e+00
3.320000000000000000e+03 2.601497459411621094e+01 -3.261359691619873047e+00 -2.208590745925903320e+00 -4.084352552890777588e-01 -7.851078510284423828e-01 -9.560975432395935059e-01
3.321000000000000000e+03 2.620933532714843750e+01 -3.218465089797973633e+00 -1.908858180046081543e+00 -2.274324446916580200e-01 -6.408872008323669434e-01 -7.774484753608703613e-01
3.322000000000000000e+03 2.560811424255371094e+01 -3.291550159454345703e+00 -3.141135931015014648e+00 -1.208077669143676758e+00 -1.304764032363891602e+00 -1.854920387268066406e+00
3.323000000000000000e+03 2.579038619995117188e+01 -3.211589813232421875e+00 -2.056613445281982422e+00 -8.781777024269104004e-01 -8.804373145103454590e-01 -1.334080696105957031e+00
3.324000000000000000e+03 2.597265625000000000e+01 -3.131629228591918945e+00 -1.644712567329406738e+00 -6.013472080230712891e-01 -6.738179326057434082e-01 -1.028186440467834473e+00
3.325000000000000000e+03 2.615492630004882812e+01 -3.051668882369995117e+00 -1.387009382247924805e+00 -4.404749274253845215e-01 -5.482452511787414551e-01 -8.682091236114501953e-01
3.326000000000000000e+03 2.557948875427246094e+01 -3.240553617477416992e+00 -2.032222986221313477e+00 -1.643894314765930176e+00 -1.102835178375244141e+00 -1.883410453796386719e+00
3.327000000000000000e+03 2.574267387390136719e+01 -3.126595258712768555e+00 -1.307523131370544434e+00 -1.065900921821594238e+00 -7.120272517204284668e-01 -1.229223847389221191e+00
3.328000000000000000e+03 2.590586090087890625e+01 -3.012637138366699219e+00 -1.038414239883422852e+00 -8.239711523056030273e-01 -5.587155818939208984e-01 -9.570293426513671875e-01
3.329000000000000000e+03 2.606904792785644531e+01 -2.898679018020629883e+00 -8.981431722640991211e-01 -5.765914320945739746e-01 -4.424203932285308838e-01 -7.821781635284423828e-01
3.330000000000000000e+03 2.554146957397460938e+01 -3.196115732192993164e+00 -9.718512296676635742e-01 -1.813787102699279785e+00 -8.356914520263671875e-01 -1.527154088020324707e+00
3.331000000000000000e+03 2.567930984497070312e+01 -3.052532196044921875e+00 -6.007431149482727051e-01 -1.213401794433593750e+00 -5.442434549331665039e-01 -9.201455712318420410e-01
3.332000000000000000e+03 2.581715202331542969e+01 -2.908948659896850586e+00 -5.710771679878234863e-01 -8.098809719085693359e-01 -4.142874181270599365e-01 -6.893791556358337402e-01
3.333000000000000000e+03 2.595499229431152344e+01 -2.765365362167358398e+00 -5.249361395835876465e-01 -6.707131862640380859e-01 -3.586947917938232422e-01 -6.269149780273437500e-01
3.334000000000000000e+03 2.549551773071289062e+01 -3.159941673278808594e+00 2.423467673361301422e-02 -1.770346641540527344e+00 -5.238335728645324707e-01 -8.173703551292419434e-01
3.335000000000000000e+03 2.560272407531738281e+01 -2.992242097854614258e+00 -2.293305546045303345e-01 -8.781893253326416016e-01 -3.322559595108032227e-01 -4.355904459953308105e-01
3.336000000000000000e+03 2.570993041992187500e+01 -2.824542760848999023e+00 -3.026097714900970459e-01 -7.549357414245605469e-01 -3.172636628150939941e-01 -4.684648215770721436e-01
3.337000000000000000e+03 2.581713676452636719e+01 -2.656843185424804688e+00 -1.853495091199874878e-01 -5.631265044212341309e-01 -2.245427966117858887e-01 -3.605123460292816162e-01
3.338000000000000000e+03 2.544339561462402344e+01 -3.133419275283813477e+00 3.908912837505340576e-01 -4.734326004981994629e-01 -2.476239949464797974e-02 8.079899102449417114e-02
3.339000000000000000e+03 2.551585388183593750e+01 -2.948038339614868164e+00 -2.196467965841293335e-01 -6.453956961631774902e-01 -2.595127522945404053e-01 -2.708899378776550293e-01
3.340000000000000000e+03 2.558831214904785156e+01 -2.762657403945922852e+00 -7.776232901960611343e-03 -4.525037407875061035e-01 -1.380839943885803223e-01 -1.651155650615692139e-01
3.341000000000000000e+03 2.566077041625976562e+01 -2.577276468276977539e+00 -7.676304876804351807e-02 -3.632461130619049072e-01 -1.320027410984039307e-01 -1.358312517404556274e-01
3.342000000000000000e+03 3.613071823120117188e+01 1.001799702644348145e+00 1.441930817236425355e-05 -5.336029789759777486e-05 -1.168229755421634763e-05 3.269063017796725035e-05
3.343000000000000000e+03 3.686145401000976562e+01 1.141550779342651367e+00 -1.944038376677781343e-05 9.718150977278128266e-05 2.332233816559892148e-05 -3.133451173198409379e-05
3.344000000000000000e+03 3.744598388671875000e+01 2.005382776260375977e+00 -3.697602369356900454e-05 8.177776180673390627e-05 1.344052088825264946e-05 -2.586071059340611100e-05
3.345000000000000000e+03 3.528780746459960938e+01 1.592470645904541016e+00 7.118254143279045820e-05 -1.385472955917066429e-06 2.093912189593538642e-05 9.425218740943819284e-05
3.346000000000000000e+03 3.600592422485351562e+01 1.731346011161804199e+00 -5.975768726784735918e-05 4.707648258772678673e-05 -3.804362449955078773e-06 -6.579585897270590067e-05
3.347000000000000000e+03 3.672535705566406250e+01 1.868933916091918945e+00 7.678942347411066294e-05 -7.913982699392363429e-05 -7.051207262520620134e-07 4.846822048421017826e-05
3.348000000000000000e+03 3.540129852294921875e+01 8.607612848281860352e-01 -1.790870555851142853e-05 -1.540453013149090111e-05 -9.993970707000698894e-06 -3.482954707578755915e-05
3.349000000000000000e+03 3.759338760375976562e+01 1.280162692070007324e+00 -9.830453109316295013e-07 -1.300534349866211414e-04 -3.931094397557899356e-05 4.072699812240898609e-05
3.350000000000000000e+03 3.626428222656250000e+01 2.291800230741500854e-01 9.356746822595596313e-02 4.235342203173786402e-04 2.819729968905448914e-02 1.951814629137516022e-02
3.351000000000000000e+03 3.700691604614257812e+01 3.713000714778900146e-01 8.913642168045043945e-02 -5.013019777834415436e-03 2.523702010512351990e-02 9.949632920324802399e-03
3.352000000000000000e+03 3.774913024902343750e+01 5.148828029632568359e-01 6.935862451791763306e-02 -2.860609209164977074e-03 1.994940452277660370e-02 -1.962519454536959529e-04
3.353000000000000000e+03 3.714301300048828125e+01 -3.560831546783447266e-01 9.869568794965744019e-02 -2.185260131955146790e-02 2.305292524397373199e-02 6.549087818711996078e-03
3.354000000000000000e+03 3.638907623291015625e+01 -5.003663301467895508e-01 8.590504527091979980e-02 -1.341494265943765640e-02 2.174703031778335571e-02 2.646151930093765259e-02
3.355000000000000000e+03 3.552131271362304688e+01 8.855232596397399902e-02 8.130636811256408691e-02 1.596268033608794212e-03 2.487079054117202759e-02 2.607998438179492950e-02
3.356000000000000000e+03 3.563480377197265625e+01 -6.431571245193481445e-01 5.226889625191688538e-02 -9.544800966978073120e-03 1.281722914427518845e-02 5.138016492128372192e-02
3.357000000000000000e+03 3.789653396606445312e+01 -2.103372663259506226e-01 9.731247276067733765e-02 -2.212322317063808441e-02 2.255677431821823120e-02 -1.697725057601928711e-02
3.358000000000000000e+03 3.930067825317382812e+01 9.922036528587341309e-02 5.353135988116264343e-02 4.066761583089828491e-03 1.727943681180477142e-02 -3.028693608939647675e-02
3.359000000000000000e+03 3.855447387695312500e+01 6.957588195800781250e-01 3.503703698515892029e-02 -6.501846946775913239e-03 8.560557849705219269e-03 -8.431858383119106293e-03
3.360000000000000000e+03 3.862992095947265625e+01 -4.634715989232063293e-02 7.986917346715927124e-02 -1.044352445751428604e-02 2.082769386470317841e-02 -2.570360340178012848e-02
3.361000000000000000e+03 3.938044357299804688e+01 8.772612810134887695e-01 7.008845452219247818e-03 7.248080335557460785e-03 4.277077503502368927e-03 -2.977409632876515388e-03
3.362000000000000000e+03 3.984883117675781250e+01 7.514759302139282227e-01 -5.200037849135696888e-04 -5.491242278367280960e-03 -1.803373801521956921e-03 -4.107576794922351837e-03
3.363000000000000000e+03 4.003703308105468750e+01 -1.348317414522171021e-02 1.472495589405298233e-02 3.413432464003562927e-02 1.465778425335884094e-02 -4.738002642989158630e-02
3.364000000000000000e+03 4.031000137329101562e+01 6.160373240709304810e-02 -1.115344539284706116e-01 -1.789258792996406555e-02 -3.882811218500137329e-02 6.654546409845352173e-02
3.365000000000000000e+03 4.015410995483398438e+01 1.204976290464401245e-01 -2.511963807046413422e-02 2.395946765318512917e-03 -6.817107554525136948e-03 2.023552777245640755e-03
3.366000000000000000e+03 3.975582885742187500e+01 2.228965312242507935e-01 2.467290684580802917e-02 1.296210009604692459e-02 1.129050180315971375e-02 -3.251817449927330017e-02
3.367000000000000000e+03 4.000929260253906250e+01 3.615685105323791504e-01 -3.410595236346125603e-03 2.038629166781902313e-02 5.092708859592676163e-03 -7.471136283129453659e-03
3.368000000000000000e+03 4.015885162353515625e+01 5.596781373023986816e-01 -4.887971561402082443e-03 -7.762135472148656845e-03 -3.795031923800706863e-03 4.420239478349685669e-03
3.369000000000000000e+03 4.028118515014648438e+01 1.702183857560157776e-02 -8.199175447225570679e-02 8.734292536973953247e-02 1.605349360033869743e-03 -3.053777478635311127e-02
3.370000000000000000e+03 3.930390930175781250e+01 1.640066742897033691e+00 -1.929295685840770602e-04 -1.925535034388303757e-04 -1.156449216068722308e-04 1.549731387058272958e-04
3.371000000000000000e+03 3.827055740356445312e+01 2.175478458404541016e+00 1.060292834154097363e-05 -2.895329816965386271e-05 -5.505111403181217611e-06 2.057273377431556582e-05
3.372000000000000000e+03 3.842579269409179688e+01 1.451845049858093262e+00 1.949052420968655497e-05 1.312911772402003407e-04 4.523451207205653191e-05 -6.116255826782435179e-05
3.373000000000000000e+03 3.970738601684570312e+01 2.309803485870361328e+00 2.321008942089974880e-04 2.715971786528825760e-04 1.511094160377979279e-04 -1.537559292046353221e-04
3.374000000000000000e+03 3.914430999755859375e+01 2.362690210342407227e+00 1.235850213561207056e-04 -4.552922473521903157e-05 2.341674007766414434e-05 -4.374969648779369891e-06
3.375000000000000000e+03 3.270701217651367188e+01 1.813640952110290527e+00 4.726884362753480673e-04 2.536299289204180241e-04 2.178955037379637361e-04 -3.071565588470548391e-04
3.376000000000000000e+03 7.138031005859375000e+01 -1.674990081787109375e+01 -6.840121500317764003e-07 7.166801879066042602e-06 1.944836867551202886e-06 -1.839324710317669087e-07
3.377000000000000000e+03 7.211955261230468750e+01 -1.671120262145996094e+01 -3.595224143282393925e-06 -6.630839379795361310e-06 -3.067819079660694115e-06 3.586106345210282598e-08
3.378000000000000000e+03 7.071197509765625000e+01 -1.752739334106445312e+01 7.518805887229973450e-06 8.838133908284362406e-06 4.907082256977446377e-06 5.308581876306561753e-07
3.379000000000000000e+03 7.287363433837890625e+01 -1.741421890258789062e+01 -4.420627192303072661e-06 -6.968138222873676568e-06 -3.416629624553024769e-06 5.913896643505722750e-07
3.380000000000000000e+03 7.215311431884765625e+01 -1.745045852661132812e+01 4.630236617231275886e-06 9.151986887445673347e-06 4.134667051403084770e-06 3.469700260438912665e-08
3.381000000000000000e+03 7.143251037597656250e+01 -1.748818206787109375e+01 -3.607824282880756073e-06 -9.984918506233952940e-06 -4.077822723047574982e-06 -4.225377949751418782e-07
3.382000000000000000e+03 7.285870361328125000e+01 -1.667398834228515625e+01 -2.549263626860920340e-07 5.972588951408397406e-06 1.715298822091426700e-06 7.118816114370929427e-08
3.383000000000000000e+03 7.064115142822265625e+01 -1.679008674621582031e+01 -4.899041414319071919e-06 -8.201612217817455530e-06 -3.930196271539898589e-06 1.034644810715690255e-06
3.384000000000000000e+03 7.509190368652343750e+01 -1.672233772277832031e+01 -3.431123332120478153e-06 -5.556054929911624640e-06 -2.696153615033836104e-06 -9.512894507679447997e-07
3.385000000000000000e+03 7.507875823974609375e+01 -1.746236038208007812e+01 5.311934273777296767e-06 3.382238901394885033e-06 2.608251861602184363e-06 1.855244477155792993e-06
3.386000000000000000e+03 7.583750152587890625e+01 -1.675157546997070312e+01 -9.603934358892729506e-07 5.534871888812631369e-06 1.372343604089110158e-06 3.377896575784689048e-07
3.387000000000000000e+03 7.360292816162109375e+01 -1.740974807739257812e+01 6.704296993120806292e-06 4.898005954601103440e-06 3.480691020740778185e-06 4.936063646709953900e-07
3.388000000000000000e+03 7.434651947021484375e+01 -1.669533538818359375e+01 5.688424664640479023e-08 5.057889666204573587e-06 1.534432271910191048e-06 7.860069786147505511e-07
3.389000000000000000e+03 7.581685638427734375e+01 -1.749131965637207031e+01 -1.763557861522713210e-06 -2.952587692561792210e-06 -1.414843609381932765e-06 -9.835773653321666643e-07
3.390000000000000000e+03 7.434088134765625000e+01 -1.743563652038574219e+01 -4.777252343046711758e-06 -4.095070380571996793e-06 -2.661696726136142388e-06 -1.804539124350412749e-06
3.391000000000000000e+03 7.360105895996093750e+01 -1.666916847229003906e+01 -3.528283286868827417e-06 -5.218810656515415758e-06 -2.624128228490008041e-06 -1.954394122094527120e-07
3.392000000000000000e+03 7.968632507324218750e+01 -1.742419242858886719e+01 -1.393352522427449003e-05 -1.051401886797975749e-05 -7.334263045777333900e-06 -7.039030606392771006e-06
3.393000000000000000e+03 7.850669860839843750e+01 -1.755505180358886719e+01 -4.433205049281241372e-06 2.482616537236026488e-06 -5.851765649822482374e-07 1.031425654218764976e-06
3.394000000000000000e+03 7.652082824707031250e+01 -1.751028823852539062e+01 2.487185838617733680e-06 3.142851028314908035e-06 1.689011128291895147e-06 -1.867985474746092223e-06
3.395000000000000000e+03 7.873721313476562500e+01 -1.681438636779785156e+01 3.267362842507282039e-07 -5.616505404759664088e-06 -1.586930693520116620e-06 -2.124991851815138943e-06
3.396000000000000000e+03 7.785486602783203125e+01 -1.753419113159179688e+01 5.848427463206462562e-06 -2.137135879820561968e-06 1.113387497753137723e-06 -1.427122697350569069e-06
3.397000000000000000e+03 7.802648925781250000e+01 -1.679383087158203125e+01 -2.006900786000187509e-06 3.224815145586035214e-06 3.653743192444380838e-07 1.961880798262427561e-06
3.398000000000000000e+03 7.718931579589843750e+01 -1.751985740661621094e+01 -4.342837655713083223e-06 -1.185508651246891532e-07 -1.338416495855199173e-06 4.157756393396994099e-06
3.399000000000000000e+03 7.657466888427734375e+01 -1.677053260803222656e+01 -2.804636096698231995e-06 -3.536254780556191690e-06 -1.902267285913694650e-06 1.059673422787454911e-06
3.400000000000000000e+03 7.909966278076171875e+01 -1.758989524841308594e+01 -8.385311048186849803e-06 5.458858595375204459e-06 -8.779356335253396537e-07 4.062510754465620266e-07
3.401000000000000000e+03 7.938906860351562500e+01 -1.684892654418945312e+01 1.319598595728166401e-05 1.214137500937795267e-05 7.601208380947355181e-06 1.181205971079180017e-05
3.402000000000000000e+03 7.730204772949218750e+01 -1.677979850769042969e+01 1.532681608296115883e-07 7.534495694017095957e-08 6.858393675202023587e-08 -1.165265530289616436e-06
3.403000000000000000e+03 7.943219757080078125e+01 -1.525699043273925781e+01 -2.917566336691379547e-03 -1.412083365721628070e-04 -9.176324238069355488e-04 2.180637326091527939e-03
3.404000000000000000e+03 7.838642120361328125e+01 -1.516350746154785156e+01 1.444337423890829086e-03 -2.643888350576162338e-03 -3.598653129301965237e-04 2.000695094466209412e-03
3.405000000000000000e+03 7.780564117431640625e+01 -1.512424659729003906e+01 -4.263004753738641739e-03 -1.013830117881298065e-02 -4.320391919463872910e-03 -2.598619787022471428e-03
3.406000000000000000e+03 7.662574768066406250e+01 -1.525570678710937500e+01 -1.294859964400529861e-02 -8.751525543630123138e-03 -6.510037463158369064e-03 -7.421050686389207840e-03
3.407000000000000000e+03 7.725820159912109375e+01 -1.518011665344238281e+01 -5.774748511612415314e-03 1.743734115734696388e-03 -1.209304318763315678e-03 -3.857939271256327629e-03
3.408000000000000000e+03 7.888636779785156250e+01 -1.611222648620605469e+01 3.580760909244418144e-03 -2.948792884126305580e-03 1.895904279081150889e-04 1.610856037586927414e-03
3.409000000000000000e+03 7.888313293457031250e+01 -1.558502388000488281e+01 3.986034076660871506e-03 2.859985688701272011e-03 2.053805859759449959e-03 2.680034842342138290e-03
3.410000000000000000e+03 7.663484954833984375e+01 -1.599727630615234375e+01 6.961338687688112259e-03 2.898910082876682281e-03 2.958074677735567093e-03 -1.810771762393414974e-03
3.411000000000000000e+03 7.962244415283203125e+01 -1.590537452697753906e+01 7.834518910385668278e-04 2.857144922018051147e-03 1.092178979888558388e-03 1.428020652383565903e-03
3.412000000000000000e+03 7.827157592773437500e+01 -1.562149429321289062e+01 1.121853827498853207e-03 -2.170553430914878845e-03 -3.146099043078720570e-04 4.209304228425025940e-03
3.413000000000000000e+03 7.741748809814453125e+01 -1.606798362731933594e+01 9.369730949401855469e-03 -4.039952997118234634e-03 1.598933362402021885e-03 -1.369620673358440399e-03
3.414000000000000000e+03 7.816462707519531250e+01 -1.613920974731445312e+01 9.138646535575389862e-03 2.624775050207972527e-03 3.529026405885815620e-03 1.848016749136149883e-03
3.415000000000000000e+03 7.763186645507812500e+01 -1.553283691406250000e+01 -2.271823817864060402e-03 -3.628514707088470459e-03 -1.770101604051887989e-03 -9.505908237770199776e-04
3.416000000000000000e+03 7.896445465087890625e+01 -1.517584800720214844e+01 -2.590426709502935410e-03 4.404000006616115570e-03 5.440720706246793270e-04 6.046447902917861938e-03
3.417000000000000000e+03 7.435244750976562500e+01 -1.591604232788085938e+01 -1.998152583837509155e-02 -6.174252834171056747e-03 -7.846733555197715759e-03 -5.415462423115968704e-03
3.418000000000000000e+03 7.588006591796875000e+01 -1.523305606842041016e+01 -2.027176506817340851e-02 2.083282684907317162e-03 -5.456544924527406693e-03 -1.114206295460462570e-02
3.419000000000000000e+03 7.359722137451171875e+01 -1.514822292327880859e+01 -5.886843800544738770e-02 -1.610348466783761978e-03 -1.814363710582256317e-02 -1.667193695902824402e-02
3.420000000000000000e+03 7.510590362548828125e+01 -1.594404602050781250e+01 -8.504799567162990570e-03 5.498754326254129410e-03 -9.018135606311261654e-04 -4.499191418290138245e-03
3.421000000000000000e+03 7.359909057617187500e+01 -1.588880252838134766e+01 -3.242395818233489990e-02 6.673503667116165161e-03 -7.725136820226907730e-03 -5.559565033763647079e-03
3.422000000000000000e+03 7.435808563232421875e+01 -1.517574119567871094e+01 -4.475596174597740173e-02 3.175564575940370560e-03 -1.247411966323852539e-02 -1.758451759815216064e-02
3.423000000000000000e+03 7.585942077636718750e+01 -1.597279930114746094e+01 3.999647742602974176e-04 -5.249504931271076202e-03 -1.454862067475914955e-03 -4.434378817677497864e-03
3.424000000000000000e+03 7.511904144287109375e+01 -1.520402336120605469e+01 -3.185396641492843628e-02 -5.726030096411705017e-03 -1.127399876713752747e-02 -1.528074685484170914e-02
3.425000000000000000e+03 7.132652282714843750e+01 -1.597409629821777344e+01 -4.016540199518203735e-02 -5.345359910279512405e-03 -1.365322899073362350e-02 1.533885486423969269e-03
3.426000000000000000e+03 7.056670379638671875e+01 -1.601350212097167969e+01 -2.857536263763904572e-02 1.165669318288564682e-02 -5.075600463896989822e-03 5.734936799854040146e-03
3.427000000000000000e+03 7.208541107177734375e+01 -1.593443489074707031e+01 -4.302442818880081177e-02 8.013716898858547211e-03 -1.050321292132139206e-02 -2.276160521432757378e-03
3.428000000000000000e+03 7.284317016601562500e+01 -1.589438438415527344e+01 -4.173040390014648438e-02 -5.727086216211318970e-03 -1.423724647611379623e-02 -4.165638238191604614e-03
3.429000000000000000e+03 7.282823944091796875e+01 -1.515415287017822266e+01 -6.937868893146514893e-02 6.787080317735671997e-03 -1.877748407423496246e-02 -1.390067487955093384e-02
3.430000000000000000e+03 7.049587249755859375e+01 -1.527619743347167969e+01 -8.492678403854370117e-02 1.449419371783733368e-02 -2.112977765500545502e-02 1.351254899054765701e-02
3.431000000000000000e+03 7.127433013916015625e+01 -1.523581504821777344e+01 -8.306932449340820312e-02 9.601629339158535004e-03 -2.204030938446521759e-02 8.153105154633522034e-04
3.432000000000000000e+03 7.205184173583984375e+01 -1.519517898559570312e+01 -8.038617670536041260e-02 3.554892260581254959e-03 -2.304938435554504395e-02 -6.446653977036476135e-03
3.433000000000000000e+03 6.817024993896484375e+01 -1.550610160827636719e+01 -3.842590004205703735e-02 -2.882590517401695251e-02 -2.017554268240928650e-02 4.202932864427566528e-02
3.434000000000000000e+03 6.846852111816406250e+01 -1.537384891510009766e+01 -4.753787443041801453e-02 -1.942069083452224731e-02 -2.008756995201110840e-02 3.045001998543739319e-02
3.435000000000000000e+03 6.969725036621093750e+01 -1.535203933715820312e+01 -8.171215653419494629e-02 -8.120974525809288025e-03 -2.694993838667869568e-02 1.093668490648269653e-02
3.436000000000000000e+03 6.900823211669921875e+01 -1.536187553405761719e+01 -1.816283911466598511e-02 -5.714695435017347336e-04 -5.620292387902736664e-03 3.220363333821296692e-02
3.437000000000000000e+03 6.970433807373046875e+01 -1.610097312927246094e+01 -7.218238897621631622e-03 -5.016952753067016602e-03 -3.670557634904980659e-03 1.050068624317646027e-02
3.438000000000000000e+03 6.807101440429687500e+01 -1.580119132995605469e+01 4.335802048444747925e-02 4.561389237642288208e-02 2.669157274067401886e-02 -1.381175685673952103e-02
3.439000000000000000e+03 6.868652343750000000e+01 -1.567752170562744141e+01 -1.132181729190051556e-03 -1.033811643719673157e-02 -3.441089531406760216e-03 4.667613655328750610e-02
3.440000000000000000e+03 6.877530670166015625e+01 -1.623340034484863281e+01 -4.859437234699726105e-03 -1.474711950868368149e-02 -5.881967023015022278e-03 -1.290919072926044464e-02
3.441000000000000000e+03 6.846734619140625000e+01 -1.765766716003417969e+01 1.543362714073737152e-06 8.075559208009508438e-07 7.052756245684577152e-07 -9.359265277453232557e-06
3.442000000000000000e+03 6.902794647216796875e+01 -1.774423980712890625e+01 5.423774382506962866e-06 4.192026153759798035e-06 2.884740069930558093e-06 1.779207650542957708e-06
3.443000000000000000e+03 6.989218139648437500e+01 -1.761616897583007812e+01 -5.304550995788304135e-06 -3.946124706999398768e-06 -2.775202574412105605e-06 -6.972489927647984587e-07
3.444000000000000000e+03 6.980416870117187500e+01 -1.688065528869628906e+01 5.188367140362970531e-07 8.152373993652872741e-06 2.601363121357280761e-06 -2.566045850471709855e-06
3.445000000000000000e+03 6.892420196533203125e+01 -1.701133537292480469e+01 -6.376607871061423793e-06 -1.007838545774575323e-05 -4.936498044116888195e-06 3.480553232293459587e-06
3.446000000000000000e+03 1.639982223510742188e+01 -2.317397296428680420e-01 -1.511003851890563965e+00 -1.249203179031610489e-02 -4.570487737655639648e-01 -9.267843514680862427e-02
3.447000000000000000e+03 1.798723983764648438e+01 -8.314419388771057129e-01 -1.162343382835388184e+00 3.826042637228965759e-02 -3.372248709201812744e-01 2.932897582650184631e-02
3.448000000000000000e+03 1.645354080200195312e+01 -9.699125885963439941e-01 -1.253726363182067871e+00 7.614588364958763123e-03 -3.738335371017456055e-01 -2.781018242239952087e-02
3.449000000000000000e+03 1.875374794006347656e+01 -7.599936723709106445e-01 -1.063423037528991699e+00 4.520283639430999756e-02 -3.054660558700561523e-01 8.015476912260055542e-02
3.450000000000000000e+03 1.790756225585937500e+01 -9.563824534416198730e-02 -1.324112176895141602e+00 4.648078233003616333e-03 -3.958392441272735596e-01 -7.103499770164489746e-02
3.451000000000000000e+03 1.866109085083007812e+01 -2.537456899881362915e-02 -1.215874552726745605e+00 -5.493599921464920044e-03 -3.664104342460632324e-01 -5.840821191668510437e-02
3.452000000000000000e+03 1.715376663208007812e+01 -1.644264459609985352e-01 -1.418860077857971191e+00 -6.052558310329914093e-04 -4.258395731449127197e-01 -8.967780321836471558e-02
3.453000000000000000e+03 1.722046470642089844e+01 -9.014146924018859863e-01 -1.228160500526428223e+00 2.880145609378814697e-02 -3.598077297210693359e-01 2.961459802463650703e-03
3.454000000000000000e+03 1.941230964660644531e+01 7.625918835401535034e-02 -1.023033618927001953e+00 9.268791764043271542e-04 -3.066320121288299561e-01 -4.937196522951126099e-02
3.455000000000000000e+03 2.090952491760253906e+01 3.449267148971557617e-01 -5.350826978683471680e-01 2.185132913291454315e-02 -1.539694219827651978e-01 2.076601609587669373e-02
3.456000000000000000e+03 1.952174568176269531e+01 -6.559218764305114746e-01 -9.549300670623779297e-01 6.728642433881759644e-02 -2.662930786609649658e-01 1.395740211009979248e-01
3.457000000000000000e+03 2.106011390686035156e+01 -3.798714280128479004e-01 -6.628244519233703613e-01 8.246140927076339722e-02 -1.741089224815368652e-01 1.922575235366821289e-01
3.458000000000000000e+03 2.183077621459960938e+01 -2.417316585779190063e-01 -4.897648394107818604e-01 5.255969613790512085e-02 -1.311615407466888428e-01 2.074079215526580811e-01
3.459000000000000000e+03 2.165959548950195312e+01 4.794237911701202393e-01 -3.132562339305877686e-01 1.864508353173732758e-02 -8.838334679603576660e-02 4.958440363407135010e-02
3.460000000000000000e+03 2.016033744812011719e+01 2.105962187051773071e-01 -7.695661783218383789e-01 1.885381527245044708e-02 -2.252137213945388794e-01 -1.980424486100673676e-02
3.461000000000000000e+03 2.029035186767578125e+01 -5.178933739662170410e-01 -8.282337784767150879e-01 8.465050160884857178e-02 -2.230749875307083130e-01 1.695182472467422485e-01
3.462000000000000000e+03 2.517581367492675781e+01 5.182487964630126953e-01 -7.886673323810100555e-03 -3.309182357043027878e-03 -3.358756657689809799e-03 -4.210830479860305786e-02
3.463000000000000000e+03 2.505983924865722656e+01 4.682014286518096924e-01 -4.678932949900627136e-03 -6.561161018908023834e-03 -3.372028237208724022e-03 -3.530319035053253174e-02
3.464000000000000000e+03 2.494393920898437500e+01 5.175315737724304199e-01 -1.290903892368078232e-02 1.820389443309977651e-04 -3.818100085482001305e-03 -3.456945344805717468e-02
3.465000000000000000e+03 2.505676841735839844e+01 6.632676720619201660e-01 -1.659766957163810730e-02 4.838776774704456329e-03 -3.527667839080095291e-03 -3.848478570580482483e-02
3.466000000000000000e+03 2.289602470397949219e+01 2.428752899169921875e+00 -7.493266821256838739e-06 -1.515629082859959453e-05 -6.794867658754810691e-06 -5.857239557371940464e-06
3.467000000000000000e+03 2.207656478881835938e+01 2.160299539566040039e+00 5.239267920842394233e-06 1.426546168659115210e-05 5.851418791280593723e-06 -2.193054569943342358e-06
3.468000000000000000e+03 2.309196090698242188e+01 1.710520744323730469e+00 5.075952230981783941e-06 5.888006853638216853e-06 3.289187588961794972e-06 -5.234352329352986999e-07
3.469000000000000000e+03 2.226285171508789062e+01 1.441366434097290039e+00 -2.791346105368575081e-06 -8.181304110621567816e-06 -3.291794882898102514e-06 -2.500881990386005782e-08
3.470000000000000000e+03 2.365754890441894531e+01 2.680384397506713867e+00 1.508689638285432011e-05 3.188520395269733854e-06 5.482625056174583733e-06 8.426511158177163452e-06
3.471000000000000000e+03 2.446170997619628906e+01 2.351509332656860352e+00 1.279560365219367668e-06 4.340640316513599828e-06 1.686060272731992882e-06 -1.120210413319000509e-06
3.472000000000000000e+03 2.386312484741210938e+01 1.962898492813110352e+00 -5.671321105182869360e-06 -5.355725079425610602e-06 -3.308113718958338723e-06 3.250904683227417991e-06
3.473000000000000000e+03 2.075237083435058594e+01 1.106616377830505371e+00 -5.118533408676739782e-06 -9.278167453885544091e-06 -4.319010258768685162e-06 1.937031811394263059e-06
3.474000000000000000e+03 2.060178184509277344e+01 1.831414580345153809e+00 1.129469910665648058e-05 1.071180122380610555e-05 6.601950190088246018e-06 -2.119155396940186620e-06
3.475000000000000000e+03 2.130817413330078125e+01 1.960395336151123047e+00 -1.005209014692809433e-05 -1.203697047458263114e-05 -6.626718004554277286e-06 3.844244929496198893e-06
3.476000000000000000e+03 1.918785858154296875e+01 1.579434752464294434e+00 1.079368030332261696e-05 1.522007369203492999e-05 7.804125743859913200e-06 2.199337814090540633e-06
3.477000000000000000e+03 1.989505195617675781e+01 1.704050064086914062e+00 -1.183671429316746071e-05 -1.269598760700318962e-05 -7.359810751950135455e-06 -3.811644262441404862e-07
3.478000000000000000e+03 1.929729461669921875e+01 8.472537398338317871e-01 -4.936220648232847452e-06 -1.027670259645674378e-05 -4.563876700558466837e-06 -3.489777782306191511e-07
3.479000000000000000e+03 2.147934150695800781e+01 1.239288687705993652e+00 2.099267476296517998e-06 1.015749148791655898e-05 3.677027507364982739e-06 -2.509239720893674530e-06
3.480000000000000000e+03 2.002506446838378906e+01 9.755603671073913574e-01 2.771074605334433727e-06 8.724226972844917327e-06 3.448590405241702683e-06 -1.350128286503604613e-06
3.481000000000000000e+03 1.701650238037109375e+01 1.350294589996337891e+00 -6.957046934985555708e-06 -2.827279240591451526e-05 -1.056895234796684235e-05 -6.573774498974671587e-06
3.482000000000000000e+03 1.708320045471191406e+01 6.133062839508056641e-01 1.010568098536168691e-06 2.468831553414929658e-05 7.709664714639075100e-06 1.142678115684248041e-06
3.483000000000000000e+03 1.634315681457519531e+01 5.465459823608398438e-01 -3.623667680585640483e-06 -2.954261435661464930e-05 -9.949884770321659744e-06 -7.639318511110104737e-08
3.484000000000000000e+03 1.782329559326171875e+01 6.808430552482604980e-01 -4.710618668468669057e-06 -1.850726948759984225e-05 -6.965366537770023569e-06 -1.566516402817796916e-06
3.485000000000000000e+03 1.847070503234863281e+01 1.483781576156616211e+00 -1.214018084283452481e-05 -1.797077857190743089e-05 -9.033287824422586709e-06 -5.287741714710136876e-06
3.486000000000000000e+03 1.856336212158203125e+01 7.491624951362609863e-01 1.953774471985525452e-06 1.340782455372391269e-05 4.608479684975463897e-06 5.628747317132365424e-07
3.487000000000000000e+03 1.628943824768066406e+01 1.284718871116638184e+00 5.795674042019527406e-06 3.248484790674410760e-05 1.148415685747750103e-05 4.603608431352768093e-06
3.488000000000000000e+03 1.774361801147460938e+01 1.416646718978881836e+00 8.821280971460510045e-06 2.352804222027771175e-05 9.704796866571996361e-06 7.547186669398797676e-06
3.489000000000000000e+03 1.408120155334472656e+01 1.187072157859802246e+00 -6.918493454577401280e-06 -3.240292789996601641e-05 -1.179642640636302531e-05 3.581463488444569521e-06
3.490000000000000000e+03 1.410851097106933594e+01 4.475762248039245605e-01 4.329661805968498811e-06 3.292799738119356334e-05 1.117729789257282391e-05 -7.701693789385899436e-07
3.491000000000000000e+03 1.336430931091308594e+01 4.183164834976196289e-01 -6.708042974423733540e-07 -3.203615415259264410e-05 -9.812087228056043386e-06 2.023885372182121500e-06
3.492000000000000000e+03 1.485382461547851562e+01 4.748390913009643555e-01 -2.847212044798652641e-06 -3.274814662290737033e-05 -1.067860739567549899e-05 1.941876234923256561e-06
3.493000000000000000e+03 1.555697250366210938e+01 1.239178419113159180e+00 -6.467879302363144234e-06 -3.272588946856558323e-05 -1.175813031295547262e-05 2.568987440554337809e-07
3.494000000000000000e+03 1.560021686553955078e+01 5.002670884132385254e-01 1.950285195562173612e-06 3.225662294426001608e-05 1.026207246468402445e-05 -6.278714863583445549e-07
3.495000000000000000e+03 1.334496879577636719e+01 1.158104777336120605e+00 1.331182193098356947e-05 3.265402847318910062e-05 1.378975503030233085e-05 7.631194876012159511e-07
3.496000000000000000e+03 1.481854820251464844e+01 1.214042663574218750e+00 9.553144082019571215e-06 3.383911098353564739e-05 1.301767679251497611e-05 4.303753087242512265e-07
3.497000000000000000e+03 1.111325168609619141e+01 1.138490676879882812e+00 -1.069067820935742930e-06 -2.885870890168007463e-05 -8.978333426057361066e-06 4.926715973851969466e-06
3.498000000000000000e+03 1.186833381652832031e+01 4.020517766475677490e-01 3.225884483981644735e-06 -3.021073462150525302e-05 -8.095455086731817573e-06 2.061464329017326236e-06
3.499000000000000000e+03 1.037295722961425781e+01 3.924405574798583984e-01 6.698543529637390748e-06 -2.856981700460892171e-05 -6.561381724168313667e-06 1.558888584440865088e-06
3.500000000000000000e+03 1.260390949249267578e+01 1.143149375915527344e+00 -4.101733338757185265e-06 -3.097494482062757015e-05 -1.052300376613857225e-05 4.601501586876111105e-06
3.501000000000000000e+03 1.261756992340087891e+01 4.032067656517028809e-01 7.445448318321723491e-06 3.124754948657937348e-05 1.160789906862191856e-05 -6.072853864225180587e-08
3.502000000000000000e+03 1.036947441101074219e+01 1.132432341575622559e+00 1.938183231686707586e-05 2.600220250315032899e-05 1.361521026410628110e-05 -3.630393337061832426e-07
3.503000000000000000e+03 1.185806560516357422e+01 1.142010807991027832e+00 1.602894008101429790e-05 3.005673897860106081e-05 1.382570371788460761e-05 8.062592087298980914e-07
3.504000000000000000e+03 1.112012767791748047e+01 3.985152244567871094e-01 1.142232486017746851e-05 2.936564123956486583e-05 1.223638992087217048e-05 7.066839913250078098e-08
3.505000000000000000e+03 8.771651268005371094e+00 3.881228864192962646e-01 8.848801371641457081e-06 -2.292572025908157229e-05 -4.223075393383624032e-06 6.212125072124763392e-07
3.506000000000000000e+03 8.818146705627441406e+00 1.128122925758361816e+00 2.116456562362145633e-05 1.964019975275732577e-05 1.224142943101469427e-05 -2.794750344037311152e-06
3.507000000000000000e+03 7.953170776367187500e+00 3.921383917331695557e-01 1.562446595926303416e-05 1.955308835022151470e-05 1.055326629284536466e-05 -3.430400283832568675e-07
3.508000000000000000e+03 6.319846630096435547e+00 3.892590403556823730e-01 1.352782419417053461e-05 1.177446574729401618e-05 7.590686891489895061e-06 -1.159932594418933149e-06
3.509000000000000000e+03 5.502897262573242188e+00 3.910058438777923584e-01 5.945101293036714196e-06 -7.339624517044285312e-06 -4.183570183613483096e-07 5.193458036956144497e-07
3.510000000000000000e+03 4.685476779937744141e+00 3.909447193145751953e-01 8.749230801186058670e-06 2.198650918217026629e-06 3.284364538558293134e-06 -3.553803480826900341e-06
3.511000000000000000e+03 3.050973415374755859e+00 3.907458484172821045e-01 4.931301191390957683e-06 -6.458924872276838869e-06 -4.582870758440549253e-07 -5.237211553321685642e-06
3.512000000000000000e+03 2.234469175338745117e+00 3.876248300075531006e-01 -3.920429207937559113e-06 7.453714715666137636e-06 1.059985606843838468e-06 2.158229108317755163e-06
3.513000000000000000e+03 2.538473606109619141e+00 1.127624869346618652e+00 1.986312781809829175e-05 -5.946922556177014485e-06 4.174861260253237560e-06 -6.306717295956332237e-06
3.514000000000000000e+03 1.768125653266906738e+00 1.127171397209167480e+00 -1.427048482582904398e-05 1.511575192125746980e-06 -3.827673026535194367e-06 -6.224069693416822702e-06
3.515000000000000000e+03 1.067988038063049316e+00 1.148616075515747070e+00 -8.572874321544077247e-06 1.917856570798903704e-05 3.181707143085077405e-06 4.773160071636084467e-07
3.516000000000000000e+03 6.996063590049743652e-01 4.086160361766815186e-01 1.321030595136107877e-05 1.402531052008271217e-05 8.170684850483667105e-06 1.563774458190891892e-05
3.517000000000000000e+03 3.732481598854064941e-01 9.636608362197875977e-01 -2.215279710071627051e-05 -1.491006059950450435e-05 -1.111885740101570264e-05 -4.294350219424813986e-06
3.518000000000000000e+03 3.322789192199707031e+00 1.130745887756347656e+00 -6.289881184784462675e-06 2.638960495460196398e-06 -1.095276275009382516e-06 5.352967946237185970e-06
3.519000000000000000e+03 3.868146419525146484e+00 3.889868557453155518e-01 2.315221763637964614e-06 2.699081505852518603e-06 1.504290935372409876e-06 3.002999164891662076e-06
3.520000000000000000e+03 5.678146839141845703e+00 1.131005883216857910e+00 1.642872848606202751e-05 8.501520824211183935e-06 7.479074611183023080e-06 -8.543207513866946101e-06
3.521000000000000000e+03 7.247090816497802734e+00 1.132560849189758301e+00 2.070023401756770909e-05 1.432142471458064392e-05 1.050649734679609537e-05 -5.600816166406730190e-06
3.522000000000000000e+03 7.136218547821044922e+00 3.925608992576599121e-01 8.400690603593830019e-06 -1.616217014088761061e-05 -2.328443997612339444e-06 -2.418003361981391208e-07
3.523000000000000000e+03 8.031854629516601562e+00 1.132138371467590332e+00 2.376672910031629726e-06 -1.859713120211381465e-05 -4.866137260250980034e-06 3.771159754251129925e-06
3.524000000000000000e+03 9.590107917785644531e+00 3.879971206188201904e-01 1.460977637179894373e-05 2.475245855748653412e-05 1.180867093353299424e-05 2.934340237459309719e-08
3.525000000000000000e+03 9.604414939880371094e+00 1.127997159957885742e+00 1.582623212925682310e-06 -2.339354614377953112e-05 -6.543276867887470871e-06 4.461574008018942550e-06
3.526000000000000000e+03 6.462907791137695312e+00 1.129258990287780762e+00 1.613265567357302643e-06 -1.248485295946011320e-05 -3.261476194893475622e-06 3.065677219638018869e-06
3.527000000000000000e+03 4.892915248870849609e+00 1.130944728851318359e+00 -2.715783296025620075e-07 -5.569368113356176764e-06 -1.752283992573211435e-06 4.280078883311944082e-06
3.528000000000000000e+03 4.107773303985595703e+00 1.128986835479736328e+00 1.305329533352050930e-05 1.995610091398702934e-06 4.514671672950498760e-06 -1.063909621734637767e-05
3.529000000000000000e+03 1.431932568550109863e+00 3.871713578701019287e-01 -1.340803009952651337e-06 -7.105748863978078589e-06 -2.533965698603424244e-06 -4.849690867558820173e-06
3.530000000000000000e+03 1.338494110107421875e+01 -3.624081611633300781e-01 -1.432083845138549805e+00 -7.185473572462797165e-03 -4.317807853221893311e-01 -7.355766743421554565e-02
3.531000000000000000e+03 1.492772197723388672e+01 -1.047161340713500977e+00 -1.275329947471618652e+00 4.481320735067129135e-03 -3.812546133995056152e-01 -9.128317236900329590e-02
3.532000000000000000e+03 1.340428161621093750e+01 -1.102196455001831055e+00 -1.197265148162841797e+00 -4.002167377620935440e-03 -3.603802025318145752e-01 -1.180756166577339172e-01
3.533000000000000000e+03 1.489244556427001953e+01 -3.079577088356018066e-01 -1.505985379219055176e+00 -7.386861834675073624e-04 -4.520172476768493652e-01 -7.343009114265441895e-02
3.534000000000000000e+03 1.568929195404052734e+01 -1.018365263938903809e+00 -1.267646551132202148e+00 -3.982702037319540977e-04 -3.804134428501129150e-01 -6.656894087791442871e-02
3.535000000000000000e+03 1.564604759216308594e+01 -2.794539332389831543e-01 -1.540799140930175781e+00 -1.206839457154273987e-02 -4.658602774143218994e-01 -7.972309738397598267e-02
3.536000000000000000e+03 1.413872909545898438e+01 -3.356079757213592529e-01 -1.470475316047668457e+00 -1.667700707912445068e-03 -4.416428804397583008e-01 -7.680692523717880249e-02
3.537000000000000000e+03 1.416603755950927734e+01 -1.075103878974914551e+00 -1.248061299324035645e+00 5.361894145607948303e-03 -3.728098273277282715e-01 -1.022522822022438049e-01
3.538000000000000000e+03 1.037684440612792969e+01 -3.884835243225097656e-01 -1.043904066085815430e+00 -4.544836410786956549e-04 -3.133075535297393799e-01 -6.009516865015029907e-02
3.539000000000000000e+03 1.189073276519775391e+01 -1.121461629867553711e+00 -1.078431606292724609e+00 9.903253521770238876e-04 -3.232323825359344482e-01 -1.462232321500778198e-01
3.540000000000000000e+03 1.038032817840576172e+01 -1.128475308418273926e+00 -9.100143909454345703e-01 2.159439958631992340e-03 -2.723564803600311279e-01 -1.574879139661788940e-01
3.541000000000000000e+03 1.264584636688232422e+01 -1.117530822753906250e+00 -1.140241384506225586e+00 -3.655513981357216835e-03 -3.431690633296966553e-01 -1.364457160234451294e-01
3.542000000000000000e+03 1.188046455383300781e+01 -3.815026283264160156e-01 -1.253581523895263672e+00 2.810932928696274757e-04 -3.759901225566864014e-01 -5.823104456067085266e-02
3.543000000000000000e+03 1.263218593597412109e+01 -3.775882422924041748e-01 -1.358835577964782715e+00 -6.214499473571777344e-03 -4.095150232315063477e-01 -6.329461932182312012e-02
3.544000000000000000e+03 1.112868118286132812e+01 -3.851337432861328125e-01 -1.150422334671020508e+00 2.401305100647732615e-04 -3.450546562671661377e-01 -5.952478945255279541e-02
3.545000000000000000e+03 1.113555717468261719e+01 -1.125109195709228516e+00 -9.971027970314025879e-01 3.881932469084858894e-03 -2.979662716388702393e-01 -1.506330966949462891e-01
3.546000000000000000e+03 9.624593734741210938e+00 -1.131355285644531250e+00 -8.181234598159790039e-01 4.504894022829830647e-04 -2.453018873929977417e-01 -1.616265177726745605e-01
3.547000000000000000e+03 9.636611938476562500e+00 -3.913553059101104736e-01 -9.332057237625122070e-01 1.917635818244889379e-04 -2.799041867256164551e-01 -6.029793247580528259e-02
3.548000000000000000e+03 8.908035278320312500e+00 -3.932945430278778076e-01 -8.205308318138122559e-01 -5.867271102033555508e-04 -2.463352680206298828e-01 -6.014383211731910706e-02
3.549000000000000000e+03 8.179648399353027344e+00 -3.947979807853698730e-01 -7.083989381790161133e-01 3.893166649504564703e-05 -2.125080078840255737e-01 -5.973773077130317688e-02
3.550000000000000000e+03 7.451354026794433594e+00 -3.965992927551269531e-01 -5.976751446723937988e-01 -1.530436566099524498e-03 -1.797616779804229736e-01 -5.868345499038696289e-02
3.551000000000000000e+03 6.723036766052246094e+00 -3.981454968452453613e-01 -4.902862608432769775e-01 -1.135338563472032547e-03 -1.474264860153198242e-01 -5.624807626008987427e-02
3.552000000000000000e+03 5.994731426239013672e+00 -3.993945717811584473e-01 -3.879163563251495361e-01 -2.728419611230492592e-03 -1.171934306621551514e-01 -5.307627841830253601e-02
3.553000000000000000e+03 5.266466140747070312e+00 -4.014726877212524414e-01 -2.925543785095214844e-01 -2.144867321476340294e-03 -8.840977400541305542e-02 -4.848547279834747314e-02
3.554000000000000000e+03 4.538172721862792969e+00 -4.045463800430297852e-01 -2.064535170793533325e-01 -4.343132022768259048e-03 -6.323899328708648682e-02 -4.315201938152313232e-02
3.555000000000000000e+03 3.810027122497558594e+00 -4.076895117759704590e-01 -1.321079432964324951e-01 -3.889901330694556236e-03 -4.079934954643249512e-02 -3.548412024974822998e-02
3.556000000000000000e+03 3.082192897796630859e+00 -4.105251729488372803e-01 -7.234748452901840210e-02 -6.402941420674324036e-03 -2.362512797117233276e-02 -2.697103656828403473e-02
3.557000000000000000e+03 2.355662584304809570e+00 -4.111475944519042969e-01 -2.961536683142185211e-02 -5.429105367511510849e-03 -1.051334198564291000e-02 -1.586529240012168884e-02
3.558000000000000000e+03 1.642585277557373047e+00 -4.047921001911163330e-01 -5.442031659185886383e-03 -3.977064974606037140e-03 -2.825728850439190865e-03 -6.783745251595973969e-03
3.559000000000000000e+03 6.508445143699645996e-01 -1.120625138282775879e+00 -7.861729711294174194e-03 -2.759004244580864906e-03 -3.186220303177833557e-03 -2.800834598019719124e-03
3.560000000000000000e+03 8.868407249450683594e+00 -1.133294582366943359e+00 -7.240889072418212891e-01 -4.764390760101377964e-04 -2.173696160316467285e-01 -1.635833829641342163e-01
3.561000000000000000e+03 8.112410545349121094e+00 -1.134797930717468262e+00 -6.284309029579162598e-01 -2.864149864763021469e-03 -1.893885135650634766e-01 -1.625001281499862671e-01
3.562000000000000000e+03 7.356505870819091797e+00 -1.136599302291870117e+00 -5.345401763916015625e-01 -4.830162972211837769e-03 -1.618110984563827515e-01 -1.589352339506149292e-01
3.563000000000000000e+03 6.600578308105468750e+00 -1.138145565986633301e+00 -4.429304897785186768e-01 -7.839800789952278137e-03 -1.352310776710510254e-01 -1.528073549270629883e-01
3.564000000000000000e+03 5.844663143157958984e+00 -1.139394640922546387e+00 -3.560073971748352051e-01 -1.034490671008825302e-02 -1.099056899547576904e-01 -1.430709660053253174e-01
3.565000000000000000e+03 5.088787555694580078e+00 -1.141472697257995605e+00 -2.754676342010498047e-01 -1.365693751722574234e-02 -8.673737198114395142e-02 -1.301033943891525269e-01
3.566000000000000000e+03 4.332883834838867188e+00 -1.144546389579772949e+00 -2.034107595682144165e-01 -1.612506248056888580e-02 -6.586074829101562500e-02 -1.143542677164077759e-01
3.567000000000000000e+03 3.577128171920776367e+00 -1.147689461708068848e+00 -1.394742876291275024e-01 -2.175532653927803040e-02 -4.836888611316680908e-02 -9.465827792882919312e-02
3.568000000000000000e+03 2.821683883666992188e+00 -1.150525212287902832e+00 -8.727015554904937744e-02 -2.410769462585449219e-02 -3.341335430741310120e-02 -6.915724277496337891e-02
3.569000000000000000e+03 2.067543268203735352e+00 -1.151147603988647461e+00 -4.731534421443939209e-02 -2.443679235875606537e-02 -2.152564190328121185e-02 -4.288881272077560425e-02
3.570000000000000000e+03 1.326855897903442383e+00 -1.144792079925537109e+00 -2.108352817595005035e-02 -1.754832454025745392e-02 -1.158955506980419159e-02 -1.566085591912269592e-02
3.571000000000000000e+03 9.941840171813964844e-01 -3.806251585483551025e-01 2.959639765322208405e-03 -3.837686264887452126e-03 -2.634138800203800201e-04 6.425262545235455036e-04
3.572000000000000000e+03 3.480942845344543457e-01 -5.610816478729248047e-01 7.552904426120221615e-04 3.264465602114796638e-03 1.205926761031150818e-03 1.564162317663431168e-03
3.573000000000000000e+03 2.535169601440429688e+01 -3.313431978225708008e+00 -1.529861241579055786e-01 -3.184009552001953125e+00 -1.001098752021789551e+00 4.236723482608795166e-01
3.574000000000000000e+03 2.533225440979003906e+01 -3.312001943588256836e+00 -6.965790987014770508e-01 -3.718813180923461914e+00 -1.324617743492126465e+00 1.845819950103759766e+00
3.575000000000000000e+03 2.531290626525878906e+01 -3.314389228820800781e+00 -1.668077230453491211e+00 -3.880969762802124023e+00 -1.664714097976684570e+00 2.534276485443115234e+00
3.576000000000000000e+03 2.529439544677734375e+01 -3.320502519607543945e+00 -2.872693300247192383e+00 -3.763408422470092773e+00 -1.990830540657043457e+00 3.063249111175537109e+00
3.577000000000000000e+03 2.527743148803710938e+01 -3.330106973648071289e+00 -4.107292175292968750e+00 -3.502064704895019531e+00 -2.282807111740112305e+00 3.286161899566650391e+00
3.578000000000000000e+03 2.526266479492187500e+01 -3.342834234237670898e+00 -5.428244113922119141e+00 -3.104667425155639648e+00 -2.559873580932617188e+00 3.228183746337890625e+00
3.579000000000000000e+03 2.525066375732421875e+01 -3.358195781707763672e+00 -6.522504329681396484e+00 -2.680824756622314453e+00 -2.760998725891113281e+00 2.900909185409545898e+00
3.580000000000000000e+03 2.524188613891601562e+01 -3.375602245330810547e+00 -7.463788986206054688e+00 -2.387622594833374023e+00 -2.955423355102539062e+00 2.282850742340087891e+00
3.581000000000000000e+03 2.523667144775390625e+01 -3.394385814666748047e+00 -8.028962135314941406e+00 -2.242938041687011719e+00 -3.081570148468017578e+00 1.528306841850280762e+00
3.582000000000000000e+03 2.523521804809570312e+01 -3.413825750350952148e+00 -8.244129180908203125e+00 -2.328331947326660156e+00 -3.171738386154174805e+00 6.840598583221435547e-01
3.583000000000000000e+03 2.523758125305175781e+01 -3.433176040649414062e+00 -8.117614746093750000e+00 -2.634832143783569336e+00 -3.225733995437622070e+00 -3.308890387415885925e-02
3.584000000000000000e+03 2.524367141723632812e+01 -3.451694250106811523e+00 -7.706793785095214844e+00 -3.183685064315795898e+00 -3.267143726348876953e+00 -6.339734196662902832e-01
3.585000000000000000e+03 2.525325584411621094e+01 -3.468669891357421875e+00 -7.131653308868408203e+00 -3.771996259689331055e+00 -3.271095037460327148e+00 -9.797012805938720703e-01
3.586000000000000000e+03 2.526596450805664062e+01 -3.483451366424560547e+00 -6.461017131805419922e+00 -4.330882549285888672e+00 -3.237570047378540039e+00 -1.093623995780944824e+00
3.587000000000000000e+03 2.528131103515625000e+01 -3.495471954345703125e+00 -5.999808311462402344e+00 -4.986727237701416016e+00 -3.295960664749145508e+00 -9.137985110282897949e-01
3.588000000000000000e+03 2.529870796203613281e+01 -3.504270076751708984e+00 -5.372963428497314453e+00 -5.366405010223388672e+00 -3.221810579299926758e+00 -6.024997234344482422e-01
3.589000000000000000e+03 2.531748580932617188e+01 -3.509508132934570312e+00 -5.197654247283935547e+00 -5.648759365081787109e+00 -3.253924131393432617e+00 -1.798003315925598145e-01
3.590000000000000000e+03 2.533692359924316406e+01 -3.510985374450683594e+00 -5.137580871582031250e+00 -5.743113040924072266e+00 -3.264208316802978516e+00 3.834577500820159912e-01
3.591000000000000000e+03 2.535627555847167969e+01 -3.508645057678222656e+00 -5.296878337860107422e+00 -5.628781318664550781e+00 -3.277697801589965820e+00 8.954671025276184082e-01
3.592000000000000000e+03 2.537480163574218750e+01 -3.502577066421508789e+00 -5.639732360839843750e+00 -5.275596141815185547e+00 -3.274598598480224609e+00 1.369672060012817383e+00
3.593000000000000000e+03 2.539178848266601562e+01 -3.493014097213745117e+00 -6.245770454406738281e+00 -4.859310150146484375e+00 -3.331524133682250977e+00 1.632919430732727051e+00
3.594000000000000000e+03 2.540658569335937500e+01 -3.480323076248168945e+00 -6.973325729370117188e+00 -4.126218795776367188e+00 -3.329863309860229492e+00 1.743674039840698242e+00
3.595000000000000000e+03 2.541862487792968750e+01 -3.464990854263305664e+00 -7.597924232482910156e+00 -3.453517198562622070e+00 -3.315432310104370117e+00 1.592313647270202637e+00
3.596000000000000000e+03 2.542744445800781250e+01 -3.447606086730957031e+00 -8.271843910217285156e+00 -2.794620275497436523e+00 -3.319939374923706055e+00 1.096050977706909180e+00
3.597000000000000000e+03 2.543270492553710938e+01 -3.428835630416870117e+00 -8.616056442260742188e+00 -2.219054460525512695e+00 -3.250533342361450195e+00 4.211660325527191162e-01
3.598000000000000000e+03 2.543420600891113281e+01 -3.409399509429931641e+00 -8.659794807434082031e+00 -1.873239278793334961e+00 -3.159910202026367188e+00 -4.722027778625488281e-01
3.599000000000000000e+03 2.543189048767089844e+01 -3.390043735504150391e+00 -8.316327095031738281e+00 -1.791572928428649902e+00 -3.032370090484619141e+00 -1.348385572433471680e+00
3.600000000000000000e+03 2.542584419250488281e+01 -3.371510744094848633e+00 -7.532888889312744141e+00 -1.975943684577941895e+00 -2.852649688720703125e+00 -2.203168153762817383e+00
3.601000000000000000e+03 2.541630363464355469e+01 -3.354511737823486328e+00 -6.452147483825683594e+00 -2.293679475784301758e+00 -2.623748064041137695e+00 -2.800654649734497070e+00
3.602000000000000000e+03 2.540362930297851562e+01 -3.339699268341064453e+00 -5.042688846588134766e+00 -2.864550590515136719e+00 -2.372171878814697266e+00 -3.117274522781372070e+00
3.603000000000000000e+03 2.538831329345703125e+01 -3.327641248703002930e+00 -3.530040025711059570e+00 -3.352074146270751953e+00 -2.064634323120117188e+00 -3.078097105026245117e+00
3.604000000000000000e+03 2.537093734741210938e+01 -3.318800449371337891e+00 -1.574645161628723145e+00 -4.275177001953125000e+00 -1.754946589469909668e+00 -2.267331361770629883e+00
