# el_label, x, y, sXX, sYY, sZZ, sXY
1.000000000000000000e+00 4.533189010620117188e+01 -1.677867889404296875e+01 -2.938997030258178711e+00 -3.867598474025726318e-01 -9.977270364761352539e-01 1.960044056177139282e-01
2.000000000000000000e+00 4.550008773803710938e+01 -1.688510894775390625e+01 4.061062037944793701e-01 -5.641371011734008789e-03 1.201394423842430115e-01 3.616324961185455322e-01
3.000000000000000000e+00 4.566828536987304688e+01 -1.699153900146484375e+01 -4.562454521656036377e-01 -3.644992411136627197e-01 -2.462234199047088623e-01 1.305413395166397095e-01
4.000000000000000000e+00 4.583648300170898438e+01 -1.709796905517578125e+01 -2.635069787502288818e-01 -1.465617865324020386e-01 -1.230206340551376343e-01 3.954587578773498535e-01
5.000000000000000000e+00 4.535811996459960938e+01 -1.672656440734863281e+01 2.734371423721313477e+00 4.554024934768676758e-01 9.569321870803833008e-01 -2.421147108078002930e+00
6.000000000000000000e+00 4.554380416870117188e+01 -1.679825210571289062e+01 1.342157483100891113e+00 1.291504800319671631e-01 4.413923621177673340e-01 -5.973886847496032715e-01
7.000000000000000000e+00 4.572949218750000000e+01 -1.686993980407714844e+01 1.828859090805053711e+00 2.145315706729888916e-02 5.550936460494995117e-01 -3.364916145801544189e-01
8.000000000000000000e+00 4.591517639160156250e+01 -1.694162750244140625e+01 1.107794761657714844e+00 2.412893064320087433e-02 3.395771086215972900e-01 -3.834616839885711670e-01
9.000000000000000000e+00 4.537371444702148438e+01 -1.667034339904785156e+01 7.481373786926269531e+00 -3.066640496253967285e-01 2.152412891387939453e+00 -1.932560801506042480e+00
1.000000000000000000e+01 4.556979370117187500e+01 -1.670455169677734375e+01 4.521931171417236328e+00 -1.071177423000335693e-01 1.324444055557250977e+00 -1.177348017692565918e+00
1.100000000000000000e+01 4.576587677001953125e+01 -1.673875808715820312e+01 3.463835239410400391e+00 -5.681918561458587646e-02 1.022104859352111816e+00 -5.680970549583435059e-01
1.200000000000000000e+01 4.596195983886718750e+01 -1.677296638488769531e+01 3.133567094802856445e+00 -2.789845317602157593e-02 9.317005872726440430e-01 -3.040134906768798828e-01
1.300000000000000000e+01 4.537807464599609375e+01 -1.661216354370117188e+01 1.112182998657226562e+01 -4.563544690608978271e-01 3.199642658233642578e+00 -4.507898986339569092e-01
1.400000000000000000e+01 4.557706832885742188e+01 -1.660758590698242188e+01 7.222712993621826172e+00 -4.207116365432739258e-01 2.040600538253784180e+00 -3.567251861095428467e-01
1.500000000000000000e+01 4.577605819702148438e+01 -1.660300636291503906e+01 5.740308284759521484e+00 -2.761329412460327148e-01 1.639252543449401855e+00 -1.806530654430389404e-01
1.600000000000000000e+01 4.597504806518554688e+01 -1.659842491149902344e+01 4.836077213287353516e+00 -2.267491817474365234e-01 1.382798433303833008e+00 3.477785363793373108e-02
1.700000000000000000e+01 4.537104415893554688e+01 -1.655424690246582031e+01 1.335858917236328125e+01 5.943204089999198914e-02 4.025406360626220703e+00 1.836354613304138184e+00
1.800000000000000000e+01 4.556534194946289062e+01 -1.651105499267578125e+01 9.330019950866699219e+00 -1.691792011260986328e-01 2.748252391815185547e+00 1.065890908241271973e+00
1.900000000000000000e+01 4.575964355468750000e+01 -1.646786499023437500e+01 7.420767307281494141e+00 -2.002195864915847778e-01 2.166164398193359375e+00 8.818960189819335938e-01
2.000000000000000000e+01 4.595394515991210938e+01 -1.642467308044433594e+01 6.377607822418212891e+00 -2.274380326271057129e-01 1.845050930976867676e+00 8.922139406204223633e-01
2.100000000000000000e+01 4.535287857055664062e+01 -1.649880409240722656e+01 1.433293819427490234e+01 1.548997163772583008e+00 4.764580726623535156e+00 4.205279827117919922e+00
2.200000000000000000e+01 4.553506851196289062e+01 -1.641864967346191406e+01 1.041553115844726562e+01 7.243688106536865234e-01 3.341969966888427734e+00 2.781919002532958984e+00
2.300000000000000000e+01 4.571725845336914062e+01 -1.633849525451660156e+01 8.534979820251464844e+00 4.297607541084289551e-01 2.689422130584716797e+00 2.265610218048095703e+00
2.400000000000000000e+01 4.589945220947265625e+01 -1.625834274291992188e+01 7.295891761779785156e+00 2.297248393297195435e-01 2.257684946060180664e+00 2.032657146453857422e+00
2.500000000000000000e+01 4.532427597045898438e+01 -1.644795227050781250e+01 1.407943439483642578e+01 3.840744733810424805e+00 5.376053810119628906e+00 6.223160743713378906e+00
2.600000000000000000e+01 4.548740386962890625e+01 -1.633389472961425781e+01 1.067178916931152344e+01 2.308276414871215820e+00 3.894019842147827148e+00 4.356561183929443359e+00
2.700000000000000000e+01 4.565052795410156250e+01 -1.621984100341796875e+01 8.850217819213867188e+00 1.600259065628051758e+00 3.135143041610717773e+00 3.605251073837280273e+00
2.800000000000000000e+01 4.581365203857421875e+01 -1.610578536987304688e+01 7.718117237091064453e+00 1.236592292785644531e+00 2.686412811279296875e+00 3.234402894973754883e+00
2.900000000000000000e+01 4.528633499145507812e+01 -1.640363121032714844e+01 1.302363967895507812e+01 6.730260372161865234e+00 5.926170349121093750e+00 7.473199844360351562e+00
3.000000000000000000e+01 4.542416381835937500e+01 -1.626002883911132812e+01 1.018120384216308594e+01 4.334334850311279297e+00 4.354661464691162109e+00 5.494147300720214844e+00
3.100000000000000000e+01 4.556199264526367188e+01 -1.611642837524414062e+01 8.573676109313964844e+00 3.287770271301269531e+00 3.558433771133422852e+00 4.626039028167724609e+00
3.200000000000000000e+01 4.569982147216796875e+01 -1.597282600402832031e+01 7.571827411651611328e+00 2.601972341537475586e+00 3.052139997482299805e+00 4.112808227539062500e+00
3.300000000000000000e+01 4.524049758911132812e+01 -1.636753654479980469e+01 1.154946804046630859e+01 9.693673133850097656e+00 6.372942447662353516e+00 7.797775268554687500e+00
3.400000000000000000e+01 4.534776687622070312e+01 -1.619987297058105469e+01 9.282984733581542969e+00 6.644754886627197266e+00 4.778321743011474609e+00 5.993826866149902344e+00
3.500000000000000000e+01 4.545503616333007812e+01 -1.603220748901367188e+01 7.867537021636962891e+00 5.176339626312255859e+00 3.913162946701049805e+00 5.126809120178222656e+00
3.600000000000000000e+01 4.556230545043945312e+01 -1.586454391479492188e+01 6.954781532287597656e+00 4.305684089660644531e+00 3.378139734268188477e+00 4.522378921508789062e+00
3.700000000000000000e+01 4.518851470947265625e+01 -1.634104728698730469e+01 1.018846225738525391e+01 1.243442821502685547e+01 6.786867141723632812e+00 7.188457965850830078e+00
3.800000000000000000e+01 4.526113128662109375e+01 -1.615572166442871094e+01 8.220059394836425781e+00 8.810490608215332031e+00 5.109164714813232422e+00 5.841857910156250000e+00
3.900000000000000000e+01 4.533374404907226562e+01 -1.597039699554443359e+01 7.028751850128173828e+00 7.120573520660400391e+00 4.244797706604003906e+00 5.002256870269775391e+00
4.000000000000000000e+01 4.540636062622070312e+01 -1.578507328033447266e+01 6.164450168609619141e+00 6.009247779846191406e+00 3.652109384536743164e+00 4.495418071746826172e+00
4.100000000000000000e+01 4.513237380981445312e+01 -1.632517051696777344e+01 9.135937690734863281e+00 1.445553207397460938e+01 7.077440738677978516e+00 5.951828479766845703e+00
4.200000000000000000e+01 4.516756057739257812e+01 -1.612926292419433594e+01 7.436103820800781250e+00 1.069243717193603516e+01 5.438562393188476562e+00 5.037155628204345703e+00
4.300000000000000000e+01 4.520274734497070312e+01 -1.593335437774658203e+01 6.189189910888671875e+00 8.743668556213378906e+00 4.479857444763183594e+00 4.411114215850830078e+00
4.400000000000000000e+01 4.523793411254882812e+01 -1.573744678497314453e+01 5.563401222229003906e+00 7.508603096008300781e+00 3.921601295471191406e+00 3.914065599441528320e+00
4.500000000000000000e+01 4.507421493530273438e+01 -1.632051658630371094e+01 8.876034736633300781e+00 1.574325370788574219e+01 7.385786533355712891e+00 4.333919048309326172e+00
4.600000000000000000e+01 4.507063293457031250e+01 -1.612150573730468750e+01 6.857761859893798828e+00 1.195521831512451172e+01 5.643894195556640625e+00 3.862429857254028320e+00
4.700000000000000000e+01 4.506704711914062500e+01 -1.592249488830566406e+01 5.859642028808593750e+00 9.925527572631835938e+00 4.735550880432128906e+00 3.398558139801025391e+00
4.800000000000000000e+01 4.506346130371093750e+01 -1.572348499298095703e+01 5.004772186279296875e+00 8.567580223083496094e+00 4.071705818176269531e+00 3.023253440856933594e+00
4.900000000000000000e+01 4.501626205444335938e+01 -1.632726287841796875e+01 9.037867546081542969e+00 1.613278579711914062e+01 7.551196098327636719e+00 2.715756177902221680e+00
5.000000000000000000e+01 4.497404479980468750e+01 -1.613274765014648438e+01 6.993792057037353516e+00 1.260621929168701172e+01 5.880003452301025391e+00 2.535942554473876953e+00
5.100000000000000000e+01 4.493182373046875000e+01 -1.593823432922363281e+01 5.744194984436035156e+00 1.049966526031494141e+01 4.873157978057861328e+00 2.217201709747314453e+00
5.200000000000000000e+01 4.488960647583007812e+01 -1.574372100830078125e+01 5.054638862609863281e+00 9.126596450805664062e+00 4.254370689392089844e+00 1.993017673492431641e+00
5.300000000000000000e+01 4.496073150634765625e+01 -1.634514999389648438e+01 9.909906387329101562e+00 1.591794013977050781e+01 7.748353958129882812e+00 1.409240722656250000e+00
5.400000000000000000e+01 4.488148880004882812e+01 -1.616255950927734375e+01 7.431953430175781250e+00 1.253993797302246094e+01 5.991567611694335938e+00 1.288444876670837402e+00
5.500000000000000000e+01 4.480224609375000000e+01 -1.597996997833251953e+01 6.253803253173828125e+00 1.054505634307861328e+01 5.039657592773437500e+00 1.156317353248596191e+00
5.600000000000000000e+01 4.472300338745117188e+01 -1.579738140106201172e+01 5.335495948791503906e+00 9.146818161010742188e+00 4.344694137573242188e+00 9.789774417877197266e-01
5.700000000000000000e+01 4.490973281860351562e+01 -1.637349510192871094e+01 1.096413516998291016e+01 1.512296676635742188e+01 7.826130867004394531e+00 5.127604007720947266e-01
5.800000000000000000e+01 4.479649734497070312e+01 -1.620980262756347656e+01 8.388352394104003906e+00 1.202228164672851562e+01 6.123190402984619141e+00 4.395888745784759521e-01
5.900000000000000000e+01 4.468325805664062500e+01 -1.604611015319824219e+01 6.961982250213623047e+00 1.005778026580810547e+01 5.105928421020507812e+00 3.358310163021087646e-01
6.000000000000000000e+01 4.457001876831054688e+01 -1.588241672515869141e+01 6.078229904174804688e+00 8.793714523315429688e+00 4.461583137512207031e+00 2.858027815818786621e-01
6.100000000000000000e+01 4.486522674560546875e+01 -1.641121673583984375e+01 1.220390319824218750e+01 1.415657711029052734e+01 7.908144474029541016e+00 1.987394094467163086e-01
6.200000000000000000e+01 4.472231292724609375e+01 -1.627267074584960938e+01 9.445284843444824219e+00 1.110039901733398438e+01 6.163705348968505859e+00 4.792411997914314270e-02
6.300000000000000000e+01 4.457940292358398438e+01 -1.613412666320800781e+01 7.911800384521484375e+00 9.341474533081054688e+00 5.175982475280761719e+00 1.085005421191453934e-02
6.400000000000000000e+01 4.443649291992187500e+01 -1.599558162689208984e+01 6.886136054992675781e+00 8.102503776550292969e+00 4.496592044830322266e+00 -5.670945718884468079e-02
6.500000000000000000e+01 4.482890319824218750e+01 -1.645687294006347656e+01 1.331958675384521484e+01 1.307090473175048828e+01 7.917147636413574219e+00 4.124574661254882812e-01
6.600000000000000000e+01 4.466177749633789062e+01 -1.634876632690429688e+01 1.046356773376464844e+01 1.015764808654785156e+01 6.186364650726318359e+00 2.342924028635025024e-01
6.700000000000000000e+01 4.449465179443359375e+01 -1.624065971374511719e+01 8.784120559692382812e+00 8.498518943786621094e+00 5.184791564941406250e+00 1.632724106311798096e-01
6.800000000000000000e+01 4.432752609252929688e+01 -1.613255310058593750e+01 7.657194137573242188e+00 7.364960670471191406e+00 4.506646156311035156e+00 8.185892552137374878e-02
6.900000000000000000e+01 4.480215454101562500e+01 -1.650872230529785156e+01 1.412635517120361328e+01 1.215968418121337891e+01 7.885811805725097656e+00 1.117097973823547363e+00
7.000000000000000000e+01 4.461719512939453125e+01 -1.643518257141113281e+01 1.118841266632080078e+01 9.350684165954589844e+00 6.161729335784912109e+00 9.263346791267395020e-01
7.100000000000000000e+01 4.443223571777343750e+01 -1.636164093017578125e+01 9.378839492797851562e+00 7.809235095977783203e+00 5.156422615051269531e+00 7.710233926773071289e-01
7.200000000000000000e+01 4.424727630615234375e+01 -1.628810119628906250e+01 8.182012557983398438e+00 6.770733833312988281e+00 4.485824108123779297e+00 6.244260668754577637e-01
7.300000000000000000e+01 4.478599548339843750e+01 -1.656478500366210938e+01 1.450685405731201172e+01 1.158466720581054688e+01 7.827456474304199219e+00 2.246916532516479492e+00
7.400000000000000000e+01 4.459026718139648438e+01 -1.652861785888671875e+01 1.136746311187744141e+01 8.881870269775390625e+00 6.074800014495849609e+00 1.950664520263671875e+00
7.500000000000000000e+01 4.439453887939453125e+01 -1.649245262145996094e+01 9.553101539611816406e+00 7.459605216979980469e+00 5.103812217712402344e+00 1.696317195892333984e+00
7.600000000000000000e+01 4.419880676269531250e+01 -1.645628547668457031e+01 8.286153793334960938e+00 6.462808132171630859e+00 4.424688816070556641e+00 1.457965731620788574e+00
7.700000000000000000e+01 4.478105163574218750e+01 -1.662291717529296875e+01 1.420621395111083984e+01 1.138691139221191406e+01 7.677937507629394531e+00 3.565769672393798828e+00
7.800000000000000000e+01 4.458202743530273438e+01 -1.662550735473632812e+01 1.097570037841796875e+01 8.969986915588378906e+00 5.983706474304199219e+00 3.145604848861694336e+00
7.900000000000000000e+01 4.438299942016601562e+01 -1.662809753417968750e+01 9.109281539916992188e+00 7.463346004486083984e+00 4.971788406372070312e+00 2.692755937576293945e+00
8.000000000000000000e+01 4.418397521972656250e+01 -1.663068580627441406e+01 7.935019016265869141e+00 6.585377216339111328e+00 4.356118679046630859e+00 2.393952131271362305e+00
8.100000000000000000e+01 4.478750991821289062e+01 -1.668090248107910156e+01 1.324730300903320312e+01 1.190151405334472656e+01 7.544644832611083984e+00 4.926105499267578125e+00
8.200000000000000000e+01 4.459278488159179688e+01 -1.672214889526367188e+01 9.878677368164062500e+00 9.392823219299316406e+00 5.781450271606445312e+00 4.177763462066650391e+00
8.300000000000000000e+01 4.439806365966796875e+01 -1.676339530944824219e+01 8.155116081237792969e+00 8.038631439208984375e+00 4.858124256134033203e+00 3.595829486846923828e+00
8.400000000000000000e+01 4.420333862304687500e+01 -1.680464172363281250e+01 6.985988140106201172e+00 6.949157238006591797e+00 4.180543422698974609e+00 3.168849468231201172e+00
8.500000000000000000e+01 4.480511474609375000e+01 -1.673652458190917969e+01 1.149129295349121094e+01 1.273814392089843750e+01 7.268831253051757812e+00 5.976785182952880859e+00
8.600000000000000000e+01 4.462213134765625000e+01 -1.681485366821289062e+01 8.297725677490234375e+00 1.041133499145507812e+01 5.612718105316162109e+00 4.858458995819091797e+00
8.700000000000000000e+01 4.443914794921875000e+01 -1.689318084716796875e+01 6.669200897216796875e+00 8.739111900329589844e+00 4.622493743896484375e+00 4.140504360198974609e+00
8.800000000000000000e+01 4.425616455078125000e+01 -1.697150802612304688e+01 5.687651157379150391e+00 7.781919956207275391e+00 4.040871143341064453e+00 3.645244121551513672e+00
8.900000000000000000e+01 4.483320617675781250e+01 -1.678766059875488281e+01 9.225089073181152344e+00 1.423530292510986328e+01 7.038117408752441406e+00 6.438780784606933594e+00
9.000000000000000000e+01 4.466894912719726562e+01 -1.690007972717285156e+01 6.285471916198730469e+00 1.135453701019287109e+01 5.292002677917480469e+00 4.986386775970458984e+00
9.100000000000000000e+01 4.450469207763671875e+01 -1.701249694824218750e+01 4.977397441864013672e+00 9.797284126281738281e+00 4.432404518127441406e+00 4.183499813079833984e+00
9.200000000000000000e+01 4.434043884277343750e+01 -1.712491607666015625e+01 4.111607074737548828e+00 8.519193649291992188e+00 3.789240360260009766e+00 3.671808242797851562e+00
9.300000000000000000e+01 4.487070465087890625e+01 -1.683235740661621094e+01 6.544827938079833984e+00 1.552306175231933594e+01 6.620366573333740234e+00 6.143116474151611328e+00
9.400000000000000000e+01 4.473144912719726562e+01 -1.697457313537597656e+01 4.278668880462646484e+00 1.249154376983642578e+01 5.031063556671142578e+00 4.427500247955322266e+00
9.500000000000000000e+01 4.459218978881835938e+01 -1.711678886413574219e+01 3.171202659606933594e+00 1.045522403717041016e+01 4.087927818298339844e+00 3.698341608047485352e+00
9.600000000000000000e+01 4.445293426513671875e+01 -1.725900650024414062e+01 2.606932640075683594e+00 9.365654945373535156e+00 3.591776371002197266e+00 3.177142381668090820e+00
9.700000000000000000e+01 4.491617965698242188e+01 -1.686890792846679688e+01 4.071690082550048828e+00 1.682723236083984375e+01 6.269676685333251953e+00 4.872924804687500000e+00
9.800000000000000000e+01 4.480723953247070312e+01 -1.703549194335937500e+01 2.355132102966308594e+00 1.290691375732421875e+01 4.578613758087158203e+00 3.352990627288818359e+00
9.900000000000000000e+01 4.469829559326171875e+01 -1.720207405090332031e+01 1.683418512344360352e+00 1.103676795959472656e+01 3.816056013107299805e+00 2.637931108474731445e+00
1.000000000000000000e+02 4.458935546875000000e+01 -1.736865806579589844e+01 1.216578006744384766e+00 9.555683135986328125e+00 3.231678485870361328e+00 2.289570331573486328e+00
1.010000000000000000e+02 4.496789550781250000e+01 -1.689591789245605469e+01 1.888805031776428223e+00 1.710668373107910156e+01 5.698646545410156250e+00 2.984680414199829102e+00
1.020000000000000000e+02 4.489342880249023438e+01 -1.708050727844238281e+01 1.047709345817565918e+00 1.294426918029785156e+01 4.197593688964843750e+00 1.699203252792358398e+00
1.030000000000000000e+02 4.481896591186523438e+01 -1.726509666442871094e+01 5.027992129325866699e-01 1.068412971496582031e+01 3.356078624725341797e+00 1.382140994071960449e+00
1.040000000000000000e+02 4.474450302124023438e+01 -1.744968605041503906e+01 3.134292066097259521e-01 9.549399375915527344e+00 2.958848476409912109e+00 1.075497746467590332e+00
1.050000000000000000e+02 4.502387619018554688e+01 -1.691235351562500000e+01 6.831473112106323242e-01 1.653527641296386719e+01 5.165526866912841797e+00 5.320833921432495117e-01
1.060000000000000000e+02 4.498672866821289062e+01 -1.710790061950683594e+01 1.860686838626861572e-01 1.190462875366210938e+01 3.627209186553955078e+00 3.594056889414787292e-02
1.070000000000000000e+02 4.494958496093750000e+01 -1.730344581604003906e+01 2.366988547146320343e-02 9.838763236999511719e+00 2.958729982376098633e+00 -1.097309663891792297e-01
1.080000000000000000e+02 4.491244125366210938e+01 -1.749899291992187500e+01 -1.762394607067108154e-01 8.501190185546875000e+00 2.497485160827636719e+00 1.770752109587192535e-02
1.090000000000000000e+02 4.508198165893554688e+01 -1.691758918762207031e+01 2.145488709211349487e-01 1.454583835601806641e+01 4.428116321563720703e+00 -1.722499489784240723e+00
1.100000000000000000e+02 4.508357620239257812e+01 -1.711662483215332031e+01 1.180376335978507996e-01 1.015227699279785156e+01 3.081094264984130859e+00 -1.586545348167419434e+00
1.110000000000000000e+02 4.508517074584960938e+01 -1.731566238403320312e+01 -3.698748350143432617e-02 8.119712829589843750e+00 2.424817800521850586e+00 -1.204615592956542969e+00
1.120000000000000000e+02 4.508676528930664062e+01 -1.751469802856445312e+01 -1.406685411930084229e-01 6.999288082122802734e+00 2.057585716247558594e+00 -1.069285631179809570e+00
1.130000000000000000e+02 4.513999938964843750e+01 -1.691142272949218750e+01 7.418088316917419434e-01 1.143722248077392578e+01 3.653709411621093750e+00 -3.588158845901489258e+00
1.140000000000000000e+02 4.518027114868164062e+01 -1.710634994506835938e+01 3.869998455047607422e-01 7.514991283416748047e+00 2.370597362518310547e+00 -2.442981243133544922e+00
1.150000000000000000e+02 4.522054290771484375e+01 -1.730127525329589844e+01 3.675326108932495117e-01 6.050377845764160156e+00 1.925373196601867676e+00 -1.956797599792480469e+00
1.160000000000000000e+02 4.526081466674804688e+01 -1.749620246887207031e+01 6.644450128078460693e-02 5.182629108428955078e+00 1.574722051620483398e+00 -1.523272395133972168e+00
1.170000000000000000e+02 4.519570922851562500e+01 -1.689409255981445312e+01 1.428771138191223145e+00 7.326979637145996094e+00 2.626725196838378906e+00 -4.184245109558105469e+00
1.180000000000000000e+02 4.527312088012695312e+01 -1.707746505737304688e+01 1.066094398498535156e+00 4.532987117767333984e+00 1.679724454879760742e+00 -2.629897356033325195e+00
1.190000000000000000e+02 4.535053253173828125e+01 -1.726083755493164062e+01 5.879023075103759766e-01 3.736984729766845703e+00 1.297466158866882324e+00 -1.737224102020263672e+00
1.200000000000000000e+02 4.542794418334960938e+01 -1.744421005249023438e+01 4.031472206115722656e-01 3.559229135513305664e+00 1.188712835311889648e+00 -1.503064632415771484e+00
1.210000000000000000e+02 4.524698257446289062e+01 -1.686625862121582031e+01 2.297534227371215820e+00 2.435247659683227539e+00 1.419834613800048828e+00 -3.563518524169921875e+00
1.220000000000000000e+02 4.535858154296875000e+01 -1.703107452392578125e+01 1.004340410232543945e+00 1.817156434059143066e+00 8.464490771293640137e-01 -1.349274873733520508e+00
1.230000000000000000e+02 4.547017669677734375e+01 -1.719589233398437500e+01 5.809983015060424805e-01 2.165014982223510742e+00 8.238039612770080566e-01 -1.268604636192321777e+00
1.240000000000000000e+02 4.558177185058593750e+01 -1.736071014404296875e+01 4.309343993663787842e-01 1.499493837356567383e+00 5.791285037994384766e-01 -9.051002264022827148e-01
1.250000000000000000e+02 4.529186630249023438e+01 -1.682898521423339844e+01 4.611000418663024902e-01 -1.752279400825500488e+00 -3.873538374900817871e-01 -7.195228338241577148e-02
1.260000000000000000e+02 4.543338775634765625e+01 -1.696895027160644531e+01 4.377536773681640625e-01 1.057380557060241699e+00 4.485402703285217285e-01 -5.124262571334838867e-01
1.270000000000000000e+02 4.557490539550781250e+01 -1.710891914367675781e+01 1.470083594322204590e-01 1.822941005229949951e-01 9.879073500633239746e-02 -2.585852146148681641e-01
1.280000000000000000e+02 4.571642303466796875e+01 -1.724888610839843750e+01 -1.483588572591543198e-02 2.041797935962677002e-01 5.680317431688308716e-02 -8.723679184913635254e-02
1.290000000000000000e+02 4.729700851440429688e+01 -1.686204147338867188e+01 8.793812394142150879e-01 -2.347247907891869545e-03 2.631101906299591064e-01 1.669328063726425171e-01
1.300000000000000000e+02 4.676223754882812500e+01 -1.752968025207519531e+01 -1.662819832563400269e-01 -2.857165597379207611e-02 -5.845609307289123535e-02 -1.186249479651451111e-01
1.310000000000000000e+02 4.572647094726562500e+01 -1.536095428466796875e+01 5.270274639129638672e+00 3.629983186721801758e+00 2.670077323913574219e+00 3.598436832427978516e+00
1.320000000000000000e+02 4.381359100341796875e+01 -1.596822166442871094e+01 5.980473518371582031e+00 5.345779418945312500e+00 3.397876024246215820e+00 6.379547715187072754e-02
1.330000000000000000e+02 4.396965789794921875e+01 -1.660790443420410156e+01 6.986038684844970703e+00 5.758939266204833984e+00 3.823493480682373047e+00 2.045126676559448242e+00
1.340000000000000000e+02 4.583924865722656250e+01 -1.888031768798828125e+01 -7.001348584890365601e-02 2.881074905395507812e+00 8.433184623718261719e-01 -6.301901489496231079e-02
1.350000000000000000e+02 4.532643508911132812e+01 -1.800871276855468750e+01 -2.317020446062088013e-01 4.413523197174072266e+00 1.254546403884887695e+00 -8.830332756042480469e-01
1.360000000000000000e+02 4.675873184204101562e+01 -1.614834594726562500e+01 4.756848335266113281e+00 -2.091051340103149414e-01 1.364323019981384277e+00 1.417875885963439941e+00
1.370000000000000000e+02 4.595370483398437500e+01 -1.599351978302001953e+01 7.140985488891601562e+00 1.053381919860839844e+00 2.458310365676879883e+00 3.030338764190673828e+00
1.380000000000000000e+02 4.617628860473632812e+01 -1.570258617401123047e+01 6.148648262023925781e+00 1.121701717376708984e+00 2.181104898452758789e+00 2.940778970718383789e+00
1.390000000000000000e+02 4.529722976684570312e+01 -1.553008937835693359e+01 4.932040214538574219e+00 6.365316390991210938e+00 3.389206886291503906e+00 3.618775367736816406e+00
1.400000000000000000e+02 4.484478378295898438e+01 -1.536950111389160156e+01 4.126063346862792969e+00 7.366828918457031250e+00 3.447867631912231445e+00 1.804861903190612793e+00
1.410000000000000000e+02 4.402785491943359375e+01 -1.589535903930664062e+01 6.176100254058837891e+00 6.075428962707519531e+00 3.675458908081054688e+00 -6.964741647243499756e-02
1.420000000000000000e+02 4.400079345703125000e+01 -1.682221603393554688e+01 6.358384132385253906e+00 6.196085453033447266e+00 3.766340970993041992e+00 2.750894784927368164e+00
1.430000000000000000e+02 4.426302337646484375e+01 -1.738710784912109375e+01 2.271109580993652344e+00 8.215880393981933594e+00 3.146096944808959961e+00 2.894123077392578125e+00
1.440000000000000000e+02 4.523401260375976562e+01 -1.852199745178222656e+01 -4.006711840629577637e-01 4.659515857696533203e+00 1.277653455734252930e+00 -6.399073004722595215e-01
1.450000000000000000e+02 4.552325820922851562e+01 -1.878913688659667969e+01 -2.195272892713546753e-01 3.763003826141357422e+00 1.063042998313903809e+00 -5.303785204887390137e-01
1.460000000000000000e+02 4.592273712158203125e+01 -1.910918045043945312e+01 -2.695863880217075348e-02 3.423374414443969727e+00 1.018924713134765625e+00 3.067860901355743408e-01
1.470000000000000000e+02 4.595206069946289062e+01 -1.893069267272949219e+01 1.179777979850769043e-01 3.018988370895385742e+00 9.410898685455322266e-01 2.613051533699035645e-01
1.480000000000000000e+02 4.607572174072265625e+01 -1.808834266662597656e+01 7.620477676391601562e-02 5.568780303001403809e-01 1.899248361587524414e-01 -9.132904559373855591e-02
1.490000000000000000e+02 4.600880813598632812e+01 -1.751447677612304688e+01 -1.529964655637741089e-01 -2.615210367366671562e-03 -4.668350145220756531e-02 9.746864438056945801e-02
1.500000000000000000e+02 4.647601699829101562e+01 -1.788129043579101562e+01 -3.785545122809708118e-04 -8.198888599872589111e-02 -2.471023239195346832e-02 6.803123746067285538e-03
1.510000000000000000e+02 4.602334594726562500e+01 -1.780389595031738281e+01 2.163693308830261230e-01 4.822742938995361328e-01 2.095930874347686768e-01 -1.575699299573898315e-01
1.520000000000000000e+02 4.570504760742187500e+01 -1.752506065368652344e+01 2.960827648639678955e-01 1.229203939437866211e+00 4.575859904289245605e-01 -7.080209255218505859e-01
1.530000000000000000e+02 4.585969924926757812e+01 -1.738498687744140625e+01 -1.233651638031005859e-01 6.983028352260589600e-02 -1.606046222150325775e-02 1.249890960752964020e-02
1.540000000000000000e+02 4.390426254272460938e+01 -1.581922149658203125e+01 5.693270206451416016e+00 5.531363487243652344e+00 3.367390155792236328e+00 -1.045487895607948303e-01
1.550000000000000000e+02 4.432483291625976562e+01 -1.757064247131347656e+01 1.379734992980957031e+00 8.193895339965820312e+00 2.872089147567749023e+00 2.289513111114501953e+00
1.560000000000000000e+02 4.443209075927734375e+01 -1.785959625244140625e+01 2.686881124973297119e-01 7.623770713806152344e+00 2.367737531661987305e+00 1.289237737655639648e+00
1.570000000000000000e+02 4.488662719726562500e+01 -1.771760368347167969e+01 -2.851109802722930908e-01 7.721870899200439453e+00 2.231028079986572266e+00 -1.251530349254608154e-01
1.580000000000000000e+02 4.616130065917968750e+01 -1.733513832092285156e+01 -3.403341174125671387e-01 -1.092218384146690369e-01 -1.348667889833450317e-01 2.861653268337249756e-01
1.590000000000000000e+02 4.637404632568359375e+01 -1.610390090942382812e+01 5.836830139160156250e+00 -1.574333906173706055e-01 1.703819036483764648e+00 1.638395667076110840e+00
1.600000000000000000e+02 4.591926956176757812e+01 -1.572551727294921875e+01 6.476541996002197266e+00 2.096242904663085938e+00 2.571835517883300781e+00 3.562741279602050781e+00
1.610000000000000000e+02 4.556299209594726562e+01 -1.531164836883544922e+01 4.843379974365234375e+00 4.612529277801513672e+00 2.836772918701171875e+00 3.593530893325805664e+00
1.620000000000000000e+02 4.508671188354492188e+01 -1.550900268554687500e+01 4.588822841644287109e+00 7.448023796081542969e+00 3.611053943634033203e+00 2.791750669479370117e+00
1.630000000000000000e+02 4.663126373291015625e+01 -1.769516563415527344e+01 -9.988716244697570801e-02 -1.970350509509444237e-03 -3.055725432932376862e-02 -1.377226784825325012e-02
1.640000000000000000e+02 4.719353485107421875e+01 -1.649927520751953125e+01 2.803581953048706055e+00 -2.827393114566802979e-01 7.562527656555175781e-01 6.939875483512878418e-01
1.650000000000000000e+02 4.745950698852539062e+01 -1.672592544555664062e+01 6.003273129463195801e-01 2.122460752725601196e-01 2.437720149755477905e-01 9.133405089378356934e-01
1.660000000000000000e+02 4.620245742797851562e+01 -1.683806800842285156e+01 2.191348075866699219e+00 2.343997824937105179e-03 6.581075787544250488e-01 -2.678157687187194824e-01
1.670000000000000000e+02 4.617799758911132812e+01 -1.637456130981445312e+01 5.551673889160156250e+00 -2.163307815790176392e-01 1.600602984428405762e+00 9.386704564094543457e-01
1.680000000000000000e+02 4.602934646606445312e+01 -1.558105945587158203e+01 6.048967838287353516e+00 1.919808268547058105e+00 2.390632867813110352e+00 3.353176116943359375e+00
1.690000000000000000e+02 4.704415130615234375e+01 -1.639016532897949219e+01 3.695417404174804688e+00 -2.617477774620056152e-01 1.030100941658020020e+00 1.147799491882324219e+00
1.700000000000000000e+02 4.587779998779296875e+01 -1.546407318115234375e+01 5.668624877929687500e+00 2.825726747512817383e+00 2.548305511474609375e+00 3.608074903488159180e+00
1.710000000000000000e+02 4.576595306396484375e+01 -1.559955406188964844e+01 6.075569152832031250e+00 3.294106006622314453e+00 2.810902595520019531e+00 3.876980304718017578e+00
1.720000000000000000e+02 4.556225585937500000e+01 -1.827610015869140625e+01 -2.741102278232574463e-01 3.449326038360595703e+00 9.525647163391113281e-01 -6.909993290901184082e-01
1.730000000000000000e+02 4.429982376098632812e+01 -1.582457542419433594e+01 6.019685268402099609e+00 7.181072711944580078e+00 3.960227489471435547e+00 -9.802513569593429565e-02
1.740000000000000000e+02 4.607668685913085938e+01 -1.616302299499511719e+01 6.608355998992919922e+00 2.333353012800216675e-01 2.052507400512695312e+00 2.042545557022094727e+00
1.750000000000000000e+02 4.655456542968750000e+01 -1.645552635192871094e+01 4.229810714721679688e+00 -2.573752105236053467e-01 1.191730618476867676e+00 7.792298793792724609e-01
1.760000000000000000e+02 4.585511016845703125e+01 -1.767492294311523438e+01 2.296656817197799683e-01 8.846696615219116211e-01 3.343006074428558350e-01 -4.398906826972961426e-01
1.770000000000000000e+02 4.468984222412109375e+01 -1.768611717224121094e+01 4.002526868134737015e-03 8.225321769714355469e+00 2.468797206878662109e+00 7.994887232780456543e-01
1.780000000000000000e+02 4.406297683715820312e+01 -1.619446945190429688e+01 7.290280818939208984e+00 5.973734855651855469e+00 3.979204654693603516e+00 4.706434607505798340e-01
1.790000000000000000e+02 4.562879562377929688e+01 -1.867109489440917969e+01 -2.539709210395812988e-01 3.396540403366088867e+00 9.427708387374877930e-01 -4.710874855518341064e-01
1.800000000000000000e+02 4.552550888061523438e+01 -1.765592002868652344e+01 2.026501893997192383e-01 2.834738254547119141e+00 9.112164974212646484e-01 -1.111824512481689453e+00
1.810000000000000000e+02 4.566254806518554688e+01 -1.572046852111816406e+01 6.390916347503662109e+00 3.687863349914550781e+00 3.023633956909179688e+00 4.198061466217041016e+00
1.820000000000000000e+02 4.392468261718750000e+01 -1.607022857666015625e+01 6.597614288330078125e+00 5.599971771240234375e+00 3.659275770187377930e+00 2.255908101797103882e-01
1.830000000000000000e+02 4.600386047363281250e+01 -1.721090507507324219e+01 -4.484189748764038086e-01 -2.387255579233169556e-01 -2.061433643102645874e-01 2.401091158390045166e-01
1.840000000000000000e+02 4.658958053588867188e+01 -1.740730857849121094e+01 -2.322884798049926758e-01 1.884592026472091675e-01 -1.314878463745117188e-02 -4.783496633172035217e-02
1.850000000000000000e+02 4.622002792358398438e+01 -1.661234283447265625e+01 3.950714826583862305e+00 -1.491146385669708252e-01 1.140480041503906250e+00 2.299422770738601685e-01
1.860000000000000000e+02 4.623670578002929688e+01 -1.819623756408691406e+01 -5.062664672732353210e-02 -4.208946600556373596e-02 -2.781483344733715057e-02 -1.250113397836685181e-01
1.870000000000000000e+02 4.460471343994140625e+01 -1.796721076965332031e+01 -1.432810574769973755e-01 7.359619617462158203e+00 2.164901733398437500e+00 5.579336285591125488e-01
1.880000000000000000e+02 4.481302261352539062e+01 -1.522546958923339844e+01 3.817676544189453125e+00 6.740311145782470703e+00 3.167396306991577148e+00 1.509847640991210938e+00
1.890000000000000000e+02 4.392615509033203125e+01 -1.735284233093261719e+01 3.201430082321166992e+00 6.751378059387207031e+00 2.985842466354370117e+00 2.893323183059692383e+00
1.900000000000000000e+02 4.446469879150390625e+01 -1.569070148468017578e+01 5.219590187072753906e+00 7.766328811645507812e+00 3.895775794982910156e+00 2.421329468488693237e-01
1.910000000000000000e+02 4.515769958496093750e+01 -1.526071071624755859e+01 4.074093818664550781e+00 6.325614929199218750e+00 3.119912624359130859e+00 2.734571695327758789e+00
1.920000000000000000e+02 4.606698226928710938e+01 -1.586267185211181641e+01 6.625940322875976562e+00 1.061505794525146484e+00 2.306233882904052734e+00 2.948760032653808594e+00
1.930000000000000000e+02 4.616384124755859375e+01 -1.763928794860839844e+01 -1.034131720662117004e-01 -7.415717095136642456e-02 -5.327109992504119873e-02 1.312375962734222412e-01
1.940000000000000000e+02 4.647184753417968750e+01 -1.757511711120605469e+01 -2.059545665979385376e-01 2.516978606581687927e-02 -5.423543602228164673e-02 6.763175129890441895e-02
1.950000000000000000e+02 4.414497375488281250e+01 -1.722907257080078125e+01 3.714519262313842773e+00 7.639546394348144531e+00 3.406219720840454102e+00 3.262075185775756836e+00
1.960000000000000000e+02 4.369131469726562500e+01 -1.672244644165039062e+01 5.941652774810791016e+00 5.149119377136230469e+00 3.327231645584106445e+00 2.034101724624633789e+00
1.970000000000000000e+02 4.368731307983398438e+01 -1.688512611389160156e+01 5.174190521240234375e+00 5.396954059600830078e+00 3.171343326568603516e+00 2.331935882568359375e+00
1.980000000000000000e+02 4.497558593750000000e+01 -1.522967147827148438e+01 3.952354907989501953e+00 6.801180839538574219e+00 3.226060867309570312e+00 2.190216064453125000e+00
1.990000000000000000e+02 4.464891052246093750e+01 -1.541749477386474609e+01 4.205831527709960938e+00 7.481684684753417969e+00 3.506254911422729492e+00 9.922521710395812988e-01
2.000000000000000000e+02 4.487268447875976562e+01 -1.554032039642333984e+01 4.389346122741699219e+00 8.026395797729492188e+00 3.724722623825073242e+00 1.902385473251342773e+00
2.010000000000000000e+02 4.434297943115234375e+01 -1.547047424316406250e+01 4.601181507110595703e+00 6.891158103942871094e+00 3.447701930999755859e+00 1.659032553434371948e-01
2.020000000000000000e+02 4.417358779907226562e+01 -1.559970378875732422e+01 5.088096618652343750e+00 6.520775794982910156e+00 3.482661724090576172e+00 -1.523646712303161621e-01
2.030000000000000000e+02 4.372738265991210938e+01 -1.705378150939941406e+01 4.750830173492431641e+00 5.616473197937011719e+00 3.110191106796264648e+00 2.573470592498779297e+00
2.040000000000000000e+02 4.406081390380859375e+01 -1.703633689880371094e+01 4.991713047027587891e+00 6.891577720642089844e+00 3.564987182617187500e+00 3.262074232101440430e+00
2.050000000000000000e+02 4.402220916748046875e+01 -1.570636272430419922e+01 5.485542774200439453e+00 6.091291904449462891e+00 3.473050355911254883e+00 -2.651607096195220947e-01
2.060000000000000000e+02 4.376861953735351562e+01 -1.613152122497558594e+01 6.472171783447265625e+00 5.150677680969238281e+00 3.486854791641235352e+00 4.347285330295562744e-01
2.070000000000000000e+02 4.387884521484375000e+01 -1.704716110229492188e+01 4.868676662445068359e+00 6.264830589294433594e+00 3.340052127838134766e+00 2.924078226089477539e+00
2.080000000000000000e+02 4.536811065673828125e+01 -1.528851795196533203e+01 4.552728652954101562e+00 5.495199203491210938e+00 3.014378309249877930e+00 3.295485734939575195e+00
2.090000000000000000e+02 4.399009323120117188e+01 -1.639560127258300781e+01 7.340365886688232422e+00 5.729244232177734375e+00 3.920883178710937500e+00 1.149867177009582520e+00
2.100000000000000000e+02 4.449637603759765625e+01 -1.534828853607177734e+01 4.162495136260986328e+00 7.042586326599121094e+00 3.361524343490600586e+00 5.336564779281616211e-01
2.110000000000000000e+02 4.414778137207031250e+01 -1.765952873229980469e+01 1.591719508171081543e+00 7.484741210937500000e+00 2.722938299179077148e+00 2.373461008071899414e+00
2.120000000000000000e+02 4.427516555786132812e+01 -1.776921272277832031e+01 7.366555929183959961e-01 7.805835247039794922e+00 2.562747240066528320e+00 1.839718222618103027e+00
2.130000000000000000e+02 4.575991058349609375e+01 -1.856706047058105469e+01 -2.903318405151367188e-01 2.801660776138305664e+00 7.533987164497375488e-01 -4.285104274749755859e-01
2.140000000000000000e+02 4.538778305053710938e+01 -1.836325836181640625e+01 -3.621415793895721436e-01 4.085292816162109375e+00 1.116945385932922363e+00 -6.561902165412902832e-01
2.150000000000000000e+02 4.477818679809570312e+01 -1.810408782958984375e+01 -3.977033495903015137e-01 6.650761604309082031e+00 1.875917553901672363e+00 3.827038779854774475e-02
2.160000000000000000e+02 4.510823440551757812e+01 -1.807655143737792969e+01 -3.712244331836700439e-01 5.544734954833984375e+00 1.552053213119506836e+00 -7.537761926651000977e-01
2.170000000000000000e+02 4.732920455932617188e+01 -1.659917449951171875e+01 2.471792459487915039e+00 -1.339881587773561478e-02 7.375180721282958984e-01 1.063209056854248047e+00
2.180000000000000000e+02 4.688748550415039062e+01 -1.735966873168945312e+01 -1.297319531440734863e-01 -1.345519721508026123e-01 -7.928517460823059082e-02 -1.871182471513748169e-01
2.190000000000000000e+02 4.714099121093750000e+01 -1.701613235473632812e+01 2.356981188058853149e-01 -1.973556578159332275e-01 1.150274183601140976e-02 6.117655709385871887e-02
2.200000000000000000e+02 4.691018676757812500e+01 -1.650199699401855469e+01 2.929731130599975586e+00 -2.170132845640182495e-01 8.138153553009033203e-01 8.430892825126647949e-01
2.210000000000000000e+02 4.632276153564453125e+01 -1.582163333892822266e+01 6.040259838104248047e+00 4.721386432647705078e-01 1.953719496726989746e+00 2.435755491256713867e+00
2.220000000000000000e+02 4.646957397460937500e+01 -1.592992782592773438e+01 5.848093509674072266e+00 1.072409301996231079e-01 1.786600351333618164e+00 2.061032056808471680e+00
2.230000000000000000e+02 4.661481475830078125e+01 -1.603674697875976562e+01 5.333116054534912109e+00 -2.413686364889144897e-01 1.527524352073669434e+00 1.550496935844421387e+00
2.240000000000000000e+02 4.632056427001953125e+01 -1.776103973388671875e+01 -1.437244471162557602e-02 -1.148832514882087708e-01 -3.877670690417289734e-02 9.416719526052474976e-02
2.250000000000000000e+02 4.619133377075195312e+01 -1.792247962951660156e+01 1.738235503435134888e-01 8.724559843540191650e-02 7.832074165344238281e-02 -2.532735466957092285e-02
2.260000000000000000e+02 4.612333297729492188e+01 -1.703733253479003906e+01 8.950578570365905762e-01 8.971740305423736572e-02 2.954325675964355469e-01 -1.402325034141540527e-01
2.270000000000000000e+02 4.508116149902343750e+01 -1.772939300537109375e+01 -3.157695829868316650e-01 6.297564029693603516e+00 1.794538378715515137e+00 -7.667092084884643555e-01
2.280000000000000000e+02 4.573571395874023438e+01 -1.879766082763671875e+01 -1.885918825864791870e-01 3.215209722518920898e+00 9.079853892326354980e-01 -3.889302015304565430e-01
2.290000000000000000e+02 4.647131347656250000e+01 -1.713549232482910156e+01 4.720489382743835449e-01 2.460324913263320923e-01 2.154244333505630493e-01 -1.389836519956588745e-01
2.300000000000000000e+02 4.603817749023437500e+01 -1.854288482666015625e+01 -3.973428532481193542e-02 1.170929908752441406e+00 3.393586874008178711e-01 -4.880346823483705521e-04
2.310000000000000000e+02 4.651621627807617188e+01 -1.667421340942382812e+01 2.956412315368652344e+00 -1.117450222373008728e-01 8.534001708030700684e-01 2.231839001178741455e-01
2.320000000000000000e+02 4.680122756958007812e+01 -1.638440322875976562e+01 4.216614246368408203e+00 -4.188377857208251953e-01 1.139333009719848633e+00 1.071633577346801758e+00
2.330000000000000000e+02 4.674825668334960938e+01 -1.651884269714355469e+01 3.216398239135742188e+00 -2.706854641437530518e-01 8.837137818336486816e-01 5.859752893447875977e-01
2.340000000000000000e+02 4.588089370727539062e+01 -1.843286323547363281e+01 -1.893147230148315430e-01 1.898597359657287598e+00 5.127847790718078613e-01 -2.514274418354034424e-01
2.350000000000000000e+02 4.530290222167968750e+01 -1.773700714111328125e+01 -2.917466126382350922e-02 4.744933128356933594e+00 1.414727568626403809e+00 -1.227891445159912109e+00
2.360000000000000000e+02 4.631388473510742188e+01 -1.745806121826171875e+01 -3.491988778114318848e-01 -5.037124827504158020e-02 -1.198710352182388306e-01 1.504859626293182373e-01
2.370000000000000000e+02 4.579789352416992188e+01 -1.902054595947265625e+01 3.263167291879653931e-02 3.447681427001953125e+00 1.044093966484069824e+00 -1.024337410926818848e-01
2.380000000000000000e+02 4.566409301757812500e+01 -1.891371345520019531e+01 -1.521560549736022949e-01 3.459639310836791992e+00 9.922449588775634766e-01 -4.169396758079528809e-01
2.390000000000000000e+02 4.598018646240234375e+01 -1.873725891113281250e+01 -8.478081226348876953e-02 2.006863594055175781e+00 5.766248703002929688e-01 2.195302546024322510e-01
2.400000000000000000e+02 4.537936401367187500e+01 -1.865719223022460938e+01 -3.310988843441009521e-01 4.121783733367919922e+00 1.137205481529235840e+00 -6.001369953155517578e-01
2.410000000000000000e+02 4.584200286865234375e+01 -1.872496414184570312e+01 -1.103961244225502014e-01 2.598576545715332031e+00 7.464541792869567871e-01 -2.214334160089492798e-01
2.420000000000000000e+02 4.550622940063476562e+01 -1.852926445007324219e+01 -3.493564426898956299e-01 3.678223371505737305e+00 9.986600875854492188e-01 -6.051986217498779297e-01
2.430000000000000000e+02 4.613272857666015625e+01 -1.836386108398437500e+01 -9.755103290081024170e-02 3.142185807228088379e-01 6.500026583671569824e-02 -7.348193973302841187e-02
2.440000000000000000e+02 4.597549819946289062e+01 -1.825953292846679688e+01 -8.820514380931854248e-02 1.236038923263549805e+00 3.443501591682434082e-01 -1.690834611654281616e-01
2.450000000000000000e+02 4.690463256835937500e+01 -1.686408424377441406e+01 1.649713635444641113e+00 -4.105491563677787781e-02 4.825976192951202393e-01 4.079747200012207031e-01
2.460000000000000000e+02 4.717282104492187500e+01 -1.667634391784667969e+01 1.899676561355590820e+00 -1.075501367449760437e-01 5.376379489898681641e-01 9.502305984497070312e-01
2.470000000000000000e+02 4.701021957397460938e+01 -1.718915557861328125e+01 1.102718561887741089e-01 -2.102769315242767334e-01 -3.000152297317981720e-02 -1.579707264900207520e-01
2.480000000000000000e+02 4.690273666381835938e+01 -1.626064109802246094e+01 4.344154834747314453e+00 -4.208804965019226074e-01 1.176982283592224121e+00 1.043428897857666016e+00
2.490000000000000000e+02 4.651684570312500000e+01 -1.618346595764160156e+01 4.998994827270507812e+00 -1.332441419363021851e-01 1.459725260734558105e+00 1.390280604362487793e+00
2.500000000000000000e+02 4.621631622314453125e+01 -1.600882911682128906e+01 6.360000610351562500e+00 3.176250457763671875e-01 2.003287792205810547e+00 2.240957498550415039e+00
2.510000000000000000e+02 4.561423873901367188e+01 -1.547628211975097656e+01 5.423749923706054688e+00 4.344639301300048828e+00 2.930516719818115234e+00 3.861071348190307617e+00
2.520000000000000000e+02 4.549161911010742188e+01 -1.560574054718017578e+01 5.635811805725097656e+00 5.185864448547363281e+00 3.246502876281738281e+00 4.072125434875488281e+00
2.530000000000000000e+02 4.464385604858398438e+01 -1.526571559906005859e+01 3.871529817581176758e+00 6.807967185974121094e+00 3.203849077224731445e+00 1.134262323379516602e+00
2.540000000000000000e+02 4.465843582153320312e+01 -1.560155487060546875e+01 4.753887176513671875e+00 8.130880355834960938e+00 3.865430355072021484e+00 8.804963827133178711e-01
2.550000000000000000e+02 4.417049026489257812e+01 -1.599827575683593750e+01 6.700366020202636719e+00 6.612583637237548828e+00 3.993884801864624023e+00 -5.964536592364311218e-02
2.560000000000000000e+02 4.374807357788085938e+01 -1.632717132568359375e+01 6.513670444488525391e+00 5.029805183410644531e+00 3.463042497634887695e+00 9.705884456634521484e-01
2.570000000000000000e+02 4.372140502929687500e+01 -1.653940200805664062e+01 6.352940559387207031e+00 5.059862613677978516e+00 3.423840999603271484e+00 1.575225830078125000e+00
2.580000000000000000e+02 4.380899810791015625e+01 -1.720087242126464844e+01 4.070726871490478516e+00 6.285367965698242188e+00 3.106828451156616211e+00 2.920935630798339844e+00
2.590000000000000000e+02 4.403993225097656250e+01 -1.751507949829101562e+01 2.262546300888061523e+00 7.246074199676513672e+00 2.852586030960083008e+00 2.683763980865478516e+00
2.600000000000000000e+02 4.450928497314453125e+01 -1.759574699401855469e+01 7.571778297424316406e-01 8.629378318786621094e+00 2.815966844558715820e+00 1.783655285835266113e+00
2.610000000000000000e+02 4.508435058593750000e+01 -1.839002609252929688e+01 -4.683850109577178955e-01 5.119593143463134766e+00 1.395362377166748047e+00 -6.086815595626831055e-01
2.620000000000000000e+02 4.493334579467773438e+01 -1.825507926940917969e+01 -4.559093117713928223e-01 5.960450649261474609e+00 1.651362419128417969e+00 -3.254949450492858887e-01
2.630000000000000000e+02 4.496880722045898438e+01 -1.791203308105468750e+01 -3.357705175876617432e-01 6.620303630828857422e+00 1.885360002517700195e+00 -4.403378665447235107e-01
2.640000000000000000e+02 4.635176849365234375e+01 -1.803614234924316406e+01 1.551489904522895813e-02 -1.367813944816589355e-01 -3.637994825839996338e-02 -6.678102910518646240e-02
2.650000000000000000e+02 4.677792739868164062e+01 -1.703395271301269531e+01 7.612304091453552246e-01 1.022310703992843628e-01 2.590384483337402344e-01 9.464462101459503174e-02
2.660000000000000000e+02 4.629034042358398438e+01 -1.718022727966308594e+01 2.438528239727020264e-01 1.946927309036254883e-01 1.315636634826660156e-01 -5.442459881305694580e-02
2.670000000000000000e+02 4.589604187011718750e+01 -1.797350883483886719e+01 1.503984928131103516e-01 1.256848454475402832e+00 4.221740663051605225e-01 -3.403256535530090332e-01
2.680000000000000000e+02 4.557712936401367188e+01 -1.805975151062011719e+01 -3.516623005270957947e-02 3.127735614776611328e+00 9.277708530426025391e-01 -8.403578996658325195e-01
2.690000000000000000e+02 4.649876403808593750e+01 -1.692198944091796875e+01 1.617606639862060547e+00 1.276774257421493530e-01 5.235852003097534180e-01 6.954179704189300537e-02
2.700000000000000000e+02 4.581724166870117188e+01 -1.584638500213623047e+01 6.929462909698486328e+00 2.317906379699707031e+00 2.774210691452026367e+00 3.766674280166625977e+00
2.710000000000000000e+02 4.668787384033203125e+01 -1.722659873962402344e+01 2.701248228549957275e-01 1.952150613069534302e-01 1.396019756793975830e-01 -9.057059884071350098e-02
2.720000000000000000e+02 4.642253494262695312e+01 -1.730694389343261719e+01 -1.072486639022827148e-01 1.731453090906143188e-01 1.976899616420269012e-02 1.110167428851127625e-02
2.730000000000000000e+02 4.696697235107421875e+01 -1.668577766418457031e+01 2.179551839828491211e+00 -1.551866382360458374e-01 6.073095798492431641e-01 5.968217849731445312e-01
2.740000000000000000e+02 4.524508666992187500e+01 -1.821970939636230469e+01 -3.261185586452484131e-01 4.591822624206542969e+00 1.279711246490478516e+00 -7.277726531028747559e-01
2.750000000000000000e+02 4.572929763793945312e+01 -1.831655311584472656e+01 -1.441680938005447388e-01 2.622171163558959961e+00 7.434009313583374023e-01 -6.150194406509399414e-01
2.760000000000000000e+02 4.676179122924804688e+01 -1.669836807250976562e+01 2.353611469268798828e+00 -9.279998391866683960e-02 6.782434582710266113e-01 4.345393776893615723e-01
2.770000000000000000e+02 4.383178329467773438e+01 -1.685207748413085938e+01 5.786225795745849609e+00 5.698392868041992188e+00 3.445385456085205078e+00 2.541903972625732422e+00
2.780000000000000000e+02 4.563705825805664062e+01 -1.843083000183105469e+01 -3.216301798820495605e-01 3.171200990676879883e+00 8.548712134361267090e-01 -5.199419856071472168e-01
2.790000000000000000e+02 4.569250106811523438e+01 -1.784506988525390625e+01 1.850487738847732544e-01 2.131761789321899414e+00 6.950432062149047852e-01 -7.563663125038146973e-01
2.800000000000000000e+02 4.665554428100585938e+01 -1.629303359985351562e+01 4.594950675964355469e+00 -2.871345281600952148e-01 1.292344808578491211e+00 1.183595061302185059e+00
2.810000000000000000e+02 4.638724517822265625e+01 -1.630171966552734375e+01 5.036857128143310547e+00 -1.850902140140533447e-01 1.455530166625976562e+00 1.154108405113220215e+00
2.820000000000000000e+02 4.579743194580078125e+01 -1.815103912353515625e+01 -4.191080108284950256e-02 1.858197212219238281e+00 5.448859333992004395e-01 -4.230124652385711670e-01
2.830000000000000000e+02 4.809364700317382812e+01 -1.619116020202636719e+01 4.073154449462890625e+00 9.572418332099914551e-01 1.509118795394897461e+00 1.775240898132324219e+00
2.840000000000000000e+02 4.716058731079101562e+01 -7.575566291809082031e+00 -2.357075214385986328e+00 -1.963022798299789429e-01 -7.660132646560668945e-01 1.318628787994384766e+00
2.850000000000000000e+02 4.442780303955078125e+01 -7.380064487457275391e+00 -2.454928636550903320e+00 5.553121864795684814e-02 -7.198192477226257324e-01 5.271891951560974121e-01
2.860000000000000000e+02 4.134715270996093750e+01 -3.480433225631713867e+00 -3.717543601989746094e+00 -8.890581130981445312e-01 -1.381980538368225098e+00 1.356277704238891602e+00
2.870000000000000000e+02 3.959148406982421875e+01 -2.147208213806152344e+00 -2.639102697372436523e+00 5.812574643641710281e-03 -7.899870276451110840e-01 1.194262266159057617e+00
2.880000000000000000e+02 4.051141738891601562e+01 -6.008608937263488770e-01 -3.646490573883056641e-01 -8.593381047248840332e-01 -3.671961426734924316e-01 5.336948037147521973e-01
2.890000000000000000e+02 3.930865097045898438e+01 -7.910152673721313477e-01 -1.268370985984802246e+00 -3.842769190669059753e-02 -3.920395970344543457e-01 6.983764767646789551e-01
2.900000000000000000e+02 3.842760467529296875e+01 -1.515587687492370605e+00 -1.951793074607849121e+00 3.212782442569732666e-01 -4.891544282436370850e-01 7.614815831184387207e-01
2.910000000000000000e+02 3.647335433959960938e+01 -1.089360475540161133e+00 -2.108852386474609375e+00 3.937288820743560791e-01 -5.145370364189147949e-01 3.090074360370635986e-01
2.920000000000000000e+02 3.353073883056640625e+01 -2.320514917373657227e+00 -2.478243589401245117e+00 -1.402748674154281616e-01 -7.855555415153503418e-01 2.310922741889953613e-01
2.930000000000000000e+02 3.250315475463867188e+01 -3.118288278579711914e+00 -1.938026666641235352e+00 2.474395930767059326e-02 -5.739848017692565918e-01 -2.523243427276611328e-01
2.940000000000000000e+02 3.196015548706054688e+01 -8.105962753295898438e+00 1.254765629768371582e+00 1.221809029579162598e+00 7.429723739624023438e-01 -9.211368560791015625e-01
2.950000000000000000e+02 3.635033035278320312e+01 -1.146858692169189453e+01 1.172680020332336426e+00 2.515418529510498047e-01 4.272665381431579590e-01 -1.374065518379211426e+00
2.960000000000000000e+02 3.854970932006835938e+01 -1.401117324829101562e+01 1.417314529418945312e+00 5.347115397453308105e-01 5.856078267097473145e-01 -1.296696662902832031e+00
2.970000000000000000e+02 4.394874572753906250e+01 -1.492936229705810547e+01 3.513942718505859375e+00 5.212711811065673828e+00 2.617996454238891602e+00 -1.419851481914520264e-01
2.980000000000000000e+02 4.600098419189453125e+01 -1.478498077392578125e+01 4.342276096343994141e+00 2.788845777511596680e+00 2.139336585998535156e+00 2.945505380630493164e+00
2.990000000000000000e+02 4.633441162109375000e+01 -1.548193740844726562e+01 5.681247234344482422e+00 1.081773996353149414e+00 2.028906345367431641e+00 2.809796571731567383e+00
3.000000000000000000e+02 4.946626281738281250e+01 -1.548839569091796875e+01 5.130662918090820312e+00 4.933777451515197754e-01 1.687212109565734863e+00 1.271595597267150879e+00
3.010000000000000000e+02 5.067385101318359375e+01 -1.524375057220458984e+01 3.755089998245239258e+00 7.115104794502258301e-02 1.147872328758239746e+00 9.173262715339660645e-01
3.020000000000000000e+02 5.197443771362304688e+01 -1.487168979644775391e+01 2.705338239669799805e+00 1.962890923023223877e-01 8.704881668090820312e-01 9.047944545745849609e-01
3.030000000000000000e+02 5.739274597167968750e+01 -1.437661647796630859e+01 -2.799055874347686768e-01 1.031990200281143188e-01 -5.301196873188018799e-02 1.501139849424362183e-01
3.040000000000000000e+02 5.698370361328125000e+01 -7.301605701446533203e+00 -8.642824292182922363e-01 1.715358853340148926e+00 2.553229331970214844e-01 1.285033464431762695e+00
3.050000000000000000e+02 5.548359298706054688e+01 -1.808842539787292480e+00 1.530407667160034180e+00 2.465065479278564453e+00 1.198641896247863770e+00 1.875811100006103516e+00
3.060000000000000000e+02 5.743145751953125000e+01 -1.543630599975585938e+00 1.044078826904296875e+00 2.446662187576293945e+00 1.047222256660461426e+00 1.424216151237487793e+00
3.070000000000000000e+02 5.876637268066406250e+01 2.758086204528808594e+00 1.423586845397949219e+00 3.216780424118041992e+00 1.392110109329223633e+00 2.096144914627075195e+00
3.080000000000000000e+02 5.794762420654296875e+01 1.631274819374084473e+00 1.235415220260620117e+00 2.926435708999633789e+00 1.248555302619934082e+00 1.964390397071838379e+00
3.090000000000000000e+02 5.866939544677734375e+01 -1.420603084564208984e+01 -6.120319366455078125e-01 3.272366896271705627e-02 -1.737924814224243164e-01 2.360628545284271240e-02
3.100000000000000000e+02 6.106704330444335938e+01 -1.334944248199462891e+01 -1.198137640953063965e+00 -1.124307513236999512e-01 -3.931705057621002197e-01 -3.348652422428131104e-01
3.110000000000000000e+02 6.219984817504882812e+01 -1.270363426208496094e+01 -1.782344579696655273e+00 -1.364894807338714600e-01 -5.756502151489257812e-01 -6.278172135353088379e-01
3.120000000000000000e+02 6.334848403930664062e+01 -1.207926368713378906e+01 -2.951715469360351562e+00 -4.084817767143249512e-01 -1.008059263229370117e+00 -3.788493871688842773e-01
3.130000000000000000e+02 6.449774932861328125e+01 -1.128301811218261719e+01 -2.419176340103149414e+00 -6.075118780136108398e-01 -9.080064892768859863e-01 -1.306804865598678589e-01
3.140000000000000000e+02 6.552096557617187500e+01 -1.234290122985839844e+01 -2.467418193817138672e+00 -3.530329465866088867e-01 -8.461353778839111328e-01 4.265353381633758545e-01
3.150000000000000000e+02 6.833377838134765625e+01 -1.400274944305419922e+01 -5.373902320861816406e-01 1.087050661444664001e-01 -1.286055445671081543e-01 1.465286463499069214e-01
3.160000000000000000e+02 6.893722534179687500e+01 -1.403652572631835938e+01 -4.572986364364624023e-01 2.838501892983913422e-02 -1.286740899085998535e-01 1.102758571505546570e-01
3.170000000000000000e+02 7.042740631103515625e+01 -1.453264617919921875e+01 -3.585535287857055664e-01 6.681191921234130859e-02 -8.752248436212539673e-02 5.055806413292884827e-02
3.180000000000000000e+02 7.200916290283203125e+01 -1.444515132904052734e+01 -3.075663745403289795e-01 4.094988852739334106e-02 -7.998494058847427368e-02 -3.224776685237884521e-02
3.190000000000000000e+02 7.434281921386718750e+01 -1.447104167938232422e+01 -1.851391345262527466e-01 6.577413529157638550e-03 -5.356851592659950256e-02 -9.121515601873397827e-02
3.200000000000000000e+02 7.508441162109375000e+01 -1.039246177673339844e+01 -2.134136408567428589e-01 -1.121320277452468872e-01 -9.766370058059692383e-02 -3.692620098590850830e-01
3.210000000000000000e+02 7.428224945068359375e+01 -5.751194000244140625e+00 -1.863348037004470825e-01 -3.097110986709594727e-01 -1.488137692213058472e-01 -7.385384440422058105e-01
3.220000000000000000e+02 7.575061035156250000e+01 -4.529916763305664062e+00 -8.449085801839828491e-02 -6.235470175743103027e-01 -2.124113589525222778e-01 -6.723369359970092773e-01
3.230000000000000000e+02 7.442961120605468750e+01 -8.175660371780395508e-01 1.099242921918630600e-02 -6.685120463371276855e-01 -1.972558796405792236e-01 -8.220974206924438477e-01
3.240000000000000000e+02 7.558386230468750000e+01 7.914180159568786621e-01 5.540148541331291199e-02 -1.114236474037170410e+00 -3.176504969596862793e-01 -7.214500904083251953e-01
3.250000000000000000e+02 7.428484344482421875e+01 6.573048114776611328e+00 2.350989282131195068e-01 -9.759051203727722168e-01 -2.222418487071990967e-01 -5.667545795440673828e-01
3.260000000000000000e+02 7.542155456542968750e+01 9.320131301879882812e+00 1.861146390438079834e-01 -1.578461170196533203e+00 -4.177039563655853271e-01 -3.341322839260101318e-01
3.270000000000000000e+02 7.400566864013671875e+01 1.359839057922363281e+01 3.654995560646057129e-01 -9.547587037086486816e-01 -1.767777502536773682e-01 -1.548359077423810959e-02
3.280000000000000000e+02 7.421414947509765625e+01 1.616052246093750000e+01 3.020963966846466064e-01 -1.036102056503295898e+00 -2.202017009258270264e-01 2.448891401290893555e-01
3.290000000000000000e+02 7.516584777832031250e+01 2.173176765441894531e+01 1.388848423957824707e-01 -1.247111082077026367e+00 -3.324678540229797363e-01 6.032735705375671387e-01
3.300000000000000000e+02 7.375537109375000000e+01 2.362816810607910156e+01 7.381179183721542358e-02 -5.785087943077087402e-01 -1.514091044664382935e-01 7.179350852966308594e-01
3.310000000000000000e+02 7.404816436767578125e+01 2.842278099060058594e+01 -1.000423952937126160e-01 -4.766909778118133545e-01 -1.730200201272964478e-01 7.071567773818969727e-01
3.320000000000000000e+02 7.447801208496093750e+01 3.076601600646972656e+01 -1.547311395406723022e-01 -4.348629713058471680e-01 -1.768782287836074829e-01 6.073608398437500000e-01
3.330000000000000000e+02 7.442599487304687500e+01 3.480802536010742188e+01 -1.780320405960083008e-01 -3.463731110095977783e-01 -1.573215425014495850e-01 3.689839541912078857e-01
3.340000000000000000e+02 7.325883483886718750e+01 3.755723190307617188e+01 -2.355354726314544678e-01 -2.187429927289485931e-02 -7.722292840480804443e-02 2.598957121372222900e-01
3.350000000000000000e+02 7.171363067626953125e+01 4.101334762573242188e+01 -2.958755493164062500e-01 1.474866569042205811e-01 -4.451666772365570068e-02 7.067044824361801147e-02
3.360000000000000000e+02 6.978512573242187500e+01 3.513805770874023438e+01 -4.103278219699859619e-01 5.368625521659851074e-01 3.796041011810302734e-02 3.630450665950775146e-01
3.370000000000000000e+02 7.051338195800781250e+01 2.941902923583984375e+01 -2.940656244754791260e-01 6.064260005950927734e-01 9.370811283588409424e-02 6.593503355979919434e-01
3.380000000000000000e+02 7.278411865234375000e+01 2.746509933471679688e+01 -1.001740992069244385e-01 -1.273013502359390259e-01 -6.824263185262680054e-02 7.602854967117309570e-01
3.390000000000000000e+02 7.147856140136718750e+01 1.768932342529296875e+01 5.355712771415710449e-01 3.483527004718780518e-01 2.651772201061248779e-01 3.966550529003143311e-01
3.400000000000000000e+02 7.027256011962890625e+01 1.286319255828857422e+01 6.559462547302246094e-01 1.119701862335205078e+00 5.326943993568420410e-01 -1.096632629632949829e-01
3.410000000000000000e+02 7.192858886718750000e+01 1.143658065795898438e+01 5.473466515541076660e-01 2.238443791866302490e-01 2.313573062419891357e-01 -2.000200748443603516e-01
3.420000000000000000e+02 7.241432952880859375e+01 6.075080871582031250e+00 3.227230906486511230e-01 -1.534888148307800293e-01 5.077028274536132812e-02 -6.032904982566833496e-01
3.430000000000000000e+02 7.267071533203125000e+01 1.603251099586486816e+00 1.593585312366485596e-01 -2.209460884332656860e-01 -1.847626827657222748e-02 -8.433496952056884766e-01
3.440000000000000000e+02 7.196427154541015625e+01 -1.341604590415954590e+00 5.034866742789745331e-03 -4.361281543970108032e-02 -1.157338451594114304e-02 -9.071772098541259766e-01
3.450000000000000000e+02 7.054317474365234375e+01 -3.331285476684570312e+00 -1.276666373014450073e-01 2.557980120182037354e-01 3.843941166996955872e-02 -8.908581137657165527e-01
3.460000000000000000e+02 7.014047241210937500e+01 -1.123738765716552734e+01 -7.556381821632385254e-01 2.420372813940048218e-01 -1.540802717208862305e-01 -3.575923144817352295e-01
3.470000000000000000e+02 7.172908020019531250e+01 -1.025243091583251953e+01 -5.628242492675781250e-01 1.301240026950836182e-01 -1.298100799322128296e-01 -5.152801275253295898e-01
3.480000000000000000e+02 7.436301422119140625e+01 -1.104044818878173828e+01 -3.211887776851654053e-01 -3.477965295314788818e-02 -1.067905351519584656e-01 -3.320517838001251221e-01
3.490000000000000000e+02 6.900207519531250000e+01 -1.472684860229492188e+01 -3.469281196594238281e-01 5.269316583871841431e-02 -8.827047795057296753e-02 7.312045991420745850e-02
3.500000000000000000e+02 7.509825897216796875e+01 -1.450078201293945312e+01 -1.467030197381973267e-01 -1.691769436001777649e-02 -4.908621311187744141e-02 -8.728624135255813599e-02
3.510000000000000000e+02 7.874322509765625000e+01 -1.324463939666748047e+01 -1.665599830448627472e-02 -4.727245122194290161e-02 -1.917853578925132751e-02 -3.729398921132087708e-02
3.520000000000000000e+02 7.941123199462890625e+01 -8.645563125610351562e+00 -4.242029972374439240e-03 -4.136965274810791016e-01 -1.253815591335296631e-01 -7.893001288175582886e-02
3.530000000000000000e+02 7.941921997070312500e+01 -1.003910541534423828e+01 -8.067079819738864899e-03 -2.410671710968017578e-01 -7.474027574062347412e-02 -6.273017078638076782e-02
3.540000000000000000e+02 7.940328216552734375e+01 -5.869710445404052734e+00 -3.625459503382444382e-04 -8.801697492599487305e-01 -2.641596794128417969e-01 -1.104497611522674561e-01
3.550000000000000000e+02 7.695842742919921875e+01 -5.848195552825927734e+00 -6.412870436906814575e-02 -6.584139466285705566e-01 -2.167627960443496704e-01 -4.910562038421630859e-01
3.560000000000000000e+02 7.939492797851562500e+01 -1.686669588088989258e+00 -1.822647638618946075e-03 -1.782816529273986816e+00 -5.353917479515075684e-01 -1.281745135784149170e-01
3.570000000000000000e+02 7.816439056396484375e+01 -3.466051518917083740e-01 8.234845474362373352e-03 -1.733512043952941895e+00 -5.175831913948059082e-01 -3.764252960681915283e-01
3.580000000000000000e+02 7.680033111572265625e+01 5.183685302734375000e+00 6.301341205835342407e-02 -2.011937856674194336e+00 -5.846772789955139160e-01 -4.620956480503082275e-01
3.590000000000000000e+02 7.809403991699218750e+01 5.254922389984130859e+00 2.637325786054134369e-02 -2.612617969512939453e+00 -7.758734226226806641e-01 -3.018365800380706787e-01
3.600000000000000000e+02 7.805584716796875000e+01 1.090099143981933594e+01 4.834910482168197632e-02 -3.145943164825439453e+00 -9.292781949043273926e-01 -1.085571125149726868e-01
3.610000000000000000e+02 7.937834167480468750e+01 1.512989425659179688e+01 2.216640859842300415e-02 -4.038076877593994141e+00 -1.204773068428039551e+00 3.506849706172943115e-02
3.620000000000000000e+02 7.811727905273437500e+01 1.784338188171386719e+01 3.287427872419357300e-02 -3.073074340820312500e+00 -9.120600223541259766e-01 1.913184523582458496e-01
3.630000000000000000e+02 7.802413940429687500e+01 2.199232673645019531e+01 2.253400906920433044e-02 -2.572391033172607422e+00 -7.649571299552917480e-01 3.305163383483886719e-01
3.640000000000000000e+02 7.796863555908203125e+01 2.476888084411621094e+01 1.068842597305774689e-02 -2.147451877593994141e+00 -6.410290598869323730e-01 3.708724975585937500e-01
3.650000000000000000e+02 7.779207611083984375e+01 2.893943405151367188e+01 -1.816220395267009735e-02 -1.518926143646240234e+00 -4.611264765262603760e-01 3.577576279640197754e-01
3.660000000000000000e+02 7.741164398193359375e+01 3.179272842407226562e+01 -4.660278558731079102e-02 -1.091370105743408203e+00 -3.413918614387512207e-01 3.268346190452575684e-01
3.670000000000000000e+02 7.913761138916015625e+01 3.617686843872070312e+01 -2.393276058137416840e-02 -9.302005171775817871e-01 -2.862399816513061523e-01 6.803306937217712402e-02
3.680000000000000000e+02 7.795002746582031250e+01 3.780899810791015625e+01 -1.853786408901214600e-02 -6.813360452651977539e-01 -2.099621742963790894e-01 1.452599763870239258e-01
3.690000000000000000e+02 7.796884155273437500e+01 4.160093688964843750e+01 -7.504515349864959717e-02 -5.860997438430786133e-01 -1.983434706926345825e-01 2.113721333444118500e-02
3.700000000000000000e+02 6.725093078613281250e+01 4.116181182861328125e+01 -5.088177919387817383e-01 7.335522770881652832e-01 6.742034107446670532e-02 4.080955684185028076e-02
3.710000000000000000e+02 6.678702545166015625e+01 3.832139205932617188e+01 -5.237419009208679199e-01 8.231516480445861816e-01 8.982292562723159790e-02 1.282474845647811890e-01
3.720000000000000000e+02 6.644118499755859375e+01 3.521770477294921875e+01 -5.474732518196105957e-01 1.015199065208435059e+00 1.403177231550216675e-01 2.063145935535430908e-01
3.730000000000000000e+02 6.833007049560546875e+01 2.869462966918945312e+01 -3.645568490028381348e-01 1.194549679756164551e+00 2.489978522062301636e-01 5.911073684692382812e-01
3.740000000000000000e+02 6.744315338134765625e+01 2.723212051391601562e+01 -3.086406588554382324e-01 1.540464878082275391e+00 3.695472478866577148e-01 5.666843056678771973e-01
3.750000000000000000e+02 6.791592407226562500e+01 2.292522811889648438e+01 3.029971122741699219e-01 1.799971342086791992e+00 6.308905482292175293e-01 6.630095839500427246e-01
3.760000000000000000e+02 6.925984191894531250e+01 1.927137184143066406e+01 6.674290299415588379e-01 1.437183976173400879e+00 6.313838958740234375e-01 4.585291743278503418e-01
3.770000000000000000e+02 6.687025451660156250e+01 1.739490318298339844e+01 1.078848719596862793e+00 3.031495332717895508e+00 1.233103156089782715e+00 1.572301238775253296e-02
3.780000000000000000e+02 6.612596130371093750e+01 1.291172027587890625e+01 7.504258751869201660e-01 3.898026943206787109e+00 1.394535899162292480e+00 8.105983957648277283e-03
3.790000000000000000e+02 6.785700988769531250e+01 9.591720581054687500e+00 7.358232736587524414e-01 2.361330747604370117e+00 9.291462302207946777e-01 -1.629839092493057251e-01
3.800000000000000000e+02 6.756936645507812500e+01 7.746606826782226562e+00 7.014855146408081055e-01 2.314009428024291992e+00 9.046484827995300293e-01 -1.571821272373199463e-01
3.810000000000000000e+02 6.705033874511718750e+01 4.070007324218750000e+00 5.437692999839782715e-01 1.947635293006896973e+00 7.474213838577270508e-01 -3.249468803405761719e-01
3.820000000000000000e+02 6.767250061035156250e+01 2.741827666759490967e-01 2.156108468770980835e-01 1.171657204627990723e+00 4.161804318428039551e-01 -5.973910689353942871e-01
3.830000000000000000e+02 7.041088867187500000e+01 -4.896105766296386719e+00 -2.568062543869018555e-01 2.368109822273254395e-01 -5.998579319566488266e-03 -8.704444766044616699e-01
3.840000000000000000e+02 6.850278472900390625e+01 -7.505800247192382812e+00 -5.861757993698120117e-01 3.494398593902587891e-01 -7.102078944444656372e-02 -7.382155656814575195e-01
3.850000000000000000e+02 6.755169677734375000e+01 -1.057908916473388672e+01 -1.143469572067260742e+00 1.698884516954421997e-01 -2.920743525028228760e-01 -4.304661154747009277e-01
3.860000000000000000e+02 6.661978912353515625e+01 -1.314802742004394531e+01 -9.845799207687377930e-01 -1.715935617685317993e-01 -3.468520641326904297e-01 5.063456892967224121e-01
3.870000000000000000e+02 6.276465988159179688e+01 3.834119415283203125e+01 -5.840521454811096191e-01 1.128697752952575684e+00 1.633936762809753418e-01 -9.432549588382244110e-03
3.880000000000000000e+02 6.289982604980468750e+01 3.530946350097656250e+01 -5.798127651214599609e-01 1.276622056961059570e+00 2.090427726507186890e-01 -2.002828195691108704e-02
3.890000000000000000e+02 6.426766967773437500e+01 3.124949836730957031e+01 -5.589682459831237793e-01 1.545612573623657227e+00 2.959932982921600342e-01 9.184212982654571533e-02
3.900000000000000000e+02 6.505466461181640625e+01 2.616237831115722656e+01 -2.485630065202713013e-01 2.267881155014038086e+00 6.057954430580139160e-01 1.873654574155807495e-01
3.910000000000000000e+02 6.246780014038085938e+01 1.967206764221191406e+01 1.768860101699829102e+00 6.004875659942626953e+00 2.332120895385742188e+00 -1.633992552757263184e+00
3.920000000000000000e+02 6.260139465332031250e+01 1.361866378784179688e+01 2.252849936485290527e-01 7.273741245269775391e+00 2.249707937240600586e+00 2.013649642467498779e-01
3.930000000000000000e+02 6.504691314697265625e+01 1.056277942657470703e+01 7.152448892593383789e-01 4.467507362365722656e+00 1.554825663566589355e+00 2.491489499807357788e-01
3.940000000000000000e+02 6.553505706787109375e+01 7.350377082824707031e+00 7.924628257751464844e-01 3.336084365844726562e+00 1.238564133644104004e+00 1.839739680290222168e-01
3.950000000000000000e+02 6.341810607910156250e+01 2.155876636505126953e+00 5.383334755897521973e-01 2.874686956405639648e+00 1.023906111717224121e+00 3.861060142517089844e-01
3.960000000000000000e+02 6.435444641113281250e+01 1.124033570289611816e+00 4.422211945056915283e-01 2.266185998916625977e+00 8.125221729278564453e-01 7.723828405141830444e-02
3.970000000000000000e+02 6.309186553955078125e+01 -3.066632747650146484e+00 3.417578712105751038e-02 1.528499484062194824e+00 4.688025712966918945e-01 1.278333961963653564e-01
3.980000000000000000e+02 6.297241973876953125e+01 -7.484605312347412109e+00 -6.118706464767456055e-01 6.117282509803771973e-01 -4.271732905181124806e-05 1.724521815776824951e-01
3.990000000000000000e+02 6.651839447021484375e+01 -1.138185596466064453e+01 -1.632345438003540039e+00 1.221180483698844910e-01 -4.530682265758514404e-01 -4.050855934619903564e-01
4.000000000000000000e+02 6.258179473876953125e+01 4.116893768310546875e+01 -5.805832147598266602e-01 1.078209400177001953e+00 1.492878496646881104e-01 -4.459479358047246933e-03
4.010000000000000000e+02 5.877141189575195312e+01 3.808451461791992188e+01 -4.856726527214050293e-01 1.142446279525756836e+00 1.970320791006088257e-01 -1.540141850709915161e-01
4.020000000000000000e+02 5.946911621093750000e+01 3.516584777832031250e+01 -4.777281284332275391e-01 1.271081089973449707e+00 2.380059063434600830e-01 -2.599204182624816895e-01
4.030000000000000000e+02 5.979678726196289062e+01 2.956610488891601562e+01 -2.717458307743072510e-01 1.664039731025695801e+00 4.176881611347198486e-01 -5.901415944099426270e-01
4.040000000000000000e+02 6.065788269042968750e+01 2.645779800415039062e+01 -1.118775308132171631e-01 2.321726799011230469e+00 6.629547476768493652e-01 -7.650019526481628418e-01
4.050000000000000000e+02 5.932382202148437500e+01 2.363083076477050781e+01 6.915488839149475098e-01 2.070755481719970703e+00 8.286913037300109863e-01 -1.376609921455383301e+00
4.060000000000000000e+02 5.903881072998046875e+01 2.178655624389648438e+01 2.455889225006103516e+00 1.444517016410827637e+00 1.170121908187866211e+00 -1.498229622840881348e+00
4.070000000000000000e+02 6.038758850097656250e+01 2.110795402526855469e+01 2.812788724899291992e+00 3.469907999038696289e+00 1.884809017181396484e+00 -2.537891149520874023e+00
4.080000000000000000e+02 6.134577178955078125e+01 2.006569480895996094e+01 2.265303611755371094e+00 5.740252971649169922e+00 2.401666879653930664e+00 -2.848601341247558594e+00
4.090000000000000000e+02 6.236125183105468750e+01 2.140561676025390625e+01 1.135049104690551758e+00 3.928894281387329102e+00 1.519183039665222168e+00 -7.363987565040588379e-01
4.100000000000000000e+02 6.238092422485351562e+01 1.807774543762207031e+01 1.275382399559020996e+00 7.729822635650634766e+00 2.701561450958251953e+00 -1.696023702621459961e+00
4.110000000000000000e+02 6.254204177856445312e+01 1.663382148742675781e+01 3.498744666576385498e-01 7.695600032806396484e+00 2.413642406463623047e+00 -7.731207609176635742e-01
4.120000000000000000e+02 6.433128356933593750e+01 1.536625957489013672e+01 6.865606904029846191e-01 5.605880737304687500e+00 1.887732505798339844e+00 -3.117607533931732178e-01
4.130000000000000000e+02 6.208020782470703125e+01 1.082379817962646484e+01 1.784439980983734131e-01 7.240288734436035156e+00 2.225619792938232422e+00 9.348295927047729492e-01
4.140000000000000000e+02 6.296840667724609375e+01 9.382633209228515625e+00 6.128687858581542969e-01 5.829374790191650391e+00 1.932673096656799316e+00 8.969836831092834473e-01
4.150000000000000000e+02 6.160366821289062500e+01 8.117058753967285156e+00 4.810665845870971680e-01 6.392429351806640625e+00 2.062048912048339844e+00 1.677594900131225586e+00
4.160000000000000000e+02 6.137728881835937500e+01 6.821199417114257812e+00 9.462302923202514648e-01 5.988101482391357422e+00 2.080299615859985352e+00 1.905365705490112305e+00
4.170000000000000000e+02 6.043637084960937500e+01 4.867403984069824219e+00 1.546781182289123535e+00 4.930647373199462891e+00 1.943228602409362793e+00 2.324280261993408203e+00
4.180000000000000000e+02 6.135333251953125000e+01 3.693422794342041016e+00 8.071627020835876465e-01 4.012839317321777344e+00 1.446000695228576660e+00 1.164957642555236816e+00
4.190000000000000000e+02 6.183467864990234375e+01 2.231018841266632080e-01 5.404641032218933105e-01 2.508475542068481445e+00 9.146818518638610840e-01 6.864679455757141113e-01
4.200000000000000000e+02 6.178778076171875000e+01 -2.575421571731567383e+00 1.615729182958602905e-01 1.877790689468383789e+00 6.118090748786926270e-01 4.674918055534362793e-01
4.210000000000000000e+02 5.911223602294921875e+01 -5.498672962188720703e+00 -3.904592096805572510e-01 1.711903333663940430e+00 3.964332342147827148e-01 8.646814227104187012e-01
4.220000000000000000e+02 6.148716735839843750e+01 -1.159957695007324219e+01 -1.834535241127014160e+00 3.038486242294311523e-01 -4.592059850692749023e-01 1.476028710603713989e-01
4.230000000000000000e+02 5.793257522583007812e+01 4.105479049682617188e+01 -4.799700677394866943e-01 1.077389597892761230e+00 1.792258769273757935e-01 -4.615169763565063477e-02
4.240000000000000000e+02 5.524354553222656250e+01 3.749404907226562500e+01 -3.259822726249694824e-01 9.628071784973144531e-01 1.910474598407745361e-01 -2.295230180025100708e-01
4.250000000000000000e+02 5.630197525024414062e+01 3.433855056762695312e+01 -2.909584343433380127e-01 1.064457297325134277e+00 2.320496439933776855e-01 -3.735326826572418213e-01
4.260000000000000000e+02 5.586207580566406250e+01 2.983084487915039062e+01 -2.926028519868850708e-02 1.035288095474243164e+00 3.018083572387695312e-01 -6.334869861602783203e-01
4.270000000000000000e+02 5.536083602905273438e+01 2.568795204162597656e+01 4.984087049961090088e-01 5.604429244995117188e-01 3.176555037498474121e-01 -7.761461734771728516e-01
4.280000000000000000e+02 5.743049240112304688e+01 2.375007820129394531e+01 9.530273675918579102e-01 8.201727271080017090e-01 5.319600105285644531e-01 -1.137663602828979492e+00
4.290000000000000000e+02 5.463941955566406250e+01 2.151319694519042969e+01 1.186208277940750122e-01 -3.878530114889144897e-02 2.395065873861312866e-02 -1.317889243364334106e-01
4.300000000000000000e+02 5.356422424316406250e+01 4.079216003417968750e+01 -2.927041649818420410e-01 8.568721413612365723e-01 1.692503988742828369e-01 -6.451510637998580933e-02
4.310000000000000000e+02 5.245157241821289062e+01 3.676517486572265625e+01 -2.123677730560302734e-01 8.101778626441955566e-01 1.793430149555206299e-01 -2.182494252920150757e-01
4.320000000000000000e+02 5.313690185546875000e+01 3.081188583374023438e+01 2.403922192752361298e-02 6.929396986961364746e-01 2.150936871767044067e-01 -4.844969809055328369e-01
4.330000000000000000e+02 5.295122146606445312e+01 2.802160644531250000e+01 2.585763633251190186e-01 4.804086089134216309e-01 2.216954976320266724e-01 -5.412440896034240723e-01
4.340000000000000000e+02 5.273162460327148438e+01 2.291288948059082031e+01 2.305360883474349976e-01 2.377480501309037209e-03 6.987407058477401733e-02 -1.986443400382995605e-01
4.350000000000000000e+02 5.194262313842773438e+01 2.069829559326171875e+01 -1.975544542074203491e-01 -5.535895749926567078e-02 -7.587402313947677612e-02 -1.009881570935249329e-01
4.360000000000000000e+02 5.068161010742187500e+01 3.941318511962890625e+01 -1.790501326322555542e-01 6.864553093910217285e-01 1.522215455770492554e-01 -1.029174402356147766e-01
4.370000000000000000e+02 4.984659194946289062e+01 3.680871963500976562e+01 -8.552770316600799561e-02 5.921915173530578613e-01 1.519991457462310791e-01 -2.002765387296676636e-01
4.380000000000000000e+02 4.985814285278320312e+01 3.394445419311523438e+01 -1.373946946114301682e-02 5.205925703048706055e-01 1.520559340715408325e-01 -2.622194886207580566e-01
4.390000000000000000e+02 4.987665176391601562e+01 3.098287773132324219e+01 9.507693350315093994e-02 4.193054735660552979e-01 1.543147265911102295e-01 -3.175849914550781250e-01
4.400000000000000000e+02 4.882347106933593750e+01 2.544984817504882812e+01 1.684128493070602417e-01 1.028166413307189941e-01 8.136884123086929321e-02 -1.608756929636001587e-01
4.410000000000000000e+02 5.071590042114257812e+01 2.399814414978027344e+01 1.852681487798690796e-01 1.794755086302757263e-02 6.096471101045608521e-02 -1.579834520816802979e-01
4.420000000000000000e+02 4.939752197265625000e+01 1.952658653259277344e+01 -2.425042539834976196e-01 -8.821592479944229126e-02 -9.921605139970779419e-02 -1.194209307432174683e-01
4.430000000000000000e+02 4.823166275024414062e+01 1.874678802490234375e+01 -2.019532620906829834e-01 -6.051531061530113220e-02 -7.874057441949844360e-02 -1.228896975517272949e-01
4.440000000000000000e+02 4.335194396972656250e+01 1.706425857543945312e+01 -1.038302034139633179e-01 6.982667837291955948e-03 -2.905426174402236938e-02 -2.308221347630023956e-02
4.450000000000000000e+02 3.934886932373046875e+01 1.872097778320312500e+01 -8.103891462087631226e-02 4.917505383491516113e-02 -9.559157304465770721e-03 1.497965306043624878e-02
4.460000000000000000e+02 3.776644515991210938e+01 1.616910362243652344e+01 -6.203975155949592590e-02 2.671888656914234161e-02 -1.059625949710607529e-02 1.646509394049644470e-02
4.470000000000000000e+02 3.074366760253906250e+01 1.752526664733886719e+01 -2.556601911783218384e-02 -8.396407961845397949e-02 -3.285902738571166992e-02 4.642377421259880066e-02
4.480000000000000000e+02 3.333797454833984375e+01 8.168620109558105469e+00 7.924186065793037415e-04 2.735832938924431801e-03 1.058475463651120663e-03 -5.640898016281425953e-04
4.490000000000000000e+02 3.352607345581054688e+01 6.104646682739257812e+00 -1.437846105545759201e-03 5.997196421958506107e-04 -2.514379448257386684e-04 7.843616913305595517e-06
4.500000000000000000e+02 3.322279357910156250e+01 1.872036814689636230e+00 3.655589243862777948e-04 -4.221476265229284763e-04 -1.697660627542063594e-05 3.249729343224316835e-04
4.510000000000000000e+02 3.345834350585937500e+01 2.149124383926391602e+00 8.611932280473411083e-04 7.218601967906579375e-05 2.800137735903263092e-04 -5.501577397808432579e-04
4.520000000000000000e+02 4.721733093261718750e+01 4.080921936035156250e+01 -9.054896980524063110e-02 5.245453119277954102e-01 1.301988959312438965e-01 -4.777248948812484741e-02
4.530000000000000000e+02 4.680107498168945312e+01 3.752031707763671875e+01 -3.506803140044212341e-02 4.431129097938537598e-01 1.224134638905525208e-01 -1.352868676185607910e-01
4.540000000000000000e+02 4.658990859985351562e+01 3.442067337036132812e+01 3.072894550859928131e-02 3.700496554374694824e-01 1.202335804700851440e-01 -1.809289008378982544e-01
4.550000000000000000e+02 4.646425628662109375e+01 3.142288780212402344e+01 8.822581171989440918e-02 2.668414115905761719e-01 1.065201684832572937e-01 -1.764328032732009888e-01
4.560000000000000000e+02 4.813098144531250000e+01 2.737571334838867188e+01 1.543925106525421143e-01 1.795575767755508423e-01 1.001850217580795288e-01 -1.932906806468963623e-01
4.570000000000000000e+02 4.723799133300781250e+01 2.570310211181640625e+01 1.074632629752159119e-01 1.010611504316329956e-01 6.255732476711273193e-02 -9.383816272020339966e-02
4.580000000000000000e+02 4.755547332763671875e+01 2.015303993225097656e+01 -1.427048742771148682e-01 -1.587940193712711334e-02 -4.757528007030487061e-02 -4.236180335283279419e-02
4.590000000000000000e+02 4.314472579956054688e+01 4.098341369628906250e+01 6.983283907175064087e-03 3.090871870517730713e-01 9.482114017009735107e-02 -1.416541729122400284e-02
4.600000000000000000e+02 4.356194686889648438e+01 3.803860855102539062e+01 7.706248201429843903e-03 3.286783099174499512e-01 1.009153649210929871e-01 -7.248292863368988037e-02
4.610000000000000000e+02 4.317079162597656250e+01 3.508774185180664062e+01 4.252793267369270325e-02 2.546760737895965576e-01 8.916120231151580811e-02 -8.862774074077606201e-02
4.620000000000000000e+02 4.288604736328125000e+01 3.204200744628906250e+01 6.190738454461097717e-02 1.909297406673431396e-01 7.585114240646362305e-02 -8.479529619216918945e-02
4.630000000000000000e+02 4.175956344604492188e+01 2.651047134399414062e+01 3.245119005441665649e-02 9.144114702939987183e-02 3.716770187020301819e-02 -2.128287963569164276e-02
4.640000000000000000e+02 4.317724227905273438e+01 2.291572380065917969e+01 -2.212184295058250427e-02 6.133497133851051331e-02 1.176393777132034302e-02 2.359681064262986183e-03
4.650000000000000000e+02 4.217092895507812500e+01 1.966027641296386719e+01 -9.426113218069076538e-02 4.547539725899696350e-02 -1.463572122156620026e-02 8.339718915522098541e-03
4.660000000000000000e+02 4.057950210571289062e+01 3.932422256469726562e+01 4.810110107064247131e-02 2.068135440349578857e-01 7.647439837455749512e-02 -2.256999351084232330e-02
4.670000000000000000e+02 3.973117446899414062e+01 3.601955795288085938e+01 5.041811615228652954e-02 1.680611521005630493e-01 6.554377824068069458e-02 -3.602189198136329651e-02
4.680000000000000000e+02 3.926594161987304688e+01 3.283683013916015625e+01 5.512977391481399536e-02 1.234093680977821350e-01 5.356174334883689880e-02 -3.519020229578018188e-02
4.690000000000000000e+02 3.849263763427734375e+01 3.007620239257812500e+01 3.889363259077072144e-02 9.312028437852859497e-02 3.960417583584785461e-02 -2.162914350628852844e-02
4.700000000000000000e+02 3.934702301025390625e+01 2.678234481811523438e+01 8.122724480926990509e-03 7.492634654045104980e-02 2.491472102701663971e-02 5.368294660001993179e-05
4.710000000000000000e+02 3.997496032714843750e+01 2.417705345153808594e+01 -2.227796055376529694e-02 6.892254203557968140e-02 1.399337593466043472e-02 1.404169667512178421e-02
4.720000000000000000e+02 4.010509490966796875e+01 2.023393821716308594e+01 -7.504609227180480957e-02 5.861389264464378357e-02 -4.929658491164445877e-03 1.727327331900596619e-02
4.730000000000000000e+02 3.981266784667968750e+01 2.165261268615722656e+01 -5.767467617988586426e-02 5.550582706928253174e-02 -6.506543722935020924e-04 2.228248678147792816e-02
4.740000000000000000e+02 3.697025299072265625e+01 4.059160995483398438e+01 5.740875750780105591e-02 1.331089735031127930e-01 5.715531855821609497e-02 -1.021766848862171173e-02
4.750000000000000000e+02 3.614645004272460938e+01 3.698870468139648438e+01 6.238441169261932373e-02 9.236125648021697998e-02 4.642369970679283142e-02 -1.223619468510150909e-02
4.760000000000000000e+02 3.560380172729492188e+01 3.373615646362304688e+01 4.880941286683082581e-02 7.122230529785156250e-02 3.600951656699180603e-02 -9.553640149533748627e-03
4.770000000000000000e+02 3.755633926391601562e+01 2.783724212646484375e+01 1.607770659029483795e-02 5.683542788028717041e-02 2.187393978238105774e-02 -2.551671583205461502e-03
4.780000000000000000e+02 3.789936828613281250e+01 2.375519371032714844e+01 -3.709670156240463257e-02 5.442442372441291809e-02 5.198316648602485657e-03 1.830872707068920135e-02
4.790000000000000000e+02 3.788853073120117188e+01 1.958234977722167969e+01 -7.428224384784698486e-02 4.723139479756355286e-02 -8.115253411233425140e-03 2.456826902925968170e-02
4.800000000000000000e+02 3.738927078247070312e+01 2.072603988647460938e+01 -7.109969854354858398e-02 4.163032025098800659e-02 -8.840814232826232910e-03 3.054649196565151215e-02
4.810000000000000000e+02 3.240856170654296875e+01 4.089142608642578125e+01 6.848178803920745850e-02 4.275596514344215393e-02 3.337132558226585388e-02 3.977554384618997574e-03
4.820000000000000000e+02 3.219037628173828125e+01 3.764606094360351562e+01 6.135763227939605713e-02 4.195432737469673157e-02 3.099358826875686646e-02 9.333521011285483837e-04
4.830000000000000000e+02 3.189803695678710938e+01 3.445342254638671875e+01 5.102627724409103394e-02 2.358765341341495514e-02 2.238417975604534149e-02 5.581309087574481964e-03
4.840000000000000000e+02 3.299707412719726562e+01 3.044887924194335938e+01 2.718447148799896240e-02 2.581333555281162262e-02 1.589934155344963074e-02 5.785494577139616013e-03
4.850000000000000000e+02 3.353057861328125000e+01 2.635951805114746094e+01 -2.038051374256610870e-02 1.879637315869331360e-02 -4.752424138132482767e-04 1.272408477962017059e-02
4.860000000000000000e+02 3.306006622314453125e+01 2.198931503295898438e+01 -8.188880234956741333e-02 6.123571656644344330e-03 -2.272957004606723785e-02 3.076019510626792908e-02
4.870000000000000000e+02 3.220534133911132812e+01 2.088855743408203125e+01 -9.313084930181503296e-02 -1.125849131494760513e-02 -3.131680190563201904e-02 4.021591320633888245e-02
4.880000000000000000e+02 3.162603378295898438e+01 2.037278747558593750e+01 -1.018767952919006348e-01 -2.698512375354766846e-02 -3.865857422351837158e-02 5.139998719096183777e-02
4.890000000000000000e+02 2.770373153686523438e+01 4.101238632202148438e+01 6.144508346915245056e-02 -2.490259474143385887e-03 1.768644712865352631e-02 3.967491793446242809e-04
4.900000000000000000e+02 2.807389450073242188e+01 3.794860076904296875e+01 5.835908651351928711e-02 -4.977726377546787262e-03 1.601440832018852234e-02 1.102181989699602127e-02
4.910000000000000000e+02 2.833064651489257812e+01 3.485850143432617188e+01 4.610451310873031616e-02 -4.006912466138601303e-03 1.262927986681461334e-02 1.511060446500778198e-02
4.920000000000000000e+02 2.907977676391601562e+01 2.947633171081542969e+01 9.513182565569877625e-03 -1.626671105623245239e-02 -2.026058733463287354e-03 2.143673039972782135e-02
4.930000000000000000e+02 2.741331672668457031e+01 2.831723213195800781e+01 -6.536951288580894470e-03 -2.994250692427158356e-02 -1.094383746385574341e-02 3.337131440639495850e-02
4.940000000000000000e+02 2.840399932861328125e+01 2.291267013549804688e+01 -9.427899122238159180e-02 -5.810898914933204651e-02 -4.571639373898506165e-02 5.145579949021339417e-02
4.950000000000000000e+02 2.593478393554687500e+01 2.148733901977539062e+01 -1.688714623451232910e-01 -1.700229756534099579e-02 -5.576212704181671143e-02 5.149397253990173340e-02
4.960000000000000000e+02 3.010648918151855469e+01 1.959307289123535156e+01 -9.896144270896911621e-02 -9.424460679292678833e-02 -5.796181410551071167e-02 8.859365433454513550e-02
4.970000000000000000e+02 2.974370765686035156e+01 1.930156898498535156e+01 -7.454837858676910400e-02 -1.309999227523803711e-01 -6.166449189186096191e-02 9.328423440456390381e-02
4.980000000000000000e+02 2.413450050354003906e+01 3.784987640380859375e+01 4.556610435247421265e-02 -2.035627141594886780e-02 7.562950719147920609e-03 1.226029545068740845e-02
4.990000000000000000e+02 2.499273109436035156e+01 3.470503616333007812e+01 3.974675387144088745e-02 -2.358257398009300232e-02 4.849253688007593155e-03 2.358896657824516296e-02
5.000000000000000000e+02 2.576217460632324219e+01 3.174833297729492188e+01 2.174154482781887054e-02 -2.332058921456336975e-02 -4.737131239380687475e-04 2.802565880119800568e-02
5.010000000000000000e+02 2.538784408569335938e+01 2.630697059631347656e+01 -4.017489030957221985e-02 -3.675487637519836426e-02 -2.307892963290214539e-02 4.254407808184623718e-02
5.020000000000000000e+02 2.194125366210937500e+01 2.230987358093261719e+01 -1.250015944242477417e-01 -7.155039813369512558e-03 -3.964699059724807739e-02 1.275187265127897263e-02
5.030000000000000000e+02 2.306388282775878906e+01 4.095672988891601562e+01 4.878520593047142029e-02 -2.426216937601566315e-02 7.356910966336727142e-03 6.203312892466783524e-03
5.040000000000000000e+02 2.078412437438964844e+01 3.736374282836914062e+01 3.556136041879653931e-02 -2.797108329832553864e-02 2.277083462104201317e-03 1.897697150707244873e-02
5.050000000000000000e+02 2.208632278442382812e+01 3.446750259399414062e+01 2.754088491201400757e-02 -2.608346566557884216e-02 4.372253606561571360e-04 2.488834410905838013e-02
5.060000000000000000e+02 2.135653305053710938e+01 3.094112014770507812e+01 3.800819162279367447e-03 -2.649887651205062866e-02 -6.809417158365249634e-03 3.611558303236961365e-02
5.070000000000000000e+02 2.337057304382324219e+01 2.590256881713867188e+01 -4.790553450584411621e-02 -2.731062844395637512e-02 -2.256484888494014740e-02 3.950621560215950012e-02
5.080000000000000000e+02 2.150637245178222656e+01 2.232922935485839844e+01 -1.136716455221176147e-01 -8.587703108787536621e-03 -3.667780384421348572e-02 3.853457281365990639e-03
5.090000000000000000e+02 2.275842475891113281e+01 2.214527893066406250e+01 -1.255396604537963867e-01 -5.544492043554782867e-03 -3.932524472475051880e-02 2.423701249063014984e-02
5.100000000000000000e+02 1.872812080383300781e+01 4.068158340454101562e+01 3.404239937663078308e-02 -2.796380035579204559e-02 1.823579659685492516e-03 4.044942557811737061e-03
5.110000000000000000e+02 1.834135055541992188e+01 3.635411071777343750e+01 2.647045440971851349e-02 -2.708808705210685730e-02 -1.852894492913037539e-04 1.857313513755798340e-02
5.120000000000000000e+02 1.984523582458496094e+01 3.401348876953125000e+01 1.951898820698261261e-02 -2.636832557618618011e-02 -2.054800977930426598e-03 2.700161002576351166e-02
5.130000000000000000e+02 1.925956726074218750e+01 3.141533088684082031e+01 5.519418045878410339e-03 -2.342214249074459076e-02 -5.370817612856626511e-03 3.239366412162780762e-02
5.140000000000000000e+02 1.909535789489746094e+01 2.556326675415039062e+01 -3.828692063689231873e-02 -8.907455950975418091e-03 -1.415831316262483597e-02 2.922464162111282349e-02
5.150000000000000000e+02 1.872362899780273438e+01 2.171611595153808594e+01 -4.595102369785308838e-02 -2.377209020778536797e-03 -1.449846941977739334e-02 -8.249017409980297089e-03
5.160000000000000000e+02 1.722434616088867188e+01 2.140894317626953125e+01 -2.841758169233798981e-02 -2.523037837818264961e-03 -9.282185696065425873e-03 -6.067691370844841003e-03
5.170000000000000000e+02 1.950615119934082031e+01 2.192948150634765625e+01 -5.655201897025108337e-02 -1.295784721150994301e-03 -1.735434122383594513e-02 -5.879514385014772415e-03
5.180000000000000000e+02 1.582567310333251953e+01 3.913835525512695312e+01 2.214094810187816620e-02 -2.534413151443004608e-02 -9.609548724256455898e-04 9.385879151523113251e-03
5.190000000000000000e+02 1.441102313995361328e+01 3.662523269653320312e+01 1.507160160690546036e-02 -2.245365828275680542e-02 -2.214617095887660980e-03 1.495986338704824448e-02
5.200000000000000000e+02 1.539985370635986328e+01 3.324398422241210938e+01 8.238359354436397552e-03 -1.975981891155242920e-02 -3.456438193097710609e-03 2.212708070874214172e-02
5.210000000000000000e+02 1.382471847534179688e+01 3.028626823425292969e+01 -3.706753253936767578e-03 -1.215078029781579971e-02 -4.757259972393512726e-03 2.165446057915687561e-02
5.220000000000000000e+02 1.557506465911865234e+01 2.587622261047363281e+01 -2.389997243881225586e-02 -2.576181199401617050e-03 -7.942846044898033142e-03 1.995509862899780273e-02
5.230000000000000000e+02 1.596277046203613281e+01 2.206458854675292969e+01 -2.311354689300060272e-02 2.249678596854209900e-03 -6.259160581976175308e-03 1.264503458514809608e-03
5.240000000000000000e+02 1.577820396423339844e+01 2.036832809448242188e+01 -4.313296172767877579e-03 -6.714776391163468361e-04 -1.495432108640670776e-03 -2.987257204949855804e-03
5.250000000000000000e+02 1.637579917907714844e+01 2.088082695007324219e+01 -1.270109694451093674e-02 -2.480616327375173569e-03 -4.554513841867446899e-03 -6.371524184942245483e-03
5.260000000000000000e+02 1.215058135986328125e+01 4.082972335815429688e+01 1.687896437942981720e-02 -2.328614704310894012e-02 -1.922154799103736877e-03 4.388926550745964050e-03
5.270000000000000000e+02 1.156644535064697266e+01 3.772957992553710938e+01 1.094557438045740128e-02 -2.027194015681743622e-02 -2.797909779474139214e-03 1.086687389761209488e-02
5.280000000000000000e+02 1.347192287445068359e+01 3.441377639770507812e+01 7.184058893471956253e-03 -1.855022273957729340e-02 -3.409849479794502258e-03 1.808395236730575562e-02
5.290000000000000000e+02 1.099679374694824219e+01 3.095922470092773438e+01 -1.465894049033522606e-03 -1.116654742509126663e-02 -3.789732465520501137e-03 1.681256107985973358e-02
5.300000000000000000e+02 1.410218811035156250e+01 2.268818092346191406e+01 -1.853953674435615540e-02 2.148850122466683388e-03 -4.917206242680549622e-03 4.091615788638591766e-03
5.310000000000000000e+02 1.372787857055664062e+01 1.819522094726562500e+01 2.491170307621359825e-04 1.493169460445642471e-03 5.226859357208013535e-04 6.103523191995918751e-04
5.320000000000000000e+02 1.388033676147460938e+01 1.656594276428222656e+01 1.739442996040452272e-05 1.619819668121635914e-03 4.911642172373831272e-04 4.138984950259327888e-04
5.330000000000000000e+02 1.172310161590576172e+01 5.340400695800781250e+00 4.342165266280062497e-05 6.411280628526583314e-05 3.226033732062205672e-05 2.433040572213940322e-05
5.340000000000000000e+02 1.035286426544189453e+01 1.842078328132629395e+00 2.082243554468732327e-05 -3.991923585999757051e-05 -5.729039912694133818e-06 3.403490336495451629e-05
5.350000000000000000e+02 1.404738521575927734e+01 1.870355606079101562e+00 2.070184018521104008e-05 5.088380203233100474e-05 2.147569284716155380e-05 -3.022938926733331755e-06
5.360000000000000000e+02 1.331566333770751953e+01 1.852475643157958984e+00 4.144418198848143220e-06 -4.371896284283138812e-05 -1.187236375699285418e-05 2.851954195648431778e-05
5.370000000000000000e+02 1.109578895568847656e+01 1.843351244926452637e+00 4.352946780272759497e-05 3.708444273797795177e-05 2.418417352600954473e-05 -8.357518709090072662e-06
5.380000000000000000e+02 7.934257030487060547e+00 4.095650863647460938e+01 6.764055229723453522e-03 -1.935000717639923096e-02 -3.775785444304347038e-03 1.727278344333171844e-03
5.390000000000000000e+02 8.479726791381835938e+00 3.791391754150390625e+01 7.627657614648342133e-03 -1.869765482842922211e-02 -3.320999210700392723e-03 8.106344379484653473e-03
5.400000000000000000e+02 8.206154823303222656e+00 2.812544822692871094e+01 -4.089577123522758484e-03 -5.982601083815097809e-03 -3.021653508767485619e-03 1.059719361364841461e-02
5.410000000000000000e+02 8.076452255249023438e+00 2.427100181579589844e+01 -6.127385422587394714e-03 -2.111565554514527321e-03 -2.471685176715254784e-03 5.433698650449514389e-03
5.420000000000000000e+02 7.384972572326660156e+00 2.025053215026855469e+01 -2.123963786289095879e-03 -1.145347021520137787e-03 -9.807932656258344650e-04 7.043175282888114452e-04
5.430000000000000000e+02 9.385005950927734375e+00 1.314904785156250000e+01 4.414909926708787680e-04 -5.162028828635811806e-04 -2.241357287857681513e-05 7.932962944323662668e-06
5.440000000000000000e+02 6.235435485839843750e+00 9.595989227294921875e+00 1.405348157277330756e-04 -2.507787139620631933e-04 -3.307317092549055815e-05 -3.753326018340885639e-05
5.450000000000000000e+02 9.428563117980957031e+00 5.371558666229248047e+00 9.353282075608149171e-05 -1.215620359289459884e-04 -8.408765097556170076e-06 8.471042383462190628e-05
5.460000000000000000e+02 8.074674606323242188e+00 1.838244199752807617e+00 5.940969640505500138e-05 2.214481537521351129e-05 2.446635335218161345e-05 -2.572254743427038193e-05
5.470000000000000000e+02 6.551428794860839844e+00 1.840062737464904785e+00 5.589885404333472252e-05 1.965852061402983963e-05 2.266721276100724936e-05 -3.432215089560486376e-05
5.480000000000000000e+02 4.789874553680419922e+00 4.017174911499023438e+01 2.380850724875926971e-03 -1.840488240122795105e-02 -4.807209130376577377e-03 2.946085296571254730e-03
5.490000000000000000e+02 5.886382579803466797e+00 3.774525070190429688e+01 3.444772446528077126e-03 -1.717108860611915588e-02 -4.117894917726516724e-03 5.491051357239484787e-03
5.500000000000000000e+02 5.487214088439941406e+00 3.316825103759765625e+01 7.624599384143948555e-04 -1.224172580987215042e-02 -3.443779889494180679e-03 8.196727372705936432e-03
5.510000000000000000e+02 6.877887248992919922e+00 3.043856620788574219e+01 -1.477877143770456314e-03 -9.009288623929023743e-03 -3.146149683743715286e-03 9.974660351872444153e-03
5.520000000000000000e+02 5.969330787658691406e+00 2.684934997558593750e+01 -3.435872960835695267e-03 -4.729393403977155685e-03 -2.449580002576112747e-03 6.685931701213121414e-03
5.530000000000000000e+02 4.854982852935791016e+00 2.508595275878906250e+01 -2.564928261563181877e-03 -3.005457576364278793e-03 -1.671115751378238201e-03 4.231826867908239365e-03
5.540000000000000000e+02 6.395807743072509766e+00 2.053466415405273438e+01 -2.432367065921425819e-03 -1.212855917401611805e-03 -1.093566883355379105e-03 1.012239139527082443e-03
5.550000000000000000e+02 4.971791744232177734e+00 1.755482673645019531e+01 -6.528345984406769276e-04 -5.857973010279238224e-04 -3.715895581990480423e-04 -1.554435293655842543e-04
5.560000000000000000e+02 4.415256500244140625e+00 1.375381183624267578e+01 -7.728258060524240136e-05 -1.743945031194016337e-04 -7.550312147941440344e-05 -3.686669806484133005e-04
5.570000000000000000e+02 3.832682371139526367e+00 7.820839405059814453e+00 -1.901758514577522874e-05 -2.394624607404693961e-05 -1.288914882024982944e-05 -5.246528962743468583e-05
5.580000000000000000e+02 4.272430419921875000e+00 1.863116025924682617e+00 -6.770832442271057516e-06 -4.714974693342810497e-06 -3.445742095209425315e-06 5.089211299491580576e-06
5.590000000000000000e+02 2.755998849868774414e+00 1.929237723350524902e+00 -1.019942283164709806e-05 4.702449132309993729e-06 -1.649092155275866389e-06 -1.051391427608905360e-05
5.600000000000000000e+02 4.367576599121093750e+00 2.590911626815795898e+00 7.225746958283707500e-05 6.113516064942814410e-06 2.351129478483926505e-05 -5.652078107232227921e-05
5.610000000000000000e+02 1.989034414291381836e+00 4.160291290283203125e+01 7.630581967532634735e-04 -2.151580341160297394e-02 -6.225823424756526947e-03 2.238889283034950495e-04
5.620000000000000000e+02 1.859283924102783203e+00 3.788318252563476562e+01 4.867676470894366503e-04 -1.880560070276260376e-02 -5.495649762451648712e-03 1.892487634904682636e-03
5.630000000000000000e+02 2.212016582489013672e+00 3.320339584350585938e+01 -4.050097486469894648e-04 -1.204528659582138062e-02 -3.735088976100087166e-03 4.002168774604797363e-03
5.640000000000000000e+02 2.014434814453125000e+00 3.177959251403808594e+01 2.637101861182600260e-04 -9.955176152288913727e-03 -2.907439600676298141e-03 3.620706731453537941e-03
5.650000000000000000e+02 1.881926178932189941e+00 2.761109733581542969e+01 -7.111544837243855000e-04 -3.876876551657915115e-03 -1.376409316435456276e-03 2.458025701344013214e-03
5.660000000000000000e+02 2.049138069152832031e+00 2.479455566406250000e+01 -9.582809871062636375e-04 -1.153921009972691536e-03 -6.336605874821543694e-04 1.573338289745151997e-03
5.670000000000000000e+02 1.797983288764953613e+00 2.043352317810058594e+01 1.997632934944704175e-04 8.675053250044584274e-04 3.201805811841040850e-04 1.706567218207055703e-06
5.680000000000000000e+02 1.731578946113586426e+00 1.768558311462402344e+01 2.919671533163636923e-04 9.451045771129429340e-04 3.711215103976428509e-04 -3.462372114881873131e-04
5.690000000000000000e+02 1.825207233428955078e+00 1.488857460021972656e+01 3.006166080012917519e-04 6.205298705026507378e-04 2.763439551927149296e-04 -3.853278758469969034e-04
5.700000000000000000e+02 1.793968439102172852e+00 1.059712314605712891e+01 -1.439497864339500666e-04 2.347335976082831621e-04 2.723514444369357079e-05 -1.414867729181423783e-04
5.710000000000000000e+02 1.642494797706604004e+00 7.885057449340820312e+00 -1.247403561137616634e-04 1.094914841814897954e-04 -4.574664217216195539e-06 -5.049976607551798224e-05
5.720000000000000000e+02 2.925028562545776367e+00 2.737418651580810547e+00 5.837704520672559738e-05 -1.323719516221899539e-05 1.354195501335198060e-05 -3.119520988548174500e-05
5.730000000000000000e+02 5.242537856101989746e-01 3.601662158966064453e+00 -6.383110303431749344e-05 1.680375862633809447e-05 -1.410820459568640217e-05 2.636245653775404207e-06
5.740000000000000000e+02 1.609321784973144531e+01 3.151049137115478516e+00 -3.585060312616406009e-06 -3.899827424902468920e-05 -1.277500086871441454e-05 1.752841853885911405e-05
5.750000000000000000e+02 1.717551803588867188e+01 8.411174774169921875e+00 1.370527115795994177e-05 7.072247535688802600e-05 2.532832513679750264e-05 5.306659659254364669e-05
5.760000000000000000e+02 1.684262466430664062e+01 9.827579498291015625e+00 1.134318226831965148e-04 6.783212302252650261e-05 5.437918298412114382e-05 3.995770748588256538e-05
5.770000000000000000e+02 1.617097282409667969e+01 1.080408287048339844e+01 -1.127684226958081126e-04 4.802582770935259759e-05 -1.942277776834089309e-05 -1.350021193502470851e-04
5.780000000000000000e+02 1.350681686401367188e+01 1.022174263000488281e+01 1.257541007362306118e-04 1.446423266315832734e-04 8.111893112072721124e-05 1.678805565461516380e-04
5.790000000000000000e+02 1.978590774536132812e+01 2.359909057617187500e+00 6.072677479096455500e-06 3.295018177595920861e-05 1.170685754914302379e-05 -2.595492560431011952e-06
5.800000000000000000e+02 1.623124504089355469e+01 1.955938339233398438e+00 -6.619542546104639769e-06 -4.329932562541216612e-05 -1.497566063335398212e-05 1.211822836921783164e-05
5.810000000000000000e+02 2.116547775268554688e+01 5.544585704803466797e+00 -8.178849384421482682e-06 -2.600563857413362712e-05 -1.025534675136441365e-05 -7.450497378158615902e-06
5.820000000000000000e+02 1.553639411926269531e+01 1.181888580322265625e+01 2.434472116874530911e-04 4.185824946034699678e-04 1.986089191632345319e-04 2.469142964400816709e-05
5.830000000000000000e+02 1.447080135345458984e+01 1.297233867645263672e+01 2.311139687662944198e-04 7.533236639574170113e-04 2.953312941826879978e-04 1.339675236522452906e-05
5.840000000000000000e+02 1.425667095184326172e+01 1.684711837768554688e+01 1.719260217214468867e-05 2.417466137558221817e-03 7.303976453840732574e-04 5.965115269646048546e-04
5.850000000000000000e+02 1.470784378051757812e+01 1.907571029663085938e+01 6.500204908661544323e-04 4.559031687676906586e-03 1.562715624459087849e-03 2.681039040908217430e-04
5.860000000000000000e+02 1.517222690582275391e+01 1.981844329833984375e+01 -9.111069957725703716e-04 1.824573613703250885e-03 2.740400086622685194e-04 -3.377742541488260031e-04
5.870000000000000000e+02 1.391530895233154297e+01 1.967260742187500000e+01 -2.628497080877423286e-03 9.278552024625241756e-04 -5.101925344206392765e-04 -1.114830840378999710e-03
5.880000000000000000e+02 3.589846420288085938e+01 2.373324871063232422e+00 7.165553397499024868e-04 -3.871845256071537733e-04 9.881123696686699986e-05 1.350109378108754754e-04
5.890000000000000000e+02 3.893624114990234375e+01 3.298988342285156250e+00 -2.449277671985328197e-04 1.534952752990648150e-04 -2.742974902503192425e-05 -3.290556778665632010e-04
5.900000000000000000e+02 3.955449295043945312e+01 3.527642011642456055e+00 -1.151224016211926937e-03 -5.188314826227724552e-04 -5.010166787542402744e-04 1.689770870143547654e-04
5.910000000000000000e+02 3.806503677368164062e+01 2.989580631256103516e+00 3.186187241226434708e-04 1.899268099805340171e-04 1.525636616861447692e-04 1.379554305458441377e-04
5.920000000000000000e+02 3.866489410400390625e+01 5.748406887054443359e+00 1.951979473233222961e-03 1.567409723065793514e-03 1.055816770531237125e-03 -8.039270760491490364e-04
5.930000000000000000e+02 3.833664321899414062e+01 8.298377037048339844e+00 -1.125589828006923199e-03 -2.282494242535904050e-04 -4.061517538502812386e-04 9.266993147321045399e-04
5.940000000000000000e+02 3.937586975097656250e+01 7.983253002166748047e+00 3.090137615799903870e-03 2.462723990902304649e-03 1.665858435444533825e-03 -2.727801620494574308e-04
5.950000000000000000e+02 3.982223129272460938e+01 9.291256904602050781e+00 -2.394175156950950623e-03 2.099135657772421837e-03 -8.851182792568579316e-05 2.712653717026114464e-03
5.960000000000000000e+02 4.050133895874023438e+01 1.048418331146240234e+01 1.655172673054039478e-03 2.799629233777523041e-03 1.336440560407936573e-03 -1.813743496313691139e-03
5.970000000000000000e+02 4.033949279785156250e+01 1.205049324035644531e+01 -1.398300752043724060e-02 1.360853319056332111e-03 -3.786646295338869095e-03 -8.360442705452442169e-03
5.980000000000000000e+02 4.077639007568359375e+01 1.774310111999511719e+01 -8.706200867891311646e-02 4.154362902045249939e-02 -1.365551352500915527e-02 -1.123589696362614632e-03
5.990000000000000000e+02 4.085043716430664062e+01 1.310540866851806641e+01 -3.716325759887695312e-02 -4.812843326362781227e-05 -1.116341631859540939e-02 -1.466569304466247559e-02
6.000000000000000000e+02 4.129842376708984375e+01 1.526075458526611328e+01 -6.796872615814208984e-02 1.962804794311523438e-02 -1.450220309197902679e-02 -1.127402856945991516e-02
6.010000000000000000e+02 4.397498321533203125e+01 1.542816066741943359e+01 -7.182763516902923584e-02 -1.611446216702461243e-02 -2.638263069093227386e-02 -4.822101816534996033e-02
6.020000000000000000e+02 4.499695205688476562e+01 1.619881057739257812e+01 -9.821021556854248047e-02 -4.541033133864402771e-02 -4.308616369962692261e-02 -5.832724273204803467e-02
6.030000000000000000e+02 5.454992675781250000e+01 -2.871105432510375977e+00 1.194730639457702637e+00 2.026515483856201172e+00 9.663738608360290527e-01 1.635318398475646973e+00
6.040000000000000000e+02 5.358345794677734375e+01 -3.961970329284667969e+00 6.569406390190124512e-01 1.764709949493408203e+00 7.264951467514038086e-01 1.293572783470153809e+00
6.050000000000000000e+02 5.361756134033203125e+01 -8.448901176452636719e+00 -1.146400451660156250e+00 1.459999084472656250e+00 9.407960623502731323e-02 2.098264694213867188e+00
6.060000000000000000e+02 4.917977905273437500e+01 -5.375687122344970703e+00 -5.857524871826171875e+00 -3.683090507984161377e-01 -1.867750287055969238e+00 1.084206104278564453e+00
6.070000000000000000e+02 5.036263656616210938e+01 -6.676539897918701172e+00 -2.518959045410156250e+00 4.619022086262702942e-02 -7.418305873870849609e-01 2.064654827117919922e+00
6.080000000000000000e+02 4.779831314086914062e+01 -5.122171401977539062e+00 -6.309856414794921875e+00 -5.954178571701049805e-01 -2.071582317352294922e+00 1.574885725975036621e+00
6.090000000000000000e+02 4.509778213500976562e+01 -4.385010242462158203e+00 -5.717980384826660156e+00 -4.794830679893493652e-01 -1.859239101409912109e+00 1.624775052070617676e+00
6.100000000000000000e+02 4.247775268554687500e+01 -3.517001390457153320e+00 -4.919068813323974609e+00 -1.233000278472900391e+00 -1.845620632171630859e+00 1.996478676795959473e+00
6.110000000000000000e+02 4.210492706298828125e+01 -5.988387107849121094e+00 -2.924926996231079102e+00 -5.318751186132431030e-02 -8.934343457221984863e-01 2.060262411832809448e-01
6.120000000000000000e+02 4.600772094726562500e+01 -7.065684318542480469e+00 -2.929610490798950195e+00 -1.878335326910018921e-01 -9.352332353591918945e-01 9.403421878814697266e-01
6.130000000000000000e+02 5.295287704467773438e+01 -5.897291660308837891e+00 -1.246772766113281250e+00 1.856106281280517578e+00 1.828000545501708984e-01 1.684887647628784180e+00
6.140000000000000000e+02 5.673558044433593750e+01 -8.419657707214355469e+00 -8.305570483207702637e-01 1.539066076278686523e+00 2.125526815652847290e-01 1.392657995223999023e+00
6.150000000000000000e+02 5.177272033691406250e+01 -5.695226192474365234e+00 -2.064760446548461914e+00 7.974906563758850098e-01 -3.801809549331665039e-01 1.266209959983825684e+00
6.160000000000000000e+02 3.285199737548828125e+01 -2.400878429412841797e+00 -2.375427722930908203e+00 -2.704897820949554443e-01 -7.937752604484558105e-01 -1.914188563823699951e-01
6.170000000000000000e+02 3.230205917358398438e+01 -2.516219377517700195e+00 -2.429238319396972656e+00 -8.536915481090545654e-02 -7.543822526931762695e-01 -3.790293037891387939e-01
6.180000000000000000e+02 2.527569961547851562e+01 -2.606461286544799805e+00 -1.213482856750488281e+00 -5.589397624135017395e-02 -3.808130323886871338e-01 -7.386233210563659668e-01
6.190000000000000000e+02 2.340653800964355469e+01 -3.296220302581787109e+00 -7.595093846321105957e-01 -3.295592591166496277e-02 -2.377395927906036377e-01 -6.824060082435607910e-01
6.200000000000000000e+02 1.906309700012207031e+01 -2.194481611251831055e+00 -1.929176747798919678e-01 -8.221615850925445557e-02 -8.254014700651168823e-02 -2.957142591476440430e-01
6.210000000000000000e+02 1.578729438781738281e+01 -1.743935942649841309e+00 1.215461120009422302e-01 -4.838872328400611877e-02 2.194721624255180359e-02 -1.109113171696662903e-01
6.220000000000000000e+02 1.271527004241943359e+01 -1.834513306617736816e+00 2.161385267972946167e-01 -2.464084327220916748e-02 5.744930356740951538e-02 6.469952641054987907e-04
6.230000000000000000e+02 1.043805885314941406e+01 -1.860078215599060059e+00 2.136115133762359619e-01 -1.383530162274837494e-02 5.993286520242691040e-02 5.006349086761474609e-02
6.240000000000000000e+02 5.082803249359130859e+00 -2.696336984634399414e+00 6.106892973184585571e-02 9.192239493131637573e-03 2.107835002243518829e-02 9.272571653127670288e-02
6.250000000000000000e+02 1.218231916427612305e+00 -2.112781286239624023e+00 1.116558443754911423e-02 3.192057833075523376e-02 1.292584929615259171e-02 2.896689064800739288e-02
6.260000000000000000e+02 5.244720578193664551e-01 -3.593941211700439453e+00 3.190889488905668259e-03 7.663482427597045898e-02 2.394771389663219452e-02 2.119178697466850281e-02
6.270000000000000000e+02 3.195220184326171875e+01 -1.965632200241088867e+00 -2.791109323501586914e+00 5.345271155238151550e-02 -8.212969899177551270e-01 -4.553501904010772705e-01
6.280000000000000000e+02 3.153716278076171875e+01 -1.621867060661315918e+00 -3.267406702041625977e+00 4.106597006320953369e-01 -8.570240736007690430e-01 -3.564416468143463135e-01
6.290000000000000000e+02 3.155869865417480469e+01 -1.900526523590087891e+00 -2.767843484878540039e+00 1.135582104325294495e-01 -7.962855696678161621e-01 -4.363314807415008545e-01
6.300000000000000000e+02 2.485395431518554688e+01 -2.060150861740112305e+00 -1.205019354820251465e+00 4.652003943920135498e-02 -3.475497961044311523e-01 -5.749400258064270020e-01
6.310000000000000000e+02 2.422132492065429688e+01 -1.807351827621459961e+00 -1.052352190017700195e+00 1.045588478446006775e-01 -2.843379974365234375e-01 -4.416546821594238281e-01
6.320000000000000000e+02 2.436704254150390625e+01 -9.436380863189697266e-01 -9.949529767036437988e-01 1.384237110614776611e-01 -2.569587826728820801e-01 -1.686709821224212646e-01
6.330000000000000000e+02 2.439281463623046875e+01 -1.896879673004150391e-01 -6.258337497711181641e-01 5.084180086851119995e-02 -1.724975705146789551e-01 3.014895692467689514e-02
6.340000000000000000e+02 1.119729709625244141e+01 -1.851622581481933594e+00 2.204718589782714844e-01 -1.718498393893241882e-02 6.098606437444686890e-02 3.759694471955299377e-02
6.350000000000000000e+02 7.363815784454345703e+00 -1.876174211502075195e+00 1.528227627277374268e-01 -2.904838416725397110e-03 4.497537761926651001e-02 7.766957581043243408e-02
6.360000000000000000e+02 3.519080400466918945e+00 -1.862653136253356934e+00 5.513257533311843872e-02 1.229108031839132309e-02 2.022709697484970093e-02 6.431548297405242920e-02
6.370000000000000000e+02 5.037125110626220703e+00 -1.886583447456359863e+00 9.333893656730651855e-02 5.047772545367479324e-03 2.951601333916187286e-02 7.565558701753616333e-02
6.380000000000000000e+02 1.424927330017089844e+01 -1.795726656913757324e+00 1.862929910421371460e-01 -3.590011224150657654e-02 4.511786252260208130e-02 -4.952599480748176575e-02
6.390000000000000000e+02 1.207609367370605469e+01 -2.550568580627441406e+00 1.230792403221130371e-01 -4.134864360094070435e-02 2.451918087899684906e-02 1.195810735225677490e-02
6.400000000000000000e+02 4.443620204925537109e+00 -3.795148134231567383e+00 1.650562137365341187e-02 2.131428942084312439e-02 1.134597323834896088e-02 9.712270647287368774e-02
6.410000000000000000e+02 2.055603981018066406e+00 -9.400383949279785156e+00 -3.662238270044326782e-02 1.093796864151954651e-01 2.182719111442565918e-02 -1.566069386899471283e-02
6.420000000000000000e+02 3.339959621429443359e+00 -9.153732299804687500e+00 -7.733929902315139771e-02 4.838611558079719543e-02 -8.685954846441745758e-03 -2.114215306937694550e-02
6.430000000000000000e+02 1.854847669601440430e+00 -1.645671272277832031e+01 -1.912153884768486023e-02 -2.799732089042663574e-01 -8.972842246294021606e-02 -2.114371210336685181e-01
6.440000000000000000e+02 1.872894406318664551e+00 -2.059604644775390625e+01 5.780891049653291702e-03 -7.233956456184387207e-01 -2.152844220399856567e-01 -2.360272258520126343e-01
6.450000000000000000e+02 6.626060605049133301e-01 -2.761487007141113281e+01 5.365220364183187485e-03 -1.512569308280944824e+00 -4.521612226963043213e-01 -4.021629691123962402e-02
6.460000000000000000e+02 2.017722129821777344e+00 -2.751762771606445312e+01 2.085613645613193512e-02 -1.294985175132751465e+00 -3.822387158870697021e-01 -1.239715740084648132e-01
6.470000000000000000e+02 6.946381330490112305e-01 -3.461709213256835938e+01 3.194584278389811516e-03 -1.712520837783813477e+00 -5.127978920936584473e-01 5.678013898432254791e-03
6.480000000000000000e+02 7.113019227981567383e-01 -3.600033569335937500e+01 -3.476217621937394142e-03 -1.703677415847778320e+00 -5.121461153030395508e-01 4.160745535045862198e-03
6.490000000000000000e+02 1.335464000701904297e+00 -4.005357360839843750e+01 2.499399892985820770e-02 -1.580221652984619141e+00 -4.665682911872863770e-01 4.783172532916069031e-02
6.500000000000000000e+02 8.217906951904296875e+00 -4.113699340820312500e+01 1.957228034734725952e-02 -6.877784132957458496e-01 -2.004618495702743530e-01 -1.333174388855695724e-02
6.510000000000000000e+02 9.792849540710449219e+00 -3.583126068115234375e+01 1.143510639667510986e-01 -4.291245937347412109e-01 -9.443206340074539185e-02 -6.993962079286575317e-02
6.520000000000000000e+02 1.086880207061767578e+01 -2.730942344665527344e+01 3.906576931476593018e-01 -2.596565783023834229e-01 3.930032998323440552e-02 -3.244866728782653809e-01
6.530000000000000000e+02 7.827397823333740234e+00 -1.869307899475097656e+01 -3.080702945590019226e-02 -4.095405042171478271e-01 -1.321042627096176147e-01 -6.772118806838989258e-01
6.540000000000000000e+02 8.807149887084960938e+00 -1.667463874816894531e+01 -2.437452226877212524e-01 -3.061624765396118164e-01 -1.649723052978515625e-01 -6.807931065559387207e-01
6.550000000000000000e+02 1.064791488647460938e+01 -1.324263286590576172e+01 -6.451272964477539062e-01 -2.536891400814056396e-01 -2.696449160575866699e-01 -4.572724699974060059e-01
6.560000000000000000e+02 8.192662239074707031e+00 -1.103199672698974609e+01 -4.107450544834136963e-01 -1.131454482674598694e-01 -1.571671515703201294e-01 -2.167139947414398193e-01
6.570000000000000000e+02 9.285675048828125000e+00 -5.599762916564941406e+00 -1.551553010940551758e-01 -7.312323153018951416e-02 -6.848356127738952637e-02 4.344468936324119568e-02
6.580000000000000000e+02 8.904970169067382812e+00 -1.869511723518371582e+00 1.883556693792343140e-01 -7.817021571099758148e-03 5.416159704327583313e-02 6.802222877740859985e-02
6.590000000000000000e+02 2.038600921630859375e+00 -4.162677383422851562e+01 -5.718020349740982056e-02 -1.557489991188049316e+00 -4.844010472297668457e-01 1.619587279856204987e-02
6.600000000000000000e+02 1.265920543670654297e+01 -4.121734237670898438e+01 7.231316715478897095e-02 -1.341421157121658325e-01 -1.854868419468402863e-02 -1.334901433438062668e-02
6.610000000000000000e+02 1.284612369537353516e+01 -3.851779937744140625e+01 8.927936851978302002e-02 -1.174500659108161926e-01 -8.451211266219615936e-03 -5.214832723140716553e-02
6.620000000000000000e+02 1.271020030975341797e+01 -3.569066619873046875e+01 1.541919112205505371e-01 -1.215916574001312256e-01 9.780075401067733765e-03 -9.015366435050964355e-02
6.630000000000000000e+02 1.237833595275878906e+01 -3.280922698974609375e+01 2.414791584014892578e-01 -1.199904233217239380e-01 3.644661977887153625e-02 -1.522335857152938843e-01
6.640000000000000000e+02 1.014877891540527344e+01 -1.935724067687988281e+01 5.309928581118583679e-02 -3.697353303432464600e-01 -9.499081224203109741e-02 -7.780543565750122070e-01
6.650000000000000000e+02 1.273861694335937500e+01 -1.801046371459960938e+01 -1.156145408749580383e-01 -4.315893650054931641e-01 -1.641611754894256592e-01 -6.987181305885314941e-01
6.660000000000000000e+02 1.230992221832275391e+01 -1.353585338592529297e+01 -8.071668744087219238e-01 -4.114984571933746338e-01 -3.655996024608612061e-01 -5.195071101188659668e-01
6.670000000000000000e+02 1.174909496307373047e+01 -1.122181224822998047e+01 -7.199006676673889160e-01 -3.288656771183013916e-01 -3.146299123764038086e-01 -2.972952425479888916e-01
6.680000000000000000e+02 1.173103809356689453e+01 -5.561779975891113281e+00 -2.049534320831298828e-01 -1.513360142707824707e-01 -1.068868339061737061e-01 -2.646638825535774231e-02
6.690000000000000000e+02 1.678179550170898438e+01 -3.810723495483398438e+01 1.657824218273162842e-01 2.764054834842681885e-01 1.326563656330108643e-01 -7.101423293352127075e-02
6.700000000000000000e+02 1.575672912597656250e+01 -3.517514038085937500e+01 2.278748899698257446e-01 2.075067311525344849e-01 1.306144893169403076e-01 -1.241553798317909241e-01
6.710000000000000000e+02 1.481728553771972656e+01 -3.270242691040039062e+01 3.140474557876586914e-01 1.371175944805145264e-01 1.353495121002197266e-01 -1.838568896055221558e-01
6.720000000000000000e+02 1.369142818450927734e+01 -2.575244903564453125e+01 5.411246418952941895e-01 1.433530598878860474e-01 2.053433060646057129e-01 -3.981921076774597168e-01
6.730000000000000000e+02 1.809101867675781250e+01 -2.569099235534667969e+01 8.340650796890258789e-01 7.809776067733764648e-01 4.845128059387207031e-01 -7.597376704216003418e-01
6.740000000000000000e+02 1.711715126037597656e+01 -2.463968849182128906e+01 7.445105910301208496e-01 8.188436031341552734e-01 4.690062701702117920e-01 -7.523196339607238770e-01
6.750000000000000000e+02 1.538063526153564453e+01 -2.239770889282226562e+01 5.990740060806274414e-01 8.613892793655395508e-01 4.381389617919921875e-01 -6.778504848480224609e-01
6.760000000000000000e+02 1.477123546600341797e+01 -2.127584266662597656e+01 4.092518985271453857e-01 7.346387505531311035e-01 3.431671857833862305e-01 -5.153178572654724121e-01
6.770000000000000000e+02 1.263546657562255859e+01 -1.936349868774414062e+01 1.559361070394515991e-01 -2.748609483242034912e-01 -3.567745536565780640e-02 -6.849260330200195312e-01
6.780000000000000000e+02 1.414988422393798828e+01 -1.941739463806152344e+01 7.063489407300949097e-02 4.165230691432952881e-02 3.368616104125976562e-02 -3.228168487548828125e-01
6.790000000000000000e+02 1.420224094390869141e+01 -1.803202247619628906e+01 -1.611434482038021088e-02 -4.957719445228576660e-01 -1.535658836364746094e-01 -2.710545361042022705e-01
6.800000000000000000e+02 1.464192199707031250e+01 -1.514018249511718750e+01 -5.817381739616394043e-01 -1.421370506286621094e+00 -6.009325981140136719e-01 -7.925907373428344727e-01
6.810000000000000000e+02 1.438714408874511719e+01 -1.126363182067871094e+01 -1.004750013351440430e+00 -7.257042527198791504e-01 -5.191363096237182617e-01 -4.374984204769134521e-01
6.820000000000000000e+02 1.560630130767822266e+01 -1.263504600524902344e+01 -1.334442734718322754e+00 -1.159976363182067871e+00 -7.483257055282592773e-01 -9.235311150550842285e-01
6.830000000000000000e+02 1.628239440917968750e+01 -5.692152976989746094e+00 -3.324792683124542236e-01 -3.227404952049255371e-01 -1.965659260749816895e-01 -3.271219134330749512e-01
6.840000000000000000e+02 1.731560707092285156e+01 -4.110555648803710938e+01 1.399473100900650024e-01 3.175038993358612061e-01 1.372353583574295044e-01 -2.171614766120910645e-02
6.850000000000000000e+02 2.078565597534179688e+01 -3.756798171997070312e+01 2.740913927555084229e-01 5.456007719039916992e-01 2.459076642990112305e-01 -9.721926599740982056e-02
6.860000000000000000e+02 1.788151931762695312e+01 -3.374372863769531250e+01 3.710502386093139648e-01 3.887649476528167725e-01 2.279445528984069824e-01 -1.935508847236633301e-01
6.870000000000000000e+02 1.778995704650878906e+01 -3.059505462646484375e+01 5.310291647911071777e-01 4.279416799545288086e-01 2.876912653446197510e-01 -3.292763829231262207e-01
6.880000000000000000e+02 2.126889801025390625e+01 -2.856881713867187500e+01 1.034724593162536621e+00 5.873945355415344238e-01 4.866357147693634033e-01 -6.978245973587036133e-01
6.890000000000000000e+02 1.912378120422363281e+01 -2.668212890625000000e+01 8.428072929382324219e-01 6.865462064743041992e-01 4.588060677051544189e-01 -7.427038550376892090e-01
6.900000000000000000e+02 2.018436813354492188e+01 -2.764764595031738281e+01 9.032984375953674316e-01 6.468345522880554199e-01 4.650399088859558105e-01 -7.112562060356140137e-01
6.910000000000000000e+02 2.195133972167968750e+01 -4.090378952026367188e+01 2.123143821954727173e-01 6.079522967338562012e-01 2.460799962282180786e-01 -2.140174806118011475e-02
6.920000000000000000e+02 2.435233306884765625e+01 -3.707404327392578125e+01 3.821519017219543457e-01 6.692165732383728027e-01 3.154105544090270996e-01 -5.419566109776496887e-02
6.930000000000000000e+02 2.457191658020019531e+01 -3.002847480773925781e+01 1.201518774032592773e+00 2.602667808532714844e-01 4.385356605052947998e-01 -2.730698287487030029e-01
6.940000000000000000e+02 2.331256294250488281e+01 -3.052790641784667969e+01 1.084112167358398438e+00 4.327878057956695557e-01 4.550699591636657715e-01 -3.871519565582275391e-01
6.950000000000000000e+02 2.239215469360351562e+01 -2.935754203796386719e+01 1.187066435813903809e+00 4.781529307365417480e-01 4.995658099651336670e-01 -5.647379159927368164e-01
6.960000000000000000e+02 2.632753181457519531e+01 -4.059121704101562500e+01 2.541123032569885254e-01 8.136678338050842285e-01 3.203340470790863037e-01 -1.042701955884695053e-02
6.970000000000000000e+02 2.695480346679687500e+01 -3.597662734985351562e+01 4.693917334079742432e-01 7.010309696197509766e-01 3.511268198490142822e-01 6.694059818983078003e-03
6.980000000000000000e+02 3.225547027587890625e+01 -2.942422103881835938e+01 8.074777722358703613e-01 7.941284179687500000e-01 4.804818630218505859e-01 5.563965439796447754e-01
6.990000000000000000e+02 3.232982635498046875e+01 -2.717086219787597656e+01 7.920203804969787598e-01 8.612616658210754395e-01 4.959846138954162598e-01 7.858154773712158203e-01
7.000000000000000000e+02 2.966034698486328125e+01 -3.284979248046875000e+01 6.631513833999633789e-01 6.780295968055725098e-01 4.023542702198028564e-01 2.618235051631927490e-01
7.010000000000000000e+02 2.622167015075683594e+01 -3.222899246215820312e+01 8.466432094573974609e-01 4.470067024230957031e-01 3.880949914455413818e-01 -7.375386357307434082e-02
7.020000000000000000e+02 2.940863037109375000e+01 -3.895294570922851562e+01 2.820218205451965332e-01 9.152481555938720703e-01 3.591809868812561035e-01 5.144971609115600586e-02
7.030000000000000000e+02 3.101978874206542969e+01 -3.628326416015625000e+01 3.505013883113861084e-01 9.337429404258728027e-01 3.852733075618743896e-01 1.609985679388046265e-01
7.040000000000000000e+02 2.872602081298828125e+01 -3.451422882080078125e+01 5.729165077209472656e-01 7.140329480171203613e-01 3.860848546028137207e-01 1.136519908905029297e-01
7.050000000000000000e+02 3.020124244689941406e+01 -2.895276641845703125e+01 1.100600957870483398e+00 5.457374453544616699e-01 4.939015209674835205e-01 6.115335822105407715e-01
7.060000000000000000e+02 3.517618179321289062e+01 -2.690112113952636719e+01 6.739395260810852051e-01 1.012952446937561035e+00 5.060675740242004395e-01 7.528491616249084473e-01
7.070000000000000000e+02 3.967488098144531250e+01 -2.737936973571777344e+01 3.619157373905181885e-01 1.651156425476074219e+00 6.039216518402099609e-01 7.879724502563476562e-01
7.080000000000000000e+02 4.225021362304687500e+01 -2.565666580200195312e+01 2.693705558776855469e-01 2.502615213394165039e+00 8.315957188606262207e-01 6.570411920547485352e-01
7.090000000000000000e+02 4.487632369995117188e+01 -2.696996879577636719e+01 1.164766177535057068e-01 2.557482004165649414e+00 8.021875619888305664e-01 -4.644488543272018433e-02
7.100000000000000000e+02 4.600342178344726562e+01 -2.588088226318359375e+01 4.496188163757324219e-01 2.849561929702758789e+00 9.897542595863342285e-01 -8.654870390892028809e-01
7.110000000000000000e+02 4.509763717651367188e+01 -2.021672248840332031e+01 -1.091303303837776184e-01 4.452884674072265625e+00 1.303126335144042969e+00 -7.048849761486053467e-02
7.120000000000000000e+02 4.540235519409179688e+01 -1.893144035339355469e+01 -2.035608440637588501e-01 3.979187488555908203e+00 1.132687926292419434e+00 -5.297214984893798828e-01
7.130000000000000000e+02 4.342266845703125000e+01 -1.693368148803710938e+01 4.730722427368164062e+00 4.834513664245605469e+00 2.869570970535278320e+00 2.100246667861938477e+00
7.140000000000000000e+02 4.339112472534179688e+01 -1.671600914001464844e+01 5.316567420959472656e+00 4.532926559448242188e+00 2.954848289489746094e+00 1.719247460365295410e+00
7.150000000000000000e+02 3.308890914916992188e+01 -4.073643112182617188e+01 1.540547013282775879e-01 1.072388529777526855e+00 3.679329752922058105e-01 4.647797346115112305e-02
7.160000000000000000e+02 3.404705429077148438e+01 -3.746636199951171875e+01 2.012113779783248901e-01 1.093694448471069336e+00 3.884717524051666260e-01 1.684735268354415894e-01
7.170000000000000000e+02 3.463728713989257812e+01 -3.453284454345703125e+01 2.836801707744598389e-01 1.106768608093261719e+00 4.171346426010131836e-01 3.109855949878692627e-01
7.180000000000000000e+02 3.545608901977539062e+01 -3.007858085632324219e+01 4.973174929618835449e-01 1.131136417388916016e+00 4.885361492633819580e-01 5.991722941398620605e-01
7.190000000000000000e+02 3.340146636962890625e+01 -3.091707038879394531e+01 5.665264725685119629e-01 9.480872154235839844e-01 4.543840885162353516e-01 4.895099103450775146e-01
7.200000000000000000e+02 3.756456756591796875e+01 -4.096788787841796875e+01 4.536487627774477005e-03 1.228622913360595703e+00 3.699478209018707275e-01 4.691589996218681335e-02
7.210000000000000000e+02 3.758408737182617188e+01 -3.790581512451171875e+01 4.297818243503570557e-02 1.224753379821777344e+00 3.803194761276245117e-01 1.546756476163864136e-01
7.220000000000000000e+02 3.750755691528320312e+01 -3.498163223266601562e+01 1.278692632913589478e-01 1.243668079376220703e+00 4.114612042903900146e-01 2.823768258094787598e-01
7.230000000000000000e+02 3.969499969482421875e+01 -3.241906738281250000e+01 9.800249338150024414e-02 1.423033595085144043e+00 4.563108384609222412e-01 3.822321891784667969e-01
7.240000000000000000e+02 3.757860946655273438e+01 -3.231341934204101562e+01 2.212528884410858154e-01 1.305239439010620117e+00 4.579477012157440186e-01 4.307309389114379883e-01
7.250000000000000000e+02 4.136919403076171875e+01 -3.760231781005859375e+01 -7.849410921335220337e-02 1.251565456390380859e+00 3.519214093685150146e-01 7.379400730133056641e-02
7.260000000000000000e+02 4.025678253173828125e+01 -3.475725936889648438e+01 -8.268382400274276733e-03 1.377850890159606934e+00 4.108747243881225586e-01 2.243324965238571167e-01
7.270000000000000000e+02 4.293681716918945312e+01 -3.056791305541992188e+01 -6.687347590923309326e-02 1.740629553794860840e+00 5.021268129348754883e-01 2.477903813123703003e-01
7.280000000000000000e+02 4.136571884155273438e+01 -3.173196601867675781e+01 -2.579546067863702774e-03 1.609197616577148438e+00 4.819854199886322021e-01 3.344736993312835693e-01
7.290000000000000000e+02 4.229170989990234375e+01 -4.082915878295898438e+01 -9.517024457454681396e-02 1.168259143829345703e+00 3.219266831874847412e-01 1.467876974493265152e-02
7.300000000000000000e+02 4.417213821411132812e+01 -3.609085464477539062e+01 -1.221690028905868530e-01 1.220192432403564453e+00 3.294070363044738770e-01 -1.110882963985204697e-02
7.310000000000000000e+02 4.572265625000000000e+01 -3.396478652954101562e+01 -1.424321234226226807e-01 1.174237608909606934e+00 3.095416426658630371e-01 -1.244981959462165833e-01
7.320000000000000000e+02 4.555760955810546875e+01 -3.086640548706054688e+01 -1.373200565576553345e-01 1.512042284011840820e+00 4.124166369438171387e-01 -1.400965005159378052e-01
7.330000000000000000e+02 4.676288986206054688e+01 -2.707944297790527344e+01 4.776716530323028564e-01 1.804014682769775391e+00 6.845059394836425781e-01 -7.868792414665222168e-01
7.340000000000000000e+02 4.672810745239257812e+01 -2.946158790588378906e+01 -8.904137648642063141e-03 1.442858338356018066e+00 4.301862716674804688e-01 -3.649556040763854980e-01
7.350000000000000000e+02 4.711476898193359375e+01 -4.078402709960937500e+01 -5.636897683143615723e-02 8.622652292251586914e-01 2.417688667774200439e-01 -3.716019913554191589e-02
7.360000000000000000e+02 4.708879852294921875e+01 -3.762545776367187500e+01 -7.822901755571365356e-02 8.932585716247558594e-01 2.445088624954223633e-01 -1.074064970016479492e-01
7.370000000000000000e+02 4.879553222656250000e+01 -2.912784194946289062e+01 2.062842994928359985e-01 5.304906964302062988e-01 2.210325002670288086e-01 -3.455988466739654541e-01
7.380000000000000000e+02 5.169086837768554688e+01 -4.075396347045898438e+01 5.453985929489135742e-02 4.067525267601013184e-01 1.383877247571945190e-01 -3.412204235792160034e-02
7.390000000000000000e+02 5.050643157958984375e+01 -3.767715835571289062e+01 2.243356034159660339e-02 5.112207531929016113e-01 1.600963026285171509e-01 -1.202158629894256592e-01
7.400000000000000000e+02 5.022858428955078125e+01 -3.372246932983398438e+01 -1.372283324599266052e-02 4.853096604347229004e-01 1.414760500192642212e-01 -2.277482300996780396e-01
7.410000000000000000e+02 5.439221191406250000e+01 -3.090938568115234375e+01 -2.725615501403808594e-01 9.443027898669242859e-03 -7.893555611371994019e-02 9.090099483728408813e-03
7.420000000000000000e+02 5.589054489135742188e+01 -3.089517211914062500e+01 -2.586255967617034912e-01 -1.184319239109754562e-02 -8.114063739776611328e-02 8.356665261089801788e-03
7.430000000000000000e+02 6.015065002441406250e+01 -2.970922279357910156e+01 -1.224027648568153381e-01 -1.138626877218484879e-02 -4.013670980930328369e-02 -2.242681570351123810e-02
7.440000000000000000e+02 6.311025619506835938e+01 -3.179700469970703125e+01 -5.836238339543342590e-02 8.444405160844326019e-03 -1.497539319097995758e-02 2.599613927304744720e-02
7.450000000000000000e+02 6.472006225585937500e+01 -2.639955520629882812e+01 -1.454940252006053925e-02 -3.326941048726439476e-03 -5.362903233617544174e-03 -8.063361048698425293e-03
7.460000000000000000e+02 6.347732543945312500e+01 -2.956213760375976562e+01 -5.687742307782173157e-02 4.528059624135494232e-03 -1.570480875670909882e-02 1.153128920122981071e-03
7.470000000000000000e+02 6.262675094604492188e+01 -2.829478836059570312e+01 -5.357302352786064148e-02 -1.065262313932180405e-02 -1.926769316196441650e-02 -1.938596554100513458e-02
7.480000000000000000e+02 6.224190139770507812e+01 -3.040874671936035156e+01 -7.540982216596603394e-02 6.154025904834270477e-03 -2.077673934400081635e-02 7.301848381757736206e-03
7.490000000000000000e+02 5.320535659790039062e+01 -3.654209899902343750e+01 6.534415483474731445e-02 2.375861406326293945e-01 9.087909013032913208e-02 -6.875380128622055054e-02
7.500000000000000000e+02 5.175007629394531250e+01 -3.464916992187500000e+01 2.630746178328990936e-02 2.845831513404846191e-01 9.326718747615814209e-02 -1.452756375074386597e-01
7.510000000000000000e+02 5.513096618652343750e+01 -3.920557022094726562e+01 9.522810578346252441e-02 1.552979350090026855e-01 7.515781372785568237e-02 -1.951604709029197693e-02
7.520000000000000000e+02 5.728792953491210938e+01 -3.662344741821289062e+01 5.946107581257820129e-02 3.527306392788887024e-02 2.842024154961109161e-02 1.832504756748676300e-02
7.530000000000000000e+02 5.525577163696289062e+01 -3.488714599609375000e+01 3.517261892557144165e-02 5.416517332196235657e-02 2.680133841931819916e-02 -6.542324088513851166e-03
7.540000000000000000e+02 5.838520050048828125e+01 -4.089607620239257812e+01 1.001323983073234558e-01 6.999284774065017700e-02 5.103757232427597046e-02 6.177081260830163956e-03
7.550000000000000000e+02 5.990198135375976562e+01 -3.799042892456054688e+01 6.377077102661132812e-02 1.719537749886512756e-02 2.428984455764293671e-02 2.656820043921470642e-02
7.560000000000000000e+02 5.891518783569335938e+01 -3.471726989746093750e+01 8.628104114904999733e-04 -1.818861928768455982e-04 2.042772684944793582e-04 4.530096799135208130e-02
7.570000000000000000e+02 6.086648559570312500e+01 -3.561052703857421875e+01 1.935137808322906494e-02 2.133589237928390503e-03 6.445490289479494095e-03 4.702742770314216614e-02
7.580000000000000000e+02 6.273794555664062500e+01 -4.119971084594726562e+01 7.018428295850753784e-02 -1.027701608836650848e-02 1.797218061983585358e-02 1.121049746870994568e-02
7.590000000000000000e+02 6.352614593505859375e+01 -3.578046417236328125e+01 1.006466709077358246e-02 -1.208396977744996548e-03 2.656880998983979225e-03 4.331868141889572144e-02
7.600000000000000000e+02 6.769197845458984375e+01 -3.034201431274414062e+01 -2.472768910229206085e-02 6.436558440327644348e-03 -5.487339105457067490e-03 1.262976042926311493e-02
7.610000000000000000e+02 6.572328186035156250e+01 -2.759708786010742188e+01 -2.520234137773513794e-02 2.688495442271232605e-03 -6.754153408110141754e-03 -3.964547067880630493e-03
7.620000000000000000e+02 6.865496826171875000e+01 -2.405422973632812500e+01 -4.159744363278150558e-03 1.065107644535601139e-03 -9.283909457735717297e-04 -1.297229202464222908e-03
7.630000000000000000e+02 7.213469696044921875e+01 -1.912324714660644531e+01 4.203742428217083216e-04 -5.466514849103987217e-04 -3.788316462305374444e-05 1.020124327624216676e-04
7.640000000000000000e+02 6.936872100830078125e+01 -2.263746833801269531e+01 -1.930705620907247066e-03 2.327921683900058270e-04 -5.093740182928740978e-04 1.354893265670398250e-05
7.650000000000000000e+02 6.724195098876953125e+01 -4.119445419311523438e+01 3.741671890020370483e-02 -1.646782830357551575e-02 6.284667178988456726e-03 4.949197638779878616e-03
7.660000000000000000e+02 6.983802032470703125e+01 -3.787632751464843750e+01 1.273057796061038971e-02 -1.074956823140382767e-02 5.943028954789042473e-04 1.708622835576534271e-02
7.670000000000000000e+02 6.693233489990234375e+01 -3.386034393310546875e+01 -1.097334641963243484e-02 4.034528508782386780e-03 -2.081645419821143150e-03 3.194003179669380188e-02
7.680000000000000000e+02 7.114077758789062500e+01 -3.135613059997558594e+01 -9.628887288272380829e-03 1.661652582697570324e-03 -2.390170469880104065e-03 1.454742997884750366e-02
7.690000000000000000e+02 6.901573181152343750e+01 -2.832832145690917969e+01 -1.865614578127861023e-02 4.391728434711694717e-03 -4.279324784874916077e-03 4.410275723785161972e-03
7.700000000000000000e+02 7.188906860351562500e+01 -2.289742469787597656e+01 -2.215875079855322838e-03 5.572554073296487331e-04 -4.975859192200005054e-04 4.499888746067881584e-04
7.710000000000000000e+02 7.142059326171875000e+01 -1.916536712646484375e+01 6.024784524925053120e-04 -8.084278670139610767e-05 1.564906997373327613e-04 3.149777767248451710e-04
7.720000000000000000e+02 7.288544464111328125e+01 -1.823955345153808594e+01 3.216115874238312244e-04 -3.520089376252144575e-04 -9.119205060414969921e-06 1.818762102629989386e-04
7.730000000000000000e+02 7.144448089599609375e+01 -1.828881072998046875e+01 2.612784155644476414e-04 -2.704737999010831118e-04 -2.758612708930741064e-06 3.985614748671650887e-04
7.740000000000000000e+02 7.159170532226562500e+01 -4.086923217773437500e+01 1.501736417412757874e-02 -1.656368188560009003e-02 -4.638953541871160269e-04 6.999108940362930298e-03
7.750000000000000000e+02 7.181866455078125000e+01 -3.645164871215820312e+01 7.117196917533874512e-03 -9.768941439688205719e-03 -7.955235196277499199e-04 1.768553443253040314e-02
7.760000000000000000e+02 7.304299926757812500e+01 -3.494016647338867188e+01 -9.683868847787380219e-05 -8.467886596918106079e-03 -2.569417702034115791e-03 1.562977395951747894e-02
7.770000000000000000e+02 7.494596862792968750e+01 -3.132120895385742188e+01 -3.326370846480131149e-03 -5.238774698227643967e-03 -2.569543663412332535e-03 9.757648222148418427e-03
7.780000000000000000e+02 7.495169067382812500e+01 -2.983530807495117188e+01 -3.455828176811337471e-03 -3.054574597626924515e-03 -1.953120809048414230e-03 7.986022159457206726e-03
7.790000000000000000e+02 7.545587158203125000e+01 -2.404858207702636719e+01 -1.604559947736561298e-03 -1.225069048814475536e-03 -8.488887106068432331e-04 9.005846222862601280e-04
7.800000000000000000e+02 7.572616577148437500e+01 -1.901063919067382812e+01 1.596138899913057685e-04 -5.355657776817679405e-05 3.181719512213021517e-05 -1.898092887131497264e-05
7.810000000000000000e+02 7.773291778564453125e+01 -1.837571144104003906e+01 8.703213825356215239e-05 1.361058966722339392e-04 6.694140756735578179e-05 -2.386000851402059197e-04
7.820000000000000000e+02 7.577653503417968750e+01 -1.824599838256835938e+01 2.434167545288801193e-04 -1.369328092550858855e-04 3.194518285454250872e-05 -3.940310562029480934e-04
7.830000000000000000e+02 7.433637237548828125e+01 -1.822321701049804688e+01 2.320850471733137965e-04 -2.219869056716561317e-04 3.029443405466736294e-06 -1.204323125421069562e-04
7.840000000000000000e+02 7.472521972656250000e+01 -4.003022003173828125e+01 4.710420966148376465e-03 -2.037029154598712921e-02 -4.697961267083883286e-03 6.260546389967203140e-03
7.850000000000000000e+02 7.366541290283203125e+01 -3.767004394531250000e+01 7.564901839941740036e-03 -1.660668477416038513e-02 -2.712534973397850990e-03 1.191920414566993713e-02
7.860000000000000000e+02 7.697956848144531250e+01 -3.515405273437500000e+01 6.819841219112277031e-04 -1.476261019706726074e-02 -4.224187694489955902e-03 7.335965055972337723e-03
7.870000000000000000e+02 7.824713134765625000e+01 -2.955360221862792969e+01 -5.660557071678340435e-04 -4.284447524696588516e-03 -1.455150893889367580e-03 2.730117412284016609e-03
7.880000000000000000e+02 7.938711547851562500e+01 -2.819253921508789062e+01 -2.900803810916841030e-04 -1.704878639429807663e-03 -5.984876770526170731e-04 7.240374106913805008e-04
7.890000000000000000e+02 7.820170593261718750e+01 -2.540841102600097656e+01 -4.240451962687075138e-04 -5.193828837946057320e-04 -2.830284356605261564e-04 7.674211519770324230e-04
7.900000000000000000e+02 7.940180969238281250e+01 -2.545983695983886719e+01 -2.836821950040757656e-04 5.335381138138473034e-04 7.495677709812298417e-05 2.995063550770282745e-04
7.910000000000000000e+02 7.957510375976562500e+01 -1.993848228454589844e+01 6.837074579379986972e-06 5.153751699253916740e-04 1.566636783536523581e-04 -4.760492811328731477e-05
7.920000000000000000e+02 7.755776214599609375e+01 -2.023110580444335938e+01 -1.981555105885490775e-04 2.779411443043500185e-04 2.393568865954875946e-05 -2.511594211682677269e-04
7.930000000000000000e+02 7.901482391357421875e+01 -1.852144050598144531e+01 -4.464750236365944147e-05 2.532941289246082306e-04 6.259398651309311390e-05 -5.761090505984611809e-05
7.940000000000000000e+02 7.792547607421875000e+01 -4.163142776489257812e+01 1.666798489168286324e-03 -2.703572250902652740e-02 -7.610676810145378113e-03 4.554254992399364710e-04
7.950000000000000000e+02 7.858515930175781250e+01 -4.007008361816406250e+01 -4.864639777224510908e-05 -2.648727595806121826e-02 -7.960776798427104950e-03 1.513691502623260021e-03
7.960000000000000000e+02 7.919365692138671875e+01 -3.744825744628906250e+01 1.662333379499614239e-04 -2.271462045609951019e-02 -6.764516234397888184e-03 1.215974334627389908e-03
7.970000000000000000e+02 7.719085693359375000e+01 -3.782497787475585938e+01 1.244857558049261570e-03 -2.107435651123523712e-02 -5.948849488049745560e-03 4.870543256402015686e-03
7.980000000000000000e+02 7.824143218994140625e+01 -3.445325088500976562e+01 1.539655786473304033e-04 -1.465773489326238632e-02 -4.351130686700344086e-03 4.448467865586280823e-03
7.990000000000000000e+02 7.948009490966796875e+01 -3.220033645629882812e+01 -9.338570816908031702e-05 -9.773524478077888489e-03 -2.960073063150048256e-03 1.384492148645222187e-03
8.000000000000000000e+02 6.824935913085937500e+01 -2.194780921936035156e+01 3.816200187429785728e-04 1.351333805359899998e-03 5.198861472308635712e-04 -3.538343880791217089e-04
8.010000000000000000e+02 6.665423583984375000e+01 -2.431980133056640625e+01 -3.769626142457127571e-03 -1.416940358467400074e-04 -1.173396012745797634e-03 -2.234937623143196106e-03
8.020000000000000000e+02 6.371184158325195312e+01 -2.738702964782714844e+01 -2.724493481218814850e-02 -7.672060746699571609e-03 -1.047509908676147461e-02 -1.338757202029228210e-02
8.030000000000000000e+02 6.680757904052734375e+01 -2.886267089843750000e+01 -2.830091118812561035e-02 8.523575030267238617e-03 -5.933200474828481674e-03 4.558179061859846115e-03
8.040000000000000000e+02 5.880025863647460938e+01 -3.025925827026367188e+01 -1.645128726959228516e-01 -9.480287320911884308e-03 -5.219794809818267822e-02 -1.721932180225849152e-02
8.050000000000000000e+02 5.144076919555664062e+01 -3.043503379821777344e+01 -1.824978142976760864e-01 7.666672021150588989e-02 -3.174933046102523804e-02 -4.524501413106918335e-02
8.060000000000000000e+02 4.934155273437500000e+01 -3.140889549255371094e+01 -2.801699377596378326e-02 5.693802237510681152e-01 1.624089628458023071e-01 -3.160569071769714355e-01
8.070000000000000000e+02 3.144041442871093750e+01 -8.905037879943847656e+00 2.439251661300659180e+00 1.437308192253112793e+00 1.162967920303344727e+00 -1.657222747802734375e+00
8.080000000000000000e+02 3.254747390747070312e+01 -9.778173446655273438e+00 1.963373899459838867e+00 1.750792264938354492e+00 1.114249825477600098e+00 -1.730142474174499512e+00
8.090000000000000000e+02 3.443690109252929688e+01 -9.867417335510253906e+00 1.276651740074157715e+00 1.003227949142456055e+00 6.839638948440551758e-01 -1.045611023902893066e+00
8.100000000000000000e+02 2.854352378845214844e+01 -8.064549446105957031e+00 1.070628285408020020e+00 5.709230154752731323e-02 3.383161723613739014e-01 -4.340361654758453369e-01
8.110000000000000000e+02 3.544259262084960938e+01 -1.636004257202148438e+01 8.475330471992492676e-02 -1.441967129707336426e+00 -4.071641564369201660e-01 -2.911297790706157684e-02
8.120000000000000000e+02 3.847184371948242188e+01 -1.487545967102050781e+01 1.400226950645446777e+00 5.514570474624633789e-01 5.855051875114440918e-01 -9.892939329147338867e-01
8.130000000000000000e+02 3.432245254516601562e+01 -1.206112957000732422e+01 1.007197141647338867e+00 1.481217145919799805e+00 7.465243339538574219e-01 -1.201341748237609863e+00
8.140000000000000000e+02 3.526955795288085938e+01 -1.489610004425048828e+01 2.816764116287231445e-01 -6.721576452255249023e-01 -1.171443685889244080e-01 -3.509338200092315674e-01
8.150000000000000000e+02 3.666909027099609375e+01 -1.780442810058593750e+01 2.519282400608062744e-01 -3.648850917816162109e-01 -3.388705849647521973e-02 1.378741413354873657e-01
8.160000000000000000e+02 3.863743591308593750e+01 -2.058741760253906250e+01 4.524776339530944824e-01 1.376589536666870117e+00 5.487201809883117676e-01 1.094135522842407227e+00
8.170000000000000000e+02 4.540242004394531250e+01 -2.250687980651855469e+01 1.544578522443771362e-01 4.576482772827148438e+00 1.419282197952270508e+00 -1.442810595035552979e-01
8.180000000000000000e+02 4.464198684692382812e+01 -2.370049095153808594e+01 3.634319901466369629e-01 3.964662075042724609e+00 1.298428177833557129e+00 -8.484575152397155762e-02
8.190000000000000000e+02 3.553945922851562500e+01 -2.057836723327636719e+01 3.695477917790412903e-02 -7.323615550994873047e-01 -2.086220383644104004e-01 2.682429552078247070e-01
8.200000000000000000e+02 4.082392883300781250e+01 -2.278970909118652344e+01 3.566097319126129150e-01 2.515689134597778320e+00 8.616896271705627441e-01 9.787886738777160645e-01
8.210000000000000000e+02 4.415393066406250000e+01 -2.579582405090332031e+01 2.714864909648895264e-01 2.746557950973510742e+00 9.054133296012878418e-01 2.261014431715011597e-01
8.220000000000000000e+02 3.545412826538085938e+01 -2.195592117309570312e+01 1.534853428602218628e-01 1.276716142892837524e-01 8.434708416461944580e-02 3.959338665008544922e-01
8.230000000000000000e+02 3.676023101806640625e+01 -2.320385551452636719e+01 5.759474635124206543e-01 7.903556227684020996e-01 4.098909199237823486e-01 1.019135117530822754e+00
8.240000000000000000e+02 4.101733016967773438e+01 -2.649157142639160156e+01 3.105546832084655762e-01 2.010762214660644531e+00 6.963950395584106445e-01 7.618204951286315918e-01
8.250000000000000000e+02 4.051868438720703125e+01 -2.398382186889648438e+01 4.269886910915374756e-01 2.183714151382446289e+00 7.832108736038208008e-01 9.582275152206420898e-01
8.260000000000000000e+02 3.527552032470703125e+01 -2.328286743164062500e+01 4.795440733432769775e-01 8.162466287612915039e-01 3.887372016906738281e-01 6.635939478874206543e-01
8.270000000000000000e+02 3.681830596923828125e+01 -2.795382308959960938e+01 5.416701436042785645e-01 1.208148717880249023e+00 5.249456167221069336e-01 7.512965798377990723e-01
8.280000000000000000e+02 1.520733070373535156e+01 -1.029451274871826172e+01 -8.761923909187316895e-01 -7.071558833122253418e-01 -4.750044643878936768e-01 -3.785929083824157715e-01
8.290000000000000000e+02 1.956092071533203125e+01 -7.684163570404052734e+00 -6.448683738708496094e-01 -3.875816166400909424e-01 -3.097350001335144043e-01 -6.577182412147521973e-01
8.300000000000000000e+02 1.937231826782226562e+01 -1.000627422332763672e+01 -1.089944005012512207e+00 -4.527973234653472900e-01 -4.628223776817321777e-01 -7.330465912818908691e-01
8.310000000000000000e+02 2.340207862854003906e+01 -1.055382061004638672e+01 -7.314280867576599121e-01 -1.094234809279441833e-01 -2.522554695606231689e-01 -3.492319881916046143e-01
8.320000000000000000e+02 2.382552337646484375e+01 -2.643376588821411133e+00 -9.126287698745727539e-01 2.995965443551540375e-02 -2.648007273674011230e-01 -6.428847312927246094e-01
8.330000000000000000e+02 2.415724754333496094e+01 -8.987117767333984375e+00 -5.876713395118713379e-01 -1.916955709457397461e-01 -2.338100671768188477e-01 -4.809219241142272949e-01
8.340000000000000000e+02 2.573990821838378906e+01 -9.397350311279296875e+00 -4.986813068389892578e-01 -2.397972345352172852e-01 -2.215435653924942017e-01 -3.739732801914215088e-01
8.350000000000000000e+02 2.674585723876953125e+01 -7.252863883972167969e+00 -1.332896109670400620e-02 -3.056323528289794922e-01 -9.568838775157928467e-02 -7.632092237472534180e-01
8.360000000000000000e+02 2.752863121032714844e+01 -7.863617897033691406e+00 3.316671550273895264e-01 -2.104748785495758057e-01 3.635768592357635498e-02 -4.885036349296569824e-01
8.370000000000000000e+02 3.649627304077148438e+01 -2.744809627532958984e+00 -2.297114372253417969e+00 6.650089621543884277e-01 -4.896316528320312500e-01 4.803556501865386963e-01
8.380000000000000000e+02 3.661761474609375000e+01 -2.020561218261718750e+00 -2.294735670089721680e+00 5.962184071540832520e-01 -5.095552206039428711e-01 4.745306372642517090e-01
8.390000000000000000e+02 5.411605453491210938e+01 -1.075132560729980469e+01 -2.754569053649902344e-01 9.796842336654663086e-01 2.112681865692138672e-01 1.936276078224182129e+00
8.400000000000000000e+02 5.334889221191406250e+01 -9.478855133056640625e+00 -7.521957159042358398e-01 1.136375665664672852e+00 1.152539774775505066e-01 2.224560022354125977e+00
8.410000000000000000e+02 5.033841705322265625e+01 -7.798605442047119141e+00 -1.769119739532470703e+00 1.783773005008697510e-01 -4.772227108478546143e-01 2.258677482604980469e+00
8.420000000000000000e+02 5.177248001098632812e+01 -1.114544963836669922e+01 3.653481900691986084e-01 7.395374774932861328e-01 3.314657211303710938e-01 2.177065134048461914e+00
8.430000000000000000e+02 5.146902847290039062e+01 -1.375838947296142578e+01 2.178054571151733398e+00 3.712488114833831787e-01 7.647910118103027344e-01 1.461828589439392090e+00
8.440000000000000000e+02 5.826504898071289062e+01 -1.212955093383789062e+01 -7.495687007904052734e-01 5.273028016090393066e-01 -6.667977571487426758e-02 6.230956315994262695e-01
8.450000000000000000e+02 4.537740325927734375e+01 -9.005839347839355469e+00 -1.046457052230834961e+00 6.522823572158813477e-01 -1.182524114847183228e-01 7.833096981048583984e-01
8.460000000000000000e+02 4.477201080322265625e+01 -8.797612190246582031e+00 -1.259803771972656250e+00 5.184040069580078125e-01 -2.224199324846267700e-01 4.830709099769592285e-01
8.470000000000000000e+02 3.764643096923828125e+01 -1.005053329467773438e+01 5.979941487312316895e-01 3.921050727367401123e-01 2.970297634601593018e-01 -1.249616980552673340e+00
8.480000000000000000e+02 3.861629867553710938e+01 -8.670312881469726562e+00 -2.844833135604858398e-01 4.960305392742156982e-01 6.346417218446731567e-02 -9.323546886444091797e-01
8.490000000000000000e+02 3.604050445556640625e+01 -9.321571350097656250e+00 7.044745087623596191e-01 5.447350740432739258e-01 3.747628629207611084e-01 -9.104960560798645020e-01
8.500000000000000000e+02 3.647686386108398438e+01 -1.485367107391357422e+01 6.793127655982971191e-01 -1.554445177316665649e-01 1.571604758501052856e-01 -9.089103341102600098e-01
8.510000000000000000e+02 5.336967849731445312e+01 -1.463396930694580078e+01 1.862332224845886230e+00 2.248009890317916870e-01 6.261399388313293457e-01 7.287091016769409180e-01
8.520000000000000000e+02 7.282720184326171875e+01 -7.344079017639160156e+00 -3.318563103675842285e-01 -5.570678412914276123e-02 -1.162689253687858582e-01 -7.264832854270935059e-01
8.530000000000000000e+02 7.566766357421875000e+01 -5.818830490112304688e+00 -1.037636324763298035e-01 -4.956205189228057861e-01 -1.798152476549148560e-01 -6.245113015174865723e-01
8.540000000000000000e+02 6.790946960449218750e+01 -8.954607009887695312e+00 -8.132055997848510742e-01 2.553611397743225098e-01 -1.673533469438552856e-01 -6.349400281906127930e-01
8.550000000000000000e+02 5.952359008789062500e+01 -9.719711303710937500e+00 -9.700123071670532227e-01 8.697499036788940430e-01 -3.007872030138969421e-02 7.494253516197204590e-01
8.560000000000000000e+02 4.807080841064453125e+01 -8.438409805297851562e+00 -1.440017938613891602e+00 1.819373667240142822e-02 -4.265472590923309326e-01 1.719584584236145020e+00
8.570000000000000000e+02 4.031443786621093750e+01 -5.955397605895996094e+00 -2.386803865432739258e+00 3.151878416538238525e-01 -6.214847564697265625e-01 -1.961321085691452026e-01
8.580000000000000000e+02 4.037378692626953125e+01 -6.801868438720703125e+00 -1.841412782669067383e+00 3.495676517486572266e-01 -4.475535452365875244e-01 -3.708789348602294922e-01
8.590000000000000000e+02 3.669525146484375000e+01 -8.413524627685546875e+00 6.981104612350463867e-02 5.326131582260131836e-01 1.807272732257843018e-01 -7.440806031227111816e-01
8.600000000000000000e+02 7.148386383056640625e+01 -2.381608247756958008e+00 -5.290326103568077087e-02 7.836420834064483643e-02 7.638283073902130127e-03 -9.137301445007324219e-01
8.610000000000000000e+02 7.579877471923828125e+01 -3.216635227203369141e+00 -3.039320185780525208e-02 -7.708771824836730957e-01 -2.403811067342758179e-01 -7.017205953598022461e-01
8.620000000000000000e+02 6.567846679687500000e+01 -7.387597560882568359e+00 -6.545629501342773438e-01 2.731374800205230713e-01 -1.144276335835456848e-01 -4.853674769401550293e-01
8.630000000000000000e+02 5.662488174438476562e+01 -2.688709735870361328e+00 7.420567274093627930e-01 2.338373661041259766e+00 9.241291284561157227e-01 1.352664113044738770e+00
8.640000000000000000e+02 5.793715667724609375e+01 -3.589740753173828125e+00 2.311853021383285522e-01 2.108132600784301758e+00 7.017953395843505859e-01 1.045538067817687988e+00
8.650000000000000000e+02 4.761844635009765625e+01 -6.381743431091308594e+00 -3.799194574356079102e+00 -4.840109050273895264e-01 -1.284961581230163574e+00 1.297802805900573730e+00
8.660000000000000000e+02 4.096163940429687500e+01 -2.230798959732055664e+00 -2.767527103424072266e+00 -1.324806332588195801e+00 -1.227699995040893555e+00 1.644469618797302246e+00
8.670000000000000000e+02 3.715737152099609375e+01 -1.464775681495666504e+00 -2.124866008758544922e+00 4.850332438945770264e-01 -4.919497966766357422e-01 5.252016782760620117e-01
8.680000000000000000e+02 2.278002548217773438e+01 -8.187735557556152344e+00 -6.316351890563964844e-01 -2.214733213186264038e-01 -2.559325695037841797e-01 -6.238490939140319824e-01
8.690000000000000000e+02 2.036514472961425781e+01 -6.618372440338134766e+00 -5.565061569213867188e-01 -3.059990108013153076e-01 -2.587515413761138916e-01 -6.636663079261779785e-01
8.700000000000000000e+02 1.965761375427246094e+01 -1.359882116317749023e+00 -1.753432005643844604e-01 -4.772280901670455933e-02 -6.691980361938476562e-02 -2.277184426784515381e-01
8.710000000000000000e+02 3.827445745468139648e+00 -6.663777351379394531e+00 -5.220091342926025391e-02 4.520806670188903809e-02 -2.097853925079107285e-03 6.048995256423950195e-02
8.720000000000000000e+02 6.915821075439453125e+00 -7.764297485351562500e+00 -2.044178396463394165e-01 -3.617052361369132996e-02 -7.217650860548019409e-02 4.851558711379766464e-03
8.730000000000000000e+02 1.832737088203430176e+00 -7.950695037841796875e+00 -2.272383123636245728e-02 1.330542415380477905e-01 3.309912607073783875e-02 2.542476728558540344e-02
8.740000000000000000e+02 4.240094184875488281e+00 -4.940896511077880859e+00 -1.414734404534101486e-02 3.222011029720306396e-02 5.421830341219902039e-03 9.340644627809524536e-02
8.750000000000000000e+02 5.158302783966064453e+00 -1.107948112487792969e+01 -1.898175925016403198e-01 -5.391239747405052185e-02 -7.311899960041046143e-02 -1.628386527299880981e-01
8.760000000000000000e+02 7.624296188354492188e+00 -1.172396278381347656e+01 -3.887709379196166992e-01 -1.146522760391235352e-01 -1.510269641876220703e-01 -2.697634994983673096e-01
8.770000000000000000e+02 1.146343231201171875e+01 -6.242877006530761719e+00 -2.626304924488067627e-01 -1.672383397817611694e-01 -1.289606541395187378e-01 -2.899765037000179291e-02
8.780000000000000000e+02 1.543122673034667969e+01 -8.487867355346679688e+00 -6.137710809707641602e-01 -5.393880009651184082e-01 -3.459477424621582031e-01 -3.321591317653656006e-01
8.790000000000000000e+02 7.029285430908203125e+01 4.418700039386749268e-01 1.505920588970184326e-01 5.138633847236633301e-01 1.993366330862045288e-01 -8.345637321472167969e-01
8.800000000000000000e+02 7.577111816406250000e+01 -1.904790759086608887e+00 -1.481256261467933655e-02 -9.023802280426025391e-01 -2.751578390598297119e-01 -7.125565409660339355e-01
8.810000000000000000e+02 6.742648315429687500e+01 -3.599782943725585938e+00 -1.360286325216293335e-01 7.622377872467041016e-01 1.878627389669418335e-01 -6.518108248710632324e-01
8.820000000000000000e+02 6.337631988525390625e+01 -1.939651131629943848e+00 1.538429260253906250e-01 1.826631546020507812e+00 5.941423177719116211e-01 1.424358189105987549e-01
8.830000000000000000e+02 6.053177642822265625e+01 -1.941086173057556152e+00 4.108592271804809570e-01 2.128428697586059570e+00 7.617864012718200684e-01 8.008574843406677246e-01
8.840000000000000000e+02 7.819468688964843750e+01 -3.121744155883789062e+00 -7.058998104184865952e-03 -1.242311596870422363e+00 -3.748111724853515625e-01 -3.672975599765777588e-01
8.850000000000000000e+02 7.547844696044921875e+01 2.215121746063232422e+00 7.919544726610183716e-02 -1.205962300300598145e+00 -3.380300700664520264e-01 -6.864899396896362305e-01
8.860000000000000000e+02 6.666271972656250000e+01 -3.121633231639862061e-01 1.869813948869705200e-01 1.385234951972961426e+00 4.716649055480957031e-01 -4.634840190410614014e-01
8.870000000000000000e+02 6.005172729492187500e+01 -6.164066120982170105e-02 7.713779807090759277e-01 2.608266592025756836e+00 1.013893365859985352e+00 1.223292589187622070e+00
8.880000000000000000e+02 7.938964843750000000e+01 -2.873849868774414062e-01 3.705761861056089401e-03 -2.101238489151000977e+00 -6.292598247528076172e-01 -1.277914196252822876e-01
8.890000000000000000e+02 7.547993469238281250e+01 5.125906944274902344e+00 1.311235427856445312e-01 -1.430620074272155762e+00 -3.898489773273468018e-01 -5.756942033767700195e-01
8.900000000000000000e+02 6.915575408935546875e+01 4.158390045166015625e+00 4.669284820556640625e-01 1.203303217887878418e+00 5.010694861412048340e-01 -5.615444183349609375e-01
8.910000000000000000e+02 6.374764251708984375e+01 4.292089939117431641e+00 8.363041877746582031e-01 3.506505012512207031e+00 1.302842736244201660e+00 4.850590825080871582e-01
8.920000000000000000e+02 5.960449218750000000e+01 3.846697330474853516e+00 1.519252300262451172e+00 3.704477787017822266e+00 1.567119002342224121e+00 2.330645322799682617e+00
8.930000000000000000e+02 7.810143280029296875e+01 3.849213361740112305e+00 2.030312083661556244e-02 -2.418661594390869141e+00 -7.195075750350952148e-01 -3.338675796985626221e-01
8.940000000000000000e+02 7.531447601318359375e+01 1.079247379302978516e+01 2.159124761819839478e-01 -1.586165904998779297e+00 -4.110760390758514404e-01 -2.448580563068389893e-01
8.950000000000000000e+02 6.757058715820312500e+01 8.565866470336914062e+00 6.797171235084533691e-01 2.453101634979248047e+00 9.398456811904907227e-01 -1.458495110273361206e-01
8.960000000000000000e+02 6.432580566406250000e+01 7.111819267272949219e+00 7.831759452819824219e-01 4.102331161499023438e+00 1.465652227401733398e+00 3.931131064891815186e-01
8.970000000000000000e+02 7.936293792724609375e+01 6.721761703491210938e+00 1.160760875791311264e-02 -3.488672018051147461e+00 -1.043119311332702637e+00 -8.542519062757492065e-02
8.980000000000000000e+02 7.017783355712890625e+01 1.562871456146240234e+01 7.677629590034484863e-01 1.118520855903625488e+00 5.658851265907287598e-01 1.215460151433944702e-01
8.990000000000000000e+02 7.537841033935546875e+01 1.224598407745361328e+01 2.397219687700271606e-01 -1.675605535507202148e+00 -4.307650625705718994e-01 -1.176220178604125977e-01
9.000000000000000000e+02 6.720207214355468750e+01 1.180860042572021484e+01 7.709440588951110840e-01 3.035882472991943359e+00 1.142048001289367676e+00 -6.012296676635742188e-02
9.010000000000000000e+02 6.445180511474609375e+01 1.133333778381347656e+01 6.698561906814575195e-01 5.082839012145996094e+00 1.725808501243591309e+00 2.896215617656707764e-01
9.020000000000000000e+02 7.251361846923828125e+01 1.839349365234375000e+01 4.311390519142150879e-01 -1.930605620145797729e-01 7.142354547977447510e-02 4.630603194236755371e-01
9.030000000000000000e+02 7.552164459228515625e+01 1.626996803283691406e+01 2.016391754150390625e-01 -1.717279314994812012e+00 -4.546920359134674072e-01 2.208567261695861816e-01
9.040000000000000000e+02 6.719365692138671875e+01 1.621489906311035156e+01 1.008336305618286133e+00 2.863232612609863281e+00 1.161470651626586914e+00 3.758487105369567871e-02
9.050000000000000000e+02 7.809842681884765625e+01 1.368386554718017578e+01 5.531221628189086914e-02 -3.243191480636596680e+00 -9.563637971878051758e-01 1.618779636919498444e-02
9.060000000000000000e+02 7.051729583740234375e+01 2.058480834960937500e+01 4.352718889713287354e-01 6.969731450080871582e-01 3.396734893321990967e-01 6.502391695976257324e-01
9.070000000000000000e+02 7.300212097167968750e+01 2.248712921142578125e+01 1.760808527469635010e-01 -3.516128957271575928e-01 -5.265961214900016785e-02 7.397618889808654785e-01
9.080000000000000000e+02 6.407787322998046875e+01 1.684552001953125000e+01 1.101817011833190918e+00 5.679235935211181641e+00 2.034315824508666992e+00 -7.637752890586853027e-01
9.090000000000000000e+02 7.237564849853515625e+01 2.372229957580566406e+01 8.136116713285446167e-02 -8.918092586100101471e-03 2.173292264342308044e-02 7.919566035270690918e-01
9.100000000000000000e+02 7.427459716796875000e+01 2.494190979003906250e+01 5.905103171244263649e-05 -7.273534536361694336e-01 -2.181883156299591064e-01 7.200976014137268066e-01
9.110000000000000000e+02 6.826063537597656250e+01 2.051336669921875000e+01 7.014919519424438477e-01 1.839994430541992188e+00 7.624458670616149902e-01 5.408211946487426758e-01
9.120000000000000000e+02 6.424390411376953125e+01 2.404568862915039062e+01 8.718851208686828613e-02 2.942721843719482422e+00 9.089730978012084961e-01 4.386506974697113037e-02
9.130000000000000000e+02 5.001155853271484375e+01 2.175564193725585938e+01 -4.200686514377593994e-02 -4.483773931860923767e-02 -2.605338208377361298e-02 -6.649155169725418091e-02
9.140000000000000000e+02 8.356734275817871094e+00 2.093070602416992188e+01 -3.396677086129784584e-03 -1.014024834148585796e-03 -1.323210541158914566e-03 1.209309790283441544e-03
9.150000000000000000e+02 4.625884056091308594e+00 2.239514350891113281e+01 -1.392771722748875618e-03 -1.297559472732245922e-03 -8.070993353612720966e-04 1.563863013871014118e-03
9.160000000000000000e+02 3.910665273666381836e+00 1.760060501098632812e+01 8.788400737103074789e-05 -1.358259614789858460e-04 -1.438258550479076803e-05 -3.895216214004904032e-04
9.170000000000000000e+02 7.094888210296630859e+00 1.741520690917968750e+01 -8.287403034046292305e-04 -1.113212085328996181e-03 -5.825856933370232582e-04 6.687021232210099697e-05
9.180000000000000000e+02 6.063072681427001953e-01 2.054390335083007812e+01 -4.398527380544692278e-04 2.000323263928294182e-03 4.681411664932966232e-04 3.691173333209007978e-05
9.190000000000000000e+02 7.154180908203125000e+01 2.694618415832519531e+01 -1.294400244951248169e-01 3.827842175960540771e-01 7.600326091051101685e-02 7.872757315635681152e-01
9.200000000000000000e+02 7.343157958984375000e+01 2.606588554382324219e+01 -4.506568983197212219e-02 -3.563512265682220459e-01 -1.204250752925872803e-01 7.723658680915832520e-01
9.210000000000000000e+02 5.914586257934570312e+01 2.566937255859375000e+01 2.120216190814971924e-01 1.901624321937561035e+00 6.340937614440917969e-01 -1.047800540924072266e+00
9.220000000000000000e+02 5.723718643188476562e+01 2.571364212036132812e+01 4.212248325347900391e-01 1.154868245124816895e+00 4.728279113769531250e-01 -1.029640316963195801e+00
9.230000000000000000e+02 5.414777755737304688e+01 2.339818572998046875e+01 4.611464440822601318e-01 8.425323665142059326e-02 1.636199057102203369e-01 -3.577778935432434082e-01
9.240000000000000000e+02 4.516897201538085938e+01 2.452683067321777344e+01 4.646233841776847839e-02 7.037770003080368042e-02 3.505201265215873718e-02 -3.354670479893684387e-02
9.250000000000000000e+02 4.351795578002929688e+01 2.467580604553222656e+01 2.151156403124332428e-02 6.631834059953689575e-02 2.634897269308567047e-02 -1.719736680388450623e-02
9.260000000000000000e+02 3.163741111755371094e+01 2.332933425903320312e+01 -6.909277290105819702e-02 -1.872760988771915436e-02 -2.634611539542675018e-02 2.570238709449768066e-02
9.270000000000000000e+02 2.886044311523437500e+01 2.312941360473632812e+01 -8.515556156635284424e-02 -5.234717577695846558e-02 -4.125082120299339294e-02 4.437547922134399414e-02
9.280000000000000000e+02 1.910945510864257812e+01 2.183085250854492188e+01 -5.181328207254409790e-02 -2.523402217775583267e-03 -1.630100607872009277e-02 -6.918067112565040588e-03
9.290000000000000000e+02 1.551815128326416016e+01 2.228075790405273438e+01 -2.378551661968231201e-02 2.725064055994153023e-03 -6.318135652691125870e-03 3.118630265817046165e-03
9.300000000000000000e+02 1.369181823730468750e+01 2.332032203674316406e+01 -1.814509741961956024e-02 1.586499623954296112e-03 -4.967579152435064316e-03 6.703205406665802002e-03
9.310000000000000000e+02 6.994361877441406250e+00 2.636425018310546875e+01 -3.905535908415913582e-03 -4.028768278658390045e-03 -2.380291232839226723e-03 6.960608065128326416e-03
9.320000000000000000e+02 4.059634208679199219e+00 2.412768936157226562e+01 -1.326360623352229595e-03 -1.950379228219389915e-03 -9.830219205468893051e-04 2.304385881870985031e-03
9.330000000000000000e+02 6.831573843955993652e-01 2.337767028808593750e+01 -4.696087853517383337e-04 1.252386486157774925e-03 2.348333218833431602e-04 3.445223555900156498e-04
9.340000000000000000e+02 7.799586486816406250e+01 2.337745857238769531e+01 7.167301606386899948e-03 -2.368580102920532227e+00 -7.084238529205322266e-01 3.472558259963989258e-01
9.350000000000000000e+02 7.159891510009765625e+01 3.146754455566406250e+01 -3.081589043140411377e-01 2.541901767253875732e-01 -1.619061827659606934e-02 5.810285806655883789e-01
9.360000000000000000e+02 7.478587341308593750e+01 3.225704574584960938e+01 -1.451449543237686157e-01 -4.488502144813537598e-01 -1.781985610723495483e-01 5.143809914588928223e-01
9.370000000000000000e+02 6.728919982910156250e+01 2.986935997009277344e+01 -4.626592099666595459e-01 1.307516098022460938e+00 2.534570693969726562e-01 4.319978058338165283e-01
9.380000000000000000e+02 6.436196899414062500e+01 2.905560302734375000e+01 -4.641662538051605225e-01 1.805671215057373047e+00 4.024515151977539062e-01 8.267702162265777588e-02
9.390000000000000000e+02 5.895239639282226562e+01 2.770474052429199219e+01 -8.187725394964218140e-02 1.586086630821228027e+00 4.512628018856048584e-01 -7.750610709190368652e-01
9.400000000000000000e+02 5.053841781616210938e+01 2.571543693542480469e+01 2.756945788860321045e-01 1.390277445316314697e-01 1.244167014956474304e-01 -2.724139988422393799e-01
9.410000000000000000e+02 4.600501251220703125e+01 2.874520301818847656e+01 1.119090914726257324e-01 1.822777688503265381e-01 8.825606107711791992e-02 -1.421551257371902466e-01
9.420000000000000000e+02 4.345870971679687500e+01 2.677536201477050781e+01 6.318236142396926880e-02 1.042509526014328003e-01 5.022999271750450134e-02 -5.264515057206153870e-02
9.430000000000000000e+02 3.340684127807617188e+01 2.827754211425781250e+01 6.805230397731065750e-03 2.070918492972850800e-02 8.254325017333030701e-03 1.101197116076946259e-02
9.440000000000000000e+02 2.985248947143554688e+01 2.751022529602050781e+01 -1.099557802081108093e-02 -2.430158108472824097e-02 -1.058914791792631149e-02 2.416326664388179779e-02
9.450000000000000000e+02 2.530646896362304688e+01 2.791796302795410156e+01 -1.834168471395969391e-02 -3.290440514683723450e-02 -1.537382695823907852e-02 3.943128511309623718e-02
9.460000000000000000e+02 2.172494125366210938e+01 2.685907554626464844e+01 -3.186308220028877258e-02 -2.339633740484714508e-02 -1.657782681286334991e-02 3.994242101907730103e-02
9.470000000000000000e+02 1.939506721496582031e+01 2.607886505126953125e+01 -3.641613200306892395e-02 -1.179526839405298233e-02 -1.446342002600431442e-02 3.183184191584587097e-02
9.480000000000000000e+02 1.035241889953613281e+01 2.701087188720703125e+01 -8.187371306121349335e-03 -3.989252261817455292e-03 -3.652987070381641388e-03 1.137593761086463928e-02
9.490000000000000000e+02 4.418571949005126953e+00 2.781779670715332031e+01 -1.568895298987627029e-03 -5.504426080733537674e-03 -2.121996367350220680e-03 5.523127503693103790e-03
9.500000000000000000e+02 6.289913058280944824e-01 2.763638877868652344e+01 4.190647159703075886e-04 -2.732878085225820541e-03 -6.941440515220165253e-04 8.819521171972155571e-04
9.510000000000000000e+02 7.790709686279296875e+01 2.617081832885742188e+01 -1.038588955998420715e-02 -1.907227754592895508e+00 -5.752840638160705566e-01 3.747186064720153809e-01
9.520000000000000000e+02 7.310013580322265625e+01 3.323079681396484375e+01 -2.408688366413116455e-01 -6.365878880023956299e-02 -9.135828912258148193e-02 4.836896955966949463e-01
9.530000000000000000e+02 6.659810638427734375e+01 3.214479064941406250e+01 -5.253137350082397461e-01 1.220175266265869141e+00 2.084584683179855347e-01 2.834192216396331787e-01
9.540000000000000000e+02 6.125966262817382812e+01 3.109491539001464844e+01 -4.792913198471069336e-01 1.669029474258422852e+00 3.569214344024658203e-01 -2.725865840911865234e-01
9.550000000000000000e+02 5.773675537109375000e+01 3.153553962707519531e+01 -2.518416941165924072e-01 1.226422667503356934e+00 2.923742830753326416e-01 -5.160911679267883301e-01
9.560000000000000000e+02 3.544083786010742188e+01 3.080664443969726562e+01 3.666326776146888733e-02 5.076524615287780762e-02 2.622855454683303833e-02 -3.574171569198369980e-03
9.570000000000000000e+02 3.130641365051269531e+01 3.186595535278320312e+01 3.409563750028610229e-02 1.187035441398620605e-02 1.378979813307523727e-02 1.015171967446804047e-02
9.580000000000000000e+02 2.852027893066406250e+01 3.195779037475585938e+01 3.175092115998268127e-02 -1.288998033851385117e-02 5.658282432705163956e-03 2.216134406626224518e-02
9.590000000000000000e+02 2.235050582885742188e+01 2.988200187683105469e+01 5.287165986374020576e-04 -2.792270667850971222e-02 -8.218197152018547058e-03 3.558994457125663757e-02
9.600000000000000000e+02 1.819092369079589844e+01 3.304808044433593750e+01 1.354515179991722107e-02 -2.344962954521179199e-02 -2.971343463286757469e-03 2.638452127575874329e-02
9.610000000000000000e+02 1.448940181732177734e+01 3.168401908874511719e+01 7.365651254076510668e-05 -1.549317780882120132e-02 -4.625856410712003708e-03 2.292133867740631104e-02
9.620000000000000000e+02 1.106218338012695312e+01 3.287905120849609375e+01 1.347920740954577923e-03 -1.388430874794721603e-02 -3.760916413739323616e-03 1.602450385689735413e-02
9.630000000000000000e+02 9.295318603515625000e+00 3.288214874267578125e+01 1.731238793581724167e-03 -1.314181275665760040e-02 -3.423172049224376678e-03 1.409679651260375977e-02
9.640000000000000000e+02 5.130863189697265625e+00 3.099665451049804688e+01 -5.478047532960772514e-04 -9.408098645508289337e-03 -2.986771054565906525e-03 7.664080709218978882e-03
9.650000000000000000e+02 6.477299928665161133e-01 3.045462226867675781e+01 3.769891336560249329e-04 -7.338082417845726013e-03 -2.088327892124652863e-03 1.175999874249100685e-03
9.660000000000000000e+02 7.768537902832031250e+01 3.033200454711914062e+01 -2.730599232017993927e-02 -1.300865292549133301e+00 -3.984513878822326660e-01 3.427498340606689453e-01
9.670000000000000000e+02 7.044401550292968750e+01 3.808445739746093750e+01 -3.842081129550933838e-01 3.612654209136962891e-01 -6.882804445922374725e-03 2.291368693113327026e-01
9.680000000000000000e+02 5.312223815917968750e+01 3.379007720947265625e+01 -1.240475475788116455e-01 7.911641001701354980e-01 2.001349776983261108e-01 -3.724299967288970947e-01
9.690000000000000000e+02 1.122321414947509766e+01 3.510266494750976562e+01 7.118716370314359665e-03 -1.768736355006694794e-02 -3.170594107359647751e-03 1.458984054625034332e-02
9.700000000000000000e+02 6.886445045471191406e+00 3.439045715332031250e+01 2.229309873655438423e-03 -1.408655848354101181e-02 -3.557174699380993843e-03 1.002544257789850235e-02
9.710000000000000000e+02 6.331021785736083984e+00 3.180865478515625000e+01 -1.501641090726479888e-04 -1.076778490096330643e-02 -3.275384660810232162e-03 9.750029072165489197e-03
9.720000000000000000e+02 8.282697796821594238e-01 3.474869155883789062e+01 -9.674752800492569804e-05 -1.535212621092796326e-02 -4.634662065654993057e-03 1.209201407618820667e-03
9.730000000000000000e+02 7.590400695800781250e+01 3.379842758178710938e+01 -9.519280493259429932e-02 -6.297646164894104004e-01 -2.174872308969497681e-01 3.560498356819152832e-01
9.740000000000000000e+02 6.576089859008789062e-01 3.753645706176757812e+01 -8.762245124671608210e-05 -1.889111287891864777e-02 -5.693620536476373672e-03 7.171250181272625923e-04
9.750000000000000000e+02 3.188010215759277344e+00 1.345417404174804688e+01 3.652423620223999023e-04 1.296680711675435305e-04 1.484731328673660755e-04 -4.272846272215247154e-04
9.760000000000000000e+02 6.824133396148681641e+00 1.388720130920410156e+01 4.663705476559698582e-04 -6.545839714817702770e-04 -5.646402860293164849e-05 -2.188835496781393886e-04
9.770000000000000000e+02 5.938675999641418457e-01 1.632487487792968750e+01 3.007469640579074621e-04 1.369033008813858032e-03 5.009339656680822372e-04 -1.684724265942350030e-04
9.780000000000000000e+02 4.112973213195800781e+00 1.023432159423828125e+01 4.383418126963078976e-05 -7.564801489934325218e-05 -9.544150088913738728e-06 -1.180140025098808110e-04
9.790000000000000000e+02 7.387887954711914062e+00 1.023970985412597656e+01 1.528798020444810390e-04 -3.048189391847699881e-04 -4.558174259727820754e-05 5.171105294721201062e-05
9.800000000000000000e+02 6.288121342658996582e-01 1.349323463439941406e+01 2.318101760465651751e-04 7.662377902306616306e-04 2.994143869727849960e-04 -1.380655739922076464e-04
9.810000000000000000e+02 3.770985126495361328e+00 5.756165504455566406e+00 -4.929325223201885819e-05 -1.624212563910987228e-05 -1.966061427083332092e-05 -2.834284259733976796e-06
9.820000000000000000e+02 8.769781112670898438e+00 6.245503425598144531e+00 9.176784078590571880e-05 -1.184372522402554750e-04 -8.000823072507046163e-06 9.206640970660373569e-05
9.830000000000000000e+02 1.210191822052001953e+01 6.587659835815429688e+00 1.041150153469061479e-05 9.879118806566111743e-06 6.087185738579137251e-06 3.149343319819308817e-05
9.840000000000000000e+02 5.679627060890197754e-01 9.263107299804687500e+00 -1.561450189910829067e-04 2.198424044763669372e-04 1.910921309900004417e-05 -3.624421151471324265e-05
9.850000000000000000e+02 5.789768695831298828e+00 1.843960404396057129e+00 1.460622297599911690e-05 -2.372142625972628593e-05 -2.734561121542355977e-06 1.194689866679254919e-05
9.860000000000000000e+02 8.072124481201171875e+00 2.521129846572875977e+00 2.003191730182152241e-05 -4.205726509098894894e-05 -6.607604063901817426e-06 2.893339296861086041e-05
9.870000000000000000e+02 5.405163168907165527e-01 6.483279705047607422e+00 -1.175176221295259893e-04 7.486252434318885207e-05 -1.279652860830537975e-05 -9.163722097582649440e-06
9.880000000000000000e+02 1.890680694580078125e+01 3.387832403182983398e+00 -3.219797122255840804e-07 -3.626024408731609583e-05 -1.097466702049132437e-05 -1.890123712655622512e-06
9.890000000000000000e+02 3.761420822143554688e+01 1.716250991821289062e+01 -6.823690980672836304e-02 2.676086314022541046e-02 -1.244281325489282608e-02 2.291819639503955841e-02
9.900000000000000000e+02 3.771029663085937500e+01 1.323275852203369141e+01 -3.320704400539398193e-02 6.224471610039472580e-03 -8.094770833849906921e-03 4.457336850464344025e-03
9.910000000000000000e+02 4.120082092285156250e+01 1.162688350677490234e+01 -1.145775616168975830e-02 -3.474273020401597023e-03 -4.479608498513698578e-03 -3.484299173578619957e-03
9.920000000000000000e+02 3.853805160522460938e+01 1.286494731903076172e+01 -2.853427082300186157e-02 8.991811424493789673e-03 -5.862738005816936493e-03 -8.565850439481437206e-04
9.930000000000000000e+02 3.839513397216796875e+01 1.079016590118408203e+01 -1.137159857898950577e-02 -1.253979164175689220e-03 -3.787673311308026314e-03 -1.049370039254426956e-03
9.940000000000000000e+02 3.445176696777343750e+01 6.313222885131835938e+00 -7.562007522210478783e-04 -3.704170812852680683e-04 -3.379853442311286926e-04 1.803873165044933558e-04
9.950000000000000000e+02 3.812195205688476562e+01 7.241191864013671875e+00 2.946689259260892868e-03 4.608461167663335800e-04 1.022260636091232300e-03 6.411861395463347435e-04
9.960000000000000000e+02 3.727657699584960938e+01 2.740177869796752930e+00 4.831091064261272550e-05 -3.908752987626940012e-04 -1.027693215291947126e-04 9.978446178138256073e-05
9.970000000000000000e+02 3.345972824096679688e+01 7.334027767181396484e+00 1.089890603907406330e-03 1.593167893588542938e-03 8.049175376072525978e-04 -4.881864588242024183e-04
9.980000000000000000e+02 2.135086631774902344e+01 -1.677695751190185547e+00 -4.126027226448059082e-01 -1.968783559277653694e-03 -1.243714466691017151e-01 -2.938987016677856445e-01
9.990000000000000000e+02 2.119942855834960938e+01 -1.048160076141357422e+00 -3.274070918560028076e-01 -7.253679446876049042e-03 -1.003982350230216980e-01 -2.129588872194290161e-01
1.000000000000000000e+03 1.888337516784667969e+01 -1.476992726325988770e+00 -1.010175794363021851e-01 -5.735561624169349670e-02 -4.751196131110191345e-02 -2.160939127206802368e-01
1.001000000000000000e+03 1.515988254547119141e+01 -2.490167140960693359e+00 4.975075647234916687e-02 -7.763490080833435059e-02 -8.365242742002010345e-03 -1.191972196102142334e-01
1.002000000000000000e+03 1.811121940612792969e+01 -1.561352372169494629e+00 -3.626242652535438538e-02 -5.763891711831092834e-02 -2.817040309309959412e-02 -1.967870146036148071e-01
1.003000000000000000e+03 4.125900268554687500e+00 -1.027295970916748047e+01 -1.264923363924026489e-01 5.197596037760376930e-04 -3.779176995158195496e-02 -8.519632369279861450e-02
1.004000000000000000e+03 4.585120677947998047e+00 -1.188592529296875000e+01 -1.685916036367416382e-01 -6.308938562870025635e-02 -6.950429826974868774e-02 -1.884873211383819580e-01
1.005000000000000000e+03 1.034998703002929688e+01 -1.475188636779785156e+01 -5.652564764022827148e-01 -2.691849768161773682e-01 -2.503324449062347412e-01 -6.171813011169433594e-01
1.006000000000000000e+03 1.297741413116455078e+01 -1.280261516571044922e+01 -8.935158252716064453e-01 -5.276621580123901367e-01 -4.263533651828765869e-01 -4.833146333694458008e-01
1.007000000000000000e+03 1.684310722351074219e+01 -1.242359638214111328e+01 -1.781859993934631348e+00 -1.161446809768676758e+00 -8.829920291900634766e-01 -1.189791798591613770e+00
1.008000000000000000e+03 1.888527274131774902e+00 -1.373585224151611328e+01 -2.999659441411495209e-02 -5.119536444544792175e-02 -2.435758709907531738e-02 -1.474085897207260132e-01
1.009000000000000000e+03 3.221387386322021484e+00 -1.262278461456298828e+01 -8.672536164522171021e-02 -5.099659413099288940e-02 -4.131658375263214111e-02 -1.803140342235565186e-01
1.010000000000000000e+03 4.278150558471679688e+00 -1.795971679687500000e+01 -4.057216644287109375e-02 -4.152265489101409912e-01 -1.367396116256713867e-01 -4.519321024417877197e-01
1.011000000000000000e+03 1.331621170043945312e+01 -1.444851398468017578e+01 -8.566771149635314941e-01 -6.836677789688110352e-01 -4.621034860610961914e-01 -6.643708944320678711e-01
1.012000000000000000e+03 1.533400249481201172e+01 -1.391457843780517578e+01 -1.099980711936950684e+00 -1.476711392402648926e+00 -7.730076313018798828e-01 -1.076404929161071777e+00
1.013000000000000000e+03 3.090388059616088867e+00 -1.655232620239257812e+01 -4.496426135301589966e-02 -3.089084029197692871e-01 -1.061617955565452576e-01 -3.285054564476013184e-01
1.014000000000000000e+03 4.237670898437500000e+00 -1.926016426086425781e+01 -5.126541014760732651e-03 -5.172227621078491211e-01 -1.567047983407974243e-01 -4.608763754367828369e-01
1.015000000000000000e+03 9.446796417236328125e+00 -2.295042610168457031e+01 3.326299786567687988e-01 -4.507331848144531250e-01 -3.543096035718917847e-02 -5.544258952140808105e-01
1.016000000000000000e+03 1.270814895629882812e+01 -1.659924316406250000e+01 -4.187589287757873535e-01 -5.396740436553955078e-01 -2.875298857688903809e-01 -7.216239571571350098e-01
1.017000000000000000e+03 1.425620460510253906e+01 -1.656705856323242188e+01 -2.894834578037261963e-01 -1.056121945381164551e+00 -4.036816060543060303e-01 -4.797591567039489746e-01
1.018000000000000000e+03 4.234952926635742188e+00 -2.059370803833007812e+01 3.887614235281944275e-02 -6.179788112640380859e-01 -1.737308055162429810e-01 -4.562135636806488037e-01
1.019000000000000000e+03 6.460494041442871094e+00 -2.385058021545410156e+01 1.861185133457183838e-01 -6.715837717056274414e-01 -1.456395834684371948e-01 -4.608569145202636719e-01
1.020000000000000000e+03 9.686272621154785156e+00 -2.619952392578125000e+01 3.568660914897918701e-01 -4.104790091514587402e-01 -1.608388125896453857e-02 -3.839546442031860352e-01
1.021000000000000000e+03 1.109257793426513672e+01 -2.066571807861328125e+01 2.814156711101531982e-01 -3.166435062885284424e-01 -1.056835427880287170e-02 -6.915134191513061523e-01
1.022000000000000000e+03 1.898663878440856934e+00 -2.338356208801269531e+01 2.267875149846076965e-02 -1.005297183990478516e+00 -2.947855591773986816e-01 -2.005453705787658691e-01
1.023000000000000000e+03 4.278445720672607422e+00 -2.194784736633300781e+01 6.835772097110748291e-02 -7.256853580474853516e-01 -1.971983015537261963e-01 -4.205315709114074707e-01
1.024000000000000000e+03 4.945168018341064453e+00 -2.720816040039062500e+01 1.113475263118743896e-01 -9.189119338989257812e-01 -2.422693222761154175e-01 -2.577872872352600098e-01
1.025000000000000000e+03 1.020066261291503906e+01 -2.938679313659667969e+01 2.831444442272186279e-01 -3.506062626838684082e-01 -2.023854292929172516e-02 -2.448651790618896484e-01
1.026000000000000000e+03 1.296338081359863281e+01 -2.360291099548339844e+01 5.446913838386535645e-01 4.642362892627716064e-02 1.773345023393630981e-01 -4.966669678688049316e-01
1.027000000000000000e+03 2.030042171478271484e+00 -2.890749359130859375e+01 2.292789332568645477e-02 -1.360993742942810059e+00 -4.014197587966918945e-01 -9.563427418470382690e-02
1.028000000000000000e+03 3.467981815338134766e+00 -2.877296257019042969e+01 5.680332332849502563e-02 -1.149163842201232910e+00 -3.277081549167633057e-01 -1.599144190549850464e-01
1.029000000000000000e+03 6.515022754669189453e+00 -3.102676391601562500e+01 1.485861688852310181e-01 -8.014912605285644531e-01 -1.958715319633483887e-01 -1.514168679714202881e-01
1.030000000000000000e+03 9.719043731689453125e+00 -3.328242492675781250e+01 1.589908301830291748e-01 -4.384882152080535889e-01 -8.384921401739120483e-02 -1.273074001073837280e-01
1.031000000000000000e+03 1.232117462158203125e+01 -3.013078117370605469e+01 3.395650088787078857e-01 -1.110004559159278870e-01 6.856936216354370117e-02 -2.256694287061691284e-01
1.032000000000000000e+03 1.560012149810791016e+01 -2.820658683776855469e+01 5.302724242210388184e-01 3.352087140083312988e-01 2.596443593502044678e-01 -3.841793537139892578e-01
1.033000000000000000e+03 2.048828125000000000e+00 -3.029810142517089844e+01 2.091445587575435638e-02 -1.413167953491210938e+00 -4.176760613918304443e-01 -7.336320728063583374e-02
1.034000000000000000e+03 4.957695484161376953e+00 -3.000355339050292969e+01 1.039970442652702332e-01 -9.901310801506042480e-01 -2.658402025699615479e-01 -1.672132015228271484e-01
1.035000000000000000e+03 5.275383949279785156e+00 -3.268180465698242188e+01 7.472043484449386597e-02 -9.958745837211608887e-01 -2.763462364673614502e-01 -9.549920260906219482e-02
1.036000000000000000e+03 2.043154716491699219e+01 -3.268516921997070312e+01 5.588787198066711426e-01 5.004085302352905273e-01 3.177861869335174561e-01 -2.672374248504638672e-01
1.037000000000000000e+03 6.438997650146484375e+01 -3.098462486267089844e+01 -5.063177272677421570e-02 1.196557469666004181e-02 -1.159985922276973724e-02 1.833959482610225677e-02
1.038000000000000000e+03 7.662941741943359375e+01 -3.138627624511718750e+01 -1.633970183320343494e-03 -6.566621363162994385e-03 -2.460177522152662277e-03 6.786974146962165833e-03
1.039000000000000000e+03 2.145286798477172852e+00 -3.573975372314453125e+01 1.545010320842266083e-02 -1.510815024375915527e+00 -4.486094713211059570e-01 1.656761020421981812e-02
1.040000000000000000e+03 3.690160274505615234e+00 -3.424807357788085938e+01 3.498532995581626892e-02 -1.252866983413696289e+00 -3.653644919395446777e-01 -4.468361288309097290e-02
1.041000000000000000e+03 5.324038982391357422e+00 -3.570696640014648438e+01 4.215613380074501038e-02 -1.023838639259338379e+00 -2.945047318935394287e-01 -6.227971613407135010e-02
1.042000000000000000e+03 9.319510459899902344e+00 -3.844891357421875000e+01 5.123761296272277832e-02 -5.319913625717163086e-01 -1.442261189222335815e-01 -3.912175819277763367e-02
1.043000000000000000e+03 2.009583091735839844e+01 -3.467292785644531250e+01 3.765898346900939941e-01 4.990009367465972900e-01 2.626772224903106689e-01 -1.661417484283447266e-01
1.044000000000000000e+03 2.548895645141601562e+01 -3.377491760253906250e+01 6.507299542427062988e-01 5.450983047485351562e-01 3.587484657764434814e-01 -3.376497328281402588e-02
1.045000000000000000e+03 4.778323364257812500e+01 -3.508921432495117188e+01 -7.626502960920333862e-02 8.732326030731201172e-01 2.390902787446975708e-01 -2.033396959304809570e-01
1.046000000000000000e+03 6.628704071044921875e+01 -3.594047927856445312e+01 1.150612439960241318e-02 -2.117204247042536736e-03 2.816676162183284760e-03 3.561938554048538208e-02
1.047000000000000000e+03 7.436647796630859375e+01 -3.396178817749023438e+01 -8.465870050713419914e-04 -8.498716168105602264e-03 -2.803590847179293633e-03 1.318396627902984619e-02
1.048000000000000000e+03 7.656948566436767578e-01 -3.736713027954101562e+01 1.667148433625698090e-02 -1.676203131675720215e+00 -4.978594779968261719e-01 2.148080058395862579e-02
1.049000000000000000e+03 3.646369934082031250e+00 -3.562452316284179688e+01 4.098005965352058411e-02 -1.313980937004089355e+00 -3.819002807140350342e-01 -4.227819293737411499e-02
1.050000000000000000e+03 6.318073654174804688e+01 -3.854067993164062500e+01 5.636612698435783386e-02 -1.766552450135350227e-03 1.637987233698368073e-02 3.096235357224941254e-02
1.051000000000000000e+03 6.669374847412109375e+01 -3.853679656982421875e+01 3.021008521318435669e-02 -1.590487360954284668e-02 4.291563294827938080e-03 2.372013404965400696e-02
1.052000000000000000e+03 7.553771209716796875e+01 -2.682798576354980469e+01 -2.372829709202051163e-03 -1.135441591031849384e-03 -1.052481355145573616e-03 2.955812029540538788e-03
1.053000000000000000e+03 7.177364349365234375e+01 -2.901575660705566406e+01 -1.036557089537382126e-02 2.691170433536171913e-03 -2.302320208400487900e-03 8.573487401008605957e-03
1.054000000000000000e+03 7.515014648437500000e+01 -2.555194854736328125e+01 -2.786442171782255173e-03 -1.189189613796770573e-03 -1.192689524032175541e-03 2.116043586283922195e-03
1.055000000000000000e+03 6.968838500976562500e+01 -2.516155624389648438e+01 -7.416577078402042389e-03 1.708277559373527765e-04 -2.173724817112088203e-03 -1.391443656757473946e-04
1.056000000000000000e+03 7.363509368896484375e+01 -2.097108650207519531e+01 -6.964307394810020924e-04 -4.812853003386408091e-04 -3.533147973939776421e-04 -9.605124796507880092e-05
1.057000000000000000e+03 3.417543792724609375e+01 -2.758480834960937500e+01 6.854981184005737305e-01 9.923171997070312500e-01 5.033445954322814941e-01 7.289116382598876953e-01
1.058000000000000000e+03 3.427782821655273438e+01 -2.531908988952636719e+01 7.044256329536437988e-01 1.033118844032287598e+00 5.212633609771728516e-01 8.060649037361145020e-01
1.059000000000000000e+03 3.331198120117187500e+01 -2.621834564208984375e+01 7.471213340759277344e-01 9.432168602943420410e-01 5.071014761924743652e-01 8.091166615486145020e-01
1.060000000000000000e+03 3.875796127319335938e+01 -2.164802742004394531e+01 4.400694668292999268e-01 1.499764680862426758e+00 5.819502472877502441e-01 1.159285545349121094e+00
1.061000000000000000e+03 4.731157684326171875e+01 -1.630237197875976562e+01 3.765321016311645508e+00 -1.901676356792449951e-01 1.072546005249023438e+00 1.323398709297180176e+00
1.062000000000000000e+03 4.745100784301757812e+01 -1.641134262084960938e+01 2.904713630676269531e+00 -1.141429319977760315e-01 8.371711969375610352e-01 1.035208344459533691e+00
1.063000000000000000e+03 4.690535354614257812e+01 -1.596410465240478516e+01 5.027493953704833984e+00 -2.836771309375762939e-01 1.423145055770874023e+00 1.448791027069091797e+00
1.064000000000000000e+03 4.648551559448242188e+01 -1.560253810882568359e+01 5.683552265167236328e+00 6.073977947235107422e-01 1.887284994125366211e+00 2.488384246826171875e+00
1.065000000000000000e+03 5.482797622680664062e+01 -1.329961204528808594e+01 5.836208462715148926e-01 3.822396695613861084e-01 2.897581756114959717e-01 1.080013751983642578e+00
1.066000000000000000e+03 5.609038543701171875e+01 -1.448812866210937500e+01 2.462865114212036133e-01 8.243928104639053345e-02 9.861773997545242310e-02 3.101950883865356445e-01
1.067000000000000000e+03 5.729062652587890625e+01 -1.323711299896240234e+01 -2.950671911239624023e-01 2.755449414253234863e-01 -5.856672301888465881e-03 5.483164191246032715e-01
1.068000000000000000e+03 5.950202178955078125e+01 -1.278570938110351562e+01 -1.003585696220397949e+00 2.862876355648040771e-01 -2.151894122362136841e-01 1.457191705703735352e-01
1.069000000000000000e+03 6.830599975585937500e+01 -1.477547454833984375e+01 -3.141995370388031006e-01 -4.027857631444931030e-02 -1.063434407114982605e-01 1.723657697439193726e-01
1.070000000000000000e+03 6.969010162353515625e+01 -1.462070465087890625e+01 -3.537333607673645020e-01 4.217939451336860657e-02 -9.346618503332138062e-02 5.749163776636123657e-02
1.071000000000000000e+03 7.278347015380859375e+01 -1.368418693542480469e+01 -3.202154040336608887e-01 4.559146985411643982e-02 -8.238717913627624512e-02 -1.134428456425666809e-01
1.072000000000000000e+03 7.358190917968750000e+01 -1.443344688415527344e+01 -2.245726734399795532e-01 6.143863778561353683e-03 -6.552863866090774536e-02 -8.712485432624816895e-02
1.073000000000000000e+03 7.432054901123046875e+01 -1.380197429656982422e+01 -2.154347449541091919e-01 -1.772586838342249393e-03 -6.516219675540924072e-02 -1.352058798074722290e-01
1.074000000000000000e+03 7.584591674804687500e+01 -1.451558017730712891e+01 -1.000592261552810669e-01 -1.066200342029333115e-02 -3.321636840701103210e-02 -7.254111766815185547e-02
1.075000000000000000e+03 7.653182983398437500e+01 -1.452279376983642578e+01 -8.761043101549148560e-02 -2.560979314148426056e-02 -3.396606817841529846e-02 -5.683586001396179199e-02
1.076000000000000000e+03 7.839121246337890625e+01 -1.448760795593261719e+01 -1.800061762332916260e-02 -2.435925789177417755e-02 -1.270796265453100204e-02 -1.853016577661037445e-02
1.077000000000000000e+03 7.942295837402343750e+01 -1.148044395446777344e+01 -9.230007417500019073e-03 -1.134723350405693054e-01 -3.681069985032081604e-02 -4.124230518937110901e-02
1.078000000000000000e+03 7.901094818115234375e+01 -1.438808536529541016e+01 -1.099849119782447815e-02 -1.405700296163558960e-02 -7.516648154705762863e-03 -9.522203356027603149e-03
1.079000000000000000e+03 7.966319274902343750e+01 -1.430769824981689453e+01 -4.354831762611865997e-03 7.238851860165596008e-03 8.652060059830546379e-04 7.665969897061586380e-04
1.080000000000000000e+03 7.488596343994140625e+01 4.009968566894531250e+01 -1.456772685050964355e-01 -3.229273855686187744e-01 -1.405813843011856079e-01 9.109156578779220581e-02
1.081000000000000000e+03 7.871798706054687500e+01 4.000788116455078125e+01 2.111835032701492310e-02 -6.151286959648132324e-01 -1.782031059265136719e-01 6.947716325521469116e-02
1.082000000000000000e+03 7.662903594970703125e+01 3.872493362426757812e+01 -4.548391327261924744e-02 -5.946322083473205566e-01 -1.920348405838012695e-01 1.622777581214904785e-01
1.083000000000000000e+03 7.911701202392578125e+01 3.476145935058593750e+01 -1.177544426172971725e-02 -1.056033492088317871e+00 -3.203426897525787354e-01 9.594430774450302124e-02
1.084000000000000000e+03 7.925724792480468750e+01 2.910722923278808594e+01 -1.957398606464266777e-03 -1.855097889900207520e+00 -5.571165680885314941e-01 1.319751143455505371e-01
1.085000000000000000e+03 7.927898406982421875e+01 2.771101188659667969e+01 -6.331370212137699127e-03 -2.112353324890136719e+00 -6.356054544448852539e-01 1.393617689609527588e-01
1.086000000000000000e+03 7.934978485107421875e+01 2.211391258239746094e+01 3.869789186865091324e-03 -3.200821399688720703e+00 -9.590854644775390625e-01 1.214796677231788635e-01
1.087000000000000000e+03 7.805925750732421875e+01 2.060636711120605469e+01 2.956837043166160583e-02 -2.774265766143798828e+00 -8.234092593193054199e-01 2.935730516910552979e-01
1.088000000000000000e+03 7.938027191162109375e+01 1.792665863037109375e+01 1.822536066174507141e-02 -3.833705902099609375e+00 -1.144644141197204590e+00 7.105179131031036377e-02
1.089000000000000000e+03 7.812633514404296875e+01 1.645644760131835938e+01 4.982865601778030396e-02 -3.181233644485473633e+00 -9.394215345382690430e-01 1.320917904376983643e-01
1.090000000000000000e+03 7.935746002197265625e+01 1.093645763397216797e+01 3.946992103010416031e-03 -3.966238737106323242e+00 -1.188687443733215332e+00 -3.168804943561553955e-02
1.091000000000000000e+03 7.805936431884765625e+01 9.496146202087402344e+00 4.063031822443008423e-02 -3.056550741195678711e+00 -9.047761559486389160e-01 -1.670991778373718262e-01
1.092000000000000000e+03 7.808647918701171875e+01 6.662786960601806641e+00 3.207844495773315430e-02 -2.785513162612915039e+00 -8.260304331779479980e-01 -2.727124094963073730e-01
1.093000000000000000e+03 7.937179565429687500e+01 3.914340734481811523e+00 5.256184842437505722e-03 -2.990058422088623047e+00 -8.954406380653381348e-01 -1.074161008000373840e-01
1.094000000000000000e+03 7.811345672607421875e+01 2.445317268371582031e+00 2.084379643201828003e-02 -2.201382637023925781e+00 -6.541616320610046387e-01 -3.534508645534515381e-01
1.095000000000000000e+03 7.939837646484375000e+01 -3.084562301635742188e+00 1.726977643556892872e-03 -1.466778397560119629e+00 -4.395154118537902832e-01 -1.266371309757232666e-01
1.096000000000000000e+03 7.819665527343750000e+01 -4.499747753143310547e+00 -1.571151055395603180e-02 -1.006411075592041016e+00 -3.066367805004119873e-01 -3.496879041194915771e-01
1.097000000000000000e+03 7.820021057128906250e+01 -7.216197967529296875e+00 -3.165152296423912048e-02 -5.914753675460815430e-01 -1.869380772113800049e-01 -2.829026281833648682e-01
1.098000000000000000e+03 7.822476196289062500e+01 -1.129889583587646484e+01 -3.450319170951843262e-02 -1.642983406782150269e-01 -5.964046344161033630e-02 -1.296511143445968628e-01
1.099000000000000000e+03 4.109480082988739014e-01 2.189075708389282227e+00 5.995119136059656739e-05 1.457775670132832602e-05 2.235868487332481891e-05 -2.097254764521494508e-06
1.100000000000000000e+03 5.774262547492980957e-01 5.056665420532226562e+00 8.872004400473088026e-05 3.471233867458067834e-05 3.702971298480406404e-05 -1.956706546479836106e-05
1.101000000000000000e+03 1.626303434371948242e+00 6.583130359649658203e+00 1.503993553342297673e-04 6.983422645134851336e-05 6.607007526326924562e-05 -6.474279507528990507e-05
1.102000000000000000e+03 1.702327489852905273e+00 9.220302581787109375e+00 1.973596517927944660e-04 1.678764238022267818e-04 1.095708212233148515e-04 -1.429369294783100486e-04
1.103000000000000000e+03 6.250862479209899902e-01 1.207725238800048828e+01 -1.807546505006030202e-04 5.281265475787222385e-04 1.042115691234357655e-04 -7.458978507202118635e-05
1.104000000000000000e+03 1.883946299552917480e+00 1.201496601104736328e+01 2.499862457625567913e-04 3.516610013321042061e-04 1.804941712180152535e-04 -2.658101147972047329e-04
1.105000000000000000e+03 1.761346459388732910e+00 1.629920387268066406e+01 -3.163080546073615551e-04 8.015243802219629288e-04 1.455649035051465034e-04 -2.820950758177787066e-04
1.106000000000000000e+03 1.740353941917419434e+00 1.905864143371582031e+01 -4.938407801091670990e-04 9.999398607760667801e-04 1.518297212896868587e-04 -1.113144971895962954e-04
1.107000000000000000e+03 6.435993313789367676e-01 2.195689201354980469e+01 3.114588325843214989e-04 1.782401697710156441e-03 6.281581590883433819e-04 1.452295546187087893e-04
1.108000000000000000e+03 6.783508062362670898e-01 2.480471420288085938e+01 3.112496924586594105e-04 4.050919378641992807e-04 2.149024803657084703e-04 4.865895898547023535e-04
1.109000000000000000e+03 6.440966725349426270e-01 2.622798538208007812e+01 -5.449796444736421108e-04 -9.161359630525112152e-04 -4.383346822578459978e-04 7.372867548838257790e-04
1.110000000000000000e+03 6.301126480102539062e-01 2.904309272766113281e+01 -5.282376077957451344e-04 -4.882068373262882233e-03 -1.623091753572225571e-03 1.019250717945396900e-03
1.111000000000000000e+03 1.879609107971191406e+00 2.899445915222167969e+01 8.598144631832838058e-05 -5.713481456041336060e-03 -1.688249991275370121e-03 2.960775978863239288e-03
1.112000000000000000e+03 7.527701258659362793e-01 3.330017089843750000e+01 4.005453665740787983e-04 -1.294710021466016769e-02 -3.763966262340545654e-03 1.506060245446860790e-03
1.113000000000000000e+03 8.034129738807678223e-01 3.618854522705078125e+01 3.626588149927556515e-04 -1.721190102398395538e-02 -5.054772365838289261e-03 1.036556554026901722e-03
1.114000000000000000e+03 1.199439048767089844e+00 4.001089477539062500e+01 -3.527919470798224211e-04 -2.120401710271835327e-02 -6.467042956501245499e-03 6.811995408497750759e-04
1.115000000000000000e+03 9.599514007568359375e+00 1.840331912040710449e+00 5.362038427847437561e-05 2.748010047071147710e-05 2.433014560665469617e-05 -1.600553514435887337e-05
1.116000000000000000e+03 8.836956977844238281e+00 1.839226126670837402e+00 2.391136331425514072e-05 -3.595191446947865188e-05 -3.612165755839669146e-06 2.808109638863243163e-05
1.117000000000000000e+03 5.029980659484863281e+00 1.851150631904602051e+00 5.307516039465554059e-05 1.269057338504353538e-05 1.972971949726343155e-05 -3.872299566864967346e-05
1.118000000000000000e+03 1.990566134452819824e+00 2.009944200515747070e+00 7.299804110516561195e-06 1.869139668997377157e-05 7.797360012773424387e-06 -7.073517735989298671e-06
1.119000000000000000e+03 1.214171886444091797e+00 2.115984201431274414e+00 8.668641385156661272e-06 -1.909071943373419344e-05 -3.126623596472200006e-06 -5.699551820725901052e-06
1.120000000000000000e+03 1.106257724761962891e+01 2.523123025894165039e+00 1.773473013599868864e-05 -4.589074160321615636e-05 -8.446802894468419254e-06 4.545648334897123277e-05
1.121000000000000000e+03 1.257864475250244141e+01 1.843918085098266602e+00 2.960029632959049195e-05 4.560561137623153627e-05 2.256177140225190669e-05 -3.706652933033183217e-06
1.122000000000000000e+03 1.550811767578125000e+01 1.915166974067687988e+00 1.163070373877417296e-05 5.130912177264690399e-05 1.888194856292102486e-05 -4.951850769430166110e-06
1.123000000000000000e+03 1.694853019714355469e+01 2.014125823974609375e+00 8.347852599399629980e-06 4.787750731338746846e-05 1.686760879238136113e-05 -5.587999567069346085e-06
1.124000000000000000e+03 1.838133430480957031e+01 2.149175405502319336e+00 5.447989224194316193e-06 3.991599442088045180e-05 1.360919486614875495e-05 -5.138433152751531452e-06
1.125000000000000000e+03 2.048027038574218750e+01 2.481030464172363281e+00 -4.203966454952023923e-06 -3.108052260358817875e-05 -1.058534598996629938e-05 -4.722116671018738998e-07
1.126000000000000000e+03 2.116411399841308594e+01 2.598887205123901367e+00 2.062750127151957713e-06 2.735270027187652886e-05 8.824635187920648605e-06 -2.961238124044029973e-06
1.127000000000000000e+03 2.291375732421875000e+01 4.031871795654296875e+00 -1.178290494863176718e-05 -5.486432200996205211e-06 -5.180801053938921541e-06 -1.972197424038313329e-06
1.128000000000000000e+03 2.322194862365722656e+01 3.789283514022827148e+00 2.889930146920960397e-05 3.968460987380240113e-06 9.860328646027483046e-06 1.202855764859123155e-05
1.129000000000000000e+03 2.364527130126953125e+01 3.249475955963134766e+00 -2.461146323184948415e-06 9.165778465103358030e-06 2.011389824474463239e-06 7.905140591901727021e-06
1.130000000000000000e+03 2.180891990661621094e+01 2.731447696685791016e+00 7.329608138206822332e-07 -3.049905535590369254e-05 -8.929828254622407258e-06 -2.659222900547320023e-06
1.131000000000000000e+03 2.149146461486816406e+01 5.301925659179687500e+00 1.734796205710154027e-05 2.009697527682874352e-05 1.123348101828014478e-05 1.615666042198427022e-05
1.132000000000000000e+03 2.053948974609375000e+01 6.073239326477050781e+00 -1.436424918210832402e-05 -4.608494054991751909e-05 -1.813475682865828276e-05 -1.960295958269853145e-05
1.133000000000000000e+03 1.992859840393066406e+01 6.606016159057617188e+00 -3.012452907569240779e-05 -4.964350955560803413e-05 -2.393041177128907293e-05 -2.950423549918923527e-05
1.134000000000000000e+03 1.963500213623046875e+01 6.883626461029052734e+00 2.445443715259898454e-05 4.126564090256579220e-05 1.971602250705473125e-05 4.000829358119517565e-05
1.135000000000000000e+03 1.906878852844238281e+01 7.461905956268310547e+00 3.266130079282447696e-05 4.485262979869730771e-05 2.325417881365865469e-05 4.768862709170207381e-05
1.136000000000000000e+03 1.787707519531250000e+01 8.537444114685058594e+00 5.026058352086693048e-05 6.596285675186663866e-05 3.486703280941583216e-05 6.067694994271732867e-05
1.137000000000000000e+03 1.755522537231445312e+01 8.815239906311035156e+00 -7.057905895635485649e-05 -2.990922257595229894e-05 -3.014648609678260982e-05 -6.450301589211449027e-05
1.138000000000000000e+03 1.728254318237304688e+01 9.143924713134765625e+00 8.485791477141901851e-05 4.456274837139062583e-05 3.882620148942805827e-05 4.222799179842695594e-05
1.139000000000000000e+03 1.706505393981933594e+01 9.496900558471679688e+00 -8.823994721751660109e-05 -6.542410119436681271e-06 -2.843470610969234258e-05 -6.297582149272784591e-05
1.140000000000000000e+03 1.662101364135742188e+01 1.015553665161132812e+01 -1.047120240400545299e-04 1.062416413333266973e-05 -2.822635724442079663e-05 -8.717439777683466673e-05
1.141000000000000000e+03 1.594507408142089844e+01 1.113076686859130859e+01 1.888269034679979086e-04 2.308773255208507180e-04 1.259112759726122022e-04 2.636623321450315416e-05
1.142000000000000000e+03 1.573059082031250000e+01 1.146826171875000000e+01 -1.354651467408984900e-04 1.921993971336632967e-04 1.702027839201036841e-05 -1.961135567398741841e-04
1.143000000000000000e+03 1.535840511322021484e+01 1.218141746520996094e+01 -1.962345850188285112e-04 4.027249815408140421e-04 6.194712477736175060e-05 -1.958357461262494326e-04
1.144000000000000000e+03 1.505904483795166016e+01 1.298532867431640625e+01 -2.439398958813399076e-04 6.561118643730878830e-04 1.236515963682904840e-04 -1.262685982510447502e-04
1.145000000000000000e+03 1.448828125000000000e+01 1.413885402679443359e+01 -2.840915403794497252e-04 1.220561913214623928e-03 2.809411089401692152e-04 1.064529060386121273e-04
1.146000000000000000e+03 1.473546791076660156e+01 1.497214317321777344e+01 3.519614110700786114e-04 1.903577474877238274e-03 6.766616716049611568e-04 1.106441504816757515e-05
1.147000000000000000e+03 1.464397430419921875e+01 1.620932388305664062e+01 -2.750675485003739595e-04 2.394215669482946396e-03 6.357444217428565025e-04 1.370929385302588344e-04
1.148000000000000000e+03 1.468485450744628906e+01 1.661780357360839844e+01 5.623154575005173683e-04 2.593031618744134903e-03 9.466041228733956814e-04 1.978904183488339186e-04
1.149000000000000000e+03 1.471493625640869141e+01 1.781262588500976562e+01 -7.073941524140536785e-04 3.770431037992238998e-03 9.189110714942216873e-04 3.477355639915913343e-04
1.150000000000000000e+03 1.607933998107910156e+01 2.062644958496093750e+01 -8.698948659002780914e-03 -2.580382628366351128e-03 -3.383799223229289055e-03 -3.557411953806877136e-03
1.151000000000000000e+03 1.666111183166503906e+01 2.112023925781250000e+01 -2.125749364495277405e-02 -3.852097550407052040e-03 -7.532877381891012192e-03 -5.764515139162540436e-03
1.152000000000000000e+03 1.683399772644042969e+01 2.148156356811523438e+01 -2.479332871735095978e-02 -2.183541888371109962e-03 -8.093060925602912903e-03 -4.794884473085403442e-03
1.153000000000000000e+03 1.991884994506835938e+01 2.205377960205078125e+01 -6.171745434403419495e-02 -1.140688429586589336e-03 -1.885744370520114899e-02 -5.506757181137800217e-03
1.154000000000000000e+03 2.396284484863281250e+01 2.194521141052246094e+01 -1.371464282274246216e-01 -8.761962875723838806e-03 -4.377251490950584412e-02 2.919263206422328949e-02
1.155000000000000000e+03 2.436561203002929688e+01 2.187071228027343750e+01 -1.441154479980468750e-01 -8.049627766013145447e-03 -4.564952105283737183e-02 3.338425606489181519e-02
1.156000000000000000e+03 2.515485000610351562e+01 2.169118690490722656e+01 -1.568091958761215210e-01 -1.132111251354217529e-02 -5.043908953666687012e-02 4.052616655826568604e-02
1.157000000000000000e+03 2.672328567504882812e+01 2.128787803649902344e+01 -1.746720820665359497e-01 -2.116194739937782288e-02 -5.875020846724510193e-02 5.936328694224357605e-02
1.158000000000000000e+03 2.712476348876953125e+01 2.117885208129882812e+01 -1.854861676692962646e-01 -2.449544705450534821e-02 -6.299448758363723755e-02 6.453441083431243896e-02
1.159000000000000000e+03 2.827829360961914062e+01 2.073665618896484375e+01 -2.271896004676818848e-01 -7.402645796537399292e-02 -9.036482125520706177e-02 1.113102734088897705e-01
1.160000000000000000e+03 2.951620292663574219e+01 1.964542961120605469e+01 -1.015192344784736633e-01 -1.423035115003585815e-01 -7.314682751893997192e-02 1.120358556509017944e-01
1.161000000000000000e+03 3.017055892944335938e+01 1.860534858703613281e+01 -5.027783289551734924e-02 -1.087119504809379578e-01 -4.769693315029144287e-02 7.015820592641830444e-02
1.162000000000000000e+03 3.037417221069335938e+01 1.825186157226562500e+01 -4.084304347634315491e-02 -1.007654443383216858e-01 -4.248254746198654175e-02 6.355351954698562622e-02
1.163000000000000000e+03 3.056622505187988281e+01 1.789227294921875000e+01 -3.559240698814392090e-02 -9.425558149814605713e-02 -3.895439580082893372e-02 5.316811427474021912e-02
1.164000000000000000e+03 3.090587425231933594e+01 1.715124320983886719e+01 -2.217458561062812805e-02 -7.391687482595443726e-02 -2.882743813097476959e-02 3.647533431649208069e-02
1.165000000000000000e+03 3.171001434326171875e+01 1.484706211090087891e+01 -5.507798865437507629e-03 -2.349431812763214111e-02 -8.700635284185409546e-03 1.215755008161067963e-02
1.166000000000000000e+03 3.181454086303710938e+01 1.622619819641113281e+01 -2.085828781127929688e-02 -3.697231411933898926e-02 -1.734918169677257538e-02 3.016392886638641357e-02
1.167000000000000000e+03 3.219622039794921875e+01 1.332987403869628906e+01 -1.685622031800448895e-03 -6.650826428085565567e-03 -2.500934526324272156e-03 4.391134250909090042e-03
1.168000000000000000e+03 3.254071044921875000e+01 1.215251159667968750e+01 -1.689083757810294628e-03 4.331515519879758358e-04 -3.767796442843973637e-04 1.006316742859780788e-03
1.169000000000000000e+03 3.262378692626953125e+01 1.175026702880859375e+01 3.760127001442015171e-04 2.080018864944577217e-03 7.368095102719962597e-04 8.338555344380438328e-04
1.170000000000000000e+03 3.291717529296875000e+01 1.015178394317626953e+01 -2.430517051834613085e-04 4.245704505592584610e-03 1.200795755721628666e-03 -1.081771100871264935e-03
1.171000000000000000e+03 3.348660278320312500e+01 5.290420532226562500e+00 -1.315029803663492203e-03 3.645455581136047840e-04 -2.851452736649662256e-04 1.317394780926406384e-04
1.172000000000000000e+03 3.348060989379882812e+01 4.105274677276611328e+00 1.685070106759667397e-03 -9.894820686895400286e-05 4.758365685120224953e-04 -1.546749554108828306e-04
1.173000000000000000e+03 3.348326873779296875e+01 3.700239658355712891e+00 -1.426720293238759041e-03 4.328010254539549351e-05 -4.150320601183921099e-04 3.084437630604952574e-04
1.174000000000000000e+03 3.397046661376953125e+01 1.938346147537231445e+00 2.723041689023375511e-05 -3.340011462569236755e-04 -9.203122317558154464e-05 -8.204532059608027339e-05
1.175000000000000000e+03 3.478221893310546875e+01 2.139949798583984375e+00 5.385113763622939587e-04 -1.066115873982198536e-04 1.295699330512434244e-04 -1.230075722560286522e-04
1.176000000000000000e+03 3.658008193969726562e+01 2.544695615768432617e+00 -2.567052433732897043e-04 4.298428539186716080e-04 5.194128243601880968e-05 -1.943852112162858248e-04
1.177000000000000000e+03 3.638466644287109375e+01 3.149490118026733398e+00 4.028718394692987204e-04 -7.471001590602099895e-04 -1.032685031532309949e-04 4.277969710528850555e-04
1.178000000000000000e+03 3.928971862792968750e+01 4.748846054077148438e+00 8.018686785362660885e-04 -5.359261194826103747e-05 2.244828210677951574e-04 6.267131539061665535e-05
1.179000000000000000e+03 3.917274475097656250e+01 6.690032958984375000e+00 -2.409746870398521423e-03 -7.121662929421290755e-05 -7.442890782840549946e-04 1.753043849021196365e-03
1.180000000000000000e+03 4.191503143310546875e+01 1.272689247131347656e+01 -1.346265804022550583e-02 -8.533363230526447296e-03 -6.598806008696556091e-03 -1.503869425505399704e-02
1.181000000000000000e+03 4.270530319213867188e+01 1.514247131347656250e+01 -6.299377232789993286e-02 -1.227111555635929108e-02 -2.257946506142616272e-02 -2.686822973191738129e-02
1.182000000000000000e+03 4.604260253906250000e+01 1.704471397399902344e+01 -1.251674294471740723e-01 -4.498406499624252319e-02 -5.104544758796691895e-02 -8.535127341747283936e-02
1.183000000000000000e+03 4.711849975585937500e+01 1.790626525878906250e+01 -1.673535108566284180e-01 -7.332261651754379272e-02 -7.220283895730972290e-02 -9.423788636922836304e-02
1.184000000000000000e+03 5.063443374633789062e+01 2.018717575073242188e+01 -2.469267845153808594e-01 -4.927921667695045471e-02 -8.886180073022842407e-02 -1.241750568151473999e-01
1.185000000000000000e+03 5.328298950195312500e+01 2.113425636291503906e+01 -7.574612647294998169e-02 -6.399787962436676025e-04 -2.291583083570003510e-02 -1.221691071987152100e-01
1.186000000000000000e+03 5.604763793945312500e+01 2.177688980102539062e+01 4.812589883804321289e-01 7.927953451871871948e-02 1.681615561246871948e-01 -2.335012108087539673e-01
1.187000000000000000e+03 5.751924896240234375e+01 2.193085289001464844e+01 1.244746565818786621e+00 1.607819348573684692e-01 4.216585457324981689e-01 -5.019471645355224609e-01
1.188000000000000000e+03 6.267603302001953125e+01 1.512489128112792969e+01 3.332729637622833252e-01 7.295170307159423828e+00 2.288532972335815430e+00 -2.192002236843109131e-01
1.189000000000000000e+03 6.231227493286132812e+01 1.220026302337646484e+01 2.245024144649505615e-01 7.222823143005371094e+00 2.234197616577148438e+00 6.092962622642517090e-01
1.190000000000000000e+03 6.186330032348632812e+01 9.455412864685058594e+00 6.084690093994140625e-01 7.198978424072265625e+00 2.342234373092651367e+00 1.405379533767700195e+00
1.191000000000000000e+03 5.636386108398437500e+01 -7.018828988075256348e-01 1.547254085540771484e+00 2.920123815536499023e+00 1.340213418006896973e+00 2.026523590087890625e+00
1.192000000000000000e+03 3.719551467895507812e+01 -9.658421874046325684e-01 -1.936734318733215332e+00 3.479992151260375977e-01 -4.766205251216888428e-01 4.848808944225311279e-01
1.193000000000000000e+03 3.652042770385742188e+01 -1.560600280761718750e+00 -2.238874435424804688e+00 4.728366136550903320e-01 -5.298113226890563965e-01 4.200872182846069336e-01
1.194000000000000000e+03 3.529878616333007812e+01 -1.277793765068054199e+00 -2.523860692977905273e+00 4.302223622798919678e-01 -6.280915141105651855e-01 4.968572407960891724e-02
1.195000000000000000e+03 3.486237716674804688e+01 -1.282135844230651855e+00 -2.764146089553833008e+00 4.479179978370666504e-01 -6.948684453964233398e-01 -2.330425567924976349e-02
1.196000000000000000e+03 3.424745178222656250e+01 -1.654424309730529785e+00 -2.933189153671264648e+00 2.756148278713226318e-01 -7.972722649574279785e-01 2.005778551101684570e-01
1.197000000000000000e+03 3.135489845275878906e+01 -1.651518106460571289e+00 -2.918954133987426758e+00 3.018509149551391602e-01 -7.851309180259704590e-01 -2.675525844097137451e-01
1.198000000000000000e+03 2.918906974792480469e+01 -1.824443101882934570e+00 -2.343681097030639648e+00 8.467267453670501709e-02 -6.777024865150451660e-01 -4.250158667564392090e-01
1.199000000000000000e+03 2.659602737426757812e+01 -2.149622201919555664e+00 -1.608960032463073730e+00 -1.979585736989974976e-01 -5.420755743980407715e-01 -6.367270946502685547e-01
1.200000000000000000e+03 2.276990509033203125e+01 -6.585171222686767578e-01 -5.207809805870056152e-01 7.776223123073577881e-02 -1.329056173563003540e-01 -1.534409970045089722e-01
1.201000000000000000e+03 2.043098640441894531e+01 -1.209818959236145020e+00 -2.469089776277542114e-01 -3.178207576274871826e-02 -8.360731601715087891e-02 -2.221293896436691284e-01
1.202000000000000000e+03 1.733786201477050781e+01 -1.635088920593261719e+00 2.529482729732990265e-02 -5.748319625854492188e-02 -9.656511247158050537e-03 -1.719987243413925171e-01
1.203000000000000000e+03 1.656135940551757812e+01 -1.699688911437988281e+00 7.501652091741561890e-02 -5.200527608394622803e-02 6.903373170644044876e-03 -1.410390734672546387e-01
1.204000000000000000e+03 1.348001003265380859e+01 -1.819069862365722656e+00 2.045307010412216187e-01 -2.958296611905097961e-02 5.248431861400604248e-02 -2.143923379480838776e-02
1.205000000000000000e+03 1.501808071136474609e+01 -1.770986199378967285e+00 1.573298573493957520e-01 -4.082511737942695618e-02 3.495142236351966858e-02 -7.696360349655151367e-02
1.206000000000000000e+03 1.195588874816894531e+01 -1.842750430107116699e+00 2.209861427545547485e-01 -2.012285403907299042e-02 6.025898829102516174e-02 2.179929800331592560e-02
1.207000000000000000e+03 9.015832901000976562e+00 -2.609639167785644531e+00 1.162422448396682739e-01 -1.670301333069801331e-02 2.986177057027816772e-02 7.745406031608581543e-02
1.208000000000000000e+03 8.135449409484863281e+00 -1.872476458549499512e+00 1.721203178167343140e-01 -6.105439271777868271e-03 4.980446398258209229e-02 7.366348803043365479e-02
1.209000000000000000e+03 4.273036956787109375e+00 -1.862352490425109863e+00 7.465139776468276978e-02 7.868435233831405640e-03 2.475595101714134216e-02 7.227885723114013672e-02
1.210000000000000000e+03 2.765876531600952148e+00 -1.917809963226318359e+00 3.979455679655075073e-02 1.718274131417274475e-02 1.709318906068801880e-02 5.561804398894309998e-02
1.211000000000000000e+03 2.001528263092041016e+00 -2.005399942398071289e+00 2.461525611579418182e-02 2.464323490858078003e-02 1.477754674851894379e-02 4.533054307103157043e-02
1.212000000000000000e+03 5.095754623413085938e+00 -4.030197143554687500e+01 -1.091347169131040573e-02 -1.128411054611206055e+00 -3.417973518371582031e-01 -4.948528110980987549e-02
1.213000000000000000e+03 9.512403011322021484e-01 -3.869922637939453125e+01 -4.816793370991945267e-03 -1.633535146713256836e+00 -4.915055930614471436e-01 2.610948495566844940e-02
1.214000000000000000e+03 6.857299804687500000e-01 -3.322613906860351562e+01 8.870902471244335175e-03 -1.712125182151794434e+00 -5.109763145446777344e-01 -5.992710124701261520e-03
1.215000000000000000e+03 6.791055798530578613e-01 -3.182840728759765625e+01 -1.162621774710714817e-03 -1.689872860908508301e+00 -5.073106288909912109e-01 -1.499520894140005112e-02
1.216000000000000000e+03 6.654772162437438965e-01 -2.901869964599609375e+01 2.055627759546041489e-03 -1.591876626014709473e+00 -4.769463241100311279e-01 -3.260482847690582275e-02
1.217000000000000000e+03 6.542446613311767578e-01 -2.621269607543945312e+01 3.531290683895349503e-03 -1.414411067962646484e+00 -4.232639372348785400e-01 -4.974425211548805237e-02
1.218000000000000000e+03 1.883634328842163086e+00 -2.198963737487792969e+01 1.584587991237640381e-02 -8.699063658714294434e-01 -2.562181353569030762e-01 -2.252265065908432007e-01
1.219000000000000000e+03 1.860475420951843262e+00 -1.920788002014160156e+01 1.080474816262722015e-03 -5.742416977882385254e-01 -1.719483584165573120e-01 -2.398320734500885010e-01
1.220000000000000000e+03 6.180624961853027344e-01 -1.638021850585937500e+01 -5.378484260290861130e-03 -2.254696637392044067e-01 -6.925444304943084717e-02 -7.469233125448226929e-02
1.221000000000000000e+03 1.862753748893737793e+00 -1.509712314605712891e+01 -2.581845037639141083e-02 -1.534186601638793945e-01 -5.377113446593284607e-02 -1.838172972202301025e-01
1.222000000000000000e+03 1.952442288398742676e+00 -1.235469150543212891e+01 -3.776519000530242920e-02 2.699879743158817291e-02 -3.229917492717504501e-03 -1.096080169081687927e-01
1.223000000000000000e+03 6.744486689567565918e-01 -9.329715728759765625e+00 -7.427695672959089279e-03 2.276668250560760498e-01 6.607174128293991089e-02 -3.157226834446191788e-03
1.224000000000000000e+03 1.736346244812011719e+00 -5.248857975006103516e+00 -4.824643023312091827e-03 9.922017902135848999e-02 2.831866219639778137e-02 5.810695886611938477e-02
1.225000000000000000e+03 7.966834259033203125e+01 -1.862425804138183594e+01 -3.946655488107353449e-05 1.740724983392283320e-04 4.038178667542524636e-05 -9.995135042117908597e-05
1.226000000000000000e+03 7.945999908447265625e+01 -2.272599220275878906e+01 -1.418515312252566218e-04 9.912786772474646568e-04 2.548281627241522074e-04 -1.939667890837881714e-05
1.227000000000000000e+03 7.837506103515625000e+01 -2.267801284790039062e+01 -8.191569213522598147e-05 2.263472706545144320e-04 4.332947719376534224e-05 -1.360446185572072864e-04
1.228000000000000000e+03 7.938019561767578125e+01 -2.682689476013183594e+01 9.129201498581096530e-05 -3.998931206297129393e-04 -9.258033242076635361e-05 5.050671752542257309e-04
1.229000000000000000e+03 7.811893463134765625e+01 -2.680459403991699219e+01 -6.447358755394816399e-04 -1.301531330682337284e-03 -5.838801735080778599e-04 1.556849107146263123e-03
1.230000000000000000e+03 7.946479797363281250e+01 -3.087012672424316406e+01 -9.264572872780263424e-05 -6.375338882207870483e-03 -1.940395333804190159e-03 1.134774181991815567e-03
1.231000000000000000e+03 7.844498443603515625e+01 -3.203374481201171875e+01 -1.162689222837798297e-04 -9.264059364795684814e-03 -2.814098494127392769e-03 3.795413067564368248e-03
1.232000000000000000e+03 7.941210937500000000e+01 -3.483668518066406250e+01 -1.003551296889781952e-04 -1.696463115513324738e-02 -5.119496025145053864e-03 1.503934152424335480e-03
1.233000000000000000e+03 7.807877349853515625e+01 -3.565409851074218750e+01 3.333015192765742540e-04 -1.724455505609512329e-02 -5.073375999927520752e-03 4.618527367711067200e-03
1.234000000000000000e+03 7.896099090576171875e+01 -3.873316192626953125e+01 -2.327498223166912794e-04 -2.474595606327056885e-02 -7.493611890822649002e-03 1.408454612828791142e-03
1.235000000000000000e+03 7.686146545410156250e+01 -2.005034637451171875e+01 2.195703418692573905e-04 -7.351661770371720195e-05 4.381611506687477231e-05 -5.625405465252697468e-04
1.236000000000000000e+03 7.709870147705078125e+01 -1.832679176330566406e+01 2.728394465520977974e-04 -8.888592128641903400e-05 5.518605394172482193e-05 -3.965891664847731590e-04
1.237000000000000000e+03 7.645800781250000000e+01 -1.828102111816406250e+01 1.652361825108528137e-04 3.849302447633817792e-05 6.111876427894458175e-05 -9.798115206649526954e-05
1.238000000000000000e+03 7.361056518554687500e+01 -1.822180175781250000e+01 4.076856130268424749e-04 -4.844215800403617322e-05 1.077730412362143397e-04 -4.035786696476861835e-05
1.239000000000000000e+03 7.505786895751953125e+01 -1.822853851318359375e+01 3.874827234540134668e-04 -5.894671630812808871e-05 9.856079850578680634e-05 -3.857557385344989598e-05
1.240000000000000000e+03 7.216502380371093750e+01 -1.826065254211425781e+01 3.137704916298389435e-04 2.405464147159364074e-05 1.013475412037223577e-04 1.489348942413926125e-04
1.241000000000000000e+03 6.989135742187500000e+01 -1.891005325317382812e+01 -8.109203918138518929e-05 -3.116486768703907728e-04 -1.178222155431285501e-04 6.132846465334296227e-04
1.242000000000000000e+03 6.569609069824218750e+01 -2.537866783142089844e+01 -8.468237705528736115e-03 -2.252734499052166939e-03 -3.216291544958949089e-03 -3.693226026371121407e-03
1.243000000000000000e+03 6.142737197875976562e+01 -2.905686950683593750e+01 -8.370245993137359619e-02 -1.018122397363185883e-02 -2.816510573029518127e-02 -2.418725937604904175e-02
1.244000000000000000e+03 5.737070083618164062e+01 -3.068472290039062500e+01 -2.127034068107604980e-01 -1.117921527475118637e-02 -6.716478615999221802e-02 -6.181586533784866333e-03
1.245000000000000000e+03 5.261788177490234375e+01 -3.283705902099609375e+01 -2.085224911570549011e-02 1.344226598739624023e-01 3.407112136483192444e-02 -8.886144310235977173e-02
1.246000000000000000e+03 5.290719223022460938e+01 -3.077969169616699219e+01 -2.564807236194610596e-01 8.437227457761764526e-03 -7.441305369138717651e-02 -2.969211200252175331e-03
1.247000000000000000e+03 4.543798446655273438e+01 -2.466077804565429688e+01 3.884349763393402100e-01 3.904572725296020508e+00 1.287902235984802246e+00 -5.523856282234191895e-01
1.248000000000000000e+03 4.408578109741210938e+01 -1.802410697937011719e+01 6.204050779342651367e-01 6.956471443176269531e+00 2.273062944412231445e+00 1.649629831314086914e+00
1.249000000000000000e+03 4.563704681396484375e+01 -1.917931938171386719e+01 3.370844200253486633e-02 3.765053987503051758e+00 1.139628648757934570e+00 -2.503904402256011963e-01
1.250000000000000000e+03 4.477190780639648438e+01 -1.849451255798339844e+01 -4.552970230579376221e-01 5.866806507110595703e+00 1.623452901840209961e+00 -1.313907504081726074e-01
1.251000000000000000e+03 4.543101882934570312e+01 -1.497726821899414062e+01 3.937451839447021484e+00 4.744799137115478516e+00 2.604675292968750000e+00 2.872194766998291016e+00
1.252000000000000000e+03 4.498102569580078125e+01 -1.492853355407714844e+01 3.354895830154418945e+00 5.806754112243652344e+00 2.748495101928710938e+00 1.919224381446838379e+00
1.253000000000000000e+03 4.475211715698242188e+01 -1.494971466064453125e+01 3.366409778594970703e+00 6.069808959960937500e+00 2.830865621566772461e+00 1.353230476379394531e+00
1.254000000000000000e+03 4.416336822509765625e+01 -1.521821212768554688e+01 3.991823911666870117e+00 5.967909812927246094e+00 2.987920284271240234e+00 -5.899446085095405579e-03
1.255000000000000000e+03 4.383435821533203125e+01 -1.549319553375244141e+01 4.800568103790283203e+00 5.382164955139160156e+00 3.054819822311401367e+00 -3.538975417613983154e-01
1.256000000000000000e+03 4.356178665161132812e+01 -1.584193611145019531e+01 5.407971858978271484e+00 4.653128623962402344e+00 3.018330097198486328e+00 -4.433077201247215271e-02
1.257000000000000000e+03 4.347832107543945312e+01 -1.605528640747070312e+01 5.625255107879638672e+00 4.395161628723144531e+00 3.006124973297119141e+00 2.747855186462402344e-01
1.258000000000000000e+03 4.325037384033203125e+01 -1.752039146423339844e+01 2.906758308410644531e+00 5.076437950134277344e+00 2.394958972930908203e+00 2.228482007980346680e+00
1.259000000000000000e+03 4.379346084594726562e+01 -1.770740699768066406e+01 2.008117437362670898e+00 6.468799591064453125e+00 2.543075084686279297e+00 2.403537988662719727e+00
1.260000000000000000e+03 3.488448715209960938e+01 -1.345216178894042969e+01 4.278387427330017090e-01 3.422268629074096680e-01 2.310196757316589355e-01 -7.205315828323364258e-01
1.261000000000000000e+03 3.555302047729492188e+01 -1.918664741516113281e+01 1.780492626130580902e-02 -1.374866604804992676e+00 -4.071184992790222168e-01 2.014262974262237549e-01
1.262000000000000000e+03 3.557907104492187500e+01 -2.479446411132812500e+01 6.830505132675170898e-01 1.000575065612792969e+00 5.050876736640930176e-01 8.090579509735107422e-01
1.263000000000000000e+03 2.893332862854003906e+01 -2.967610359191894531e+01 1.028967857360839844e+00 2.736853361129760742e-01 3.907959461212158203e-01 3.651759922504425049e-01
1.264000000000000000e+03 2.748191452026367188e+01 -3.009533882141113281e+01 1.053602695465087891e+00 2.354323714971542358e-01 3.867105245590209961e-01 1.501821577548980713e-01
1.265000000000000000e+03 1.620867538452148438e+01 -2.353512191772460938e+01 6.591308712959289551e-01 8.140236139297485352e-01 4.419463574886322021e-01 -7.114983201026916504e-01
1.266000000000000000e+03 1.940977287292480469e+01 -1.140271663665771484e+01 -1.625185489654541016e+00 -2.829830050468444824e-01 -5.724505186080932617e-01 -5.444834828376770020e-01
1.267000000000000000e+03 2.212820625305175781e+01 -1.093837642669677734e+01 -9.273188710212707520e-01 -1.172262430191040039e-01 -3.133635520935058594e-01 -3.524591922760009766e-01
1.268000000000000000e+03 2.461286354064941406e+01 -1.005089473724365234e+01 -5.775874257087707520e-01 -1.764817535877227783e-01 -2.262207418680191040e-01 -3.557201921939849854e-01
1.269000000000000000e+03 4.760563659667968750e+01 -1.620036506652832031e+01 4.487103462219238281e+00 3.667150437831878662e-01 1.456145524978637695e+00 1.446746468544006348e+00
1.270000000000000000e+03 4.716525268554687500e+01 -1.620748519897460938e+01 4.209743499755859375e+00 -4.061720073223114014e-01 1.141071438789367676e+00 1.095926284790039062e+00
1.271000000000000000e+03 4.675914382934570312e+01 -1.585981082916259766e+01 5.380443096160888672e+00 -3.970618918538093567e-02 1.602221131324768066e+00 1.809733033180236816e+00
1.272000000000000000e+03 4.663025665283203125e+01 -1.572853279113769531e+01 5.557154655456542969e+00 1.336558610200881958e-01 1.707243084907531738e+00 2.068144321441650391e+00
1.273000000000000000e+03 4.617916107177734375e+01 -1.536131095886230469e+01 5.483316421508789062e+00 1.761183500289916992e+00 2.173349857330322266e+00 3.106229305267333984e+00
1.274000000000000000e+03 3.524136352539062500e+01 2.230524301528930664e+00 -5.708793760277330875e-04 1.395399740431457758e-04 -1.294018147746101022e-04 1.336853983957553282e-06
1.275000000000000000e+03 3.559135055541992188e+01 3.468251466751098633e+00 3.709481388796120882e-04 -7.197877857834100723e-04 -1.046518955263309181e-04 6.661578663624823093e-04
1.276000000000000000e+03 3.315393447875976562e+01 2.193504571914672852e+00 -8.956982055678963661e-04 3.133625432383269072e-04 -1.747006899677217007e-04 -7.692650979151949286e-05
1.277000000000000000e+03 3.343862152099609375e+01 1.877801060676574707e+00 -6.744173006154596806e-04 2.456119982525706291e-04 -1.286415936192497611e-04 1.918304769787937403e-04
1.278000000000000000e+03 3.416766738891601562e+01 1.978354692459106445e+00 -4.010710690636187792e-04 1.822630292735993862e-04 -6.564240902662277222e-05 -3.491450115689076483e-05
1.279000000000000000e+03 3.437662124633789062e+01 2.272143602371215820e+00 -8.594653336331248283e-04 -5.012305337004363537e-04 -4.082087543793022633e-04 4.705399624072015285e-04
1.280000000000000000e+03 3.474635314941406250e+01 2.664006471633911133e+00 -4.458490875549614429e-04 5.446991417557001114e-04 2.965501698781736195e-05 -1.723101304378360510e-04
1.281000000000000000e+03 4.575986862182617188e+01 -1.468118381500244141e+01 3.844841480255126953e+00 3.422528028488159180e+00 2.180210828781127930e+00 2.796657800674438477e+00
1.282000000000000000e+03 4.583859252929687500e+01 -1.512375736236572266e+01 4.836636066436767578e+00 3.233566284179687500e+00 2.421060800552368164e+00 3.361484050750732422e+00
1.283000000000000000e+03 4.369226837158203125e+01 -1.565889644622802734e+01 5.171757698059082031e+00 4.986776828765869141e+00 3.047560453414916992e+00 -2.328681349754333496e-01
1.284000000000000000e+03 4.356688690185546875e+01 -1.734475708007812500e+01 3.433859586715698242e+00 5.638064861297607422e+00 2.721577405929565430e+00 2.561984062194824219e+00
1.285000000000000000e+03 4.336956024169921875e+01 -1.774148368835449219e+01 2.284996986389160156e+00 5.454685688018798828e+00 2.321904897689819336e+00 2.237296342849731445e+00
1.286000000000000000e+03 4.521372222900390625e+01 -1.494716453552246094e+01 3.690246105194091797e+00 5.273098945617675781e+00 2.689003467559814453e+00 2.497344970703125000e+00
1.287000000000000000e+03 4.339658355712890625e+01 -1.649735641479492188e+01 5.522775650024414062e+00 4.361946105957031250e+00 2.965416431427001953e+00 1.222833037376403809e+00
1.288000000000000000e+03 4.426123809814453125e+01 -1.814588165283203125e+01 1.672351956367492676e-01 6.922130107879638672e+00 2.126809597015380859e+00 1.140295982360839844e+00
1.289000000000000000e+03 3.076557922363281250e+01 -1.717498183250427246e+00 -2.751457452774047852e+00 2.998747229576110840e-01 -7.354748249053955078e-01 -3.003095686435699463e-01
1.290000000000000000e+03 3.017084312438964844e+01 -1.767650723457336426e+00 -2.559299468994140625e+00 2.173648774623870850e-01 -7.025803327560424805e-01 -3.340767025947570801e-01
1.291000000000000000e+03 2.860556221008300781e+01 -1.912314176559448242e+00 -2.220369815826416016e+00 1.543176826089620590e-02 -6.614813804626464844e-01 -4.875966310501098633e-01
1.292000000000000000e+03 2.822362709045410156e+01 -1.997347235679626465e+00 -2.082023382186889648e+00 -3.575672954320907593e-02 -6.353340148925781250e-01 -5.203300118446350098e-01
1.293000000000000000e+03 2.997418594360351562e+01 -1.780885696411132812e+00 -2.519035816192626953e+00 1.959750056266784668e-01 -6.969182491302490234e-01 -3.483225703239440918e-01
1.294000000000000000e+03 2.936984062194824219e+01 -1.825206041336059570e+00 -2.376138687133789062e+00 1.116283684968948364e-01 -6.793531179428100586e-01 -4.166936874389648438e-01
1.295000000000000000e+03 2.884938049316406250e+01 -2.204821109771728516e+00 -2.095128536224365234e+00 6.528899818658828735e-02 -6.089518666267395020e-01 -5.304277539253234863e-01
1.296000000000000000e+03 2.926944541931152344e+01 -2.013376951217651367e+00 -2.285026073455810547e+00 1.117848232388496399e-01 -6.519723534584045410e-01 -4.594319462776184082e-01
1.297000000000000000e+03 2.699509620666503906e+01 -2.085263013839721680e+00 -1.748951196670532227e+00 -1.920204758644104004e-01 -5.822914838790893555e-01 -5.821053385734558105e-01
1.298000000000000000e+03 2.636822509765625000e+01 -2.206357002258300781e+00 -1.529098868370056152e+00 -2.150426506996154785e-01 -5.232424736022949219e-01 -6.648119091987609863e-01
1.299000000000000000e+03 3.096331214904785156e+01 -1.710263729095458984e+00 -2.797082424163818359e+00 3.170246481895446777e-01 -7.440173625946044922e-01 -2.929194867610931396e-01
1.300000000000000000e+03 2.977508735656738281e+01 -1.801777839660644531e+00 -2.467560768127441406e+00 1.690081954002380371e-01 -6.895657777786254883e-01 -3.832509219646453857e-01
1.301000000000000000e+03 2.758670806884765625e+01 -2.069586753845214844e+00 -1.906175494194030762e+00 -1.123382672667503357e-01 -6.055541038513183594e-01 -5.502648949623107910e-01
1.302000000000000000e+03 2.679929924011230469e+01 -2.111048221588134766e+00 -1.672186732292175293e+00 -2.068399935960769653e-01 -5.637080073356628418e-01 -5.990471243858337402e-01
1.303000000000000000e+03 2.591265487670898438e+01 -2.250083923339843750e+00 -1.411488413810729980e+00 -1.303737163543701172e-01 -4.625586271286010742e-01 -7.004356384277343750e-01
1.304000000000000000e+03 2.640742492675781250e+01 -2.600141525268554688e+00 -1.384431242942810059e+00 -1.874048560857772827e-01 -4.715508222579956055e-01 -7.421972751617431641e-01
1.305000000000000000e+03 4.393215560913085938e+01 -1.786645507812500000e+01 1.297150015830993652e+00 6.840711593627929688e+00 2.441358566284179688e+00 2.138167858123779297e+00
1.306000000000000000e+03 4.524283218383789062e+01 -1.955341148376464844e+01 -5.439489707350730896e-02 4.474198818206787109e+00 1.325941205024719238e+00 -3.051027059555053711e-01
1.307000000000000000e+03 4.526184463500976562e+01 -1.883116340637207031e+01 -2.841413915157318115e-01 4.457340717315673828e+00 1.251959681510925293e+00 -5.167351365089416504e-01
1.308000000000000000e+03 4.508411026000976562e+01 -1.874941253662109375e+01 -4.104468226432800293e-01 4.876049518585205078e+00 1.339680790901184082e+00 -4.751226603984832764e-01
1.309000000000000000e+03 4.458089447021484375e+01 -1.841649055480957031e+01 -3.207445740699768066e-01 6.365319252014160156e+00 1.813372492790222168e+00 2.713461816310882568e-01
1.310000000000000000e+03 4.492345428466796875e+01 -1.861610031127929688e+01 -4.808495938777923584e-01 5.435625553131103516e+00 1.486432790756225586e+00 -3.594434559345245361e-01
1.311000000000000000e+03 4.569264602661132812e+01 -1.937831306457519531e+01 4.225245490670204163e-02 3.901093721389770508e+00 1.183003902435302734e+00 -1.231078281998634338e-01
1.312000000000000000e+03 4.553512954711914062e+01 -1.905204772949218750e+01 -7.885694503784179688e-02 3.807403802871704102e+00 1.118564128875732422e+00 -4.538225829601287842e-01
1.313000000000000000e+03 3.503519439697265625e+01 -1.522069096565246582e+00 -2.695853471755981445e+00 4.444714784622192383e-01 -6.754145622253417969e-01 1.664838492870330811e-01
1.314000000000000000e+03 3.505146789550781250e+01 -1.260872721672058105e+00 -2.581411600112915039e+00 3.966864645481109619e-01 -6.554175615310668945e-01 -6.512498017400503159e-03
1.315000000000000000e+03 3.468016815185546875e+01 -1.343191146850585938e+00 -2.898103713989257812e+00 3.831841647624969482e-01 -7.544758915901184082e-01 5.194463208317756653e-02
1.316000000000000000e+03 3.300585174560546875e+01 1.823037028312683105e+00 5.937576643191277981e-04 7.410757098114117980e-05 2.003595727728679776e-04 -1.390137476846575737e-04
1.317000000000000000e+03 1.487377834320068359e+01 1.948804092407226562e+01 -5.523851141333580017e-04 3.358354326337575912e-03 8.417908102273941040e-04 6.789956241846084595e-04
1.318000000000000000e+03 1.469497013092041016e+01 1.863075447082519531e+01 -4.954496398568153381e-04 4.711547400802373886e-03 1.264829305000603199e-03 5.166208138689398766e-04
1.319000000000000000e+03 1.640012550354003906e+01 2.179545402526855469e+01 -2.495059557259082794e-02 3.533467533998191357e-04 -7.379174232482910156e-03 1.206587912747636437e-04
1.320000000000000000e+03 2.235832977294921875e+01 2.221972084045410156e+01 -1.292138248682022095e-01 -7.235156372189521790e-03 -4.093469679355621338e-02 2.068297564983367920e-02
1.321000000000000000e+03 1.534382915496826172e+01 1.075122261047363281e+01 5.695755680790171027e-05 3.136468876618891954e-04 1.111813326133415103e-04 4.460661511984653771e-05
1.322000000000000000e+03 2.048786354064941406e+01 2.260175514221191406e+01 -7.750468701124191284e-02 -1.867650571512058377e-04 -2.330743521451950073e-02 6.061399355530738831e-03
1.323000000000000000e+03 2.108195495605468750e+01 2.225211906433105469e+01 -9.825941920280456543e-02 -3.363866126164793968e-03 -3.048698604106903076e-02 -4.161294084042310715e-03
1.324000000000000000e+03 1.547476577758789062e+01 2.010398101806640625e+01 -3.273411653935909271e-03 -9.232990851160138845e-05 -1.009722473099827766e-03 -8.091503405012190342e-04
1.325000000000000000e+03 1.623670578002929688e+01 2.144553375244140625e+01 -2.062038332223892212e-02 1.373617909848690033e-03 -5.774029530584812164e-03 -2.205299679189920425e-03
1.326000000000000000e+03 1.578149414062500000e+01 2.089453315734863281e+01 -1.192064955830574036e-02 6.150664412416517735e-04 -3.391674952581524849e-03 -3.785446984693408012e-03
1.327000000000000000e+03 1.668470191955566406e+01 9.323911666870117188e+00 1.108655342250131071e-04 7.267352339113131166e-05 5.506171874003484845e-05 2.934880285465624183e-05
1.328000000000000000e+03 1.398763656616210938e+01 1.311936950683593750e+01 -1.194938231492415071e-04 5.858421209268271923e-04 1.399044995196163654e-04 3.465974295977503061e-04
1.329000000000000000e+03 1.836252784729003906e+01 2.158143997192382812e+01 -3.942136839032173157e-02 -2.931295428425073624e-03 -1.270579919219017029e-02 -8.806015364825725555e-03
1.330000000000000000e+03 1.466504001617431641e+01 1.578150749206542969e+01 2.310271083842962980e-04 2.248575212433934212e-03 7.438806933350861073e-04 1.617463713046163321e-04
1.331000000000000000e+03 1.469271469116210938e+01 1.537319755554199219e+01 -1.779198064468801022e-04 2.093304181471467018e-03 5.746153183281421661e-04 1.142948749475181103e-04
1.332000000000000000e+03 1.818443298339843750e+01 8.269771575927734375e+00 -5.317957766237668693e-05 -6.207748083397746086e-05 -3.457711864029988647e-05 -4.909757990390062332e-05
1.333000000000000000e+03 1.761654090881347656e+01 2.152457427978515625e+01 -3.143403679132461548e-02 -1.497103949077427387e-03 -9.879342280328273773e-03 -5.987920332700014114e-03
1.334000000000000000e+03 1.639778900146484375e+01 1.048088264465332031e+01 1.436966995242983103e-04 1.198182653752155602e-04 7.905449456302449107e-05 3.726885188370943069e-05
1.335000000000000000e+03 1.649737930297851562e+01 9.660948753356933594e+00 -1.075444888556376100e-04 2.955088530143257231e-05 -2.339808270335197449e-05 -6.329370080493390560e-05
1.336000000000000000e+03 1.495044326782226562e+01 1.380115222930908203e+01 -3.003321180585771799e-04 1.034826505929231644e-03 2.203483163611963391e-04 -1.819525932660326362e-04
1.337000000000000000e+03 2.023292732238769531e+01 6.339694499969482422e+00 1.501374117651721463e-05 4.113725663046352565e-05 1.684529888734687120e-05 3.452553937677294016e-05
1.338000000000000000e+03 2.032381439208984375e+01 2.210066986083984375e+01 -6.827703118324279785e-02 1.244725892320275307e-03 -2.010969072580337524e-02 -6.970442365854978561e-03
1.339000000000000000e+03 1.878085327148437500e+01 7.737895965576171875e+00 -4.698640259448438883e-05 -5.750581112806685269e-05 -3.134766302537173033e-05 -4.028667535749264061e-05
1.340000000000000000e+03 1.875790405273437500e+01 7.121191024780273438e+00 -3.968992677982896566e-05 -5.004875492886640131e-05 -2.692160342121496797e-05 -3.710896999109536409e-05
1.341000000000000000e+03 2.069657897949218750e+01 2.214106559753417969e+01 -8.289079368114471436e-02 -3.274925751611590385e-03 -2.584971673786640167e-02 -7.308923639357089996e-03
1.342000000000000000e+03 2.305170631408691406e+01 3.094590902328491211e+00 -2.012520781136117876e-06 -1.557454743306152523e-05 -5.276120646158233285e-06 -1.266744766326155514e-05
1.343000000000000000e+03 1.629591178894042969e+01 9.989771842956542969e+00 1.077291963156312704e-04 1.298933202633634210e-04 7.128675497369840741e-05 3.104478673776611686e-05
1.344000000000000000e+03 2.222759628295898438e+01 3.991842508316040039e+00 -1.524983508716104552e-05 -2.515364212740678340e-05 -1.212104325531981885e-05 -1.573050030856393278e-05
1.345000000000000000e+03 1.608579063415527344e+01 1.031184387207031250e+01 -1.054852982633747160e-04 5.695584695786237717e-05 -1.455883648304734379e-05 -8.961905405158177018e-05
1.346000000000000000e+03 1.586841297149658203e+01 1.063037300109863281e+01 1.055461470969021320e-04 2.261777262901887298e-04 9.951716492651030421e-05 3.170541094732470810e-05
1.347000000000000000e+03 2.169207954406738281e+01 3.222865581512451172e+00 -1.076697844837326556e-05 1.839173637563362718e-05 2.287427378178108484e-06 1.068897017830749974e-05
1.348000000000000000e+03 2.345703887939453125e+01 3.540585041046142578e+00 -2.306413807673379779e-05 -8.947022251959424466e-06 -9.603348189557436854e-06 -1.895871537271887064e-05
1.349000000000000000e+03 1.548749732971191406e+01 2.065132713317871094e+01 -9.657848626375198364e-03 5.919950199313461781e-04 -2.719755982980132103e-03 -2.135967370122671127e-03
1.350000000000000000e+03 1.470899963378906250e+01 1.821556472778320312e+01 7.086882251314818859e-04 4.287361633032560349e-03 1.498815021477639675e-03 1.573003537487238646e-04
1.351000000000000000e+03 1.501481723785400391e+01 1.340703392028808594e+01 2.898757811635732651e-04 8.286738884635269642e-04 3.355648950673639774e-04 -6.159122858662158251e-05
1.352000000000000000e+03 1.974912071228027344e+01 2.261306762695312500e+01 -6.418862938880920410e-02 1.114779734052717686e-03 -1.892215572297573090e-02 1.379396650008857250e-03
1.353000000000000000e+03 2.206914710998535156e+01 4.882788181304931641e+00 1.919092574098613113e-05 4.125413397559896111e-05 1.813351627788506448e-05 3.304197161924093962e-05
1.354000000000000000e+03 1.801515579223632812e+01 2.152997779846191406e+01 -3.431436792016029358e-02 1.895442255772650242e-05 -1.028862409293651581e-02 -7.214561570435762405e-03
1.355000000000000000e+03 1.848581695556640625e+01 8.005297660827636719e+00 3.855129762087017298e-05 5.408151628216728568e-05 2.778984344331547618e-05 5.332571163307875395e-05
1.356000000000000000e+03 1.517323780059814453e+01 1.256440067291259766e+01 2.718757023103535175e-04 5.714808357879519463e-04 2.530069614294916391e-04 1.810514004318974912e-05
1.357000000000000000e+03 1.467683315277099609e+01 1.740557479858398438e+01 6.353420321829617023e-04 3.326403442770242691e-03 1.188523601740598679e-03 2.389328437857329845e-04
1.358000000000000000e+03 1.935169219970703125e+01 7.174520015716552734e+00 -3.671427475637756288e-05 -5.268021050142124295e-05 -2.681834484974388033e-05 -3.384397132322192192e-05
1.359000000000000000e+03 2.084890747070312500e+01 5.806942939758300781e+00 4.627167072612792253e-06 3.069112062803469598e-05 1.059548594639636576e-05 1.673393308010417968e-05
1.360000000000000000e+03 1.453387165069580078e+01 1.339096164703369141e+01 -3.094891144428402185e-04 8.340192143805325031e-04 1.573590270709246397e-04 1.098626526072621346e-04
1.361000000000000000e+03 2.816312599182128906e+01 2.138749885559082031e+01 -1.621294170618057251e-01 -7.090047746896743774e-02 -6.990896910429000854e-02 8.144860714673995972e-02
1.362000000000000000e+03 2.926321601867675781e+01 1.997781562805175781e+01 -1.430054157972335815e-01 -1.441996097564697266e-01 -8.616150915622711182e-02 1.275358349084854126e-01
1.363000000000000000e+03 2.864340400695800781e+01 2.052984619140625000e+01 -2.130315601825714111e-01 -1.024988293647766113e-01 -9.465911239385604858e-02 1.287248283624649048e-01
1.364000000000000000e+03 2.789965820312500000e+01 2.091304206848144531e+01 -2.216986566781997681e-01 -4.962488263845443726e-02 -8.139705657958984375e-02 9.023486077785491943e-02
1.365000000000000000e+03 2.315932273864746094e+01 2.207889747619628906e+01 -1.250146478414535522e-01 -5.501261912286281586e-03 -3.915477544069290161e-02 2.514136396348476410e-02
1.366000000000000000e+03 2.324984550476074219e+01 2.260803031921386719e+01 -1.180226504802703857e-01 -8.778994902968406677e-03 -3.804049268364906311e-02 2.826639264822006226e-02
1.367000000000000000e+03 3.286791610717773438e+01 2.083185195922851562e+00 -5.041757249273359776e-04 -4.828249220736324787e-04 -2.961001882795244455e-04 3.994335129391402006e-04
1.368000000000000000e+03 3.033501052856445312e+01 1.923859596252441406e+01 -7.988959550857543945e-02 -9.201381355524063110e-02 -5.157102271914482117e-02 7.986132055521011353e-02
1.369000000000000000e+03 3.348244094848632812e+01 4.895737648010253906e+00 1.346637727692723274e-03 3.361440612934529781e-04 5.048345192335546017e-04 -2.170208754250779748e-04
1.370000000000000000e+03 3.347536849975585938e+01 4.501570701599121094e+00 -1.494694384746253490e-03 1.319644943578168750e-04 -4.088189743924885988e-04 -2.508122452127281576e-05
1.371000000000000000e+03 3.416167449951171875e+01 5.940901279449462891e+00 1.595682930201292038e-03 1.253689639270305634e-03 8.548117475584149361e-04 -1.312789507210254669e-03
1.372000000000000000e+03 3.077482986450195312e+01 1.852086639404296875e+01 -5.751228705048561096e-02 -7.992371916770935059e-02 -4.123080149292945862e-02 6.300884485244750977e-02
1.373000000000000000e+03 3.105387306213378906e+01 1.677178382873535156e+01 -1.420748978853225708e-02 -6.217259541153907776e-02 -2.291402593255043030e-02 3.106173872947692871e-02
1.374000000000000000e+03 3.231484985351562500e+01 1.424247074127197266e+01 -7.916700094938278198e-03 -1.456027850508689880e-02 -6.743093486875295639e-03 1.214414648711681366e-02
1.375000000000000000e+03 3.232471466064453125e+01 1.294653034210205078e+01 -2.198231406509876251e-03 -4.081599880009889603e-03 -1.883949385955929756e-03 2.957706339657306671e-03
1.376000000000000000e+03 3.389551925659179688e+01 4.803997516632080078e+00 -1.065423479303717613e-03 -9.701105591375380754e-05 -3.487303329166024923e-04 2.106244792230427265e-04
1.377000000000000000e+03 3.337133789062500000e+01 7.753428936004638672e+00 -6.782718119211494923e-04 2.265030751004815102e-03 4.760276351589709520e-04 -8.811668958514928818e-04
1.378000000000000000e+03 3.394636535644531250e+01 5.181483745574951172e+00 1.492289360612630844e-03 2.934509248007088900e-04 5.357220652513206005e-04 -6.916452548466622829e-04
1.379000000000000000e+03 3.349526596069335938e+01 5.688837051391601562e+00 1.438121544197201729e-03 4.542333481367677450e-04 5.677064764313399792e-04 -3.069169761147350073e-04
1.380000000000000000e+03 3.346772384643554688e+01 6.922135829925537109e+00 -1.209230278618633747e-03 1.174764940515160561e-03 -1.033959688356844708e-05 -5.694678984582424164e-04
1.381000000000000000e+03 2.356254005432128906e+01 2.201858520507812500e+01 -1.304727047681808472e-01 -5.442628171294927597e-03 -4.077459871768951416e-02 2.667969465255737305e-02
1.382000000000000000e+03 2.995978164672851562e+01 1.895473289489746094e+01 -5.766788870096206665e-02 -1.168897524476051331e-01 -5.236729234457015991e-02 8.143729716539382935e-02
1.383000000000000000e+03 3.096853828430175781e+01 1.918966293334960938e+01 -8.096712827682495117e-02 -6.296342611312866211e-02 -4.317916557192802429e-02 6.737790256738662720e-02
1.384000000000000000e+03 2.533995437622070312e+01 2.220162391662597656e+01 -1.396737247705459595e-01 -2.065531909465789795e-02 -4.809871315956115723e-02 4.529071971774101257e-02
1.385000000000000000e+03 2.569568824768066406e+01 2.203919029235839844e+01 -1.459731906652450562e-01 -2.100199460983276367e-02 -5.009255558252334595e-02 4.828370735049247742e-02
1.386000000000000000e+03 3.270993804931640625e+01 1.135230350494384766e+01 -1.213944749906659126e-03 3.201922401785850525e-03 5.963933072052896023e-04 9.597336611477658153e-05
1.387000000000000000e+03 3.055821990966796875e+01 1.888202095031738281e+01 -6.598218530416488647e-02 -8.592542260885238647e-02 -4.557228460907936096e-02 7.275204360485076904e-02
1.388000000000000000e+03 2.476522636413574219e+01 2.179254531860351562e+01 -1.503695547580718994e-01 -1.115120761096477509e-02 -4.845622926950454712e-02 3.609522804617881775e-02
1.389000000000000000e+03 3.327299499511718750e+01 8.583331108093261719e+00 -1.787701912689954042e-04 3.097133012488484383e-03 8.755088201723992825e-04 -1.012983149848878384e-03
1.390000000000000000e+03 3.158681869506835938e+01 1.523370838165283203e+01 -7.056121248751878738e-03 -2.893025614321231842e-02 -1.079591363668441772e-02 1.422053016722202301e-02
1.391000000000000000e+03 3.181535720825195312e+01 1.446088886260986328e+01 -5.462397821247577667e-03 -1.892087236046791077e-02 -7.314980961382389069e-03 9.286296553909778595e-03
1.392000000000000000e+03 3.205972671508789062e+01 1.370528507232666016e+01 -3.221000777557492256e-03 -1.019544340670108795e-02 -4.024933092296123505e-03 5.431724246591329575e-03
1.393000000000000000e+03 3.119080924987792969e+01 1.638845252990722656e+01 -1.327347103506326675e-02 -5.159872397780418396e-02 -1.946165971457958221e-02 2.408921904861927032e-02
1.394000000000000000e+03 3.132286643981933594e+01 1.600409889221191406e+01 -8.562535047531127930e-03 -4.216556996107101440e-02 -1.521843206137418747e-02 2.065294422209262848e-02
1.395000000000000000e+03 3.297552490234375000e+01 9.759194374084472656e+00 6.609292468056082726e-04 4.125276580452919006e-03 1.435861806385219097e-03 -6.806507590226829052e-04
1.396000000000000000e+03 3.305870819091796875e+01 9.371814727783203125e+00 -3.259928489569574594e-04 3.951641730964183807e-03 1.087694661691784859e-03 -1.036937464959919453e-03
1.397000000000000000e+03 3.388970184326171875e+01 4.095964908599853516e+00 -9.315368952229619026e-04 6.492084939964115620e-04 -8.469852036796510220e-05 -7.276581018231809139e-04
1.398000000000000000e+03 3.430021286010742188e+01 9.033962249755859375e+00 9.611648274585604668e-04 4.018041363451629877e-04 4.088906862307339907e-04 -1.245296094566583633e-03
1.399000000000000000e+03 3.166829299926757812e+01 1.661750602722167969e+01 -2.313218638300895691e-02 -4.408862069249153137e-02 -2.016624249517917633e-02 3.544817119836807251e-02
1.400000000000000000e+03 3.315562438964843750e+01 8.982420921325683594e+00 5.415088962763547897e-04 3.541121259331703186e-03 1.224789069965481758e-03 -7.726871408522129059e-04
1.401000000000000000e+03 3.279734802246093750e+01 1.095478820800781250e+01 1.944733048730995506e-05 3.799674334004521370e-03 1.145736547186970711e-03 -5.759888445027172565e-04
1.402000000000000000e+03 3.145504570007324219e+01 1.561972236633300781e+01 -8.633546531200408936e-03 -3.445691242814064026e-02 -1.292713824659585953e-02 1.702741160988807678e-02
1.403000000000000000e+03 3.248423004150390625e+01 1.390921783447265625e+01 -6.329823285341262817e-03 -1.085552759468555450e-02 -5.155605264008045197e-03 1.073468290269374847e-02
1.404000000000000000e+03 7.715856933593750000e+01 -1.453107547760009766e+01 -5.577753856778144836e-02 -1.457132864743471146e-02 -2.110465988516807556e-02 -4.652138054370880127e-02
1.405000000000000000e+03 7.766717529296875000e+01 -1.380607032775878906e+01 -5.818972736597061157e-02 -3.427475318312644958e-02 -2.773934416472911835e-02 -5.985068902373313904e-02
1.406000000000000000e+03 7.803218841552734375e+01 -1.243400096893310547e+01 -5.413578450679779053e-02 -1.021157503128051758e-01 -4.687546193599700928e-02 -9.601286053657531738e-02
1.407000000000000000e+03 7.777794647216796875e+01 -1.453333663940429688e+01 -3.643093630671501160e-02 -3.442798554897308350e-02 -2.125767618417739868e-02 -3.419674187898635864e-02
1.408000000000000000e+03 7.764680480957031250e+01 -1.928662872314453125e+01 1.604992430657148361e-04 -3.020967960765119642e-05 3.908686994691379368e-05 -3.323300625197589397e-04
1.409000000000000000e+03 7.837126159667968750e+01 -1.843061828613281250e+01 9.001698344945907593e-05 1.052267616614699364e-04 5.857312135049141943e-05 -2.977138792630285025e-04
1.410000000000000000e+03 7.948314666748046875e+01 -2.132403755187988281e+01 5.552516086027026176e-05 7.515652687288820744e-04 2.421271201455965638e-04 -1.410633558407425880e-04
1.411000000000000000e+03 2.189384651184082031e+01 4.337091445922851562e+00 1.503224666521418840e-05 2.589134055597241968e-05 1.227707616635598242e-05 1.160386273113545030e-05
1.412000000000000000e+03 4.030054855346679688e+01 -1.477787613868713379e+00 -1.527973771095275879e+00 -7.616319656372070312e-01 -6.868817210197448730e-01 1.099887967109680176e+00
1.413000000000000000e+03 3.999658203125000000e+01 -6.649256944656372070e-01 -8.946008682250976562e-01 -3.590270876884460449e-01 -3.760883808135986328e-01 7.190243005752563477e-01
1.414000000000000000e+03 3.862108230590820312e+01 -8.061893582344055176e-01 -1.546450376510620117e+00 1.481460779905319214e-01 -4.194912910461425781e-01 6.652476787567138672e-01
1.415000000000000000e+03 3.904185104370117188e+01 -1.691667675971984863e+00 -1.999210476875305176e+00 1.008174940943717957e-01 -5.695179104804992676e-01 9.919987916946411133e-01
1.416000000000000000e+03 6.869658660888671875e+01 -1.346841812133789062e+01 -7.552649378776550293e-01 1.006239280104637146e-01 -1.963922977447509766e-01 8.022493124008178711e-02
1.417000000000000000e+03 7.033662414550781250e+01 -1.376006412506103516e+01 -4.897475540637969971e-01 9.369467943906784058e-02 -1.188158690929412842e-01 -2.255243062973022461e-02
1.418000000000000000e+03 6.762940216064453125e+01 -1.474550437927246094e+01 -2.435022145509719849e-01 -1.638552397489547729e-01 -1.222072392702102661e-01 1.720085591077804565e-01
1.419000000000000000e+03 2.038946533203125000e+01 3.057138442993164062e+00 7.484222351195057854e-06 2.638807382027152926e-05 1.016168880596524104e-05 1.102280634768249001e-06
1.420000000000000000e+03 1.758226966857910156e+01 2.662343025207519531e+00 8.654437806399073452e-06 4.399329918669536710e-05 1.579432137077674270e-05 -4.319140316511038691e-06
1.421000000000000000e+03 1.908803939819335938e+01 2.242721557617187500e+00 -6.323698016785783693e-06 -3.671964077511802316e-05 -1.291300213779322803e-05 5.631386557070072740e-07
1.422000000000000000e+03 2.107153320312500000e+01 3.178009748458862305e+00 4.737221672712621512e-07 -2.354414573346730322e-05 -6.921126896486384794e-06 -3.913427462975960225e-06
1.423000000000000000e+03 1.963088607788085938e+01 6.215876579284667969e+00 1.911905746965203434e-05 4.368343070382252336e-05 1.884074663394130766e-05 3.621029100031591952e-05
1.424000000000000000e+03 7.072692108154296875e+01 -1.830197143554687500e+01 5.120582864037714899e-05 2.329638082301244140e-04 8.525088924216106534e-05 2.005067799473181367e-04
1.425000000000000000e+03 6.997132110595703125e+01 -1.830451202392578125e+01 2.998504787683486938e-04 -3.453242243267595768e-04 -1.364212585031054914e-05 4.451856948435306549e-04
1.426000000000000000e+03 7.064075469970703125e+01 -1.917382621765136719e+01 6.160432239994406700e-04 -1.694854290690273046e-04 1.339673326583579183e-04 5.300825578160583973e-04
1.427000000000000000e+03 7.026723480224609375e+01 -2.010609436035156250e+01 -5.823916289955377579e-04 -5.231424584053456783e-04 -3.316602378617972136e-04 3.835222378256730735e-05
1.428000000000000000e+03 1.766518592834472656e+01 2.078810214996337891e+00 -5.507825335371308029e-06 -4.084427928319200873e-05 -1.390563102177111432e-05 5.054020675743231550e-06
1.429000000000000000e+03 1.545101928710937500e+01 2.526005983352661133e+00 -3.062293444600072689e-06 -4.075008473591879010e-05 -1.314371365879196674e-05 2.097352080454584211e-05
1.430000000000000000e+03 1.829249572753906250e+01 2.736648082733154297e+00 -3.769170461964677088e-06 -3.657284833025187254e-05 -1.210260506923077628e-05 1.783863126547657885e-06
1.431000000000000000e+03 1.616495132446289062e+01 2.555615901947021484e+00 1.307348975387867540e-05 5.227423389442265034e-05 1.960431654879357666e-05 -4.869224540016148239e-06
1.432000000000000000e+03 3.612870788574218750e+01 3.693112373352050781e+00 1.045094250002875924e-04 7.195610669441521168e-04 2.472211490385234356e-04 -8.526151650585234165e-04
1.433000000000000000e+03 3.577283859252929688e+01 2.929859876632690430e+00 -3.585563390515744686e-04 6.176470196805894375e-04 7.772720709908753633e-05 -4.523599054664373398e-04
1.434000000000000000e+03 1.324130058288574219e+01 3.155082702636718750e+00 5.683542440237943083e-06 -4.138898293604142964e-05 -1.071163205779157579e-05 4.396672375150956213e-05
1.435000000000000000e+03 1.477849102020263672e+01 1.890839219093322754e+00 -1.468327354814391583e-06 -4.377050208859145641e-05 -1.357164910587016493e-05 2.063231659121811390e-05
1.436000000000000000e+03 1.180160236358642578e+01 2.516439437866210938e+00 4.257619366399012506e-05 4.331367745180614293e-05 2.576696169853676111e-05 -6.122549166320823133e-06
1.437000000000000000e+03 1.473025226593017578e+01 2.509999275207519531e+00 1.945823896676301956e-05 5.426125426311045885e-05 2.211584796896204352e-05 -3.588786057662218809e-06
1.438000000000000000e+03 7.435082244873046875e+01 -1.907142639160156250e+01 2.903622516896575689e-04 -1.113047619583085179e-04 5.371724182623438537e-05 -6.523957563331350684e-05
1.439000000000000000e+03 7.363574981689453125e+01 -1.910613441467285156e+01 2.637278157635591924e-05 -4.437925526872277260e-04 -1.252259389730170369e-04 2.308163857378531247e-05
1.440000000000000000e+03 7.504595947265625000e+01 -1.903020858764648438e+01 -2.590039548522327095e-05 -3.059306473005563021e-04 -9.954931738320738077e-05 -3.325247089378535748e-04
1.441000000000000000e+03 1.183723354339599609e+01 1.843636155128479004e+00 1.443524797650752589e-05 -4.257516047800891101e-05 -8.441973477602005005e-06 3.377193206688389182e-05
1.442000000000000000e+03 1.321777057647705078e+01 3.813158273696899414e+00 3.594313602661713958e-05 5.929526378167793155e-05 2.857151957869064063e-05 6.468502760981209576e-06
1.443000000000000000e+03 1.254088973999023438e+01 2.507638216018676758e+00 1.124274422181770205e-05 -4.358542355475947261e-05 -9.702804163680411875e-06 4.117589924135245383e-05
1.444000000000000000e+03 1.143337917327880859e+01 -3.294986963272094727e+00 3.908456861972808838e-02 -5.750463530421257019e-02 -5.526020191609859467e-03 2.498563379049301147e-02
1.445000000000000000e+03 1.131538677215576172e+01 -2.568499803543090820e+00 1.269458234310150146e-01 -3.370306268334388733e-02 2.797283045947551727e-02 3.446551412343978882e-02
1.446000000000000000e+03 1.283846855163574219e+01 -2.536439418792724609e+00 1.141323298215866089e-01 -4.818701744079589844e-02 1.978359371423721313e-02 -1.289598178118467331e-02
1.447000000000000000e+03 9.673810958862304688e+00 -1.866044402122497559e+00 2.029109001159667969e-01 -1.086185965687036514e-02 5.761471018195152283e-02 6.044363230466842651e-02
1.448000000000000000e+03 7.280225372314453125e+01 -1.442324352264404297e+01 -2.757599353790283203e-01 3.601064905524253845e-02 -7.192478328943252563e-02 -7.934017479419708252e-02
1.449000000000000000e+03 7.504207611083984375e+01 -1.383702373504638672e+01 -1.620692163705825806e-01 -2.068657428026199341e-02 -5.482673645019531250e-02 -1.197071000933647156e-01
1.450000000000000000e+03 7.575323486328125000e+01 -1.381177043914794922e+01 -1.401652246713638306e-01 -2.973986417055130005e-02 -5.097152665257453918e-02 -1.089310273528099060e-01
1.451000000000000000e+03 1.450757217407226562e+01 -3.228469133377075195e+00 -1.762129738926887512e-02 -1.090427190065383911e-01 -3.799920529127120972e-02 -1.107558980584144592e-01
1.452000000000000000e+03 1.360851860046386719e+01 -2.521841287612915039e+00 9.958171844482421875e-02 -5.854006856679916382e-02 1.231249514967203140e-02 -4.482142999768257141e-02
1.453000000000000000e+03 1.438430023193359375e+01 -2.505668163299560547e+00 7.762653380632400513e-02 -6.708105653524398804e-02 3.163642715662717819e-03 -7.836555689573287964e-02
1.454000000000000000e+03 1.593663978576660156e+01 -2.471086978912353516e+00 1.276308111846446991e-02 -8.524055033922195435e-02 -2.174323983490467072e-02 -1.575086861848831177e-01
1.455000000000000000e+03 6.582705974578857422e+00 2.523713827133178711e+00 1.801908001652918756e-05 -3.749173993128351867e-05 -5.841797701577888802e-06 1.658242399571463466e-05
1.456000000000000000e+03 7.312918663024902344e+00 1.838238477706909180e+00 2.178615068260114640e-05 -3.217174889869056642e-05 -3.115679191978415474e-06 1.855905793490819633e-05
1.457000000000000000e+03 5.099101066589355469e+00 2.559481859207153320e+00 2.849858447007136419e-06 -2.181414492952171713e-05 -5.689285899279639125e-06 1.751912532199639827e-05
1.458000000000000000e+03 8.820648193359375000e+00 2.524460792541503906e+00 6.902832683408632874e-05 2.318824590474832803e-05 2.766497163975145668e-05 -2.580811997177079320e-05
1.459000000000000000e+03 3.515660762786865234e+00 1.884913206100463867e+00 4.757587521453388035e-05 3.476301344562671147e-06 1.531565249024424702e-05 -2.445396421535406262e-05
1.460000000000000000e+03 2.586930990219116211e+00 3.680584907531738281e+00 -2.349267379031516612e-05 -2.840591514541301876e-05 -1.556957613502163440e-05 -6.046300768502987921e-05
1.461000000000000000e+03 5.838059902191162109e+00 2.536636829376220703e+00 6.346851296257227659e-05 2.070519076369237155e-05 2.525211129977833480e-05 -4.982631799066439271e-05
1.462000000000000000e+03 1.451480388641357422e+00 3.346431255340576172e+00 1.252759744829745614e-07 2.035218358287238516e-06 6.481483296738588251e-07 -1.529472865513525903e-05
1.463000000000000000e+03 1.032036781311035156e+01 2.526499271392822266e+00 5.845227133249863982e-05 3.238477438571862876e-05 2.725111335166729987e-05 -1.438122126273810863e-05
1.464000000000000000e+03 9.571908950805664062e+00 2.526467561721801758e+00 2.260811743326485157e-05 -4.540914960671216249e-05 -6.840309197286842391e-06 4.012274803244508803e-05
1.465000000000000000e+03 1.055189514160156250e+01 -2.587179899215698242e+00 1.260741800069808960e-01 -2.786000259220600128e-02 2.946425415575504303e-02 5.262513086199760437e-02
1.466000000000000000e+03 6.589336872100830078e+00 -1.882160186767578125e+00 1.329188197851181030e-01 -7.158801308833062649e-04 3.966088220477104187e-02 7.895466685295104980e-02
1.467000000000000000e+03 5.812687397003173828e+00 -1.889085769653320312e+00 1.121843829751014709e-01 2.490898361429572105e-03 3.440258279442787170e-02 7.897587865591049194e-02
1.468000000000000000e+03 7.585621356964111328e+00 -3.358940362930297852e+00 4.334643110632896423e-02 -1.185550447553396225e-02 9.447277523577213287e-03 9.533252567052841187e-02
1.469000000000000000e+03 4.312232494354248047e+00 -2.592466592788696289e+00 5.304476246237754822e-02 1.270968001335859299e-02 1.972633227705955505e-02 8.633437007665634155e-02
1.470000000000000000e+03 7.472852706909179688e+00 -2.623501777648925781e+00 9.868822246789932251e-02 -7.858231663703918457e-03 2.724899724125862122e-02 9.065885096788406372e-02
1.471000000000000000e+03 3.988091230392456055e+00 -3.147654771804809570e+00 3.341092541813850403e-02 2.135311812162399292e-02 1.642921194434165955e-02 9.115488827228546143e-02
1.472000000000000000e+03 8.246682167053222656e+00 -2.615198612213134766e+00 1.074351519346237183e-01 -1.096473261713981628e-02 2.894112654030323029e-02 8.519080281257629395e-02
1.473000000000000000e+03 6.692149639129638672e+00 -2.640979766845703125e+00 8.658874779939651489e-02 -1.355719519779086113e-03 2.556990832090377808e-02 9.447335451841354370e-02
1.474000000000000000e+03 3.648899793624877930e+00 -2.553321838378906250e+00 4.465092718601226807e-02 2.070124074816703796e-02 1.960564963519573212e-02 7.757952064275741577e-02
1.475000000000000000e+03 2.979152679443359375e+00 -2.728803396224975586e+00 3.237525746226310730e-02 2.567584812641143799e-02 1.741533167660236359e-02 7.156652957201004028e-02
1.476000000000000000e+03 4.113630056381225586e-01 -2.187856674194335938e+00 3.463889239355921745e-03 2.469305880367755890e-02 8.447084575891494751e-03 1.037522405385971069e-02
1.477000000000000000e+03 5.882671475410461426e-01 -5.048243522644042969e+00 -6.459677242673933506e-04 1.292455494403839111e-01 3.857987374067306519e-02 2.404786273837089539e-02
1.478000000000000000e+03 3.116050338745117188e+01 -1.685154676437377930e+00 -2.924461364746093750e+00 3.236391544342041016e-01 -7.802466750144958496e-01 -3.011667132377624512e-01
1.479000000000000000e+03 3.553232192993164062e+01 -2.565979242324829102e+00 -2.334533929824829102e+00 5.809119343757629395e-01 -5.260866284370422363e-01 3.810696005821228027e-01
1.480000000000000000e+03 3.304865264892578125e+01 -3.707206249237060547e+00 -1.697610259056091309e+00 2.722152471542358398e-01 -4.276185035705566406e-01 -1.028610616922378540e-01
1.481000000000000000e+03 3.577855300903320312e+01 -1.219321131706237793e+00 -2.341161251068115234e+00 3.592404723167419434e-01 -5.945762395858764648e-01 1.602697670459747314e-01
1.482000000000000000e+03 3.536988067626953125e+01 -1.698807716369628906e+00 -2.468929529190063477e+00 4.588227272033691406e-01 -6.030320525169372559e-01 2.228328138589859009e-01
1.483000000000000000e+03 1.828888511657714844e+01 -2.303577184677124023e+00 -1.302318423986434937e-01 -9.137859195470809937e-02 -6.648313254117965698e-02 -2.718146145343780518e-01
1.484000000000000000e+03 1.767938995361328125e+01 -3.160797357559204102e+00 -1.680446416139602661e-01 -1.384542435407638550e-01 -9.194966405630111694e-02 -3.056819438934326172e-01
1.485000000000000000e+03 1.672082519531250000e+01 -2.437598943710327148e+00 -2.777773141860961914e-02 -9.244126081466674805e-02 -3.606569766998291016e-02 -2.013230919837951660e-01
1.486000000000000000e+03 1.750851249694824219e+01 -2.383215188980102539e+00 -7.969345152378082275e-02 -9.366402775049209595e-02 -5.200724303722381592e-02 -2.388232946395874023e-01
1.487000000000000000e+03 7.121517181396484375e+01 -1.448071765899658203e+01 -3.415372967720031738e-01 5.271670222282409668e-02 -8.664618432521820068e-02 -2.628950960934162140e-02
1.488000000000000000e+03 7.197054290771484375e+01 -1.367272663116455078e+01 -4.030231833457946777e-01 7.927887141704559326e-02 -9.712329506874084473e-02 -1.097881644964218140e-01
1.489000000000000000e+03 7.114826965332031250e+01 -1.369460487365722656e+01 -4.499776661396026611e-01 1.001089662313461304e-01 -1.049606055021286011e-01 -2.827839367091655731e-02
1.490000000000000000e+03 7.357415771484375000e+01 -1.372974109649658203e+01 -2.775342762470245361e-01 2.510546892881393433e-02 -7.572863996028900146e-02 -1.332600265741348267e-01
1.491000000000000000e+03 2.196626663208007812e+01 -8.748555183410644531e-01 -4.201989769935607910e-01 3.862117603421211243e-02 -1.144733354449272156e-01 -1.839749515056610107e-01
1.492000000000000000e+03 2.207932472229003906e+01 -1.439105868339538574e+00 -4.984919130802154541e-01 2.888930588960647583e-02 -1.408807784318923950e-01 -2.830526530742645264e-01
1.493000000000000000e+03 2.359943580627441406e+01 -1.062862753868103027e+00 -7.731075882911682129e-01 1.126760393381118774e-01 -1.981294751167297363e-01 -2.297786921262741089e-01
1.494000000000000000e+03 1.983388519287109375e+01 -2.053678274154663086e+00 -2.569711804389953613e-01 -6.546259671449661255e-02 -9.673013538122177124e-02 -3.083366155624389648e-01
1.495000000000000000e+03 2.059870529174804688e+01 -1.882198691368103027e+00 -3.369901180267333984e-01 -3.981401771306991577e-02 -1.130412369966506958e-01 -3.130951225757598877e-01
1.496000000000000000e+03 2.679767036437988281e+01 -2.658380746841430664e+00 -1.439841985702514648e+00 -1.672942042350769043e-01 -4.821408689022064209e-01 -7.296140193939208984e-01
1.497000000000000000e+03 6.977151489257812500e+01 -2.121398162841796875e+01 1.412002748111262918e-04 1.619366812519729137e-04 9.094108827412128448e-05 4.630772309610620141e-05
1.498000000000000000e+03 6.867704010009765625e+01 -2.060682868957519531e+01 -7.688556215725839138e-04 6.474971305578947067e-04 -3.640755312517285347e-05 9.123462368734180927e-04
1.499000000000000000e+03 3.702291107177734375e+01 3.441802978515625000e+00 1.438866893295198679e-04 7.810144452378153801e-04 2.774703316390514374e-04 -2.442959230393171310e-04
1.500000000000000000e+03 2.326720428466796875e+01 -2.457971096038818359e+00 -8.317478299140930176e-01 5.458223447203636169e-02 -2.331496775150299072e-01 -5.377296209335327148e-01
1.501000000000000000e+03 2.430737876892089844e+01 -2.918124198913574219e+00 -9.208302497863769531e-01 -9.693233296275138855e-03 -2.791570425033569336e-01 -7.221439480781555176e-01
1.502000000000000000e+03 4.788034820556640625e+01 -1.591144752502441406e+01 4.643645286560058594e+00 3.394393622875213623e-01 1.494925498962402344e+00 1.300323128700256348e+00
1.503000000000000000e+03 5.041030120849609375e+01 -1.434201812744140625e+01 3.187848806381225586e+00 4.824276566505432129e-01 1.101082921028137207e+00 1.506415963172912598e+00
1.504000000000000000e+03 5.843506622314453125e+01 -1.310000228881835938e+01 -6.203978061676025391e-01 3.236487209796905518e-01 -8.902473747730255127e-02 2.754744291305541992e-01
1.505000000000000000e+03 6.815637207031250000e+01 -1.291361522674560547e+01 -8.734815716743469238e-01 1.160762682557106018e-01 -2.272215783596038818e-01 1.433486342430114746e-01
1.506000000000000000e+03 5.989958572387695312e+01 -1.387249088287353516e+01 -8.251549005508422852e-01 8.133139461278915405e-02 -2.231470495462417603e-01 -1.841903775930404663e-01
1.507000000000000000e+03 5.476183319091796875e+01 -1.458058738708496094e+01 9.580780863761901855e-01 1.563666313886642456e-01 3.343334197998046875e-01 4.751259386539459229e-01
1.508000000000000000e+03 5.229711151123046875e+01 -1.278882408142089844e+01 1.230653285980224609e+00 5.469920039176940918e-01 5.332935452461242676e-01 1.692208766937255859e+00
1.509000000000000000e+03 5.608632278442382812e+01 -1.329041194915771484e+01 1.138444021344184875e-01 3.366130888462066650e-01 1.351372450590133667e-01 7.786040306091308594e-01
1.510000000000000000e+03 5.350593948364257812e+01 -1.322049617767333984e+01 1.047710537910461426e+00 4.784173667430877686e-01 4.578383862972259521e-01 1.378319501876831055e+00
1.511000000000000000e+03 7.826824951171875000e+01 -1.935410690307617188e+01 1.161270920420065522e-04 1.419400214217603207e-04 7.742013258393853903e-05 -2.707118110265582800e-04
1.512000000000000000e+03 7.840251922607421875e+01 -3.080634117126464844e+01 -5.828915163874626160e-04 -6.503930315375328064e-03 -2.126046689227223396e-03 3.590411972254514694e-03
1.513000000000000000e+03 7.942279815673828125e+01 -2.953973960876464844e+01 1.455360052204923704e-05 -3.740983549505472183e-03 -1.117929001338779926e-03 1.035397290252149105e-03
1.514000000000000000e+03 7.943346405029296875e+01 -2.409364128112792969e+01 7.885604281909763813e-05 9.118702146224677563e-04 2.972178626805543900e-04 4.965787593391723931e-05
1.515000000000000000e+03 7.933445739746093750e+01 -3.615053939819335938e+01 7.467800605809316039e-05 -2.020877227187156677e-02 -6.040228065103292465e-03 1.473545096814632416e-03
1.516000000000000000e+03 7.945863342285156250e+01 -3.352319717407226562e+01 5.439974484033882618e-05 -1.336224284023046494e-02 -3.992353100329637527e-03 1.402804977260529995e-03
1.517000000000000000e+03 7.836044311523437500e+01 -3.324462127685546875e+01 -1.247607142431661487e-04 -1.213217340409755707e-02 -3.677080152556300163e-03 4.223174881190061569e-03
1.518000000000000000e+03 7.830918884277343750e+01 -2.403627204895019531e+01 -3.531683469191193581e-04 1.474061864428222179e-04 -6.172864959808066487e-05 2.731738495640456676e-04
1.519000000000000000e+03 7.812969207763671875e+01 -2.821325874328613281e+01 -5.433128098957240582e-04 -2.912819851189851761e-03 -1.036839792504906654e-03 2.360949991270899773e-03
1.520000000000000000e+03 7.665310668945312500e+01 -3.599484634399414062e+01 1.411026576533913612e-03 -1.667568273842334747e-02 -4.579396918416023254e-03 8.102599531412124634e-03
1.521000000000000000e+03 7.630793762207031250e+01 -3.889167785644531250e+01 1.476059551350772381e-03 -2.048349753022193909e-02 -5.702231545001268387e-03 5.601626355201005936e-03
1.522000000000000000e+03 4.341398239135742188e+01 -2.475804710388183594e+01 3.928778767585754395e-01 2.876568794250488281e+00 9.808340072631835938e-01 3.227586746215820312e-01
1.523000000000000000e+03 2.935248947143554688e+01 -6.846316814422607422e+00 2.190583199262619019e-01 5.194298028945922852e-01 2.215464413166046143e-01 -1.011292934417724609e+00
1.524000000000000000e+03 3.031357574462890625e+01 -8.293825149536132812e+00 2.509317874908447266e+00 7.984108924865722656e-01 9.923186302185058594e-01 -1.153266191482543945e+00
1.525000000000000000e+03 3.973717117309570312e+01 1.100344181060791016e+01 -1.071050018072128296e-02 -5.469784373417496681e-04 -3.377243643626570702e-03 -2.399345394223928452e-03
1.526000000000000000e+03 4.770228958129882812e+01 -2.817530441284179688e+01 3.699828684329986572e-01 9.858850836753845215e-01 4.067603945732116699e-01 -5.789699554443359375e-01
1.527000000000000000e+03 5.004989624023437500e+01 -2.988574981689453125e+01 -1.224604528397321701e-02 2.088228762149810791e-01 5.897304788231849670e-02 -1.637325733900070190e-01
1.528000000000000000e+03 5.609105300903320312e+01 -3.301482772827148438e+01 -5.997652560472488403e-02 -3.546779742464423180e-03 -1.905699074268341064e-02 3.179656714200973511e-02
1.529000000000000000e+03 5.090618133544921875e+01 -3.211557769775390625e+01 -2.231890335679054260e-02 2.852748036384582520e-01 7.888676971197128296e-02 -2.115315943956375122e-01
1.530000000000000000e+03 4.258914184570312500e+01 1.378040122985839844e+01 -4.747787117958068848e-02 -1.813923753798007965e-02 -1.968513242900371552e-02 -2.401596680283546448e-02
1.531000000000000000e+03 4.120446395874023438e+01 1.413937282562255859e+01 -5.016738176345825195e-02 9.843158535659313202e-03 -1.209726650267839432e-02 -1.597007922828197479e-02
1.532000000000000000e+03 3.720678710937500000e+01 7.578018665313720703e+00 -5.708818789571523666e-04 -1.894253888167440891e-03 -7.395407301373779774e-04 1.438353938283398747e-04
1.533000000000000000e+03 4.669928741455078125e+01 2.159036445617675781e+01 -6.048449873924255371e-02 2.366846613585948944e-02 -1.104481052607297897e-02 -2.187496982514858246e-02
1.534000000000000000e+03 6.767671203613281250e+01 -2.529545593261718750e+01 -9.223153814673423767e-03 6.764321587979793549e-04 -2.564016496762633324e-03 -1.460035447962582111e-03
1.535000000000000000e+03 6.755654144287109375e+01 -2.319843292236328125e+01 -1.997043145820498466e-03 -7.540661317761987448e-05 -6.217348854988813400e-04 -5.370911821955814958e-05
1.536000000000000000e+03 4.794126892089843750e+01 -3.053738784790039062e+01 -3.081108070909976959e-02 9.278406500816345215e-01 2.691088616847991943e-01 -3.671728670597076416e-01
1.537000000000000000e+03 5.136523818969726562e+01 2.234389114379882812e+01 7.030633091926574707e-02 -8.248859085142612457e-03 1.861724071204662323e-02 -1.289186030626296997e-01
1.538000000000000000e+03 4.435470962524414062e+01 1.764991378784179688e+01 -1.119285374879837036e-01 1.265818532556295395e-02 -2.978110499680042267e-02 -4.031091555953025818e-02
1.539000000000000000e+03 3.904875183105468750e+01 1.000345516204833984e+01 -1.110367360524833202e-03 1.403187052346765995e-03 8.784590318100526929e-05 -1.925725489854812622e-03
1.540000000000000000e+03 4.874058532714843750e+01 2.102100372314453125e+01 -1.038666665554046631e-01 -9.250843897461891174e-03 -3.393525257706642151e-02 -6.009448319673538208e-02
1.541000000000000000e+03 4.644360351562500000e+01 1.926084899902343750e+01 -1.387988179922103882e-01 -1.575694535858929157e-03 -4.211235418915748596e-02 -5.282209813594818115e-02
1.542000000000000000e+03 4.538550567626953125e+01 1.840382766723632812e+01 -1.336220949888229370e-01 -8.270927704870700836e-03 -4.256790876388549805e-02 -3.928368538618087769e-02
1.543000000000000000e+03 6.058474349975585938e+01 -3.371119308471679688e+01 -4.288448020815849304e-02 -7.202756241895258427e-04 -1.308142673224210739e-02 5.052845552563667297e-02
1.544000000000000000e+03 6.096086502075195312e+01 -3.123433303833007812e+01 -9.188931435346603394e-02 2.534695435315370560e-03 -2.680638618767261505e-02 1.952452957630157471e-02
1.545000000000000000e+03 5.787439727783203125e+01 -3.280775070190429688e+01 -7.565670460462570190e-02 -9.101169183850288391e-03 -2.542736195027828217e-02 4.187984764575958252e-02
1.546000000000000000e+03 5.954776382446289062e+01 -3.202091598510742188e+01 -9.553971886634826660e-02 1.075627980753779411e-03 -2.833922766149044037e-02 3.098604083061218262e-02
1.547000000000000000e+03 4.571252822875976562e+01 -2.823723602294921875e+01 2.741174958646297455e-02 1.961303234100341797e+00 5.966145396232604980e-01 -2.766508162021636963e-01
1.548000000000000000e+03 5.435974502563476562e+01 -3.301538085937500000e+01 -3.828116878867149353e-02 4.783134534955024719e-02 2.865052549168467522e-03 -1.468537002801895142e-02
1.549000000000000000e+03 6.463672637939453125e+01 -2.861971282958984375e+01 -4.166700690984725952e-02 5.794870201498270035e-03 -1.076164096593856812e-02 -3.173207864165306091e-03
1.550000000000000000e+03 4.569284820556640625e+01 -2.008399391174316406e+01 2.592992037534713745e-02 4.166371822357177734e+00 1.257690429687500000e+00 -9.172187000513076782e-02
1.551000000000000000e+03 7.081601715087890625e+01 -2.167357635498046875e+01 -4.524995747487992048e-04 -3.312447515781968832e-04 -2.351232978980988264e-04 -1.124053778767120093e-05
1.552000000000000000e+03 6.672229766845703125e+01 -2.648657417297363281e+01 -1.578965038061141968e-02 2.405605977401137352e-03 -4.015213344246149063e-03 -3.491207025945186615e-03
1.553000000000000000e+03 4.559481430053710938e+01 -2.128439521789550781e+01 -8.177294582128524780e-02 4.367985725402832031e+00 1.285863757133483887e+00 2.023306861519813538e-02
1.554000000000000000e+03 4.365856552124023438e+01 -2.294754409790039062e+01 2.396652400493621826e-01 3.591264009475708008e+00 1.149278759956359863e+00 2.469970285892486572e-01
1.555000000000000000e+03 4.419030380249023438e+01 -2.085234260559082031e+01 -1.612819172441959381e-02 4.395171642303466797e+00 1.313712954521179199e+00 8.042850345373153687e-02
1.556000000000000000e+03 1.802779960632324219e+01 -1.177039241790771484e+01 -2.020136117935180664e+00 -6.530097126960754395e-01 -8.019437193870544434e-01 -9.318662881851196289e-01
1.557000000000000000e+03 6.231242752075195312e+01 2.494604110717773438e+01 -2.476415038108825684e-02 2.819733142852783203e+00 8.384907245635986328e-01 -4.388859868049621582e-01
1.558000000000000000e+03 2.961235427856445312e+01 -7.640288829803466797e+00 1.424193501472473145e+00 5.639892816543579102e-01 5.964548587799072266e-01 -8.474063277244567871e-01
1.559000000000000000e+03 3.711594390869140625e+01 -2.456849861145019531e+01 6.554472446441650391e-01 1.021559953689575195e+00 5.031021833419799805e-01 9.633554816246032715e-01
1.560000000000000000e+03 2.594993972778320312e+01 -3.009791946411132812e+01 1.089275360107421875e+00 1.041359230875968933e-01 3.580233752727508545e-01 -2.541433833539485931e-02
1.561000000000000000e+03 1.431774616241455078e+01 -1.231771850585937500e+01 -1.010683298110961914e+00 -7.887794971466064453e-01 -5.398388504981994629e-01 -5.216365456581115723e-01
1.562000000000000000e+03 2.188179397583007812e+01 -9.696289062500000000e+00 -8.595439195632934570e-01 -1.481536775827407837e-01 -3.023092746734619141e-01 -5.210126638412475586e-01
1.563000000000000000e+03 3.355715560913085938e+01 -1.081734943389892578e+01 1.572521448135375977e+00 1.893511295318603516e+00 1.039809823036193848e+00 -1.611982583999633789e+00
1.564000000000000000e+03 3.540928649902343750e+01 -1.162773132324218750e+01 1.294867277145385742e+00 5.165170431137084961e-01 5.434152483940124512e-01 -1.311600685119628906e+00
1.565000000000000000e+03 1.818472862243652344e+01 -9.669584274291992188e+00 -9.381168484687805176e-01 -6.524822115898132324e-01 -4.771797060966491699e-01 -6.881728768348693848e-01
1.566000000000000000e+03 1.644376754760742188e+01 -1.114297962188720703e+01 -1.220985412597656250e+00 -8.595612645149230957e-01 -6.241640448570251465e-01 -5.495359301567077637e-01
1.567000000000000000e+03 2.782984352111816406e+01 -3.237900543212890625e+01 7.752425074577331543e-01 4.796244800090789795e-01 3.764601051807403564e-01 1.189398840069770813e-01
1.568000000000000000e+03 3.658394622802734375e+01 -2.057905960083007812e+01 1.304103285074234009e-01 1.006672680377960205e-01 6.932327896356582642e-02 7.173988819122314453e-01
1.569000000000000000e+03 2.605617332458496094e+01 -7.902627944946289062e+00 -7.098520547151565552e-02 -3.443270921707153320e-01 -1.245936900377273560e-01 -5.717602372169494629e-01
1.570000000000000000e+03 2.680443191528320312e+01 -8.715559005737304688e+00 -1.823508739471435547e-01 -2.277816832065582275e-01 -1.230397671461105347e-01 -3.130476474761962891e-01
1.571000000000000000e+03 2.129951667785644531e+01 -3.102458190917968750e+01 7.109591364860534668e-01 5.337052941322326660e-01 3.733993172645568848e-01 -3.382150530815124512e-01
1.572000000000000000e+03 2.243034172058105469e+01 -3.188065528869628906e+01 7.356402277946472168e-01 5.493596196174621582e-01 3.854999542236328125e-01 -3.112829625606536865e-01
1.573000000000000000e+03 2.065951347351074219e+01 -9.929124832153320312e+00 -1.085812807083129883e+00 -2.299686819314956665e-01 -3.947344422340393066e-01 -6.330435276031494141e-01
1.574000000000000000e+03 3.674676895141601562e+01 -1.360762882232666016e+01 9.927629232406616211e-01 1.110808476805686951e-01 3.311531245708465576e-01 -1.320683002471923828e+00
1.575000000000000000e+03 3.349080657958984375e+01 -8.984631538391113281e+00 1.236937761306762695e+00 1.251279711723327637e+00 7.464652657508850098e-01 -1.000553369522094727e+00
1.576000000000000000e+03 3.553379058837890625e+01 -1.778090858459472656e+01 3.489749133586883545e-02 -1.629957556724548340e+00 -4.785180389881134033e-01 1.181705594062805176e-01
1.577000000000000000e+03 3.661414718627929688e+01 -1.632221794128417969e+01 4.251601994037628174e-01 -3.343506753444671631e-01 2.724285237491130829e-02 -3.307783901691436768e-01
1.578000000000000000e+03 2.080830764770507812e+01 -1.123122787475585938e+01 -1.155203580856323242e+00 -6.070455163717269897e-02 -3.647724390029907227e-01 -3.658168315887451172e-01
1.579000000000000000e+03 3.291226577758789062e+01 -8.098924636840820312e+00 1.000921607017517090e+00 1.166245818138122559e+00 6.501502394676208496e-01 -7.753471136093139648e-01
1.580000000000000000e+03 3.322157669067382812e+01 -2.845513916015625000e+01 7.803650498390197754e-01 8.919401764869689941e-01 5.016915798187255859e-01 6.839751601219177246e-01
1.581000000000000000e+03 3.133037757873535156e+01 -2.813340759277343750e+01 9.910185337066650391e-01 7.971329689025878906e-01 5.364454388618469238e-01 7.779958248138427734e-01
1.582000000000000000e+03 3.659193038940429688e+01 -1.922830963134765625e+01 1.332304626703262329e-01 -2.512864768505096436e-01 -3.541680797934532166e-02 5.095396637916564941e-01
1.583000000000000000e+03 1.422011661529541016e+01 -2.319793701171875000e+01 5.699977874755859375e-01 3.164328634738922119e-01 2.659291923046112061e-01 -4.780655801296234131e-01
1.584000000000000000e+03 1.495859718322753906e+01 -2.455053138732910156e+01 5.966017842292785645e-01 4.473504126071929932e-01 3.131856620311737061e-01 -5.229600071907043457e-01
1.585000000000000000e+03 1.900797653198242188e+01 -2.911123085021972656e+01 7.282974123954772949e-01 5.377590656280517578e-01 3.798169493675231934e-01 -5.074501633644104004e-01
1.586000000000000000e+03 1.591131019592285156e+01 -2.576859092712402344e+01 6.396669149398803711e-01 5.099462866783142090e-01 3.448839485645294189e-01 -5.238801240921020508e-01
1.587000000000000000e+03 2.517201423645019531e+01 -8.488391876220703125e+00 -3.507697880268096924e-01 -2.719142735004425049e-01 -1.868052184581756592e-01 -4.529212415218353271e-01
1.588000000000000000e+03 3.755998229980468750e+01 -1.492775917053222656e+01 1.062028884887695312e+00 1.994462907314300537e-01 3.784425556659698486e-01 -1.019762873649597168e+00
1.589000000000000000e+03 2.488291549682617188e+01 -3.204549407958984375e+01 7.863865494728088379e-01 4.128877222537994385e-01 3.597822785377502441e-01 -2.250119298696517944e-01
1.590000000000000000e+03 3.662816619873046875e+01 -2.190582847595214844e+01 3.359917700290679932e-01 5.437725186347961426e-01 2.639292776584625244e-01 9.502858519554138184e-01
1.591000000000000000e+03 1.689288330078125000e+01 -2.691941261291503906e+01 6.350278258323669434e-01 5.505432486534118652e-01 3.556713163852691650e-01 -5.317391753196716309e-01
1.592000000000000000e+03 1.463187980651855469e+01 -2.698439216613769531e+01 5.192181468009948730e-01 2.619007527828216553e-01 2.343356758356094360e-01 -4.023770391941070557e-01
1.593000000000000000e+03 7.927671051025390625e+01 3.753302001953125000e+01 1.012699678540229797e-02 -8.239846229553222656e-01 -2.441572993993759155e-01 5.635543912649154663e-02
1.594000000000000000e+03 7.730913543701171875e+01 3.467589187622070312e+01 -5.392385274171829224e-02 -8.180291652679443359e-01 -2.615858912467956543e-01 2.422483414411544800e-01
1.595000000000000000e+03 7.921376800537109375e+01 3.051603889465332031e+01 -7.320350268855690956e-04 -1.613161325454711914e+00 -4.841679930686950684e-01 1.296719759702682495e-01
1.596000000000000000e+03 7.782983398437500000e+01 2.756391716003417969e+01 -1.621138118207454681e-02 -1.706297159194946289e+00 -5.167525410652160645e-01 3.614787757396697998e-01
1.597000000000000000e+03 7.821482086181640625e+01 -9.922801971435546875e+00 -3.923001885414123535e-02 -2.781757712364196777e-01 -9.522174298763275146e-02 -1.788310408592224121e-01
1.598000000000000000e+03 7.820537567138671875e+01 -8.570750236511230469e+00 -3.411458805203437805e-02 -4.158430397510528564e-01 -1.349872946739196777e-01 -2.366500496864318848e-01
1.599000000000000000e+03 7.940621185302734375e+01 -7.257145404815673828e+00 -1.001480873674154282e-02 -6.274275183677673340e-01 -1.912327110767364502e-01 -9.644051641225814819e-02
1.600000000000000000e+03 7.936757659912109375e+01 5.317300319671630859e+00 2.380544086918234825e-03 -3.252215147018432617e+00 -9.749503731727600098e-01 -1.006239950656890869e-01
1.601000000000000000e+03 7.936365509033203125e+01 1.233492088317871094e+01 1.645467057824134827e-02 -4.038475990295410156e+00 -1.206606388092041016e+00 -8.919216692447662354e-03
1.602000000000000000e+03 7.807305908203125000e+01 1.229566764831542969e+01 4.323362931609153748e-02 -3.212529897689819336e+00 -9.507888555526733398e-01 -5.514116957783699036e-02
1.603000000000000000e+03 7.937207794189453125e+01 1.373258399963378906e+01 2.466302539687603712e-04 -4.063954353332519531e+00 -1.219112277030944824e+00 8.577906526625156403e-03
1.604000000000000000e+03 7.937233734130859375e+01 1.932209205627441406e+01 4.256083630025386810e-03 -3.658910036087036133e+00 -1.096396207809448242e+00 9.562943130731582642e-02
1.605000000000000000e+03 7.933696746826171875e+01 2.350988197326660156e+01 5.826713051646947861e-03 -2.936234951019287109e+00 -8.791224360466003418e-01 1.323671489953994751e-01
1.606000000000000000e+03 7.932215881347656250e+01 2.490927314758300781e+01 -3.098710905760526657e-03 -2.661785364151000977e+00 -7.994651794433593750e-01 1.345012187957763672e-01
1.607000000000000000e+03 7.930171203613281250e+01 2.631251144409179688e+01 7.039810530841350555e-03 -2.385183811187744141e+00 -7.134432196617126465e-01 1.397360712289810181e-01
1.608000000000000000e+03 7.915277862548828125e+01 3.193058204650878906e+01 -1.132554560899734497e-02 -1.402142643928527832e+00 -4.240404367446899414e-01 1.186705008149147034e-01
1.609000000000000000e+03 7.913311004638671875e+01 3.334651565551757812e+01 -2.654867945238947868e-03 -1.221775293350219727e+00 -3.673290312290191650e-01 1.079809740185737610e-01
1.610000000000000000e+03 7.918408203125000000e+01 3.874596023559570312e+01 -1.183501724153757095e-02 -7.057415843009948730e-01 -2.152729779481887817e-01 5.045884102582931519e-02
1.611000000000000000e+03 7.818484497070312500e+01 -1.735948681831359863e+00 1.183760352432727814e-03 -1.488564968109130859e+00 -4.462143480777740479e-01 -3.787680566310882568e-01
1.612000000000000000e+03 7.938228607177734375e+01 1.112168908119201660e+00 2.238450571894645691e-03 -2.412511825561523438e+00 -7.230820059776306152e-01 -1.222597211599349976e-01
1.613000000000000000e+03 7.935849761962890625e+01 8.128482818603515625e+00 4.430125467479228973e-03 -3.689068794250488281e+00 -1.105391621589660645e+00 -6.929761171340942383e-02
1.614000000000000000e+03 7.809107208251953125e+01 1.922399330139160156e+01 4.729945585131645203e-02 -2.940276384353637695e+00 -8.678930401802062988e-01 2.335685342550277710e-01
1.615000000000000000e+03 7.936105346679687500e+01 2.071753883361816406e+01 7.466174662113189697e-03 -3.443740606307983398e+00 -1.030882358551025391e+00 1.092501208186149597e-01
1.616000000000000000e+03 7.811759185791015625e+01 1.506831741333007812e+01 4.127325862646102905e-02 -3.228449821472167969e+00 -9.561529755592346191e-01 7.041481137275695801e-02
1.617000000000000000e+03 7.938096618652343750e+01 1.652833938598632812e+01 -4.392561502754688263e-03 -3.957500696182250977e+00 -1.188567996025085449e+00 5.367096140980720520e-02
1.618000000000000000e+03 7.807524108886718750e+01 8.078946113586425781e+00 4.762246087193489075e-02 -2.939562559127807617e+00 -8.675820231437683105e-01 -2.211371511220932007e-01
1.619000000000000000e+03 7.935538482666015625e+01 9.534536361694335938e+00 1.357437949627637863e-02 -3.849060535430908203e+00 -1.150645852088928223e+00 -4.971312358975410461e-02
1.620000000000000000e+03 7.813700866699218750e+01 1.046938538551330566e+00 1.379275415092706680e-02 -1.972172021865844727e+00 -5.875138044357299805e-01 -3.729996681213378906e-01
1.621000000000000000e+03 7.937567138671875000e+01 2.512295961380004883e+00 4.044340457767248154e-03 -2.709710597991943359e+00 -8.116998672485351562e-01 -1.169284209609031677e-01
1.622000000000000000e+03 7.819705200195312500e+01 -5.862914085388183594e+00 -2.054847963154315948e-02 -7.879096865653991699e-01 -2.425374537706375122e-01 -3.201055526733398438e-01
1.623000000000000000e+03 7.940105438232421875e+01 -4.479387760162353516e+00 -6.312773562967777252e-03 -1.162838935852050781e+00 -3.507454991340637207e-01 -1.195312887430191040e-01
1.624000000000000000e+03 7.772029876708984375e+01 -1.316728782653808594e+01 -5.003486946225166321e-02 -5.688780918717384338e-02 -3.207680210471153259e-02 -7.743268460035324097e-02
1.625000000000000000e+03 7.952936553955078125e+01 -1.293110370635986328e+01 -6.841140799224376678e-03 -3.586669266223907471e-02 -1.281234994530677795e-02 -2.082508243620395660e-02
1.626000000000000000e+03 5.054617691040039062e+01 -5.443910121917724609e+00 -3.965679883956909180e+00 3.383106086403131485e-03 -1.188688993453979492e+00 7.432687878608703613e-01
1.627000000000000000e+03 4.002030944824218750e+01 -2.900961160659790039e+00 -3.114653110504150391e+00 1.886991113424301147e-01 -8.777862191200256348e-01 8.599671125411987305e-01
1.628000000000000000e+03 6.396063232421875000e+01 1.831453514099121094e+01 1.473368048667907715e+00 4.860369682312011719e+00 1.900121212005615234e+00 -6.440584063529968262e-01
1.629000000000000000e+03 4.645505142211914062e+01 -4.731252193450927734e+00 -5.948138236999511719e+00 -4.616081714630126953e-01 -1.922923922538757324e+00 1.701072812080383301e+00
1.630000000000000000e+03 4.631218719482421875e+01 -5.923060894012451172e+00 -4.531561374664306641e+00 -3.814158737659454346e-01 -1.473893165588378906e+00 1.227780818939208984e+00
1.631000000000000000e+03 1.907214999198913574e+00 2.623791313171386719e+01 2.746964673860929906e-05 -2.458036411553621292e-03 -7.291700458154082298e-04 2.142081735655665398e-03
1.632000000000000000e+03 2.553314924240112305e+00 3.475688171386718750e+01 1.142820110544562340e-03 -1.480143424123525620e-02 -4.097584169358015060e-03 4.272511694580316544e-03
1.633000000000000000e+03 6.841464042663574219e-01 3.186898231506347656e+01 -5.438098451122641563e-04 -1.006563007831573486e-02 -3.182831918820738792e-03 1.369748264551162720e-03
1.634000000000000000e+03 3.071815252304077148e+00 3.883782577514648438e+01 9.056525886990129948e-04 -1.901294477283954620e-02 -5.432187579572200775e-03 2.715310780331492424e-03
1.635000000000000000e+03 7.437508702278137207e-01 3.874349975585937500e+01 3.120992332696914673e-04 -2.026215940713882446e-02 -5.985017865896224976e-03 4.173424385953694582e-04
1.636000000000000000e+03 2.078147411346435547e+00 2.328945541381835938e+01 -2.105101339111570269e-05 -3.004786558449268341e-04 -9.645889804232865572e-05 1.007398474030196667e-03
1.637000000000000000e+03 1.929683804512023926e+00 3.039043426513671875e+01 -6.432606023736298084e-04 -7.890898734331130981e-03 -2.560247899964451790e-03 3.317926544696092606e-03
1.638000000000000000e+03 3.396140813827514648e+00 -3.695287322998046875e+01 3.615430369973182678e-02 -1.381198167800903320e+00 -4.035131633281707764e-01 1.097090542316436768e-02
1.639000000000000000e+03 2.132820606231689453e+00 -3.441265487670898438e+01 2.061209455132484436e-02 -1.506302237510681152e+00 -4.457070529460906982e-01 -1.621353626251220703e-02
1.640000000000000000e+03 6.708563566207885742e-01 -3.042440795898437500e+01 8.092522621154785156e-03 -1.650324821472167969e+00 -4.926697015762329102e-01 -2.140202187001705170e-02
1.641000000000000000e+03 1.704920768737792969e+00 5.289581775665283203e+00 -1.061086004483513534e-04 1.693222475296352059e-05 -2.675291216291952878e-05 -4.008649921161122620e-05
1.642000000000000000e+03 5.776856541633605957e-01 -6.491774559020996094e+00 -3.501933068037033081e-03 1.838283091783523560e-01 5.409791320562362671e-02 1.914037764072418213e-02
1.643000000000000000e+03 6.860258579254150391e-01 -1.075626468658447266e+01 -7.185304537415504456e-03 2.080831527709960938e-01 6.026935577392578125e-02 -1.795760728418827057e-02
1.644000000000000000e+03 6.543146967887878418e-01 -1.217582035064697266e+01 -9.015326388180255890e-03 1.544651538133621216e-01 4.363495111465454102e-02 -3.486922755837440491e-02
1.645000000000000000e+03 6.296368241310119629e-01 -1.358407402038574219e+01 -5.447976291179656982e-03 6.105240806937217712e-02 1.668132841587066650e-02 -5.142533779144287109e-02
1.646000000000000000e+03 6.198643445968627930e-01 -1.778063583374023438e+01 -8.457024232484400272e-04 -4.050013422966003418e-01 -1.217541173100471497e-01 -8.215744048357009888e-02
1.647000000000000000e+03 6.248047947883605957e-01 -1.918526077270507812e+01 -1.891288207843899727e-03 -5.969733595848083496e-01 -1.796593964099884033e-01 -8.547869324684143066e-02
1.648000000000000000e+03 6.297172904014587402e-01 -2.059144020080566406e+01 2.466439269483089447e-03 -7.902907133102416992e-01 -2.363472729921340942e-01 -8.508154749870300293e-02
1.649000000000000000e+03 6.330639719963073730e-01 -2.199965095520019531e+01 2.884725574404001236e-03 -9.765189886093139648e-01 -2.920902967453002930e-01 -7.928710430860519409e-02
1.650000000000000000e+03 6.365245580673217773e-01 -2.340802764892578125e+01 4.714859183877706528e-03 -1.145911097526550293e+00 -3.423588871955871582e-01 -7.099159806966781616e-02
1.651000000000000000e+03 1.985729932785034180e+00 -2.613075828552246094e+01 2.264246903359889984e-02 -1.213955521583557129e+00 -3.573939204216003418e-01 -1.472336351871490479e-01
1.652000000000000000e+03 2.101349830627441406e+00 -3.305562210083007812e+01 1.728795282542705536e-02 -1.474884629249572754e+00 -4.372789859771728516e-01 -2.817527018487453461e-02
1.653000000000000000e+03 1.910262584686279297e+00 2.182983207702636719e+01 -7.681577117182314396e-04 5.186073831282556057e-04 -7.486510003218427300e-05 4.822041373699903488e-04
1.654000000000000000e+03 5.865768790245056152e-01 1.913793563842773438e+01 3.502134059090167284e-04 1.923863077536225319e-03 6.822229479439556599e-04 -1.066579134203493595e-04
1.655000000000000000e+03 5.835050344467163086e-01 1.773328971862792969e+01 -3.555120201781392097e-04 1.683963346295058727e-03 3.985353978350758553e-04 -9.254966425942257047e-05
1.656000000000000000e+03 6.130288839340209961e-01 1.491039562225341797e+01 -2.529538469389081001e-04 1.045358018018305302e-03 2.377212658757343888e-04 -1.076535263564437628e-04
1.657000000000000000e+03 5.985109806060791016e-01 1.066574287414550781e+01 1.858794712461531162e-04 3.551155677996575832e-04 1.622985146241262555e-04 -7.503364031435921788e-05
1.658000000000000000e+03 5.459477305412292480e-01 7.871394634246826172e+00 1.524175604572519660e-04 1.288101047975942492e-04 8.436830103164538741e-05 -3.396256215637549758e-05
1.659000000000000000e+03 1.892808794975280762e+00 1.345479488372802734e+01 -1.825377985369414091e-04 4.466670507099479437e-04 7.923878001747652888e-05 -2.428027510177344084e-04
1.660000000000000000e+03 3.510605096817016602e+00 -3.900789642333984375e+01 1.942851021885871887e-02 -1.423646807670593262e+00 -4.212654829025268555e-01 -2.774603432044386864e-03
1.661000000000000000e+03 2.552368640899658203e+00 -3.801043701171875000e+01 3.310265392065048218e-02 -1.456490516662597656e+00 -4.270163774490356445e-01 3.276450559496879578e-02
1.662000000000000000e+03 2.072333335876464844e+00 -3.168435859680175781e+01 1.989004388451576233e-02 -1.450101733207702637e+00 -4.290634989738464355e-01 -4.832116514444351196e-02
1.663000000000000000e+03 1.932970285415649414e+00 -2.475938034057617188e+01 2.484172210097312927e-02 -1.120936632156372070e+00 -3.288284540176391602e-01 -1.735277324914932251e-01
1.664000000000000000e+03 6.428152322769165039e-01 -2.481151008605957031e+01 5.674162413924932480e-03 -1.292955040931701660e+00 -3.861842751502990723e-01 -5.960160866379737854e-02
1.665000000000000000e+03 6.190173029899597168e-01 -1.498319911956787109e+01 -4.632904659956693649e-03 -6.817480176687240601e-02 -2.184231206774711609e-02 -6.307049840688705444e-02
1.666000000000000000e+03 2.811450481414794922e+00 -6.648284912109375000e+00 -3.095848858356475830e-02 7.915416359901428223e-02 1.445870287716388702e-02 5.839552357792854309e-02
1.667000000000000000e+03 6.186712980270385742e-01 -7.907317161560058594e+00 -4.492436535656452179e-03 2.193774878978729248e-01 6.446551531553268433e-02 9.623969905078411102e-03
1.668000000000000000e+03 1.456936001777648926e+00 -3.335324287414550781e+00 6.899099797010421753e-03 5.894438177347183228e-02 1.975304447114467621e-02 5.016772449016571045e-02
1.669000000000000000e+03 4.232259750366210938e+01 -4.900763511657714844e+00 -3.623139858245849609e+00 -4.625766277313232422e-01 -1.225714921951293945e+00 5.006343722343444824e-01
1.670000000000000000e+03 4.372524642944335938e+01 -4.004179477691650391e+00 -5.767376899719238281e+00 -7.668116092681884766e-01 -1.960256457328796387e+00 1.813663601875305176e+00
1.671000000000000000e+03 6.238494110107421875e+01 4.070340156555175781e+00 8.392820954322814941e-01 3.681385755538940430e+00 1.356200337409973145e+00 8.486489653587341309e-01
1.672000000000000000e+03 6.169330978393554688e+01 5.454878807067871094e+00 1.292832136154174805e+00 5.020173072814941406e+00 1.893901586532592773e+00 1.607952713966369629e+00
1.673000000000000000e+03 5.821196365356445312e+01 -3.745128810405731201e-01 1.148015856742858887e+00 2.582792520523071289e+00 1.119242548942565918e+00 1.607930421829223633e+00
1.674000000000000000e+03 6.297354507446289062e+01 6.920217037200927734e+00 9.148290157318115234e-01 4.711136341094970703e+00 1.687789559364318848e+00 1.055271029472351074e+00
1.675000000000000000e+03 6.325659942626953125e+01 5.669225692749023438e+00 8.630871176719665527e-01 4.090877056121826172e+00 1.486189246177673340e+00 7.284258008003234863e-01
1.676000000000000000e+03 4.512706756591796875e+01 -5.615756034851074219e+00 -4.444890022277832031e+00 -3.455385565757751465e-01 -1.437128663063049316e+00 1.261589765548706055e+00
1.677000000000000000e+03 5.249481582641601562e+01 -4.816073894500732422e+00 -6.857340335845947266e-01 1.267398238182067871e+00 1.744992583990097046e-01 8.445613384246826172e-01
1.678000000000000000e+03 5.488716125488281250e+01 -4.904739856719970703e+00 -3.481976091861724854e-01 2.028972625732421875e+00 5.042325258255004883e-01 1.211287379264831543e+00
1.679000000000000000e+03 4.902827835083007812e+01 -6.639561176300048828e+00 -3.065205097198486328e+00 -5.383356809616088867e-01 -1.081062316894531250e+00 1.628691554069519043e+00
1.680000000000000000e+03 5.716929626464843750e+01 4.633964002132415771e-01 1.353085756301879883e+00 3.039041996002197266e+00 1.317638397216796875e+00 1.953993320465087891e+00
1.681000000000000000e+03 6.552107238769531250e+01 1.712041282653808594e+01 1.170075535774230957e+00 3.910735607147216797e+00 1.524243354797363281e+00 -1.666086316108703613e-01
1.682000000000000000e+03 5.576741027832031250e+01 -3.786297321319580078e+00 4.142619669437408447e-01 2.165523290634155273e+00 7.739355564117431641e-01 1.276907205581665039e+00
1.683000000000000000e+03 6.404808807373046875e+01 1.305079269409179688e+01 5.544184446334838867e-01 5.733701705932617188e+00 1.886436104774475098e+00 7.351284474134445190e-02
1.684000000000000000e+03 6.504203796386718750e+01 1.401955795288085938e+01 7.212406396865844727e-01 4.951215267181396484e+00 1.701736807823181152e+00 -5.992984026670455933e-02
1.685000000000000000e+03 5.977331924438476562e+01 1.856400489807128906e+00 9.471492171287536621e-01 3.207228899002075195e+00 1.246313452720642090e+00 1.705281972885131836e+00
1.686000000000000000e+03 6.057877349853515625e+01 2.858644247055053711e+00 9.151119589805603027e-01 3.873549222946166992e+00 1.436598420143127441e+00 1.606846332550048828e+00
1.687000000000000000e+03 6.564346313476562500e+01 -1.035997676849365234e+01 -1.255406737327575684e+00 -8.940044790506362915e-02 -4.034421443939208984e-01 -4.319059848785400391e-01
1.688000000000000000e+03 4.700402450561523438e+01 -1.519519710540771484e+01 5.100618839263916016e+00 5.089446902275085449e-01 1.682869076728820801e+00 2.119008302688598633e+00
1.689000000000000000e+03 4.704366683959960938e+01 -1.608256530761718750e+01 4.614411354064941406e+00 -2.674916386604309082e-01 1.304075837135314941e+00 1.373743295669555664e+00
1.690000000000000000e+03 4.724143600463867188e+01 -1.598243999481201172e+01 4.564229011535644531e+00 -2.004729509353637695e-01 1.309126853942871094e+00 1.310127019882202148e+00
1.691000000000000000e+03 4.729259109497070312e+01 -1.565036964416503906e+01 5.085916996002197266e+00 6.967439781874418259e-03 1.527865409851074219e+00 1.548625588417053223e+00
1.692000000000000000e+03 4.740523147583007812e+01 -1.518459224700927734e+01 4.732123374938964844e+00 3.375684320926666260e-01 1.520907521247863770e+00 1.748045206069946289e+00
1.693000000000000000e+03 4.654638671875000000e+01 -1.520364093780517578e+01 5.181190013885498047e+00 1.029149174690246582e+00 1.863101720809936523e+00 2.609391212463378906e+00
1.694000000000000000e+03 2.842210006713867188e+01 -1.955477118492126465e+00 -2.131394863128662109e+00 1.231872593052685261e-03 -6.390488743782043457e-01 -5.151674151420593262e-01
1.695000000000000000e+03 2.800838851928710938e+01 -2.007721185684204102e+00 -2.029172182083129883e+00 -5.699791386723518372e-02 -6.258510351181030273e-01 -5.333717465400695801e-01
1.696000000000000000e+03 2.956819915771484375e+01 -1.832087516784667969e+00 -2.408188104629516602e+00 1.332662701606750488e-01 -6.824765205383300781e-01 -4.008195698261260986e-01
1.697000000000000000e+03 3.056650733947753906e+01 -2.027581930160522461e+00 -2.522924661636352539e+00 2.699528932571411133e-01 -6.758915781974792480e-01 -3.819828331470489502e-01
1.698000000000000000e+03 2.738501167297363281e+01 -2.056661367416381836e+00 -1.865160584449768066e+00 -1.422974169254302979e-01 -6.022374033927917480e-01 -5.504518151283264160e-01
1.699000000000000000e+03 3.082443809509277344e+01 -2.505560874938964844e+00 -2.301586151123046875e+00 2.792391479015350342e-01 -6.067041158676147461e-01 -4.877157509326934814e-01
1.700000000000000000e+03 2.859487152099609375e+01 -2.176093578338623047e+00 -2.059196233749389648e+00 2.465244010090827942e-02 -6.103631258010864258e-01 -5.401204228401184082e-01
1.701000000000000000e+03 2.739201545715332031e+01 -2.708858966827392578e+00 -1.541619777679443359e+00 -1.059995219111442566e-01 -4.942857921123504639e-01 -7.166150808334350586e-01
1.702000000000000000e+03 2.880290985107421875e+01 -1.901037216186523438e+00 -2.253276348114013672e+00 3.585649281740188599e-02 -6.652259230613708496e-01 -4.753225743770599365e-01
1.703000000000000000e+03 3.074940299987792969e+01 -2.034389972686767578e+00 -2.551359653472900391e+00 3.123689293861389160e-01 -6.716971993446350098e-01 -3.935454785823822021e-01
1.704000000000000000e+03 2.786249542236328125e+01 -2.360088825225830078e+00 -1.824936747550964355e+00 -7.892594486474990845e-02 -5.711588263511657715e-01 -5.925145149230957031e-01
1.705000000000000000e+03 2.779773712158203125e+01 -2.051041126251220703e+00 -1.971606016159057617e+00 -9.023734927177429199e-02 -6.185529828071594238e-01 -5.394243001937866211e-01
1.706000000000000000e+03 2.753268051147460938e+01 -2.415839433670043945e+00 -1.729631900787353516e+00 -1.056313067674636841e-01 -5.505789518356323242e-01 -6.313434243202209473e-01
1.707000000000000000e+03 2.718927764892578125e+01 -2.063589096069335938e+00 -1.803027510643005371e+00 -1.680325269699096680e-01 -5.913180112838745117e-01 -5.638788938522338867e-01
1.708000000000000000e+03 4.441658020019531250e+01 -1.828024482727050781e+01 -1.775410473346710205e-01 6.583903789520263672e+00 1.921908736228942871e+00 6.420923471450805664e-01
1.709000000000000000e+03 4.367767333984375000e+01 -2.153572463989257812e+01 8.166339993476867676e-02 4.059077262878417969e+00 1.242222189903259277e+00 2.989836037158966064e-01
1.710000000000000000e+03 4.471565628051757812e+01 -1.877473068237304688e+01 -4.094258248805999756e-01 5.607233524322509766e+00 1.559342265129089355e+00 -1.776668727397918701e-01
1.711000000000000000e+03 4.537468719482421875e+01 -1.922714042663574219e+01 -1.546551883220672607e-01 4.221788406372070312e+00 1.220139980316162109e+00 -3.564220070838928223e-01
1.712000000000000000e+03 4.601742553710937500e+01 -1.523583221435546875e+01 5.194194316864013672e+00 2.492352485656738281e+00 2.305963993072509766e+00 3.287552833557128906e+00
1.713000000000000000e+03 4.620759582519531250e+01 -1.492739009857177734e+01 4.738520145416259766e+00 2.154871702194213867e+00 2.068017482757568359e+00 2.985234022140502930e+00
1.714000000000000000e+03 4.299307632446289062e+01 -1.648413276672363281e+01 4.792032718658447266e+00 3.732029438018798828e+00 2.557218551635742188e+00 1.020056128501892090e+00
1.715000000000000000e+03 4.367113876342773438e+01 -1.753336715698242188e+01 2.663968086242675781e+00 6.098540306091308594e+00 2.628752470016479492e+00 2.517524480819702148e+00
1.716000000000000000e+03 4.620653915405273438e+01 -1.440868568420410156e+01 3.800409793853759766e+00 2.336035013198852539e+00 1.840933442115783691e+00 2.617660760879516602e+00
1.717000000000000000e+03 4.496224212646484375e+01 -1.434865665435791016e+01 2.734139204025268555e+00 4.642897129058837891e+00 2.213110923767089844e+00 1.557319402694702148e+00
1.718000000000000000e+03 4.434891510009765625e+01 -1.511024188995361328e+01 3.674134492874145508e+00 6.229898452758789062e+00 2.971210002899169922e+00 3.728715181350708008e-01
1.719000000000000000e+03 4.315109252929687500e+01 -1.600447463989257812e+01 5.031416416168212891e+00 3.839087724685668945e+00 2.661151170730590820e+00 2.017309963703155518e-01
1.720000000000000000e+03 4.338951110839843750e+01 -1.543350410461425781e+01 4.461585521697998047e+00 4.342243194580078125e+00 2.641148567199707031e+00 -4.103593528270721436e-01
1.721000000000000000e+03 4.454508590698242188e+01 -1.502150440216064453e+01 3.450154542922973633e+00 6.234573841094970703e+00 2.905418634414672852e+00 8.625973463058471680e-01
1.722000000000000000e+03 2.559195518493652344e+01 -3.180960893630981445e+00 -1.068900346755981445e+00 -1.199055016040802002e-01 -3.566417396068572998e-01 -8.511719107627868652e-01
1.723000000000000000e+03 2.368922615051269531e+01 2.258665657043457031e+01 -1.199643164873123169e-01 -1.232854835689067841e-02 -3.968786075711250305e-02 3.279256820678710938e-02
1.724000000000000000e+03 3.520574188232421875e+01 2.775177001953125000e+00 5.979525158181786537e-04 -6.750278989784419537e-04 -2.312260767212137580e-05 2.910638868343085051e-04
1.725000000000000000e+03 3.348529815673828125e+01 6.523592472076416016e+00 1.703224377706646919e-03 6.036321283318102360e-04 6.920569576323032379e-04 -1.438585750292986631e-04
1.726000000000000000e+03 3.541619491577148438e+01 6.210698127746582031e+00 -6.061249878257513046e-04 -4.077816847711801529e-04 -3.041719901375472546e-04 5.396093474701046944e-04
1.727000000000000000e+03 3.398460388183593750e+01 6.703150749206542969e+00 9.124460630118846893e-04 1.562016317620873451e-03 7.423387141898274422e-04 -1.018454437144100666e-03
1.728000000000000000e+03 2.329025459289550781e+01 2.311791419982910156e+01 -1.041809022426605225e-01 -1.574967429041862488e-02 -3.597917407751083374e-02 3.107141144573688507e-02
1.729000000000000000e+03 2.735850334167480469e+01 2.175777626037597656e+01 -1.558248698711395264e-01 -4.261663183569908142e-02 -5.953245237469673157e-02 7.180944830179214478e-02
1.730000000000000000e+03 2.260537338256835938e+01 4.308673858642578125e+00 3.176563268425525166e-06 7.258482582983560860e-06 3.130513732685358264e-06 4.913690645480528474e-06
1.731000000000000000e+03 2.231392478942871094e+01 4.596745014190673828e+00 -9.124815733230207115e-06 -2.327246147615369409e-05 -9.719183253764640540e-06 -1.077927208825713024e-05
1.732000000000000000e+03 1.468893718719482422e+01 1.700165939331054688e+01 -5.963449948467314243e-04 3.016379429027438164e-03 7.260103593580424786e-04 2.716715680435299873e-04
1.733000000000000000e+03 1.408298778533935547e+01 1.572014522552490234e+01 -1.636097440496087074e-04 1.563684316352009773e-03 4.200223775114864111e-04 3.769070026464760303e-04
1.734000000000000000e+03 2.242611122131347656e+01 2.920996665954589844e+00 3.569134605641011149e-06 2.247713928227312863e-05 7.813881893525831401e-06 9.604856131772976369e-06
1.735000000000000000e+03 2.259525299072265625e+01 3.672453641891479492e+00 1.353263724013231695e-05 2.363435487495735288e-05 1.115009763452690095e-05 6.878662588860606775e-06
1.736000000000000000e+03 1.802694129943847656e+01 2.218826675415039062e+01 -4.130572825670242310e-02 -3.526218351908028126e-04 -1.249750517308712006e-02 -1.062614377588033676e-03
1.737000000000000000e+03 2.184490013122558594e+01 3.652407884597778320e+00 1.991651515709236264e-05 2.429161941108759493e-05 1.326244091615080833e-05 1.074192368832882494e-05
1.738000000000000000e+03 1.847079658508300781e+01 7.393296718597412109e+00 3.627749174484051764e-05 5.361266448744572699e-05 2.696704723348375410e-05 4.108365828869864345e-05
1.739000000000000000e+03 1.846036148071289062e+01 6.799270629882812500e+00 3.908952930942177773e-05 4.603953129844740033e-05 2.553871854615863413e-05 3.261770325480028987e-05
1.740000000000000000e+03 1.896290969848632812e+01 6.198658466339111328e+00 4.014905425719916821e-05 3.423422458581626415e-05 2.231498365290462971e-05 2.907005728047806770e-05
1.741000000000000000e+03 2.146747970581054688e+01 3.999298095703125000e+00 -7.851490408938843757e-06 -4.431034540175460279e-05 -1.564855119795538485e-05 -1.051838535204296932e-05
1.742000000000000000e+03 2.180986022949218750e+01 5.105463981628417969e+00 -2.893543023674283177e-05 -3.751277836272493005e-05 -1.993446312553714961e-05 -3.373357321834191680e-05
1.743000000000000000e+03 2.089901733398437500e+01 5.079088211059570312e+00 1.439939023839542642e-05 3.635399116319604218e-05 1.522601451142691076e-05 1.302874079556204379e-05
1.744000000000000000e+03 1.421657657623291016e+01 1.824877357482910156e+01 -4.508026759140193462e-04 2.657233038917183876e-03 6.619291380047798157e-04 6.442618323490023613e-04
1.745000000000000000e+03 3.195602226257324219e+01 1.583167171478271484e+01 -1.608937978744506836e-02 -3.228478878736495972e-02 -1.451225019991397858e-02 2.574895508587360382e-02
1.746000000000000000e+03 3.245539093017578125e+01 1.605609512329101562e+01 -2.659224905073642731e-02 -2.481066994369029999e-02 -1.542087551206350327e-02 3.227408230304718018e-02
1.747000000000000000e+03 1.595987510681152344e+01 9.827363014221191406e+00 -1.067288249032571912e-04 6.482332537416368723e-05 -1.257164967682911083e-05 -4.618957973434589803e-05
1.748000000000000000e+03 2.410063743591308594e+01 2.248628807067871094e+01 -1.240309774875640869e-01 -1.250806078314781189e-02 -4.096171259880065918e-02 3.529031947255134583e-02
1.749000000000000000e+03 1.564350605010986328e+01 1.094922161102294922e+01 -9.873615636024624109e-05 1.413531281286850572e-04 1.278509080293588340e-05 -1.145983696915209293e-04
1.750000000000000000e+03 1.556171226501464844e+01 1.044946289062500000e+01 -1.031693464028649032e-04 1.241910067619755864e-04 6.306499471975257620e-06 -5.586784391198307276e-05
1.751000000000000000e+03 3.328063201904296875e+01 1.151138401031494141e+01 -7.860604673624038696e-04 -2.012692712014541030e-04 -2.961989375762641430e-04 1.732894103042781353e-03
1.752000000000000000e+03 1.516982269287109375e+01 1.158765983581542969e+01 -1.097083004424348474e-04 2.888085437007248402e-04 5.373007661546580493e-05 -1.108430151361972094e-04
1.753000000000000000e+03 1.541077327728271484e+01 1.126977825164794922e+01 1.006251914077438414e-04 3.644031530711799860e-04 1.395085128024220467e-04 6.327695155050605536e-05
1.754000000000000000e+03 3.286607360839843750e+01 1.055158805847167969e+01 8.957527461461722851e-05 4.156043753027915955e-03 1.273685717023909092e-03 -5.300293560139834881e-04
1.755000000000000000e+03 3.209291839599609375e+01 1.542886257171630859e+01 -1.460359897464513779e-02 -2.574360370635986328e-02 -1.210416015237569809e-02 2.217479236423969269e-02
1.756000000000000000e+03 3.460197067260742188e+01 3.166749477386474609e+00 5.862425896339118481e-04 -9.679895010776817799e-04 -1.145240676123648882e-04 5.413843318819999695e-04
1.757000000000000000e+03 3.343691635131835938e+01 3.290123462677001953e+00 1.149503048509359360e-03 1.222116115968674421e-04 3.815144009422510862e-04 -2.569275093264877796e-04
1.758000000000000000e+03 1.404840278625488281e+01 1.616653060913085938e+01 3.714321937877684832e-04 1.960865920409560204e-03 6.996894371695816517e-04 7.060612551867961884e-04
1.759000000000000000e+03 1.970284843444824219e+01 5.629273414611816406e+00 5.847203283337876201e-06 5.279883043840527534e-05 1.759380938892718405e-05 2.581747321528382599e-05
1.760000000000000000e+03 2.751692581176757812e+01 2.106040000915527344e+01 -2.035705149173736572e-01 -3.291201218962669373e-02 -7.094475626945495605e-02 7.429399341344833374e-02
1.761000000000000000e+03 2.707187843322753906e+01 2.235315513610839844e+01 -1.335253566503524780e-01 -4.137923941016197205e-02 -5.247138068079948425e-02 6.502497196197509766e-02
1.762000000000000000e+03 2.632691001892089844e+01 2.139537620544433594e+01 -1.714288890361785889e-01 -2.084141969680786133e-02 -5.768109112977981567e-02 5.478510633111000061e-02
1.763000000000000000e+03 1.786416816711425781e+01 7.907946109771728516e+00 3.123848728137090802e-05 6.976764416322112083e-05 3.030183870578184724e-05 4.133234324399381876e-05
1.764000000000000000e+03 3.214948654174804688e+01 1.685987663269042969e+01 -3.619715198874473572e-02 -3.313872590661048889e-02 -2.080076374113559723e-02 4.023046791553497314e-02
1.765000000000000000e+03 1.903872871398925781e+01 6.826852321624755859e+00 3.125907824141904712e-05 4.423212158144451678e-05 2.264736031065694988e-05 4.151703979005105793e-05
1.766000000000000000e+03 3.266239547729492188e+01 1.354743480682373047e+01 -6.838052999228239059e-03 -8.808557875454425812e-03 -4.693983122706413269e-03 9.023839607834815979e-03
1.767000000000000000e+03 1.418683719635009766e+01 1.529014110565185547e+01 3.609639534261077642e-04 1.530057983472943306e-03 5.673065898008644581e-04 3.150968404952436686e-04
1.768000000000000000e+03 3.073155403137207031e+01 1.955082130432128906e+01 -9.446569532155990601e-02 -6.519185006618499756e-02 -4.789726063609123230e-02 7.302098721265792847e-02
1.769000000000000000e+03 3.388636398315429688e+01 7.811548233032226562e+00 8.489355095662176609e-04 8.787018014118075371e-04 5.182911991141736507e-04 -5.190524971112608910e-04
1.770000000000000000e+03 1.410774993896484375e+01 1.346545982360839844e+01 1.635984808672219515e-04 9.366440935991704464e-04 3.300727694295346737e-04 1.519090728834271431e-04
1.771000000000000000e+03 1.374950790405273438e+01 1.275091934204101562e+01 8.643941691843792796e-05 5.099270492792129517e-04 1.789099478628486395e-04 1.982418179977685213e-04
1.772000000000000000e+03 3.377263641357421875e+01 1.004766845703125000e+01 -9.824421722441911697e-04 2.110594796249642968e-04 -2.314148150617256761e-04 3.474861441645771265e-04
1.773000000000000000e+03 3.388084793090820312e+01 8.156084060668945312e+00 -6.942905602045357227e-04 6.899719592183828354e-04 -1.295581682825286407e-06 -1.126178307458758354e-03
1.774000000000000000e+03 1.463243293762207031e+01 1.223935127258300781e+01 -1.081571317627094686e-04 5.137777188792824745e-04 1.216861783177591860e-04 -2.454371860949322581e-05
1.775000000000000000e+03 3.151409912109375000e+01 1.700711441040039062e+01 -3.063804842531681061e-02 -5.015809834003448486e-02 -2.423884347081184387e-02 3.939716145396232605e-02
1.776000000000000000e+03 3.418177795410156250e+01 4.294520378112792969e+00 -9.506388450972735882e-04 -6.788584869354963303e-04 -4.888491821475327015e-04 1.029449776979163289e-04
1.777000000000000000e+03 3.384616851806640625e+01 4.446708679199218750e+00 9.620125056244432926e-04 5.856702919118106365e-04 4.643048450816422701e-04 1.575272617628797889e-04
1.778000000000000000e+03 2.522886657714843750e+01 2.296383094787597656e+01 -1.138261556625366211e-01 -2.590432763099670410e-02 -4.191914573311805725e-02 4.574531316757202148e-02
1.779000000000000000e+03 1.603557205200195312e+01 2.115792846679687500e+01 -1.803901232779026031e-02 3.301445758552290499e-05 -5.401799455285072327e-03 -2.670938847586512566e-03
1.780000000000000000e+03 3.244017410278320312e+01 1.255257320404052734e+01 -6.264299154281616211e-04 -1.278641284443438053e-03 -5.715213483199477196e-04 2.355907112360000610e-03
1.781000000000000000e+03 3.412954330444335938e+01 8.484722137451171875e+00 8.094038930721580982e-04 1.536681898869574070e-03 7.038257317617535591e-04 -9.316042996942996979e-04
1.782000000000000000e+03 1.936176490783691406e+01 2.241351318359375000e+01 -5.648449808359146118e-02 -1.828500651754438877e-03 -1.749389991164207458e-02 -3.549060784280300140e-04
1.783000000000000000e+03 3.097954750061035156e+01 1.815282440185546875e+01 -4.895872250199317932e-02 -7.203189283609390259e-02 -3.629718348383903503e-02 5.792919918894767761e-02
1.784000000000000000e+03 1.994313621520996094e+01 5.328510284423828125e+00 -1.680573041085153818e-05 -4.604211790137924254e-05 -1.885435449366923422e-05 -1.893059743451885879e-05
1.785000000000000000e+03 2.595909500122070312e+01 2.241286849975585938e+01 -1.330422163009643555e-01 -2.741417288780212402e-02 -4.813691601157188416e-02 5.174391344189643860e-02
1.786000000000000000e+03 1.517100906372070312e+01 2.040649795532226562e+01 -6.350253708660602570e-03 1.564996666274964809e-03 -1.435577170923352242e-03 -2.118353266268968582e-03
1.787000000000000000e+03 1.525308036804199219e+01 1.026693248748779297e+01 5.836323907715268433e-05 2.576190745458006859e-04 9.479469736106693745e-05 5.427627911558374763e-05
1.788000000000000000e+03 1.487404537200927734e+01 1.418935871124267578e+01 3.864870814140886068e-04 1.316595007665455341e-03 5.109246121719479561e-04 -1.017069880617782474e-04
1.789000000000000000e+03 1.613887596130371094e+01 9.505213737487792969e+00 9.422987932339310646e-05 1.249450579052790999e-04 6.575247971341013908e-05 2.267838317493442446e-05
1.790000000000000000e+03 2.647953033447265625e+01 2.196193695068359375e+01 -1.502520591020584106e-01 -2.695395424962043762e-02 -5.316180363297462463e-02 5.703431740403175354e-02
1.791000000000000000e+03 1.415511035919189453e+01 1.867599487304687500e+01 5.785952671431005001e-04 2.275786595419049263e-03 8.563145529478788376e-04 4.305460606701672077e-04
1.792000000000000000e+03 1.696080207824707031e+01 7.374238014221191406e+00 -2.046502413577400148e-05 -9.107939149544108659e-06 -8.871888894645962864e-06 -2.455129288136959076e-05
1.793000000000000000e+03 3.117090225219726562e+01 1.777711486816406250e+01 -4.322945699095726013e-02 -6.510820984840393066e-02 -3.250129893422126770e-02 5.009351670742034912e-02
1.794000000000000000e+03 3.119822502136230469e+01 1.881606864929199219e+01 -7.077642530202865601e-02 -5.847325921058654785e-02 -3.877490386366844177e-02 6.399043649435043335e-02
1.795000000000000000e+03 2.141713714599609375e+01 2.298152351379394531e+01 -8.824156969785690308e-02 -1.103345770388841629e-02 -2.978250943124294281e-02 1.897839643061161041e-02
1.796000000000000000e+03 3.435719680786132812e+01 5.039761066436767578e+00 -1.077261986210942268e-03 1.077700726455077529e-04 -2.908475580625236034e-04 6.157175521366298199e-04
1.797000000000000000e+03 3.403028869628906250e+01 5.555388450622558594e+00 -1.541074947454035282e-03 1.428217656211927533e-04 -4.194759530946612358e-04 3.361312265042215586e-04
1.798000000000000000e+03 3.049254417419433594e+01 1.990562057495117188e+01 -1.079236641526222229e-01 -6.733517348766326904e-02 -5.257765203714370728e-02 7.319861650466918945e-02
1.799000000000000000e+03 2.986597442626953125e+01 1.995101356506347656e+01 -1.223094388842582703e-01 -9.580017626285552979e-02 -6.543288379907608032e-02 9.061643481254577637e-02
1.800000000000000000e+03 1.479748249053955078e+01 1.457815742492675781e+01 -2.843666879925876856e-04 1.640401314944028854e-03 4.068103735335171223e-04 -1.064922398654744029e-04
1.801000000000000000e+03 1.896150970458984375e+01 2.228967666625976562e+01 -5.121855810284614563e-02 -6.112505216151475906e-04 -1.554894354194402695e-02 -1.313601154834032059e-03
1.802000000000000000e+03 1.699014472961425781e+01 2.189688873291015625e+01 -3.045078366994857788e-02 -7.435804582200944424e-04 -9.358309209346771240e-03 -7.184247951954603195e-04
1.803000000000000000e+03 1.491689491271972656e+01 1.190527915954589844e+01 1.138633379014208913e-04 4.941870574839413166e-04 1.824151113396510482e-04 1.094220642698928714e-04
1.804000000000000000e+03 1.549831295013427734e+01 2.116230201721191406e+01 -1.542680524289608002e-02 1.793803996406495571e-03 -4.089900292456150055e-03 -1.275675836950540543e-03
1.805000000000000000e+03 2.010555267333984375e+01 2.301249313354492188e+01 -7.008603215217590332e-02 -2.248106524348258972e-03 -2.170024067163467407e-02 1.137898117303848267e-02
1.806000000000000000e+03 1.428993988037109375e+01 1.488783836364746094e+01 -1.601707626832649112e-04 1.452507451176643372e-03 3.877010021824389696e-04 2.805905533023178577e-04
1.807000000000000000e+03 3.396253967285156250e+01 3.659624576568603516e+00 1.399849774315953255e-03 -2.856087521649897099e-04 3.342723066452890635e-04 -1.595766661921516061e-04
1.808000000000000000e+03 1.482893466949462891e+01 2.014496040344238281e+01 -5.328031722456216812e-03 2.032025251537561417e-03 -9.888019412755966187e-04 -1.235980540513992310e-03
1.809000000000000000e+03 2.778571128845214844e+01 2.161715698242187500e+01 -1.564457714557647705e-01 -5.647915601730346680e-02 -6.387747824192047119e-02 7.728043198585510254e-02
1.810000000000000000e+03 2.283960533142089844e+01 2.264602851867675781e+01 -1.146923154592514038e-01 -9.947192855179309845e-03 -3.739185258746147156e-02 2.281811274588108063e-02
1.811000000000000000e+03 2.206433677673339844e+01 2.280542373657226562e+01 -1.007138863205909729e-01 -1.440246496349573135e-02 -3.453490510582923889e-02 1.698221266269683838e-02
1.812000000000000000e+03 2.897451210021972656e+01 2.027876663208007812e+01 -1.837669909000396729e-01 -1.273996382951736450e-01 -9.334998577833175659e-02 1.356629431247711182e-01
1.813000000000000000e+03 2.848268890380859375e+01 2.184862518310546875e+01 -1.315591037273406982e-01 -7.068640738725662231e-02 -6.067365780472755432e-02 6.730774790048599243e-02
1.814000000000000000e+03 1.656226730346679688e+01 2.222277069091796875e+01 -2.767277695238590240e-02 1.104644266888499260e-03 -7.970440201461315155e-03 1.520946738310158253e-03
1.815000000000000000e+03 2.931486129760742188e+01 2.067643737792968750e+01 -1.525779366493225098e-01 -9.330355376005172729e-02 -7.376445084810256958e-02 8.167083561420440674e-02
1.816000000000000000e+03 2.960473251342773438e+01 2.031518173217773438e+01 -1.424304544925689697e-01 -9.466239064931869507e-02 -7.112785428762435913e-02 8.820438385009765625e-02
1.817000000000000000e+03 3.333511352539062500e+01 2.893710851669311523e+00 -1.094557926990091801e-03 1.847331986937206239e-06 -3.278131771367043257e-04 2.286769595229998231e-04
1.818000000000000000e+03 2.450659179687500000e+01 2.242341041564941406e+01 -1.284462809562683105e-01 -1.637491583824157715e-02 -4.344635829329490662e-02 3.859098628163337708e-02
1.819000000000000000e+03 1.443969917297363281e+01 1.986371612548828125e+01 -3.523746272549033165e-03 2.349110320210456848e-03 -3.523907798808068037e-04 -1.765879918821156025e-03
1.820000000000000000e+03 3.485629272460937500e+01 -1.708238959312438965e+00 -2.672194242477416992e+00 4.437807500362396240e-01 -6.685240268707275391e-01 1.868857741355895996e-01
1.821000000000000000e+03 1.408879661560058594e+01 1.915416145324707031e+01 -1.192688359878957272e-03 1.543822814710438251e-03 1.053403611877001822e-04 -4.347870999481528997e-04
1.822000000000000000e+03 3.168149185180664062e+01 -2.256181716918945312e+00 -2.601323843002319336e+00 1.760281473398208618e-01 -7.275887131690979004e-01 -4.440047442913055420e-01
1.823000000000000000e+03 7.701434326171875000e+01 -1.917936706542968750e+01 -1.033380467561073601e-04 1.290272921323776245e-04 7.706773430982138962e-06 -1.439877960365265608e-04
1.824000000000000000e+03 7.638098144531250000e+01 -1.906600379943847656e+01 1.902590884128585458e-04 -1.701615110505372286e-04 6.029271844454342499e-06 -5.509447073563933372e-04
1.825000000000000000e+03 7.818898010253906250e+01 -1.366581726074218750e+01 -3.859725594520568848e-02 -5.907346308231353760e-02 -2.930121496319770813e-02 -5.175130069255828857e-02
1.826000000000000000e+03 7.706977844238281250e+01 -1.378034496307373047e+01 -7.707158476114273071e-02 -4.226816073060035706e-02 -3.580192103981971741e-02 -6.992232054471969604e-02
1.827000000000000000e+03 7.703427886962890625e+01 -1.300305175781250000e+01 -8.102260529994964600e-02 -7.130759954452514648e-02 -4.569906368851661682e-02 -1.130871772766113281e-01
1.828000000000000000e+03 7.287679290771484375e+01 -1.916163635253906250e+01 1.917306653922423720e-04 -8.105837332550436258e-05 3.320168980280868709e-05 -2.886721813410986215e-05
1.829000000000000000e+03 7.440447235107421875e+01 -1.997512435913085938e+01 -3.588354738894850016e-04 -4.906117683276534081e-04 -2.548341581132262945e-04 -1.778752921381965280e-04
1.830000000000000000e+03 4.944643783569335938e+01 -1.469260692596435547e+01 3.541333913803100586e+00 6.496543288230895996e-01 1.257296442985534668e+00 1.481040358543395996e+00
1.831000000000000000e+03 1.899829292297363281e+01 2.824749946594238281e+00 7.421137979690684006e-06 3.595642192522063851e-05 1.301326756220078096e-05 -1.120596493819903117e-06
1.832000000000000000e+03 1.748839759826660156e+01 3.239372253417968750e+00 -3.518410949254757725e-06 -3.706031202455051243e-05 -1.217361750605050474e-05 4.168096893408801407e-06
1.833000000000000000e+03 2.297509765625000000e+01 -3.019238948822021484e+00 -7.397189736366271973e-01 -5.815631244331598282e-03 -2.236603796482086182e-01 -6.145799160003662109e-01
1.834000000000000000e+03 3.914403152465820312e+01 -3.361997127532958984e+00 -2.666549205780029297e+00 4.140808880329132080e-01 -6.757404804229736328e-01 5.767651796340942383e-01
1.835000000000000000e+03 3.457929992675781250e+01 -1.798893570899963379e+00 -2.749480485916137695e+00 3.248256146907806396e-01 -7.273964881896972656e-01 2.760765254497528076e-01
1.836000000000000000e+03 7.642897796630859375e+01 -1.378107833862304688e+01 -8.988394588232040405e-02 -3.858918324112892151e-02 -3.854193910956382751e-02 -9.291572123765945435e-02
1.837000000000000000e+03 1.468300342559814453e+01 3.132135868072509766e+00 -1.208340677294472698e-06 -3.935570202884264290e-05 -1.216921282320981845e-05 3.212258525309152901e-05
1.838000000000000000e+03 6.958717346191406250e+01 -1.388290691375732422e+01 -5.364381074905395508e-01 1.151077300310134888e-01 -1.263991147279739380e-01 6.822332739830017090e-02
1.839000000000000000e+03 6.758616638183593750e+01 -1.372967815399169922e+01 -6.932489871978759766e-01 -1.664288043975830078e-01 -2.579033374786376953e-01 2.126370370388031006e-01
1.840000000000000000e+03 4.760585403442382812e+01 -1.572683715820312500e+01 4.643871784210205078e+00 1.962945461273193359e-01 1.452049970626831055e+00 1.350592017173767090e+00
1.841000000000000000e+03 4.868406677246093750e+01 -1.486702537536621094e+01 4.190734863281250000e+00 8.250184059143066406e-01 1.504726052284240723e+00 1.301392316818237305e+00
1.842000000000000000e+03 1.969823837280273438e+01 2.932651519775390625e+00 -5.265913387120235711e-06 -3.186359026585705578e-05 -1.113885082304477692e-05 -3.654291049315361306e-06
1.843000000000000000e+03 2.028676033020019531e+01 3.656980276107788086e+00 -9.366527592646889389e-06 -2.810529804264660925e-05 -1.124154732679016888e-05 -8.087419701041653752e-06
1.844000000000000000e+03 2.104082107543945312e+01 4.310682773590087891e+00 1.767809953889809549e-05 2.849205520760733634e-05 1.385104678774951026e-05 1.570876702317036688e-05
1.845000000000000000e+03 7.117678070068359375e+01 -2.061627388000488281e+01 1.118248765124008060e-04 3.326133082737214863e-05 4.352586256572976708e-05 4.973877803422510624e-04
1.846000000000000000e+03 1.327647113800048828e+01 2.502257585525512695e+00 3.055730485357344151e-05 5.094003427075222135e-05 2.444920210109557956e-05 -2.288890755153261125e-06
1.847000000000000000e+03 1.176317024230957031e+01 3.200402975082397461e+00 1.809432615118566900e-05 -4.906815593130886555e-05 -9.292149115935899317e-06 5.440178210847079754e-05
1.848000000000000000e+03 1.678882980346679688e+01 3.185815811157226562e+00 1.067327866621781141e-05 5.306506500346586108e-05 1.912150219141039997e-05 -3.222738996555563062e-06
1.849000000000000000e+03 1.687349891662597656e+01 2.601309061050415039e+00 -5.271643658488756046e-06 -3.905965786543674767e-05 -1.329939004790503532e-05 9.254867109120823443e-06
1.850000000000000000e+03 1.819838523864746094e+01 3.311515092849731445e+00 9.059343938133679330e-06 3.999774708063341677e-05 1.471712766942800954e-05 -1.974611222976818681e-06
1.851000000000000000e+03 7.509931182861328125e+01 -1.986841392517089844e+01 8.884590351954102516e-05 -4.610351970768533647e-05 1.282271477975882590e-05 -5.724949460272910073e-06
1.852000000000000000e+03 3.666129302978515625e+01 4.033526897430419922e+00 -1.452000433346256614e-04 -1.052785781212151051e-03 -3.593957517296075821e-04 7.496461621485650539e-04
1.853000000000000000e+03 1.396751594543457031e+01 3.140519857406616211e+00 2.806608608807437122e-05 5.707616219297051430e-05 2.554267302912194282e-05 -7.120291343198914547e-07
1.854000000000000000e+03 1.400543117523193359e+01 2.503122568130493164e+00 8.632635513095010538e-07 -4.135927883908152580e-05 -1.214880467159673572e-05 3.178931001457385719e-05
1.855000000000000000e+03 1.539171886444091797e+01 3.134037733078002930e+00 1.642607094254344702e-05 5.814229371026158333e-05 2.237051012343727052e-05 -3.381639544386416674e-06
1.856000000000000000e+03 1.102370929718017578e+01 3.215788364410400391e+00 5.947343743173405528e-05 3.846870095003396273e-05 2.938264151453040540e-05 -9.433554623683448881e-06
1.857000000000000000e+03 1.250456237792968750e+01 3.176599264144897461e+00 3.841847865260206163e-05 5.044315184932202101e-05 2.665848842298146337e-05 -3.518111668654455571e-07
1.858000000000000000e+03 1.028324985504150391e+01 3.222931623458862305e+00 2.164570832974277437e-05 -5.418479122454300523e-05 -9.761724868440069258e-06 5.299349868437275290e-05
1.859000000000000000e+03 7.332965850830078125e+00 3.212425708770751953e+00 1.438931303709978238e-05 -4.804560740012675524e-05 -1.009688821795862168e-05 2.381967533438000828e-05
1.860000000000000000e+03 1.077751159667968750e+01 -4.073146343231201172e+00 -3.735041990876197815e-02 -7.058974355459213257e-02 -3.238204866647720337e-02 3.725604712963104248e-02
1.861000000000000000e+03 1.066669940948486328e+01 -3.322995662689208984e+00 4.329043254256248474e-02 -4.569801688194274902e-02 -7.222749991342425346e-04 4.706989973783493042e-02
1.862000000000000000e+03 7.497653961181640625e+01 -1.320896148681640625e+01 -2.032656222581863403e-01 -2.313448674976825714e-02 -6.792003661394119263e-02 -1.667433977127075195e-01
1.863000000000000000e+03 7.436084747314453125e+01 -1.314706611633300781e+01 -2.541052401065826416e-01 -1.359692309051752090e-02 -8.031065016984939575e-02 -1.739196181297302246e-01
1.864000000000000000e+03 7.631935119628906250e+01 -1.300003337860107422e+01 -1.277069151401519775e-01 -5.909388139843940735e-02 -5.604023858904838562e-02 -1.309607028961181641e-01
1.865000000000000000e+03 7.562593841552734375e+01 -1.309198760986328125e+01 -1.392903476953506470e-01 -5.309076607227325439e-02 -5.771433562040328979e-02 -1.511575281620025635e-01
1.866000000000000000e+03 1.529026031494140625e+01 -3.227842807769775391e+00 -4.670123755931854248e-02 -1.209423765540122986e-01 -5.029308423399925232e-02 -1.562554836273193359e-01
1.867000000000000000e+03 9.784518241882324219e+00 -2.601369142532348633e+00 1.218081861734390259e-01 -2.106223627924919128e-02 3.022378496825695038e-02 6.620937585830688477e-02
1.868000000000000000e+03 7.326868057250976562e+00 2.519550323486328125e+00 7.283539889613166451e-05 1.928888377733528614e-05 2.763728480204008520e-05 -3.648591882665641606e-05
1.869000000000000000e+03 6.612841129302978516e+00 3.212715625762939453e+00 8.262468327302485704e-05 1.993328260141424835e-05 3.076739085372537374e-05 -4.682141297962516546e-05
1.870000000000000000e+03 8.793479919433593750e+00 3.226744651794433594e+00 2.359802783757913858e-05 -5.401014277595095336e-05 -9.123635209107305855e-06 4.370491296867839992e-05
1.871000000000000000e+03 8.057575225830078125e+00 3.221027374267578125e+00 9.015295654535293579e-05 1.514932955615222454e-05 3.159068728564307094e-05 -3.799261685344390571e-05
1.872000000000000000e+03 5.176455497741699219e+00 3.282110929489135742e+00 7.175168866524472833e-05 2.554760976636316627e-05 2.918978861998766661e-05 -7.659670518478378654e-05
1.873000000000000000e+03 3.774627447128295898e+00 3.369910001754760742e+00 1.087224009097553790e-04 -8.518843060301151127e-06 3.006106817338149995e-05 -7.599161472171545029e-05
1.874000000000000000e+03 3.644050121307373047e+00 2.638540506362915039e+00 -3.112532067461870611e-05 1.485726988903479651e-05 -4.880414962826762348e-06 4.903193257632665336e-06
1.875000000000000000e+03 2.066004037857055664e+00 4.271009445190429688e+00 1.248412590939551592e-04 5.382819654187187552e-05 5.360083378036506474e-05 1.710784260922082467e-07
1.876000000000000000e+03 5.263334274291992188e+00 4.022775173187255859e+00 2.702864003367722034e-05 -5.639744995278306305e-05 -8.810642611933872104e-06 3.281943281763233244e-05
1.877000000000000000e+03 5.891872406005859375e+00 3.236841678619384766e+00 2.218846566393040121e-05 -4.681153950514271855e-05 -7.386921424767933786e-06 1.673059159656986594e-05
1.878000000000000000e+03 5.953573703765869141e+00 3.935724973678588867e+00 6.715673953294754028e-05 3.731624383362941444e-05 3.134189319098368287e-05 -6.754257628927007318e-05
1.879000000000000000e+03 9.538208961486816406e+00 3.226563930511474609e+00 7.517213089158758521e-05 2.577510713308583945e-05 3.028417086170520633e-05 -2.190025043091736734e-05
1.880000000000000000e+03 5.903350353240966797e+00 -2.668328523635864258e+00 7.389429956674575806e-02 2.520057605579495430e-03 2.292430587112903595e-02 9.467387199401855469e-02
1.881000000000000000e+03 6.814602851867675781e+00 -3.391832351684570312e+00 4.098595306277275085e-02 -6.391301285475492477e-03 1.037839520722627640e-02 9.947428852319717407e-02
1.882000000000000000e+03 6.230337619781494141e+00 -4.261351585388183594e+00 -6.982270628213882446e-03 -1.474456512369215488e-03 -2.537018153816461563e-03 9.796202182769775391e-02
1.883000000000000000e+03 8.353740692138671875e+00 -3.352971792221069336e+00 4.616025462746620178e-02 -2.037172392010688782e-02 7.736559491604566574e-03 8.823410421609878540e-02
1.884000000000000000e+03 4.827772140502929688e+00 -4.465007305145263672e+00 -3.528361674398183823e-03 1.897375471889972687e-02 4.633618053048849106e-03 9.782631695270538330e-02
1.885000000000000000e+03 2.629976272583007812e+00 -3.757019519805908203e+00 1.104520540684461594e-02 4.542551934719085693e-02 1.694121770560741425e-02 7.630348950624465942e-02
1.886000000000000000e+03 2.245408058166503906e+00 -2.965212583541870117e+00 1.888642646372318268e-02 3.788859024643898010e-02 1.703250408172607422e-02 6.442063301801681519e-02
1.887000000000000000e+03 2.034519910812377930e+00 -4.236837387084960938e+00 3.008018480613827705e-03 7.095057517290115356e-02 2.218757756054401398e-02 6.540343165397644043e-02
1.888000000000000000e+03 9.121943473815917969e+00 -3.353036165237426758e+00 4.472593218088150024e-02 -2.602659910917282104e-02 5.609800107777118683e-03 7.818631827831268311e-02
1.889000000000000000e+03 7.594001770019531250e+01 -2.037220764160156250e+01 -1.131680619437247515e-04 2.374973264522850513e-04 3.729878153535537422e-05 -2.776720211841166019e-04
1.890000000000000000e+03 3.187345504760742188e+01 -2.776058435440063477e+00 -2.223705291748046875e+00 2.036780267953872681e-01 -6.060081720352172852e-01 -4.372497200965881348e-01
1.891000000000000000e+03 3.780192184448242188e+01 -1.452149271965026855e+00 -2.022659778594970703e+00 3.779799640178680420e-01 -4.934039413928985596e-01 6.826537251472473145e-01
1.892000000000000000e+03 1.783588981628417969e+01 -3.978464365005493164e+00 -2.589660286903381348e-01 -1.962204575538635254e-01 -1.365559548139572144e-01 -3.725937008857727051e-01
1.893000000000000000e+03 1.848277091979980469e+01 -3.073785305023193359e+00 -2.219557166099548340e-01 -1.310227513313293457e-01 -1.058935374021530151e-01 -3.447966277599334717e-01
1.894000000000000000e+03 1.219311618804931641e+01 -3.270311594009399414e+00 3.279304504394531250e-02 -6.668749451637268066e-02 -1.016833446919918060e-02 -7.944276439957320690e-04
1.895000000000000000e+03 1.295470809936523438e+01 -3.251939773559570312e+00 2.029125951230525970e-02 -8.010492473840713501e-02 -1.794409938156604767e-02 -3.289648890495300293e-02
1.896000000000000000e+03 3.596081924438476562e+01 -3.112686634063720703e+00 -2.289496660232543945e+00 6.456590294837951660e-01 -4.931512773036956787e-01 4.479577541351318359e-01
1.897000000000000000e+03 7.195594024658203125e+01 -1.287989521026611328e+01 -4.473371207714080811e-01 1.032396107912063599e-01 -1.032292470335960388e-01 -1.556461006402969360e-01
1.898000000000000000e+03 7.280036163330078125e+01 -1.291929721832275391e+01 -3.939901590347290039e-01 6.191586330533027649e-02 -9.962229430675506592e-02 -1.909105926752090454e-01
1.899000000000000000e+03 7.108029937744140625e+01 -1.288769817352294922e+01 -5.808514356613159180e-01 1.474536955356597900e-01 -1.300193220376968384e-01 -1.584278941154479980e-01
1.900000000000000000e+03 1.607446289062500000e+01 -3.223643779754638672e+00 -8.113450556993484497e-02 -1.321868449449539185e-01 -6.399640440940856934e-02 -2.072237879037857056e-01
1.901000000000000000e+03 3.770611190795898438e+01 3.820561885833740234e+00 1.259047803614521399e-05 -8.114516967907547951e-04 -2.396583731751888990e-04 1.172098709503188729e-04
1.902000000000000000e+03 3.784891128540039062e+01 5.118546962738037109e+00 -1.497625344200059772e-04 -1.307608210481703281e-03 -4.372112452983856201e-04 1.162601402029395103e-03
1.903000000000000000e+03 7.363435363769531250e+01 -1.299025726318359375e+01 -2.957230508327484131e-01 2.808722481131553650e-02 -8.029074966907501221e-02 -1.841893047094345093e-01
1.904000000000000000e+03 7.367823028564453125e+01 -2.000283813476562500e+01 2.250855868624057621e-05 -1.638687535887584090e-04 -4.240805719746276736e-05 -1.304875768255442381e-04
1.905000000000000000e+03 2.473428153991699219e+01 -3.296397686004638672e+00 -9.217765331268310547e-01 -5.386199429631233215e-02 -2.926915585994720459e-01 -8.009617924690246582e-01
1.906000000000000000e+03 3.845974349975585938e+01 4.280785083770751953e+00 -2.383254031883552670e-04 8.317258907482028008e-04 1.780201564542949200e-04 4.160900134593248367e-04
1.907000000000000000e+03 2.282439613342285156e+01 -1.218838453292846680e+00 -6.221903562545776367e-01 8.533333241939544678e-02 -1.610571146011352539e-01 -2.496631741523742676e-01
1.908000000000000000e+03 2.157123565673828125e+01 -2.339106798171997070e+00 -5.035427808761596680e-01 -1.681353338062763214e-02 -1.561069041490554810e-01 -4.075238108634948730e-01
1.909000000000000000e+03 6.952639007568359375e+01 -1.951504135131835938e+01 1.085783471353352070e-03 1.487230416387319565e-03 7.719041896052658558e-04 6.167488172650337219e-04
1.910000000000000000e+03 1.926835441589355469e+01 -2.938655138015747070e+00 -2.747491598129272461e-01 -1.137059852480888367e-01 -1.165365427732467651e-01 -3.765557110309600830e-01
1.911000000000000000e+03 2.557745742797851562e+01 -4.145371437072753906e+00 -7.999231815338134766e-01 -1.575685292482376099e-01 -2.872475087642669678e-01 -9.323183298110961914e-01
1.912000000000000000e+03 2.350838851928710938e+01 -1.774367809295654297e+00 -8.178279995918273926e-01 9.487117081880569458e-02 -2.168870419263839722e-01 -3.747708499431610107e-01
1.913000000000000000e+03 2.003762245178222656e+01 -2.776580810546875000e+00 -3.440111577510833740e-01 -8.696192502975463867e-02 -1.292919218540191650e-01 -3.967302143573760986e-01
1.914000000000000000e+03 2.079934310913085938e+01 -2.580418586730957031e+00 -4.097166359424591064e-01 -5.453422665596008301e-02 -1.392752677202224731e-01 -4.016797840595245361e-01
1.915000000000000000e+03 5.194858169555664062e+01 2.476532745361328125e+01 3.142094016075134277e-01 1.058573722839355469e-01 1.260200291872024536e-01 -3.084973096847534180e-01
1.916000000000000000e+03 3.365167617797851562e+01 -3.720440864562988281e+00 -1.766107678413391113e+00 3.461566269397735596e-01 -4.259853065013885498e-01 8.519963175058364868e-02
1.917000000000000000e+03 3.361529922485351562e+01 -3.033718109130859375e+00 -2.092364549636840820e+00 1.495297253131866455e-01 -5.828504562377929688e-01 1.159496158361434937e-01
1.918000000000000000e+03 5.898188018798828125e+01 7.671049833297729492e-01 1.073101758956909180e+00 2.919986724853515625e+00 1.197926521301269531e+00 1.708950042724609375e+00
1.919000000000000000e+03 6.157461929321289062e+01 1.987512946128845215e+00 6.483804583549499512e-01 3.135685920715332031e+00 1.135219931602478027e+00 9.164920449256896973e-01
1.920000000000000000e+03 4.338477706909179688e+01 -5.256277084350585938e+00 -3.814669370651245117e+00 -5.940240025520324707e-01 -1.322607994079589844e+00 9.181239008903503418e-01
1.921000000000000000e+03 6.291209793090820312e+01 8.132092475891113281e+00 7.600170969963073730e-01 5.613889694213867188e+00 1.912171959877014160e+00 1.070442318916320801e+00
1.922000000000000000e+03 4.485269165039062500e+01 -2.113532066345214844e+01 -5.680977553129196167e-02 4.529472827911376953e+00 1.341798901557922363e+00 -8.124905079603195190e-02
1.923000000000000000e+03 5.571564865112304688e+01 2.367133140563964844e+01 7.247598767280578613e-01 2.209278196096420288e-01 2.837063074111938477e-01 -5.940671563148498535e-01
1.924000000000000000e+03 5.727232360839843750e+01 -1.211600780487060547e+01 -4.719989299774169922e-01 5.891089439392089844e-01 3.513300791382789612e-02 8.152011036872863770e-01
1.925000000000000000e+03 2.305229949951171875e+01 -9.372594833374023438e+00 -7.119221687316894531e-01 -1.858603209257125854e-01 -2.693347334861755371e-01 -5.032038092613220215e-01
1.926000000000000000e+03 2.058429336547851562e+01 -8.714888572692871094e+00 -7.819587588310241699e-01 -3.408642113208770752e-01 -3.368468880653381348e-01 -6.958022117614746094e-01
1.927000000000000000e+03 4.295936203002929688e+01 -2.678771781921386719e+01 2.005336433649063110e-01 2.356613636016845703e+00 7.671442031860351562e-01 4.401232898235321045e-01
1.928000000000000000e+03 1.904716873168945312e+01 -3.182847785949707031e+01 5.304461121559143066e-01 4.935869574546813965e-01 3.072099387645721436e-01 -2.831169664859771729e-01
1.929000000000000000e+03 1.950739097595214844e+01 -8.749905586242675781e+00 -7.875573635101318359e-01 -4.359400570392608643e-01 -3.670492172241210938e-01 -6.660484075546264648e-01
1.930000000000000000e+03 6.868907928466796875e+01 -2.628483390808105469e+01 -1.155584957450628281e-02 2.950437832623720169e-03 -2.581623615697026253e-03 -3.969943209085613489e-04
1.931000000000000000e+03 9.834423065185546875e+00 -1.616120529174804688e+01 -3.668325543403625488e-01 -2.813422083854675293e-01 -1.944524198770523071e-01 -6.980746984481811523e-01
1.932000000000000000e+03 3.623632431030273438e+01 4.446194171905517578e+00 1.535756397061049938e-03 3.408971242606639862e-04 5.629960214719176292e-04 -6.407210603356361389e-04
1.933000000000000000e+03 6.739926147460937500e+01 -1.222147274017333984e+01 -1.574124813079833984e+00 1.990393400192260742e-01 -4.125256538391113281e-01 6.267088651657104492e-02
1.934000000000000000e+03 5.069855499267578125e+01 -1.294246673583984375e+01 1.777443051338195801e+00 6.472746729850769043e-01 7.274153232574462891e-01 1.910022020339965820e+00
1.935000000000000000e+03 6.198352050781250000e+01 -3.276851654052734375e+01 -4.742093011736869812e-02 6.069145631045103073e-03 -1.240553520619869232e-02 3.769154101610183716e-02
1.936000000000000000e+03 2.167724037170410156e+01 -8.510414123535156250e+00 -7.714613676071166992e-01 -2.478429675102233887e-01 -3.057912886142730713e-01 -6.718618869781494141e-01
1.937000000000000000e+03 5.499769210815429688e+01 -1.204069137573242188e+01 8.252783864736557007e-02 6.890273094177246094e-01 2.314665466547012329e-01 1.457862854003906250e+00
1.938000000000000000e+03 5.384761810302734375e+01 -1.191721153259277344e+01 2.803374230861663818e-01 7.010094523429870605e-01 2.944040596485137939e-01 1.748701930046081543e+00
1.939000000000000000e+03 6.049901580810546875e+01 -1.226854038238525391e+01 -1.294348120689392090e+00 3.497667908668518066e-01 -2.833743989467620850e-01 -6.597083993256092072e-04
1.940000000000000000e+03 6.544850158691406250e+01 1.999678802490234375e+01 1.111467838287353516e+00 3.402167320251464844e+00 1.354090571403503418e+00 5.552915856242179871e-02
1.941000000000000000e+03 7.843205261230468750e+01 -2.131991004943847656e+01 -6.431600922951474786e-05 4.651770868804305792e-04 1.202583298436366022e-04 -1.189295071526430547e-04
1.942000000000000000e+03 7.726391601562500000e+01 -2.261190032958984375e+01 -4.679666599258780479e-04 1.238383702002465725e-04 -1.032384898280724883e-04 8.729581168154254556e-05
1.943000000000000000e+03 7.740751647949218750e+01 -3.087858200073242188e+01 -7.337003480643033981e-04 -6.612556520849466324e-03 -2.203877083957195282e-03 4.982037004083395004e-03
1.944000000000000000e+03 7.681025695800781250e+01 -2.675735855102539062e+01 -1.650179270654916763e-03 -1.742184744216501713e-03 -1.017709262669086456e-03 2.393359784036874771e-03
1.945000000000000000e+03 7.723435974121093750e+01 -2.394614601135253906e+01 -5.411088932305574417e-04 -5.178304854780435562e-04 -3.176818136125802994e-04 4.536863707471638918e-04
1.946000000000000000e+03 7.699835968017578125e+01 -2.528861999511718750e+01 -1.076871412806212902e-03 -8.138123666867613792e-04 -5.672051338478922844e-04 1.218208693899214268e-03
1.947000000000000000e+03 7.704724121093750000e+01 -3.403319931030273438e+01 1.200347924168454483e-05 -1.267907861620187759e-02 -3.800122532993555069e-03 7.190089672803878784e-03
1.948000000000000000e+03 7.679064178466796875e+01 -2.832683753967285156e+01 -1.695529208518564701e-03 -2.735194051638245583e-03 -1.329216989688575268e-03 3.953427542001008987e-03
1.949000000000000000e+03 7.745459747314453125e+01 -3.185510253906250000e+01 -9.138401946984231472e-04 -8.336265571415424347e-03 -2.775031607598066330e-03 5.947618745267391205e-03
1.950000000000000000e+03 7.700897979736328125e+01 -2.975099754333496094e+01 -1.561498851515352726e-03 -4.830046556890010834e-03 -1.917463610880076885e-03 5.129486322402954102e-03
1.951000000000000000e+03 7.601697540283203125e+01 -3.504477310180664062e+01 8.817662019282579422e-04 -1.324814278632402420e-02 -3.709912998601794243e-03 1.009174529463052750e-02
1.952000000000000000e+03 7.597631835937500000e+01 -3.669098663330078125e+01 3.273095469921827316e-03 -1.740621961653232574e-02 -4.239937290549278259e-03 8.747932501137256622e-03
1.953000000000000000e+03 5.615941619873046875e+01 -1.207917499542236328e+01 -2.172484546899795532e-01 6.272326111793518066e-01 1.229952350258827209e-01 1.160985827445983887e+00
1.954000000000000000e+03 3.047592926025390625e+01 -7.013875484466552734e+00 5.527628064155578613e-01 1.047925472259521484e+00 4.802064895629882812e-01 -1.049339056015014648e+00
1.955000000000000000e+03 2.785894584655761719e+01 -6.928033828735351562e+00 4.146245121955871582e-01 -4.638351500034332275e-02 1.104722991585731506e-01 -1.008381605148315430e+00
1.956000000000000000e+03 4.279043579101562500e+01 1.843294143676757812e+01 -9.822462499141693115e-02 3.912999480962753296e-02 -1.772838830947875977e-02 -1.462715212255716324e-02
1.957000000000000000e+03 4.182740783691406250e+01 1.801536941528320312e+01 -9.429255127906799316e-02 3.174413368105888367e-02 -1.876452565193176270e-02 8.575091487728059292e-04
1.958000000000000000e+03 4.440956878662109375e+01 -2.206764602661132812e+01 1.419314444065093994e-01 4.068135261535644531e+00 1.263020038604736328e+00 -4.124066978693008423e-02
1.959000000000000000e+03 7.679544067382812500e+01 3.765787124633789062e+00 5.907235294580459595e-02 -1.861360907554626465e+00 -5.406865477561950684e-01 -5.079303383827209473e-01
1.960000000000000000e+03 7.681962585449218750e+01 2.351973295211791992e+00 4.396396502852439880e-02 -1.702470421791076660e+00 -4.975519180297851562e-01 -5.496690869331359863e-01
1.961000000000000000e+03 7.671560668945312500e+01 1.085798168182373047e+01 1.093202829360961914e-01 -2.375025272369384766e+00 -6.797114610671997070e-01 -1.785596609115600586e-01
1.962000000000000000e+03 7.674865722656250000e+01 9.437730789184570312e+00 1.172966882586479187e-01 -2.316891670227050781e+00 -6.598784923553466797e-01 -2.609365880489349365e-01
1.963000000000000000e+03 7.681343078613281250e+01 1.774067497253417969e+01 1.047523468732833862e-01 -2.361162900924682617e+00 -6.769231557846069336e-01 2.727262079715728760e-01
1.964000000000000000e+03 7.683822631835937500e+01 1.637178611755371094e+01 1.130693331360816956e-01 -2.430858135223388672e+00 -6.953366398811340332e-01 1.875860542058944702e-01
1.965000000000000000e+03 7.663848114013671875e+01 2.186006736755371094e+01 5.680381879210472107e-02 -1.959227442741394043e+00 -5.707270503044128418e-01 4.842362701892852783e-01
1.966000000000000000e+03 7.662243652343750000e+01 2.325144767761230469e+01 3.360528126358985901e-02 -1.796665191650390625e+00 -5.289179682731628418e-01 5.305933952331542969e-01
1.967000000000000000e+03 7.586569976806640625e+01 3.130136489868164062e+01 -8.642648160457611084e-02 -8.327315449714660645e-01 -2.757474184036254883e-01 4.410006105899810791e-01
1.968000000000000000e+03 7.664093780517578125e+01 2.462410736083984375e+01 9.922588244080543518e-03 -1.633311510086059570e+00 -4.870166778564453125e-01 5.382243394851684570e-01
1.969000000000000000e+03 7.676208496093750000e+01 1.910406684875488281e+01 8.894655853509902954e-02 -2.229309320449829102e+00 -6.421087980270385742e-01 3.539678156375885010e-01
1.970000000000000000e+03 7.682630920410156250e+01 1.500291252136230469e+01 1.185008510947227478e-01 -2.473885297775268555e+00 -7.066153287887573242e-01 9.901311993598937988e-02
1.971000000000000000e+03 7.678755187988281250e+01 1.363790512084960938e+01 1.182572394609451294e-01 -2.458221673965454102e+00 -7.019893527030944824e-01 5.860893521457910538e-03
1.972000000000000000e+03 7.674323272705078125e+01 1.226206970214843750e+01 1.289214938879013062e-01 -2.423534870147705078e+00 -6.883840560913085938e-01 -7.856991887092590332e-02
1.973000000000000000e+03 7.680276489257812500e+01 8.011192321777343750e+00 9.740135818719863892e-02 -2.234890937805175781e+00 -6.412469148635864258e-01 -3.439848423004150391e-01
1.974000000000000000e+03 7.681219482421875000e+01 6.593034744262695312e+00 7.983472198247909546e-02 -2.137859106063842773e+00 -6.174073219299316406e-01 -3.995132148265838623e-01
1.975000000000000000e+03 7.687288665771484375e+01 9.485996961593627930e-01 3.223508223891258240e-02 -1.540133953094482422e+00 -4.523696601390838623e-01 -5.641688108444213867e-01
1.976000000000000000e+03 7.693157196044921875e+01 -4.363780021667480469e-01 1.630494929850101471e-02 -1.372823715209960938e+00 -4.069556295871734619e-01 -5.781257748603820801e-01
1.977000000000000000e+03 7.697590637207031250e+01 -1.802934885025024414e+00 -1.037474023178219795e-03 -1.190668463706970215e+00 -3.575117886066436768e-01 -5.713443160057067871e-01
1.978000000000000000e+03 7.694931030273437500e+01 -7.156580924987792969e+00 -6.878492981195449829e-02 -5.077581405639648438e-01 -1.729629188776016235e-01 -4.392704665660858154e-01
1.979000000000000000e+03 7.694226074218750000e+01 -8.461611747741699219e+00 -9.677239507436752319e-02 -3.750219047069549561e-01 -1.415382921695709229e-01 -3.764439225196838379e-01
1.980000000000000000e+03 7.704963684082031250e+01 -1.213942623138427734e+01 -9.248663485050201416e-02 -1.051175892353057861e-01 -5.928126722574234009e-02 -1.483370065689086914e-01
1.981000000000000000e+03 7.689234161376953125e+01 -9.770727157592773438e+00 -9.827581048011779785e-02 -2.506591081619262695e-01 -1.046804785728454590e-01 -3.050589263439178467e-01
1.982000000000000000e+03 7.699056243896484375e+01 -3.165814876556396484e+00 -2.455386705696582794e-02 -1.007421493530273438e+00 -3.095926046371459961e-01 -5.561836957931518555e-01
1.983000000000000000e+03 7.697827911376953125e+01 -4.519708156585693359e+00 -3.506013751029968262e-02 -8.256517648696899414e-01 -2.582135498523712158e-01 -5.301400423049926758e-01
1.984000000000000000e+03 7.739108276367187500e+01 3.326605224609375000e+01 -3.598501160740852356e-02 -9.556422233581542969e-01 -2.974881827831268311e-01 2.969070374965667725e-01
1.985000000000000000e+03 7.527905273437500000e+01 2.568854713439941406e+01 -2.214070595800876617e-02 -1.038509726524353027e+00 -3.181951344013214111e-01 6.497326493263244629e-01
1.986000000000000000e+03 7.654100036621093750e+01 2.598974037170410156e+01 -1.065090391784906387e-02 -1.447123765945434570e+00 -4.373324215412139893e-01 5.504539012908935547e-01
1.987000000000000000e+03 3.805274581909179688e+01 -2.996571159362792969e+01 3.493034839630126953e-01 1.371974706649780273e+00 5.163834691047668457e-01 6.227034926414489746e-01
1.988000000000000000e+03 4.371749114990234375e+01 1.899302482604980469e+01 -1.119339242577552795e-01 2.714300341904163361e-02 -2.543727494776248932e-02 -8.970629423856735229e-03
1.989000000000000000e+03 3.195480918884277344e+01 -3.172830963134765625e+01 6.020001173019409180e-01 8.614709973335266113e-01 4.390413463115692139e-01 3.984740078449249268e-01
1.990000000000000000e+03 3.419665908813476562e+01 -2.961630058288574219e+01 6.136191487312316895e-01 9.964054226875305176e-01 4.830073714256286621e-01 5.702229142189025879e-01
1.991000000000000000e+03 3.208875179290771484e+00 3.032580566406250000e+01 -7.734257087577134371e-05 -8.204167708754539490e-03 -2.484453143551945686e-03 5.163041409105062485e-03
1.992000000000000000e+03 3.275344371795654297e+00 3.165866470336914062e+01 -7.203517598100006580e-04 -9.826243855059146881e-03 -3.163978690281510353e-03 5.434303078800439835e-03
1.993000000000000000e+03 3.429108381271362305e+00 2.294252586364746094e+01 -1.412068726494908333e-03 -1.087347394786775112e-03 -7.498248596675693989e-04 1.645140349864959717e-03
1.994000000000000000e+03 3.254994392395019531e+00 2.509353065490722656e+01 -9.014143142849206924e-04 -2.217400120571255684e-03 -9.356443188153207302e-04 2.743882592767477036e-03
1.995000000000000000e+03 2.485866546630859375e+00 3.641321945190429688e+01 7.938141934573650360e-04 -1.700860448181629181e-02 -4.864437039941549301e-03 3.125861519947648048e-03
1.996000000000000000e+03 3.113971233367919922e+00 2.629825973510742188e+01 -1.278964686207473278e-03 -3.336069872602820396e-03 -1.384510425850749016e-03 3.195639466866850853e-03
1.997000000000000000e+03 3.153896331787109375e+00 2.759812355041503906e+01 -5.609926884062588215e-04 -4.546683281660079956e-03 -1.532302820123732090e-03 3.994028549641370773e-03
1.998000000000000000e+03 3.076949834823608398e+00 2.895337677001953125e+01 -1.080451882444322109e-03 -6.246189586818218231e-03 -2.197992522269487381e-03 4.570919089019298553e-03
1.999000000000000000e+03 3.446625471115112305e+00 -2.737750625610351562e+01 5.570423975586891174e-02 -1.094517111778259277e+00 -3.116438686847686768e-01 -1.960982233285903931e-01
2.000000000000000000e+03 3.374828338623046875e+00 -2.598137474060058594e+01 5.698585882782936096e-02 -1.040133833885192871e+00 -2.949443757534027100e-01 -2.336138188838958740e-01
2.001000000000000000e+03 3.541898250579833984e+00 -3.152816581726074219e+01 5.183906108140945435e-02 -1.222373127937316895e+00 -3.511602282524108887e-01 -8.802647143602371216e-02
2.002000000000000000e+03 2.883192300796508789e+00 1.630733299255371094e+01 3.006505139637738466e-04 3.003730380441993475e-04 1.803070626920089126e-04 -4.718627023976296186e-04
2.003000000000000000e+03 2.838142633438110352e+00 1.764258384704589844e+01 -4.751678206957876682e-04 3.316903894301503897e-04 -4.304323374526575208e-05 -2.619175938889384270e-04
2.004000000000000000e+03 2.996778726577758789e+00 1.492790317535400391e+01 -2.459577517583966255e-04 2.240702160634100437e-04 -6.566263891727430746e-06 -3.628222330007702112e-04
2.005000000000000000e+03 2.710418701171875000e+00 6.692760944366455078e+00 -8.083003922365605831e-05 2.966737883980385959e-05 -1.534879811515565962e-05 -4.287092815502546728e-05
2.006000000000000000e+03 2.742690086364746094e+00 7.875563621520996094e+00 1.822645717766135931e-04 7.965540135046467185e-05 7.857599121052771807e-05 -1.539517397759482265e-04
2.007000000000000000e+03 2.094629764556884766e+00 -1.090675354003906250e+01 -4.346353560686111450e-02 7.706214487552642822e-02 1.007958129048347473e-02 -6.095959618687629700e-02
2.008000000000000000e+03 1.717202782630920410e+00 -6.584350109100341797e+00 -1.220361515879631042e-02 1.268821507692337036e-01 3.440356254577636719e-02 4.600973054766654968e-02
2.009000000000000000e+03 1.851939320564270020e+00 -1.782625961303710938e+01 -1.065844763070344925e-02 -4.214597940444946289e-01 -1.296354681253433228e-01 -2.323137074708938599e-01
2.010000000000000000e+03 3.072807312011718750e+00 -1.787941741943359375e+01 -2.380347065627574921e-02 -4.247460067272186279e-01 -1.345648467540740967e-01 -3.508702814579010010e-01
2.011000000000000000e+03 2.846633911132812500e+00 -5.490202903747558594e+00 -1.563397236168384552e-02 6.883599609136581421e-02 1.596060767769813538e-02 7.781819254159927368e-02
2.012000000000000000e+03 3.453196763992309570e+00 -1.131728363037109375e+01 -1.003669202327728271e-01 -4.768702667206525803e-03 -3.154068812727928162e-02 -1.217292100191116333e-01
2.013000000000000000e+03 3.157691717147827148e+00 -1.392191791534423828e+01 -7.520992308855056763e-02 -1.185839325189590454e-01 -5.813815444707870483e-02 -2.373196482658386230e-01
2.014000000000000000e+03 3.077653646469116211e+00 -2.059400558471679688e+01 2.242348156869411469e-02 -6.732958555221557617e-01 -1.952617019414901733e-01 -3.553188443183898926e-01
2.015000000000000000e+03 3.067150831222534180e+00 -1.922794723510742188e+01 -1.767741166986525059e-03 -5.433236956596374512e-01 -1.635274291038513184e-01 -3.640086650848388672e-01
2.016000000000000000e+03 3.127862453460693359e+00 -2.332829284667968750e+01 5.284048244357109070e-02 -8.867884278297424316e-01 -2.501843869686126709e-01 -3.100523650646209717e-01
2.017000000000000000e+03 3.102041244506835938e+00 -2.196651458740234375e+01 3.072315454483032227e-02 -7.823759317398071289e-01 -2.254958301782608032e-01 -3.327658772468566895e-01
2.018000000000000000e+03 2.770627975463867188e+00 5.611769676208496094e+00 1.388401433359831572e-04 5.849896479048766196e-05 5.920173134654760361e-05 -8.874278864823281765e-05
2.019000000000000000e+03 2.972965002059936523e+00 1.046949195861816406e+01 2.604872861411422491e-04 1.126165443565696478e-04 1.119311491493135691e-04 -2.810236765071749687e-04
2.020000000000000000e+03 4.268142700195312500e+00 -2.324182319641113281e+01 7.174351066350936890e-02 -7.960933446884155273e-01 -2.173049449920654297e-01 -3.822866976261138916e-01
2.021000000000000000e+03 3.119103431701660156e+00 -1.523317527770996094e+01 -6.422137469053268433e-02 -2.068522721529006958e-01 -8.132209628820419312e-02 -2.866781949996948242e-01
2.022000000000000000e+03 2.971987724304199219e+00 -7.863895416259765625e+00 -4.613574221730232239e-02 7.561488449573516846e-02 8.843741379678249359e-03 2.907386422157287598e-02
2.023000000000000000e+03 2.949599981307983398e+00 2.026474952697753906e+01 -8.537852554582059383e-04 7.184552669059485197e-05 -2.345819229958578944e-04 2.711436827667057514e-04
2.024000000000000000e+03 3.129125118255615234e+00 2.158587837219238281e+01 -3.113074344582855701e-04 -3.055954293813556433e-04 -1.850708649726584554e-04 5.459045059978961945e-04
2.025000000000000000e+03 2.857058286666870117e+00 1.895576667785644531e+01 9.228951967088505626e-05 2.893237397074699402e-04 1.144839770859107375e-04 -2.399134828010573983e-04
2.026000000000000000e+03 3.182629108428955078e+00 1.192176723480224609e+01 -8.651585812913253903e-05 6.950507668079808354e-05 -5.103233888803515583e-06 -2.250292018288746476e-04
2.027000000000000000e+03 2.830097675323486328e+00 9.132932662963867188e+00 -7.892071153037250042e-05 7.149196608224883676e-05 -2.228622633992927149e-06 -9.228337148670107126e-05
2.028000000000000000e+03 5.277186203002929688e+01 -1.161567497253417969e+01 3.982098400592803955e-01 7.354893684387207031e-01 3.401097655296325684e-01 1.965345144271850586e+00
2.029000000000000000e+03 3.443965911865234375e+01 -8.191316604614257812e+00 4.928603768348693848e-01 8.112400174140930176e-01 3.912301063537597656e-01 -5.710926055908203125e-01
2.030000000000000000e+03 3.319300842285156250e+01 -6.785778522491455078e+00 -5.463123694062232971e-02 9.508720040321350098e-01 2.688722312450408936e-01 -4.525918364524841309e-01
2.031000000000000000e+03 3.776940155029296875e+01 -1.808463668823242188e+01 5.889841914176940918e-01 4.810580909252166748e-01 3.210126757621765137e-01 3.323983848094940186e-01
2.032000000000000000e+03 3.771038055419921875e+01 -1.611116790771484375e+01 9.306403994560241699e-01 2.906168401241302490e-01 3.663771748542785645e-01 -4.987443387508392334e-01
2.033000000000000000e+03 7.833244323730468750e+01 -2.021149635314941406e+01 -1.107775024138391018e-04 -1.419868021912407130e-05 -3.749285315279848874e-05 -2.501858398318290710e-04
2.034000000000000000e+03 3.943182373046875000e+01 1.246623802185058594e+01 -2.798311039805412292e-02 3.030894789844751358e-03 -7.485664449632167816e-03 -6.472856272011995316e-03
2.035000000000000000e+03 3.894863891601562500e+01 1.156553363800048828e+01 -1.295956224203109741e-02 2.660366240888834000e-03 -3.089758567512035370e-03 -3.770899493247270584e-03
2.036000000000000000e+03 3.762247467041015625e+01 -2.057546424865722656e+01 3.257778286933898926e-01 7.738623619079589844e-01 3.298920691013336182e-01 9.851567745208740234e-01
2.037000000000000000e+03 3.761913299560546875e+01 -1.934756088256835938e+01 3.104223608970642090e-01 5.594555139541625977e-01 2.609633505344390869e-01 7.117053866386413574e-01
2.038000000000000000e+03 2.014406204223632812e+01 -3.013933944702148438e+01 7.659397125244140625e-01 5.138422846794128418e-01 3.839345872402191162e-01 -4.053100049495697021e-01
2.039000000000000000e+03 3.590477752685546875e+01 -1.284541797637939453e+01 1.068210721015930176e+00 2.554986774921417236e-01 3.971128165721893311e-01 -1.348591327667236328e+00
2.040000000000000000e+03 6.782800292968750000e+01 -2.761640548706054688e+01 -1.877148635685443878e-02 4.722079727798700333e-03 -4.214822314679622650e-03 2.156205009669065475e-03
2.041000000000000000e+03 6.231642150878906250e+01 2.937620878219604492e+00 8.039796948432922363e-01 3.384524345397949219e+00 1.256551265716552734e+00 8.648229241371154785e-01
2.042000000000000000e+03 1.001065444946289062e+01 -2.029703140258789062e+01 1.722808778285980225e-01 -4.202910959720611572e-01 -7.440306246280670166e-02 -7.294077277183532715e-01
2.043000000000000000e+03 4.010291290283203125e+01 1.532279109954833984e+01 -6.157552823424339294e-02 1.761391386389732361e-02 -1.318848412483930588e-02 -3.450452815741300583e-03
2.044000000000000000e+03 3.911993789672851562e+01 1.449403095245361328e+01 -5.035553127527236938e-02 1.833706907927989960e-02 -9.605539031326770782e-03 -1.186062465421855450e-03
2.045000000000000000e+03 5.863140869140625000e+01 -2.377337217330932617e+00 5.569973587989807129e-01 2.219549655914306641e+00 8.329640626907348633e-01 1.104322433471679688e+00
2.046000000000000000e+03 3.020796012878417969e+01 -3.121269989013671875e+01 7.577820420265197754e-01 6.857962012290954590e-01 4.330734610557556152e-01 3.761327862739562988e-01
2.047000000000000000e+03 4.258301925659179688e+01 -2.374752044677734375e+01 3.693450093269348145e-01 3.021634340286254883e+00 1.017293810844421387e+00 5.387934446334838867e-01
2.048000000000000000e+03 5.933090209960937500e+01 -1.195080161094665527e+00 7.293326854705810547e-01 2.419934988021850586e+00 9.447802901268005371e-01 1.172043085098266602e+00
2.049000000000000000e+03 2.401826858520507812e+01 -7.032869815826416016e+00 -4.657536149024963379e-01 -2.660450637340545654e-01 -2.195395976305007935e-01 -7.400433421134948730e-01
2.050000000000000000e+03 3.773193740844726562e+01 -2.177399063110351562e+01 4.030469357967376709e-01 9.610439538955688477e-01 4.092272520065307617e-01 1.118861794471740723e+00
2.051000000000000000e+03 7.192250061035156250e+01 -2.102404785156250000e+01 3.338544047437608242e-05 -1.230179332196712494e-03 -3.590381529647856951e-04 -2.516678941901773214e-04
2.052000000000000000e+03 4.999601364135742188e+01 -3.541714477539062500e+01 -4.421690944582223892e-03 5.546456575393676758e-01 1.650671958923339844e-01 -1.878836303949356079e-01
2.053000000000000000e+03 2.209793567657470703e+00 2.958335161209106445e+00 1.861809437286865432e-06 3.590674168663099408e-05 1.133056503022089601e-05 -1.692411751719191670e-05
2.054000000000000000e+03 4.918084716796875000e+01 -7.959150314331054688e+00 -1.753852725028991699e+00 -5.657878518104553223e-02 -5.431294441223144531e-01 2.028458118438720703e+00
2.055000000000000000e+03 1.399361801147460938e+01 -1.337653732299804688e+01 -9.933227896690368652e-01 -7.816464900970458984e-01 -5.324907898902893066e-01 -5.819746851921081543e-01
2.056000000000000000e+03 3.770565032958984375e+01 -1.388454341888427734e+01 1.185057520866394043e+00 2.525273561477661133e-01 4.312754571437835693e-01 -1.325109362602233887e+00
2.057000000000000000e+03 5.155308532714843750e+01 -6.849067687988281250e+00 -2.183770895004272461e+00 8.493386507034301758e-01 -4.003296494483947754e-01 2.175948858261108398e+00
2.058000000000000000e+03 6.312652587890625000e+01 1.063866615295410156e+01 5.556908845901489258e-01 6.226123332977294922e+00 2.034544229507446289e+00 7.996829152107238770e-01
2.059000000000000000e+03 6.519221496582031250e+01 1.211005783081054688e+01 6.631805896759033203e-01 4.562706947326660156e+00 1.567766308784484863e+00 1.239707469940185547e-01
2.060000000000000000e+03 1.386425113677978516e+01 -2.071757507324218750e+01 3.412420749664306641e-01 2.894950807094573975e-01 1.892211437225341797e-01 -5.185022354125976562e-01
2.061000000000000000e+03 1.746486473083496094e+01 -1.061242675781250000e+01 -1.117627978324890137e+00 -8.291571736335754395e-01 -5.840355157852172852e-01 -6.459915637969970703e-01
2.062000000000000000e+03 5.429823303222656250e+01 -6.146974563598632812e+00 -1.091421961784362793e+00 1.910413742065429688e+00 2.456975579261779785e-01 1.510605216026306152e+00
2.063000000000000000e+03 6.579664611816406250e+01 1.583428192138671875e+01 1.059200286865234375e+00 4.058088779449462891e+00 1.535186767578125000e+00 -2.631687223911285400e-01
2.064000000000000000e+03 3.632143783569335938e+01 -2.643819236755371094e+01 6.597771048545837402e-01 1.092808485031127930e+00 5.257756710052490234e-01 8.223025798797607422e-01
2.065000000000000000e+03 4.124562072753906250e+01 -5.886090755462646484e+00 -2.610190391540527344e+00 2.987061813473701477e-02 -7.740959525108337402e-01 -9.085664525628089905e-03
2.066000000000000000e+03 4.133351135253906250e+01 -4.824815273284912109e+00 -3.521109819412231445e+00 -1.055012196302413940e-01 -1.087983250617980957e+00 3.541730642318725586e-01
2.067000000000000000e+03 3.548826217651367188e+01 -1.039122676849365234e+01 1.223001837730407715e+00 5.835825204849243164e-01 5.419753193855285645e-01 -1.129866003990173340e+00
2.068000000000000000e+03 1.569803619384765625e+01 -9.241504669189453125e+00 -6.951184868812561035e-01 -6.189496517181396484e-01 -3.942204415798187256e-01 -3.717590272426605225e-01
2.069000000000000000e+03 4.293444061279296875e+01 -6.277899742126464844e+00 -2.903694152832031250e+00 -7.533121388405561447e-03 -8.733682036399841309e-01 2.637653946876525879e-01
2.070000000000000000e+03 3.116043853759765625e+01 -3.024717712402343750e+01 7.713106274604797363e-01 7.392967343330383301e-01 4.531821906566619873e-01 5.134186148643493652e-01
2.071000000000000000e+03 3.797149658203125000e+01 -2.296435928344726562e+01 4.943659305572509766e-01 1.191348552703857422e+00 5.057143568992614746e-01 1.133793592453002930e+00
2.072000000000000000e+03 4.425642776489257812e+01 -5.941280364990234375e+00 -3.779508352279663086e+00 -3.595518469810485840e-01 -1.241718053817749023e+00 9.576988220214843750e-01
2.073000000000000000e+03 6.355013275146484375e+01 -9.910351753234863281e+00 -1.118672609329223633e+00 -8.216001838445663452e-02 -3.602498173713684082e-01 4.908809065818786621e-02
2.074000000000000000e+03 5.907200622558593750e+01 -1.188113594055175781e+01 -9.408867955207824707e-01 5.594532489776611328e-01 -1.144300624728202820e-01 4.302525818347930908e-01
2.075000000000000000e+03 6.560000610351562500e+01 -2.993089103698730469e+01 -3.761756047606468201e-02 9.376892820000648499e-03 -8.472199551761150360e-03 1.110798399895429611e-02
2.076000000000000000e+03 5.272731018066406250e+01 -7.083680629730224609e+00 -1.616107940673828125e+00 1.479080438613891602e+00 -4.110825434327125549e-02 2.014459133148193359e+00
2.077000000000000000e+03 4.812637329101562500e+01 -1.499126243591308594e+01 4.655076026916503906e+00 5.457035303115844727e-01 1.560233831405639648e+00 1.518823623657226562e+00
2.078000000000000000e+03 2.856933784484863281e+01 -2.953738927841186523e+00 -1.675237417221069336e+00 5.226278677582740784e-02 -4.868924021720886230e-01 -6.937256455421447754e-01
2.079000000000000000e+03 2.604527091979980469e+01 -2.807977914810180664e+00 -1.224035859107971191e+00 -1.255439221858978271e-01 -4.048739373683929443e-01 -7.895684242248535156e-01
2.080000000000000000e+03 3.037024497985839844e+01 -2.068948268890380859e+00 -2.484616994857788086e+00 2.607962787151336670e-01 -6.671462059020996094e-01 -3.810584545135498047e-01
2.081000000000000000e+03 2.938567543029785156e+01 -2.225814580917358398e+00 -2.220571517944335938e+00 1.534958630800247192e-01 -6.201227307319641113e-01 -4.899079799652099609e-01
2.082000000000000000e+03 2.979647636413574219e+01 -2.083973646163940430e+00 -2.338607072830200195e+00 1.943214684724807739e-01 -6.432856321334838867e-01 -4.298481047153472900e-01
2.083000000000000000e+03 3.117908668518066406e+01 -2.053117036819458008e+00 -2.653250694274902344e+00 2.942686676979064941e-01 -7.076945900917053223e-01 -4.157286584377288818e-01
2.084000000000000000e+03 4.413648223876953125e+01 -1.885873413085937500e+01 -1.041125729680061340e-01 5.850304603576660156e+00 1.723857641220092773e+00 5.652791857719421387e-01
2.085000000000000000e+03 4.350064086914062500e+01 -1.794762611389160156e+01 1.639081835746765137e+00 5.824957370758056641e+00 2.239211797714233398e+00 2.097610712051391602e+00
2.086000000000000000e+03 4.465145874023437500e+01 -1.412292671203613281e+01 2.395791530609130859e+00 4.559380054473876953e+00 2.086551427841186523e+00 9.673762917518615723e-01
2.087000000000000000e+03 4.314005279541015625e+01 -1.728845787048339844e+01 3.522236108779907227e+00 4.640406131744384766e+00 2.448792695999145508e+00 2.113431453704833984e+00
2.088000000000000000e+03 4.523445510864257812e+01 -1.459341716766357422e+01 3.169881105422973633e+00 4.706378936767578125e+00 2.362877845764160156e+00 2.178599119186401367e+00
2.089000000000000000e+03 4.303232574462890625e+01 -1.579059791564941406e+01 4.776407241821289062e+00 3.710809469223022461e+00 2.546164989471435547e+00 1.099387928843498230e-02
2.090000000000000000e+03 4.267627334594726562e+01 -1.717990875244140625e+01 3.456918716430664062e+00 3.826791286468505859e+00 2.185112953186035156e+00 1.648221015930175781e+00
2.091000000000000000e+03 4.399115753173828125e+01 -1.534575271606445312e+01 4.354102611541748047e+00 5.706397056579589844e+00 3.018149852752685547e+00 -2.313574850559234619e-01
2.092000000000000000e+03 4.349759674072265625e+01 -1.477819252014160156e+01 3.345836400985717773e+00 4.314258098602294922e+00 2.298028469085693359e+00 -4.796144068241119385e-01
2.093000000000000000e+03 4.549918365478515625e+01 -1.460552406311035156e+01 3.496997356414794922e+00 4.103011608123779297e+00 2.280002832412719727e+00 2.506718158721923828e+00
2.094000000000000000e+03 4.589203643798828125e+01 -1.430757331848144531e+01 3.457911252975463867e+00 3.004895210266113281e+00 1.938841938972473145e+00 2.497725248336791992e+00
2.095000000000000000e+03 4.744571304321289062e+01 -1.605063247680664062e+01 4.619005680084228516e+00 -1.267636567354202271e-01 1.347672581672668457e+00 1.124782919883728027e+00
2.096000000000000000e+03 4.814046096801757812e+01 -1.545563793182373047e+01 4.452527046203613281e+00 4.067582190036773682e-01 1.457785487174987793e+00 1.328488588333129883e+00
2.097000000000000000e+03 4.500197982788085938e+01 -1.907560539245605469e+01 -2.523628771305084229e-01 4.922621726989746094e+00 1.401077628135681152e+00 -4.034549295902252197e-01
2.098000000000000000e+03 4.474635314941406250e+01 -1.905822181701660156e+01 -3.381919860839843750e-01 5.294414997100830078e+00 1.486866950988769531e+00 -7.574627548456192017e-02
2.099000000000000000e+03 3.439734649658203125e+01 2.606956958770751953e+00 4.313726676627993584e-04 1.677887485129758716e-05 1.344454649370163679e-04 -4.226238816045224667e-04
2.100000000000000000e+03 4.698727798461914062e+01 -1.570053100585937500e+01 5.128684043884277344e+00 -8.444676548242568970e-02 1.513271212577819824e+00 1.712561845779418945e+00
2.101000000000000000e+03 2.025481986999511719e+01 5.679433822631835938e+00 5.944181339145870879e-06 4.782182440976612270e-05 1.612980122445151210e-05 2.319075792911462486e-05
2.102000000000000000e+03 4.671339035034179688e+01 -1.533551120758056641e+01 5.273823738098144531e+00 6.115513443946838379e-01 1.765612602233886719e+00 2.377177715301513672e+00
2.103000000000000000e+03 2.441407775878906250e+01 2.289056015014648438e+01 -1.140533238649368286e-01 -1.834557764232158661e-02 -3.971967101097106934e-02 3.973394259810447693e-02
2.104000000000000000e+03 3.428400039672851562e+01 -3.030126571655273438e+00 -2.129941940307617188e+00 3.053916692733764648e-01 -5.473651289939880371e-01 3.013032078742980957e-01
2.105000000000000000e+03 3.514993667602539062e+01 -2.080228567123413086e+00 -2.516396522521972656e+00 4.629828035831451416e-01 -6.160241365432739258e-01 3.432936072349548340e-01
2.106000000000000000e+03 1.888256835937500000e+01 2.274187850952148438e+01 -5.035494267940521240e-02 -1.083242939785122871e-03 -1.543145533651113510e-02 3.865502076223492622e-03
2.107000000000000000e+03 1.856860542297363281e+01 2.211468315124511719e+01 -4.619157686829566956e-02 -1.691393670625984669e-03 -1.436489168554544449e-02 -1.432368298992514610e-03
2.108000000000000000e+03 1.817566490173339844e+01 7.053081989288330078e+00 -3.608067345339804888e-05 -4.520080983638763428e-05 -2.438444425933994353e-05 -2.853211663023103029e-05
2.109000000000000000e+03 3.319699096679687500e+01 2.533352375030517578e+00 1.196527853608131409e-03 7.012364949332550168e-05 3.799954429268836975e-04 -2.090085181407630444e-04
2.110000000000000000e+03 1.818697357177734375e+01 6.480096340179443359e+00 -3.023295903403777629e-05 -3.546711013768799603e-05 -1.971001984202302992e-05 -1.595530738995876163e-05
2.111000000000000000e+03 1.872962951660156250e+01 6.521391868591308594e+00 -4.139108568779192865e-05 -3.638632188085466623e-05 -2.333322299818973988e-05 -3.493416079436428845e-05
2.112000000000000000e+03 2.372403335571289062e+01 2.315151977539062500e+01 -1.060768067836761475e-01 -1.595654152333736420e-02 -3.661000356078147888e-02 3.535873815417289734e-02
2.113000000000000000e+03 2.172654533386230469e+01 4.737921237945556641e+00 -3.257664502598345280e-06 1.308147147938143462e-06 -5.848551722920092288e-07 -3.548344693626859225e-06
2.114000000000000000e+03 1.387525081634521484e+01 1.781148338317871094e+01 1.377871740260161459e-05 1.627801335416734219e-03 4.924740060232579708e-04 6.157296593300998211e-04
2.115000000000000000e+03 1.344410705566406250e+01 1.760635757446289062e+01 3.252879832871258259e-05 1.031779800541698933e-03 3.192925651092082262e-04 7.224042783491313457e-04
2.116000000000000000e+03 2.670354652404785156e+01 2.255187797546386719e+01 -1.271552741527557373e-01 -3.665367513895034790e-02 -4.914268478751182556e-02 5.796891823410987854e-02
2.117000000000000000e+03 2.690737533569335938e+01 2.184166908264160156e+01 -1.545735597610473633e-01 -3.139378502964973450e-02 -5.579020455479621887e-02 6.213303282856941223e-02
2.118000000000000000e+03 3.467012786865234375e+01 5.653203487396240234e+00 -8.222068427130579948e-04 -1.226648455485701561e-03 -6.146566011011600494e-04 2.873560006264597178e-04
2.119000000000000000e+03 3.489792633056640625e+01 6.648646354675292969e+00 1.902241026982665062e-03 -1.667158649070188403e-04 5.206575151532888412e-04 -1.175995334051549435e-03
2.120000000000000000e+03 1.561084079742431641e+01 9.668116569519042969e+00 6.815486267441883683e-05 1.939551002578809857e-04 7.863299106247723103e-05 2.344499444006942213e-05
2.121000000000000000e+03 1.576674556732177734e+01 1.014107131958007812e+01 7.813984120730310678e-05 2.083160215988755226e-04 8.593675738666206598e-05 3.114723949693143368e-05
2.122000000000000000e+03 3.230602645874023438e+01 1.646053886413574219e+01 -2.933144941926002502e-02 -3.079177439212799072e-02 -1.803696714341640472e-02 3.630377352237701416e-02
2.123000000000000000e+03 1.723634338378906250e+01 7.769402980804443359e+00 1.950852856680285186e-05 7.168221782194450498e-05 2.735722409852314740e-05 2.945840606116689742e-05
2.124000000000000000e+03 1.753693580627441406e+01 8.160842895507812500e+00 -3.279819793533533812e-05 -4.587458533933386207e-05 -2.360183498240076005e-05 -4.334294499130919576e-05
2.125000000000000000e+03 1.387346172332763672e+01 1.722061538696289062e+01 1.948257413459941745e-04 1.723436987958848476e-03 5.754788289777934551e-04 3.973763377871364355e-04
2.126000000000000000e+03 1.483627510070800781e+01 1.130299854278564453e+01 2.309355477336794138e-05 3.996294399257749319e-04 1.268168998649343848e-04 1.315406552748754621e-04
2.127000000000000000e+03 4.402930068969726562e+01 -1.997423744201660156e+01 -8.424042165279388428e-02 4.811477661132812500e+00 1.418171167373657227e+00 2.602816224098205566e-01
2.128000000000000000e+03 3.225630950927734375e+01 1.459520149230957031e+01 -9.585807099938392639e-03 -1.810141466557979584e-02 -8.306167088449001312e-03 1.492264028638601303e-02
2.129000000000000000e+03 3.260092163085937500e+01 1.564046573638916016e+01 -2.205776795744895935e-02 -2.256537228822708130e-02 -1.338694151490926743e-02 2.751081623136997223e-02
2.130000000000000000e+03 1.576887702941894531e+01 9.359239578247070312e+00 -1.169599854620173573e-04 7.644715515198186040e-05 -1.215384781971806660e-05 -6.164949581943801604e-07
2.131000000000000000e+03 1.421480464935302734e+01 1.181713199615478516e+01 5.281165431370027363e-05 3.846568579319864511e-04 1.312405511271208525e-04 2.328919508727267385e-04
2.132000000000000000e+03 1.346987152099609375e+01 1.690772819519042969e+01 9.030654268826765474e-07 1.144697307609021664e-03 3.436801198404282331e-04 7.730562938377261162e-04
2.133000000000000000e+03 1.719055747985839844e+01 2.234811782836914062e+01 -3.265475481748580933e-02 6.328718736767768860e-04 -9.606564417481422424e-03 1.285280799493193626e-03
2.134000000000000000e+03 1.762661933898925781e+01 2.213901329040527344e+01 -3.680327162146568298e-02 2.840134839061647654e-04 -1.095577701926231384e-02 -1.623433781787753105e-03
2.135000000000000000e+03 2.129926490783691406e+01 4.823769092559814453e+00 -1.705064642010256648e-05 -2.866287650249432772e-05 -1.371405687677906826e-05 -7.149430530262179673e-06
2.136000000000000000e+03 2.095051765441894531e+01 3.768748998641967773e+00 5.370651123826064577e-08 2.040962135652080178e-05 6.138998287497088313e-06 3.480830628177500330e-07
2.137000000000000000e+03 1.949792861938476562e+01 2.301043510437011719e+01 -6.271518766880035400e-02 -6.426259642466902733e-04 -1.900734379887580872e-02 9.876878000795841217e-03
2.138000000000000000e+03 3.221841430664062500e+01 1.500762653350830078e+01 -1.213681697845458984e-02 -2.165170945227146149e-02 -1.013655774295330048e-02 1.812880858778953552e-02
2.139000000000000000e+03 2.252150154113769531e+01 2.318177032470703125e+01 -9.478539228439331055e-02 -1.610799320042133331e-02 -3.326801583170890808e-02 2.499978430569171906e-02
2.140000000000000000e+03 1.417048835754394531e+01 1.378229045867919922e+01 -2.153557870769873261e-04 8.659958839416503906e-04 1.951920276042073965e-04 2.399825607426464558e-04
2.141000000000000000e+03 1.422412872314453125e+01 1.252307319641113281e+01 -9.963039337890222669e-05 5.519611295312643051e-04 1.356992288492619991e-04 2.763830998446792364e-04
2.142000000000000000e+03 3.141641616821289062e+01 1.954004287719726562e+01 -9.098364412784576416e-02 -4.186670482158660889e-02 -3.985510393977165222e-02 6.193029880523681641e-02
2.143000000000000000e+03 3.116225051879882812e+01 1.991435050964355469e+01 -9.923101961612701416e-02 -4.463342204689979553e-02 -4.315933212637901306e-02 6.066037341952323914e-02
2.144000000000000000e+03 3.180647087097167969e+01 1.765550422668457031e+01 -4.815162345767021179e-02 -4.293448105454444885e-02 -2.732583135366439819e-02 4.836440458893775940e-02
2.145000000000000000e+03 3.383654022216796875e+01 8.778254508972167969e+00 1.643854375288356096e-05 8.905245922505855560e-04 2.720889460761100054e-04 -6.741694523952901363e-04
2.146000000000000000e+03 2.008842849731445312e+01 4.208563327789306641e+00 2.965910243801772594e-05 2.790683174680452794e-05 1.726978007354773581e-05 9.570592737873084843e-06
2.147000000000000000e+03 3.407499313354492188e+01 9.321061134338378906e+00 -3.469995281193405390e-04 4.258650587871670723e-04 2.365965701756067574e-05 -9.508298244327306747e-04
2.148000000000000000e+03 1.392717456817626953e+01 2.070963478088378906e+01 -8.780909702181816101e-03 1.918666879646480083e-03 -2.058672718703746796e-03 -1.375668682157993317e-03
2.149000000000000000e+03 1.510524368286132812e+01 9.810706138610839844e+00 5.655452696373686194e-05 2.370391157455742359e-04 8.807809354038909078e-05 5.057178714196197689e-05
2.150000000000000000e+03 2.643298530578613281e+01 2.381446647644042969e+01 -8.898432552814483643e-02 -3.976109623908996582e-02 -3.862362727522850037e-02 5.107639357447624207e-02
2.151000000000000000e+03 3.339754486083984375e+01 1.109867095947265625e+01 -2.115418668836355209e-03 5.594827234745025635e-04 -4.667807661462575197e-04 1.819010358303785324e-03
2.152000000000000000e+03 3.294425964355468750e+01 1.480278110504150391e+01 -1.799182966351509094e-02 -1.514881569892168045e-02 -9.942193515598773956e-03 2.070763334631919861e-02
2.153000000000000000e+03 1.845012474060058594e+01 6.259113788604736328e+00 4.217393870931118727e-05 3.399422712391242385e-05 2.285044865857344121e-05 2.015422433032654226e-05
2.154000000000000000e+03 3.317573547363281250e+01 1.189663600921630859e+01 -3.564576385542750359e-03 -6.909607327543199062e-04 -1.276661176234483719e-03 3.262300975620746613e-03
2.155000000000000000e+03 3.457863235473632812e+01 4.099381446838378906e+00 1.883326214738190174e-03 1.147715156548656523e-04 5.994293023832142353e-04 -1.072086670319549739e-04
2.156000000000000000e+03 1.908197784423828125e+01 5.826876163482666016e+00 -2.402792233624495566e-05 -5.870001132279867306e-06 -8.969377631729003042e-06 -3.601977596190408804e-06
2.157000000000000000e+03 1.995730209350585938e+01 5.963453769683837891e+00 -9.764951755641959608e-06 -5.475717262015677989e-05 -1.935663749463856220e-05 -2.766874422377441078e-05
2.158000000000000000e+03 1.674612236022949219e+01 8.590192794799804688e+00 3.372779247001744807e-05 -1.305710702581563964e-05 6.201205906108953059e-06 -7.249425834743306041e-05
2.159000000000000000e+03 1.590658855438232422e+01 9.035152435302734375e+00 9.391259663971140981e-05 1.081345253624022007e-04 6.061413660063408315e-05 9.456321095058228821e-06
2.160000000000000000e+03 1.360815334320068359e+01 1.330519199371337891e+01 7.913690205896273255e-05 6.041334709152579308e-04 2.049811155302450061e-04 2.720557968132197857e-04
2.161000000000000000e+03 3.198344993591308594e+01 1.725787925720214844e+01 -4.031554237008094788e-02 -3.916732594370841980e-02 -2.384486049413681030e-02 4.566664621233940125e-02
2.162000000000000000e+03 3.134891891479492188e+01 1.739455604553222656e+01 -3.476002439856529236e-02 -5.761604383587837219e-02 -2.771282009780406952e-02 4.622616618871688843e-02
2.163000000000000000e+03 2.561833763122558594e+01 2.270127296447753906e+01 -1.233797222375869751e-01 -2.697951346635818481e-02 -4.510777071118354797e-02 4.997309669852256775e-02
2.164000000000000000e+03 3.449313735961914062e+01 5.343161582946777344e+00 1.649524318054318428e-03 8.191993692889809608e-04 7.406171062029898167e-04 -1.153849065303802490e-03
2.165000000000000000e+03 2.634358024597167969e+01 2.285861778259277344e+01 -1.179788112640380859e-01 -3.525502979755401611e-02 -4.597015306353569031e-02 5.512088537216186523e-02
2.166000000000000000e+03 1.569798660278320312e+01 2.138723564147949219e+01 -1.759498380124568939e-02 2.293782075867056847e-03 -4.590360447764396667e-03 -1.432558521628379822e-03
2.167000000000000000e+03 1.520447540283203125e+01 2.097335052490234375e+01 -1.208955422043800354e-02 2.078874036669731140e-03 -3.003204241394996643e-03 -2.218488603830337524e-03
2.168000000000000000e+03 3.024412918090820312e+01 2.026668739318847656e+01 -1.223672032356262207e-01 -6.803671270608901978e-02 -5.712117254734039307e-02 7.161876559257507324e-02
2.169000000000000000e+03 3.473640441894531250e+01 5.007473468780517578e+00 5.501908599399030209e-04 5.800335429739789106e-07 1.652312639635056257e-04 -3.206300025340169668e-04
2.170000000000000000e+03 3.430233764648437500e+01 4.672072410583496094e+00 9.382705902680754662e-04 8.334584999829530716e-04 5.315187154337763786e-04 -6.192268338054418564e-04
2.171000000000000000e+03 3.310220718383789062e+01 1.232372665405273438e+01 -2.661556703969836235e-03 -2.065055770799517632e-03 -1.417983788996934891e-03 4.911906551569700241e-03
2.172000000000000000e+03 2.593225288391113281e+01 -3.633629798889160156e+00 -9.857078790664672852e-01 -1.305420696735382080e-01 -3.348749876022338867e-01 -9.025568962097167969e-01
2.173000000000000000e+03 1.819864463806152344e+01 2.187200546264648438e+01 -3.940502926707267761e-02 -1.799571327865123749e-05 -1.182690821588039398e-02 -4.031124059110879898e-03
2.174000000000000000e+03 3.440637207031250000e+01 7.041586399078369141e+00 -2.800460497383028269e-04 -2.795875479932874441e-04 -1.678900880506262183e-04 -3.507460060063749552e-04
2.175000000000000000e+03 3.405985641479492188e+01 7.442467689514160156e+00 1.905760000227019191e-04 1.192171708680689335e-03 4.148243169765919447e-04 -9.796589147299528122e-04
2.176000000000000000e+03 1.920736503601074219e+01 2.282133674621582031e+01 -5.704615265130996704e-02 1.003784927888773382e-04 -1.708373241126537323e-02 5.291756708174943924e-03
2.177000000000000000e+03 1.439470005035400391e+01 1.450631809234619141e+01 3.575051086954772472e-04 1.313480082899332047e-03 5.012955516576766968e-04 1.782356121111661196e-04
2.178000000000000000e+03 1.372831153869628906e+01 1.360121250152587891e+01 -3.087131335632875562e-05 4.897379549220204353e-04 1.376599975628778338e-04 4.825363866984844208e-04
2.179000000000000000e+03 3.387287139892578125e+01 3.191265821456909180e+00 -1.495627802796661854e-03 -7.588366861455142498e-05 -4.714534443337470293e-04 5.214316188357770443e-04
2.180000000000000000e+03 1.582474517822265625e+01 2.169395256042480469e+01 -2.154424600303173065e-02 1.481984858401119709e-03 -6.018678192049264908e-03 5.211448296904563904e-05
2.181000000000000000e+03 1.536792945861816406e+01 2.187573432922363281e+01 -1.923489756882190704e-02 3.025206271559000015e-03 -4.862907342612743378e-03 1.075523672625422478e-03
2.182000000000000000e+03 1.453777790069580078e+01 2.052223014831542969e+01 -7.962556555867195129e-03 2.381807658821344376e-03 -1.674224738962948322e-03 -2.013954101130366325e-03
2.183000000000000000e+03 1.370294857025146484e+01 1.513594627380371094e+01 -6.478193245129659772e-05 1.048825797624886036e-03 2.952131617348641157e-04 4.719884600490331650e-04
2.184000000000000000e+03 1.384938430786132812e+01 1.474593544006347656e+01 3.229360445402562618e-04 1.099665882065892220e-03 4.267805779818445444e-04 3.868069034069776535e-04
2.185000000000000000e+03 1.413127326965332031e+01 1.407227706909179688e+01 3.107339434791356325e-04 9.356415830552577972e-04 3.739126550499349833e-04 2.970910863950848579e-04
2.186000000000000000e+03 2.854133796691894531e+01 2.116556167602539062e+01 -1.665072441101074219e-01 -8.305616676807403564e-02 -7.486902922391891479e-02 8.302015066146850586e-02
2.187000000000000000e+03 2.183125495910644531e+01 2.315096282958984375e+01 -9.078373759984970093e-02 -1.583440229296684265e-02 -3.198544308543205261e-02 2.136573754251003265e-02
2.188000000000000000e+03 2.083501052856445312e+01 2.350640296936035156e+01 -7.259482145309448242e-02 -8.217230439186096191e-03 -2.424361556768417358e-02 2.209938131272792816e-02
2.189000000000000000e+03 2.132964897155761719e+01 2.360313796997070312e+01 -7.535566389560699463e-02 -1.376982871443033218e-02 -2.673764713108539581e-02 2.472537197172641754e-02
2.190000000000000000e+03 1.345846557617187500e+01 1.908591079711914062e+01 -1.213144161738455296e-03 4.196370719000697136e-04 -2.380521036684513092e-04 -5.741316126659512520e-04
2.191000000000000000e+03 1.771877670288085938e+01 2.265381050109863281e+01 -3.916235640645027161e-02 5.512963398359715939e-04 -1.158331800252199173e-02 5.168387666344642639e-03
2.192000000000000000e+03 1.939818000793457031e+01 5.428431034088134766e+00 -2.703296377148944885e-05 -1.828657673286215868e-06 -8.658486876811366528e-06 4.237516805005725473e-06
2.193000000000000000e+03 2.022941589355468750e+01 4.980347156524658203e+00 2.137659612344577909e-05 3.848873893730342388e-05 1.795960088202264160e-05 2.319389204785693437e-05
2.194000000000000000e+03 2.222297859191894531e+01 2.376502990722656250e+01 -7.963489741086959839e-02 -1.784500107169151306e-02 -2.924397028982639313e-02 2.815590985119342804e-02
2.195000000000000000e+03 2.894812202453613281e+01 2.095585060119628906e+01 -1.611978411674499512e-01 -9.002672135829925537e-02 -7.536736875772476196e-02 8.151295036077499390e-02
2.196000000000000000e+03 2.880685615539550781e+01 2.159866905212402344e+01 -1.350462585687637329e-01 -7.724735140800476074e-02 -6.368808448314666748e-02 6.573044508695602417e-02
2.197000000000000000e+03 3.508039474487304688e+01 3.299360990524291992e+00 -2.062630665022879839e-04 7.029934786260128021e-04 1.490191207267343998e-04 -5.067922174930572510e-04
2.198000000000000000e+03 1.674387550354003906e+01 2.271635437011718750e+01 -3.183716908097267151e-02 7.469636620953679085e-04 -9.327061474323272705e-03 5.587337538599967957e-03
2.199000000000000000e+03 1.511170482635498047e+01 2.247901344299316406e+01 -2.108552865684032440e-02 2.997223753482103348e-03 -5.426491610705852509e-03 3.590564941987395287e-03
2.200000000000000000e+03 2.700880050659179688e+01 -2.369235038757324219e+00 -1.625092625617980957e+00 -1.777128428220748901e-01 -5.408416390419006348e-01 -6.430648565292358398e-01
2.201000000000000000e+03 2.661058425903320312e+01 -2.932998895645141602e+00 -1.288497805595397949e+00 -1.562508642673492432e-01 -4.334245920181274414e-01 -7.888874411582946777e-01
2.202000000000000000e+03 2.999049949645996094e+01 2.065009498596191406e+01 -1.304150074720382690e-01 -7.003376632928848267e-02 -6.013463065028190613e-02 6.596772372722625732e-02
2.203000000000000000e+03 2.916418647766113281e+01 2.140818023681640625e+01 -1.333007514476776123e-01 -8.092531561851501465e-02 -6.426782160997390747e-02 6.219344958662986755e-02
2.204000000000000000e+03 1.414607238769531250e+01 2.031203460693359375e+01 -6.658159196376800537e-03 1.509865745902061462e-03 -1.544488011859357357e-03 -1.486023073084652424e-03
2.205000000000000000e+03 2.416814041137695312e+01 2.330003356933593750e+01 -1.050311401486396790e-01 -2.060021273791790009e-02 -3.768940642476081848e-02 4.008345678448677063e-02
2.206000000000000000e+03 1.309759426116943359e+01 2.013333320617675781e+01 -4.843769129365682602e-03 4.690251080319285393e-04 -1.312423148192465305e-03 -8.598144049756228924e-04
2.207000000000000000e+03 1.644129180908203125e+01 8.823178291320800781e+00 6.467611092375591397e-05 1.260648132301867008e-04 5.722227797377854586e-05 4.324996189097873867e-05
2.208000000000000000e+03 1.646496009826660156e+01 8.169148445129394531e+00 -4.748383798869326711e-05 1.018798211589455605e-04 1.631879422347992659e-05 4.174561763647943735e-05
2.209000000000000000e+03 3.141351699829101562e+01 1.843432807922363281e+01 -6.216240674257278442e-02 -5.367117002606391907e-02 -3.475007414817810059e-02 5.736256390810012817e-02
2.210000000000000000e+03 1.601331329345703125e+01 8.676393508911132812e+00 -1.177208032459020615e-04 7.632606866536661983e-05 -1.241842073795851320e-05 -1.142322071245871484e-05
2.211000000000000000e+03 7.650897216796875000e+01 -2.095991134643554688e+01 -3.868945059366524220e-04 -4.912105505354702473e-04 -2.634315169416368008e-04 4.931552757625468075e-05
2.212000000000000000e+03 3.165956497192382812e+01 1.913845825195312500e+01 -8.009175211191177368e-02 -3.887090086936950684e-02 -3.568879514932632446e-02 5.867452546954154968e-02
2.213000000000000000e+03 3.210909271240234375e+01 -3.334379434585571289e+00 -1.878890991210937500e+00 1.877460181713104248e-01 -5.073434710502624512e-01 -4.086340665817260742e-01
2.214000000000000000e+03 7.615966033935546875e+01 -1.216381549835205078e+01 -1.238841935992240906e-01 -9.956987947225570679e-02 -6.703621894121170044e-02 -1.939110755920410156e-01
2.215000000000000000e+03 3.589762496948242188e+01 -1.708419680595397949e+00 -2.368469476699829102e+00 5.137141942977905273e-01 -5.564265847206115723e-01 3.259376585483551025e-01
2.216000000000000000e+03 1.810224342346191406e+01 3.880899190902709961e+00 -2.521346232242649421e-06 -3.901501622749492526e-05 -1.246090869244653732e-05 -2.638908654262195341e-06
2.217000000000000000e+03 1.960024452209472656e+01 3.490111351013183594e+00 7.501449545088689774e-06 3.417632615310139954e-05 1.250333298230543733e-05 5.519081696547800675e-06
2.218000000000000000e+03 1.738734245300292969e+01 3.802413463592529297e+00 6.117457360232947394e-06 5.588031490333378315e-05 1.859933217929210514e-05 -2.539383331168210134e-06
2.219000000000000000e+03 4.778739166259765625e+01 -1.395246505737304688e+01 3.426338195800781250e+00 9.817646145820617676e-01 1.322430849075317383e+00 1.919297218322753906e+00
2.220000000000000000e+03 1.533749771118164062e+01 3.742763757705688477e+00 -2.242230436877434840e-07 -3.645016113296151161e-05 -1.100231565942522138e-05 2.716537164815235883e-05
2.221000000000000000e+03 1.602253341674804688e+01 3.743257522583007812e+00 1.347702709608711302e-05 6.082799154683016241e-05 2.229150595667306334e-05 -1.398617769154952839e-06
2.222000000000000000e+03 3.792438888549804688e+01 -8.687663078308105469e-01 -1.736509680747985840e+00 3.221621811389923096e-01 -4.243042469024658203e-01 5.488358736038208008e-01
2.223000000000000000e+03 1.321507930755615234e+01 4.468791961669921875e+00 7.382293006230611354e-06 -4.038537372252903879e-05 -9.900923942041117698e-06 5.147755291545763612e-05
2.224000000000000000e+03 1.172643661499023438e+01 3.902572393417358398e+00 5.039736788603477180e-05 4.806174183613620698e-05 2.953773218905553222e-05 3.910576538146415260e-07
2.225000000000000000e+03 3.856909942626953125e+01 -2.307603836059570312e+00 -2.652126312255859375e+00 4.856496155261993408e-01 -6.499429941177368164e-01 8.872820734977722168e-01
2.226000000000000000e+03 3.888808822631835938e+01 -2.737881898880004883e+00 -2.693928003311157227e+00 5.590292215347290039e-01 -6.404696702957153320e-01 6.237836480140686035e-01
2.227000000000000000e+03 4.921590805053710938e+01 -1.399089527130126953e+01 3.194156169891357422e+00 7.029106020927429199e-01 1.169119954109191895e+00 1.662855744361877441e+00
2.228000000000000000e+03 3.718627929687500000e+01 4.536010265350341797e+00 8.731824927963316441e-04 1.047053374350070953e-03 5.760708008892834187e-04 -4.761818272527307272e-04
2.229000000000000000e+03 1.464519786834716797e+01 3.760016679763793945e+00 2.170185143768321723e-05 6.477919669123366475e-05 2.594431498437188566e-05 2.950330646456222894e-08
2.230000000000000000e+03 1.023962593078613281e+01 3.939182758331298828e+00 8.220807649195194244e-05 3.073747575399465859e-05 3.388366530998609960e-05 -1.239366247318685055e-05
2.231000000000000000e+03 1.247664642333984375e+01 3.855046510696411133e+00 1.800610880309250206e-05 -4.700752106145955622e-05 -8.700423677510116249e-06 5.688322562491521239e-05
2.232000000000000000e+03 3.127821207046508789e+00 3.423822164535522461e+00 -5.408421566244214773e-05 4.621499101631343365e-05 -2.360767666687024757e-06 8.239537237386684865e-06
2.233000000000000000e+03 2.943460464477539062e+00 4.717387199401855469e+00 -1.151310425484552979e-04 1.301021166000282392e-05 -3.063624899368733168e-05 2.073022358217713190e-07
2.234000000000000000e+03 2.514831352233886719e+01 -3.730411291122436523e+00 -8.956732153892517090e-01 -1.241277530789375305e-01 -3.059403002262115479e-01 -8.782098293304443359e-01
2.235000000000000000e+03 3.446456909179687500e+01 3.653771877288818359e+00 -1.200110651552677155e-03 7.111166487447917461e-04 -1.466982066631317139e-04 -1.346007920801639557e-04
2.236000000000000000e+03 3.740902709960937500e+01 -2.585902214050292969e+00 -2.379824638366699219e+00 6.183552145957946777e-01 -5.284407734870910645e-01 5.987658500671386719e-01
2.237000000000000000e+03 1.154713726043701172e+01 -4.037756443023681641e+00 -4.294954240322113037e-02 -8.379201591014862061e-02 -3.802246972918510437e-02 1.140627078711986542e-02
2.238000000000000000e+03 7.583284759521484375e+01 -1.121856594085693359e+01 -1.862005740404129028e-01 -1.236206069588661194e-01 -9.294635057449340820e-02 -2.730793058872222900e-01
2.239000000000000000e+03 7.434917449951171875e+01 -1.211184692382812500e+01 -2.902446687221527100e-01 -2.423796243965625763e-02 -9.434479475021362305e-02 -2.522598206996917725e-01
2.240000000000000000e+03 9.893898963928222656e+00 -3.344699382781982422e+00 4.496639594435691833e-02 -3.678318858146667480e-02 2.454963047057390213e-03 6.569965928792953491e-02
2.241000000000000000e+03 1.392340850830078125e+01 -4.684587955474853516e+00 -1.626108884811401367e-01 -1.767031401395797729e-01 -1.017942056059837341e-01 -1.164104044437408447e-01
2.242000000000000000e+03 8.753198623657226562e+00 3.952397823333740234e+00 9.349745232611894608e-05 1.754393997543957084e-05 3.331241896376013756e-05 -3.896190173691138625e-05
2.243000000000000000e+03 6.936734771728515625e+01 -1.313279914855957031e+01 -6.586601138114929199e-01 1.220169588923454285e-01 -1.609929502010345459e-01 2.400321885943412781e-03
2.244000000000000000e+03 1.372679328918457031e+01 -3.237373352050781250e+00 3.345767501741647720e-03 -9.226170182228088379e-02 -2.667478099465370178e-02 -6.738403439521789551e-02
2.245000000000000000e+03 1.383078384399414062e+01 -3.960580825805664062e+00 -8.238431811332702637e-02 -1.347514837980270386e-01 -6.514073908329010010e-02 -9.283839166164398193e-02
2.246000000000000000e+03 6.632551193237304688e+00 3.901710271835327148e+00 1.836245610320474952e-05 -6.013832899043336511e-05 -1.253276241186540574e-05 4.936518962495028973e-06
2.247000000000000000e+03 6.043917655944824219e+00 4.612089157104492188e+00 1.008886101772077382e-04 -1.015376619761809707e-04 -1.947166907712016837e-07 7.231842005239741411e-07
2.248000000000000000e+03 7.315993309020996094e+00 3.925399780273437500e+00 1.227822212968021631e-04 9.768649533725692891e-07 3.712772740982472897e-05 -4.403780258144252002e-05
2.249000000000000000e+03 3.830564498901367188e+00 4.108001232147216797e+00 -7.295119576156139374e-05 9.075907655642367899e-06 -1.916258588607888669e-05 3.350551196490414441e-05
2.250000000000000000e+03 3.141635656356811523e+00 4.031241893768310547e+00 1.711269869701936841e-04 -4.111468570044962689e-06 5.010465611121617258e-05 -6.301633402472361922e-05
2.251000000000000000e+03 4.467570304870605469e+00 3.329516410827636719e+00 -2.041506559180561453e-05 -1.187182533612940460e-05 -9.686066732683684677e-06 2.922092062362935394e-05
2.252000000000000000e+03 7.191433906555175781e+00 -4.809388637542724609e+00 -4.830523207783699036e-02 -1.868171989917755127e-02 -2.009608596563339233e-02 8.855920284986495972e-02
2.253000000000000000e+03 7.696659088134765625e+00 -4.071074485778808594e+00 -7.732007186859846115e-03 -2.072248235344886780e-02 -8.536346256732940674e-03 9.229287505149841309e-02
2.254000000000000000e+03 6.968556404113769531e+00 -4.128190040588378906e+00 -7.411809638142585754e-03 -9.124907664954662323e-03 -4.961015190929174423e-03 9.728293120861053467e-02
2.255000000000000000e+03 6.041355609893798828e+00 -3.451871871948242188e+00 3.627638146281242371e-02 3.517232136800885201e-03 1.193808484822511673e-02 1.016375720500946045e-01
2.256000000000000000e+03 5.233438491821289062e+00 -3.527336359024047852e+00 2.874997630715370178e-02 9.990967810153961182e-03 1.162228360772132874e-02 1.003187745809555054e-01
2.257000000000000000e+03 3.700639963150024414e+00 -4.257976055145263672e+00 2.846234245225787163e-03 3.718611598014831543e-02 1.200970448553562164e-02 9.143713861703872681e-02
2.258000000000000000e+03 3.320518970489501953e+00 -3.481099367141723633e+00 1.992986910045146942e-02 3.639024496078491211e-02 1.689603365957736969e-02 8.512160181999206543e-02
2.259000000000000000e+03 2.882009267807006836e+00 -4.511572360992431641e+00 4.129452863708138466e-04 5.858738347887992859e-02 1.770009845495223999e-02 8.177537471055984497e-02
2.260000000000000000e+03 8.442736625671386719e+00 -4.083003997802734375e+00 -1.581791415810585022e-02 -2.762573771178722382e-02 -1.303309574723243713e-02 8.438198268413543701e-02
2.261000000000000000e+03 9.996235847473144531e+00 -4.101238727569580078e+00 -3.079775907099246979e-02 -5.334378033876419067e-02 -2.524246089160442352e-02 5.679974704980850220e-02
2.262000000000000000e+03 1.869338607788085938e+01 -3.879200458526611328e+00 -3.038352429866790771e-01 -1.746283471584320068e-01 -1.435390710830688477e-01 -4.206335246562957764e-01
2.263000000000000000e+03 9.497709274291992188e+00 3.943915367126464844e+00 3.184914748999290168e-05 -6.971981201786547899e-05 -1.136120044975541532e-05 5.644187331199645996e-05
2.264000000000000000e+03 1.686977386474609375e+01 -3.202023267745971680e+00 -1.248802915215492249e-01 -1.404804140329360962e-01 -7.960820943117141724e-02 -2.555142939090728760e-01
2.265000000000000000e+03 1.230467128753662109e+01 -4.008177757263183594e+00 -5.428637564182281494e-02 -1.009110361337661743e-01 -4.655922204256057739e-02 -1.938234642148017883e-02
2.266000000000000000e+03 7.019185638427734375e+01 -1.294960117340087891e+01 -6.746824979782104492e-01 1.768417209386825562e-01 -1.493522226810455322e-01 -2.767473459243774414e-02
2.267000000000000000e+03 6.900077056884765625e+01 -1.231516551971435547e+01 -1.035063385963439941e+00 2.605063021183013916e-01 -2.323671132326126099e-01 -5.933055281639099121e-02
2.268000000000000000e+03 7.196836853027343750e+01 -1.205933380126953125e+01 -5.198771953582763672e-01 1.068663671612739563e-01 -1.239032447338104248e-01 -2.716264724731445312e-01
2.269000000000000000e+03 7.539517974853515625e+01 -1.237572956085205078e+01 -2.026458978652954102e-01 -6.535252928733825684e-02 -8.039952814579010010e-02 -2.138403505086898804e-01
2.270000000000000000e+03 1.461147308349609375e+01 -3.962562084197998047e+00 -1.059922203421592712e-01 -1.540748029947280884e-01 -7.802011072635650635e-02 -1.388466209173202515e-01
2.271000000000000000e+03 1.540181159973144531e+01 -3.987040281295776367e+00 -1.344068348407745361e-01 -1.754423230886459351e-01 -9.295474737882614136e-02 -1.945352852344512939e-01
2.272000000000000000e+03 7.103347015380859375e+01 -1.208246326446533203e+01 -6.026570796966552734e-01 1.763441711664199829e-01 -1.278938651084899902e-01 -2.331445664167404175e-01
2.273000000000000000e+03 1.699259567260742188e+01 -3.984280347824096680e+00 -2.002544403076171875e-01 -1.960032582283020020e-01 -1.188773065805435181e-01 -3.070447444915771484e-01
2.274000000000000000e+03 2.857769393920898438e+01 -7.051288127899169922e+00 3.781775236129760742e-01 2.175393253564834595e-01 1.787150502204895020e-01 -1.118470549583435059e+00
2.275000000000000000e+03 3.514959335327148438e+01 5.547175884246826172e+00 6.954317213967442513e-04 4.240603593643754721e-04 3.358476096764206886e-04 -2.750045132415834814e-05
2.276000000000000000e+03 7.366734313964843750e+01 -1.226129150390625000e+01 -3.450178802013397217e-01 2.571917325258255005e-02 -9.578961133956909180e-02 -2.539481222629547119e-01
2.277000000000000000e+03 2.245238685607910156e+01 -2.897408485412597656e+00 -6.714970469474792480e-01 -3.425806062296032906e-03 -2.024768441915512085e-01 -5.461783409118652344e-01
2.278000000000000000e+03 7.285314178466796875e+01 -1.212497425079345703e+01 -3.970935642719268799e-01 6.994767487049102783e-02 -9.814376384019851685e-02 -2.459630817174911499e-01
2.279000000000000000e+03 7.616418457031250000e+01 -2.271878051757812500e+01 -6.951049435883760452e-04 -8.714309078641235828e-04 -4.699607670772820711e-04 1.572657347423955798e-04
2.280000000000000000e+03 7.235933685302734375e+01 -2.034144401550292969e+01 -3.420998837100341916e-05 1.978192740352824330e-04 4.908278788207098842e-05 3.027966595254838467e-04
2.281000000000000000e+03 7.295700073242187500e+01 -2.000534820556640625e+01 -4.215036751702427864e-04 -7.141539826989173889e-04 -3.406972973607480526e-04 2.850580494850873947e-04
2.282000000000000000e+03 3.494548416137695312e+01 -2.892056465148925781e+00 -2.305453300476074219e+00 4.791453778743743896e-01 -5.478923916816711426e-01 3.976672589778900146e-01
2.283000000000000000e+03 3.820243835449218750e+01 9.389083862304687500e+00 -1.523357233963906765e-03 -2.785819815471768379e-03 -1.292753149755299091e-03 1.182077103294432163e-03
2.284000000000000000e+03 2.224476051330566406e+01 -2.009292602539062500e+00 -5.876212120056152344e-01 3.419923037290573120e-02 -1.660265922546386719e-01 -3.763720393180847168e-01
2.285000000000000000e+03 1.356725406646728516e+01 -1.006094455718994141e+01 -7.548568248748779297e-01 -5.001434087753295898e-01 -3.765000700950622559e-01 -2.576680183410644531e-01
2.286000000000000000e+03 1.543686103820800781e+01 -1.134653568267822266e+01 -1.192784667015075684e+00 -7.751085162162780762e-01 -5.903679728507995605e-01 -5.315556526184082031e-01
2.287000000000000000e+03 3.005866050720214844e+01 -6.420567035675048828e+00 1.291645467281341553e-01 7.730278968811035156e-01 2.706577181816101074e-01 -9.536797404289245605e-01
2.288000000000000000e+03 3.109664344787597656e+01 -7.570619583129882812e+00 8.623621463775634766e-01 1.262249588966369629e+00 6.373835206031799316e-01 -9.252786040306091309e-01
2.289000000000000000e+03 3.379270935058593750e+01 -7.490636825561523438e+00 2.547377943992614746e-01 9.939210414886474609e-01 3.745976388454437256e-01 -4.686782658100128174e-01
2.290000000000000000e+03 3.244403076171875000e+01 -7.372928142547607422e+00 3.502723574638366699e-01 1.050786733627319336e+00 4.203177392482757568e-01 -6.106339693069458008e-01
2.291000000000000000e+03 3.872853851318359375e+01 -1.851033020019531250e+01 8.603282570838928223e-01 1.191649913787841797e+00 6.155934333801269531e-01 6.372665762901306152e-01
2.292000000000000000e+03 3.827510452270507812e+01 -1.709684753417968750e+01 9.401901364326477051e-01 6.425778269767761230e-01 4.748303890228271484e-01 3.304432379081845284e-03
2.293000000000000000e+03 4.257195663452148438e+01 -7.148631572723388672e+00 -2.215572595596313477e+00 1.893299221992492676e-01 -6.078727841377258301e-01 -1.784867793321609497e-02
2.294000000000000000e+03 2.859832763671875000e+01 -6.339241027832031250e+00 -1.859645918011665344e-02 2.450391501188278198e-01 6.793280690908432007e-02 -9.825896620750427246e-01
2.295000000000000000e+03 3.172692680358886719e+01 -6.876612663269042969e+00 2.403303384780883789e-01 9.935570359230041504e-01 3.701662123203277588e-01 -6.779629588127136230e-01
2.296000000000000000e+03 2.101826667785644531e+01 -3.312390089035034180e+00 -4.767423570156097412e-01 -8.680665493011474609e-02 -1.690647006034851074e-01 -5.025384426116943359e-01
2.297000000000000000e+03 2.333997535705566406e+01 -4.234889984130859375e+00 -6.687905192375183105e-01 -1.126915663480758667e-01 -2.344446182250976562e-01 -7.640414237976074219e-01
2.298000000000000000e+03 2.026594924926757812e+01 -3.536690711975097656e+00 -4.033670723438262939e-01 -1.170720532536506653e-01 -1.561317443847656250e-01 -4.776950776576995850e-01
2.299000000000000000e+03 7.571724700927734375e+01 -1.974354362487792969e+01 -1.136434439104050398e-04 -4.385205975268036127e-04 -1.656492095207795501e-04 -4.720440192613750696e-04
2.300000000000000000e+03 3.815119171142578125e+01 -2.099356889724731445e+00 -2.342509746551513672e+00 4.703055918216705322e-01 -5.616612434387207031e-01 8.532689809799194336e-01
2.301000000000000000e+03 3.818349456787109375e+01 -3.090536832809448242e+00 -2.527704238891601562e+00 5.637812614440917969e-01 -5.891768932342529297e-01 6.579903960227966309e-01
2.302000000000000000e+03 3.411466979980468750e+01 1.474195098876953125e+01 -2.707195654511451721e-02 -6.723638623952865601e-03 -1.013867836445569992e-02 2.388956584036350250e-02
2.303000000000000000e+03 1.139957809448242188e+01 -1.420725917816162109e+01 -7.236949205398559570e-01 -3.449835479259490967e-01 -3.206035494804382324e-01 -5.804571509361267090e-01
2.304000000000000000e+03 3.961397171020507812e+00 1.635483932495117188e+01 -3.647375560831278563e-04 -1.362171606160700321e-04 -1.502864179201424122e-04 -3.467600326985120773e-04
2.305000000000000000e+03 5.019287586212158203e+00 1.642930984497070312e+01 1.485090906498953700e-04 -4.466247628442943096e-04 -8.943470311351120472e-05 -4.195763322059065104e-04
2.306000000000000000e+03 5.130847549438476562e+01 -1.210883712768554688e+01 1.125130772590637207e+00 5.846544504165649414e-01 5.129355788230895996e-01 2.049898862838745117e+00
2.307000000000000000e+03 4.996635055541992188e+01 -1.356366443634033203e+01 2.397056341171264648e+00 6.343763470649719238e-01 9.094298481941223145e-01 1.692041039466857910e+00
2.308000000000000000e+03 6.481454467773437500e+01 -9.105240821838378906e+00 -1.047468423843383789e+00 -5.545815825462341309e-02 -3.308779597282409668e-01 -2.608179450035095215e-01
2.309000000000000000e+03 6.249161148071289062e+01 -1.082770729064941406e+01 -1.535731434822082520e+00 6.044101715087890625e-02 -4.425871074199676514e-01 3.774721324443817139e-01
2.310000000000000000e+03 4.405915260314941406e+00 -8.662321090698242188e+00 -1.203488707542419434e-01 1.217769738286733627e-02 -3.245135024189949036e-02 -1.505772676318883896e-02
2.311000000000000000e+03 3.459701538085937500e+01 8.705372810363769531e+00 3.778253449127078056e-04 -1.425253809429705143e-03 -3.142285568173974752e-04 -1.965802512131631374e-04
2.312000000000000000e+03 1.664759445190429688e+01 -2.938182640075683594e+01 5.274199247360229492e-01 3.701626658439636230e-01 2.692747712135314941e-01 -3.699809908866882324e-01
2.313000000000000000e+03 6.145362854003906250e+01 -9.750112533569335938e+00 -1.101770281791687012e+00 4.521775841712951660e-01 -1.948778182268142700e-01 4.194708466529846191e-01
2.314000000000000000e+03 7.049247741699218750e+01 -2.641944503784179688e+01 -1.008557341992855072e-02 3.293937072157859802e-03 -2.037490718066692352e-03 2.135835355147719383e-03
2.315000000000000000e+03 5.742043304443359375e+01 -1.104028511047363281e+01 -7.184044122695922852e-01 8.605912923812866211e-01 4.265606403350830078e-02 1.100579142570495605e+00
2.316000000000000000e+03 7.538967132568359375e+01 2.454893112182617188e+01 2.491213753819465637e-02 -1.177805066108703613e+00 -3.458678722381591797e-01 6.491194367408752441e-01
2.317000000000000000e+03 3.597403717041015625e+01 -7.915055751800537109e+00 -5.252526327967643738e-02 6.282354593276977539e-01 1.727130562067031860e-01 -5.574569106101989746e-01
2.318000000000000000e+03 3.815460205078125000e+01 1.206807231903076172e+01 -2.264168299734592438e-02 2.071994822472333908e-03 -6.170906592160463333e-03 -1.093842671252787113e-03
2.319000000000000000e+03 3.493803787231445312e+01 9.412377357482910156e+00 -6.516046123579144478e-04 -1.903998432680964470e-03 -7.666809251531958580e-04 2.383676473982632160e-04
2.320000000000000000e+03 3.626165151596069336e+00 -3.288652420043945312e+01 3.990474715828895569e-02 -1.245702028274536133e+00 -3.617391884326934814e-01 -6.243707239627838135e-02
2.321000000000000000e+03 7.038000106811523438e+00 -3.226426696777343750e+01 1.115304827690124512e-01 -7.628442049026489258e-01 -1.953941136598587036e-01 -1.284717172384262085e-01
2.322000000000000000e+03 5.356450557708740234e+00 -1.933684349060058594e+01 2.082868712022900581e-03 -4.931104779243469238e-01 -1.473082900047302246e-01 -5.393735170364379883e-01
2.323000000000000000e+03 4.370414733886718750e+01 -6.766455173492431641e+00 -2.805518388748168945e+00 -1.268464922904968262e-01 -8.797094225883483887e-01 3.931483626365661621e-01
2.324000000000000000e+03 4.630008220672607422e+00 4.897866249084472656e+00 -1.201390750793507323e-05 -3.187615220667794347e-05 -1.316701764153549448e-05 3.684997136588208377e-05
2.325000000000000000e+03 7.087156677246093750e+01 -2.445800018310546875e+01 -4.418790340423583984e-03 1.547476509585976601e-03 -8.613941608928143978e-04 1.367091608699411154e-04
2.326000000000000000e+03 7.543447113037109375e+01 1.360344791412353516e+01 2.202723622322082520e-01 -1.727448225021362305e+00 -4.521527588367462158e-01 1.127443462610244751e-02
2.327000000000000000e+03 7.550109863281250000e+01 1.493418979644775391e+01 2.161476463079452515e-01 -1.730966687202453613e+00 -4.544457197189331055e-01 1.182091757655143738e-01
2.328000000000000000e+03 2.468424797058105469e+01 -7.603368759155273438e+00 -3.584509491920471191e-01 -2.903112471103668213e-01 -1.946286559104919434e-01 -6.615439057350158691e-01
2.329000000000000000e+03 2.327305221557617188e+01 -6.534405708312988281e+00 -5.283792614936828613e-01 -2.433525025844573975e-01 -2.315195202827453613e-01 -7.573914527893066406e-01
2.330000000000000000e+03 4.064197540283203125e+00 2.004106903076171875e+01 -4.383437917567789555e-04 -4.347769718151539564e-04 -2.619362494442611933e-04 1.563467085361480713e-04
2.331000000000000000e+03 3.728910064697265625e+01 -1.267894840240478516e+01 1.279075503349304199e+00 2.639015913009643555e-01 4.628931283950805664e-01 -1.521372199058532715e+00
2.332000000000000000e+03 6.836764526367187500e+01 -1.145308303833007812e+01 -1.123336791992187500e+00 2.724135816097259521e-01 -2.552769780158996582e-01 -3.737113177776336670e-01
2.333000000000000000e+03 5.518117141723632812e+01 -1.084031677246093750e+01 -4.321165978908538818e-01 9.960612654685974121e-01 1.691834032535552979e-01 1.648105382919311523e+00
2.334000000000000000e+03 4.298673152923583984e+00 3.003900146484375000e+01 -1.052551087923347950e-03 -8.191476576030254364e-03 -2.773208077996969223e-03 6.504307035356760025e-03
2.335000000000000000e+03 1.222307682037353516e+01 -1.528900623321533203e+01 -6.415398716926574707e-01 -4.842002391815185547e-01 -3.377220332622528076e-01 -6.972725391387939453e-01
2.336000000000000000e+03 6.525961303710937500e+01 9.539394378662109375e+00 7.969734072685241699e-01 4.003728866577148438e+00 1.440210700035095215e+00 2.256114780902862549e-01
2.337000000000000000e+03 6.417079162597656250e+01 8.259315490722656250e+00 8.262881636619567871e-01 4.416929244995117188e+00 1.572965145111083984e+00 5.600711703300476074e-01
2.338000000000000000e+03 7.738212585449218750e+01 -2.132648468017578125e+01 -4.761403761222027242e-05 -6.648005364695563912e-05 -3.422822919674217701e-05 -3.571773995645344257e-04
2.339000000000000000e+03 4.228515625000000000e+01 1.669100952148437500e+01 -9.109117835760116577e-02 2.513304539024829865e-02 -1.978744007647037506e-02 -2.258052118122577667e-02
2.340000000000000000e+03 4.482914447784423828e+00 -1.410648250579833984e+01 -1.428557932376861572e-01 -1.608601212501525879e-01 -9.111477434635162354e-02 -3.226509988307952881e-01
2.341000000000000000e+03 5.405823230743408203e+00 -1.258858394622802734e+01 -2.188118249177932739e-01 -1.069625690579414368e-01 -9.773232042789459229e-02 -2.727858126163482666e-01
2.342000000000000000e+03 3.905704116821289062e+01 1.528516292572021484e+01 -5.881942063570022583e-02 2.541509829461574554e-02 -1.002129632979631424e-02 3.505956614390015602e-03
2.343000000000000000e+03 4.006335067749023438e+01 1.434413146972656250e+01 -5.200534313917160034e-02 1.340582221746444702e-02 -1.157985720783472061e-02 -5.398409441113471985e-03
2.344000000000000000e+03 1.125775527954101562e+01 -2.292483711242675781e+01 4.463223814964294434e-01 -2.723472118377685547e-01 5.219254642724990845e-02 -5.390751361846923828e-01
2.345000000000000000e+03 1.187042713165283203e+01 -2.407460403442382812e+01 4.829303026199340820e-01 -1.482582688331604004e-01 1.004016101360321045e-01 -4.461039006710052490e-01
2.346000000000000000e+03 7.565660858154296875e+01 -8.302502632141113281e+00 -1.500071138143539429e-01 -2.896440327167510986e-01 -1.318953484296798706e-01 -4.993331730365753174e-01
2.347000000000000000e+03 7.538293457031250000e+01 1.895946121215820312e+01 1.719859689474105835e-01 -1.566082596778869629e+00 -4.182289838790893555e-01 4.229309558868408203e-01
2.348000000000000000e+03 6.679612731933593750e+01 -9.602676391601562500e+00 -1.111141324043273926e+00 1.801071614027023315e-01 -2.793102562427520752e-01 -5.329220294952392578e-01
2.349000000000000000e+03 6.615267944335937500e+01 -8.506598472595214844e+00 -8.121609091758728027e-01 2.746314704418182373e-01 -1.612588316202163696e-01 -5.536633133888244629e-01
2.350000000000000000e+03 5.088027477264404297e+00 1.265870761871337891e+01 3.142662462778389454e-04 -2.948190376628190279e-04 5.834156581840943545e-06 -1.898761838674545288e-04
2.351000000000000000e+03 1.603666877746582031e+01 -1.011571884155273438e+01 -8.933634161949157715e-01 -7.250325679779052734e-01 -4.855188131332397461e-01 -4.664725065231323242e-01
2.352000000000000000e+03 7.558238220214843750e+01 7.916904926300048828e+00 1.678748428821563721e-01 -1.624839901924133301e+00 -4.370895326137542725e-01 -4.073007404804229736e-01
2.353000000000000000e+03 2.618350028991699219e+01 -6.630777835845947266e+00 -1.715719997882843018e-01 -2.848908603191375732e-01 -1.369388550519943237e-01 -8.289742469787597656e-01
2.354000000000000000e+03 4.882488727569580078e+00 2.670466804504394531e+01 -2.144843107089400291e-03 -4.281685687601566315e-03 -1.927958684973418713e-03 5.441505927592515945e-03
2.355000000000000000e+03 3.648460006713867188e+01 -1.058294582366943359e+01 1.010366916656494141e+00 3.351867198944091797e-01 4.036660790443420410e-01 -1.272078990936279297e+00
2.356000000000000000e+03 3.520754623413085938e+01 -8.828052520751953125e+00 6.673962473869323730e-01 6.530841588973999023e-01 3.961441218852996826e-01 -7.698907256126403809e-01
2.357000000000000000e+03 4.466440582275390625e+01 1.972084236145019531e+01 -1.031200885772705078e-01 3.409999981522560120e-02 -2.070602588355541229e-02 -2.023706212639808655e-02
2.358000000000000000e+03 4.299499130249023438e+01 2.021954536437988281e+01 -8.230062574148178101e-02 5.086193233728408813e-02 -9.431608021259307861e-03 -2.150043379515409470e-03
2.359000000000000000e+03 1.253899383544921875e+01 -2.223336410522460938e+01 5.047324299812316895e-01 -4.357622563838958740e-02 1.383468657732009888e-01 -5.480523109436035156e-01
2.360000000000000000e+03 1.128782749176025391e+01 -1.930726432800292969e+01 9.033675491809844971e-02 -3.665528893470764160e-01 -8.286484330892562866e-02 -7.588436007499694824e-01
2.361000000000000000e+03 4.115695190429687500e+01 -6.769470691680908203e+00 -2.123045682907104492e+00 2.804601788520812988e-01 -5.527756810188293457e-01 -2.914727926254272461e-01
2.362000000000000000e+03 4.924978256225585938e+01 2.352956008911132812e+01 1.071329414844512939e-01 3.698189556598663330e-02 4.323445260524749756e-02 -1.038580387830734253e-01
2.363000000000000000e+03 3.497534513473510742e+00 3.289390563964843750e+01 5.891381879337131977e-04 -1.192530617117881775e-02 -3.400850342586636543e-03 5.594776943325996399e-03
2.364000000000000000e+03 3.686798477172851562e+01 -9.700304985046386719e+00 6.953686475753784180e-01 4.067306220531463623e-01 3.306297659873962402e-01 -1.090028524398803711e+00
2.365000000000000000e+03 3.805620193481445312e+01 -1.110846233367919922e+01 8.983368873596191406e-01 4.059355854988098145e-01 3.912817537784576416e-01 -1.434869050979614258e+00
2.366000000000000000e+03 5.345009994506835938e+01 2.550774192810058594e+01 4.111182987689971924e-01 2.317619919776916504e-01 1.928640902042388916e-01 -4.758224487304687500e-01
2.367000000000000000e+03 6.542357635498046875e+01 1.849658012390136719e+01 1.184403657913208008e+00 3.875223875045776367e+00 1.517888307571411133e+00 -9.251312911510467529e-02
2.368000000000000000e+03 6.395534896850585938e+01 1.992423057556152344e+01 1.325318574905395508e+00 4.451912879943847656e+00 1.733169436454772949e+00 -3.010877966880798340e-01
2.369000000000000000e+03 1.792281913757324219e+01 -2.802535820007324219e+01 6.750351786613464355e-01 5.673763751983642578e-01 3.727234601974487305e-01 -5.399096608161926270e-01
2.370000000000000000e+03 6.346774673461914062e+01 1.185545635223388672e+01 3.598703742027282715e-01 6.246800899505615234e+00 1.982001423835754395e+00 4.215985834598541260e-01
2.371000000000000000e+03 4.030826950073242188e+01 -4.970770835876464844e+00 -2.930556297302246094e+00 1.668816059827804565e-01 -8.291023969650268555e-01 2.013302892446517944e-01
2.372000000000000000e+03 3.918683242797851562e+01 -5.216568946838378906e+00 -2.332692384719848633e+00 5.753651857376098633e-01 -5.271981358528137207e-01 1.044711843132972717e-02
2.373000000000000000e+03 2.244222068786621094e+01 -7.106730937957763672e+00 -5.863108634948730469e-01 -2.622490525245666504e-01 -2.545679509639739990e-01 -7.213878035545349121e-01
2.374000000000000000e+03 4.563447189331054688e+01 2.062285232543945312e+01 -9.882164001464843750e-02 2.026248723268508911e-02 -2.356774732470512390e-02 -1.009280700236558914e-02
2.375000000000000000e+03 6.060343933105468750e+01 -1.059036064147949219e+01 -1.196191787719726562e+00 5.497877597808837891e-01 -1.939212083816528320e-01 5.825593471527099609e-01
2.376000000000000000e+03 5.840324401855468750e+01 -1.131807804107666016e+01 -8.923202753067016602e-01 7.629033923149108887e-01 -3.882506117224693298e-02 7.357641458511352539e-01
2.377000000000000000e+03 2.050211715698242188e+01 -7.613893508911132812e+00 -6.653980016708374023e-01 -3.305745422840118408e-01 -2.987917661666870117e-01 -6.800584793090820312e-01
2.378000000000000000e+03 4.026595687866210938e+01 -3.881857633590698242e+00 -2.999551534652709961e+00 1.396787911653518677e-01 -8.579618334770202637e-01 5.218153595924377441e-01
2.379000000000000000e+03 3.523267364501953125e+01 -3.194569778442382812e+01 4.191177487373352051e-01 1.111412882804870605e+00 4.591591954231262207e-01 4.745241403579711914e-01
2.380000000000000000e+03 5.708288574218750000e+01 -4.689054012298583984e+00 -2.004547864198684692e-01 2.072682380676269531e+00 5.616682767868041992e-01 1.052599668502807617e+00
2.381000000000000000e+03 5.939786148071289062e+01 -4.336203098297119141e+00 -7.258156687021255493e-02 1.854119658470153809e+00 5.344614386558532715e-01 8.165382146835327148e-01
2.382000000000000000e+03 4.724253845214843750e+01 -9.188495635986328125e+00 -9.242066144943237305e-01 3.540970385074615479e-01 -1.710328757762908936e-01 1.501341462135314941e+00
2.383000000000000000e+03 2.179454612731933594e+01 -3.367937850952148438e+01 5.098836421966552734e-01 5.383614301681518555e-01 3.144735395908355713e-01 -2.067354917526245117e-01
2.384000000000000000e+03 2.363936042785644531e+01 -3.225505065917968750e+01 7.655950784683227539e-01 4.731798171997070312e-01 3.716324865818023682e-01 -2.284402102231979370e-01
2.385000000000000000e+03 4.692520141601562500e+01 -3.213830566406250000e+01 -1.178837418556213379e-01 1.142662286758422852e+00 3.074335753917694092e-01 -2.641113102436065674e-01
2.386000000000000000e+03 4.853526687622070312e+01 -3.309854507446289062e+01 -6.931602954864501953e-02 7.592453360557556152e-01 2.069787979125976562e-01 -2.843643724918365479e-01
2.387000000000000000e+03 5.622566223144531250e+01 -5.693952560424804688e+00 -6.139725446701049805e-01 2.038005352020263672e+00 4.272098541259765625e-01 1.278874874114990234e+00
2.388000000000000000e+03 7.508650970458984375e+01 -3.741366195678710938e+01 4.309121519327163696e-03 -1.878236606717109680e-02 -4.341972991824150085e-03 8.057318627834320068e-03
2.389000000000000000e+03 7.509723663330078125e+01 -3.546822738647460938e+01 1.759255304932594299e-03 -1.321532204747200012e-02 -3.436820115894079208e-03 1.205410435795783997e-02
2.390000000000000000e+03 4.102481365203857422e+00 3.713787841796875000e+01 1.432233257219195366e-03 -1.657456159591674805e-02 -4.542698152363300323e-03 4.520873539149761200e-03
2.391000000000000000e+03 5.408145427703857422e+00 3.581525421142578125e+01 3.285214770585298538e-03 -1.594283990561962128e-02 -3.797287587076425552e-03 6.973614450544118881e-03
2.392000000000000000e+03 3.861248779296875000e+01 -1.575268936157226562e+01 1.492127060890197754e+00 6.907101273536682129e-01 6.548511385917663574e-01 -6.043680906295776367e-01
2.393000000000000000e+03 7.404115676879882812e+00 -3.386619186401367188e+01 9.247206151485443115e-02 -7.315114140510559082e-01 -1.917117983102798462e-01 -1.041750311851501465e-01
2.394000000000000000e+03 5.425780773162841797e+00 -3.411717987060546875e+01 5.389288812875747681e-02 -1.011815309524536133e+00 -2.873767316341400146e-01 -7.690001279115676880e-02
2.395000000000000000e+03 4.012485027313232422e+00 -7.663474559783935547e+00 -7.632786035537719727e-02 3.396257758140563965e-02 -1.270958594977855682e-02 3.082195110619068146e-02
2.396000000000000000e+03 5.871256828308105469e+00 -7.174363136291503906e+00 -1.346396356821060181e-01 -6.982222665101289749e-03 -4.248655959963798523e-02 3.358427435159683228e-02
2.397000000000000000e+03 6.462783813476562500e+01 5.932355880737304688e+00 7.923515439033508301e-01 3.554471731185913086e+00 1.304046988487243652e+00 3.629284501075744629e-01
2.398000000000000000e+03 3.775260686874389648e+00 6.737845897674560547e+00 1.597055379534140229e-04 4.384341445984318852e-05 6.106468208599835634e-05 -1.446552487323060632e-04
2.399000000000000000e+03 4.042691802978515625e+01 -2.520385360717773438e+01 3.898419737815856934e-01 1.985962629318237305e+00 7.127413749694824219e-01 9.180228710174560547e-01
2.400000000000000000e+03 4.860708999633789062e+01 -9.447120666503906250e+00 -5.301943421363830566e-01 3.313913345336914062e-01 -5.964090675115585327e-02 2.015014410018920898e+00
2.401000000000000000e+03 4.963770675659179688e+01 -9.158759117126464844e+00 -6.736403703689575195e-01 4.037869274616241455e-01 -8.095601946115493774e-02 2.200310230255126953e+00
2.402000000000000000e+03 6.448087310791015625e+01 2.949843406677246094e+00 5.875312685966491699e-01 2.722289562225341797e+00 9.929462671279907227e-01 1.467908471822738647e-01
2.403000000000000000e+03 1.095360946655273438e+01 -1.576563262939453125e+01 -4.754599034786224365e-01 -3.271491825580596924e-01 -2.407827228307723999e-01 -7.010376453399658203e-01
2.404000000000000000e+03 1.138287734985351562e+01 -1.803531646728515625e+01 -1.306329816579818726e-01 -3.644622564315795898e-01 -1.485285758972167969e-01 -7.976525425910949707e-01
2.405000000000000000e+03 6.656513977050781250e+01 -3.123884010314941406e+01 -2.995294518768787384e-02 1.021212060004472733e-02 -5.922247655689716339e-03 1.849788427352905273e-02
2.406000000000000000e+03 6.360681533813476562e+01 -3.343808746337890625e+01 -2.786387503147125244e-02 7.601335179060697556e-03 -6.078761536628007889e-03 4.111287370324134827e-02
2.407000000000000000e+03 4.329400062561035156e+00 -1.668200492858886719e+01 -7.457327842712402344e-02 -3.268942236900329590e-01 -1.204402521252632141e-01 -4.236909747123718262e-01
2.408000000000000000e+03 3.658724212646484375e+01 -2.935827064514160156e+01 4.892170429229736328e-01 1.194518685340881348e+00 5.051206946372985840e-01 6.566848754882812500e-01
2.409000000000000000e+03 3.766170501708984375e+01 -2.611337852478027344e+01 5.918137431144714355e-01 1.289948940277099609e+00 5.645288228988647461e-01 9.179452061653137207e-01
2.410000000000000000e+03 5.994668960571289062e+01 -3.120242357254028320e+00 2.062864154577255249e-01 1.991699457168579102e+00 6.593957543373107910e-01 7.958239316940307617e-01
2.411000000000000000e+03 1.378399944305419922e+01 -2.190721321105957031e+01 5.572735071182250977e-01 1.837232708930969238e-01 2.222990393638610840e-01 -5.467383861541748047e-01
2.412000000000000000e+03 6.711824035644531250e+01 1.380114936828613281e+01 8.530699610710144043e-01 3.139355182647705078e+00 1.197727560997009277e+00 -7.345175743103027344e-02
2.413000000000000000e+03 6.625180816650390625e+01 1.467712497711181641e+01 8.806048631668090820e-01 3.906286239624023438e+00 1.436067342758178711e+00 -1.463305652141571045e-01
2.414000000000000000e+03 3.049617195129394531e+01 -2.762789011001586914e+00 -2.131647348403930664e+00 2.860568165779113770e-01 -5.536771416664123535e-01 -5.240645408630371094e-01
2.415000000000000000e+03 2.772122955322265625e+01 -2.543576955795288086e+00 -1.714630246162414551e+00 -7.204835116863250732e-02 -5.360035896301269531e-01 -6.572333574295043945e-01
2.416000000000000000e+03 2.989633941650390625e+01 -2.316704273223876953e+00 -2.258275032043457031e+00 2.178751230239868164e-01 -6.121199727058410645e-01 -4.761266410350799561e-01
2.417000000000000000e+03 2.898126029968261719e+01 -2.518147706985473633e+00 -1.963719010353088379e+00 9.946399927139282227e-02 -5.592764616012573242e-01 -5.735859870910644531e-01
2.418000000000000000e+03 2.941503524780273438e+01 -2.496478080749511719e+00 -2.067699909210205078e+00 1.768450438976287842e-01 -5.672564506530761719e-01 -5.568943023681640625e-01
2.419000000000000000e+03 2.703603172302246094e+01 -2.666315317153930664e+00 -1.490094184875488281e+00 -1.487216353416442871e-01 -4.916447401046752930e-01 -7.239065170288085938e-01
2.420000000000000000e+03 4.364793777465820312e+01 -1.813223457336425781e+01 1.094406843185424805e+00 6.066717624664306641e+00 2.148337364196777344e+00 1.876274228096008301e+00
2.421000000000000000e+03 4.661031723022460938e+01 -1.491252803802490234e+01 4.825757980346679688e+00 1.251402497291564941e+00 1.823148012161254883e+00 2.566191434860229492e+00
2.422000000000000000e+03 4.599541091918945312e+01 -1.391712951660156250e+01 2.955909490585327148e+00 2.711501121520996094e+00 1.700223207473754883e+00 2.236383914947509766e+00
2.423000000000000000e+03 4.322015762329101562e+01 -1.563005828857421875e+01 4.705086231231689453e+00 3.975573778152465820e+00 2.604197978973388672e+00 -2.156639546155929565e-01
2.424000000000000000e+03 4.279924011230468750e+01 -1.745250701904296875e+01 3.043148517608642578e+00 4.191835880279541016e+00 2.170495271682739258e+00 1.871917963027954102e+00
2.425000000000000000e+03 4.319847106933593750e+01 -1.818375015258789062e+01 1.451668262481689453e+00 5.219393730163574219e+00 2.001318693161010742e+00 1.874437332153320312e+00
2.426000000000000000e+03 4.416052627563476562e+01 -1.480037307739257812e+01 3.219610452651977539e+00 5.355716705322265625e+00 2.572598218917846680e+00 1.617239564657211304e-01
2.427000000000000000e+03 4.277714920043945312e+01 -1.611674499511718750e+01 4.479556560516357422e+00 3.333802223205566406e+00 2.344007730484008789e+00 3.544000685214996338e-01
2.428000000000000000e+03 4.397178268432617188e+01 -1.449112701416015625e+01 2.841885328292846680e+00 4.737828731536865234e+00 2.273914337158203125e+00 -2.264421805739402771e-02
2.429000000000000000e+03 4.356193923950195312e+01 -1.524407005310058594e+01 4.158874511718750000e+00 4.666228771209716797e+00 2.647530794143676758e+00 -4.349780380725860596e-01
2.430000000000000000e+03 4.306784439086914062e+01 -1.794153404235839844e+01 1.980555772781372070e+00 4.981326103210449219e+00 2.088564634323120117e+00 2.012192249298095703e+00
2.431000000000000000e+03 4.449429702758789062e+01 -1.917360115051269531e+01 -2.264228016138076782e-01 5.368215560913085938e+00 1.542537808418273926e+00 8.094254881143569946e-02
2.432000000000000000e+03 3.135679435729980469e+01 -2.309598922729492188e+00 -2.433814525604248047e+00 2.314551621675491333e-01 -6.607078313827514648e-01 -4.743969440460205078e-01
2.433000000000000000e+03 3.095947456359863281e+01 -2.097123622894287109e+00 -2.620816707611083984e+00 2.918568551540374756e-01 -6.986879706382751465e-01 -4.140281081199645996e-01
2.434000000000000000e+03 1.865559005737304688e+01 2.333694267272949219e+01 -4.817229881882667542e-02 -1.103149726986885071e-03 -1.478263456374406815e-02 1.214533206075429916e-02
2.435000000000000000e+03 4.450538635253906250e+01 -2.015073776245117188e+01 -1.504978537559509277e-01 4.807585716247558594e+00 1.397126317024230957e+00 -4.291187506169080734e-03
2.436000000000000000e+03 3.492906951904296875e+01 5.951405048370361328e+00 1.193683245219290257e-03 3.021331503987312317e-04 4.487449186854064465e-04 -1.348581048659980297e-03
2.437000000000000000e+03 1.789920997619628906e+01 6.706954002380371094e+00 2.953759940282907337e-05 5.729776603402569890e-05 2.605060944915749133e-05 1.788031477190088481e-05
2.438000000000000000e+03 2.863698577880859375e+01 2.259279060363769531e+01 -1.003609150648117065e-01 -5.950814485549926758e-02 -4.796071723103523254e-02 5.168469995260238647e-02
2.439000000000000000e+03 2.733920097351074219e+01 2.273880004882812500e+01 -1.110230237245559692e-01 -4.733856767416000366e-02 -4.750847816467285156e-02 5.846936255693435669e-02
2.440000000000000000e+03 1.687910461425781250e+01 7.983078479766845703e+00 -4.578595053317258134e-06 -1.035002878779778257e-05 -4.478587015910306945e-06 -4.540721056400798261e-05
2.441000000000000000e+03 1.796366691589355469e+01 6.147503376007080078e+00 1.149416584667051211e-05 5.905025682295672596e-05 2.116332689183764160e-05 2.093252760460018180e-06
2.442000000000000000e+03 2.718871116638183594e+01 -2.327426433563232422e+00 -1.681582093238830566e+00 -1.530627608299255371e-01 -5.503934621810913086e-01 -6.327439546585083008e-01
2.443000000000000000e+03 2.629045677185058594e+01 -3.236859321594238281e+00 -1.136052012443542480e+00 -1.437436640262603760e-01 -3.839386999607086182e-01 -8.754642009735107422e-01
2.444000000000000000e+03 3.295849227905273438e+01 1.629153823852539062e+01 -3.406733646988868713e-02 -1.979310624301433563e-02 -1.615813374519348145e-02 3.537275269627571106e-02
2.445000000000000000e+03 2.356439781188964844e+01 2.412545585632324219e+01 -7.888676971197128296e-02 -2.251974679529666901e-02 -3.042195551097393036e-02 3.595094010233879089e-02
2.446000000000000000e+03 3.417672348022460938e+01 1.166732788085937500e+01 -4.897156264632940292e-03 -1.553195994347333908e-03 -1.935105770826339722e-03 5.049998871982097626e-03
2.447000000000000000e+03 3.396260452270507812e+01 1.116157436370849609e+01 -3.272208152338862419e-03 -9.907534113153815269e-04 -1.278888550586998463e-03 1.480372855439782143e-03
2.448000000000000000e+03 1.543929958343505859e+01 9.970443725585937500e+00 -1.039090566337108612e-04 1.041294162860140204e-04 6.610911640336780692e-08 -1.698881897027604282e-05
2.449000000000000000e+03 1.524779796600341797e+01 9.514472007751464844e+00 -1.018665789160877466e-04 8.830094157019630075e-05 -4.069690021424321458e-06 2.272545498271938413e-05
2.450000000000000000e+03 4.387536239624023438e+01 -1.852849197387695312e+01 2.343235611915588379e-01 6.044500827789306641e+00 1.883647322654724121e+00 1.120250821113586426e+00
2.451000000000000000e+03 3.281113815307617188e+01 1.670671463012695312e+01 -4.049662128090858459e-02 -1.972413808107376099e-02 -1.806622743606567383e-02 3.971343487501144409e-02
2.452000000000000000e+03 1.269024658203125000e+01 1.812450027465820312e+01 -4.545147530734539032e-04 2.429853484500199556e-04 -6.345882866298779845e-05 -3.077671181017649360e-06
2.453000000000000000e+03 2.031970596313476562e+01 2.363208007812500000e+01 -6.543046236038208008e-02 -6.640588864684104919e-03 -2.162131480872631073e-02 2.015446871519088745e-02
2.454000000000000000e+03 3.320161819458007812e+01 1.445337009429931641e+01 -1.577785611152648926e-02 -9.339180774986743927e-03 -7.535110693424940109e-03 1.887085475027561188e-02
2.455000000000000000e+03 3.486920547485351562e+01 7.356332302093505859e+00 1.217559329234063625e-03 5.578551790677011013e-04 5.326243699528276920e-04 -6.658807396888732910e-04
2.456000000000000000e+03 4.320737075805664062e+01 -1.903883552551269531e+01 4.987594783306121826e-01 5.022886276245117188e+00 1.656493782997131348e+00 1.247279882431030273e+00
2.457000000000000000e+03 3.312184524536132812e+01 1.381094551086425781e+01 -1.052568107843399048e-02 -7.873585447669029236e-03 -5.519779864698648453e-03 1.427499670535326004e-02
2.458000000000000000e+03 3.732861328125000000e+01 8.386371612548828125e+00 7.176973158493638039e-04 -1.978904707357287407e-03 -3.783622523769736290e-04 -2.363308594794943929e-04
2.459000000000000000e+03 3.282161712646484375e+01 1.316095352172851562e+01 -4.611451644450426102e-03 -5.696371663361787796e-03 -3.092346945777535439e-03 8.056614547967910767e-03
2.460000000000000000e+03 3.397951889038085938e+01 1.072841167449951172e+01 -2.502474701032042503e-03 -5.661278264597058296e-04 -9.205807582475244999e-04 2.098822966217994690e-03
2.461000000000000000e+03 3.343611145019531250e+01 1.063047599792480469e+01 -9.265810367651283741e-04 1.407610019668936729e-03 1.443086948711425066e-04 -2.923461142927408218e-04
2.462000000000000000e+03 3.441690444946289062e+01 9.852062225341796875e+00 -7.399713504128158092e-04 -1.106943935155868530e-03 -5.540745914913713932e-04 3.367724420968443155e-04
2.463000000000000000e+03 3.274379348754882812e+01 1.520775413513183594e+01 -1.888909377157688141e-02 -1.709626056253910065e-02 -1.079560723155736923e-02 2.430203370749950409e-02
2.464000000000000000e+03 1.787866020202636719e+01 7.297953605651855469e+00 2.986014806083403528e-05 6.461317389039322734e-05 2.834199585777241737e-05 2.767740079434588552e-05
2.465000000000000000e+03 1.756633186340332031e+01 7.537325859069824219e+00 -2.782102274068165570e-05 -3.973989078076556325e-05 -2.026827496592886746e-05 -2.890747418859973550e-05
2.466000000000000000e+03 1.510567569732666016e+01 1.104065990447998047e+01 -6.583577487617731094e-05 2.057121164398267865e-04 4.196289955871179700e-05 -3.806823224294930696e-05
2.467000000000000000e+03 1.504960632324218750e+01 1.054879188537597656e+01 -1.208874164149165154e-04 1.984549162443727255e-04 2.327024958503898233e-05 1.605699617357458919e-05
2.468000000000000000e+03 1.453902721405029297e+01 1.155303192138671875e+01 -1.012222128338180482e-04 3.805875603575259447e-04 8.380960935028269887e-05 2.859049527614843100e-05
2.469000000000000000e+03 1.597715854644775391e+01 8.272366523742675781e+00 7.326473132707178593e-05 2.043795393547043204e-05 2.811080412357114255e-05 -9.909359732773737051e-07
2.470000000000000000e+03 1.385224437713623047e+01 1.389944267272949219e+01 2.015132486121729016e-05 9.694460895843803883e-04 2.968792396131902933e-04 3.188109549228101969e-04
2.471000000000000000e+03 3.247677993774414062e+01 1.752286338806152344e+01 -5.123848095536231995e-02 -2.570653334259986877e-02 -2.308350428938865662e-02 4.601831734180450439e-02
2.472000000000000000e+03 4.854366683959960938e+01 -1.426967334747314453e+01 3.484061241149902344e+00 8.189752697944641113e-01 1.290910959243774414e+00 1.667657613754272461e+00
2.473000000000000000e+03 1.882196807861328125e+01 3.933514595031738281e+00 -3.106891881543560885e-06 3.584557271096855402e-05 9.821604180615395308e-06 7.758550964354071766e-06
2.474000000000000000e+03 3.188409805297851562e+01 1.873502349853515625e+01 -7.230275869369506836e-02 -3.598923981189727783e-02 -3.248760104179382324e-02 5.738604813814163208e-02
2.475000000000000000e+03 3.129175186157226562e+01 2.066033935546875000e+01 -1.047510057687759399e-01 -3.261413052678108215e-02 -4.120954126119613647e-02 4.996744170784950256e-02
2.476000000000000000e+03 2.729101181030273438e+01 2.409281921386718750e+01 -7.471758127212524414e-02 -4.578153416514396667e-02 -3.614973649382591248e-02 4.918681830167770386e-02
2.477000000000000000e+03 1.736533355712890625e+01 2.286482620239257812e+01 -3.795896470546722412e-02 5.810182192362844944e-04 -1.121338456869125366e-02 6.391962990164756775e-03
2.478000000000000000e+03 1.804876708984375000e+01 2.257209968566894531e+01 -4.206635057926177979e-02 -1.142475048254709691e-05 -1.262333244085311890e-02 2.514665247872471809e-03
2.479000000000000000e+03 3.295923995971679688e+01 1.275036048889160156e+01 -5.239780060946941376e-03 -4.273456986993551254e-03 -2.853970974683761597e-03 5.900634918361902237e-03
2.480000000000000000e+03 1.778209877014160156e+01 5.809651851654052734e+00 5.478077582665719092e-06 -4.328984141466207802e-05 -1.134352987719466910e-05 -1.920693193824263290e-06
2.481000000000000000e+03 3.386820220947265625e+01 1.226981735229492188e+01 -5.913652013987302780e-03 -2.244570059701800346e-03 -2.447466598823666573e-03 6.997887510806322098e-03
2.482000000000000000e+03 3.358047866821289062e+01 1.253918743133544922e+01 -7.613057736307382584e-03 -3.920149523764848709e-03 -3.459962084889411926e-03 6.694185081869363785e-03
2.483000000000000000e+03 3.216735458374023438e+01 1.947646331787109375e+01 -8.607964217662811279e-02 -2.170068211853504181e-02 -3.233409672975540161e-02 5.396965518593788147e-02
2.484000000000000000e+03 2.562982559204101562e+01 2.357592773437500000e+01 -9.684237092733383179e-02 -3.246520459651947021e-02 -3.879227116703987122e-02 4.890592023730278015e-02
2.485000000000000000e+03 2.599659156799316406e+01 2.322220039367675781e+01 -1.051277369260787964e-01 -3.436984866857528687e-02 -4.184927418828010559e-02 4.993878304958343506e-02
2.486000000000000000e+03 1.327392864227294922e+01 1.591490936279296875e+01 1.553040492581203580e-04 8.758558542467653751e-04 3.093479608651250601e-04 6.820208509452641010e-04
2.487000000000000000e+03 1.978526878356933594e+01 2.391908645629882812e+01 -5.811868235468864441e-02 -4.595504142343997955e-03 -1.881425641477108002e-02 2.066207304596900940e-02
2.488000000000000000e+03 3.383004760742187500e+01 1.357327175140380859e+01 -1.388952508568763733e-02 -5.369702354073524475e-03 -5.777768325060606003e-03 1.455055736005306244e-02
2.489000000000000000e+03 3.265142822265625000e+01 1.711612510681152344e+01 -4.399022087454795837e-02 -2.524664439260959625e-02 -2.077106013894081116e-02 4.389241337776184082e-02
2.490000000000000000e+03 3.228879928588867188e+01 1.792965316772460938e+01 -5.711242929100990295e-02 -3.029643371701240540e-02 -2.622265927493572235e-02 5.125686153769493103e-02
2.491000000000000000e+03 1.360534095764160156e+01 1.418407058715820312e+01 2.473455097060650587e-04 7.597753428854048252e-04 3.021362645085901022e-04 3.946350188925862312e-04
2.492000000000000000e+03 3.453473281860351562e+01 7.698770999908447266e+00 3.126949195575434715e-06 -1.181570230983197689e-03 -3.535329888109117746e-04 -9.964284254238009453e-04
2.493000000000000000e+03 3.425212097167968750e+01 7.980743408203125000e+00 1.038614311255514622e-03 1.217461656779050827e-03 6.768227904103696346e-04 -7.533660391345620155e-04
2.494000000000000000e+03 3.161695098876953125e+01 1.804862594604492188e+01 -5.441432818770408630e-02 -4.839540645480155945e-02 -3.084292076528072357e-02 5.457903817296028137e-02
2.495000000000000000e+03 1.494544887542724609e+01 2.137239456176757812e+01 -1.587835513055324554e-02 2.638525096699595451e-03 -3.971949219703674316e-03 -3.138055908493697643e-04
2.496000000000000000e+03 1.532794094085693359e+01 2.148805046081542969e+01 -1.779144816100597382e-02 2.478769980370998383e-03 -4.593803547322750092e-03 -5.679026362486183643e-04
2.497000000000000000e+03 1.563415527343750000e+01 2.274412918090820312e+01 -2.417292445898056030e-02 2.300315769389271736e-03 -6.561782676726579666e-03 4.988219123333692551e-03
2.498000000000000000e+03 1.900483322143554688e+01 2.314878845214843750e+01 -5.484097823500633240e-02 -1.138322986662387848e-03 -1.679379120469093323e-02 1.117106713354587555e-02
2.499000000000000000e+03 1.852430534362792969e+01 2.283761024475097656e+01 -4.875998571515083313e-02 6.513710832223296165e-05 -1.460845395922660828e-02 5.315692164003849030e-03
2.500000000000000000e+03 1.460085964202880859e+01 2.114031219482421875e+01 -1.252482924610376358e-02 2.746917307376861572e-03 -2.933373674750328064e-03 -1.075539621524512768e-03
2.501000000000000000e+03 1.488321399688720703e+01 2.075426483154296875e+01 -1.059354841709136963e-02 2.052850322797894478e-03 -2.562209498137235641e-03 -1.605818397365510464e-03
2.502000000000000000e+03 2.180632972717285156e+01 2.376599693298339844e+01 -7.679257541894912720e-02 -1.549853291362524033e-02 -2.768733352422714233e-02 2.785781770944595337e-02
2.503000000000000000e+03 2.259285736083984375e+01 2.368807792663574219e+01 -8.697714656591415405e-02 -1.756959222257137299e-02 -3.136402368545532227e-02 3.053059428930282593e-02
2.504000000000000000e+03 3.063467788696289062e+01 2.058360862731933594e+01 -1.155062541365623474e-01 -4.988638684153556824e-02 -4.961779341101646423e-02 5.725089088082313538e-02
2.505000000000000000e+03 1.579613590240478516e+01 7.845432281494140625e+00 -6.505809869850054383e-05 1.062768351403065026e-04 1.236562002304708585e-05 3.930021921405568719e-05
2.506000000000000000e+03 1.354079055786132812e+01 1.554644775390625000e+01 2.966150932479649782e-04 1.148364739492535591e-03 4.334939294494688511e-04 5.840563098900020123e-04
2.507000000000000000e+03 1.360091209411621094e+01 1.862429618835449219e+01 -8.261643815785646439e-04 7.647780003026127815e-04 -1.841591620177496225e-05 -9.128310921369120479e-05
2.508000000000000000e+03 1.304500389099121094e+01 1.848130607604980469e+01 -6.770633044652640820e-04 -4.243002422299468890e-06 -2.043918939307332039e-04 1.509484281996265054e-04
2.509000000000000000e+03 1.322139549255371094e+01 1.805067253112792969e+01 -3.753389464691281319e-04 1.746162015479058027e-04 -6.021682565915398300e-05 2.191214734921231866e-04
2.510000000000000000e+03 2.046757507324218750e+01 2.426229858398437500e+01 -6.139057502150535583e-02 -9.963057935237884521e-03 -2.140608988702297211e-02 2.701410837471485138e-02
2.511000000000000000e+03 1.462147521972656250e+01 2.180177497863769531e+01 -1.626604236662387848e-02 2.952588954940438271e-03 -3.994036000221967697e-03 7.514645112678408623e-04
2.512000000000000000e+03 3.190556526184082031e+01 1.992774581909179688e+01 -9.216272085905075073e-02 -2.333082817494869232e-02 -3.464806452393531799e-02 5.204053968191146851e-02
2.513000000000000000e+03 1.538878822326660156e+01 9.217349052429199219e+00 6.502196629298850894e-05 1.818632881622761488e-04 7.406557415379211307e-05 8.500816875312011689e-06
2.514000000000000000e+03 1.903782081604003906e+01 5.441307544708251953e+00 -5.609533218375872821e-06 -2.944393963844049722e-05 -1.051604158419650048e-05 -1.771541428752243519e-05
2.515000000000000000e+03 2.217234230041503906e+01 2.323262977600097656e+01 -9.280487895011901855e-02 -1.410343032330274582e-02 -3.207249194383621216e-02 2.409474179148674011e-02
2.516000000000000000e+03 2.938716506958007812e+01 2.182046890258789062e+01 -1.186758950352668762e-01 -6.645322591066360474e-02 -5.553873628377914429e-02 5.122079700231552124e-02
2.517000000000000000e+03 2.887724685668945312e+01 2.229801368713378906e+01 -1.068000495433807373e-01 -6.406977027654647827e-02 -5.126094818115234375e-02 5.205170810222625732e-02
2.518000000000000000e+03 2.294906234741210938e+01 2.362367820739746094e+01 -8.851742744445800781e-02 -1.912380382418632507e-02 -3.229236975312232971e-02 3.147916123270988464e-02
2.519000000000000000e+03 2.252447509765625000e+01 2.419683265686035156e+01 -7.478269934654235840e-02 -2.123860269784927368e-02 -2.880639024078845978e-02 3.382400423288345337e-02
2.520000000000000000e+03 2.956306648254394531e+01 2.148519897460937500e+01 -1.250061392784118652e-01 -6.787800043821334839e-02 -5.786524340510368347e-02 5.410885438323020935e-02
2.521000000000000000e+03 1.426674175262451172e+01 2.090915298461914062e+01 -1.070030778646469116e-02 2.031982410699129105e-03 -2.600497566163539886e-03 -1.020616269670426846e-03
2.522000000000000000e+03 1.610436439514160156e+01 2.251906013488769531e+01 -2.756137400865554810e-02 2.040309365838766098e-03 -7.656319066882133484e-03 4.579539876431226730e-03
2.523000000000000000e+03 1.452307319641113281e+01 2.250056076049804688e+01 -1.927428506314754486e-02 3.293235553428530693e-03 -4.794314503669738770e-03 3.943799994885921478e-03
2.524000000000000000e+03 1.476244068145751953e+01 9.682363510131835938e+00 -9.578872413840144873e-05 1.018717739498242736e-04 1.824915557335771155e-06 7.314493996091187000e-05
2.525000000000000000e+03 2.976207542419433594e+01 2.228203201293945312e+01 -9.886236488819122314e-02 -5.445512011647224426e-02 -4.599524661898612976e-02 3.988574072718620300e-02
2.526000000000000000e+03 3.525315475463867188e+01 4.528132915496826172e+00 6.917000282555818558e-04 2.704328799154609442e-04 2.886398578993976116e-04 5.856022471562027931e-04
2.527000000000000000e+03 3.580065536499023438e+01 5.075891017913818359e+00 1.195601304061710835e-03 3.452099044807255268e-04 4.622433625627309084e-04 3.675474144984036684e-04
2.528000000000000000e+03 2.973614692687988281e+01 2.105600166320800781e+01 -1.324385404586791992e-01 -7.145401835441589355e-02 -6.116776540875434875e-02 6.022376194596290588e-02
2.529000000000000000e+03 3.039549255371093750e+01 2.096262168884277344e+01 -1.206477731466293335e-01 -5.202994868159294128e-02 -5.180331692099571228e-02 5.329017713665962219e-02
2.530000000000000000e+03 3.018509483337402344e+01 2.137649154663085938e+01 -1.143459379673004150e-01 -5.333032831549644470e-02 -5.030287802219390869e-02 4.760437831282615662e-02
2.531000000000000000e+03 1.519220924377441406e+01 2.286822128295898438e+01 -2.429552190005779266e-02 2.948798472061753273e-03 -6.404017098248004913e-03 5.551117938011884689e-03
2.532000000000000000e+03 1.366709518432617188e+01 2.018616104125976562e+01 -6.164193619042634964e-03 1.377774402499198914e-03 -1.435925718396902084e-03 -1.392675912939012051e-03
2.533000000000000000e+03 3.609361267089843750e+01 -2.255721807479858398e+00 -2.364102125167846680e+00 5.595751404762268066e-01 -5.413581132888793945e-01 4.432992041110992432e-01
2.534000000000000000e+03 1.845026397705078125e+01 4.684281826019287109e+00 -2.158617644454352558e-05 -5.720795525121502578e-05 -2.363824023632332683e-05 1.142078235716326162e-05
2.535000000000000000e+03 4.778903579711914062e+01 -1.529789543151855469e+01 4.677969932556152344e+00 4.097948372364044189e-01 1.526329398155212402e+00 1.537074804306030273e+00
2.536000000000000000e+03 3.649760055541992188e+01 4.967920780181884766e+00 -1.256143557839095592e-03 -7.400969043374061584e-04 -5.988721386529505253e-04 2.128365449607372284e-04
2.537000000000000000e+03 3.115596008300781250e+01 -2.721066713333129883e+00 -2.288971900939941406e+00 2.729046046733856201e-01 -6.048201918601989746e-01 -4.800301492214202881e-01
2.538000000000000000e+03 3.249570465087890625e+01 -3.652389287948608398e+00 -1.737703680992126465e+00 2.658384442329406738e-01 -4.415595531463623047e-01 -2.306141704320907593e-01
2.539000000000000000e+03 4.887818527221679688e+01 -1.339646053314208984e+01 2.508273363113403320e+00 8.215801715850830078e-01 9.989560246467590332e-01 1.818887591361999512e+00
2.540000000000000000e+03 1.982087707519531250e+01 4.659183502197265625e+00 -3.640318391262553632e-05 -1.987892028409987688e-05 -1.688463089521974325e-05 -2.203004623879678547e-05
2.541000000000000000e+03 2.057377433776855469e+01 4.593798637390136719e+00 -2.092605245707090944e-05 -4.401170735945925117e-05 -1.948132739926222712e-05 -1.300715848628897220e-05
2.542000000000000000e+03 1.596156692504882812e+01 4.330834388732910156e+00 -3.515335492920712568e-06 -3.131878111162222922e-05 -1.045023509504972026e-05 1.783032348612323403e-05
2.543000000000000000e+03 1.662243843078613281e+01 4.348419189453125000e+00 1.676187639532145113e-05 5.763481021858751774e-05 2.231900543847586960e-05 -2.322718046343652532e-06
2.544000000000000000e+03 3.431143188476562500e+01 -3.755331277847290039e+00 -1.849380135536193848e+00 4.511917531490325928e-01 -4.194565117359161377e-01 2.200638502836227417e-01
2.545000000000000000e+03 3.536840057373046875e+01 -3.479790687561035156e+00 -2.052651882171630859e+00 5.858422517776489258e-01 -4.400428831577301025e-01 3.570187687873840332e-01
2.546000000000000000e+03 2.367004966735839844e+01 2.367080879211425781e+01 -9.108359366655349731e-02 -2.169978804886341095e-02 -3.383501619100570679e-02 3.695594519376754761e-02
2.547000000000000000e+03 1.670205688476562500e+01 3.764916181564331055e+00 -3.498716978356242180e-06 -3.758151433430612087e-05 -1.232406975759658962e-05 1.327062363998265937e-05
2.548000000000000000e+03 2.257783889770507812e+01 -3.411988973617553711e+00 -6.483522057533264160e-01 -5.172633379697799683e-02 -2.100235670804977417e-01 -6.264849901199340820e-01
2.549000000000000000e+03 2.752333259582519531e+01 -5.050333499908447266e+00 -6.064617633819580078e-01 6.452656816691160202e-03 -1.800027340650558472e-01 -1.050219178199768066e+00
2.550000000000000000e+03 1.394597148895263672e+01 5.103106498718261719e+00 -2.189892074966337532e-05 -2.712314199015963823e-05 -1.470661845814902335e-05 4.069142232765443623e-05
2.551000000000000000e+03 1.394139862060546875e+01 3.784315347671508789e+00 -2.459288452882901765e-07 -3.726165596162900329e-05 -1.125227481679758057e-05 4.360562161309644580e-05
2.552000000000000000e+03 1.948250961303710938e+01 4.001482486724853516e+00 -7.086286132107488811e-06 -3.394267696421593428e-05 -1.230868929269490764e-05 -1.351965693174861372e-05
2.553000000000000000e+03 1.393542766571044922e+01 4.435173988342285156e+00 3.609756095102056861e-05 6.734474300174042583e-05 3.103269045823253691e-05 1.065405558620113879e-05
2.554000000000000000e+03 4.997217178344726562e+01 -1.231826210021972656e+01 1.496599793434143066e+00 6.605457663536071777e-01 6.471436619758605957e-01 2.022934436798095703e+00
2.555000000000000000e+03 1.728713226318359375e+01 4.352610588073730469e+00 5.689952104148687795e-06 -3.648689016699790955e-05 -9.239081009582150728e-06 1.156098278443096206e-05
2.556000000000000000e+03 3.953782653808593750e+01 -1.715193367004394531e+01 1.532447576522827148e+00 1.345784902572631836e+00 8.634697198867797852e-01 2.642963826656341553e-01
2.557000000000000000e+03 2.607378578186035156e+01 2.414537429809570312e+01 -7.958301156759262085e-02 -3.827073425054550171e-02 -3.535612300038337708e-02 4.665212333202362061e-02
2.558000000000000000e+03 1.097907447814941406e+01 3.931994199752807617e+00 2.294727164553478360e-05 -5.989697456243447959e-05 -1.108491051127202809e-05 6.634344026679173112e-05
2.559000000000000000e+03 1.018524646759033203e+01 4.676907062530517578e+00 2.341227082069963217e-05 -8.085677836788818240e-05 -1.723335117276292294e-05 6.672406743746250868e-05
2.560000000000000000e+03 1.530072784423828125e+01 4.352578163146972656e+00 1.100683311960892752e-05 6.880560249555855989e-05 2.394373041170183569e-05 4.391324182506650686e-06
2.561000000000000000e+03 1.462763404846191406e+01 4.398514270782470703e+00 2.083894514726125635e-06 -3.189386188751086593e-05 -8.942990461946465075e-06 4.034786979900673032e-05
2.562000000000000000e+03 7.290992736816406250e+01 -2.073785400390625000e+01 -8.663520566187798977e-05 -9.981131879612803459e-04 -3.254245093557983637e-04 -2.897867307183332741e-05
2.563000000000000000e+03 1.247034358978271484e+01 4.534992694854736328e+00 3.685388583107851446e-05 6.550123362103477120e-05 3.070653474424034357e-05 1.619072827452328056e-05
2.564000000000000000e+03 1.170348739624023438e+01 4.623128414154052734e+00 3.637622648966498673e-05 -6.271384336287155747e-05 -7.901286153355613351e-06 7.570155139546841383e-05
2.565000000000000000e+03 1.165248775482177734e+01 -4.796227931976318359e+00 -1.260252892971038818e-01 -1.218050345778465271e-01 -7.434909790754318237e-02 -6.207350175827741623e-03
2.566000000000000000e+03 1.088148498535156250e+01 -4.840772151947021484e+00 -1.155642792582511902e-01 -9.372390061616897583e-02 -6.278645247220993042e-02 2.350705675780773163e-02
2.567000000000000000e+03 9.455888748168945312e+00 4.670164585113525391e+00 8.909275493351742625e-05 2.977143412863370031e-05 3.565925726434215903e-05 -2.161718111892696470e-05
2.568000000000000000e+03 3.857438087463378906e+00 -5.698258876800537109e+00 -3.329504653811454773e-02 4.373338818550109863e-02 3.131502773612737656e-03 8.072784543037414551e-02
2.569000000000000000e+03 5.353606700897216797e+00 -4.911716461181640625e+00 -2.611782960593700409e-02 1.186433807015419006e-02 -4.276047460734844208e-03 9.565639495849609375e-02
2.570000000000000000e+03 3.703976440429687500e+01 -3.172733545303344727e+00 -2.384226560592651367e+00 7.092490792274475098e-01 -5.024932622909545898e-01 5.015159845352172852e-01
2.571000000000000000e+03 1.468765068054199219e+01 -4.692751884460449219e+00 -1.831226497888565063e-01 -2.037505507469177246e-01 -1.160619556903839111e-01 -1.648052185773849487e-01
2.572000000000000000e+03 5.655539512634277344e+00 5.603273868560791016e+00 8.063278801273554564e-05 -7.573963375762104988e-05 1.467946390221186448e-06 3.542700142133980989e-05
2.573000000000000000e+03 6.579571723937988281e+00 -5.070257186889648438e+00 -5.190722271800041199e-02 -6.336389575153589249e-03 -1.747308298945426941e-02 8.770597726106643677e-02
2.574000000000000000e+03 5.480068206787109375e+00 -4.306258201599121094e+00 -4.661070182919502258e-03 9.157523512840270996e-03 1.348935998976230621e-03 9.989707171916961670e-02
2.575000000000000000e+03 9.212603569030761719e+00 -4.102304935455322266e+00 -2.170209400355815887e-02 -4.095964506268501282e-02 -1.879852078855037689e-02 7.335374504327774048e-02
2.576000000000000000e+03 1.008887577056884766e+01 -4.879632472991943359e+00 -1.055250316858291626e-01 -7.478532940149307251e-02 -5.409310758113861084e-02 4.262988269329071045e-02
2.577000000000000000e+03 6.612476348876953125e+00 4.575626850128173828e+00 1.386836811434477568e-04 4.464587163965916261e-06 4.294447717256844044e-05 -2.267941636091563851e-05
2.578000000000000000e+03 1.306241512298583984e+01 -3.980425357818603516e+00 -6.633901596069335938e-02 -1.133434623479843140e-01 -5.390474200248718262e-02 -5.216415971517562866e-02
2.579000000000000000e+03 5.397147178649902344e+00 4.792127609252929688e+00 6.283436960075050592e-05 4.051844371133483946e-05 3.100584217463620007e-05 -1.210710470331832767e-04
2.580000000000000000e+03 3.804352283477783203e+00 4.889005661010742188e+00 1.472900185035541654e-04 2.623284854053054005e-05 5.205686102272011340e-05 -1.190040347864851356e-04
2.581000000000000000e+03 7.781949996948242188e+00 -4.735204219818115234e+00 -5.720212683081626892e-02 -2.548899874091148376e-02 -2.480733767151832581e-02 8.354227989912033081e-02
2.582000000000000000e+03 4.903256893157958984e+00 -5.365337371826171875e+00 -4.210410639643669128e-02 1.809008792042732239e-02 -7.204205263406038284e-03 8.763366937637329102e-02
2.583000000000000000e+03 7.241009712219238281e+00 4.680189132690429688e+00 -2.172404674638528377e-05 -4.377602454042062163e-05 -1.965002047654706985e-05 2.330373172299005091e-05
2.584000000000000000e+03 8.021754264831542969e+00 3.949334621429443359e+00 1.521048852737294510e-05 -5.702549242414534092e-05 -1.254450035048648715e-05 4.641898703994229436e-05
2.585000000000000000e+03 8.708838462829589844e+00 4.702545166015625000e+00 4.941530278301797807e-05 -8.985263411886990070e-05 -1.213119958265451714e-05 7.164086855482310057e-05
2.586000000000000000e+03 1.782215499877929688e+01 -4.757694721221923828e+00 -3.196623325347900391e-01 -2.379030883312225342e-01 -1.672696322202682495e-01 -4.128848016262054443e-01
2.587000000000000000e+03 1.902238273620605469e+01 -4.604753494262695312e+00 -3.708836138248443604e-01 -2.137615531682968140e-01 -1.753935515880584717e-01 -4.789088666439056396e-01
2.588000000000000000e+03 1.852326583862304688e+01 -5.101528167724609375e+00 -3.709940910339355469e-01 -2.557732760906219482e-01 -1.880302131175994873e-01 -4.747766256332397461e-01
2.589000000000000000e+03 8.483652114868164062e+00 -4.809669494628906250e+00 -6.987792253494262695e-02 -3.806461021304130554e-02 -3.238276019692420959e-02 7.573720812797546387e-02
2.590000000000000000e+03 3.586826705932617188e+01 4.149170875549316406e+00 2.156387345166876912e-04 -6.560211186297237873e-04 -1.321147137787193060e-04 9.630252025090157986e-04
2.591000000000000000e+03 3.339037704467773438e+01 -5.649255275726318359e+00 -7.726075053215026855e-01 7.620201706886291504e-01 -3.176205558702349663e-03 -2.246012687683105469e-01
2.592000000000000000e+03 3.364277648925781250e+01 -4.398052692413330078e+00 -1.439627885818481445e+00 5.103735327720642090e-01 -2.787762880325317383e-01 -7.141964044421911240e-03
2.593000000000000000e+03 1.619559097290039062e+01 -4.004574775695800781e+00 -1.676489114761352539e-01 -1.852690726518630981e-01 -1.058753952383995056e-01 -2.501471042633056641e-01
2.594000000000000000e+03 1.316846561431884766e+01 -4.720232009887695312e+00 -1.476920843124389648e-01 -1.570620834827423096e-01 -9.142625331878662109e-02 -7.437654584646224976e-02
2.595000000000000000e+03 7.472195434570312500e+01 -1.266581535339355469e+01 -2.130312770605087280e-01 -1.819552294909954071e-02 -6.936804205179214478e-02 -2.090801894664764404e-01
2.596000000000000000e+03 1.709234428405761719e+01 -4.777279376983642578e+00 -2.836101651191711426e-01 -2.575997114181518555e-01 -1.623629629611968994e-01 -3.523325026035308838e-01
2.597000000000000000e+03 7.102486419677734375e+01 -1.131734085083007812e+01 -6.749954819679260254e-01 1.672883480787277222e-01 -1.523121446371078491e-01 -3.663769662380218506e-01
2.598000000000000000e+03 7.384209442138671875e+01 -1.162546634674072266e+01 -3.017866015434265137e-01 2.391874790191650391e-03 -8.981841802597045898e-02 -2.958961129188537598e-01
2.599000000000000000e+03 4.461303329467773438e+01 -1.962619018554687500e+01 -2.588023245334625244e-01 4.881770610809326172e+00 1.386890530586242676e+00 -6.913045886904001236e-03
2.600000000000000000e+03 1.631230735778808594e+01 -4.845006465911865234e+00 -2.552149593830108643e-01 -2.522765398025512695e-01 -1.522474437952041626e-01 -2.985719740390777588e-01
2.601000000000000000e+03 2.383386039733886719e+01 -3.617682456970214844e+00 -7.790707349777221680e-01 -6.421248614788055420e-02 -2.529849708080291748e-01 -7.565328478813171387e-01
2.602000000000000000e+03 2.473042297363281250e+01 -4.362315654754638672e+00 -7.210667729377746582e-01 -1.433168053627014160e-01 -2.593150734901428223e-01 -8.905350565910339355e-01
2.603000000000000000e+03 7.348319244384765625e+01 -1.048916912078857422e+01 -3.438446819782257080e-01 -7.179098203778266907e-03 -1.053071320056915283e-01 -4.209073781967163086e-01
2.604000000000000000e+03 3.300690841674804688e+01 -3.062370538711547852e+00 -2.054512262344360352e+00 6.606487184762954712e-02 -5.965341925621032715e-01 -4.454521462321281433e-02
2.605000000000000000e+03 2.292273139953613281e+01 -3.832928657531738281e+00 -6.734145879745483398e-01 -8.029348403215408325e-02 -2.261124253273010254e-01 -7.017241716384887695e-01
2.606000000000000000e+03 4.966322898864746094e+00 -7.423058032989501953e+00 -1.067785099148750305e-01 6.869007833302021027e-03 -2.997285127639770508e-02 2.933613955974578857e-02
2.607000000000000000e+03 4.681791305541992188e+00 -5.908121109008789062e+00 -5.647007375955581665e-02 2.157437615096569061e-02 -1.046870928257703781e-02 7.832490652799606323e-02
2.608000000000000000e+03 4.818630695343017578e+00 6.687734603881835938e+00 1.721753505989909172e-05 -6.968935485929250717e-05 -1.574154521222226322e-05 -1.099581095331814140e-05
2.609000000000000000e+03 7.001782989501953125e+01 -1.208324146270751953e+01 -8.515798449516296387e-01 2.347421348094940186e-01 -1.850513219833374023e-01 -2.460348308086395264e-01
2.610000000000000000e+03 2.723602485656738281e+01 -6.559112548828125000e+00 1.821379363536834717e-02 -1.804006099700927734e-01 -4.865604639053344727e-02 -9.288371205329895020e-01
2.611000000000000000e+03 4.653194808959960938e+01 -8.545734405517578125e+00 -1.391803264617919922e+00 2.559179961681365967e-01 -3.407655656337738037e-01 1.205054879188537598e+00
2.612000000000000000e+03 3.973860549926757812e+01 -2.161791419982910156e+01 4.399006962776184082e-01 2.086859703063964844e+00 7.580280900001525879e-01 1.154916882514953613e+00
2.613000000000000000e+03 3.664189529418945312e+01 -1.219947147369384766e+01 1.290038585662841797e+00 2.196390032768249512e-01 4.529032707214355469e-01 -1.457866430282592773e+00
2.614000000000000000e+03 3.705906295776367188e+01 -1.156955528259277344e+01 1.109817147254943848e+00 3.055114746093750000e-01 4.245985746383666992e-01 -1.436238646507263184e+00
2.615000000000000000e+03 3.801497268676757812e+01 -2.613318681716918945e+00 -2.539098501205444336e+00 6.699523329734802246e-01 -5.607438087463378906e-01 5.714336633682250977e-01
2.616000000000000000e+03 2.050718879699707031e+01 -4.388344287872314453e+00 -4.708638191223144531e-01 -1.660881638526916504e-01 -1.910855919122695923e-01 -5.697926282882690430e-01
2.617000000000000000e+03 1.949896812438964844e+01 -3.697487115859985352e+00 -3.595798313617706299e-01 -1.464141756296157837e-01 -1.517982035875320435e-01 -4.532595574855804443e-01
2.618000000000000000e+03 6.234880065917968750e+01 -8.747910499572753906e+00 -9.939075708389282227e-01 4.749035835266113281e-01 -1.557011902332305908e-01 3.280513286590576172e-01
2.619000000000000000e+03 2.897171401977539062e+01 -2.943221569061279297e+00 -1.780264139175415039e+00 1.546995788812637329e-01 -4.876693785190582275e-01 -6.721076369285583496e-01
2.620000000000000000e+03 3.882548904418945312e+01 1.624584007263183594e+01 -6.575457006692886353e-02 2.424255199730396271e-02 -1.245360542088747025e-02 9.605245664715766907e-03
2.621000000000000000e+03 7.449716186523437500e+01 -2.098785972595214844e+01 -2.675246214494109154e-04 -9.844697342487052083e-05 -1.097914719139225781e-04 7.122247916413471103e-05
2.622000000000000000e+03 3.762297058105468750e+01 -2.016640186309814453e+00 -2.310003519058227539e+00 5.617817044258117676e-01 -5.244665145874023438e-01 6.503996849060058594e-01
2.623000000000000000e+03 3.710316848754882812e+01 -1.943046689033508301e+00 -2.252428054809570312e+00 5.247831344604492188e-01 -5.182934403419494629e-01 5.771446228027343750e-01
2.624000000000000000e+03 4.426960372924804688e+01 -1.949388313293457031e+01 -2.299301028251647949e-01 5.249300479888916016e+00 1.505811214447021484e+00 2.155565768480300903e-01
2.625000000000000000e+03 2.916424179077148438e+01 -6.178556919097900391e+00 -3.032936714589595795e-02 3.592570722103118896e-01 9.867830574512481689e-02 -1.060172677040100098e+00
2.626000000000000000e+03 1.678932380676269531e+01 -9.764681816101074219e+00 -8.488218784332275391e-01 -7.012304663658142090e-01 -4.650157094001770020e-01 -5.058604478836059570e-01
2.627000000000000000e+03 1.437266159057617188e+01 -1.033798027038574219e+01 -8.481129407882690430e-01 -6.050357222557067871e-01 -4.359446167945861816e-01 -3.189746439456939697e-01
2.628000000000000000e+03 2.177113151550292969e+01 -3.041978836059570312e+00 -5.614749193191528320e-01 -3.882113844156265259e-02 -1.800888180732727051e-01 -5.093711614608764648e-01
2.629000000000000000e+03 3.924404907226562500e+01 -1.480183029174804688e+01 1.761035442352294922e+00 8.608958721160888672e-01 7.865794301033020020e-01 -9.629154205322265625e-01
2.630000000000000000e+03 3.929358673095703125e+01 -1.408391189575195312e+01 1.628192424774169922e+00 8.222599029541015625e-01 7.351356744766235352e-01 -1.222505688667297363e+00
2.631000000000000000e+03 4.391759395599365234e+00 3.209469223022460938e+01 -1.395195431541651487e-04 -1.068986486643552780e-02 -3.248815191909670830e-03 7.057202514261007309e-03
2.632000000000000000e+03 4.218197822570800781e+00 3.428326416015625000e+01 4.473130102269351482e-04 -1.343641057610511780e-02 -3.896729089319705963e-03 6.563339382410049438e-03
2.633000000000000000e+03 3.944616794586181641e+00 1.882669448852539062e+01 -8.128468180075287819e-04 -2.884195710066705942e-04 -3.303799021523445845e-04 6.527943241962930188e-06
2.634000000000000000e+03 1.041669559478759766e+01 -2.193077468872070312e+01 3.502794504165649414e-01 -3.663795590400695801e-01 -4.830033518373966217e-03 -6.333583593368530273e-01
2.635000000000000000e+03 7.576827239990234375e+01 -2.164851570129394531e+01 -3.335807705298066139e-04 1.688057236606255174e-04 -4.943251769873313606e-05 -1.601564290467649698e-04
2.636000000000000000e+03 6.584776306152343750e+01 6.255122661590576172e+00 7.373647689819335938e-01 2.919737100601196289e+00 1.097130537033081055e+00 -1.800551638007164001e-02
2.637000000000000000e+03 3.860778427124023438e+01 -1.951588439941406250e+01 5.772681236267089844e-01 1.269678473472595215e+00 5.540840029716491699e-01 9.107771515846252441e-01
2.638000000000000000e+03 4.163675689697265625e+01 -2.156952285766601562e+01 3.044808208942413330e-01 3.154304742813110352e+00 1.037635684013366699e+00 9.442069530487060547e-01
2.639000000000000000e+03 4.247021102905273438e+01 -2.133681297302246094e+01 1.956556290388107300e-01 3.622537136077880859e+00 1.145457863807678223e+00 7.387409210205078125e-01
2.640000000000000000e+03 3.710468673706054688e+01 1.177254676818847656e+01 -1.834093034267425537e-02 1.319841830991208553e-03 -5.106326658278703690e-03 1.722724526189267635e-03
2.641000000000000000e+03 4.188243484497070312e+01 -6.887840270996093750e+00 -2.126587390899658203e+00 2.120112627744674683e-01 -5.743728280067443848e-01 -1.761454939842224121e-01
2.642000000000000000e+03 2.234242248535156250e+01 -4.321186542510986328e+00 -5.981915593147277832e-01 -1.225712448358535767e-01 -2.162288427352905273e-01 -6.910805106163024902e-01
2.643000000000000000e+03 4.111213684082031250e+00 1.507954978942871094e+01 3.381913702469319105e-04 -1.186771842185407877e-04 6.585425580851733685e-05 -4.452541470527648926e-04
2.644000000000000000e+03 6.661437988281250000e+01 7.583200931549072266e+00 7.413836121559143066e-01 2.800023794174194336e+00 1.062422156333923340e+00 -1.061554253101348877e-01
2.645000000000000000e+03 2.521694374084472656e+01 -4.735977649688720703e+00 -6.761246323585510254e-01 -1.835242211818695068e-01 -2.578946650028228760e-01 -9.223223328590393066e-01
2.646000000000000000e+03 3.924748992919921875e+01 -4.200532436370849609e+00 -2.734993457794189453e+00 4.919579029083251953e-01 -6.729106307029724121e-01 4.093040525913238525e-01
2.647000000000000000e+03 3.834685897827148438e+01 -3.615185260772705078e+00 -2.587989330291748047e+00 6.615439057350158691e-01 -5.779336094856262207e-01 5.030416846275329590e-01
2.648000000000000000e+03 3.392963409423828125e+01 -6.204047203063964844e+00 -5.947777628898620605e-01 8.088940978050231934e-01 6.423489749431610107e-02 -1.803362667560577393e-01
2.649000000000000000e+03 2.450197601318359375e+01 -6.187917709350585938e+00 -4.573839306831359863e-01 -2.598490715026855469e-01 -2.151698917150497437e-01 -8.167129755020141602e-01
2.650000000000000000e+03 2.547509384155273438e+01 -7.103457927703857422e+00 -2.936098873615264893e-01 -2.955403327941894531e-01 -1.767450720071792603e-01 -7.318365573883056641e-01
2.651000000000000000e+03 1.323227405548095703e+01 -1.195944309234619141e+01 -9.067171812057495117e-01 -5.330212116241455078e-01 -4.319215118885040283e-01 -3.999799191951751709e-01
2.652000000000000000e+03 1.409251785278320312e+01 -9.537434577941894531e+00 -7.024374008178710938e-01 -5.224919915199279785e-01 -3.674788177013397217e-01 -2.591068148612976074e-01
2.653000000000000000e+03 7.063114929199218750e+01 -2.299388504028320312e+01 -3.005397971719503403e-03 -7.463844376616179943e-04 -1.125534647144377232e-03 -5.947324098087847233e-04
2.654000000000000000e+03 5.243195724487304688e+01 -8.236588478088378906e+00 -1.311448931694030762e+00 1.105621337890625000e+00 -6.174830719828605652e-02 2.360222101211547852e+00
2.655000000000000000e+03 5.526673507690429688e+01 -7.902980804443359375e+00 -1.032082557678222656e+00 1.694455385208129883e+00 1.987118124961853027e-01 1.690994381904602051e+00
2.656000000000000000e+03 6.001759052276611328e+00 1.194841384887695312e+01 2.566287002991884947e-04 -3.238636418245732784e-04 -2.017048245761543512e-05 -2.858870138879865408e-04
2.657000000000000000e+03 4.427074909210205078e+00 1.155629539489746094e+01 2.267099334858357906e-04 -3.417425978113897145e-05 5.776070247520692647e-05 -3.608846163842827082e-04
2.658000000000000000e+03 4.040362167358398438e+01 1.896540832519531250e+01 -8.680042624473571777e-02 4.350439086556434631e-02 -1.298881042748689651e-02 1.407002657651901245e-02
2.659000000000000000e+03 4.111634445190429688e+01 1.650514984130859375e+01 -7.787682116031646729e-02 2.014572173357009888e-02 -1.731932908296585083e-02 -5.299411248415708542e-03
2.660000000000000000e+03 7.439749145507812500e+01 -8.202099800109863281e+00 -2.649518251419067383e-01 -1.685793250799179077e-01 -1.300593465566635132e-01 -5.787703394889831543e-01
2.661000000000000000e+03 7.564060211181640625e+01 -7.076765537261962891e+00 -1.449976563453674316e-01 -3.929549455642700195e-01 -1.613857746124267578e-01 -5.656313300132751465e-01
2.662000000000000000e+03 7.554758453369140625e+01 6.536496162414550781e+00 1.349121481180191040e-01 -1.552875041961669922e+00 -4.253888428211212158e-01 -5.007610917091369629e-01
2.663000000000000000e+03 7.403723144531250000e+01 3.581250667572021484e+00 1.619757115840911865e-01 -7.492773532867431641e-01 -1.761904954910278320e-01 -7.304008603096008301e-01
2.664000000000000000e+03 7.695340728759765625e+01 -1.105173110961914062e+01 -1.096503064036369324e-01 -1.658573001623153687e-01 -8.265227824449539185e-02 -2.297884225845336914e-01
2.665000000000000000e+03 5.630123138427734375e+01 -1.088480472564697266e+01 -5.156480669975280762e-01 9.432745575904846191e-01 1.282879412174224854e-01 1.349392294883728027e+00
2.666000000000000000e+03 3.938763618469238281e+00 8.989033699035644531e+00 2.116113464580848813e-04 3.951035250793211162e-05 7.533650932600721717e-05 -2.334183664061129093e-04
2.667000000000000000e+03 4.446985244750976562e+00 -1.288372325897216797e+01 -1.586752384901046753e-01 -1.006105467677116394e-01 -7.778573781251907349e-02 -2.556436657905578613e-01
2.668000000000000000e+03 7.067488670349121094e+00 -1.254526996612548828e+01 -3.425399363040924072e-01 -1.223113834857940674e-01 -1.394553929567337036e-01 -3.182665407657623291e-01
2.669000000000000000e+03 3.961827087402343750e+01 -2.061313247680664062e+01 5.258526802062988281e-01 2.020999431610107422e+00 7.640556097030639648e-01 1.141911506652832031e+00
2.670000000000000000e+03 3.953482437133789062e+01 -1.964664649963378906e+01 7.459421753883361816e-01 1.883640646934509277e+00 7.888748049736022949e-01 1.052971005439758301e+00
2.671000000000000000e+03 3.774963378906250000e+01 6.432224750518798828e+00 -2.033757278695702553e-03 -1.024846569634974003e-03 -9.175811428576707840e-04 8.133236551657319069e-04
2.672000000000000000e+03 1.153648471832275391e+01 -1.265926551818847656e+01 -7.478344440460205078e-01 -3.253850936889648438e-01 -3.219658732414245605e-01 -4.305685162544250488e-01
2.673000000000000000e+03 6.179041385650634766e+00 2.890080833435058594e+01 -2.327416557818651199e-03 -7.146234158426523209e-03 -2.842095214873552322e-03 8.569424040615558624e-03
2.674000000000000000e+03 4.116982936859130859e+00 2.897199821472167969e+01 -7.189310854300856590e-04 -6.656542886048555374e-03 -2.212642226368188858e-03 5.637390073388814926e-03
2.675000000000000000e+03 4.283327579498291016e+00 2.124123001098632812e+01 -1.517004915513098240e-03 -9.047763887792825699e-04 -7.265344029292464256e-04 9.895457187667489052e-04
2.676000000000000000e+03 5.128416061401367188e+00 2.345639991760253906e+01 -2.677836455404758453e-03 -1.838523196056485176e-03 -1.354907988570630550e-03 2.866211812943220139e-03
2.677000000000000000e+03 2.008410263061523438e+01 -5.714999675750732422e+00 -5.037513375282287598e-01 -2.685751020908355713e-01 -2.316979318857192993e-01 -6.213336586952209473e-01
2.678000000000000000e+03 2.146317672729492188e+01 -7.411700725555419922e+00 -6.168819069862365723e-01 -2.915296554565429688e-01 -2.725234627723693848e-01 -6.954417824745178223e-01
2.679000000000000000e+03 3.734807205200195312e+01 1.245473289489746094e+01 -2.108100615441799164e-02 4.957940895110368729e-03 -4.836919251829385757e-03 3.338066628202795982e-03
2.680000000000000000e+03 6.080243682861328125e+01 1.002745747566223145e+00 7.139744162559509277e-01 3.026335239410400391e+00 1.122092843055725098e+00 1.178747892379760742e+00
2.681000000000000000e+03 3.887545394897460938e+01 1.369515705108642578e+01 -4.125847294926643372e-02 9.425699710845947266e-03 -9.549831971526145935e-03 -3.926754288841038942e-04
2.682000000000000000e+03 3.838375473022460938e+01 1.482904529571533203e+01 -5.207686498761177063e-02 1.464707590639591217e-02 -1.122893672436475754e-02 8.727506734430789948e-03
2.683000000000000000e+03 4.062004566192626953e+00 2.588849258422851562e+01 -1.543968683108687401e-03 -3.380319802090525627e-03 -1.477286568842828274e-03 3.946301992982625961e-03
2.684000000000000000e+03 3.894197463989257812e+01 -2.266161727905273438e+01 4.496662318706512451e-01 1.595570802688598633e+00 6.135711073875427246e-01 1.180676341056823730e+00
2.685000000000000000e+03 3.979996490478515625e+01 -2.261556625366210938e+01 4.220215380191802979e-01 2.042565822601318359e+00 7.393761873245239258e-01 1.104944229125976562e+00
2.686000000000000000e+03 7.599958038330078125e+01 -2.486446189880371094e+01 -1.359481248073279858e-03 -6.720741512253880501e-04 -6.094666314311325550e-04 1.254154718481004238e-03
2.687000000000000000e+03 7.445832061767578125e+01 -2.701579284667968750e+01 -4.337120335549116135e-03 -1.385393203236162663e-03 -1.716754049994051456e-03 4.036374855786561966e-03
2.688000000000000000e+03 6.930737304687500000e+01 -1.068622589111328125e+01 -9.402284026145935059e-01 2.414575368165969849e-01 -2.096312642097473145e-01 -4.086278378963470459e-01
2.689000000000000000e+03 4.827196884155273438e+01 -1.060805225372314453e+01 2.837695777416229248e-01 6.602526903152465820e-01 2.832066714763641357e-01 1.966926217079162598e+00
2.690000000000000000e+03 3.753804397583007812e+01 -6.195939540863037109e+00 -1.427899241447448730e+00 6.735150814056396484e-01 -2.263152450323104858e-01 -2.068609744310379028e-01
2.691000000000000000e+03 4.153492736816406250e+01 -2.457821273803710938e+01 3.566182553768157959e-01 2.440507173538208008e+00 8.391376733779907227e-01 7.795171141624450684e-01
2.692000000000000000e+03 7.360684204101562500e+01 -2.489523315429687500e+01 -3.523523453623056412e-03 -9.588361717760562897e-04 -1.344707910902798176e-03 1.781860948540270329e-03
2.693000000000000000e+03 7.568989562988281250e+01 -5.832038521766662598e-01 2.071094885468482971e-02 -1.004524588584899902e+00 -2.951440811157226562e-01 -7.244392037391662598e-01
2.694000000000000000e+03 7.333327484130859375e+01 -2.382326841354370117e+00 -4.911770299077033997e-02 -3.160690069198608398e-01 -1.095560118556022644e-01 -8.782742023468017578e-01
2.695000000000000000e+03 7.628244018554687500e+01 -2.385936927795410156e+01 -1.026782323606312275e-03 -2.882321714423596859e-04 -3.945043717976659536e-04 6.670551956631243229e-04
2.696000000000000000e+03 7.459745025634765625e+01 -2.448353004455566406e+01 -2.133548492565751076e-03 -2.526719526940723881e-07 -6.401403807103633881e-04 1.124479691497981548e-03
2.697000000000000000e+03 5.020077228546142578e+00 8.795829772949218750e+00 7.408414239762350917e-05 -1.328305952483788133e-04 -1.762393549142871052e-05 -6.048637806088663638e-05
2.698000000000000000e+03 3.651335144042968750e+01 5.636701583862304688e+00 2.172056818380951881e-03 -1.018660608679056168e-03 3.460188454482704401e-04 3.391265927348285913e-04
2.699000000000000000e+03 6.025392532348632812e+01 -8.845037460327148438e+00 -9.616101384162902832e-01 9.349427223205566406e-01 -8.000222034752368927e-03 7.508194446563720703e-01
2.700000000000000000e+03 6.536701202392578125e+01 8.447142601013183594e+00 7.264292836189270020e-01 3.823574304580688477e+00 1.365001082420349121e+00 1.715279221534729004e-01
2.701000000000000000e+03 7.321763610839843750e+01 -2.381966400146484375e+01 -2.684344537556171417e-03 5.615967093035578728e-04 -6.368242902681231499e-04 6.910995580255985260e-04
2.702000000000000000e+03 7.597784423828125000e+01 -3.237160873413085938e+01 -1.692096586339175701e-03 -7.929543964564800262e-03 -2.886492293328046799e-03 9.045739658176898956e-03
2.703000000000000000e+03 4.175984191894531250e+01 -2.764597129821777344e+01 1.820814460515975952e-01 2.048723936080932617e+00 6.692416667938232422e-01 6.383953690528869629e-01
2.704000000000000000e+03 5.368160724639892578e+00 2.087609100341796875e+01 -1.341689145192503929e-03 -1.023784163407981396e-03 -7.096419576555490494e-04 8.215475245378911495e-04
2.705000000000000000e+03 4.891042327880859375e+01 -1.025672626495361328e+01 2.450560964643955231e-02 5.434899330139160156e-01 1.703986525535583496e-01 2.114677906036376953e+00
2.706000000000000000e+03 6.411968231201171875e+01 1.045012569427490234e+01 6.324239373207092285e-01 5.233515262603759766e+00 1.759781718254089355e+00 4.327453374862670898e-01
2.707000000000000000e+03 3.982109832763671875e+01 1.340451049804687500e+01 -3.753422200679779053e-02 1.184225641191005707e-02 -7.707590237259864807e-03 -6.987840402871370316e-03
2.708000000000000000e+03 5.730456924438476562e+01 -6.386020660400390625e+00 -5.995433330535888672e-01 1.873848319053649902e+00 3.822914958000183105e-01 1.149750351905822754e+00
2.709000000000000000e+03 5.567604064941406250e+01 -6.771814346313476562e+00 -8.143062591552734375e-01 1.915093898773193359e+00 3.302363157272338867e-01 1.456298232078552246e+00
2.710000000000000000e+03 5.396555328369140625e+01 -7.374512672424316406e+00 -1.211230039596557617e+00 1.723090529441833496e+00 1.535581499338150024e-01 1.872756481170654297e+00
2.711000000000000000e+03 2.276848602294921875e+01 -5.874600887298583984e+00 -5.676032304763793945e-01 -2.272765040397644043e-01 -2.384639233350753784e-01 -7.734013795852661133e-01
2.712000000000000000e+03 7.414604949951171875e+01 -9.858934402465820312e+00 -3.364133238792419434e-01 -7.050850987434387207e-02 -1.220765486359596252e-01 -4.619616270065307617e-01
2.713000000000000000e+03 7.374729919433593750e+01 2.138540840148925781e+01 1.911326497793197632e-01 -6.556134223937988281e-01 -1.393442302942276001e-01 6.416326165199279785e-01
2.714000000000000000e+03 7.516604614257812500e+01 2.321672439575195312e+01 4.596943035721778870e-02 -1.184370040893554688e+00 -3.415201902389526367e-01 6.389475464820861816e-01
2.715000000000000000e+03 7.085944652557373047e+00 -2.088659286499023438e+01 1.158781945705413818e-01 -5.239254236221313477e-01 -1.224141791462898254e-01 -6.167370080947875977e-01
2.716000000000000000e+03 5.796884059906005859e+00 2.993030357360839844e+01 -1.487529370933771133e-03 -8.027345873415470123e-03 -2.854462713003158569e-03 8.550486527383327484e-03
2.717000000000000000e+03 5.792466640472412109e+00 -1.442083740234375000e+01 -2.112570703029632568e-01 -1.864408850669860840e-01 -1.193093881011009216e-01 -4.131620526313781738e-01
2.718000000000000000e+03 6.287518501281738281e+00 -1.337874221801757812e+01 -2.792170345783233643e-01 -1.458710134029388428e-01 -1.275264173746109009e-01 -3.570729196071624756e-01
2.719000000000000000e+03 3.945879745483398438e+01 -2.353434753417968750e+01 4.517486691474914551e-01 1.793824434280395508e+00 6.736719608306884766e-01 1.114227175712585449e+00
2.720000000000000000e+03 4.382279205322265625e+01 2.087739181518554688e+01 -8.129446208477020264e-02 4.546579718589782715e-02 -1.074860058724880219e-02 4.724404308944940567e-03
2.721000000000000000e+03 7.429253387451171875e+01 8.905403137207031250e+00 2.620141208171844482e-01 -1.036473035812377930e+00 -2.323376834392547607e-01 -3.835225701332092285e-01
2.722000000000000000e+03 7.413315582275390625e+01 5.136529445648193359e+00 1.922230571508407593e-01 -8.482321500778198242e-01 -1.968027204275131226e-01 -6.630352139472961426e-01
2.723000000000000000e+03 4.959858894348144531e+00 -2.863401222229003906e+01 9.423918277025222778e-02 -9.552838802337646484e-01 -2.583134174346923828e-01 -2.106919437646865845e-01
2.724000000000000000e+03 6.131057357788085938e+01 -3.753886938095092773e+00 -6.912109674885869026e-04 1.669687747955322266e+00 5.006989836692810059e-01 4.924826025962829590e-01
2.725000000000000000e+03 5.889247512817382812e+01 -1.054430294036865234e+01 -9.476666450500488281e-01 8.327419161796569824e-01 -3.447741642594337463e-02 8.528675436973571777e-01
2.726000000000000000e+03 5.823711776733398438e+01 -8.962591171264648438e+00 -8.965526819229125977e-01 1.250049710273742676e+00 1.060490980744361877e-01 1.097773790359497070e+00
2.727000000000000000e+03 3.899776077270507812e+01 -1.652988243103027344e+01 1.496023774147033691e+00 9.393634796142578125e-01 7.306162118911743164e-01 -2.157255560159683228e-01
2.728000000000000000e+03 3.905001831054687500e+01 -1.770707702636718750e+01 1.151732921600341797e+00 1.212954521179199219e+00 7.094062566757202148e-01 4.478249847888946533e-01
2.729000000000000000e+03 1.846885299682617188e+01 -8.552177429199218750e+00 -7.415345311164855957e-01 -5.141187310218811035e-01 -3.766959905624389648e-01 -6.272261142730712891e-01
2.730000000000000000e+03 5.080764007568359375e+01 -1.056466388702392578e+01 1.356030106544494629e-01 6.087738871574401855e-01 2.233130782842636108e-01 2.318244457244873047e+00
2.731000000000000000e+03 5.133659362792968750e+01 -7.949359416961669922e+00 -1.464224815368652344e+00 7.069711089134216309e-01 -2.271761000156402588e-01 2.359221696853637695e+00
2.732000000000000000e+03 7.479756927490234375e+01 2.697196578979492188e+01 -6.481829285621643066e-02 -8.224147558212280273e-01 -2.661699056625366211e-01 6.591326594352722168e-01
2.733000000000000000e+03 7.521678924560546875e+01 2.938178062438964844e+01 -8.984510600566864014e-02 -7.460744976997375488e-01 -2.507758736610412598e-01 5.874504446983337402e-01
2.734000000000000000e+03 6.805979156494140625e+01 1.804621505737304688e+01 9.392972588539123535e-01 2.068357944488525391e+00 9.022965431213378906e-01 2.889642715454101562e-01
2.735000000000000000e+03 1.527190780639648438e+01 -3.081067657470703125e+01 4.164915382862091064e-01 1.995407938957214355e-01 1.848096996545791626e-01 -2.476505339145660400e-01
2.736000000000000000e+03 6.748090362548828125e+01 1.493977928161621094e+01 9.252670407295227051e-01 2.793093442916870117e+00 1.115508079528808594e+00 -7.960078120231628418e-02
2.737000000000000000e+03 6.886660766601562500e+01 1.518107318878173828e+01 8.397217392921447754e-01 1.855252742767333984e+00 8.084923624992370605e-01 5.352133512496948242e-02
2.738000000000000000e+03 1.722548484802246094e+01 -9.088039398193359375e+00 -7.547065019607543945e-01 -6.769409179687500000e-01 -4.294942319393157959e-01 -5.146653652191162109e-01
2.739000000000000000e+03 1.643170928955078125e+01 -8.993336677551269531e+00 -7.148815393447875977e-01 -6.199318170547485352e-01 -4.004440009593963623e-01 -4.607858359813690186e-01
2.740000000000000000e+03 1.134215259552001953e+01 -1.685007095336914062e+01 -3.492286205291748047e-01 -3.495219051837921143e-01 -2.096251547336578369e-01 -7.574260234832763672e-01
2.741000000000000000e+03 4.125689315795898438e+01 2.030070495605468750e+01 -7.960900664329528809e-02 5.120765417814254761e-02 -8.520405739545822144e-03 1.629978790879249573e-02
2.742000000000000000e+03 7.275968170166015625e+01 8.650918960571289062e+00 3.764318227767944336e-01 -2.648672163486480713e-01 3.346937894821166992e-02 -4.329112470149993896e-01
2.743000000000000000e+03 6.963297367095947266e+00 -1.586089229583740234e+01 -2.174708694219589233e-01 -2.611196637153625488e-01 -1.435771584510803223e-01 -5.596521496772766113e-01
2.744000000000000000e+03 7.450168609619140625e+01 7.823615550994873047e+00 2.163020521402359009e-01 -1.135456800460815430e+00 -2.757464349269866943e-01 -4.760300219058990479e-01
2.745000000000000000e+03 6.915935516357421875e+00 -1.478285121917724609e+01 -2.826768457889556885e-01 -2.080460041761398315e-01 -1.472168564796447754e-01 -4.854180216789245605e-01
2.746000000000000000e+03 4.391849040985107422e+00 -1.540424728393554688e+01 -1.105201393365859985e-01 -2.380250543355941772e-01 -1.045635566115379333e-01 -3.867152035236358643e-01
2.747000000000000000e+03 7.544305419921875000e+01 3.668294429779052734e+00 1.018281877040863037e-01 -1.304489850997924805e+00 -3.607984781265258789e-01 -6.516426801681518555e-01
2.748000000000000000e+03 6.537198638916015625e+01 -3.260331344604492188e+01 -2.715134806931018829e-02 7.665698882192373276e-03 -5.845694802701473236e-03 3.198784217238426208e-02
2.749000000000000000e+03 5.804592895507812500e+01 -5.632423400878906250e+00 -4.355710446834564209e-01 1.921033501625061035e+00 4.456387162208557129e-01 1.066260099411010742e+00
2.750000000000000000e+03 5.704279327392578125e+01 2.784909629821777344e+01 6.236760690808296204e-02 1.232876062393188477e+00 3.885730803012847900e-01 -8.031791448593139648e-01
2.751000000000000000e+03 7.398000335693359375e+01 1.226203060150146484e+01 3.525984883308410645e-01 -9.224709868431091309e-01 -1.709617376327514648e-01 -1.233984753489494324e-01
2.752000000000000000e+03 6.784947967529296875e+01 -3.209619522094726562e+01 -1.801472529768943787e-02 7.227583322674036026e-03 -3.236142685636878014e-03 2.440501935780048370e-02
2.753000000000000000e+03 6.950901794433593750e+01 -3.203643417358398438e+01 -1.259814016520977020e-02 1.239106408320367336e-03 -3.407710231840610504e-03 2.000554092228412628e-02
2.754000000000000000e+03 4.366322708129882812e+01 -2.804065895080566406e+01 4.778084531426429749e-02 2.127657651901245117e+00 6.526315808296203613e-01 2.583184838294982910e-01
2.755000000000000000e+03 6.695599365234375000e+01 1.993562316894531250e+01 8.563843965530395508e-01 2.564509153366088867e+00 1.026268124580383301e+00 3.977797031402587891e-01
2.756000000000000000e+03 6.082748031616210938e+01 -4.938289642333984375e+00 -2.609375417232513428e-01 1.520417451858520508e+00 3.778439760208129883e-01 5.671534538269042969e-01
2.757000000000000000e+03 7.547148132324218750e+01 -2.832945823669433594e+01 -3.488103626295924187e-03 -2.485062694177031517e-03 -1.791949849575757980e-03 5.042850505560636520e-03
2.758000000000000000e+03 4.138032531738281250e+01 1.918209075927734375e+01 -8.817503601312637329e-02 4.942505434155464172e-02 -1.162499561905860901e-02 1.230602734722197056e-03
2.759000000000000000e+03 7.313255310058593750e+01 -1.155053734779357910e+00 2.074701152741909027e-02 -2.965038120746612549e-01 -8.272703737020492554e-02 -8.908635377883911133e-01
2.760000000000000000e+03 1.169004917144775391e+01 -2.596579933166503906e+01 4.598732590675354004e-01 -1.527559906244277954e-01 9.213518351316452026e-02 -3.693356215953826904e-01
2.761000000000000000e+03 1.269517326354980469e+01 -2.486028480529785156e+01 5.238538980484008789e-01 -1.970215328037738800e-02 1.512455344200134277e-01 -4.346935153007507324e-01
2.762000000000000000e+03 2.824283027648925781e+01 -2.311169147491455078e+00 -1.934612274169921875e+00 -1.110490690916776657e-02 -5.837151408195495605e-01 -5.791624188423156738e-01
2.763000000000000000e+03 2.805024909973144531e+01 -2.299466848373413086e+00 -1.906847834587097168e+00 -5.899528041481971741e-02 -5.897529125213623047e-01 -5.769964456558227539e-01
2.764000000000000000e+03 3.012314414978027344e+01 -2.423838615417480469e+00 -2.250200033187866211e+00 2.574755549430847168e-01 -5.978173613548278809e-01 -4.788271188735961914e-01
2.765000000000000000e+03 4.355068588256835938e+01 -1.887257385253906250e+01 3.587684035301208496e-01 5.476094245910644531e+00 1.750458836555480957e+00 1.163162946701049805e+00
2.766000000000000000e+03 4.272634887695312500e+01 -1.560603427886962891e+01 4.134967803955078125e+00 3.272982835769653320e+00 2.222385168075561523e+00 -2.185234725475311279e-01
2.767000000000000000e+03 4.177945327758789062e+01 -1.663439369201660156e+01 3.299885749816894531e+00 2.582402229309082031e+00 1.764686465263366699e+00 6.638422608375549316e-01
2.768000000000000000e+03 4.222185134887695312e+01 -1.615308570861816406e+01 3.878506422042846680e+00 2.805022716522216797e+00 2.005058765411376953e+00 3.073021769523620605e-01
2.769000000000000000e+03 4.427096557617187500e+01 -1.387678050994873047e+01 2.122853517532348633e+00 4.144943237304687500e+00 1.880339026451110840e+00 4.245533049106597900e-01
2.770000000000000000e+03 4.286164855957031250e+01 -1.839738655090332031e+01 1.339667916297912598e+00 4.770243167877197266e+00 1.832973241806030273e+00 1.734820008277893066e+00
2.771000000000000000e+03 4.229926681518554688e+01 -1.585348892211914062e+01 3.896709442138671875e+00 2.801477193832397461e+00 2.009455919265747070e+00 1.410656422376632690e-02
2.772000000000000000e+03 4.233098983764648438e+01 -1.727764129638671875e+01 3.083939313888549805e+00 3.480167865753173828e+00 1.969232082366943359e+00 1.483778715133666992e+00
2.773000000000000000e+03 4.234544372558593750e+01 -1.661508941650390625e+01 3.831510543823242188e+00 3.093967676162719727e+00 2.077643394470214844e+00 8.720092773437500000e-01
2.774000000000000000e+03 4.203351593017578125e+01 -1.722848320007324219e+01 2.866879224777221680e+00 3.118683576583862305e+00 1.795668840408325195e+00 1.215013027191162109e+00
2.775000000000000000e+03 4.310659790039062500e+01 -1.520419406890869141e+01 3.938143730163574219e+00 3.800795316696166992e+00 2.321681737899780273e+00 -5.295664668083190918e-01
2.776000000000000000e+03 4.646810531616210938e+01 -1.461504268646240234e+01 4.251502037048339844e+00 1.781680107116699219e+00 1.809954643249511719e+00 2.600158691406250000e+00
2.777000000000000000e+03 4.634628677368164062e+01 -1.396887493133544922e+01 3.375995397567749023e+00 2.140416383743286133e+00 1.654923558235168457e+00 2.310446500778198242e+00
2.778000000000000000e+03 4.573651885986328125e+01 -1.351712512969970703e+01 2.386310338973999023e+00 2.837996959686279297e+00 1.567292213439941406e+00 1.864599943161010742e+00
2.779000000000000000e+03 4.861042785644531250e+01 -1.553893756866455078e+01 5.141105651855468750e+00 9.276083111763000488e-01 1.820614218711853027e+00 1.623249650001525879e+00
2.780000000000000000e+03 4.396820831298828125e+01 -1.930290222167968750e+01 -1.089276969432830811e-01 5.297680377960205078e+00 1.556625723838806152e+00 4.992021918296813965e-01
2.781000000000000000e+03 2.715094184875488281e+01 -3.512236356735229492e+00 -1.179954051971435547e+00 -8.382157981395721436e-02 -3.791326880455017090e-01 -8.668069839477539062e-01
2.782000000000000000e+03 1.495034885406494141e+01 1.009833431243896484e+01 -1.103674221667461097e-04 1.462357322452589869e-04 1.076049193216022104e-05 2.249515819130465388e-05
2.783000000000000000e+03 1.329101085662841797e+01 1.958912658691406250e+01 -3.492017276585102081e-03 6.685393746010959148e-04 -8.470433531329035759e-04 -9.519782615825533867e-04
2.784000000000000000e+03 1.709864425659179688e+01 6.199699878692626953e+00 -2.997502087964676321e-05 -3.467202259344048798e-05 -1.939411231433041394e-05 -9.807205969991628081e-06
2.785000000000000000e+03 1.760217666625976562e+01 6.935407161712646484e+00 -2.914742799475789070e-05 -3.525494321365840733e-05 -1.932071245391853154e-05 -1.704075657471548766e-05
2.786000000000000000e+03 1.556731891632080078e+01 8.650229454040527344e+00 6.565275543835014105e-05 7.314221147680655122e-05 4.163849007454700768e-05 1.592099579283967614e-05
2.787000000000000000e+03 1.922423362731933594e+01 2.397675704956054688e+01 -5.172975733876228333e-02 -4.068231675773859024e-03 -1.673939637839794159e-02 1.950439251959323883e-02
2.788000000000000000e+03 1.764979553222656250e+01 6.350183963775634766e+00 -2.150961881852708757e-05 -3.137266321573406458e-05 -1.586468351888470352e-05 -1.140043423220049590e-05
2.789000000000000000e+03 1.312068939208984375e+01 1.654351997375488281e+01 2.605947374831885099e-04 7.361188763752579689e-04 2.990140928886830807e-04 6.327277515083551407e-04
2.790000000000000000e+03 1.261202526092529297e+01 1.681633949279785156e+01 -1.170162940979935229e-04 -1.540849007142242044e-05 -3.972743434133008122e-05 6.758520030416548252e-04
2.791000000000000000e+03 1.204328060150146484e+01 1.709770965576171875e+01 -1.005797003017505631e-05 -2.553464146330952644e-04 -7.962132076499983668e-05 2.514463849365711212e-04
2.792000000000000000e+03 1.299198436737060547e+01 1.727060890197753906e+01 9.057352872332558036e-05 4.877282481174916029e-04 1.734905235935002565e-04 4.699307319242507219e-04
2.793000000000000000e+03 2.797069549560546875e+01 -3.232265949249267578e+00 -1.422944545745849609e+00 -7.589662913233041763e-03 -4.291602671146392822e-01 -7.902336120605468750e-01
2.794000000000000000e+03 1.846802902221679688e+01 5.359876632690429688e+00 4.482870281208306551e-06 -7.629192259628325701e-05 -2.154271533072460443e-05 -7.718409506196621805e-06
2.795000000000000000e+03 1.828483009338378906e+01 5.963654041290283203e+00 -1.486111386839183979e-06 -3.337953239679336548e-05 -1.045969293045345694e-05 2.436383692838717252e-05
2.796000000000000000e+03 3.310412216186523438e+01 1.586836338043212891e+01 -3.068506903946399689e-02 -1.491132564842700958e-02 -1.367891859263181686e-02 3.232999145984649658e-02
2.797000000000000000e+03 3.479382324218750000e+01 1.233778095245361328e+01 -1.326047349721193314e-02 -2.787478733807802200e-03 -4.814385902136564255e-03 7.572903297841548920e-03
2.798000000000000000e+03 3.365490722656250000e+01 1.183805370330810547e+01 -4.918938502669334412e-03 -2.129073720425367355e-03 -2.114403760060667992e-03 3.990018740296363831e-03
2.799000000000000000e+03 1.499503326416015625e+01 9.044082641601562500e+00 -1.062383889802731574e-04 7.045106758596375585e-05 -1.073619841918116435e-05 4.135871495236642659e-05
2.800000000000000000e+03 4.687378311157226562e+01 -1.549425888061523438e+01 5.226841926574707031e+00 2.523308992385864258e-01 1.643751859664916992e+00 2.037769556045532227e+00
2.801000000000000000e+03 1.521024990081787109e+01 8.760063171386718750e+00 3.190484858350828290e-05 1.508072018623352051e-04 5.481361586134880781e-05 4.521462687989696860e-05
2.802000000000000000e+03 3.471824645996093750e+01 1.066762638092041016e+01 -4.750208929181098938e-03 -2.543515292927622795e-03 -2.188117243349552155e-03 2.580201020464301109e-03
2.803000000000000000e+03 3.332427978515625000e+01 1.339986419677734375e+01 -1.109616737812757492e-02 -6.631494499742984772e-03 -5.318298470228910446e-03 1.140403561294078827e-02
2.804000000000000000e+03 1.318987274169921875e+01 1.395358467102050781e+01 -5.465745562105439603e-05 5.132840597070753574e-04 1.375879801344126463e-04 5.338354967534542084e-04
2.805000000000000000e+03 3.421772766113281250e+01 1.031405448913574219e+01 -9.571462869644165039e-04 2.130925422534346581e-04 -2.232161205029115081e-04 -3.451814700383692980e-04
2.806000000000000000e+03 3.448245239257812500e+01 9.377474784851074219e+00 -1.652919920161366463e-03 -1.030881903716363013e-04 -5.268024397082626820e-04 -3.207842237316071987e-04
2.807000000000000000e+03 1.334439086914062500e+01 1.301367187500000000e+01 4.281264773453585804e-05 5.034681526012718678e-04 1.638842368265613914e-04 4.329905787017196417e-04
2.808000000000000000e+03 3.512276458740234375e+01 1.033983898162841797e+01 -2.028111368417739868e-03 -5.760206258855760098e-04 -7.812395924702286720e-04 3.121808113064616919e-04
2.809000000000000000e+03 3.438006973266601562e+01 1.100348186492919922e+01 -2.202577888965606689e-03 -9.306585998274385929e-04 -9.399709524586796761e-04 1.971513265743851662e-03
2.810000000000000000e+03 1.306860160827636719e+01 1.531712150573730469e+01 -3.226042053938726895e-06 5.149572389200329781e-04 1.535193732706829906e-04 6.538851885125041008e-04
2.811000000000000000e+03 3.347632217407226562e+01 1.651572227478027344e+01 -4.309355840086936951e-02 -9.673985652625560760e-03 -1.583026349544525146e-02 3.836571052670478821e-02
2.812000000000000000e+03 3.345084381103515625e+01 1.295519638061523438e+01 -7.286202628165483475e-03 -3.957871813327074051e-03 -3.373222425580024719e-03 9.394870139658451080e-03
2.813000000000000000e+03 3.347156524658203125e+01 1.414062690734863281e+01 -1.650520227849483490e-02 -9.401820600032806396e-03 -7.772107142955064774e-03 1.734763570129871368e-02
2.814000000000000000e+03 3.589506912231445312e+01 6.616576194763183594e+00 2.867612289264798164e-03 -7.418883615173399448e-04 6.377171375788748264e-04 -1.540001976536586881e-04
2.815000000000000000e+03 2.088077926635742188e+01 2.408214759826660156e+01 -6.364104896783828735e-02 -1.223071012645959854e-02 -2.276152744889259338e-02 2.645846642553806305e-02
2.816000000000000000e+03 1.887623596191406250e+01 4.422048568725585938e+00 2.339811180718243122e-05 1.656361382629256696e-05 1.198851805384038016e-05 -1.125235212384723127e-05
2.817000000000000000e+03 2.316801071166992188e+01 2.394804573059082031e+01 -8.313772827386856079e-02 -2.159303613007068634e-02 -3.141922876238822937e-02 3.517117351293563843e-02
2.818000000000000000e+03 1.813780784606933594e+01 5.623105525970458984e+00 -7.679610689592664130e-07 7.515122706536203623e-05 2.231498001492582262e-05 -4.072101091878721491e-07
2.819000000000000000e+03 2.677104187011718750e+01 2.345474243164062500e+01 -9.451557695865631104e-02 -4.196143895387649536e-02 -4.094310477375984192e-02 5.182787403464317322e-02
2.820000000000000000e+03 1.337311077117919922e+01 1.358200740814208984e+01 1.910711871460080147e-04 6.723185069859027863e-04 2.590169024188071489e-04 4.162972618360072374e-04
2.821000000000000000e+03 3.319505310058593750e+01 1.738067626953125000e+01 -5.385567247867584229e-02 -1.168465707451105118e-02 -1.966209895908832550e-02 4.312317073345184326e-02
2.822000000000000000e+03 1.499347019195556641e+01 8.433218955993652344e+00 -6.700911853840807453e-06 8.628387877251952887e-05 2.387488893873523921e-05 3.276871939306147397e-05
2.823000000000000000e+03 1.547529125213623047e+01 8.318721771240234375e+00 -7.262254803208634257e-05 1.266910549020394683e-04 1.622055242478381842e-05 2.417384530417621136e-05
2.824000000000000000e+03 3.526628112792968750e+01 7.674250125885009766e+00 -7.812405965523794293e-05 -2.168781356886029243e-03 -6.740716053172945976e-04 -1.500819111242890358e-03
2.825000000000000000e+03 1.625356483459472656e+01 2.307372093200683594e+01 -2.835017815232276917e-02 1.835113973356783390e-03 -7.954519242048263550e-03 6.747587583959102631e-03
2.826000000000000000e+03 1.758162498474121094e+01 2.325620079040527344e+01 -3.855850547552108765e-02 7.372990949079394341e-04 -1.134636159986257553e-02 9.132405743002891541e-03
2.827000000000000000e+03 3.209257125854492188e+01 1.833498764038085938e+01 -6.417366117238998413e-02 -3.258272260427474976e-02 -2.902691625058650970e-02 5.239341408014297485e-02
2.828000000000000000e+03 3.557573699951171875e+01 8.370285987854003906e+00 1.217110402649268508e-04 -2.491247141733765602e-03 -7.108608260750770569e-04 -4.110955051146447659e-04
2.829000000000000000e+03 3.456167984008789062e+01 8.304552078247070312e+00 -7.489391136914491653e-04 -1.033926848322153091e-03 -5.348597769625484943e-04 -1.002591219730675220e-03
2.830000000000000000e+03 1.931372833251953125e+01 2.339316940307617188e+01 -5.452902242541313171e-02 -1.967020565643906593e-03 -1.694881170988082886e-02 1.293799653649330139e-02
2.831000000000000000e+03 1.955863380432128906e+01 5.052645683288574219e+00 4.651667768484912813e-05 1.608138518349733204e-05 1.877941940620075911e-05 9.878459422907326370e-06
2.832000000000000000e+03 1.490887165069580078e+01 2.212399291992187500e+01 -2.022469043731689453e-02 2.590298885479569435e-03 -5.290317349135875702e-03 2.315890742465853691e-03
2.833000000000000000e+03 1.428565883636474609e+01 2.153914070129394531e+01 -1.482489146292209625e-02 2.509141573682427406e-03 -3.694724990054965019e-03 3.658329078461974859e-04
2.834000000000000000e+03 1.273782253265380859e+01 1.372309589385986328e+01 2.908853930421173573e-04 3.087621007580310106e-04 1.798942539608106017e-04 5.191112286411225796e-04
2.835000000000000000e+03 1.283089065551757812e+01 1.895725250244140625e+01 -2.137881936505436897e-03 4.200542753096669912e-05 -6.287629366852343082e-04 -3.767241723835468292e-04
2.836000000000000000e+03 2.127157974243164062e+01 2.414464759826660156e+01 -6.642744690179824829e-02 -1.341742742806673050e-02 -2.395346388220787048e-02 2.854698337614536285e-02
2.837000000000000000e+03 1.423200321197509766e+01 2.221842956542968750e+01 -1.760119758546352386e-02 2.605363260954618454e-03 -4.498749971389770508e-03 2.915935125201940536e-03
2.838000000000000000e+03 1.342201137542724609e+01 1.455351734161376953e+01 -3.825662861345335841e-05 7.058139308355748653e-04 2.002671826630830765e-04 5.427740979939699173e-04
2.839000000000000000e+03 1.228526496887207031e+01 1.630136489868164062e+01 2.896397782023996115e-04 7.325730985030531883e-05 1.088691205950453877e-04 4.739218275062739849e-04
2.840000000000000000e+03 1.284294033050537109e+01 1.570805644989013672e+01 4.954860778525471687e-04 3.312625922262668610e-04 2.480245893821120262e-04 5.775781464762985706e-04
2.841000000000000000e+03 4.796085357666015625e+01 -1.449944782257080078e+01 4.046679973602294922e+00 7.452124953269958496e-01 1.437567830085754395e+00 1.576974511146545410e+00
2.842000000000000000e+03 2.172730064392089844e+01 2.440978622436523438e+01 -6.606201082468032837e-02 -1.839029043912887573e-02 -2.533569186925888062e-02 3.208400309085845947e-02
2.843000000000000000e+03 1.242811107635498047e+01 1.761054229736328125e+01 -5.747951217927038670e-04 -3.447682829573750496e-04 -2.758690097834914923e-04 4.555200575850903988e-04
2.844000000000000000e+03 1.456405830383300781e+01 1.096749687194824219e+01 2.870515163522213697e-05 2.937223762273788452e-04 9.672825399320572615e-05 2.969545494124758989e-05
2.845000000000000000e+03 1.450733852386474609e+01 1.018045520782470703e+01 -9.047726780408993363e-05 2.121671859640628099e-04 3.650697544799186289e-05 3.459228901192545891e-05
2.846000000000000000e+03 3.520629501342773438e+01 5.063303947448730469e+00 -9.791357297217473388e-05 -6.290794699452817440e-04 -2.180979063268750906e-04 -7.221087580546736717e-04
2.847000000000000000e+03 3.574632644653320312e+01 5.653861045837402344e+00 1.450370327802374959e-04 -5.843993276357650757e-04 -1.318086870014667511e-04 -8.387878770008683205e-04
2.848000000000000000e+03 3.138405990600585938e+01 2.110775566101074219e+01 -1.003511026501655579e-01 -2.719568647444248199e-02 -3.826403617858886719e-02 4.053491726517677307e-02
2.849000000000000000e+03 3.100022506713867188e+01 2.089636039733886719e+01 -1.115855872631072998e-01 -3.761406615376472473e-02 -4.475989565253257751e-02 4.922341555356979370e-02
2.850000000000000000e+03 1.385422611236572266e+01 1.138361358642578125e+01 -4.679896301240660250e-05 3.449860960245132446e-04 8.945613808464258909e-05 1.392255799146369100e-04
2.851000000000000000e+03 1.421414566040039062e+01 1.113142395019531250e+01 4.170867032371461391e-05 2.745692327152937651e-04 9.488336945651099086e-05 1.880428608274087310e-04
2.852000000000000000e+03 2.072378921508789062e+01 2.481217956542968750e+01 -5.313128605484962463e-02 -1.371386926621198654e-02 -2.005354687571525574e-02 3.066528216004371643e-02
2.853000000000000000e+03 3.301093673706054688e+01 -4.381063938140869141e+00 -1.408037304878234863e+00 4.778296053409576416e-01 -2.790623009204864502e-01 -1.506729573011398315e-01
2.854000000000000000e+03 2.299210739135742188e+01 2.436146354675292969e+01 -7.384327799081802368e-02 -2.073434740304946899e-02 -2.837328799068927765e-02 3.415983170270919800e-02
2.855000000000000000e+03 2.228426361083984375e+01 2.482542800903320312e+01 -6.105579063296318054e-02 -2.038513682782649994e-02 -2.443227730691432953e-02 3.501421213150024414e-02
2.856000000000000000e+03 3.318208694458007812e+01 2.011956405639648438e+01 -8.789184689521789551e-02 3.890912048518657684e-04 -2.625082619488239288e-02 4.423809424042701721e-02
2.857000000000000000e+03 3.026372337341308594e+01 2.267203521728515625e+01 -9.040115773677825928e-02 -4.530358687043190002e-02 -4.071142524480819702e-02 3.446188196539878845e-02
2.858000000000000000e+03 2.910640525817871094e+01 2.201946449279785156e+01 -1.143168285489082336e-01 -6.815133243799209595e-02 -5.474044755101203918e-02 5.258457735180854797e-02
2.859000000000000000e+03 3.243640136718750000e+01 2.029688644409179688e+01 -9.242787212133407593e-02 -1.033631060272455215e-02 -3.082925453782081604e-02 4.639575630426406860e-02
2.860000000000000000e+03 3.049723243713378906e+01 -3.874835491180419922e+00 -1.486648917198181152e+00 4.230413138866424561e-01 -3.190822899341583252e-01 -6.756705045700073242e-01
2.861000000000000000e+03 3.145030212402343750e+01 -3.071624517440795898e+00 -2.076160192489624023e+00 2.704719007015228271e-01 -5.417065024375915527e-01 -5.023795366287231445e-01
2.862000000000000000e+03 4.603992462158203125e+01 -1.351717948913574219e+01 2.591622829437255859e+00 2.519301176071166992e+00 1.533277153968811035e+00 2.007773399353027344e+00
2.863000000000000000e+03 3.300624847412109375e+01 1.779742622375488281e+01 -5.831470713019371033e-02 -1.626188494265079498e-02 -2.237297780811786652e-02 4.783324897289276123e-02
2.864000000000000000e+03 3.240687561035156250e+01 1.904678916931152344e+01 -7.741457223892211914e-02 -2.015974372625350952e-02 -2.927229553461074829e-02 5.162020027637481689e-02
2.865000000000000000e+03 1.340175724029541016e+01 1.235578727722167969e+01 -3.223549128961167298e-06 4.036305472254753113e-04 1.201221020892262459e-04 3.877264680340886116e-04
2.866000000000000000e+03 1.383273029327392578e+01 1.208446121215820312e+01 2.392409805906936526e-05 4.107462300453335047e-04 1.304010947933420539e-04 1.226354070240631700e-04
2.867000000000000000e+03 1.515299797058105469e+01 2.341188812255859375e+01 -2.399846725165843964e-02 2.023084321990609169e-03 -6.592615041881799698e-03 8.226086385548114777e-03
2.868000000000000000e+03 1.532069206237792969e+01 7.924993515014648438e+00 2.841014065779745579e-05 5.430387682281434536e-05 2.481420597177930176e-05 6.876681254652794451e-06
2.869000000000000000e+03 1.683332824707031250e+01 6.452367782592773438e+00 3.812308204942382872e-05 5.360245268093422055e-05 2.751766078290529549e-05 2.843642323568928987e-05
2.870000000000000000e+03 3.101002311706542969e+01 2.238248825073242188e+01 -8.933530747890472412e-02 -2.894551865756511688e-02 -3.548424690961837769e-02 3.186590224504470825e-02
2.871000000000000000e+03 3.046504783630371094e+01 2.214279747009277344e+01 -9.657531976699829102e-02 -4.152484983205795288e-02 -4.143005236983299255e-02 3.661127761006355286e-02
2.872000000000000000e+03 2.999467086791992188e+01 2.182359313964843750e+01 -1.090457811951637268e-01 -5.640837177634239197e-02 -4.963624477386474609e-02 4.278837889432907104e-02
2.873000000000000000e+03 1.294239807128906250e+01 2.071413230895996094e+01 -8.260673843324184418e-03 1.153279445134103298e-03 -2.132218331098556519e-03 -4.968642024323344231e-04
2.874000000000000000e+03 3.165711021423339844e+01 -3.639971971511840820e+00 -1.699679493904113770e+00 3.395655155181884766e-01 -4.080342054367065430e-01 -4.628346562385559082e-01
2.875000000000000000e+03 4.944647979736328125e+01 -1.293403053283691406e+01 2.096212387084960938e+00 7.613636851310729980e-01 8.572728633880615234e-01 1.959139227867126465e+00
2.876000000000000000e+03 4.927940750122070312e+01 -1.186422061920166016e+01 1.246142387390136719e+00 7.817101478576660156e-01 6.083557605743408203e-01 2.112993478775024414e+00
2.877000000000000000e+03 1.764631652832031250e+01 5.180908203125000000e+00 1.820491343096364290e-05 3.381741407793015242e-05 1.560669807076919824e-05 -2.377594682911876589e-05
2.878000000000000000e+03 1.794008255004882812e+01 4.408329963684082031e+00 2.248541568405926228e-05 5.450575918075628579e-05 2.309735282324254513e-05 -8.421588972851168364e-06
2.879000000000000000e+03 2.776176452636718750e+01 2.306188392639160156e+01 -9.836995601654052734e-02 -5.130846053361892700e-02 -4.490352421998977661e-02 5.337315797805786133e-02
2.880000000000000000e+03 3.643985748291015625e+01 -3.630788087844848633e+00 -2.148313045501708984e+00 7.268125414848327637e-01 -4.264501631259918213e-01 3.734230697154998779e-01
2.881000000000000000e+03 3.671933364868164062e+01 -4.194645404815673828e+00 -2.025645494461059570e+00 7.274041175842285156e-01 -3.894723653793334961e-01 2.949577867984771729e-01
2.882000000000000000e+03 1.650427436828613281e+01 4.929448127746582031e+00 -2.193414547946304083e-05 -2.278297142765950412e-05 -1.341513507213676348e-05 2.170783955079969019e-05
2.883000000000000000e+03 1.704634475708007812e+01 6.789619922637939453e+00 -2.423526530037634075e-05 -1.567355138831771910e-05 -1.197264464281033725e-05 -1.037979291140800342e-05
2.884000000000000000e+03 1.697066497802734375e+01 2.324264335632324219e+01 -3.407299891114234924e-02 1.399186090566217899e-03 -9.802144020795822144e-03 8.467989042401313782e-03
2.885000000000000000e+03 1.570930480957031250e+01 2.332728958129882812e+01 -2.787274867296218872e-02 2.375809475779533386e-03 -7.649081759154796600e-03 8.333954028785228729e-03
2.886000000000000000e+03 1.591337394714355469e+01 4.910515308380126953e+00 1.892859108920674771e-05 5.858968506800010800e-05 2.325548302906099707e-05 2.042879941654973663e-06
2.887000000000000000e+03 1.351181125640869141e+01 2.066853141784667969e+01 -7.663806900382041931e-03 1.299931318499147892e-03 -1.909162732772529125e-03 -9.605608647689223289e-04
2.888000000000000000e+03 1.695947647094726562e+01 5.061084747314453125e+00 3.979094981332309544e-05 7.684187585255131125e-05 3.498984733596444130e-05 -5.852854428667342290e-06
2.889000000000000000e+03 1.728892326354980469e+01 4.803739547729492188e+00 -1.909446837089490145e-05 2.105677049257792532e-05 5.886904546059668064e-07 -1.965450610441621393e-05
2.890000000000000000e+03 1.323230361938476562e+01 5.097247600555419922e+00 3.099851164733991027e-05 8.402430830756202340e-05 3.450684744166210294e-05 3.235523035982623696e-05
2.891000000000000000e+03 2.949010467529296875e+01 2.325756263732910156e+01 -7.893660664558410645e-02 -4.868466034531593323e-02 -3.828638046979904175e-02 3.830559924244880676e-02
2.892000000000000000e+03 3.493635177612304688e+01 -3.944886684417724609e+00 -1.855471611022949219e+00 5.548830032348632812e-01 -3.901765644550323486e-01 2.846423983573913574e-01
2.893000000000000000e+03 1.250449371337890625e+01 5.187977790832519531e+00 3.680893132695928216e-05 -5.846165004186332226e-05 -6.495815796370152384e-06 6.951080285944044590e-05
2.894000000000000000e+03 3.583666610717773438e+01 -3.979337453842163086e+00 -1.925297856330871582e+00 6.606681346893310547e-01 -3.793888986110687256e-01 3.137159645557403564e-01
2.895000000000000000e+03 1.464467239379882812e+01 5.063368797302246094e+00 7.920050848042592406e-06 6.905049667693674564e-05 2.309116462129168212e-05 1.526602318335790187e-05
2.896000000000000000e+03 2.380445671081542969e+01 -4.640654087066650391e+00 -6.446697711944580078e-01 -1.525418460369110107e-01 -2.391634881496429443e-01 -8.251952528953552246e-01
2.897000000000000000e+03 2.427097702026367188e+01 -3.978268861770629883e+00 -7.689505219459533691e-01 -1.028367057442665100e-01 -2.615361809730529785e-01 -8.255274295806884766e-01
2.898000000000000000e+03 2.167583656311035156e+01 -4.870753765106201172e+00 -5.551103949546813965e-01 -1.752705425024032593e-01 -2.191142737865447998e-01 -6.863934397697448730e-01
2.899000000000000000e+03 3.205290985107421875e+01 -6.191971778869628906e+00 -3.496881723403930664e-01 8.868438601493835449e-01 1.611467003822326660e-01 -5.295993089675903320e-01
2.900000000000000000e+03 2.411074066162109375e+01 2.379701232910156250e+01 -8.806277066469192505e-02 -2.331841550767421722e-02 -3.341435641050338745e-02 3.951201960444450378e-02
2.901000000000000000e+03 2.485179519653320312e+01 2.329157638549804688e+01 -1.052801758050918579e-01 -2.493856847286224365e-02 -3.906562179327011108e-02 4.480186477303504944e-02
2.902000000000000000e+03 3.062773704528808594e+01 -5.924996852874755859e+00 -3.658654689788818359e-01 8.385437726974487305e-01 1.418035030364990234e-01 -8.444782495498657227e-01
2.903000000000000000e+03 2.451177406311035156e+01 2.367484474182128906e+01 -9.182767570018768311e-02 -2.489846386015415192e-02 -3.501784428954124451e-02 4.157081991434097290e-02
2.904000000000000000e+03 1.017486095428466797e+01 -5.707888603210449219e+00 -1.841930747032165527e-01 -9.277525544166564941e-02 -8.309049904346466064e-02 2.359880320727825165e-02
2.905000000000000000e+03 1.241267204284667969e+01 -4.768049716949462891e+00 -1.355739533901214600e-01 -1.326363086700439453e-01 -8.046307414770126343e-02 -3.873185440897941589e-02
2.906000000000000000e+03 7.500409698486328125e+01 -1.167263698577880859e+01 -2.176715880632400513e-01 -5.331493169069290161e-02 -8.129595220088958740e-02 -2.751233875751495361e-01
2.907000000000000000e+03 7.557035064697265625e+01 -9.473499298095703125e+00 -2.043006569147109985e-01 -1.958668380975723267e-01 -1.200502514839172363e-01 -4.136474430561065674e-01
2.908000000000000000e+03 3.537533187866210938e+01 3.991286039352416992e+00 7.999991794349625707e-05 3.185374953318387270e-04 1.195612276205793023e-04 -9.547271765768527985e-04
2.909000000000000000e+03 1.085612297058105469e+01 5.498755455017089844e+00 4.476350659388117492e-05 -8.806928963167592883e-05 -1.299173436564160511e-05 9.725039853947237134e-05
2.910000000000000000e+03 4.851389312744140625e+01 -1.292391967773437500e+01 2.281195402145385742e+00 8.787006139755249023e-01 9.479687809944152832e-01 1.949552178382873535e+00
2.911000000000000000e+03 4.831099319458007812e+01 -1.371280574798583984e+01 3.161125898361206055e+00 8.659093379974365234e-01 1.208110570907592773e+00 1.771050095558166504e+00
2.912000000000000000e+03 3.239622497558593750e+01 -4.250939846038818359e+00 -1.391444921493530273e+00 4.089768230915069580e-01 -2.947404384613037109e-01 -3.195144832134246826e-01
2.913000000000000000e+03 2.574869728088378906e+01 -5.093388557434082031e+00 -5.664387345314025879e-01 -2.074363380670547485e-01 -2.321625202894210815e-01 -9.609152674674987793e-01
2.914000000000000000e+03 4.726253032684326172e+00 5.754047393798828125e+00 1.342267496511340141e-04 2.023336128331720829e-05 4.633803473552688956e-05 -1.368537923553958535e-04
2.915000000000000000e+03 7.077233886718750000e+01 -1.064054584503173828e+01 -7.328122258186340332e-01 2.089359015226364136e-01 -1.571628898382186890e-01 -4.215258359909057617e-01
2.916000000000000000e+03 7.199145507812500000e+01 -1.116960430145263672e+01 -5.237771868705749512e-01 1.253853589296340942e-01 -1.195175498723983765e-01 -3.464675843715667725e-01
2.917000000000000000e+03 6.407142162322998047e+00 -6.176958084106445312e+00 -1.118799149990081787e-01 -1.206617802381515503e-02 -3.718382865190505981e-02 6.478136032819747925e-02
2.918000000000000000e+03 8.417683601379394531e+00 -5.542270660400390625e+00 -1.256395727396011353e-01 -4.440365731716156006e-02 -5.101296678185462952e-02 5.956995859742164612e-02
2.919000000000000000e+03 1.473477458953857422e+01 -5.394473552703857422e+00 -2.548139393329620361e-01 -2.527026534080505371e-01 -1.522549837827682495e-01 -1.880466938018798828e-01
2.920000000000000000e+03 1.537046623229980469e+01 -6.141510009765625000e+00 -3.501981794834136963e-01 -3.307380974292755127e-01 -2.042808830738067627e-01 -2.645552158355712891e-01
2.921000000000000000e+03 7.958967208862304688e+00 4.720743179321289062e+00 1.363602641504257917e-04 -9.016335752676241100e-06 3.820317942881956697e-05 -6.901114102220162749e-05
2.922000000000000000e+03 1.251367473602294922e+01 -5.564243316650390625e+00 -2.197275459766387939e-01 -1.768691688776016235e-01 -1.189790144562721252e-01 -5.739966779947280884e-02
2.923000000000000000e+03 2.280019187927246094e+01 -4.812027454376220703e+00 -6.003567576408386230e-01 -1.608507335186004639e-01 -2.283622473478317261e-01 -7.557274103164672852e-01
2.924000000000000000e+03 2.755759239196777344e+01 2.357756423950195312e+01 -8.467027544975280762e-02 -4.479850828647613525e-02 -3.884063288569450378e-02 5.020266771316528320e-02
2.925000000000000000e+03 1.997678184509277344e+01 2.458605384826660156e+01 -5.175252258777618408e-02 -8.713513612747192383e-03 -1.813981123268604279e-02 2.665219642221927643e-02
2.926000000000000000e+03 1.685487365722656250e+01 -6.876958370208740234e+00 -4.594682753086090088e-01 -4.466119706630706787e-01 -2.718240618705749512e-01 -4.204737842082977295e-01
2.927000000000000000e+03 1.547741317749023438e+01 -4.755231380462646484e+00 -2.145700305700302124e-01 -2.359370738267898560e-01 -1.351521313190460205e-01 -2.261759191751480103e-01
2.928000000000000000e+03 4.106381988525390625e+01 -7.515128612518310547e+00 -1.527475118637084961e+00 4.027367830276489258e-01 -3.374214768409729004e-01 -4.617786705493927002e-01
2.929000000000000000e+03 3.694615554809570312e+01 6.869150161743164062e+00 3.017275361344218254e-03 -5.185243790037930012e-04 7.496252655982971191e-04 8.254986605606973171e-04
2.930000000000000000e+03 3.955902099609375000e+01 -7.033851146697998047e+00 -1.462719440460205078e+00 4.902608990669250488e-01 -2.917375564575195312e-01 -5.279381871223449707e-01
2.931000000000000000e+03 2.810819244384765625e+01 -6.215626716613769531e+00 -1.814922541379928589e-01 1.428560614585876465e-01 -1.159085892140865326e-02 -1.046974420547485352e+00
2.932000000000000000e+03 1.749747467041015625e+01 -5.381790161132812500e+00 -3.518039286136627197e-01 -3.000695705413818359e-01 -1.955620497465133667e-01 -4.163973629474639893e-01
2.933000000000000000e+03 1.944269180297851562e+01 -6.038661956787109375e+00 -4.837717711925506592e-01 -3.147145807743072510e-01 -2.395458966493606567e-01 -5.952811837196350098e-01
2.934000000000000000e+03 4.280476379394531250e+01 -8.249794960021972656e+00 -1.447749018669128418e+00 4.997070431709289551e-01 -2.844125926494598389e-01 -1.932841688394546509e-01
2.935000000000000000e+03 4.500212860107421875e+01 -6.622890472412109375e+00 -3.261508226394653320e+00 -1.030371338129043579e-01 -1.009363532066345215e+00 7.724673151969909668e-01
2.936000000000000000e+03 3.659500122070312500e+01 6.270108699798583984e+00 -2.020003506913781166e-03 -3.629525890573859215e-04 -7.148868171498179436e-04 -4.168407467659562826e-04
2.937000000000000000e+03 3.722798538208007812e+01 5.821371078491210938e+00 1.925058546476066113e-03 2.426775172352790833e-04 6.503208423964679241e-04 -4.601516993716359138e-04
2.938000000000000000e+03 4.166108322143554688e+01 -7.647119522094726562e+00 -1.655427813529968262e+00 4.083407223224639893e-01 -3.741261363029479980e-01 -3.783766925334930420e-01
2.939000000000000000e+03 2.128208160400390625e+01 -4.085911273956298828e+00 -5.185674428939819336e-01 -1.280309706926345825e-01 -1.939795315265655518e-01 -5.953276753425598145e-01
2.940000000000000000e+03 3.151061630249023438e+01 -5.918961524963378906e+00 -3.972605466842651367e-01 8.933631181716918945e-01 1.488307565450668335e-01 -6.423364281654357910e-01
2.941000000000000000e+03 3.108689117431640625e+01 -6.432837963104248047e+00 -6.996019184589385986e-02 9.644669890403747559e-01 2.683520317077636719e-01 -7.014986872673034668e-01
2.942000000000000000e+03 3.935076522827148438e+01 -1.550136375427246094e+01 1.823523640632629395e+00 9.405423998832702637e-01 8.292198181152343750e-01 -6.407451629638671875e-01
2.943000000000000000e+03 3.962714385986328125e+01 -1.615354156494140625e+01 1.925563812255859375e+00 1.151463508605957031e+00 9.231082201004028320e-01 -2.924424111843109131e-01
2.944000000000000000e+03 4.056916046142578125e+01 -1.734455680847167969e+01 1.996091723442077637e+00 2.011044740676879883e+00 1.202140927314758301e+00 6.618791818618774414e-01
2.945000000000000000e+03 3.955329132080078125e+01 -1.878475952148437500e+01 1.029673576354980469e+00 1.742429137229919434e+00 8.316308259963989258e-01 9.085062742233276367e-01
2.946000000000000000e+03 3.365150451660156250e+01 -5.085061073303222656e+00 -1.130411744117736816e+00 6.547867655754089355e-01 -1.426874995231628418e-01 -6.222000718116760254e-02
2.947000000000000000e+03 7.356204223632812500e+01 -9.258351325988769531e+00 -3.423180282115936279e-01 -5.069097131490707397e-02 -1.179027035832405090e-01 -5.456506609916687012e-01
2.948000000000000000e+03 7.019476318359375000e+01 -9.967939376831054688e+00 -7.346354722976684570e-01 2.400655448436737061e-01 -1.483709812164306641e-01 -5.736576914787292480e-01
2.949000000000000000e+03 5.310861206054687500e+01 -1.052744579315185547e+01 -1.734676510095596313e-01 8.669621944427490234e-01 2.080483585596084595e-01 2.156992197036743164e+00
2.950000000000000000e+03 2.579033088684082031e+01 -6.054152011871337891e+00 -3.576328158378601074e-01 -2.651048898696899414e-01 -1.868213117122650146e-01 -8.993728160858154297e-01
2.951000000000000000e+03 2.762223815917968750e+01 -5.905931472778320312e+00 -1.877042949199676514e-01 6.225731340236961842e-04 -5.612451583147048950e-02 -1.079557776451110840e+00
2.952000000000000000e+03 2.714193344116210938e+01 -5.540757656097412109e+00 -3.901818990707397461e-01 -1.104413121938705444e-01 -1.501869708299636841e-01 -1.027716517448425293e+00
2.953000000000000000e+03 7.300387573242187500e+01 -1.127336120605468750e+01 -4.510256648063659668e-01 5.113755539059638977e-02 -1.199664324522018433e-01 -3.618289828300476074e-01
2.954000000000000000e+03 9.274671554565429688e+00 -4.858978271484375000e+00 -9.020221233367919922e-02 -5.621337145566940308e-02 -4.392467439174652100e-02 6.071892008185386658e-02
2.955000000000000000e+03 6.067250251770019531e+00 1.649995422363281250e+01 -4.351141105871647596e-04 -8.179931901395320892e-04 -3.759321989491581917e-04 -1.528694410808384418e-04
2.956000000000000000e+03 5.016086578369140625e+00 1.867655372619628906e+01 -3.820413548965007067e-04 -6.162374047562479973e-04 -2.994836249854415655e-04 -1.299112918786704540e-04
2.957000000000000000e+03 5.972975730895996094e+00 1.338128280639648438e+01 1.216992859554011375e-05 -3.953147097490727901e-04 -1.149434319813735783e-04 -2.913062344305217266e-04
2.958000000000000000e+03 5.487611770629882812e+00 1.426584148406982422e+01 3.917852300219237804e-04 -4.567095020320266485e-04 -1.947728196682874113e-05 -3.711588215082883835e-04
2.959000000000000000e+03 1.607130050659179688e+01 -8.250540733337402344e+00 -5.932086110115051270e-01 -5.348578095436096191e-01 -3.384199142456054688e-01 -3.804798722267150879e-01
2.960000000000000000e+03 1.863052177429199219e+01 -7.571517467498779297e+00 -6.028789281845092773e-01 -4.483607709407806396e-01 -3.153719007968902588e-01 -5.951406955718994141e-01
2.961000000000000000e+03 4.220262527465820312e+01 -2.059707260131835938e+01 3.228028118610382080e-01 3.742586135864257812e+00 1.219616651535034180e+00 9.703446626663208008e-01
2.962000000000000000e+03 4.367467117309570312e+01 -2.048728561401367188e+01 -1.336846128106117249e-02 4.515810489654541016e+00 1.350732564926147461e+00 4.116871953010559082e-01
2.963000000000000000e+03 3.968831253051757812e+01 1.753846359252929688e+01 -7.947114855051040649e-02 3.358582407236099243e-02 -1.376559771597385406e-02 1.055102981626987457e-02
2.964000000000000000e+03 6.268342590332031250e+01 -4.320361614227294922e+00 -1.635390520095825195e-01 1.358934879302978516e+00 3.586187660694122314e-01 1.821330040693283081e-01
2.965000000000000000e+03 1.092862033843994141e+01 4.682948112487792969e+00 7.999790250323712826e-05 3.602843935368582606e-05 3.480790110188536346e-05 -2.032638349191984162e-06
2.966000000000000000e+03 6.124800205230712891e+00 2.291737174987792969e+01 -2.702128840610384941e-03 -1.682866015471518040e-03 -1.315498491749167442e-03 2.471754560247063637e-03
2.967000000000000000e+03 5.539521217346191406e+00 2.593692398071289062e+01 -2.696602372452616692e-03 -3.490163711830973625e-03 -1.856029848568141460e-03 4.977632313966751099e-03
2.968000000000000000e+03 3.728635025024414062e+01 9.205243110656738281e+00 -2.719511743634939194e-03 -5.291365669108927250e-04 -9.745944989845156670e-04 4.209965482004918158e-05
2.969000000000000000e+03 3.551354980468750000e+01 1.005051994323730469e+01 -3.224065760150551796e-03 -3.727162489667534828e-03 -2.085368381813168526e-03 1.607369165867567062e-03
2.970000000000000000e+03 5.232033538818359375e+01 -9.305524826049804688e+00 -7.746182084083557129e-01 8.979575037956237793e-01 3.700178116559982300e-02 2.392808198928833008e+00
2.971000000000000000e+03 7.531197357177734375e+01 -2.074113082885742188e+01 -4.686847969423979521e-04 -7.641932461410760880e-04 -3.698634100146591663e-04 -2.224363997811451554e-04
2.972000000000000000e+03 7.515622711181640625e+01 -2.306019020080566406e+01 -1.284896279685199261e-03 9.810418123379349709e-05 -3.560376353561878204e-04 5.488718161359429359e-04
2.973000000000000000e+03 3.837540817260742188e+01 -1.038191127777099609e+01 5.842603445053100586e-01 4.516839683055877686e-01 3.107832968235015869e-01 -1.326313853263854980e+00
2.974000000000000000e+03 3.685180664062500000e+01 1.128371620178222656e+01 -7.942279800772666931e-03 -1.064765849150717258e-03 -2.702113706618547440e-03 1.458426471799612045e-03
2.975000000000000000e+03 3.804356002807617188e+01 1.402775955200195312e+01 -4.052859172224998474e-02 1.500323973596096039e-02 -7.657605689018964767e-03 4.401564598083496094e-03
2.976000000000000000e+03 4.754378318786621094e+00 -6.622313499450683594e+00 -7.583215832710266113e-02 1.858981885015964508e-02 -1.717270165681838989e-02 5.879598110914230347e-02
2.977000000000000000e+03 5.938358783721923828e+00 -5.438215732574462891e+00 -5.986456945538520813e-02 -3.708722535520792007e-03 -1.907198689877986908e-02 8.331607282161712646e-02
2.978000000000000000e+03 6.804196834564208984e+00 -6.965749263763427734e+00 -1.646363437175750732e-01 -3.260654956102371216e-02 -5.917286872863769531e-02 3.228601440787315369e-02
2.979000000000000000e+03 3.515791702270507812e+01 1.198566532135009766e+01 -8.959778584539890289e-03 -7.324310718104243279e-04 -2.907663118094205856e-03 5.698495078831911087e-03
2.980000000000000000e+03 3.731801223754882812e+01 1.086530971527099609e+01 -1.195043139159679413e-02 -6.336638471111655235e-04 -3.775228746235370636e-03 9.307331056334078312e-04
2.981000000000000000e+03 5.042843627929687500e+01 -1.153119087219238281e+01 8.755609989166259766e-01 6.787205934524536133e-01 4.662844836711883545e-01 2.161173582077026367e+00
2.982000000000000000e+03 5.877867507934570312e+01 -6.418633460998535156e+00 -5.571271777153015137e-01 1.530721545219421387e+00 2.920783460140228271e-01 9.347947239875793457e-01
2.983000000000000000e+03 2.330603790283203125e+01 -5.284276962280273438e+00 -5.841043591499328613e-01 -1.911954134702682495e-01 -2.325899302959442139e-01 -7.947451472282409668e-01
2.984000000000000000e+03 7.464983367919921875e+01 -3.275550842285156250e+00 -6.987691670656204224e-02 -5.361920595169067383e-01 -1.818207055330276489e-01 -7.987920045852661133e-01
2.985000000000000000e+03 7.456553649902343750e+01 -2.073298931121826172e+00 -6.825348362326622009e-03 -6.104345917701721191e-01 -1.851779818534851074e-01 -8.217588663101196289e-01
2.986000000000000000e+03 3.731522750854492188e+01 -1.081892299652099609e+01 9.192588925361633301e-01 3.334305584430694580e-01 3.758068382740020752e-01 -1.367233514785766602e+00
2.987000000000000000e+03 5.179163932800292969e+00 1.531431865692138672e+01 -1.872503198683261871e-04 -4.767959180753678083e-04 -1.992138713831081986e-04 -3.021702286787331104e-04
2.988000000000000000e+03 6.212319374084472656e+00 1.553995037078857422e+01 2.506600285414606333e-04 -6.749776075594127178e-04 -1.272952649742364883e-04 -3.701157402247190475e-04
2.989000000000000000e+03 6.741327762603759766e+00 -1.105954074859619141e+01 -3.006141781806945801e-01 -8.531186729669570923e-02 -1.157778128981590271e-01 -2.035975903272628784e-01
2.990000000000000000e+03 7.887912273406982422e+00 5.534840106964111328e+00 3.264950646553188562e-05 -9.528847294859588146e-05 -1.879169030871707946e-05 7.257230754476040602e-05
2.991000000000000000e+03 3.995505142211914062e+01 1.639624214172363281e+01 -7.433882355690002441e-02 3.351478651165962219e-02 -1.224721223115921021e-02 7.160505047067999840e-04
2.992000000000000000e+03 5.202677249908447266e+00 9.914974212646484375e+00 2.367896522628143430e-04 -6.922181637492030859e-05 5.027034785598516464e-05 -2.402593090664595366e-04
2.993000000000000000e+03 3.926759719848632812e+01 -6.203910827636718750e+00 -1.940796256065368652e+00 5.099148154258728027e-01 -4.292644262313842773e-01 -2.606967389583587646e-01
2.994000000000000000e+03 3.804045867919921875e+01 -1.298120784759521484e+01 1.264854311943054199e+00 3.610895574092864990e-01 4.877831637859344482e-01 -1.511463880538940430e+00
2.995000000000000000e+03 1.819624328613281250e+01 -5.759787559509277344e+00 -4.195422828197479248e-01 -3.234647214412689209e-01 -2.229020893573760986e-01 -4.920680820941925049e-01
2.996000000000000000e+03 7.050833702087402344e+00 2.245551681518554688e+01 -4.131219815462827682e-03 -1.529468223452568054e-03 -1.698206411674618721e-03 2.698892029002308846e-03
2.997000000000000000e+03 5.692659378051757812e+00 2.192105865478515625e+01 -2.696265466511249542e-03 -1.377329113893210888e-03 -1.222078339196741581e-03 1.829297514632344246e-03
2.998000000000000000e+03 5.472001266479492188e+01 -8.856462478637695312e+00 -9.270938038825988770e-01 1.468019843101501465e+00 1.622778177261352539e-01 1.849734067916870117e+00
2.999000000000000000e+03 5.644266891479492188e+01 -9.655062675476074219e+00 -8.215720653533935547e-01 1.266213655471801758e+00 1.333924680948257446e-01 1.479236125946044922e+00
3.000000000000000000e+03 6.649748229980468750e+01 9.780085563659667969e+00 7.344794273376464844e-01 3.284171581268310547e+00 1.205595254898071289e+00 2.785223908722400665e-02
3.001000000000000000e+03 7.149195098876953125e+01 -2.580455398559570312e+01 -7.651471532881259918e-03 3.261325473431497812e-04 -2.197601599618792534e-03 1.796280965209007263e-03
3.002000000000000000e+03 1.277159500122070312e+01 -7.736032009124755859e+00 -4.371214807033538818e-01 -2.974359691143035889e-01 -2.203672379255294800e-01 -1.256271004676818848e-01
3.003000000000000000e+03 4.601143264770507812e+01 -9.350914955139160156e+00 -8.746675848960876465e-01 6.818782687187194824e-01 -5.783679708838462830e-02 1.045029997825622559e+00
3.004000000000000000e+03 4.777849197387695312e+01 -9.969326972961425781e+00 -1.963539719581604004e-01 5.044738054275512695e-01 9.243594855070114136e-02 1.781293749809265137e+00
3.005000000000000000e+03 9.479505538940429688e+00 -1.149189949035644531e+01 -5.202695727348327637e-01 -1.663177758455276489e-01 -2.059762030839920044e-01 -2.845376133918762207e-01
3.006000000000000000e+03 6.896134948730468750e+01 -8.403057098388671875e+00 -7.334352135658264160e-01 2.810152471065521240e-01 -1.357259899377822876e-01 -6.805391311645507812e-01
3.007000000000000000e+03 6.856512451171875000e+01 -9.865500450134277344e+00 -9.603715538978576660e-01 2.820515036582946777e-01 -2.034960240125656128e-01 -5.749929547309875488e-01
3.008000000000000000e+03 9.427906990051269531e+00 -2.122527122497558594e+01 2.277777791023254395e-01 -4.418198764324188232e-01 -6.421263515949249268e-02 -6.732199788093566895e-01
3.009000000000000000e+03 8.883724212646484375e+00 -1.885049057006835938e+01 -3.712611505761742592e-03 -3.900868892669677734e-01 -1.181398481130599976e-01 -7.368404269218444824e-01
3.010000000000000000e+03 5.517935276031494141e+00 1.100245475769042969e+01 1.679028791841119528e-04 -2.704950456973165274e-04 -3.077764995396137238e-05 -1.274663518415763974e-04
3.011000000000000000e+03 6.595001220703125000e+00 1.270039749145507812e+01 3.484004701022058725e-04 -4.801054601557552814e-04 -3.951149847125634551e-05 -6.433705857489258051e-05
3.012000000000000000e+03 7.445545959472656250e+01 -9.155286788940429688e+00 -2.592571675777435303e-01 -1.281681656837463379e-01 -1.162276044487953186e-01 -5.113744735717773438e-01
3.013000000000000000e+03 7.361642456054687500e+01 -2.744820594787597656e+01 -5.515772849321365356e-03 1.716198494250420481e-05 -1.649583224207162857e-03 4.686442669481039047e-03
3.014000000000000000e+03 9.753806114196777344e+00 -1.854626464843750000e+01 -4.935351759195327759e-02 -3.600815832614898682e-01 -1.228305250406265259e-01 -7.646204829216003418e-01
3.015000000000000000e+03 9.290422439575195312e+00 -1.523030376434326172e+01 -4.203253984451293945e-01 -2.511628866195678711e-01 -2.014464884996414185e-01 -6.266149878501892090e-01
3.016000000000000000e+03 7.422495269775390625e+01 -7.030462741851806641e+00 -2.114867717027664185e-01 -2.225408256053924561e-01 -1.302082836627960205e-01 -6.772270202636718750e-01
3.017000000000000000e+03 7.271202087402343750e+01 -9.762537002563476562e+00 -4.571693241596221924e-01 4.034477099776268005e-02 -1.250473707914352417e-01 -5.104291439056396484e-01
3.018000000000000000e+03 5.217229080200195312e+01 -1.022466945648193359e+01 -1.624340415000915527e-01 8.471729159355163574e-01 2.054216563701629639e-01 2.275199890136718750e+00
3.019000000000000000e+03 4.414923477172851562e+01 -3.233630371093750000e+01 -1.407038718461990356e-01 1.506003856658935547e+00 4.095899760723114014e-01 3.200801089406013489e-02
3.020000000000000000e+03 4.447577667236328125e+01 -2.944293022155761719e+01 -9.047092497348785400e-02 1.922258973121643066e+00 5.495364069938659668e-01 4.994087666273117065e-02
3.021000000000000000e+03 7.421312713623046875e+01 -2.345885658264160156e+01 -1.865684054791927338e-03 -1.281796954572200775e-03 -9.442443260923027992e-04 6.662709638476371765e-04
3.022000000000000000e+03 5.146044254302978516e+00 1.978848075866699219e+01 -1.434270991012454033e-03 -8.919027168303728104e-04 -6.978521123528480530e-04 4.703853337559849024e-04
3.023000000000000000e+03 3.765942382812500000e+01 -3.533413887023925781e+00 -2.374450683593750000e+00 7.311204671859741211e-01 -4.929990470409393311e-01 4.060117900371551514e-01
3.024000000000000000e+03 4.196041107177734375e+01 -2.264451408386230469e+01 2.640722095966339111e-01 3.015549421310424805e+00 9.838864803314208984e-01 7.452728152275085449e-01
3.025000000000000000e+03 4.294153976440429688e+01 -2.214653396606445312e+01 1.831690073013305664e-01 3.637401580810546875e+00 1.146171212196350098e+00 4.784061312675476074e-01
3.026000000000000000e+03 3.525265502929687500e+01 -7.373899459838867188e+00 -1.325987130403518677e-01 7.010036706924438477e-01 1.705214977264404297e-01 -4.250217080116271973e-01
3.027000000000000000e+03 7.455316162109375000e+01 -4.491484165191650391e+00 -1.013877913355827332e-01 -4.332320690155029297e-01 -1.603859513998031616e-01 -7.769222259521484375e-01
3.028000000000000000e+03 4.458459472656250000e+01 2.198120689392089844e+01 -4.234261065721511841e-02 4.690222814679145813e-02 1.367885153740644455e-03 -4.026259761303663254e-03
3.029000000000000000e+03 6.115615844726562500e+01 -8.180165290832519531e-01 4.892531335353851318e-01 2.398088693618774414e+00 8.662025332450866699e-01 7.947786450386047363e-01
3.030000000000000000e+03 7.306954193115234375e+01 -2.644591522216796875e+01 -6.016132887452840805e-03 -3.869383945129811764e-04 -1.920921378768980503e-03 3.657222492620348930e-03
3.031000000000000000e+03 7.211003112792968750e+01 -2.704062652587890625e+01 -8.182948455214500427e-03 2.184550277888774872e-03 -1.799519523046910763e-03 4.248192533850669861e-03
3.032000000000000000e+03 6.410909271240234375e+01 9.391617774963378906e+00 7.051626443862915039e-01 5.066817283630371094e+00 1.731593966484069824e+00 5.845758914947509766e-01
3.033000000000000000e+03 3.876907730102539062e+01 -1.139353561401367188e+01 9.130926132202148438e-01 5.247340798377990723e-01 4.313479959964752197e-01 -1.450964212417602539e+00
3.034000000000000000e+03 3.818681716918945312e+01 -2.791179466247558594e+01 4.496153891086578369e-01 1.410663127899169922e+00 5.580835938453674316e-01 7.761298418045043945e-01
3.035000000000000000e+03 4.227526473999023438e+01 -2.891510581970214844e+01 6.510633975267410278e-02 1.914095163345336914e+00 5.937604308128356934e-01 4.190939664840698242e-01
3.036000000000000000e+03 7.547285461425781250e+01 1.761717605590820312e+01 1.995178014039993286e-01 -1.641917347908020020e+00 -4.327198565006256104e-01 3.251161873340606689e-01
3.037000000000000000e+03 3.847196578979492188e+01 -2.419875526428222656e+01 5.404863357543945312e-01 1.466318130493164062e+00 6.020413041114807129e-01 1.088460445404052734e+00
3.038000000000000000e+03 3.906637191772460938e+01 -2.566203498840332031e+01 5.068826079368591309e-01 1.573049545288085938e+00 6.239796280860900879e-01 9.583210349082946777e-01
3.039000000000000000e+03 7.573757934570312500e+01 -3.370984268188476562e+01 -5.045562866143882275e-04 -9.737027809023857117e-03 -3.072475083172321320e-03 1.013575214892625809e-02
3.040000000000000000e+03 1.874168968200683594e+01 -6.724255561828613281e+00 -5.210678577423095703e-01 -3.756090402603149414e-01 -2.690030634403228760e-01 -5.742768645286560059e-01
3.041000000000000000e+03 1.547383213043212891e+01 -5.487362384796142578e+00 -2.834869027137756348e-01 -2.891388535499572754e-01 -1.717877238988876343e-01 -2.449123710393905640e-01
3.042000000000000000e+03 7.415204620361328125e+01 1.488893604278564453e+01 3.368440568447113037e-01 -1.046312332153320312e+00 -2.128404825925827026e-01 1.306192576885223389e-01
3.043000000000000000e+03 7.093674182891845703e+00 -2.251104164123535156e+01 1.837579160928726196e-01 -5.902459621429443359e-01 -1.219464167952537537e-01 -5.467543601989746094e-01
3.044000000000000000e+03 7.939533710479736328e+00 -2.304718971252441406e+01 2.377086430788040161e-01 -5.592617988586425781e-01 -9.646593779325485229e-02 -5.359614491462707520e-01
3.045000000000000000e+03 6.610225677490234375e+01 1.102373504638671875e+01 7.884538173675537109e-01 3.608311653137207031e+00 1.319029569625854492e+00 8.274170011281967163e-02
3.046000000000000000e+03 7.394509887695312500e+01 1.088855648040771484e+01 3.320660293102264404e-01 -8.918235898017883301e-01 -1.679272651672363281e-01 -2.565134167671203613e-01
3.047000000000000000e+03 5.469120502471923828e+00 -1.809950065612792969e+01 -5.531333386898040771e-02 -4.123723208904266357e-01 -1.403056979179382324e-01 -5.391758680343627930e-01
3.048000000000000000e+03 5.584990978240966797e+00 -1.686450576782226562e+01 -1.100221723318099976e-01 -3.249943256378173828e-01 -1.305049508810043335e-01 -5.149057507514953613e-01
3.049000000000000000e+03 7.530548095703125000e+01 2.030832481384277344e+01 1.656887829303741455e-01 -1.434784412384033203e+00 -3.807286918163299561e-01 5.189567804336547852e-01
3.050000000000000000e+03 7.406639099121093750e+01 2.025528907775878906e+00 1.224804893136024475e-01 -6.974508166313171387e-01 -1.724911034107208252e-01 -7.964496612548828125e-01
3.051000000000000000e+03 4.960535812377929688e+01 -1.113718700408935547e+01 7.013228535652160645e-01 6.654978394508361816e-01 4.100461900234222412e-01 2.159791231155395508e+00
3.052000000000000000e+03 7.407813262939453125e+01 -2.596685028076171875e+01 -3.507588291540741920e-03 -1.582162367412820458e-04 -1.099741319194436073e-03 2.377835102379322052e-03
3.053000000000000000e+03 6.715509033203125000e+01 2.134023284912109375e+01 6.250342726707458496e-01 2.333825826644897461e+00 8.876579999923706055e-01 4.936218559741973877e-01
3.054000000000000000e+03 6.688591766357421875e+01 1.859800338745117188e+01 1.029509425163269043e+00 2.708668947219848633e+00 1.121453523635864258e+00 1.790499091148376465e-01
3.055000000000000000e+03 1.651230430603027344e+01 -3.200671386718750000e+01 3.954502046108245850e-01 2.861859500408172607e-01 2.044908404350280762e-01 -2.447715699672698975e-01
3.056000000000000000e+03 1.013161563873291016e+01 -2.394140815734863281e+01 3.738361299037933350e-01 -3.721211254596710205e-01 5.144980968907475471e-04 -5.077541470527648926e-01
3.057000000000000000e+03 1.084255886077880859e+01 -2.504627037048339844e+01 4.437166452407836914e-01 -2.606562972068786621e-01 5.491810292005538940e-02 -4.314016699790954590e-01
3.058000000000000000e+03 4.846040248870849609e+00 -2.568499946594238281e+01 1.148925870656967163e-01 -8.714562058448791504e-01 -2.269690781831741333e-01 -3.164726793766021729e-01
3.059000000000000000e+03 5.517913818359375000e+01 2.781283569335937500e+01 2.379500865936279297e-01 7.377610802650451660e-01 2.927133440971374512e-01 -7.143182158470153809e-01
3.060000000000000000e+03 1.089900875091552734e+01 -1.180694007873535156e+01 -6.607058644294738770e-01 -2.387548387050628662e-01 -2.698382139205932617e-01 -3.294282257556915283e-01
3.061000000000000000e+03 6.575549316406250000e+01 3.511497974395751953e+00 6.072617769241333008e-01 2.451751470565795898e+00 9.177039861679077148e-01 -1.159011349081993103e-01
3.062000000000000000e+03 6.510906982421875000e+01 4.711506843566894531e+00 6.921216845512390137e-01 2.879028081893920898e+00 1.071344971656799316e+00 9.974729269742965698e-02
3.063000000000000000e+03 1.237452411651611328e+01 -2.705539131164550781e+01 4.266038537025451660e-01 -7.381678372621536255e-02 1.058361232280731201e-01 -3.395211696624755859e-01
3.064000000000000000e+03 6.090445518493652344e+00 -1.181632328033447266e+01 -2.695371210575103760e-01 -9.610029309988021851e-02 -1.096912249922752380e-01 -2.398157715797424316e-01
3.065000000000000000e+03 5.870791435241699219e+00 -8.972264289855957031e+00 -1.996529996395111084e-01 -2.910272590816020966e-02 -6.862671673297882080e-02 -4.754197970032691956e-02
3.066000000000000000e+03 6.078272819519042969e+00 1.851548194885253906e+01 -1.188627677038311958e-03 -9.797452948987483978e-04 -6.505118799395859241e-04 1.418821630068123341e-04
3.067000000000000000e+03 6.650413513183593750e+01 8.613159179687500000e+00 7.526459097862243652e-01 2.953540086746215820e+00 1.111855864524841309e+00 -1.398916472680866718e-03
3.068000000000000000e+03 6.119607162475585938e+01 2.288588905334472656e+01 6.366224884986877441e-01 3.453541040420532227e+00 1.227049112319946289e+00 -1.023298859596252441e+00
3.069000000000000000e+03 7.300875854492187500e+01 -5.377308368682861328e+00 -2.042869478464126587e-01 -1.493265926837921143e-01 -1.060840636491775513e-01 -8.206894993782043457e-01
3.070000000000000000e+03 7.427766418457031250e+01 5.515025854110717773e-01 7.211418449878692627e-02 -6.791509985923767090e-01 -1.821110397577285767e-01 -8.177909255027770996e-01
3.071000000000000000e+03 7.299440765380859375e+01 2.176539450883865356e-01 6.798604130744934082e-02 -3.259442448616027832e-01 -7.738746702671051025e-02 -8.819276690483093262e-01
3.072000000000000000e+03 7.261911010742187500e+01 -3.045939826965332031e+01 -6.875433493405580521e-03 -1.488244044594466686e-03 -2.509103389456868172e-03 1.125124935060739517e-02
3.073000000000000000e+03 7.357305908203125000e+01 -3.214664077758789062e+01 -4.077291116118431091e-03 -4.221124108880758286e-03 -2.489524660632014275e-03 1.210378017276525497e-02
3.074000000000000000e+03 1.320400428771972656e+01 -2.827438926696777344e+01 4.273922443389892578e-01 5.501295527210459113e-05 1.282341778278350830e-01 -2.979891598224639893e-01
3.075000000000000000e+03 5.430795288085937500e+01 -9.718055725097656250e+00 -6.937533020973205566e-01 1.203164339065551758e+00 1.528232991695404053e-01 2.012849330902099609e+00
3.076000000000000000e+03 7.702095508575439453e+00 3.248861694335937500e+01 5.615898407995700836e-04 -1.198611781001091003e-02 -3.427358577027916908e-03 1.140737906098365784e-02
3.077000000000000000e+03 7.197136688232421875e+01 -3.317998504638671875e+01 -4.045121837407350540e-03 -3.920430317521095276e-03 -2.389665693044662476e-03 1.716569997370243073e-02
3.078000000000000000e+03 7.418118286132812500e+01 -3.624990081787109375e+01 5.406259559094905853e-03 -1.283433940261602402e-02 -2.228423953056335449e-03 1.476626377552747726e-02
3.079000000000000000e+03 5.383102893829345703e+00 2.840716743469238281e+01 -2.063699299469590187e-03 -6.245565600693225861e-03 -2.492779400199651718e-03 7.024873513728380203e-03
3.080000000000000000e+03 7.254706859588623047e+00 -1.399461364746093750e+01 -3.285026252269744873e-01 -1.754043698310852051e-01 -1.511721014976501465e-01 -4.465323388576507568e-01
3.081000000000000000e+03 2.881583595275878906e+01 -5.233383178710937500e+00 -5.805744528770446777e-01 2.477879077196121216e-01 -9.983596950769424438e-02 -1.026396989822387695e+00
3.082000000000000000e+03 2.789360237121582031e+01 -2.931573390960693359e+00 -1.539375066757202148e+00 -3.059998713433742523e-02 -4.709925055503845215e-01 -7.236301302909851074e-01
3.083000000000000000e+03 4.359369659423828125e+01 -1.855383872985839844e+01 5.986463427543640137e-01 5.617916107177734375e+00 1.864968776702880859e+00 1.410205125808715820e+00
3.084000000000000000e+03 4.262183380126953125e+01 -1.989238166809082031e+01 3.488332629203796387e-01 4.226169109344482422e+00 1.372500658035278320e+00 1.042727470397949219e+00
3.085000000000000000e+03 4.540270233154296875e+01 -1.378236484527587891e+01 2.435374498367309570e+00 3.419245958328247070e+00 1.756386160850524902e+00 1.766178846359252930e+00
3.086000000000000000e+03 4.454188537597656250e+01 -1.374683284759521484e+01 2.063144683837890625e+00 4.001326560974121094e+00 1.819341421127319336e+00 7.341998219490051270e-01
3.087000000000000000e+03 4.146738433837890625e+01 -1.683742523193359375e+01 2.953296661376953125e+00 2.419679403305053711e+00 1.611892819404602051e+00 7.035356163978576660e-01
3.088000000000000000e+03 4.568534851074218750e+01 -1.386122894287109375e+01 2.719414949417114258e+00 3.117154359817504883e+00 1.750970840454101562e+00 2.035732746124267578e+00
3.089000000000000000e+03 4.512710571289062500e+01 -1.371717739105224609e+01 2.260549068450927734e+00 3.727658748626708984e+00 1.796462297439575195e+00 1.445791006088256836e+00
3.090000000000000000e+03 4.275659179687500000e+01 -1.811466217041015625e+01 1.806700110435485840e+00 4.529717445373535156e+00 1.900925278663635254e+00 1.823652148246765137e+00
3.091000000000000000e+03 4.403449249267578125e+01 -1.404915046691894531e+01 2.327450752258300781e+00 4.258103370666503906e+00 1.975666165351867676e+00 1.155890896916389465e-01
3.092000000000000000e+03 2.687934112548828125e+01 -3.225131988525390625e+00 -1.236967444419860840e+00 -1.277227252721786499e-01 -4.094070494174957275e-01 -8.480191230773925781e-01
3.093000000000000000e+03 2.658130455017089844e+01 -3.558179378509521484e+00 -1.072929978370666504e+00 -1.295010000467300415e-01 -3.607292771339416504e-01 -8.918514847755432129e-01
3.094000000000000000e+03 4.355039215087890625e+01 -1.431438636779785156e+01 2.713155746459960938e+00 4.103136539459228516e+00 2.044887781143188477e+00 -3.843062520027160645e-01
3.095000000000000000e+03 4.284879302978515625e+01 -1.499380207061767578e+01 3.566134214401245117e+00 3.428250789642333984e+00 2.098315477371215820e+00 -6.316100955009460449e-01
3.096000000000000000e+03 4.328970336914062500e+01 -1.444319152832031250e+01 2.881135702133178711e+00 3.851009130477905273e+00 2.019643545150756836e+00 -5.688015222549438477e-01
3.097000000000000000e+03 4.696872329711914062e+01 -1.479366874694824219e+01 4.582711696624755859e+00 8.807571530342102051e-01 1.639040708541870117e+00 2.241259574890136719e+00
3.098000000000000000e+03 4.731087112426757812e+01 -1.417509555816650391e+01 3.738749742507934570e+00 1.064865469932556152e+00 1.441084623336791992e+00 1.948906421661376953e+00
3.099000000000000000e+03 4.836573410034179688e+01 -1.212792110443115234e+01 1.518014073371887207e+00 8.984776735305786133e-01 7.249475121498107910e-01 2.040492296218872070e+00
3.100000000000000000e+03 4.685343551635742188e+01 -1.436909675598144531e+01 4.073173046112060547e+00 1.364577651023864746e+00 1.631325244903564453e+00 2.315298080444335938e+00
3.101000000000000000e+03 1.734859085083007812e+01 6.567744731903076172e+00 2.904637040046509355e-05 6.517452857224270701e-05 2.826626950991339982e-05 9.595478331902995706e-06
3.102000000000000000e+03 2.628933334350585938e+01 -3.963235616683959961e+00 -9.052745699882507324e-01 -1.446318626403808594e-01 -3.149719238281250000e-01 -9.462148547172546387e-01
3.103000000000000000e+03 2.772324562072753906e+01 -3.527990818023681641e+00 -1.259132862091064453e+00 -2.705612964928150177e-02 -3.858566880226135254e-01 -8.368102312088012695e-01
3.104000000000000000e+03 1.102418994903564453e+01 1.690227890014648438e+01 -2.314714947715401649e-04 -7.703929441049695015e-04 -3.005593316629528999e-04 1.778978039510548115e-04
3.105000000000000000e+03 1.792005729675292969e+01 5.329614639282226562e+00 -1.010629330266965553e-05 -5.250200410955585539e-05 -1.878248986031394452e-05 -8.798381713859271258e-06
3.106000000000000000e+03 1.301408481597900391e+01 1.333997058868408203e+01 3.666024349513463676e-05 3.280122473370283842e-04 1.094017425202764571e-04 4.415681469254195690e-04
3.107000000000000000e+03 1.325418758392333984e+01 1.493362808227539062e+01 3.301062097307294607e-04 7.792990072630345821e-04 3.328215680085122585e-04 5.630569066852331161e-04
3.108000000000000000e+03 2.971212959289550781e+01 -2.848628282546997070e+00 -1.944390177726745605e+00 2.420326769351959229e-01 -5.107072591781616211e-01 -6.008031368255615234e-01
3.109000000000000000e+03 3.471761322021484375e+01 1.146923542022705078e+01 -8.399010635912418365e-03 -2.327786758542060852e-03 -3.218039171770215034e-03 4.312062636017799377e-03
3.110000000000000000e+03 3.326620101928710938e+01 1.544220447540283203e+01 -2.675852179527282715e-02 -1.419788785278797150e-02 -1.228692289441823959e-02 2.778329700231552124e-02
3.111000000000000000e+03 3.359209442138671875e+01 1.609234619140625000e+01 -3.729667142033576965e-02 -1.080091111361980438e-02 -1.442927401512861252e-02 3.341743722558021545e-02
3.112000000000000000e+03 1.457712554931640625e+01 8.950013160705566406e+00 4.701754005509428680e-05 1.658379624132066965e-04 6.385664892150089145e-05 4.908181654172949493e-05
3.113000000000000000e+03 1.728289031982421875e+01 5.560281753540039062e+00 2.854467084034695290e-06 2.670745743671432137e-05 8.868577424436807632e-06 3.573631374820251949e-06
3.114000000000000000e+03 1.764509963989257812e+01 5.488735198974609375e+00 5.945454176981002092e-06 3.290831955382600427e-05 1.165613230114104226e-05 8.061675544013269246e-06
3.115000000000000000e+03 3.515010833740234375e+01 1.114003467559814453e+01 -5.193434655666351318e-03 -5.769327399320900440e-04 -1.731110271066427231e-03 2.303233137354254723e-03
3.116000000000000000e+03 3.445010757446289062e+01 1.260213851928710938e+01 -1.094225887209177017e-02 -2.439858159050345421e-03 -4.014634992927312851e-03 1.014950964599847794e-02
3.117000000000000000e+03 3.560578536987304688e+01 1.163064384460449219e+01 -1.256716158241033554e-02 -1.884306548163294792e-03 -4.335440229624509811e-03 4.890179261565208435e-03
3.118000000000000000e+03 3.335220718383789062e+01 1.695108604431152344e+01 -4.635232686996459961e-02 -1.422810647636651993e-02 -1.817413046956062317e-02 4.082566872239112854e-02
3.119000000000000000e+03 3.338216781616210938e+01 1.503623008728027344e+01 -2.357599511742591858e-02 -1.076425984501838684e-02 -1.030207611620426178e-02 2.529633603990077972e-02
3.120000000000000000e+03 3.377529525756835938e+01 1.500815963745117188e+01 -2.575433067977428436e-02 -6.863766815513372421e-03 -9.785429574549198151e-03 2.457696013152599335e-02
3.121000000000000000e+03 3.375237274169921875e+01 1.569336795806884766e+01 -3.367706015706062317e-02 -6.405557505786418915e-03 -1.202478539198637009e-02 3.059001266956329346e-02
3.122000000000000000e+03 3.489379882812500000e+01 9.874528884887695312e+00 -2.809528959915041924e-03 -1.654852181673049927e-03 -1.339314389042556286e-03 7.756023551337420940e-04
3.123000000000000000e+03 3.642250442504882812e+01 9.165278434753417969e+00 -2.914582437369972467e-04 -2.342231338843703270e-03 -7.901068893261253834e-04 -2.050971961580216885e-04
3.124000000000000000e+03 3.556006240844726562e+01 1.077079868316650391e+01 -7.707577664405107498e-03 -2.438051858916878700e-03 -3.043688833713531494e-03 3.211244707927107811e-03
3.125000000000000000e+03 3.394522476196289062e+01 1.311269664764404297e+01 -1.314315851777791977e-02 -4.417516291141510010e-03 -5.268202628940343857e-03 1.161772105842828751e-02
3.126000000000000000e+03 1.455123233795166016e+01 1.064002132415771484e+01 -2.368121931795030832e-04 2.643748593982309103e-04 8.268805686384439468e-06 1.345774071523919702e-04
3.127000000000000000e+03 1.729100990295410156e+01 7.161320209503173828e+00 2.140386823157314211e-05 6.762239354429766536e-05 2.670787762326654047e-05 1.836268347688019276e-05
3.128000000000000000e+03 1.661151123046875000e+01 7.566670417785644531e+00 -4.783913482242496684e-06 7.825322245480492711e-05 2.204079282819293439e-05 2.975676397909410298e-05
3.129000000000000000e+03 1.299220371246337891e+01 1.266474723815917969e+01 6.024054164299741387e-05 2.831360907293856144e-04 1.030129933496937156e-04 3.362046845722943544e-04
3.130000000000000000e+03 1.815844154357910156e+01 5.043516159057617188e+00 1.864194018708076328e-05 7.106987322913482785e-05 2.691354347916785628e-05 7.879822987888474017e-06
3.131000000000000000e+03 3.472261810302734375e+01 1.303493595123291016e+01 -1.713917963206768036e-02 -2.823539311066269875e-03 -5.988815799355506897e-03 1.087391376495361328e-02
3.132000000000000000e+03 3.400642395019531250e+01 1.267646312713623047e+01 -1.028842106461524963e-02 -2.961469581350684166e-03 -3.974967170506715775e-03 8.509841747581958771e-03
3.133000000000000000e+03 3.497391128540039062e+01 8.048857688903808594e+00 6.178125040605664253e-04 1.055371249094605446e-03 5.019551608711481094e-04 -7.270129863172769547e-04
3.134000000000000000e+03 3.532009124755859375e+01 7.003012180328369141e+00 -1.014581182971596718e-03 -1.055706175975501537e-03 -6.210862193256616592e-04 -9.606354869902133942e-04
3.135000000000000000e+03 3.462254333496093750e+01 1.362022876739501953e+01 -2.057738602161407471e-02 -3.238612553104758263e-03 -7.144799456000328064e-03 1.629782840609550476e-02
3.136000000000000000e+03 1.363701152801513672e+01 2.102355957031250000e+01 -1.037191320210695267e-02 1.687597599811851978e-03 -2.605294575914740562e-03 -9.936765127349644899e-05
3.137000000000000000e+03 3.379651260375976562e+01 1.764753341674804688e+01 -5.852023512125015259e-02 -5.705097224563360214e-03 -1.926760002970695496e-02 4.404041171073913574e-02
3.138000000000000000e+03 1.199416065216064453e+01 1.578809452056884766e+01 1.816285475797485560e-05 -3.240455407649278641e-04 -9.176480671158060431e-05 6.630419520661234856e-04
3.139000000000000000e+03 3.188261795043945312e+01 2.146098327636718750e+01 -9.678260236978530884e-02 -1.496862433850765228e-02 -3.352536633610725403e-02 3.837535902857780457e-02
3.140000000000000000e+03 2.107415390014648438e+01 2.452273368835449219e+01 -6.174053251743316650e-02 -1.439398340880870819e-02 -2.284035459160804749e-02 3.112073801457881927e-02
3.141000000000000000e+03 2.690465354919433594e+01 -4.398091793060302734e+00 -8.001479506492614746e-01 -1.118654832243919373e-01 -2.736040353775024414e-01 -9.743735790252685547e-01
3.142000000000000000e+03 1.299007606506347656e+01 1.434237480163574219e+01 3.311163163743913174e-04 5.329878767952322960e-04 2.592312521301209927e-04 5.133673548698425293e-04
3.143000000000000000e+03 1.210693168640136719e+01 1.837460327148437500e+01 -1.538482960313558578e-03 -6.918265135027468204e-04 -6.690928712487220764e-04 9.379663242725655437e-05
3.144000000000000000e+03 1.283249568939208984e+01 1.472425365447998047e+01 2.011968899751082063e-05 2.916642115451395512e-04 9.353517089039087296e-05 6.284079281613230705e-04
3.145000000000000000e+03 1.241388034820556641e+01 1.548738002777099609e+01 6.755934737157076597e-05 2.188574580941349268e-04 8.592504309490323067e-05 6.224189419299364090e-04
3.146000000000000000e+03 1.730175399780273438e+01 2.368193244934082031e+01 -3.699671849608421326e-02 -3.346581943333148956e-04 -1.119941286742687225e-02 1.248390693217515945e-02
3.147000000000000000e+03 1.825375175476074219e+01 2.394299697875976562e+01 -4.178020730614662170e-02 -2.099088858813047409e-03 -1.316378824412822723e-02 1.558153610676527023e-02
3.148000000000000000e+03 1.439527797698974609e+01 9.929944992065429688e+00 -3.308221494080498815e-05 1.149767194874584675e-04 2.456834954500664026e-05 1.470960851293057203e-04
3.149000000000000000e+03 2.670947265625000000e+01 -6.078109264373779297e+00 -2.236645519733428955e-01 -2.234405130147933960e-01 -1.341315209865570068e-01 -9.684668183326721191e-01
3.150000000000000000e+03 1.622940254211425781e+01 7.730464458465576172e+00 2.586693335615564138e-05 1.208293087984202430e-05 1.138495917984982952e-05 -2.322158070455770940e-05
3.151000000000000000e+03 1.268355941772460938e+01 1.950615119934082031e+01 -2.907152753323316574e-03 -7.763314351905137300e-05 -8.954357472248375416e-04 -5.384989199228584766e-04
3.152000000000000000e+03 2.348784065246582031e+01 2.517639350891113281e+01 -5.943543836474418640e-02 -2.734854072332382202e-02 -2.603519335389137268e-02 4.122040048241615295e-02
3.153000000000000000e+03 2.532157135009765625e+01 2.444907951354980469e+01 -7.340134680271148682e-02 -3.264157846570014954e-02 -3.181287646293640137e-02 4.490467905998229980e-02
3.154000000000000000e+03 2.522649192810058594e+01 2.384955024719238281e+01 -8.874218165874481201e-02 -3.092349879443645477e-02 -3.589970245957374573e-02 4.657612368464469910e-02
3.155000000000000000e+03 4.367877197265625000e+01 -1.970723152160644531e+01 -1.745204254984855652e-02 4.948784828186035156e+00 1.479399800300598145e+00 5.851382017135620117e-01
3.156000000000000000e+03 3.573632049560546875e+01 7.839721679687500000e+00 -1.267527550226077437e-04 -1.236627809703350067e-03 -4.090141737833619118e-04 -3.761736443266272545e-04
3.157000000000000000e+03 3.248158645629882812e+01 -5.320822238922119141e+00 -9.117203950881958008e-01 6.536696553230285645e-01 -7.741521298885345459e-02 -3.599873185157775879e-01
3.158000000000000000e+03 3.184309196472167969e+01 -4.238299846649169922e+00 -1.451676964759826660e+00 4.083607792854309082e-01 -3.129948675632476807e-01 -4.427377879619598389e-01
3.159000000000000000e+03 1.390781116485595703e+01 2.194733238220214844e+01 -1.473734434694051743e-02 2.690770896151661873e-03 -3.613971872255206108e-03 1.596649060957133770e-03
3.160000000000000000e+03 1.262604522705078125e+01 1.302999305725097656e+01 1.778780278982594609e-04 2.753898443188518286e-04 1.359803718514740467e-04 4.839535686187446117e-04
3.161000000000000000e+03 2.328693389892578125e+01 2.357902526855468750e+01 -9.276443719863891602e-02 -1.831534132361412048e-02 -3.332393616437911987e-02 3.377000242471694946e-02
3.162000000000000000e+03 1.182945442199707031e+01 1.788572502136230469e+01 -5.591679946519434452e-04 -4.625254659913480282e-04 -3.065080381929874420e-04 3.500500315567478538e-05
3.163000000000000000e+03 1.346375846862792969e+01 1.165000724792480469e+01 1.032689579005818814e-05 2.930491464212536812e-04 9.101281466428190470e-05 3.094979329034686089e-04
3.164000000000000000e+03 1.670842552185058594e+01 6.978467464447021484e+00 1.046886063704732805e-05 5.991357829771004617e-05 2.111473258992191404e-05 2.343990672670770437e-05
3.165000000000000000e+03 2.817973136901855469e+01 2.394989204406738281e+01 -7.109166681766510010e-02 -4.936410486698150635e-02 -3.613673150539398193e-02 4.446769878268241882e-02
3.166000000000000000e+03 2.793419837951660156e+01 2.254501342773437500e+01 -1.135616153478622437e-01 -5.624363198876380920e-02 -5.094157531857490540e-02 6.043558940291404724e-02
3.167000000000000000e+03 3.523445892333984375e+01 8.922724723815917969e+00 -1.432905264664441347e-04 -1.257956173503771424e-04 -8.072584751062095165e-05 -1.090982928872108459e-03
3.168000000000000000e+03 2.031435585021972656e+01 2.517314720153808594e+01 -4.969668015837669373e-02 -1.279706880450248718e-02 -1.874812506139278412e-02 3.233447670936584473e-02
3.169000000000000000e+03 1.387890148162841797e+01 1.065881252288818359e+01 -9.875076648313552141e-05 2.826233976520597935e-04 5.516178862308152020e-05 1.288194180233404040e-04
3.170000000000000000e+03 2.673362350463867188e+01 -5.093504905700683594e+00 -5.494996905326843262e-01 -1.495921462774276733e-01 -2.097275555133819580e-01 -1.018438935279846191e+00
3.171000000000000000e+03 1.480442047119140625e+01 2.279820442199707031e+01 -2.198536321520805359e-02 2.599867060780525208e-03 -5.815648939460515976e-03 5.063141696155071259e-03
3.172000000000000000e+03 1.785017776489257812e+01 2.305668830871582031e+01 -4.189742729067802429e-02 4.095311742275953293e-04 -1.244636904448270798e-02 7.213247008621692657e-03
3.173000000000000000e+03 1.530063056945800781e+01 4.954583644866943359e+00 1.064897219293925446e-06 -1.104746570490533486e-05 -2.994770511577371508e-06 2.270331424369942397e-05
3.174000000000000000e+03 1.949042701721191406e+01 2.506700706481933594e+01 -4.627851024270057678e-02 -8.678402751684188843e-03 -1.648707501590251923e-02 2.839484438300132751e-02
3.175000000000000000e+03 3.621878433227539062e+01 7.166663646697998047e+00 -9.780026739463210106e-04 -1.589334337040781975e-03 -7.702010916545987129e-04 -7.505804533138871193e-04
3.176000000000000000e+03 3.564085006713867188e+01 7.395639419555664062e+00 1.819872064515948296e-03 -3.011158551089465618e-04 4.556268686428666115e-04 1.250082568731158972e-04
3.177000000000000000e+03 1.351320838928222656e+01 1.093894481658935547e+01 4.990203160559758544e-05 2.124628954334184527e-04 7.870947592891752720e-05 2.456040238030254841e-04
3.178000000000000000e+03 2.107056427001953125e+01 2.534553527832031250e+01 -5.098454281687736511e-02 -1.665310934185981750e-02 -2.029129490256309509e-02 3.544488549232482910e-02
3.179000000000000000e+03 3.658980941772460938e+01 -4.761485576629638672e+00 -1.796090126037597656e+00 7.194916009902954102e-01 -3.229795694351196289e-01 1.792978644371032715e-01
3.180000000000000000e+03 3.744654083251953125e+01 -4.239629268646240234e+00 -2.195768356323242188e+00 7.224064469337463379e-01 -4.420086145401000977e-01 3.169855773448944092e-01
3.181000000000000000e+03 1.396860027313232422e+01 2.127559852600097656e+01 -1.206688117235898972e-02 2.453797729685902596e-03 -2.883924869820475578e-03 -3.003687888849526644e-04
3.182000000000000000e+03 1.328432369232177734e+01 2.181054687500000000e+01 -1.208850275725126266e-02 1.958795590326189995e-03 -3.038912080228328705e-03 1.505755819380283356e-03
3.183000000000000000e+03 3.061608505249023438e+01 2.165830802917480469e+01 -1.053018644452095032e-01 -4.145477712154388428e-02 -4.402699321508407593e-02 4.087769612669944763e-02
3.184000000000000000e+03 3.079403114318847656e+01 2.124734497070312500e+01 -1.069457828998565674e-01 -4.010580480098724365e-02 -4.411547631025314331e-02 4.463198781013488770e-02
3.185000000000000000e+03 2.690393257141113281e+01 2.454518890380859375e+01 -6.658034026622772217e-02 -4.383702203631401062e-02 -3.312520682811737061e-02 4.501450434327125549e-02
3.186000000000000000e+03 2.935859680175781250e+01 2.251627349853515625e+01 -9.725640714168548584e-02 -5.446884036064147949e-02 -4.551757499575614929e-02 4.187222570180892944e-02
3.187000000000000000e+03 1.871132659912109375e+01 2.387267875671386719e+01 -4.761553928256034851e-02 -2.061830600723624229e-03 -1.490321103483438492e-02 1.636749319732189178e-02
3.188000000000000000e+03 2.430759429931640625e+01 -5.043231964111328125e+00 -6.058355569839477539e-01 -1.888581514358520508e-01 -2.384081035852432251e-01 -8.624941706657409668e-01
3.189000000000000000e+03 4.026261520385742188e+01 -1.822824859619140625e+01 1.441774964332580566e+00 2.079146862030029297e+00 1.056276559829711914e+00 9.379860162734985352e-01
3.190000000000000000e+03 1.099359512329101562e+01 -5.630487442016601562e+00 -1.927510350942611694e-01 -1.283649206161499023e-01 -9.633479267358779907e-02 6.677585188299417496e-03
3.191000000000000000e+03 3.105028533935546875e+01 2.185214996337890625e+01 -9.578832983970642090e-02 -3.023205697536468506e-02 -3.780611604452133179e-02 3.529753908514976501e-02
3.192000000000000000e+03 1.481615161895751953e+01 5.684213161468505859e+00 4.395099676912650466e-05 3.636109249782748520e-05 2.409362605249043554e-05 4.121595338801853359e-05
3.193000000000000000e+03 1.325342178344726562e+01 5.655352115631103516e+00 2.991721521539147943e-05 -4.493806045502424240e-05 -4.506253389990888536e-06 7.860275218263268471e-05
3.194000000000000000e+03 1.184365844726562500e+01 6.002928733825683594e+00 5.669640086125582457e-05 -3.494972406770102680e-05 6.524003310914849862e-06 8.623897156212478876e-05
3.195000000000000000e+03 1.589403629302978516e+01 5.479547023773193359e+00 -2.189274891861714423e-05 8.455281204078346491e-06 -4.031240223412169144e-06 3.255391857237555087e-05
3.196000000000000000e+03 1.260297393798828125e+01 5.787947654724121094e+00 2.578429121058434248e-05 5.794834578409790993e-05 2.511979073460679501e-05 2.717311144806444645e-05
3.197000000000000000e+03 4.015700912475585938e+01 -1.587403869628906250e+01 2.224611520767211914e+00 1.353703975677490234e+00 1.073494672775268555e+00 -3.524345755577087402e-01
3.198000000000000000e+03 3.482742309570312500e+01 -5.139206886291503906e+00 -1.282866120338439941e+00 6.701010465621948242e-01 -1.838295012712478638e-01 5.514117330312728882e-02
3.199000000000000000e+03 3.424880599975585938e+01 -4.441546916961669922e+00 -1.491189599037170410e+00 5.716241002082824707e-01 -2.758696675300598145e-01 9.702946990728378296e-02
3.200000000000000000e+03 4.243621444702148438e+01 -1.490688419342041016e+01 3.284635066986083984e+00 2.865306854248046875e+00 1.844982624053955078e+00 -6.952077150344848633e-01
3.201000000000000000e+03 3.995523834228515625e+01 -1.414714431762695312e+01 1.889354348182678223e+00 1.106802105903625488e+00 8.988469243049621582e-01 -1.158327937126159668e+00
3.202000000000000000e+03 7.654094219207763672e+00 -5.332456588745117188e+00 -9.529330581426620483e-02 -3.020660392940044403e-02 -3.764997422695159912e-02 7.069409638643264771e-02
3.203000000000000000e+03 9.229079246520996094e+00 -6.274755954742431641e+00 -1.993857324123382568e-01 -7.080084085464477539e-02 -8.105597645044326782e-02 3.138961642980575562e-02
3.204000000000000000e+03 4.886912155151367188e+01 -1.092093753814697266e+01 5.833939313888549805e-01 7.051911354064941406e-01 3.865755200386047363e-01 2.111419677734375000e+00
3.205000000000000000e+03 4.547435379028320312e+01 -1.343094635009765625e+01 2.148873567581176758e+00 3.089474916458129883e+00 1.571504592895507812e+00 1.615166544914245605e+00
3.206000000000000000e+03 1.008547306060791016e+01 5.442340850830078125e+00 1.410840195603668690e-04 2.934843905677553266e-05 5.112973667564801872e-05 8.078990504145622253e-06
3.207000000000000000e+03 6.907219886779785156e+00 6.425157546997070312e+00 2.941492130048573017e-05 -1.120291126426309347e-04 -2.478425813023932278e-05 3.687482603709213436e-05
3.208000000000000000e+03 3.613520812988281250e+01 -5.271636486053466797e+00 -1.462715983390808105e+00 7.118567824363708496e-01 -2.252577692270278931e-01 8.907967805862426758e-02
3.209000000000000000e+03 2.869105720520019531e+01 2.376811599731445312e+01 -7.215567678213119507e-02 -5.130676925182342529e-02 -3.703873232007026672e-02 4.249121993780136108e-02
3.210000000000000000e+03 2.939636421203613281e+01 2.422563743591308594e+01 -5.819612368941307068e-02 -4.081802442669868469e-02 -2.970424480736255646e-02 3.334575518965721130e-02
3.211000000000000000e+03 4.315660858154296875e+01 -2.096093368530273438e+01 8.844184130430221558e-02 4.130373477935791016e+00 1.265644550323486328e+00 5.244799852371215820e-01
3.212000000000000000e+03 3.535755920410156250e+01 -4.373631477355957031e+00 -1.710034251213073730e+00 6.382483839988708496e-01 -3.215357661247253418e-01 2.518236637115478516e-01
3.213000000000000000e+03 3.947709655761718750e+01 -1.337335109710693359e+01 1.524176836013793945e+00 8.444824814796447754e-01 7.105977535247802734e-01 -1.401029109954833984e+00
3.214000000000000000e+03 3.878594970703125000e+01 -1.319530963897705078e+01 1.358787655830383301e+00 5.835831761360168457e-01 5.827112197875976562e-01 -1.456747055053710938e+00
3.215000000000000000e+03 1.505201721191406250e+01 2.412597656250000000e+01 -2.446825616061687469e-02 1.538045587949454784e-03 -6.879063323140144348e-03 1.111228764057159424e-02
3.216000000000000000e+03 2.788764572143554688e+01 -5.319515228271484375e+00 -5.412572622299194336e-01 9.082621335983276367e-02 -1.351293176412582397e-01 -1.052669048309326172e+00
3.217000000000000000e+03 4.728152084350585938e+01 -1.280265522003173828e+01 2.098896980285644531e+00 1.377567648887634277e+00 1.042939424514770508e+00 1.963721990585327148e+00
3.218000000000000000e+03 2.897680091857910156e+01 -5.655438423156738281e+00 -4.678640663623809814e-01 3.303615450859069824e-01 -4.125075787305831909e-02 -1.004505276679992676e+00
3.219000000000000000e+03 2.973081779479980469e+01 -5.849251270294189453e+00 -3.822784721851348877e-01 5.562440752983093262e-01 5.218967795372009277e-02 -1.004496693611145020e+00
3.220000000000000000e+03 2.823701095581054688e+01 2.337141990661621094e+01 -8.788486570119857788e-02 -5.384844169020652771e-02 -4.251999408006668091e-02 4.831095039844512939e-02
3.221000000000000000e+03 2.802696609497070312e+01 2.474066734313964844e+01 -5.494846776127815247e-02 -4.149059206247329712e-02 -2.893171831965446472e-02 3.927049040794372559e-02
3.222000000000000000e+03 1.686627006530761719e+01 5.532246112823486328e+00 -3.456985723460093141e-05 -1.163076103694038466e-05 -1.386018539051292464e-05 -1.429146868758834898e-05
3.223000000000000000e+03 3.829973983764648438e+01 -4.331936836242675781e+00 -2.389425039291381836e+00 6.905718445777893066e-01 -5.096559524536132812e-01 2.563896179199218750e-01
3.224000000000000000e+03 3.193281364440917969e+01 -5.589069366455078125e+00 -6.711577177047729492e-01 7.327165007591247559e-01 1.846762374043464661e-02 -4.606795907020568848e-01
3.225000000000000000e+03 3.111340141296386719e+01 -5.446879386901855469e+00 -6.754145622253417969e-01 7.474098205566406250e-01 2.159857936203479767e-02 -6.621422171592712402e-01
3.226000000000000000e+03 5.342404842376708984e+00 -5.815216064453125000e+00 -6.537959724664688110e-02 7.863709703087806702e-03 -1.725476607680320740e-02 7.880304008722305298e-02
3.227000000000000000e+03 9.209462165832519531e+00 -7.948819637298583984e+00 -3.261182308197021484e-01 -1.041475310921669006e-01 -1.290797293186187744e-01 -3.881238028407096863e-02
3.228000000000000000e+03 6.350581169128417969e+00 5.196761131286621094e+00 -3.364993608556687832e-05 -1.829045868362300098e-05 -1.558211806695908308e-05 -4.578488733386620879e-05
3.229000000000000000e+03 5.865967750549316406e+00 6.531716346740722656e+00 1.497780467616394162e-04 -5.507266109816555399e-07 4.476819594856351614e-05 -1.353247789666056633e-04
3.230000000000000000e+03 1.972224044799804688e+01 -4.473273277282714844e+00 -4.067367315292358398e-01 -1.926298439502716064e-01 -1.798099726438522339e-01 -5.288227796554565430e-01
3.231000000000000000e+03 3.877235412597656250e+01 -7.491467475891113281e+00 -1.075769305229187012e+00 5.311341881752014160e-01 -1.633905470371246338e-01 -6.314672827720642090e-01
3.232000000000000000e+03 1.776336860656738281e+01 2.394943428039550781e+01 -3.996841982007026672e-02 -2.550898061599582434e-04 -1.206705253571271896e-02 1.433037500828504562e-02
3.233000000000000000e+03 1.787196159362792969e+01 2.343857955932617188e+01 -4.098782315850257874e-02 -4.814448475372046232e-04 -1.244078017771244049e-02 1.163309253752231598e-02
3.234000000000000000e+03 4.144011688232421875e+01 -2.062657737731933594e+01 4.397065937519073486e-01 3.209092140197753906e+00 1.094639658927917480e+00 1.108346343040466309e+00
3.235000000000000000e+03 4.055824661254882812e+01 -2.061103439331054688e+01 5.378121733665466309e-01 2.644169092178344727e+00 9.545943737030029297e-01 1.160143017768859863e+00
3.236000000000000000e+03 8.348643302917480469e+00 -7.387994766235351562e+00 -2.486798614263534546e-01 -7.094767689704895020e-02 -9.588825702667236328e-02 1.697124331258237362e-03
3.237000000000000000e+03 2.123499298095703125e+01 -6.355600357055664062e+00 -5.724409818649291992e-01 -2.676979005336761475e-01 -2.520416676998138428e-01 -7.044163942337036133e-01
3.238000000000000000e+03 1.956604003906250000e+01 -5.101881027221679688e+00 -4.384591877460479736e-01 -2.395282536745071411e-01 -2.033962309360504150e-01 -5.523684620857238770e-01
3.239000000000000000e+03 7.477767944335937500e+01 -2.203936195373535156e+01 -1.030586892738938332e-03 -1.081238733604550362e-03 -6.335476646199822426e-04 1.386921649100258946e-04
3.240000000000000000e+03 6.067129611968994141e+00 8.580532073974609375e+00 2.268025127705186605e-04 -6.869270873721688986e-05 4.743293902720324695e-05 -1.609289611224085093e-04
3.241000000000000000e+03 4.904999732971191406e+00 7.709183216094970703e+00 1.810283138183876872e-04 6.127413143985904753e-06 5.614671681541949511e-05 -1.751956442603841424e-04
3.242000000000000000e+03 3.829771423339843750e+01 1.844990158081054688e+01 -7.652247697114944458e-02 3.749991580843925476e-02 -1.170676946640014648e-02 2.386071719229221344e-02
3.243000000000000000e+03 3.861578750610351562e+01 1.734409713745117188e+01 -7.414625585079193115e-02 3.870887309312820435e-02 -1.063121482729911804e-02 1.442901883274316788e-02
3.244000000000000000e+03 7.036718845367431641e+00 5.501386642456054688e+00 2.176801644964143634e-04 -3.854951864923350513e-05 5.373919339035637677e-05 -8.327412069775164127e-05
3.245000000000000000e+03 8.693979263305664062e+00 5.473712921142578125e+00 1.087807613657787442e-04 2.629527898534433916e-06 3.342308627907186747e-05 -6.118076998973265290e-05
3.246000000000000000e+03 1.401912117004394531e+01 -5.406918048858642578e+00 -2.345525324344635010e-01 -2.241960614919662476e-01 -1.376245766878128052e-01 -1.395994126796722412e-01
3.247000000000000000e+03 1.605331993103027344e+01 -6.465775012969970703e+00 -4.021322429180145264e-01 -3.874282836914062500e-01 -2.368681579828262329e-01 -3.244552612304687500e-01
3.248000000000000000e+03 1.329112243652343750e+01 -5.465804100036621094e+00 -2.243600785732269287e-01 -2.013600915670394897e-01 -1.277160495519638062e-01 -9.863589704036712646e-02
3.249000000000000000e+03 4.025986862182617188e+01 -1.888062858581542969e+01 1.155184864997863770e+00 2.254076480865478516e+00 1.022778391838073730e+00 1.095918536186218262e+00
3.250000000000000000e+03 6.955952453613281250e+01 -9.213303565979003906e+00 -7.183322310447692871e-01 2.325577735900878906e-01 -1.457323431968688965e-01 -6.203650236129760742e-01
3.251000000000000000e+03 2.642243576049804688e+01 2.479207229614257812e+01 -6.595316529273986816e-02 -3.939582034945487976e-02 -3.160469606518745422e-02 4.652460664510726929e-02
3.252000000000000000e+03 2.484921264648437500e+01 2.415384292602539062e+01 -8.176811039447784424e-02 -3.012720681726932526e-02 -3.356859460473060608e-02 4.429881647229194641e-02
3.253000000000000000e+03 4.330433273315429688e+01 -2.008065223693847656e+01 7.080756872892379761e-02 4.578553676605224609e+00 1.394808411598205566e+00 6.475557684898376465e-01
3.254000000000000000e+03 3.432130432128906250e+01 1.408214759826660156e+01 -2.180858701467514038e-02 -4.098637495189905167e-03 -7.772167678922414780e-03 1.840725354850292206e-02
3.255000000000000000e+03 3.456167602539062500e+01 -6.808264732360839844e+00 -3.173679411411285400e-01 7.605405449867248535e-01 1.329517811536788940e-01 -2.762703001499176025e-01
3.256000000000000000e+03 1.884257507324218750e+01 -6.037790298461914062e+00 -4.669035673141479492e-01 -3.243257105350494385e-01 -2.373687773942947388e-01 -5.494232177734375000e-01
3.257000000000000000e+03 7.080658912658691406e+00 1.653057670593261719e+01 -1.769139998941682279e-05 -8.799963979981839657e-04 -2.693063579499721527e-04 -3.052957763429731131e-04
3.258000000000000000e+03 6.033308982849121094e+00 1.749742889404296875e+01 -2.166843041777610779e-04 -7.917052716948091984e-04 -3.025168844033032656e-04 -2.811493759509176016e-04
3.259000000000000000e+03 6.198887348175048828e+00 1.953541564941406250e+01 -1.140816486440598965e-03 -9.910908993333578110e-04 -6.395722157321870327e-04 2.818161156028509140e-04
3.260000000000000000e+03 6.673566818237304688e+00 2.150925254821777344e+01 -2.519426867365837097e-03 -1.271071261726319790e-03 -1.137149520218372345e-03 1.458473387174308300e-03
3.261000000000000000e+03 5.525899505615234375e+01 -9.689818382263183594e+00 -7.177233695983886719e-01 1.313163280487060547e+00 1.786319613456726074e-01 1.742187500000000000e+00
3.262000000000000000e+03 5.318817138671875000e+00 -8.230591773986816406e+00 -1.472468227148056030e-01 -1.384659786708652973e-03 -4.458944499492645264e-02 -8.384407847188413143e-04
3.263000000000000000e+03 7.686431884765625000e+00 -6.623131752014160156e+00 -1.753156036138534546e-01 -3.957502171397209167e-02 -6.446718424558639526e-02 3.784767165780067444e-02
3.264000000000000000e+03 4.981258010864257812e+01 -1.022343158721923828e+01 1.163121033459901810e-02 5.630601048469543457e-01 1.724073886871337891e-01 2.259216785430908203e+00
3.265000000000000000e+03 3.771890258789062500e+01 -1.187607765197753906e+01 1.141199350357055664e+00 3.240888118743896484e-01 4.395864605903625488e-01 -1.472408413887023926e+00
3.266000000000000000e+03 3.740130233764648438e+01 -8.876030921936035156e+00 1.376334279775619507e-01 4.775931835174560547e-01 1.845679879188537598e-01 -9.082925319671630859e-01
3.267000000000000000e+03 3.841707992553710938e+01 -1.216128635406494141e+01 1.185511231422424316e+00 4.537491798400878906e-01 4.917781054973602295e-01 -1.520404458045959473e+00
3.268000000000000000e+03 4.035275650024414062e+01 -8.802150726318359375e+00 -6.475546956062316895e-01 6.261733770370483398e-01 -6.414403673261404037e-03 -9.040808677673339844e-01
3.269000000000000000e+03 5.611486434936523438e+00 -6.458083152770996094e+00 -1.011974886059761047e-01 -1.980846514925360680e-03 -3.095350041985511780e-02 5.908941105008125305e-02
3.270000000000000000e+03 3.639520263671875000e+01 7.778725147247314453e+00 1.345588359981775284e-03 -1.167195965535938740e-03 5.351771324058063328e-05 -1.299846626352518797e-04
3.271000000000000000e+03 7.179608917236328125e+01 -1.539208292961120605e-01 8.193676173686981201e-02 4.128557071089744568e-02 3.696670010685920715e-02 -8.913742899894714355e-01
3.272000000000000000e+03 7.277588653564453125e+01 -3.848638296127319336e+00 -1.341729015111923218e-01 -1.631911844015121460e-01 -8.920922875404357910e-02 -8.730033636093139648e-01
3.273000000000000000e+03 1.000226211547851562e+01 -1.233873271942138672e+01 -6.029429435729980469e-01 -2.079401463270187378e-01 -2.432649284601211548e-01 -3.675272464752197266e-01
3.274000000000000000e+03 3.275240707397460938e+01 -6.056178092956542969e+00 -4.457908868789672852e-01 8.202100992202758789e-01 1.123257651925086975e-01 -3.613186478614807129e-01
3.275000000000000000e+03 7.210520172119140625e+01 -2.412585067749023438e+01 -3.757550381124019623e-03 -9.399991249665617943e-04 -1.409264863468706608e-03 8.050615433603525162e-04
3.276000000000000000e+03 2.385203170776367188e+01 -5.768109321594238281e+00 -5.334800481796264648e-01 -2.267459332942962646e-01 -2.280678004026412964e-01 -8.242616653442382812e-01
3.277000000000000000e+03 3.640411758422851562e+01 8.460935592651367188e+00 -1.437106402590870857e-03 -1.087330281734466553e-03 -7.573309703730046749e-04 2.125757600879296660e-04
3.278000000000000000e+03 7.877645492553710938e+00 6.378518581390380859e+00 1.677403633948415518e-04 -2.761952237051445991e-05 4.203624848742038012e-05 -6.820386624895036221e-05
3.279000000000000000e+03 1.272482776641845703e+01 -6.303905010223388672e+00 -2.902960479259490967e-01 -2.242389023303985596e-01 -1.543604880571365356e-01 -8.451572805643081665e-02
3.280000000000000000e+03 5.873923301696777344e+00 -1.035000419616699219e+01 -2.308024317026138306e-01 -5.353539064526557922e-02 -8.530134707689285278e-02 -1.311004906892776489e-01
3.281000000000000000e+03 6.690172576904296875e+01 6.607995986938476562e+00 6.892536282539367676e-01 2.515125751495361328e+00 9.613137841224670410e-01 -1.184351220726966858e-01
3.282000000000000000e+03 3.710280227661132812e+01 9.936406135559082031e+00 -3.729061922058463097e-03 -2.900242805480957031e-03 -1.988791394978761673e-03 1.321350224316120148e-03
3.283000000000000000e+03 1.218100929260253906e+01 -6.704073429107666016e+00 -3.210528492927551270e-01 -2.149235904216766357e-01 -1.607929319143295288e-01 -7.021453976631164551e-02
3.284000000000000000e+03 1.360426998138427734e+01 -6.978507995605468750e+00 -3.877807557582855225e-01 -3.089580833911895752e-01 -2.090216577053070068e-01 -1.498880237340927124e-01
3.285000000000000000e+03 3.907254409790039062e+01 -1.067706394195556641e+01 6.041392087936401367e-01 5.783497691154479980e-01 3.547466695308685303e-01 -1.376774549484252930e+00
3.286000000000000000e+03 3.826131820678710938e+01 -6.776512145996093750e+00 -1.310507655143737793e+00 6.056023836135864258e-01 -2.114715874195098877e-01 -4.131198227405548096e-01
3.287000000000000000e+03 6.510277557373046875e+01 1.346112638711929321e-01 2.830869555473327637e-01 1.905235528945922852e+00 6.564967632293701172e-01 -1.422163844108581543e-01
3.288000000000000000e+03 6.258803558349609375e+01 1.189230561256408691e+00 5.806828737258911133e-01 2.746458530426025391e+00 9.981424212455749512e-01 6.328392028808593750e-01
3.289000000000000000e+03 4.567122650146484375e+01 -8.124615669250488281e+00 -1.852839946746826172e+00 2.005680799484252930e-01 -4.956815838813781738e-01 8.272511363029479980e-01
3.290000000000000000e+03 6.496799945831298828e+00 1.056639575958251953e+01 3.052842512261122465e-04 -2.343318046769127250e-04 2.128573578374926001e-05 -1.754780969349667430e-04
3.291000000000000000e+03 3.987837982177734375e+01 -7.742866039276123047e+00 -1.174034237861633301e+00 4.956857860088348389e-01 -2.035045325756072998e-01 -6.811848878860473633e-01
3.292000000000000000e+03 2.198600578308105469e+01 -3.730149269104003906e+00 -5.943974256515502930e-01 -8.948122709989547729e-02 -2.051635980606079102e-01 -6.264755129814147949e-01
3.293000000000000000e+03 2.208964538574218750e+01 -6.179530620574951172e+00 -5.524559617042541504e-01 -2.403696328401565552e-01 -2.378476709127426147e-01 -7.350016832351684570e-01
3.294000000000000000e+03 6.738761901855468750e+01 -7.890157222747802734e+00 -7.211213111877441406e-01 2.729419767856597900e-01 -1.344537883996963501e-01 -6.419752240180969238e-01
3.295000000000000000e+03 6.997676086425781250e+01 1.695494842529296875e+01 7.678694725036621094e-01 1.143542170524597168e+00 5.734234452247619629e-01 2.759222090244293213e-01
3.296000000000000000e+03 1.174457740783691406e+01 -9.832933425903320312e+00 -6.039600968360900879e-01 -2.841966748237609863e-01 -2.664470374584197998e-01 -1.806479543447494507e-01
3.297000000000000000e+03 1.239811611175537109e+01 -1.053432941436767578e+01 -7.482656240463256836e-01 -3.754413425922393799e-01 -3.371120989322662354e-01 -2.599553167819976807e-01
3.298000000000000000e+03 4.795924758911132812e+01 -1.127200317382812500e+01 7.774209380149841309e-01 8.509766459465026855e-01 4.885192811489105225e-01 1.932554125785827637e+00
3.299000000000000000e+03 6.866491317749023438e+00 1.144944858551025391e+01 2.055355871561914682e-04 -3.595997404772788286e-04 -4.621925108949653804e-05 -5.286373379931319505e-06
3.300000000000000000e+03 7.322098541259765625e+01 -8.389556884765625000e+00 -3.438324928283691406e-01 -5.683010816574096680e-02 -1.201987788081169128e-01 -6.214671730995178223e-01
3.301000000000000000e+03 1.746058082580566406e+01 -8.176225662231445312e+00 -6.402643918991088867e-01 -5.675669312477111816e-01 -3.623493909835815430e-01 -5.281288027763366699e-01
3.302000000000000000e+03 2.223979187011718750e+01 -5.414828777313232422e+00 -5.678765773773193359e-01 -2.006023675203323364e-01 -2.305436879396438599e-01 -7.296447157859802246e-01
3.303000000000000000e+03 8.979689598083496094e+00 -1.280042362213134766e+01 -4.952365159988403320e-01 -1.693491935729980469e-01 -1.993757188320159912e-01 -3.856420814990997314e-01
3.304000000000000000e+03 8.711529731750488281e+00 -1.427188682556152344e+01 -4.428451657295227051e-01 -2.028964161872863770e-01 -1.937224715948104858e-01 -5.245876312255859375e-01
3.305000000000000000e+03 7.279601287841796875e+01 -2.822029876708984375e+01 -7.368268445134162903e-03 -2.067514724330976605e-04 -2.272506011649966240e-03 6.799976807087659836e-03
3.306000000000000000e+03 8.195564270019531250e+00 -1.570649242401123047e+01 -3.043047487735748291e-01 -2.536389827728271484e-01 -1.673831194639205933e-01 -6.063015460968017578e-01
3.307000000000000000e+03 6.943273162841796875e+01 1.387038326263427734e+01 8.037459850311279297e-01 1.620187878608703613e+00 7.271801829338073730e-01 -4.561071097850799561e-02
3.308000000000000000e+03 7.721012115478515625e+01 -3.288200378417968750e+01 -2.014668425545096397e-04 -1.034189201891422272e-02 -3.163007786497473717e-03 6.754450034350156784e-03
3.309000000000000000e+03 1.466589164733886719e+01 -8.562027931213378906e+00 -6.000711917877197266e-01 -5.060062408447265625e-01 -3.318232297897338867e-01 -2.779260575771331787e-01
3.310000000000000000e+03 1.569260787963867188e+01 -7.148672103881835938e+00 -4.543630182743072510e-01 -4.209479093551635742e-01 -2.625932693481445312e-01 -3.105139732360839844e-01
3.311000000000000000e+03 3.810135650634765625e+01 -5.246210575103759766e+00 -2.009637594223022461e+00 6.568740606307983398e-01 -4.058291018009185791e-01 4.667797312140464783e-02
3.312000000000000000e+03 8.867949485778808594e+00 3.516384124755859375e+01 4.026907030493021011e-03 -1.566422916948795319e-02 -3.491196315735578537e-03 1.124403346329927444e-02
3.313000000000000000e+03 6.842879486083984375e+01 1.078328990936279297e+01 7.435670495033264160e-01 2.180063009262084961e+00 8.770890235900878906e-01 -1.415564417839050293e-01
3.314000000000000000e+03 7.670095062255859375e+01 2.047408294677734375e+01 9.803938865661621094e-02 -2.092842817306518555e+00 -5.984410643577575684e-01 4.140054285526275635e-01
3.315000000000000000e+03 7.226233005523681641e+00 1.930429458618164062e+01 -2.078633988276124001e-03 -1.180449384264647961e-03 -9.777250234037637711e-04 4.725060425698757172e-04
3.316000000000000000e+03 4.335366439819335938e+01 -8.659806251525878906e+00 -1.295264363288879395e+00 6.666423082351684570e-01 -1.885866075754165649e-01 -7.689234614372253418e-02
3.317000000000000000e+03 5.805233383178710938e+01 -7.149337291717529297e+00 -7.339127063751220703e-01 1.640790820121765137e+00 2.720634341239929199e-01 1.108614325523376465e+00
3.318000000000000000e+03 6.036180877685546875e+01 -6.066832065582275391e+00 -4.351283907890319824e-01 1.433406472206115723e+00 2.994834184646606445e-01 6.509366631507873535e-01
3.319000000000000000e+03 7.114066314697265625e+01 -2.766947174072265625e+01 -1.076213270425796509e-02 1.399710075929760933e-03 -2.808726858347654343e-03 5.010913126170635223e-03
3.320000000000000000e+03 7.254531097412109375e+01 -2.531893730163574219e+01 -4.741427954286336899e-03 9.767524898052215576e-04 -1.129402662627398968e-03 1.509495778009295464e-03
3.321000000000000000e+03 7.028241729736328125e+01 -3.422800827026367188e+01 -1.716459635645151138e-03 -2.491289051249623299e-03 -1.262324629351496696e-03 2.153438515961170197e-02
3.322000000000000000e+03 7.290873718261718750e+01 1.723183059692382812e+01 3.818090558052062988e-01 -4.212166368961334229e-01 -1.182226836681365967e-02 3.428184092044830322e-01
3.323000000000000000e+03 7.279702758789062500e+01 1.493801784515380859e+01 4.600608348846435547e-01 -3.297212123870849609e-01 3.910188749432563782e-02 1.190074905753135681e-01
3.324000000000000000e+03 9.539011001586914062e+00 -1.739421463012695312e+01 -1.879321187734603882e-01 -3.276693820953369141e-01 -1.546804457902908325e-01 -7.322835326194763184e-01
3.325000000000000000e+03 6.445702552795410156e+00 -1.950546836853027344e+01 1.340736262500286102e-02 -4.791545271873474121e-01 -1.397241503000259399e-01 -6.048091053962707520e-01
3.326000000000000000e+03 6.226918792724609375e+01 -1.467202186584472656e+00 3.208452761173248291e-01 2.004795789718627930e+00 6.976922750473022461e-01 4.150035083293914795e-01
3.327000000000000000e+03 1.954712867736816406e+01 -6.772925853729248047e+00 -5.573682785034179688e-01 -3.475780785083770752e-01 -2.714838981628417969e-01 -6.213806271553039551e-01
3.328000000000000000e+03 9.020553588867187500e+00 -2.482819175720214844e+01 3.298219442367553711e-01 -4.966357350349426270e-01 -5.004413425922393799e-02 -4.600570797920227051e-01
3.329000000000000000e+03 3.227433681488037109e+00 -2.464677619934082031e+01 6.431196630001068115e-02 -9.779219031333923340e-01 -2.740829885005950928e-01 -2.683290839195251465e-01
3.330000000000000000e+03 7.351155090332031250e+01 -4.328908443450927734e+00 -1.444500982761383057e-01 -2.812834978103637695e-01 -1.277200877666473389e-01 -8.283798098564147949e-01
3.331000000000000000e+03 7.142395782470703125e+01 1.001937389373779297e+00 1.576859951019287109e-01 1.565878540277481079e-01 9.428215771913528442e-02 -8.645960688591003418e-01
3.332000000000000000e+03 8.882722854614257812e+00 -3.130473899841308594e+01 1.947885006666183472e-01 -5.091680884361267090e-01 -9.431388229131698608e-02 -1.705814898014068604e-01
3.333000000000000000e+03 7.117298889160156250e+01 1.595861911773681641e+01 6.460334062576293945e-01 5.410197973251342773e-01 3.561159670352935791e-01 2.071181982755661011e-01
3.334000000000000000e+03 7.274229431152343750e+01 1.206110763549804688e+01 4.780857563018798828e-01 -2.513748109340667725e-01 6.801328063011169434e-02 -1.493873596191406250e-01
3.335000000000000000e+03 5.745818614959716797e+00 2.443567657470703125e+01 -2.714917762205004692e-03 -2.444850280880928040e-03 -1.547930412925779819e-03 3.694875165820121765e-03
3.336000000000000000e+03 6.851691436767578125e+01 2.479595565795898438e+01 3.267420455813407898e-02 1.466762304306030273e+00 4.498309493064880371e-01 7.367511987686157227e-01
3.337000000000000000e+03 7.437094116210937500e+01 -2.807778358459472656e+01 -4.371998365968465805e-03 -1.269551110453903675e-03 -1.692464924417436123e-03 5.481604486703872681e-03
3.338000000000000000e+03 4.302613067626953125e+01 -1.869425201416015625e+01 8.997592329978942871e-01 4.936062812805175781e+00 1.750746488571166992e+00 1.517496943473815918e+00
3.339000000000000000e+03 2.913582992553710938e+01 -2.789621114730834961e+00 -1.878805637359619141e+00 1.264814436435699463e-01 -5.256972312927246094e-01 -6.080543398857116699e-01
3.340000000000000000e+03 2.847359657287597656e+01 -4.332107543945312500e+00 -1.024027466773986816e+00 1.355329751968383789e-01 -2.665483355522155762e-01 -9.232514500617980957e-01
3.341000000000000000e+03 3.010230827331542969e+01 -2.819211244583129883e+00 -2.035510540008544922e+00 2.933524549007415771e-01 -5.226473808288574219e-01 -5.649346113204956055e-01
3.342000000000000000e+03 4.267483901977539062e+01 -1.785860061645507812e+01 2.266150474548339844e+00 4.313251972198486328e+00 1.973820686340332031e+00 1.862147569656372070e+00
3.343000000000000000e+03 4.203309249877929688e+01 -1.640612983703613281e+01 3.652763128280639648e+00 2.711182832717895508e+00 1.909183740615844727e+00 5.323038697242736816e-01
3.344000000000000000e+03 4.225364685058593750e+01 -1.756108856201171875e+01 2.713788270950317383e+00 3.582407951354980469e+00 1.888858914375305176e+00 1.584329485893249512e+00
3.345000000000000000e+03 4.264278411865234375e+01 -1.517383289337158203e+01 3.686762094497680664e+00 3.136497735977172852e+00 2.046977996826171875e+00 -5.584813356399536133e-01
3.346000000000000000e+03 4.213938140869140625e+01 -1.554740619659423828e+01 3.637431144714355469e+00 2.650994777679443359e+00 1.886527776718139648e+00 -3.124792873859405518e-01
3.347000000000000000e+03 4.106534957885742188e+01 -1.704290962219238281e+01 2.483705043792724609e+00 2.200991392135620117e+00 1.405408978462219238e+00 6.541094779968261719e-01
3.348000000000000000e+03 4.241431808471679688e+01 -1.792200088500976562e+01 2.145798206329345703e+00 3.930033922195434570e+00 1.822749614715576172e+00 1.691663146018981934e+00
3.349000000000000000e+03 4.743343353271484375e+01 -1.467179679870605469e+01 4.491107940673828125e+00 6.986175179481506348e-01 1.556917667388916016e+00 1.909961819648742676e+00
3.350000000000000000e+03 4.105759429931640625e+01 -1.428060054779052734e+01 2.296922683715820312e+00 1.719628453254699707e+00 1.204965353012084961e+00 -1.033947706222534180e+00
3.351000000000000000e+03 4.517837142944335938e+01 -1.333031654357910156e+01 1.907755494117736816e+00 3.232532262802124023e+00 1.542086362838745117e+00 1.337824583053588867e+00
3.352000000000000000e+03 4.301470947265625000e+01 -1.478596115112304688e+01 3.343649387359619141e+00 3.605995655059814453e+00 2.084893465042114258e+00 -6.668061017990112305e-01
3.353000000000000000e+03 3.474642562866210938e+01 1.587841320037841797e+01 -4.288159310817718506e-02 -9.355758811580017209e-05 -1.289254520088434219e-02 3.049404174089431763e-02
3.354000000000000000e+03 3.403818130493164062e+01 1.668103027343750000e+01 -4.739018157124519348e-02 -4.461567383259534836e-03 -1.555552426725625992e-02 3.641521558165550232e-02
3.355000000000000000e+03 4.638916778564453125e+01 -1.306011295318603516e+01 2.232369184494018555e+00 2.049119234085083008e+00 1.284446477890014648e+00 1.929218649864196777e+00
3.356000000000000000e+03 4.674278259277343750e+01 -1.394118309020996094e+01 3.407812118530273438e+00 1.705271959304809570e+00 1.533925175666809082e+00 2.213184833526611328e+00
3.357000000000000000e+03 4.755256271362304688e+01 -1.338272190093994141e+01 2.836396932601928711e+00 1.175100803375244141e+00 1.203449368476867676e+00 1.946854472160339355e+00
3.358000000000000000e+03 2.924397277832031250e+01 -3.385427474975585938e+00 -1.584339618682861328e+00 1.982590258121490479e-01 -4.158242046833038330e-01 -7.229673266410827637e-01
3.359000000000000000e+03 1.741716575622558594e+01 5.973395824432373047e+00 1.175124270957894623e-05 5.637355934595689178e-05 2.043744098045863211e-05 1.235267154697794467e-05
3.360000000000000000e+03 3.635436248779296875e+01 1.040649032592773438e+01 -3.975066822022199631e-03 -3.198527498170733452e-03 -2.152078319340944290e-03 1.793426228687167168e-03
3.361000000000000000e+03 3.416537857055664062e+01 1.594466590881347656e+01 -3.948667645454406738e-02 -5.119950044900178909e-03 -1.338198781013488770e-02 3.282060846686363220e-02
3.362000000000000000e+03 3.378542327880859375e+01 1.443237400054931641e+01 -2.023429051041603088e-02 -5.986983887851238251e-03 -7.866381667554378510e-03 1.982450671494007111e-02
3.363000000000000000e+03 3.438042831420898438e+01 1.330047988891601562e+01 -1.470172405242919922e-02 -2.257988089695572853e-03 -5.087913479655981064e-03 1.319647487252950668e-02
3.364000000000000000e+03 1.495150661468505859e+01 6.981083869934082031e+00 3.324026238260557875e-06 6.241139635676518083e-05 1.972062636923510581e-05 1.927998346218373626e-05
3.365000000000000000e+03 3.464718246459960938e+01 1.548320484161376953e+01 -3.994933143258094788e-02 8.855232590576633811e-05 -1.195823308080434799e-02 2.769209258258342743e-02
3.366000000000000000e+03 3.403107833862304688e+01 1.536827564239501953e+01 -3.268165141344070435e-02 -7.162107620388269424e-03 -1.195312757045030594e-02 2.803830988705158234e-02
3.367000000000000000e+03 1.482244682312011719e+01 8.021337509155273438e+00 -1.890219027700368315e-05 9.867197513813152909e-05 2.393093745922669768e-05 6.699399818899109960e-05
3.368000000000000000e+03 3.434148406982421875e+01 1.216304588317871094e+01 -8.926320821046829224e-03 -1.623604446649551392e-03 -3.164977533742785454e-03 5.323558114469051361e-03
3.369000000000000000e+03 4.212005615234375000e+01 -1.999376296997070312e+01 4.458636045455932617e-01 3.776734828948974609e+00 1.266779541969299316e+00 1.116302251815795898e+00
3.370000000000000000e+03 4.369790649414062500e+01 -1.913121604919433594e+01 9.747641533613204956e-02 5.394261360168457031e+00 1.647521376609802246e+00 8.599583506584167480e-01
3.371000000000000000e+03 3.644753265380859375e+01 9.823947906494140625e+00 -4.475730471312999725e-03 -7.949551218189299107e-04 -1.581205637194216251e-03 -1.582235126988962293e-04
3.372000000000000000e+03 2.848101043701171875e+01 -5.836191654205322266e+00 -2.498280853033065796e-01 1.878949552774429321e-01 -1.857993565499782562e-02 -1.112588405609130859e+00
3.373000000000000000e+03 1.265874958038330078e+01 1.510080528259277344e+01 3.940315800718963146e-04 2.658174489624798298e-04 1.979547087103128433e-04 5.848520086146891117e-04
3.374000000000000000e+03 1.162013721466064453e+01 1.433961677551269531e+01 -1.692369914962910116e-05 -6.895133265061303973e-05 -2.576250881247688085e-05 4.749495419673621655e-04
3.375000000000000000e+03 1.487230682373046875e+01 9.376388549804687500e+00 7.520592771470546722e-05 1.982078247237950563e-04 8.202412573155015707e-05 3.472589378361590207e-05
3.376000000000000000e+03 3.566295623779296875e+01 1.399385738372802734e+01 -2.882804907858371735e-02 4.050883930176496506e-03 -7.433149497956037521e-03 1.500945165753364563e-02
3.377000000000000000e+03 1.210072517395019531e+01 1.517823982238769531e+01 4.377525183372199535e-04 -3.283731057308614254e-04 3.281381941633298993e-05 5.029637250117957592e-04
3.378000000000000000e+03 1.864360046386718750e+01 2.522444343566894531e+01 -4.002697020769119263e-02 -7.089332677423954010e-03 -1.413489039987325668e-02 2.676607854664325714e-02
3.379000000000000000e+03 1.900408935546875000e+01 2.464198875427246094e+01 -4.471500590443611145e-02 -5.160729400813579559e-03 -1.496271975338459015e-02 2.289739064872264862e-02
3.380000000000000000e+03 1.049696826934814453e+01 1.734081840515136719e+01 -6.581192719750106335e-04 -1.013394794426858425e-03 -5.014542257413268089e-04 2.673511917237192392e-04
3.381000000000000000e+03 1.640238571166992188e+01 5.475586414337158203e+00 1.559691372676752508e-05 5.029782550991512835e-05 1.976842213480267674e-05 1.876122382782341447e-06
3.382000000000000000e+03 3.395869445800781250e+01 1.716789627075195312e+01 -5.543119087815284729e-02 -3.870790242217481136e-04 -1.674548164010047913e-02 4.066168516874313354e-02
3.383000000000000000e+03 2.970183944702148438e+01 -4.147628307342529297e+00 -1.288254261016845703e+00 3.361961543560028076e-01 -2.856174409389495850e-01 -8.097797632217407227e-01
3.384000000000000000e+03 3.055559158325195312e+01 -3.259460449218750000e+00 -1.905833721160888672e+00 3.301165401935577393e-01 -4.727151691913604736e-01 -5.829809308052062988e-01
3.385000000000000000e+03 1.439483642578125000e+01 9.608629226684570312e+00 4.197976522846147418e-05 2.542584843467921019e-04 8.887147851055487990e-05 2.749180202954448760e-05
3.386000000000000000e+03 1.422596836090087891e+01 1.039374065399169922e+01 6.988304812693968415e-05 1.998104125959798694e-04 8.090803748928010464e-05 1.535944611532613635e-04
3.387000000000000000e+03 1.219830989837646484e+01 1.267578506469726562e+01 1.259761338587850332e-04 2.300764754181727767e-05 4.469513442018069327e-05 3.738678933586925268e-04
3.388000000000000000e+03 3.661402511596679688e+01 1.280292129516601562e+01 -2.518794685602188110e-02 2.066785935312509537e-03 -6.936348509043455124e-03 7.032924797385931015e-03
3.389000000000000000e+03 3.516617202758789062e+01 1.279854011535644531e+01 -1.532704848796129227e-02 6.692780880257487297e-04 -4.397331271320581436e-03 1.014778297394514084e-02
3.390000000000000000e+03 1.228381443023681641e+01 1.343945884704589844e+01 9.006211621453985572e-05 7.335376722039654851e-05 4.902476575807668269e-05 4.500740906223654747e-04
3.391000000000000000e+03 1.182462596893310547e+01 1.310318279266357422e+01 2.704595099203288555e-04 -1.586194957781117409e-05 7.637926319148391485e-05 5.116426036693155766e-04
3.392000000000000000e+03 3.300822830200195312e+01 1.935111236572265625e+01 -8.163788914680480957e-02 -6.434246897697448730e-03 -2.642164193093776703e-02 4.910264164209365845e-02
3.393000000000000000e+03 3.280074310302734375e+01 1.820929145812988281e+01 -6.424869596958160400e-02 -1.625445298850536346e-02 -2.415094524621963501e-02 4.795423895120620728e-02
3.394000000000000000e+03 2.652812194824218750e+01 -4.605358123779296875e+00 -7.091159224510192871e-01 -1.333646476268768311e-01 -2.527441680431365967e-01 -9.827646613121032715e-01
3.395000000000000000e+03 3.270183563232421875e+01 1.980413818359375000e+01 -8.501229435205459595e-02 -8.586603216826915741e-03 -2.807966992259025574e-02 4.653771966695785522e-02
3.396000000000000000e+03 3.290837860107421875e+01 2.115987968444824219e+01 -8.708346635103225708e-02 -1.432201243005692959e-03 -2.655470184981822968e-02 3.822017833590507507e-02
3.397000000000000000e+03 1.248997116088867188e+01 2.007527732849121094e+01 -5.253798328340053558e-03 3.140836488455533981e-04 -1.481914427131414413e-03 -7.400340982712805271e-04
3.398000000000000000e+03 1.178491020202636719e+01 1.534843254089355469e+01 3.972641425207257271e-04 -8.349092240678146482e-05 9.413196676177904010e-05 3.740891406778246164e-04
3.399000000000000000e+03 2.454936790466308594e+01 2.466083335876464844e+01 -7.085063308477401733e-02 -2.855487167835235596e-02 -2.982165291905403137e-02 4.183672741055488586e-02
3.400000000000000000e+03 1.578379344940185547e+01 2.407629013061523438e+01 -2.659760415554046631e-02 6.773541099391877651e-04 -7.776075042784214020e-03 1.203511655330657959e-02
3.401000000000000000e+03 1.646382904052734375e+01 2.373748207092285156e+01 -3.147196769714355469e-02 4.533159954007714987e-04 -9.305595420300960541e-03 1.212435960769653320e-02
3.402000000000000000e+03 1.365392875671386719e+01 2.160939025878906250e+01 -1.317593734711408615e-02 1.903837197460234165e-03 -3.381630172953009605e-03 8.636389975436031818e-04
3.403000000000000000e+03 1.333862972259521484e+01 2.137284088134765625e+01 -1.130616385489702225e-02 1.939203706569969654e-03 -2.810088219121098518e-03 8.918013008951675147e-06
3.404000000000000000e+03 1.300318527221679688e+01 1.191708946228027344e+01 9.253477037418633699e-05 2.401007077423855662e-04 9.979064634535461664e-05 2.593138196971267462e-04
3.405000000000000000e+03 1.313664913177490234e+01 1.121091938018798828e+01 1.725091715343296528e-05 2.621775784064084291e-04 8.382854866795241833e-05 2.111992798745632172e-04
3.406000000000000000e+03 4.806521224975585938e+01 -1.317760276794433594e+01 2.485720157623291016e+00 1.047683835029602051e+00 1.060021162033081055e+00 1.949711680412292480e+00
3.407000000000000000e+03 1.220733737945556641e+01 1.889722824096679688e+01 -1.626126235350966454e-03 -3.455877595115453005e-04 -5.915142246522009373e-04 -3.839312994387000799e-04
3.408000000000000000e+03 1.249937152862548828e+01 1.414331912994384766e+01 -2.389275141467805952e-05 1.633995998417958617e-04 4.185205762041732669e-05 6.091987015679478645e-04
3.409000000000000000e+03 1.196210098266601562e+01 1.388687610626220703e+01 4.012498538941144943e-04 -7.887337415013462305e-05 9.671294537838548422e-05 5.389233119785785675e-04
3.410000000000000000e+03 1.179981040954589844e+01 1.497146320343017578e+01 -1.580092357471585274e-04 -7.248710608109831810e-05 -6.914890400366857648e-05 6.886902265250682831e-04
3.411000000000000000e+03 1.202321815490722656e+01 1.464086723327636719e+01 4.903747467324137688e-04 -3.891529631800949574e-04 3.036653288290835917e-05 5.742004723288118839e-04
3.412000000000000000e+03 9.909059524536132812e+00 6.710925579071044922e+00 1.140714448411017656e-04 -1.156894722953438759e-04 -4.854083499594707973e-07 9.320333629148080945e-05
3.413000000000000000e+03 3.024852180480957031e+01 -4.468439102172851562e+00 -1.188433170318603516e+00 4.816188812255859375e-01 -2.120442688465118408e-01 -7.624635696411132812e-01
3.414000000000000000e+03 1.636251449584960938e+01 7.160033702850341797e+00 -1.593835986568592489e-05 6.129019766376586631e-06 -2.942801984318066388e-06 -7.724353054072707891e-06
3.415000000000000000e+03 2.793287086486816406e+01 -4.812622547149658203e+00 -7.353124618530273438e-01 5.457091704010963440e-02 -2.042224705219268799e-01 -9.922578334808349609e-01
3.416000000000000000e+03 1.316797161102294922e+01 1.051132297515869141e+01 -3.782599742407910526e-05 1.989453157875686884e-04 4.833579805563203990e-05 1.755544217303395271e-04
3.417000000000000000e+03 3.102160263061523438e+01 -3.232830047607421875e+00 -1.897454261779785156e+00 3.179874420166015625e-01 -4.738400578498840332e-01 -5.525249242782592773e-01
3.418000000000000000e+03 2.244624900817871094e+01 2.623349761962890625e+01 -3.886195272207260132e-02 -2.418625913560390472e-02 -1.891446299850940704e-02 3.925506770610809326e-02
3.419000000000000000e+03 2.192479896545410156e+01 2.550211143493652344e+01 -5.005547404289245605e-02 -2.162641659379005432e-02 -2.150456793606281281e-02 3.794707357883453369e-02
3.420000000000000000e+03 2.575680351257324219e+01 2.550395774841308594e+01 -4.979420080780982971e-02 -3.533334285020828247e-02 -2.553826384246349335e-02 4.286243766546249390e-02
3.421000000000000000e+03 1.812135314941406250e+01 2.491368865966796875e+01 -3.862236067652702332e-02 -3.252778202295303345e-03 -1.256254129111766815e-02 2.154177799820899963e-02
3.422000000000000000e+03 2.141907119750976562e+01 2.597815895080566406e+01 -4.018842056393623352e-02 -2.042108215391635895e-02 -1.818285137414932251e-02 3.670961037278175354e-02
3.423000000000000000e+03 1.342712402343750000e+01 2.226646614074707031e+01 -1.555003412067890167e-02 2.068858128041028976e-03 -4.044352564960718155e-03 2.697076881304383278e-03
3.424000000000000000e+03 4.005393600463867188e+01 -1.767943000793457031e+01 1.603652954101562500e+00 1.785246968269348145e+00 1.016669988632202148e+00 6.742562055587768555e-01
3.425000000000000000e+03 1.988522911071777344e+01 2.568028640747070312e+01 -3.977300599217414856e-02 -1.224775612354278564e-02 -1.560622826218605042e-02 3.218152374029159546e-02
3.426000000000000000e+03 1.006847572326660156e+01 -6.530345916748046875e+00 -2.479080855846405029e-01 -1.137955933809280396e-01 -1.085111051797866821e-01 4.071537870913743973e-03
3.427000000000000000e+03 8.467222213745117188e+00 -6.266287326812744141e+00 -1.751012355089187622e-01 -6.128291040658950806e-02 -7.091524451971054077e-02 4.055455327033996582e-02
3.428000000000000000e+03 2.385685157775878906e+01 2.560953330993652344e+01 -5.049324035644531250e-02 -2.995346114039421082e-02 -2.413401007652282715e-02 4.064022749662399292e-02
3.429000000000000000e+03 1.414428138732910156e+01 2.322003364562988281e+01 -1.958245784044265747e-02 2.322006039321422577e-03 -5.178135354071855545e-03 6.658609956502914429e-03
3.430000000000000000e+03 2.836182212829589844e+01 -5.338510036468505859e+00 -5.063260793685913086e-01 1.554811894893646240e-01 -1.052534729242324829e-01 -1.007497787475585938e+00
3.431000000000000000e+03 2.943866348266601562e+01 -5.372885704040527344e+00 -5.535706281661987305e-01 4.070670902729034424e-01 -4.395106434822082520e-02 -9.653136730194091797e-01
3.432000000000000000e+03 1.357141017913818359e+01 2.278760719299316406e+01 -1.612760871648788452e-02 2.312767086550593376e-03 -4.144452512264251709e-03 4.512764513492584229e-03
3.433000000000000000e+03 2.604798889160156250e+01 -4.495441436767578125e+00 -7.430285215377807617e-01 -1.610525697469711304e-01 -2.712243199348449707e-01 -9.688467979431152344e-01
3.434000000000000000e+03 1.600718307495117188e+01 7.318358898162841797e+00 -4.287503543309867382e-05 9.054340625880286098e-05 1.430051270290277898e-05 3.666277189040556550e-05
3.435000000000000000e+03 3.451491165161132812e+01 -5.672576904296875000e+00 -9.366199374198913574e-01 6.925122737884521484e-01 -7.323229312896728516e-02 -5.979343131184577942e-02
3.436000000000000000e+03 2.484239387512207031e+01 -5.399384498596191406e+00 -5.352571010589599609e-01 -2.194311469793319702e-01 -2.264064699411392212e-01 -9.092780947685241699e-01
3.437000000000000000e+03 3.519728851318359375e+01 -6.089123249053955078e+00 -8.788912296295166016e-01 7.129485011100769043e-01 -4.978282377123832703e-02 -9.570995718240737915e-02
3.438000000000000000e+03 1.640782356262207031e+01 6.355375766754150391e+00 7.848093082429841161e-05 1.836847695813048631e-05 2.905482324422337115e-05 5.459653402795083821e-05
3.439000000000000000e+03 2.625068664550781250e+01 -5.545033931732177734e+00 -4.439610838890075684e-01 -1.998458653688430786e-01 -1.931420862674713135e-01 -9.609980583190917969e-01
3.440000000000000000e+03 2.715517807006835938e+01 -4.069633007049560547e+00 -9.351336359977722168e-01 -7.597775012254714966e-02 -3.033334314823150635e-01 -9.516243934631347656e-01
3.441000000000000000e+03 1.383648300170898438e+01 5.734909057617187500e+00 8.431346941506490111e-05 9.359110117657110095e-05 5.337136826710775495e-05 3.809980262303724885e-05
3.442000000000000000e+03 1.279979228973388672e+01 6.335562229156494141e+00 4.605697540682740510e-05 2.378617864451371133e-05 2.095294621540233493e-05 1.115639315685257316e-04
3.443000000000000000e+03 1.268198299407958984e+01 -8.662950515747070312e+00 -5.512409806251525879e-01 -3.485145866870880127e-01 -2.699266672134399414e-01 -1.545024663209915161e-01
3.444000000000000000e+03 7.958039760589599609e+00 7.257711887359619141e+00 8.878647349774837494e-05 -1.624595606699585915e-04 -2.210192542406730354e-05 6.757264782208949327e-05
3.445000000000000000e+03 4.007034683227539062e+01 -1.674896812438964844e+01 2.010913848876953125e+00 1.510381698608398438e+00 1.056388616561889648e+00 1.362619549036026001e-01
3.446000000000000000e+03 3.990869522094726562e+01 -1.474747180938720703e+01 2.012986898422241211e+00 1.118335843086242676e+00 9.393967986106872559e-01 -9.329331517219543457e-01
3.447000000000000000e+03 4.038710021972656250e+01 -1.966942214965820312e+01 7.998486757278442383e-01 2.494870901107788086e+00 9.884158968925476074e-01 1.178678154945373535e+00
3.448000000000000000e+03 4.240322875976562500e+01 -1.822142791748046875e+01 1.731596589088439941e+00 4.070477008819580078e+00 1.740622162818908691e+00 1.687387466430664062e+00
3.449000000000000000e+03 3.031044006347656250e+01 2.338297843933105469e+01 -7.333635538816452026e-02 -3.627526387572288513e-02 -3.288348391652107239e-02 3.070806339383125305e-02
3.450000000000000000e+03 1.225023651123046875e+01 2.069828987121582031e+01 -6.488327402621507645e-03 3.156171878799796104e-04 -1.851813052780926228e-03 1.917055778903886676e-04
3.451000000000000000e+03 4.156290054321289062e+01 -1.644838142395019531e+01 3.178773164749145508e+00 2.377435445785522461e+00 1.666862607002258301e+00 4.320120811462402344e-01
3.452000000000000000e+03 2.905193328857421875e+01 2.537888908386230469e+01 -4.177706688642501831e-02 -3.951766341924667358e-02 -2.438841946423053741e-02 3.263016417622566223e-02
3.453000000000000000e+03 2.746325874328613281e+01 2.557650566101074219e+01 -4.401165992021560669e-02 -3.968371450901031494e-02 -2.510861307382583618e-02 4.127887636423110962e-02
3.454000000000000000e+03 4.078847122192382812e+01 -1.825758552551269531e+01 1.587230682373046875e+00 2.445822238922119141e+00 1.209915876388549805e+00 1.093642234802246094e+00
3.455000000000000000e+03 3.147182655334472656e+01 2.181375312805175781e+01 -9.220367670059204102e-02 -2.212335541844367981e-02 -3.429811075329780579e-02 3.545645996928215027e-02
3.456000000000000000e+03 1.093300724029541016e+01 6.327155113220214844e+00 5.576936018769629300e-05 1.433304169040638953e-05 2.103072074532974511e-05 4.163066478213295341e-05
3.457000000000000000e+03 1.504469966888427734e+01 -6.649510383605957031e+00 -3.996452689170837402e-01 -3.661386072635650635e-01 -2.297351658344268799e-01 -2.534542083740234375e-01
3.458000000000000000e+03 1.653577995300292969e+01 -7.663061618804931641e+00 -5.485582351684570312e-01 -5.277594923973083496e-01 -3.228953182697296143e-01 -4.068216681480407715e-01
3.459000000000000000e+03 2.520902824401855469e+01 -6.329956531524658203e+00 -3.604596257209777832e-01 -2.766918540000915527e-01 -1.911454349756240845e-01 -8.392384052276611328e-01
3.460000000000000000e+03 2.537495994567871094e+01 -5.673273563385009766e+00 -4.882688820362091064e-01 -2.311245501041412354e-01 -2.158180326223373413e-01 -9.046682715415954590e-01
3.461000000000000000e+03 7.216210174560546875e+01 -8.856126785278320312e+00 -4.639083147048950195e-01 6.608475744724273682e-02 -1.193470731377601624e-01 -6.441266536712646484e-01
3.462000000000000000e+03 3.260753250122070312e+01 1.862688446044921875e+01 -7.171633839607238770e-02 -1.922495663166046143e-02 -2.728238888084888458e-02 5.232282727956771851e-02
3.463000000000000000e+03 3.331685638427734375e+01 1.847981834411621094e+01 -7.012695819139480591e-02 -6.553679704666137695e-03 -2.300419285893440247e-02 4.820444807410240173e-02
3.464000000000000000e+03 3.085951423645019531e+01 2.305866432189941406e+01 -7.549647986888885498e-02 -2.726908773183822632e-02 -3.082967177033424377e-02 2.800378948450088501e-02
3.465000000000000000e+03 3.356973648071289062e+01 1.809081077575683594e+01 -6.459552049636840820e-02 -3.340110415592789650e-03 -2.038068883121013641e-02 4.330396279692649841e-02
3.466000000000000000e+03 1.462793827056884766e+01 2.332859611511230469e+01 -2.162450179457664490e-02 2.358010504394769669e-03 -5.779947154223918915e-03 7.112567313015460968e-03
3.467000000000000000e+03 4.070526123046875000e+01 -2.164155006408691406e+01 3.704086542129516602e-01 2.663822174072265625e+00 9.102692604064941406e-01 1.073077559471130371e+00
3.468000000000000000e+03 3.306621932983398438e+01 -5.073564052581787109e+00 -1.020300626754760742e+00 6.122677922248840332e-01 -1.224098652601242065e-01 -2.088171392679214478e-01
3.469000000000000000e+03 1.910211372375488281e+01 -5.536992549896240234e+00 -4.533291161060333252e-01 -2.786466777324676514e-01 -2.195927351713180542e-01 -5.543766021728515625e-01
3.470000000000000000e+03 3.212552642822265625e+01 -4.748970031738281250e+00 -1.116661667823791504e+00 5.212215781211853027e-01 -1.786320209503173828e-01 -3.493413031101226807e-01
3.471000000000000000e+03 4.861756515502929688e+01 -1.154088783264160156e+01 1.000068426132202148e+00 7.539571523666381836e-01 5.262076854705810547e-01 2.036110639572143555e+00
3.472000000000000000e+03 4.809163665771484375e+01 -1.265951824188232422e+01 2.000495433807373047e+00 1.028672337532043457e+00 9.087503552436828613e-01 1.921306729316711426e+00
3.473000000000000000e+03 8.380417823791503906e+00 1.264263916015625000e+01 4.097736091352999210e-04 -5.176302511245012283e-04 -3.235699477954767644e-05 -1.182110645459033549e-04
3.474000000000000000e+03 6.474540710449218750e+00 1.465794754028320312e+01 -1.062869268935173750e-04 -6.585701485164463520e-04 -2.294571168022230268e-04 -1.666414464125409722e-04
3.475000000000000000e+03 2.587464904785156250e+01 2.468387985229492188e+01 -6.793766468763351440e-02 -3.685338795185089111e-02 -3.143731504678726196e-02 4.686279222369194031e-02
3.476000000000000000e+03 7.057243347167968750e+01 -8.598916053771972656e+00 -6.013660430908203125e-01 2.026687562465667725e-01 -1.196091920137405396e-01 -6.884731054306030273e-01
3.477000000000000000e+03 3.997418594360351562e+01 -1.532379055023193359e+01 2.155709505081176758e+00 1.215206146240234375e+00 1.011274695396423340e+00 -6.780850887298583984e-01
3.478000000000000000e+03 1.712708854675292969e+01 -6.057981014251708984e+00 -3.977479636669158936e-01 -3.599659800529479980e-01 -2.273141741752624512e-01 -4.128125607967376709e-01
3.479000000000000000e+03 4.304393386840820312e+01 -1.966863632202148438e+01 2.563292384147644043e-01 4.607958316802978516e+00 1.459286212921142578e+00 9.648293852806091309e-01
3.480000000000000000e+03 2.378990554809570312e+01 2.480867004394531250e+01 -6.584371626377105713e-02 -2.656120993196964264e-02 -2.772147580981254578e-02 3.900292515754699707e-02
3.481000000000000000e+03 3.936909866333007812e+01 -1.002811050415039062e+01 2.208136767148971558e-01 5.989671945571899414e-01 2.459342479705810547e-01 -1.230792045593261719e+00
3.482000000000000000e+03 3.950086975097656250e+01 -1.165550518035888672e+01 9.361653327941894531e-01 7.324415445327758789e-01 5.005820393562316895e-01 -1.445651769638061523e+00
3.483000000000000000e+03 3.911736679077148438e+01 -1.241866588592529297e+01 1.235073447227478027e+00 6.588464975357055664e-01 5.681759715080261230e-01 -1.519690394401550293e+00
3.484000000000000000e+03 3.697090148925781250e+01 1.355957794189453125e+01 -3.078067488968372345e-02 8.837435394525527954e-03 -6.582971662282943726e-03 8.193978108465671539e-03
3.485000000000000000e+03 6.112709522247314453e+00 -7.866552829742431641e+00 -1.661041080951690674e-01 -2.234715595841407776e-02 -5.653537809848785400e-02 5.464461166411638260e-03
3.486000000000000000e+03 2.660703086853027344e+01 2.583500671386718750e+01 -4.048690199851989746e-02 -3.969367220997810364e-02 -2.405417151749134064e-02 4.165023565292358398e-02
3.487000000000000000e+03 5.952526092529296875e+00 7.555023193359375000e+00 7.394771819235756993e-05 -1.405110815539956093e-04 -1.996900755329988897e-05 -1.112834979721810669e-06
3.488000000000000000e+03 7.126535415649414062e+00 1.835638999938964844e+01 -7.498579216189682484e-04 -1.078689587302505970e-03 -5.485642468556761742e-04 -8.611330122221261263e-05
3.489000000000000000e+03 4.102136611938476562e+01 -8.698408126831054688e+00 -8.122648000717163086e-01 6.305987238883972168e-01 -5.449982360005378723e-02 -7.457747459411621094e-01
3.490000000000000000e+03 8.824025154113769531e+00 9.966040611267089844e+00 1.271087821805849671e-04 -2.866974682547152042e-04 -4.787660509464330971e-05 8.749524567974731326e-05
3.491000000000000000e+03 3.728520965576171875e+01 1.435162353515625000e+01 -4.249363765120506287e-02 1.086409296840429306e-02 -9.488862939178943634e-03 1.184439752250909805e-02
3.492000000000000000e+03 1.536414623260498047e+01 5.526782512664794922e+00 1.728945062495768070e-05 3.372536957613192499e-05 1.530444569652900100e-05 7.016721610852982849e-06
3.493000000000000000e+03 1.436131286621093750e+01 6.035738945007324219e+00 -8.047719165915623307e-05 2.711466322580236010e-06 -2.332971598661970347e-05 4.967222412233240902e-05
3.494000000000000000e+03 7.237475395202636719e+00 2.803991508483886719e+01 -3.720507957041263580e-03 -5.977565888315439224e-03 -2.909422153607010841e-03 8.851340971887111664e-03
3.495000000000000000e+03 1.689963150024414062e+01 2.429720306396484375e+01 -3.303672000765800476e-02 1.904882956296205521e-04 -9.853869676589965820e-03 1.487511862069368362e-02
3.496000000000000000e+03 3.742571640014648438e+01 -7.583192825317382812e+00 -6.105197072029113770e-01 5.854772925376892090e-01 -7.512723561376333237e-03 -5.695005059242248535e-01
3.497000000000000000e+03 3.647164154052734375e+01 1.088523292541503906e+01 -1.162554230540990829e-02 -5.769284325651824474e-04 -3.660741262137889862e-03 1.041482202708721161e-03
3.498000000000000000e+03 3.562739562988281250e+01 1.251411151885986328e+01 -1.927145756781101227e-02 -5.959190893918275833e-04 -5.960213020443916321e-03 7.782514207065105438e-03
3.499000000000000000e+03 3.722336959838867188e+01 -5.012299537658691406e+00 -1.832264780998229980e+00 7.391938567161560059e-01 -3.279212713241577148e-01 1.107210889458656311e-01
3.500000000000000000e+03 1.415698051452636719e+01 -6.137701034545898438e+00 -3.108625710010528564e-01 -2.730143666267395020e-01 -1.751630902290344238e-01 -1.670864373445510864e-01
3.501000000000000000e+03 3.807828521728515625e+01 -9.317333221435546875e+00 1.969919353723526001e-01 4.484494328498840332e-01 1.936324089765548706e-01 -1.078430771827697754e+00
3.502000000000000000e+03 3.963621520996093750e+01 -9.435205459594726562e+00 -1.174825653433799744e-01 5.752081274986267090e-01 1.373176574707031250e-01 -1.106672644615173340e+00
3.503000000000000000e+03 4.095300674438476562e+01 -8.139209747314453125e+00 -1.132674217224121094e+00 5.332454442977905273e-01 -1.798286139965057373e-01 -6.834189295768737793e-01
3.504000000000000000e+03 4.044791412353515625e+01 -7.503785133361816406e+00 -1.454189300537109375e+00 4.272881448268890381e-01 -3.080703616142272949e-01 -5.888665318489074707e-01
3.505000000000000000e+03 3.653693008422851562e+01 1.459396648406982422e+01 -3.972006961703300476e-02 1.122328639030456543e-02 -8.549034595489501953e-03 1.445621624588966370e-02
3.506000000000000000e+03 6.970707893371582031e+00 7.406148433685302734e+00 2.123629092238843441e-04 -5.962588329566642642e-05 4.582111068884842098e-05 -1.040368442772887647e-04
3.507000000000000000e+03 4.050366973876953125e+01 -1.472150802612304688e+01 2.267163753509521484e+00 1.426283955574035645e+00 1.108034253120422363e+00 -9.035149812698364258e-01
3.508000000000000000e+03 1.345435619354248047e+01 -6.210891723632812500e+00 -2.991965711116790771e-01 -2.528435587882995605e-01 -1.656120419502258301e-01 -1.267873644828796387e-01
3.509000000000000000e+03 3.618510437011718750e+01 -4.432107448577880859e+00 -1.823960423469543457e+00 7.155177593231201172e-01 -3.325327932834625244e-01 2.595947980880737305e-01
3.510000000000000000e+03 4.485866546630859375e+01 -8.092468261718750000e+00 -1.928005933761596680e+00 2.522603571414947510e-01 -5.027236938476562500e-01 5.694586634635925293e-01
3.511000000000000000e+03 4.500197982788085938e+01 -9.704399108886718750e+00 -6.575697660446166992e-01 9.948586225509643555e-01 1.011866629123687744e-01 6.216543316841125488e-01
3.512000000000000000e+03 7.192142963409423828e+00 1.570276737213134766e+01 -2.711504639592021704e-04 -9.449448552913963795e-04 -3.648285928647965193e-04 -4.122035170439630747e-05
3.513000000000000000e+03 2.087648963928222656e+01 -5.335663318634033203e+00 -5.086166262626647949e-01 -2.218793928623199463e-01 -2.191488146781921387e-01 -6.512488126754760742e-01
3.514000000000000000e+03 4.041767120361328125e+01 -1.081262874603271484e+01 4.543791115283966064e-01 9.087481498718261719e-01 4.089381992816925049e-01 -1.262336373329162598e+00
3.515000000000000000e+03 4.177338027954101562e+01 -1.943179893493652344e+01 8.030884861946105957e-01 3.569270133972167969e+00 1.311707615852355957e+00 1.302102565765380859e+00
3.516000000000000000e+03 7.209012508392333984e+00 9.324271202087402344e+00 2.833563485182821751e-04 -1.464921369915828109e-04 4.105925836483947933e-05 -1.121187378885224462e-04
3.517000000000000000e+03 1.263143253326416016e+01 -9.660505294799804688e+00 -6.516585350036621094e-01 -3.657529354095458984e-01 -3.052234351634979248e-01 -1.923256069421768188e-01
3.518000000000000000e+03 6.942178344726562500e+01 -7.106400012969970703e+00 -5.208275914192199707e-01 2.573595345020294189e-01 -7.904040813446044922e-02 -7.572132349014282227e-01
3.519000000000000000e+03 6.871251678466796875e+01 -6.586169242858886719e+00 -4.964213371276855469e-01 3.388176858425140381e-01 -4.728109762072563171e-02 -7.657154202461242676e-01
3.520000000000000000e+03 1.439240169525146484e+01 -6.905785083770751953e+00 -3.951715826988220215e-01 -3.552329540252685547e-01 -2.251213639974594116e-01 -2.096873521804809570e-01
3.521000000000000000e+03 4.241305160522460938e+01 -8.884411811828613281e+00 -9.729013442993164062e-01 7.416480779647827148e-01 -6.937597692012786865e-02 -4.676781296730041504e-01
3.522000000000000000e+03 4.387986755371093750e+01 -9.080303192138671875e+00 -1.043120861053466797e+00 7.172780036926269531e-01 -9.775284677743911743e-02 6.550288200378417969e-02
3.523000000000000000e+03 4.705020904541015625e+01 -1.050099277496337891e+01 7.970279455184936523e-02 8.858187794685363770e-01 2.896564602851867676e-01 1.570668458938598633e+00
3.524000000000000000e+03 4.658240509033203125e+01 -9.849628448486328125e+00 -4.217268824577331543e-01 7.506056427955627441e-01 9.866362810134887695e-02 1.309456825256347656e+00
3.525000000000000000e+03 7.116254425048828125e+01 -9.397895812988281250e+00 -5.866905450820922852e-01 1.531010568141937256e-01 -1.300768554210662842e-01 -5.874566435813903809e-01
3.526000000000000000e+03 4.429287338256835938e+01 -8.492160797119140625e+00 -1.540693759918212891e+00 4.258257448673248291e-01 -3.344603776931762695e-01 3.060016036033630371e-01
3.527000000000000000e+03 4.442891693115234375e+01 -9.424673080444335938e+00 -7.957733869552612305e-01 8.339940309524536133e-01 1.146620884537696838e-02 3.490503728389739990e-01
3.528000000000000000e+03 5.978902053833007812e+01 -7.093394279479980469e+00 -6.994429826736450195e-01 1.351942062377929688e+00 1.957497149705886841e-01 8.034534454345703125e-01
3.529000000000000000e+03 5.898176956176757812e+01 -8.014607429504394531e+00 -7.651710510253906250e-01 1.277384638786315918e+00 1.536640822887420654e-01 9.396824240684509277e-01
3.530000000000000000e+03 4.728286361694335938e+01 -1.127643013000488281e+01 7.483911514282226562e-01 1.020840406417846680e+00 5.307694673538208008e-01 1.737108469009399414e+00
3.531000000000000000e+03 3.668780517578125000e+01 -5.761553764343261719e+00 -1.410374164581298828e+00 6.980217099189758301e-01 -2.137057483196258545e-01 -3.412220254540443420e-02
3.532000000000000000e+03 3.548934555053710938e+01 -5.373639106750488281e+00 -1.325629711151123047e+00 6.910486221313476562e-01 -1.903743445873260498e-01 5.051409080624580383e-02
3.533000000000000000e+03 1.538748455047607422e+01 -7.801602840423583984e+00 -5.202504992485046387e-01 -4.753540456295013428e-01 -2.986813783645629883e-01 -3.118550181388854980e-01
3.534000000000000000e+03 7.833808422088623047e+00 -1.471813106536865234e+01 -3.446789979934692383e-01 -2.120440751314163208e-01 -1.670169234275817871e-01 -5.227793455123901367e-01
3.535000000000000000e+03 9.672154426574707031e+00 -1.377070426940917969e+01 -5.582516193389892578e-01 -2.202028781175613403e-01 -2.335363477468490601e-01 -4.970507025718688965e-01
3.536000000000000000e+03 5.138735198974609375e+01 -9.642141342163085938e+00 -4.823994040489196777e-01 7.249082326889038086e-01 7.275264710187911987e-02 2.379994869232177734e+00
3.537000000000000000e+03 7.220616149902343750e+01 -3.058631658554077148e+00 -8.670836687088012695e-02 -5.410844832658767700e-02 -4.224504530429840088e-02 -9.051679372787475586e-01
3.538000000000000000e+03 1.455628585815429688e+01 -7.727541446685791016e+00 -4.949170053005218506e-01 -4.190916717052459717e-01 -2.742026150226593018e-01 -2.396630644798278809e-01
3.539000000000000000e+03 7.413366699218750000e+01 1.746295166015625000e+01 2.991576790809631348e-01 -9.712224602699279785e-01 -2.016194313764572144e-01 3.488487005233764648e-01
3.540000000000000000e+03 6.162165069580078125e+01 -6.772561550140380859e+00 -5.954894423484802246e-01 1.018315672874450684e+00 1.268478780984878540e-01 4.495790302753448486e-01
3.541000000000000000e+03 6.213104248046875000e+01 -5.567558765411376953e+00 -3.146232366561889648e-01 1.148455023765563965e+00 2.501495182514190674e-01 3.063838183879852295e-01
3.542000000000000000e+03 1.027449893951416016e+01 -1.702597999572753906e+01 -2.553018033504486084e-01 -3.268528282642364502e-01 -1.746463924646377563e-01 -7.521207332611083984e-01
3.543000000000000000e+03 6.739892578125000000e+01 5.693285465240478516e+00 6.102854013442993164e-01 2.076565027236938477e+00 8.060551881790161133e-01 -2.876412272453308105e-01
3.544000000000000000e+03 6.865695190429687500e+01 7.102229118347167969e+00 6.040733456611633301e-01 1.631326913833618164e+00 6.706200838088989258e-01 -3.640177845954895020e-01
3.545000000000000000e+03 1.794036102294921875e+01 -6.470458984375000000e+00 -4.643694460391998291e-01 -3.906494677066802979e-01 -2.565056681632995605e-01 -5.018706321716308594e-01
3.546000000000000000e+03 8.559293746948242188e+00 -1.186766052246093750e+01 -4.641911685466766357e-01 -1.449608504772186279e-01 -1.827456057071685791e-01 -3.017507195472717285e-01
3.547000000000000000e+03 7.191951751708984375e+01 1.694811248779296875e+01 4.875485897064208984e-01 5.273721367120742798e-02 1.620857417583465576e-01 3.207134008407592773e-01
3.548000000000000000e+03 6.657182693481445312e+00 -1.833411979675292969e+01 -5.159547924995422363e-02 -4.028820097446441650e-01 -1.363432407379150391e-01 -6.174607276916503906e-01
3.549000000000000000e+03 3.674114608764648438e+01 -7.062847137451171875e+00 -6.974496841430664062e-01 6.266346573829650879e-01 -2.124451287090778351e-02 -4.096831679344177246e-01
3.550000000000000000e+03 7.387115478515625000e+01 -2.249289703369140625e+01 -1.488615293055772781e-03 3.774423385038971901e-04 -3.333518689032644033e-04 3.673088212963193655e-04
3.551000000000000000e+03 7.298033905029296875e+01 -2.279134941101074219e+01 -1.922783092595636845e-03 -1.155849779024720192e-03 -9.235898614861071110e-04 1.538114156574010849e-04
3.552000000000000000e+03 6.928891754150390625e+01 1.189982509613037109e+01 7.065508961677551270e-01 1.642803192138671875e+00 7.048062086105346680e-01 -1.524314880371093750e-01
3.553000000000000000e+03 6.822828674316406250e+01 1.291001892089843750e+01 7.812505364418029785e-01 2.355011940002441406e+00 9.408787488937377930e-01 -7.316557317972183228e-02
3.554000000000000000e+03 7.863683700561523438e+00 -2.147960662841796875e+01 1.664265543222427368e-01 -5.120419263839721680e-01 -1.036846190690994263e-01 -6.248844265937805176e-01
3.555000000000000000e+03 9.239526748657226562e+00 -1.972059059143066406e+01 6.356707215309143066e-02 -4.137838482856750488e-01 -1.050650328397750854e-01 -7.121846079826354980e-01
3.556000000000000000e+03 7.095525360107421875e+01 -1.608262777328491211e+00 -2.240590984001755714e-04 2.576387822628021240e-01 7.722441852092742920e-02 -9.024881720542907715e-01
3.557000000000000000e+03 6.351411437988281250e+01 3.835248649120330811e-01 3.819887638092041016e-01 2.331305265426635742e+00 8.139882683753967285e-01 2.224738150835037231e-01
3.558000000000000000e+03 6.651253223419189453e+00 2.387893104553222656e+01 -4.240337293595075607e-03 -2.127710031345486641e-03 -1.910414197482168674e-03 4.065640270709991455e-03
3.559000000000000000e+03 6.386546134948730469e+00 2.538384056091308594e+01 -4.079441539943218231e-03 -3.177645383402705193e-03 -2.177126007154583931e-03 5.568832624703645706e-03
3.560000000000000000e+03 6.779294586181640625e+01 6.953348636627197266e+00 6.793439984321594238e-01 2.140543699264526367e+00 8.459663391113281250e-01 -2.833420634269714355e-01
3.561000000000000000e+03 6.282421112060546875e+01 -4.755827486515045166e-01 3.677639961242675781e-01 2.250381708145141602e+00 7.854437232017517090e-01 4.005798995494842529e-01
3.562000000000000000e+03 3.464902877807617188e+01 1.733693695068359375e+01 -5.701429024338722229e-02 3.669114550575613976e-03 -1.600355282425880432e-02 3.775782510638237000e-02
3.563000000000000000e+03 9.739923477172851562e+00 -1.032938766479492188e+01 -5.063254237174987793e-01 -1.588838249444961548e-01 -1.995627582073211670e-01 -1.853915750980377197e-01
3.564000000000000000e+03 1.104437351226806641e+01 -1.044247245788574219e+01 -6.137505173683166504e-01 -2.223733961582183838e-01 -2.508371770381927490e-01 -2.114018201828002930e-01
3.565000000000000000e+03 8.136316299438476562e+00 3.079190063476562500e+01 -1.494905911386013031e-03 -9.534710086882114410e-03 -3.308884799480438232e-03 1.231851428747177124e-02
3.566000000000000000e+03 8.305972099304199219e+00 2.932463455200195312e+01 -3.783534513786435127e-03 -7.474182173609733582e-03 -3.377314889803528786e-03 1.129403524100780487e-02
3.567000000000000000e+03 4.194875335693359375e+01 2.492550659179687500e+01 9.509253315627574921e-03 8.300850540399551392e-02 2.775532752275466919e-02 -9.462377987802028656e-03
3.568000000000000000e+03 4.152928161621093750e+01 2.338774871826171875e+01 -2.134465426206588745e-02 6.758818775415420532e-02 1.387306023389101028e-02 6.808871403336524963e-03
3.569000000000000000e+03 8.249817848205566406e+00 -2.869219207763671875e+01 2.203875780105590820e-01 -5.872527956962585449e-01 -1.100595742464065552e-01 -2.593232393264770508e-01
3.570000000000000000e+03 8.188463211059570312e+00 -2.692107582092285156e+01 2.603102028369903564e-01 -5.796321630477905273e-01 -9.579659253358840942e-02 -3.328018784523010254e-01
3.571000000000000000e+03 1.416978645324707031e+01 -2.959102439880371094e+01 4.007756412029266357e-01 1.147576421499252319e-01 1.546599864959716797e-01 -2.730042636394500732e-01
3.572000000000000000e+03 6.610546875000000000e+01 2.353216934204101562e+01 2.400808036327362061e-01 2.521500825881958008e+00 8.284744620323181152e-01 4.622987210750579834e-01
3.573000000000000000e+03 3.996303558349609375e+01 -3.043989944458007812e+01 1.552868485450744629e-01 1.567714571952819824e+00 5.169004201889038086e-01 5.156859755516052246e-01
3.574000000000000000e+03 4.077734756469726562e+01 -2.877423858642578125e+01 1.995024681091308594e-01 1.734955549240112305e+00 5.803374052047729492e-01 6.026772856712341309e-01
3.575000000000000000e+03 8.678290367126464844e+00 -2.215776634216308594e+01 2.495134323835372925e-01 -4.940612912178039551e-01 -7.336435467004776001e-02 -6.123680472373962402e-01
3.576000000000000000e+03 7.048459625244140625e+01 1.832409286499023438e+01 6.353232860565185547e-01 8.596377372741699219e-01 4.484882950782775879e-01 4.661386013031005859e-01
3.577000000000000000e+03 7.106378173828125000e+01 1.685276031494140625e+01 5.896360874176025391e-01 5.715566277503967285e-01 3.483578264713287354e-01 3.279836475849151611e-01
3.578000000000000000e+03 7.053430938720703125e+01 -2.965418815612792969e+01 -1.271680556237697601e-02 1.942980336025357246e-03 -3.232147544622421265e-03 1.056827697902917862e-02
3.579000000000000000e+03 3.897122192382812500e+01 1.994588661193847656e+01 -7.493036985397338867e-02 4.742322489619255066e-02 -8.252142928540706635e-03 2.533242665231227875e-02
3.580000000000000000e+03 6.915803527832031250e+01 8.791764259338378906e+00 6.221769452095031738e-01 1.537159681320190430e+00 6.478009819984436035e-01 -3.244282901287078857e-01
3.581000000000000000e+03 8.541934013366699219e+00 -2.374555397033691406e+01 2.885594367980957031e-01 -5.158037543296813965e-01 -6.817330420017242432e-02 -5.088972449302673340e-01
3.582000000000000000e+03 7.311531829833984375e+01 6.995631694793701172e+00 3.118416070938110352e-01 -4.134721457958221436e-01 -3.048916161060333252e-02 -5.696616768836975098e-01
3.583000000000000000e+03 4.666389083862304688e+01 2.402915573120117188e+01 6.127922609448432922e-02 5.118319764733314514e-02 3.373872861266136169e-02 -5.077379569411277771e-02
3.584000000000000000e+03 4.787184143066406250e+01 2.266388320922851562e+01 1.015184540301561356e-02 2.275087125599384308e-02 9.870815090835094452e-03 -3.795296326279640198e-02
3.585000000000000000e+03 7.198252868652343750e+01 2.529327774047851562e+01 1.304231490939855576e-02 1.495277434587478638e-01 4.877101629972457886e-02 7.972459793090820312e-01
3.586000000000000000e+03 4.229071807861328125e+01 -1.918945884704589844e+01 8.710268735885620117e-01 4.019391536712646484e+00 1.467125535011291504e+00 1.388592481613159180e+00
3.587000000000000000e+03 2.838379669189453125e+01 -3.182896614074707031e+00 -1.553812265396118164e+00 4.008984193205833435e-02 -4.541167318820953369e-01 -7.390786409378051758e-01
3.588000000000000000e+03 4.414906311035156250e+01 -1.329516506195068359e+01 1.689968228340148926e+00 3.537684202194213867e+00 1.568295717239379883e+00 2.783379554748535156e-01
3.589000000000000000e+03 4.244844055175781250e+01 -1.856975936889648438e+01 1.319038510322570801e+00 4.211106777191162109e+00 1.659043550491333008e+00 1.602585196495056152e+00
3.590000000000000000e+03 2.985280990600585938e+01 -4.970630168914794922e+00 -8.618345856666564941e-01 4.774116575717926025e-01 -1.153268739581108093e-01 -9.156004786491394043e-01
3.591000000000000000e+03 4.179367065429687500e+01 -1.537362670898437500e+01 3.344433307647705078e+00 2.338874101638793945e+00 1.704992294311523438e+00 -4.809291362762451172e-01
3.592000000000000000e+03 4.092244338989257812e+01 -1.660258102416992188e+01 2.551689147949218750e+00 1.975951671600341797e+00 1.358292222023010254e+00 3.060672879219055176e-01
3.593000000000000000e+03 4.189882278442382812e+01 -1.748100852966308594e+01 2.586342573165893555e+00 3.139998435974121094e+00 1.717902302742004395e+00 1.312510371208190918e+00
3.594000000000000000e+03 4.712284469604492188e+01 -1.371051120758056641e+01 3.143130779266357422e+00 1.375097751617431641e+00 1.355468511581420898e+00 2.104225635528564453e+00
3.595000000000000000e+03 4.279040908813476562e+01 -1.461240768432617188e+01 3.099534511566162109e+00 3.267050027847290039e+00 1.909975290298461914e+00 -7.205271720886230469e-01
3.596000000000000000e+03 1.655159950256347656e+01 6.625234603881835938e+00 -2.462332668073941022e-05 5.635955312754958868e-05 9.520867934043053538e-06 -2.492153180355671793e-05
3.597000000000000000e+03 4.387799072265625000e+01 -1.378679656982421875e+01 2.102525949478149414e+00 3.913137912750244141e+00 1.804699182510375977e+00 -1.623607240617275238e-02
3.598000000000000000e+03 4.148209381103515625e+01 -1.735187911987304688e+01 2.409777402877807617e+00 2.662616491317749023e+00 1.521718144416809082e+00 9.866173267364501953e-01
3.599000000000000000e+03 2.938352394104003906e+01 -2.811250448226928711e+00 -1.890675425529479980e+00 1.670220494270324707e-01 -5.170959830284118652e-01 -6.088513135910034180e-01
3.600000000000000000e+03 4.054716491699218750e+01 -1.421593666076660156e+01 2.112185955047607422e+00 1.410322427749633789e+00 1.056752562522888184e+00 -1.088887095451354980e+00
3.601000000000000000e+03 4.339488601684570312e+01 -1.399029731750488281e+01 2.338465690612792969e+00 3.680492401123046875e+00 1.805687427520751953e+00 -4.668357074260711670e-01
3.602000000000000000e+03 4.313161468505859375e+01 -1.410009479522705078e+01 2.487575531005859375e+00 3.472226619720458984e+00 1.787940621376037598e+00 -6.278510689735412598e-01
3.603000000000000000e+03 4.602123641967773438e+01 -1.311813545227050781e+01 2.078855514526367188e+00 2.332513093948364258e+00 1.323410630226135254e+00 1.784738421440124512e+00
3.604000000000000000e+03 3.600722503662109375e+01 1.312253189086914062e+01 -2.185462415218353271e-02 3.754174336791038513e-03 -5.430134944617748260e-03 9.943693876266479492e-03
3.605000000000000000e+03 4.679391479492187500e+01 -1.349371528625488281e+01 2.856166124343872070e+00 1.700946331024169922e+00 1.367133736610412598e+00 2.106491804122924805e+00
3.606000000000000000e+03 4.702635574340820312e+01 -1.227986526489257812e+01 1.561459898948669434e+00 1.379947304725646973e+00 8.824221491813659668e-01 1.831526041030883789e+00
3.607000000000000000e+03 1.256591415405273438e+01 1.225644302368164062e+01 1.253343943972140551e-04 2.291242708452045918e-04 1.063376039383001626e-04 4.047219699714332819e-04
3.608000000000000000e+03 1.277966213226318359e+01 2.190288925170898438e+01 -1.258452888578176498e-02 1.602465170435607433e-03 -3.294619033113121986e-03 1.705184346064925194e-03
3.609000000000000000e+03 1.402157592773437500e+01 8.718683242797851562e+00 -3.695988198160193861e-05 1.315648551099002361e-04 2.838149339368101209e-05 9.237441554432734847e-05
3.610000000000000000e+03 1.408135318756103516e+01 1.001144599914550781e+01 -1.171051644632825628e-05 3.337120870128273964e-04 9.660047362558543682e-05 1.374665657749574166e-06
3.611000000000000000e+03 3.494778060913085938e+01 1.435804939270019531e+01 -3.046398051083087921e-02 -5.213646800257265568e-04 -9.295603260397911072e-03 1.907444559037685394e-02
3.612000000000000000e+03 1.142890739440917969e+01 1.354035282135009766e+01 1.246034371433779597e-04 -1.573633489897474647e-04 -9.827976100496016443e-06 3.639339411165565252e-04
3.613000000000000000e+03 1.449534797668457031e+01 8.570068359375000000e+00 -2.776415931293740869e-05 1.134748017648234963e-04 2.571319237176794559e-05 7.389925303868949413e-05
3.614000000000000000e+03 1.448603725433349609e+01 9.279261589050292969e+00 -1.496174663770943880e-04 1.392403646605089307e-04 -3.113133061560802162e-06 1.306387857766821980e-04
3.615000000000000000e+03 3.127441787719726562e+01 -4.502571105957031250e+00 -1.236477494239807129e+00 5.179982185363769531e-01 -2.155437767505645752e-01 -5.740466713905334473e-01
3.616000000000000000e+03 3.500093460083007812e+01 1.349149799346923828e+01 -2.154016681015491486e-02 8.947581518441438675e-04 -6.193622481077909470e-03 1.396793778985738754e-02
3.617000000000000000e+03 1.137735748291015625e+01 1.273642253875732422e+01 1.896074245451018214e-04 -1.584467972861602902e-04 9.348190360469743609e-06 3.340230905450880527e-04
3.618000000000000000e+03 3.629670333862304688e+01 1.382370948791503906e+01 -3.253627195954322815e-02 4.828416276723146439e-03 -8.312356658279895782e-03 1.336022932082414627e-02
3.619000000000000000e+03 1.163351726531982422e+01 1.654758834838867188e+01 -2.076240634778514504e-04 -6.059485604055225849e-04 -2.440717944409698248e-04 5.306369857862591743e-04
3.620000000000000000e+03 1.128753185272216797e+01 1.536307716369628906e+01 -1.269451895495876670e-04 -4.905621171928942204e-04 -1.852521963883191347e-04 5.646455101668834686e-04
3.621000000000000000e+03 1.559604454040527344e+01 7.410646438598632812e+00 4.476988760870881379e-05 3.301155811641365290e-05 2.333443444513250142e-05 -9.684024007583502680e-06
3.622000000000000000e+03 3.405874633789062500e+01 1.626068115234375000e+01 -4.369886592030525208e-02 -3.244156017899513245e-03 -1.408290676772594452e-02 3.533712774515151978e-02
3.623000000000000000e+03 2.839131927490234375e+01 -4.813261985778808594e+00 -8.216438293457031250e-01 1.365189105272293091e-01 -2.055374830961227417e-01 -9.982267618179321289e-01
3.624000000000000000e+03 3.317771911621093750e+01 1.889088058471679688e+01 -7.516850531101226807e-02 -5.129367578774690628e-03 -2.408936060965061188e-02 4.651205241680145264e-02
3.625000000000000000e+03 3.011470794677734375e+01 -3.261104345321655273e+00 -1.800737380981445312e+00 3.335130214691162109e-01 -4.401673078536987305e-01 -6.415019631385803223e-01
3.626000000000000000e+03 1.099017047882080078e+01 1.401881790161132812e+01 4.911417490802705288e-04 -4.996630013920366764e-04 -2.556390199970337562e-06 5.258980090729892254e-04
3.627000000000000000e+03 1.044881820678710938e+01 1.652741241455078125e+01 2.342671905353199691e-05 -8.587453630752861500e-04 -2.505955926608294249e-04 2.840996312443166971e-04
3.628000000000000000e+03 1.384558391571044922e+01 9.310732841491699219e+00 -6.165250670164823532e-05 1.665728050284087658e-04 3.147608731524087489e-05 1.081139562302269042e-04
3.629000000000000000e+03 3.415129852294921875e+01 1.936071395874023438e+01 -7.997342944145202637e-02 1.107322983443737030e-02 -2.067006006836891174e-02 4.328365623950958252e-02
3.630000000000000000e+03 1.300507545471191406e+01 2.302222442626953125e+01 -1.556357555091381073e-02 1.466667628847062588e-03 -4.229072481393814087e-03 5.176067352294921875e-03
3.631000000000000000e+03 1.282323932647705078e+01 2.131269836425781250e+01 -9.297480806708335876e-03 1.171692274510860443e-03 -2.437736606225371361e-03 5.781751242466270924e-04
3.632000000000000000e+03 3.108260345458984375e+01 -3.858546018600463867e+00 -1.593332886695861816e+00 4.160322248935699463e-01 -3.531901836395263672e-01 -5.771952271461486816e-01
3.633000000000000000e+03 1.193540382385253906e+01 1.996147918701171875e+01 -4.412547219544649124e-03 -1.224073348566889763e-04 -1.360486377961933613e-03 -1.874213048722594976e-04
3.634000000000000000e+03 1.153650188446044922e+01 1.857436752319335938e+01 -1.539399963803589344e-03 -6.211671861819922924e-04 -6.481701275333762169e-04 -1.342500618193298578e-04
3.635000000000000000e+03 4.084992599487304688e+01 -1.882851600646972656e+01 1.210622310638427734e+00 2.638980150222778320e+00 1.154880762100219727e+00 1.194607257843017578e+00
3.636000000000000000e+03 1.213528633117675781e+01 2.136520767211914062e+01 -9.313597343862056732e-03 7.721250876784324646e-04 -2.562441630288958549e-03 8.431773167103528976e-04
3.637000000000000000e+03 1.135543441772460938e+01 1.481874847412109375e+01 5.513833602890372276e-04 -3.952175029553472996e-04 4.684975283453240991e-05 4.152859328314661980e-04
3.638000000000000000e+03 1.205765533447265625e+01 1.186748790740966797e+01 6.513336120406165719e-05 -2.523695548006799072e-05 1.196892117150127888e-05 3.169483679812401533e-04
3.639000000000000000e+03 3.597829055786132812e+01 1.558499240875244141e+01 -4.576293379068374634e-02 1.113248150795698166e-02 -1.038913521915674210e-02 2.248001471161842346e-02
3.640000000000000000e+03 4.766795349121093750e+01 -1.241875362396240234e+01 1.880160689353942871e+00 1.157526254653930664e+00 9.113060832023620605e-01 1.963119626045227051e+00
3.641000000000000000e+03 3.047757720947265625e+01 2.449070358276367188e+01 -5.196088552474975586e-02 -2.936381287872791290e-02 -2.439741045236587524e-02 2.697911113500595093e-02
3.642000000000000000e+03 3.229912948608398438e+01 2.222295761108398438e+01 -8.016597479581832886e-02 -8.562358096241950989e-03 -2.661849930882453918e-02 3.038461692631244659e-02
3.643000000000000000e+03 2.305344963073730469e+01 2.701190948486328125e+01 -3.059732913970947266e-02 -2.828086912631988525e-02 -1.766346022486686707e-02 4.230545461177825928e-02
3.644000000000000000e+03 2.311176109313964844e+01 2.479927253723144531e+01 -6.283309310674667358e-02 -2.538670971989631653e-02 -2.646594122052192688e-02 3.655995428562164307e-02
3.645000000000000000e+03 1.786086463928222656e+01 2.563261413574218750e+01 -3.196403011679649353e-02 -6.213476415723562241e-03 -1.145325135439634323e-02 2.526033110916614532e-02
3.646000000000000000e+03 1.679488182067871094e+01 5.934751510620117188e+00 6.384908920153975487e-05 5.672432962455786765e-05 3.617202673922292888e-05 1.966402123798616230e-05
3.647000000000000000e+03 1.333313179016113281e+01 7.375792980194091797e+00 5.116367174196057022e-05 4.703021477325819433e-05 2.945816595456562936e-05 1.116906496463343501e-04
3.648000000000000000e+03 3.023933601379394531e+01 -5.412009239196777344e+00 -6.160848140716552734e-01 6.516537070274353027e-01 1.067067682743072510e-02 -8.704299330711364746e-01
3.649000000000000000e+03 2.386945915222167969e+01 2.726179122924804688e+01 -2.770509943366050720e-02 -2.943534404039382935e-02 -1.714213378727436066e-02 4.108916595578193665e-02
3.650000000000000000e+03 2.320547866821289062e+01 2.880970191955566406e+01 -8.093917742371559143e-03 -2.932692319154739380e-02 -1.122625265270471573e-02 4.019769653677940369e-02
3.651000000000000000e+03 1.352814483642578125e+01 2.417304801940917969e+01 -1.826223172247409821e-02 7.105970871634781361e-04 -5.265490617603063583e-03 9.725017473101615906e-03
3.652000000000000000e+03 4.173478317260742188e+01 -1.623808670043945312e+01 3.333622217178344727e+00 2.428202629089355469e+00 1.728547453880310059e+00 2.573383152484893799e-01
3.653000000000000000e+03 1.571810340881347656e+01 2.498167991638183594e+01 -2.677145972847938538e-02 -4.520422371570020914e-04 -8.167050778865814209e-03 1.651299744844436646e-02
3.654000000000000000e+03 1.510069561004638672e+01 6.206960201263427734e+00 -6.214881432242691517e-05 3.654515603557229042e-05 -7.681097486056387424e-06 3.761681000469252467e-05
3.655000000000000000e+03 1.618571662902832031e+01 6.100775718688964844e+00 -4.600742977345362306e-05 -1.576618888066150248e-05 -1.853208596003241837e-05 -1.668738877924624830e-05
3.656000000000000000e+03 3.450662994384765625e+01 1.452398681640625000e+01 -2.696686610579490662e-02 -7.943601231090724468e-04 -8.328367955982685089e-03 2.130206115543842316e-02
3.657000000000000000e+03 4.249431991577148438e+01 -1.948063278198242188e+01 5.593773126602172852e-01 4.222692012786865234e+00 1.434620857238769531e+00 1.221603274345397949e+00
3.658000000000000000e+03 3.804376602172851562e+01 -8.128047943115234375e+00 -4.603682160377502441e-01 5.256349444389343262e-01 1.958000659942626953e-02 -7.776550054550170898e-01
3.659000000000000000e+03 4.103762054443359375e+01 -1.626770591735839844e+01 2.730508565902709961e+00 1.906017303466796875e+00 1.390957713127136230e+00 5.165719613432884216e-02
3.660000000000000000e+03 2.424068832397460938e+01 2.518901824951171875e+01 -6.022858619689941406e-02 -3.120474144816398621e-02 -2.742999792098999023e-02 4.333737492561340332e-02
3.661000000000000000e+03 4.261501693725585938e+01 -1.892191696166992188e+01 9.274625778198242188e-01 4.385299205780029297e+00 1.593828558921813965e+00 1.456132411956787109e+00
3.662000000000000000e+03 4.211495590209960938e+01 -1.787191390991210938e+01 2.184891462326049805e+00 3.576422214508056641e+00 1.728394150733947754e+00 1.565368652343750000e+00
3.663000000000000000e+03 3.730124282836914062e+01 1.814891624450683594e+01 -7.260249555110931396e-02 3.778194263577461243e-02 -1.044616661965847015e-02 2.471046149730682373e-02
3.664000000000000000e+03 8.373179435729980469e+00 1.084888935089111328e+01 1.599787792656570673e-04 -3.313579654786735773e-04 -5.141375731909647584e-05 1.589736348250880837e-04
3.665000000000000000e+03 7.668816089630126953e+00 1.109977245330810547e+01 3.727629955392330885e-04 -3.601446514949202538e-04 3.785499984587659128e-06 -1.197104138555005193e-04
3.666000000000000000e+03 8.914541244506835938e+00 7.037549972534179688e+00 1.389873359585180879e-04 -3.002765879500657320e-05 3.268790169386193156e-05 -1.469305971113499254e-05
3.667000000000000000e+03 3.296428298950195312e+01 2.054341697692871094e+01 -8.911178261041641235e-02 -4.256324318703263998e-04 -2.686122432351112366e-02 4.067137837409973145e-02
3.668000000000000000e+03 3.339381408691406250e+01 2.291201019287109375e+01 -6.435138732194900513e-02 1.084332820028066635e-02 -1.605241745710372925e-02 2.481140382587909698e-02
3.669000000000000000e+03 4.202711105346679688e+01 -1.457637596130371094e+01 2.817558288574218750e+00 2.467354774475097656e+00 1.585473895072937012e+00 -8.629192709922790527e-01
3.670000000000000000e+03 4.063364791870117188e+01 -1.566515254974365234e+01 2.567633628845214844e+00 1.601443886756896973e+00 1.250723242759704590e+00 -3.891538381576538086e-01
3.671000000000000000e+03 4.052822113037109375e+01 -1.520355796813964844e+01 2.399156093597412109e+00 1.448525786399841309e+00 1.154304623603820801e+00 -6.811892986297607422e-01
3.672000000000000000e+03 4.602998733520507812e+01 -1.040306758880615234e+01 -9.944131970405578613e-02 1.140186309814453125e+00 3.122234940528869629e-01 1.142003297805786133e+00
3.673000000000000000e+03 4.554744338989257812e+01 -1.001383686065673828e+01 -3.514452576637268066e-01 1.084436774253845215e+00 2.198974490165710449e-01 8.793368339538574219e-01
3.674000000000000000e+03 1.186515426635742188e+01 -7.438333511352539062e+00 -3.916256129741668701e-01 -2.381841391324996948e-01 -1.889429241418838501e-01 -7.662350684404373169e-02
3.675000000000000000e+03 1.367928314208984375e+01 -7.794285774230957031e+00 -4.731563627719879150e-01 -3.735903203487396240e-01 -2.540239989757537842e-01 -1.798599809408187866e-01
3.676000000000000000e+03 3.468302154541015625e+01 1.669910430908203125e+01 -5.355169624090194702e-02 5.433484911918640137e-03 -1.443546358495950699e-02 3.722602501511573792e-02
3.677000000000000000e+03 1.396408176422119141e+01 2.371722984313964844e+01 -1.926171034574508667e-02 1.827664906159043312e-03 -5.230213515460491180e-03 7.993264123797416687e-03
3.678000000000000000e+03 4.068661499023437500e+01 -1.370611000061035156e+01 1.897930979728698730e+00 1.441694974899291992e+00 1.001887798309326172e+00 -1.226185083389282227e+00
3.679000000000000000e+03 4.035860443115234375e+01 -1.294932651519775391e+01 1.472139239311218262e+00 1.186321139335632324e+00 7.975381612777709961e-01 -1.369603872299194336e+00
3.680000000000000000e+03 7.080845832824707031e+00 8.374642372131347656e+00 1.100156659958884120e-04 -2.138894051313400269e-04 -3.116212246823124588e-05 2.597534330561757088e-05
3.681000000000000000e+03 1.752479553222656250e+01 2.462724113464355469e+01 -3.631490468978881836e-02 -2.608387265354394913e-03 -1.167698763310909271e-02 1.947336830198764801e-02
3.682000000000000000e+03 1.653195381164550781e+01 2.511178207397460938e+01 -2.904544770717620850e-02 -2.188095590099692345e-03 -9.370063431560993195e-03 1.894542016088962555e-02
3.683000000000000000e+03 1.155957317352294922e+01 -8.279249191284179688e+00 -4.636685252189636230e-01 -2.313238978385925293e-01 -2.084977328777313232e-01 -9.496270120143890381e-02
3.684000000000000000e+03 3.484380340576171875e+01 -4.523355007171630859e+00 -1.554415345191955566e+00 6.097514033317565918e-01 -2.833991646766662598e-01 1.737011224031448364e-01
3.685000000000000000e+03 8.149591445922851562e+00 9.146368980407714844e+00 8.362704829778522253e-05 -2.525604795664548874e-04 -5.068002792540937662e-05 1.136921055149286985e-04
3.686000000000000000e+03 3.761220169067382812e+01 1.520896625518798828e+01 -5.073307827115058899e-02 1.918415725231170654e-02 -9.464676491916179657e-03 1.104783546179533005e-02
3.687000000000000000e+03 3.413414764404296875e+01 1.844413375854492188e+01 -7.120905816555023193e-02 4.605753347277641296e-03 -1.998099125921726227e-02 4.520741850137710571e-02
3.688000000000000000e+03 7.401099205017089844e+00 1.492783927917480469e+01 3.829427878372371197e-04 -8.092725765891373158e-04 -1.278989366255700588e-04 -2.434559428365901113e-04
3.689000000000000000e+03 1.000639629364013672e+01 1.780385971069335938e+01 -1.064297044649720192e-03 -1.155796577222645283e-03 -6.660280632786452770e-04 -3.142964487778954208e-05
3.690000000000000000e+03 1.147191905975341797e+01 1.740118789672851562e+01 -5.681156180799007416e-04 -8.429711451753973961e-04 -4.233260406181216240e-04 3.491741663310676813e-04
3.691000000000000000e+03 4.293245697021484375e+01 -9.271796226501464844e+00 -7.930541038513183594e-01 8.757685422897338867e-01 2.481432817876338959e-02 -3.323249816894531250e-01
3.692000000000000000e+03 4.188472366333007812e+01 -8.556934356689453125e+00 -1.114920020103454590e+00 5.861102938652038574e-01 -1.586429327726364136e-01 -5.062199831008911133e-01
3.693000000000000000e+03 3.372522354125976562e+01 2.385443115234375000e+01 -5.337473750114440918e-02 1.565700024366378784e-02 -1.131532061845064163e-02 1.959212310612201691e-02
3.694000000000000000e+03 7.029840850830078125e+01 -6.398321628570556641e+00 -4.109289348125457764e-01 2.162212133407592773e-01 -5.841232091188430786e-02 -8.198201060295104980e-01
3.695000000000000000e+03 8.100261688232421875e+00 8.195100784301757812e+00 2.316732570761814713e-04 -8.756994793657213449e-05 4.323099346947856247e-05 -5.474188219523057342e-05
3.696000000000000000e+03 3.345946884155273438e+01 2.052508735656738281e+01 -8.373234421014785767e-02 5.065907724201679230e-03 -2.359993010759353638e-02 3.866729140281677246e-02
3.697000000000000000e+03 3.031892585754394531e+01 2.589717483520507812e+01 -3.020198829472064972e-02 -2.265335246920585632e-02 -1.585660129785537720e-02 2.421345748007297516e-02
3.698000000000000000e+03 7.693418979644775391e+00 1.419129276275634766e+01 -4.691292633651755750e-05 -7.176576764322817326e-04 -2.293711731908842921e-04 1.038381105900043622e-05
3.699000000000000000e+03 3.976690292358398438e+01 -1.267977142333984375e+01 1.319360852241516113e+00 9.000808596611022949e-01 6.658325195312500000e-01 -1.451256871223449707e+00
3.700000000000000000e+03 3.975344848632812500e+01 -1.092453193664550781e+01 6.348556280136108398e-01 7.608821988105773926e-01 4.187213480472564697e-01 -1.364688396453857422e+00
3.701000000000000000e+03 4.037522888183593750e+01 -8.108703613281250000e+00 -1.002966403961181641e+00 4.954757392406463623e-01 -1.522471755743026733e-01 -6.930161714553833008e-01
3.702000000000000000e+03 1.244290637969970703e+01 7.121112346649169922e+00 1.028468905133195221e-04 8.458127922494895756e-06 3.339150498504750431e-05 1.269580679945647717e-04
3.703000000000000000e+03 1.342484092712402344e+01 6.129597187042236328e+00 -1.504218926129397005e-05 2.343607047805562615e-05 2.518164365028496832e-06 -3.272901039963471703e-06
3.704000000000000000e+03 8.622189521789550781e+00 1.861642456054687500e+01 -1.518870703876018524e-03 -1.254450995475053787e-03 -8.319964981637895107e-04 1.277529954677447677e-04
3.705000000000000000e+03 2.627326583862304688e+01 2.706095504760742188e+01 -2.450146712362766266e-02 -3.599040210247039795e-02 -1.814756169915199280e-02 3.719012439250946045e-02
3.706000000000000000e+03 2.034433174133300781e+01 2.612986183166503906e+01 -3.757043555378913879e-02 -1.612458378076553345e-02 -1.610850542783737183e-02 3.565170988440513611e-02
3.707000000000000000e+03 1.837648963928222656e+01 2.579679489135742188e+01 -3.385271131992340088e-02 -7.616702001541852951e-03 -1.244082394987344742e-02 2.818119525909423828e-02
3.708000000000000000e+03 7.279140472412109375e+00 -8.917242050170898438e+00 -2.712171077728271484e-01 -6.402292847633361816e-02 -1.005720123648643494e-01 -6.314837187528610229e-02
3.709000000000000000e+03 8.932291984558105469e+00 -6.836093902587890625e+00 -2.343093454837799072e-01 -7.445592433214187622e-02 -9.262958168983459473e-02 1.496253628283739090e-02
3.710000000000000000e+03 7.101049041748046875e+01 -7.152272224426269531e+00 -4.445872306823730469e-01 1.447245627641677856e-01 -8.995880931615829468e-02 -7.711487412452697754e-01
3.711000000000000000e+03 4.587952804565429688e+01 -1.228676128387451172e+01 1.269899606704711914e+00 2.061896085739135742e+00 9.995386600494384766e-01 1.413619399070739746e+00
3.712000000000000000e+03 4.786240005493164062e+01 -1.192288780212402344e+01 1.330502033233642578e+00 9.917910099029541016e-01 6.966879367828369141e-01 1.920685648918151855e+00
3.713000000000000000e+03 1.723808288574218750e+01 2.544324684143066406e+01 -3.150474280118942261e-02 -3.300788812339305878e-03 -1.044165901839733124e-02 2.224904112517833710e-02
3.714000000000000000e+03 8.009224891662597656e+00 1.834577178955078125e+01 -1.577299786731600761e-03 -1.152941724285483360e-03 -8.190724765881896019e-04 2.240739559056237340e-04
3.715000000000000000e+03 8.085289955139160156e+00 1.904063224792480469e+01 -1.575510017573833466e-03 -1.095724175684154034e-03 -8.013702463358640671e-04 1.284717145608738065e-04
3.716000000000000000e+03 6.432541656494140625e+01 -3.125686645507812500e+00 -3.741933405399322510e-02 1.343031644821166992e+00 3.916836977005004883e-01 -1.282093226909637451e-01
3.717000000000000000e+03 6.372109985351562500e+01 -1.028339266777038574e+00 2.556815147399902344e-01 1.902845978736877441e+00 6.475582718849182129e-01 8.932291716337203979e-02
3.718000000000000000e+03 6.997639465332031250e+01 -7.830814838409423828e+00 -5.402765870094299316e-01 2.285079210996627808e-01 -9.353059530258178711e-02 -7.489054799079895020e-01
3.719000000000000000e+03 3.872344589233398438e+01 -9.715469360351562500e+00 2.024576067924499512e-01 4.936743676662445068e-01 2.088395953178405762e-01 -1.201410174369812012e+00
3.720000000000000000e+03 6.860680389404296875e+01 1.669910240173339844e+01 8.954124450683593750e-01 1.930685639381408691e+00 8.478294014930725098e-01 1.377648711204528809e-01
3.721000000000000000e+03 7.204519653320312500e+01 -4.696012973785400391e+00 -2.031440734863281250e-01 -7.621644996106624603e-03 -6.322971731424331665e-02 -8.841415047645568848e-01
3.722000000000000000e+03 3.674984359741210938e+01 1.540165901184082031e+01 -5.053763464093208313e-02 1.532249804586172104e-02 -1.056454144418239594e-02 2.052395604550838470e-02
3.723000000000000000e+03 7.891455650329589844e+00 2.574880409240722656e+01 -6.074130069464445114e-03 -3.193898359313607216e-03 -2.780408598482608795e-03 7.407185155898332596e-03
3.724000000000000000e+03 8.593176841735839844e+00 2.668571090698242188e+01 -5.737725179642438889e-03 -3.933496773242950439e-03 -2.901366446167230606e-03 8.626027964055538177e-03
3.725000000000000000e+03 7.299869537353515625e+00 1.221975517272949219e+01 3.409339115023612976e-04 -4.804129130207002163e-04 -4.184370118309743702e-05 -1.964142575161531568e-04
3.726000000000000000e+03 4.204523849487304688e+01 -9.421302795410156250e+00 -5.747762918472290039e-01 8.524033427238464355e-01 8.328811079263687134e-02 -6.361933350563049316e-01
3.727000000000000000e+03 4.247959136962890625e+01 -9.782030105590820312e+00 -4.293275177478790283e-01 1.048559308052062988e+00 1.857695281505584717e-01 -5.653555393218994141e-01
3.728000000000000000e+03 7.212349700927734375e+01 -6.370573997497558594e+00 -3.095121383666992188e-01 -4.213127773255109787e-03 -9.411758184432983398e-02 -8.047891259193420410e-01
3.729000000000000000e+03 1.057439327239990234e+01 -7.736607551574707031e+00 -3.664055168628692627e-01 -1.607208847999572754e-01 -1.581379175186157227e-01 -5.368587374687194824e-02
3.730000000000000000e+03 1.097742176055908203e+01 -6.949714660644531250e+00 -3.151147961616516113e-01 -1.627749353647232056e-01 -1.433669179677963257e-01 -2.791782468557357788e-02
3.731000000000000000e+03 7.797840118408203125e+00 -8.116035461425781250e+00 -2.642002999782562256e-01 -6.279609352350234985e-02 -9.809891879558563232e-02 -2.602824568748474121e-02
3.732000000000000000e+03 6.439714813232421875e+01 -6.517009258270263672e+00 -4.434438347816467285e-01 6.568228602409362793e-01 6.401371210813522339e-02 -1.394967287778854370e-01
3.733000000000000000e+03 6.976423645019531250e+01 9.966345787048339844e+00 6.169819831848144531e-01 1.229231238365173340e+00 5.538639426231384277e-01 -2.897101938724517822e-01
3.734000000000000000e+03 6.614083290100097656e+00 -9.645140647888183594e+00 -2.582725584506988525e-01 -5.325491353869438171e-02 -9.345824271440505981e-02 -9.401120990514755249e-02
3.735000000000000000e+03 7.462105751037597656e+00 -1.030864906311035156e+01 -3.448658585548400879e-01 -8.972021192312240601e-02 -1.303758174180984497e-01 -1.588185876607894897e-01
3.736000000000000000e+03 7.083464813232421875e+01 2.089798450469970703e+00 2.320104539394378662e-01 4.028117358684539795e-01 1.904466599225997925e-01 -8.055875897407531738e-01
3.737000000000000000e+03 1.103104782104492188e+01 -9.066599845886230469e+00 -5.068457126617431641e-01 -2.154302448034286499e-01 -2.166827917098999023e-01 -1.292450577020645142e-01
3.738000000000000000e+03 6.814526367187500000e+01 4.815379619598388672e+00 5.336499214172363281e-01 1.655928015708923340e+00 6.568734049797058105e-01 -4.660570621490478516e-01
3.739000000000000000e+03 6.100260925292968750e+01 -7.874710083007812500e+00 -7.085400223731994629e-01 9.621108770370483398e-01 7.607125490903854370e-02 5.798011422157287598e-01
3.740000000000000000e+03 8.001807212829589844e+00 -1.334457588195800781e+01 -4.119462370872497559e-01 -1.653755605220794678e-01 -1.731965392827987671e-01 -4.069966077804565430e-01
3.741000000000000000e+03 5.667657375335693359e+00 -1.563617229461669922e+01 -1.574178636074066162e-01 -2.585015296936035156e-01 -1.247758120298385620e-01 -4.687676131725311279e-01
3.742000000000000000e+03 3.596710968017578125e+01 1.869704437255859375e+01 -7.207516580820083618e-02 3.052472881972789764e-02 -1.246513146907091141e-02 3.238805010914802551e-02
3.743000000000000000e+03 1.030390071868896484e+01 -1.101893234252929688e+01 -5.872009992599487305e-01 -2.075930386781692505e-01 -2.384382039308547974e-01 -2.540895938873291016e-01
3.744000000000000000e+03 9.541160583496093750e+00 -9.163526535034179688e+00 -4.223026931285858154e-01 -1.338872015476226807e-01 -1.668569743633270264e-01 -1.045667827129364014e-01
3.745000000000000000e+03 6.533322143554687500e+01 1.773067712783813477e+00 4.223877191543579102e-01 2.196908473968505859e+00 7.857888340950012207e-01 -1.003863364458084106e-01
3.746000000000000000e+03 7.520650386810302734e+00 2.337506866455078125e+01 -4.328018520027399063e-03 -1.733217271976172924e-03 -1.818370772525668144e-03 3.493453841656446457e-03
3.747000000000000000e+03 7.178652954101562500e+01 5.179840087890625000e+00 3.615191578865051270e-01 1.976096481084823608e-01 1.677386462688446045e-01 -6.741073727607727051e-01
3.748000000000000000e+03 6.976792144775390625e+01 -2.827779531478881836e+00 -8.379577100276947021e-02 4.029305875301361084e-01 9.574044495820999146e-02 -8.561005592346191406e-01
3.749000000000000000e+03 4.130677413940429688e+01 2.173796463012695312e+01 -5.626861751079559326e-02 6.522429734468460083e-02 2.686704508960247040e-03 1.413542870432138443e-02
3.750000000000000000e+03 6.788691711425781250e+01 -5.998669624328613281e+00 -4.277570545673370361e-01 4.147630929946899414e-01 -3.898190101608633995e-03 -7.169682979583740234e-01
3.751000000000000000e+03 7.163033294677734375e+01 -7.975743293762207031e+00 -4.474039971828460693e-01 9.630180895328521729e-02 -1.053306609392166138e-01 -7.184570431709289551e-01
3.752000000000000000e+03 7.170529174804687500e+01 1.526344776153564453e+01 6.040940880775451660e-01 2.372381240129470825e-01 2.523996531963348389e-01 1.284338980913162231e-01
3.753000000000000000e+03 7.173761749267578125e+01 2.165043640136718750e+01 2.991389036178588867e-01 2.398373186588287354e-01 1.616928726434707642e-01 7.199402451515197754e-01
3.754000000000000000e+03 7.391169738769531250e+01 1.880340194702148438e+01 2.997951805591583252e-01 -8.275516629219055176e-01 -1.583269536495208740e-01 4.729571044445037842e-01
3.755000000000000000e+03 3.852871322631835938e+01 2.119359588623046875e+01 -6.479839980602264404e-02 5.569223687052726746e-02 -2.731848042458295822e-03 2.189118415117263794e-02
3.756000000000000000e+03 7.684000015258789062e+00 2.723757934570312500e+01 -5.362079478800296783e-03 -4.636229947209358215e-03 -2.999492920935153961e-03 9.120894595980644226e-03
3.757000000000000000e+03 5.027558135986328125e+01 2.805257225036621094e+01 1.953871548175811768e-01 2.678587138652801514e-01 1.389737576246261597e-01 -3.122114241123199463e-01
3.758000000000000000e+03 7.030712890625000000e+01 2.478087425231933594e+01 4.691082611680030823e-02 8.090368509292602539e-01 2.567843198776245117e-01 8.157725334167480469e-01
3.759000000000000000e+03 6.940264892578125000e+01 2.188421058654785156e+01 3.792922198772430420e-01 1.248721361160278320e+00 4.884040951728820801e-01 7.218129038810729980e-01
3.760000000000000000e+03 8.516073226928710938e+00 -2.048102569580078125e+01 1.197884604334831238e-01 -4.605780243873596191e-01 -1.022368669509887695e-01 -6.873249411582946777e-01
3.761000000000000000e+03 6.910646057128906250e+01 -2.999790000915527344e+01 -1.928377896547317505e-02 7.522426079958677292e-03 -3.528406145051121712e-03 1.175782084465026855e-02
3.762000000000000000e+03 7.268699645996093750e+01 2.055010604858398438e+01 2.956257164478302002e-01 -1.962898224592208862e-01 2.980076521635055542e-02 6.557898521423339844e-01
3.763000000000000000e+03 7.189308166503906250e+01 9.223464965820312500e+00 3.961813151836395264e-01 8.290710300207138062e-02 1.437265276908874512e-01 -4.107017815113067627e-01
3.764000000000000000e+03 7.164350891113281250e+01 1.948375129699707031e+01 4.751090109348297119e-01 2.481206804513931274e-01 2.169689089059829712e-01 5.779353976249694824e-01
3.765000000000000000e+03 7.075941467285156250e+01 1.456174755096435547e+01 6.609755158424377441e-01 7.662898898124694824e-01 4.281796216964721680e-01 4.630871862173080444e-02
3.766000000000000000e+03 7.112801361083984375e+01 1.206729221343994141e+01 5.986298918724060059e-01 6.049603223800659180e-01 3.610770702362060547e-01 -1.675794273614883423e-01
3.767000000000000000e+03 4.543768692016601562e+01 2.649695014953613281e+01 8.528407663106918335e-02 8.974204212427139282e-02 5.250783637166023254e-02 -7.198727130889892578e-02
3.768000000000000000e+03 3.911322021484375000e+01 2.299219894409179688e+01 -3.827480971813201904e-02 6.195297464728355408e-02 7.103449665009975433e-03 1.638900488615036011e-02
3.769000000000000000e+03 3.795064163208007812e+01 2.245066642761230469e+01 -5.567207187414169312e-02 4.792941361665725708e-02 -2.322796499356627464e-03 2.694009244441986084e-02
3.770000000000000000e+03 6.891335010528564453e+00 -1.710276603698730469e+01 -1.424458026885986328e-01 -3.335969448089599609e-01 -1.428128182888031006e-01 -6.023977994918823242e-01
3.771000000000000000e+03 6.634812927246093750e+01 5.164382457733154297e+00 6.485325694084167480e-01 2.544136285781860352e+00 9.578006267547607422e-01 -1.373124122619628906e-01
3.772000000000000000e+03 6.644939422607421875e+01 2.361403226852416992e+00 4.385907351970672607e-01 1.917867422103881836e+00 7.069374322891235352e-01 -3.145391941070556641e-01
3.773000000000000000e+03 2.971331596374511719e+01 -3.320246696472167969e+00 -1.678093552589416504e+00 2.740859985351562500e-01 -4.212022721767425537e-01 -6.902592182159423828e-01
3.774000000000000000e+03 2.810051155090332031e+01 -3.783416032791137695e+00 -1.187459588050842285e+00 3.151351213455200195e-02 -3.467838466167449951e-01 -8.586620092391967773e-01
3.775000000000000000e+03 4.484256362915039062e+01 -1.289494037628173828e+01 1.464110016822814941e+00 3.039071798324584961e+00 1.350954532623291016e+00 8.868054747581481934e-01
3.776000000000000000e+03 4.194322204589843750e+01 -1.863114929199218750e+01 1.371431112289428711e+00 3.665385723114013672e+00 1.511045098304748535e+00 1.500186204910278320e+00
3.777000000000000000e+03 2.922494888305664062e+01 -3.014616727828979492e+00 -1.791611790657043457e+00 1.734596937894821167e-01 -4.854456186294555664e-01 -6.598426699638366699e-01
3.778000000000000000e+03 2.915651893615722656e+01 -5.018878936767578125e+00 -7.733610272407531738e-01 3.209241032600402832e-01 -1.357310712337493896e-01 -9.832409620285034180e-01
3.779000000000000000e+03 4.263296508789062500e+01 -1.478226566314697266e+01 3.220189809799194336e+00 3.122579097747802734e+00 1.902830600738525391e+00 -7.300363779067993164e-01
3.780000000000000000e+03 4.568243026733398438e+01 -1.320003604888916016e+01 2.050060510635375977e+00 2.731050729751586914e+00 1.434333443641662598e+00 1.657727003097534180e+00
3.781000000000000000e+03 4.449198150634765625e+01 -1.332628917694091797e+01 1.717884898185729980e+00 3.549983978271484375e+00 1.580360651016235352e+00 6.119126677513122559e-01
3.782000000000000000e+03 4.126260375976562500e+01 -1.824484634399414062e+01 1.680935382843017578e+00 2.922297954559326172e+00 1.380970001220703125e+00 1.278396368026733398e+00
3.783000000000000000e+03 4.639059448242187500e+01 -1.350754642486572266e+01 2.615924119949340820e+00 2.085375785827636719e+00 1.410390019416809082e+00 2.022819995880126953e+00
3.784000000000000000e+03 4.106741714477539062e+01 -1.471673393249511719e+01 2.523531436920166016e+00 1.731715679168701172e+00 1.276574134826660156e+00 -8.663752675056457520e-01
3.785000000000000000e+03 4.198200988769531250e+01 -1.577046680450439453e+01 3.469056129455566406e+00 2.533193826675415039e+00 1.800674915313720703e+00 -1.126083955168724060e-01
3.786000000000000000e+03 4.136158752441406250e+01 -1.551932334899902344e+01 3.010765552520751953e+00 1.969866275787353516e+00 1.494189500808715820e+00 -4.205458164215087891e-01
3.787000000000000000e+03 4.406327819824218750e+01 -1.361468791961669922e+01 1.911422848701477051e+00 3.780902147293090820e+00 1.707697510719299316e+00 2.108645141124725342e-01
3.788000000000000000e+03 4.155390167236328125e+01 -1.587637996673583984e+01 3.150116920471191406e+00 2.211837053298950195e+00 1.608586192131042480e+00 -8.998556435108184814e-02
3.789000000000000000e+03 4.123312759399414062e+01 -1.575370883941650391e+01 2.962111234664916992e+00 1.908026695251464844e+00 1.461041331291198730e+00 -2.385312616825103760e-01
3.790000000000000000e+03 4.098727035522460938e+01 -1.784597778320312500e+01 1.902771115303039551e+00 2.476225376129150391e+00 1.313698887825012207e+00 1.044416904449462891e+00
3.791000000000000000e+03 4.179030990600585938e+01 -1.776437568664550781e+01 2.283233165740966797e+00 3.217873573303222656e+00 1.650332093238830566e+00 1.372360825538635254e+00
3.792000000000000000e+03 3.518487930297851562e+01 1.483242130279541016e+01 -3.437064960598945618e-02 2.893238328397274017e-03 -9.443223476409912109e-03 2.166294679045677185e-02
3.793000000000000000e+03 4.520560455322265625e+01 -1.289286708831787109e+01 1.612887978553771973e+00 2.877680540084838867e+00 1.347170591354370117e+00 1.191482543945312500e+00
3.794000000000000000e+03 1.403065109252929688e+01 9.661350250244140625e+00 1.952883394551463425e-05 9.519259037915617228e-05 3.441642547841183841e-05 1.724363683024421334e-04
3.795000000000000000e+03 4.380791473388671875e+01 -1.353949069976806641e+01 1.865694999694824219e+00 3.566145420074462891e+00 1.629552125930786133e+00 -6.328926980495452881e-02
3.796000000000000000e+03 4.364582443237304688e+01 -1.388735389709472656e+01 2.241826295852661133e+00 3.823904514312744141e+00 1.819719314575195312e+00 -2.400144636631011963e-01
3.797000000000000000e+03 4.285384368896484375e+01 -1.345306110382080078e+01 1.914882421493530273e+00 2.888642787933349609e+00 1.441057562828063965e+00 -7.324346303939819336e-01
3.798000000000000000e+03 4.326719665527343750e+01 -1.365761756896972656e+01 2.058331966400146484e+00 3.329171895980834961e+00 1.616251111030578613e+00 -5.040152668952941895e-01
3.799000000000000000e+03 4.257877731323242188e+01 -1.359200000762939453e+01 2.040576219558715820e+00 2.768245220184326172e+00 1.442646384239196777e+00 -8.633996248245239258e-01
3.800000000000000000e+03 4.285163497924804688e+01 -1.421404361724853516e+01 2.589234828948974609e+00 3.235140323638916016e+00 1.747312545776367188e+00 -7.646092176437377930e-01
3.801000000000000000e+03 2.997343635559082031e+01 -3.685410022735595703e+00 -1.544280290603637695e+00 3.318220078945159912e-01 -3.637374937534332275e-01 -7.149536609649658203e-01
3.802000000000000000e+03 1.306466293334960938e+01 6.860653400421142578e+00 4.645483386411797255e-06 3.020233452843967825e-05 1.045434510160703212e-05 3.177196776960045099e-05
3.803000000000000000e+03 4.104578399658203125e+01 -1.514648628234863281e+01 2.694995880126953125e+00 1.786699175834655762e+00 1.344508528709411621e+00 -6.558814644813537598e-01
3.804000000000000000e+03 1.661977386474609375e+01 6.182805061340332031e+00 -8.155964314937591553e-05 4.260209243511781096e-05 -1.168726612377213314e-05 -3.230114089092239738e-05
3.805000000000000000e+03 1.063312149047851562e+01 1.529439830780029297e+01 4.723695456050336361e-04 -6.630125571973621845e-04 -5.719290857086889446e-05 3.128442331217229366e-04
3.806000000000000000e+03 9.073650360107421875e+00 1.240630245208740234e+01 1.853975118137896061e-04 -5.045700818300247192e-04 -9.575176954967901111e-05 2.962064463645219803e-04
3.807000000000000000e+03 3.546875000000000000e+01 1.334248161315917969e+01 -2.370931394398212433e-02 1.777323486749082804e-04 -7.059474475681781769e-03 1.217929366976022720e-02
3.808000000000000000e+03 4.192650222778320312e+01 -1.905258178710937500e+01 1.040048956871032715e+00 3.720971107482910156e+00 1.428305983543395996e+00 1.400301575660705566e+00
3.809000000000000000e+03 1.272359752655029297e+01 1.145408916473388672e+01 1.825859544624108821e-05 8.097363024717196822e-05 2.976966788992285728e-05 3.491667448543012142e-04
3.810000000000000000e+03 1.376451110839843750e+01 9.903838157653808594e+00 -1.070154976332560182e-04 1.366430369671434164e-04 8.888261618267279118e-06 1.883950171759352088e-04
3.811000000000000000e+03 2.913669967651367188e+01 -3.920267820358276367e+00 -1.317364454269409180e+00 2.261684536933898926e-01 -3.273587822914123535e-01 -8.179087042808532715e-01
3.812000000000000000e+03 3.528661727905273438e+01 9.669017791748046875e+00 -1.929153222590684891e-03 5.577455158345401287e-04 -4.114223120268434286e-04 -2.164252509828656912e-04
3.813000000000000000e+03 3.503619384765625000e+01 1.528406715393066406e+01 -3.603606671094894409e-02 4.757692571729421616e-03 -9.383512660861015320e-03 2.323665842413902283e-02
3.814000000000000000e+03 1.543095493316650391e+01 6.939625263214111328e+00 -5.842966493219137192e-05 4.935717515763826668e-05 -2.721746568568050861e-06 5.021025208407081664e-05
3.815000000000000000e+03 1.626642227172851562e+01 6.576669692993164062e+00 -7.907122198957949877e-05 -5.481979769683675840e-06 -2.536596002755686641e-05 -6.579941782547393814e-06
3.816000000000000000e+03 1.136109256744384766e+01 1.595308399200439453e+01 3.622050862759351730e-04 -4.063253290951251984e-04 -1.323607284575700760e-05 3.355134394951164722e-04
3.817000000000000000e+03 3.516265869140625000e+01 1.826909828186035156e+01 -6.920059770345687866e-02 1.440306380391120911e-02 -1.643925905227661133e-02 3.944026678800582886e-02
3.818000000000000000e+03 1.205460643768310547e+01 1.066176605224609375e+01 1.114024998969398439e-04 5.530365160666406155e-05 5.001184399588964880e-05 3.191352880094200373e-04
3.819000000000000000e+03 1.309133338928222656e+01 8.087754249572753906e+00 8.856467320583760738e-05 4.461087155505083501e-05 3.995266160927712917e-05 1.240459096152335405e-04
3.820000000000000000e+03 1.097780132293701172e+01 1.236139678955078125e+01 2.585936163086444139e-04 -2.183990436606109142e-04 1.205836997542064637e-05 4.206295998301357031e-04
3.821000000000000000e+03 4.188817596435546875e+01 -9.952335357666015625e+00 -2.183301746845245361e-01 1.053561091423034668e+00 2.505692541599273682e-01 -8.018139600753784180e-01
3.822000000000000000e+03 1.130026817321777344e+01 1.198390197753906250e+01 1.416336017427965999e-04 -1.590862812008708715e-04 -5.235801381786586717e-06 3.030674124602228403e-04
3.823000000000000000e+03 1.174245262145996094e+01 1.231436157226562500e+01 2.199153823312371969e-04 2.190318082284647971e-05 7.254556840052828193e-05 4.405711079016327858e-04
3.824000000000000000e+03 2.720008850097656250e+01 -4.701869487762451172e+00 -7.366616129875183105e-01 -5.671818926930427551e-02 -2.380139529705047607e-01 -1.018201470375061035e+00
3.825000000000000000e+03 1.042334747314453125e+01 1.353892135620117188e+01 2.682838239707052708e-04 -3.630201390478760004e-04 -2.842089270416181535e-05 1.760793966241180897e-04
3.826000000000000000e+03 1.224659061431884766e+01 2.265716171264648438e+01 -1.310094073414802551e-02 1.190193113870918751e-03 -3.573224181309342384e-03 3.755618352442979813e-03
3.827000000000000000e+03 1.241855239868164062e+01 2.326073265075683594e+01 -1.293539721518754959e-02 8.635469130240380764e-04 -3.621555166319012642e-03 5.189523100852966309e-03
3.828000000000000000e+03 4.090831375122070312e+01 -1.320265388488769531e+01 1.634734630584716797e+00 1.508009314537048340e+00 9.428231716156005859e-01 -1.272637128829956055e+00
3.829000000000000000e+03 4.011066818237304688e+01 -1.354145717620849609e+01 1.687270998954772949e+00 1.134959101676940918e+00 8.466690182685852051e-01 -1.311704754829406738e+00
3.830000000000000000e+03 1.094538497924804688e+01 1.313422298431396484e+01 2.891857293434441090e-04 -3.108125238213688135e-04 -6.488040980912046507e-06 4.931871080771088600e-04
3.831000000000000000e+03 1.162262439727783203e+01 2.051305961608886719e+01 -5.828563123941421509e-03 2.970879359054379165e-05 -1.739656319841742516e-03 -2.272452093166066334e-06
3.832000000000000000e+03 4.139276123046875000e+01 -1.869755172729492188e+01 1.344550490379333496e+00 3.127480506896972656e+00 1.341609358787536621e+00 1.315368890762329102e+00
3.833000000000000000e+03 4.150373458862304688e+01 -1.914841079711914062e+01 1.040543198585510254e+00 3.352453231811523438e+00 1.317898988723754883e+00 1.363973975181579590e+00
3.834000000000000000e+03 4.198792266845703125e+01 -1.821950340270996094e+01 1.750874161720275879e+00 3.582442760467529297e+00 1.599995017051696777e+00 1.526195526123046875e+00
3.835000000000000000e+03 1.186476612091064453e+01 7.478201866149902344e+00 -3.310447937110438943e-05 1.319728653470519930e-05 -5.972157396172406152e-06 9.106893412536010146e-05
3.836000000000000000e+03 1.134345436096191406e+01 6.985126495361328125e+00 1.619643153389915824e-04 -2.696441515581682324e-05 4.049997005495242774e-05 1.134228659793734550e-04
3.837000000000000000e+03 1.000597476959228516e+01 2.080234527587890625e+01 -5.113972350955009460e-03 -8.409647853113710880e-04 -1.786481239832937717e-03 1.050533377565443516e-03
3.838000000000000000e+03 1.148659801483154297e+01 1.981044578552246094e+01 -4.256748128682374954e-03 -4.242888244334608316e-04 -1.404311042279005051e-03 -8.498661372868809849e-06
3.839000000000000000e+03 1.082646274566650391e+01 7.585705280303955078e+00 -1.545853774587158114e-05 -9.969194798031821847e-05 -3.454514444456435740e-05 1.008482286124490201e-04
3.840000000000000000e+03 4.739776229858398438e+01 -1.196414566040039062e+01 1.339130401611328125e+00 1.257164359092712402e+00 7.788884043693542480e-01 1.875096201896667480e+00
3.841000000000000000e+03 1.463482761383056641e+01 7.572166442871093750e+00 1.651499474064621609e-06 6.884743925184011459e-05 2.114968265232164413e-05 2.445098289172165096e-05
3.842000000000000000e+03 3.619517898559570312e+01 1.640073776245117188e+01 -5.815725028514862061e-02 1.630725525319576263e-02 -1.255499850958585739e-02 3.001376613974571228e-02
3.843000000000000000e+03 3.545538711547851562e+01 1.662772369384765625e+01 -5.332694202661514282e-02 1.121533941477537155e-02 -1.263348013162612915e-02 2.966392226517200470e-02
3.844000000000000000e+03 1.513475036621093750e+01 7.483061313629150391e+00 -3.260940502514131367e-05 8.161752339219674468e-05 1.470243569201556966e-05 6.076014688005670905e-05
3.845000000000000000e+03 1.358788013458251953e+01 7.862545490264892578e+00 -2.117125768563710153e-05 7.788484799675643444e-05 1.701407563814427704e-05 6.011574805597774684e-05
3.846000000000000000e+03 1.443460559844970703e+01 2.398729324340820312e+01 -2.156898938119411469e-02 1.190444803796708584e-03 -6.113563664257526398e-03 1.021540537476539612e-02
3.847000000000000000e+03 8.135426521301269531e+00 -9.492923736572265625e+00 -3.546407520771026611e-01 -8.790870010852813721e-02 -1.327648460865020752e-01 -1.092513576149940491e-01
3.848000000000000000e+03 9.696933746337890625e+00 -7.264700889587402344e+00 -2.942885756492614746e-01 -1.116383969783782959e-01 -1.217780932784080505e-01 -1.431207545101642609e-02
3.849000000000000000e+03 2.842351531982421875e+01 2.670441627502441406e+01 -2.250946499407291412e-02 -3.126271441578865051e-02 -1.613165251910686493e-02 2.999359183013439178e-02
3.850000000000000000e+03 3.450341796875000000e+01 1.621370887756347656e+01 -4.461986199021339417e-02 3.462786786258220673e-03 -1.234712265431880951e-02 3.102617897093296051e-02
3.851000000000000000e+03 2.231958580017089844e+01 2.784654235839843750e+01 -1.874085702002048492e-02 -2.629887871444225311e-02 -1.351192127913236618e-02 3.978700935840606689e-02
3.852000000000000000e+03 1.123588180541992188e+01 1.890343856811523438e+01 -2.112639602273702621e-03 -6.508146761916577816e-04 -8.290362893603742123e-04 -1.686995819909498096e-04
3.853000000000000000e+03 1.290075206756591797e+01 2.455543136596679688e+01 -1.545499265193939209e-02 2.199859445681795478e-04 -4.570501856505870819e-03 9.102448821067810059e-03
3.854000000000000000e+03 1.142922115325927734e+01 2.155271148681640625e+01 -7.618712726980447769e-03 2.918301033787429333e-04 -2.198064932599663734e-03 1.324899611063301563e-03
3.855000000000000000e+03 3.371554946899414062e+01 1.884360504150390625e+01 -7.206133008003234863e-02 1.770450267940759659e-03 -2.108726464211940765e-02 4.357974603772163391e-02
3.856000000000000000e+03 3.490052413940429688e+01 2.078590583801269531e+01 -7.784886658191680908e-02 2.813085727393627167e-02 -1.491540111601352692e-02 3.196780011057853699e-02
3.857000000000000000e+03 3.688998413085937500e+01 1.619786071777343750e+01 -5.681909993290901184e-02 1.974038034677505493e-02 -1.112361624836921692e-02 2.011834457516670227e-02
3.858000000000000000e+03 3.672461318969726562e+01 1.694223594665527344e+01 -6.285093724727630615e-02 2.702761813998222351e-02 -1.074699498713016510e-02 2.398534491658210754e-02
3.859000000000000000e+03 1.093251705169677734e+01 1.774107360839843750e+01 -8.238015579991042614e-04 -8.489152533002197742e-04 -5.018150550313293934e-04 1.007179616863140836e-05
3.860000000000000000e+03 1.045505905151367188e+01 1.809948921203613281e+01 -1.220752834342420101e-03 -1.093905884772539139e-03 -6.943976040929555893e-04 1.755318953655660152e-04
3.861000000000000000e+03 4.146058654785156250e+01 -9.137782096862792969e+00 -6.302565336227416992e-01 7.420942783355712891e-01 3.355132415890693665e-02 -7.700192332267761230e-01
3.862000000000000000e+03 4.034339141845703125e+01 -9.610914230346679688e+00 -1.170200556516647339e-01 7.050602436065673828e-01 1.764120608568191528e-01 -1.058207511901855469e+00
3.863000000000000000e+03 3.444978332519531250e+01 1.793146514892578125e+01 -6.590560823678970337e-02 1.040700078010559082e-02 -1.664958149194717407e-02 3.883039951324462891e-02
3.864000000000000000e+03 3.473055648803710938e+01 1.890055656433105469e+01 -7.240000367164611816e-02 1.720275357365608215e-02 -1.655917428433895111e-02 3.713868930935859680e-02
3.865000000000000000e+03 1.009775829315185547e+01 8.248333930969238281e+00 1.359614980174228549e-04 -1.074780811904929578e-04 8.545021955796983093e-06 1.582138502271845937e-04
3.866000000000000000e+03 1.320613956451416016e+01 2.359870147705078125e+01 -1.597812771797180176e-02 1.485659508034586906e-03 -4.347740206867456436e-03 6.551173981279134750e-03
3.867000000000000000e+03 3.598392868041992188e+01 -6.546181678771972656e+00 -8.394939899444580078e-01 6.880918145179748535e-01 -4.542066156864166260e-02 -2.147215455770492554e-01
3.868000000000000000e+03 4.015256500244140625e+01 -1.199834728240966797e+01 1.035990595817565918e+00 9.804044961929321289e-01 6.049185395240783691e-01 -1.416858911514282227e+00
3.869000000000000000e+03 4.111622619628906250e+01 -1.055224895477294922e+01 2.315509319305419922e-01 1.027014851570129395e+00 3.775697350502014160e-01 -1.089605927467346191e+00
3.870000000000000000e+03 3.253225708007812500e+01 2.318646430969238281e+01 -6.921315193176269531e-02 -2.840294037014245987e-04 -2.084915339946746826e-02 2.485773898661136627e-02
3.871000000000000000e+03 3.175945281982421875e+01 2.456856346130371094e+01 -4.944967851042747498e-02 -9.583583101630210876e-03 -1.770997792482376099e-02 2.094136923551559448e-02
3.872000000000000000e+03 1.054839611053466797e+01 1.266920089721679688e+01 2.886462025344371796e-04 -2.723341458477079868e-04 4.893616278422996402e-06 2.283643989358097315e-04
3.873000000000000000e+03 4.382691574096679688e+01 -1.291239929199218750e+01 1.419539451599121094e+00 3.117877006530761719e+00 1.361225008964538574e+00 7.573078037239611149e-04
3.874000000000000000e+03 1.071767997741699219e+01 1.843805694580078125e+01 -1.645462471060454845e-03 -6.575151346623897552e-04 -6.908932700753211975e-04 -2.779948772513307631e-05
3.875000000000000000e+03 1.126030445098876953e+01 1.817739486694335938e+01 -1.382208312861621380e-03 -1.058867084793746471e-03 -7.323226309381425381e-04 4.907444599666632712e-05
3.876000000000000000e+03 6.437873840332031250e+01 -7.729239463806152344e+00 -6.569745540618896484e-01 3.282198607921600342e-01 -9.862641245126724243e-02 -1.640622615814208984e-01
3.877000000000000000e+03 3.284867858886718750e+01 2.425853157043457031e+01 -4.728882759809494019e-02 5.313936155289411545e-03 -1.259246841073036194e-02 1.907121390104293823e-02
3.878000000000000000e+03 2.045147132873535156e+01 2.781001472473144531e+01 -1.909402199089527130e-02 -2.068452537059783936e-02 -1.193356420844793320e-02 3.664508834481239319e-02
3.879000000000000000e+03 4.515254211425781250e+01 -1.058180332183837891e+01 -6.135939434170722961e-02 1.416117310523986816e+00 4.064273536205291748e-01 7.490310072898864746e-01
3.880000000000000000e+03 3.385224914550781250e+01 2.177708816528320312e+01 -7.376880198717117310e-02 1.445102971047163010e-02 -1.779533177614212036e-02 3.009511344134807587e-02
3.881000000000000000e+03 3.427867507934570312e+01 2.257822227478027344e+01 -6.918897479772567749e-02 2.224929817020893097e-02 -1.408190373331308365e-02 2.580074593424797058e-02
3.882000000000000000e+03 3.452820968627929688e+01 2.140616035461425781e+01 -7.822104543447494507e-02 2.325244992971420288e-02 -1.649057865142822266e-02 3.300518915057182312e-02
3.883000000000000000e+03 3.359769058227539062e+01 2.108853912353515625e+01 -8.590882271528244019e-02 1.307007949799299240e-02 -2.185162343084812164e-02 3.590553626418113708e-02
3.884000000000000000e+03 7.121643829345703125e+01 -5.588077068328857422e+00 -2.907806634902954102e-01 1.049697846174240112e-01 -5.574326589703559875e-02 -8.580113053321838379e-01
3.885000000000000000e+03 7.127548217773437500e+01 -3.997804641723632812e+00 -1.682025343179702759e-01 1.121460199356079102e-01 -1.681695505976676941e-02 -8.939588665962219238e-01
3.886000000000000000e+03 7.571035861968994141e+00 2.117828369140625000e+01 -3.744963090866804123e-03 -1.270312350243330002e-03 -1.504582585766911507e-03 1.586402533575892448e-03
3.887000000000000000e+03 8.675813674926757812e+00 2.168508720397949219e+01 -5.166430957615375519e-03 -1.130382413975894451e-03 -1.889044069685041904e-03 2.171324100345373154e-03
3.888000000000000000e+03 6.685648345947265625e+01 -6.811069011688232422e+00 -5.324294567108154297e-01 4.360277652740478516e-01 -2.892051450908184052e-02 -6.249522566795349121e-01
3.889000000000000000e+03 6.623962402343750000e+01 -5.844860076904296875e+00 -3.944903016090393066e-01 5.272707343101501465e-01 3.983413055539131165e-02 -5.407368540763854980e-01
3.890000000000000000e+03 4.464633941650390625e+01 -1.031713294982910156e+01 -1.838172972202301025e-01 1.334255576133728027e+00 3.451314568519592285e-01 4.568569362163543701e-01
3.891000000000000000e+03 4.641641998291015625e+01 -1.089697742462158203e+01 3.341190516948699951e-01 1.237737178802490234e+00 4.715568721294403076e-01 1.369821071624755859e+00
3.892000000000000000e+03 8.678841590881347656e+00 -8.668885231018066406e+00 -3.412813544273376465e-01 -9.884488582611083984e-02 -1.320378780364990234e-01 -6.437548249959945679e-02
3.893000000000000000e+03 1.143140983581542969e+01 7.930408000946044922e+00 1.878719631349667907e-04 1.310848801949759945e-05 6.029413634678348899e-05 1.137155340984463692e-04
3.894000000000000000e+03 8.963335990905761719e+00 9.292547225952148438e+00 3.593458386603742838e-04 -1.815042196540161967e-04 5.335248715709894896e-05 5.676632281392812729e-05
3.895000000000000000e+03 1.001129817962646484e+01 7.552778244018554688e+00 1.383236667606979609e-04 -6.176194801810197532e-06 3.964424104196950793e-05 4.201789852231740952e-05
3.896000000000000000e+03 1.803797721862792969e+01 2.628802680969238281e+01 -2.954092994332313538e-02 -8.751559071242809296e-03 -1.148774661123752594e-02 2.812140434980392456e-02
3.897000000000000000e+03 1.751606178283691406e+01 2.687958526611328125e+01 -2.391668781638145447e-02 -8.162231184542179108e-03 -9.623675607144832611e-03 2.767596766352653503e-02
3.898000000000000000e+03 7.902425765991210938e+00 2.205492973327636719e+01 -3.981309011578559875e-03 -1.237588701769709587e-03 -1.565669314004480839e-03 2.153328387066721916e-03
3.899000000000000000e+03 8.023698806762695312e+00 1.722527694702148438e+01 -4.707426705863326788e-04 -9.448056225664913654e-04 -4.246644966769963503e-04 -2.414324699202552438e-04
3.900000000000000000e+03 8.565203666687011719e+00 1.958315467834472656e+01 -2.459296025335788727e-03 -1.286238199099898338e-03 -1.123660244047641754e-03 7.040583877824246883e-04
3.901000000000000000e+03 2.474975013732910156e+01 2.568987274169921875e+01 -4.929527267813682556e-02 -3.234953433275222778e-02 -2.449344284832477570e-02 4.123752936720848083e-02
3.902000000000000000e+03 2.473171806335449219e+01 2.690868568420410156e+01 -2.958062849938869476e-02 -3.351593017578125000e-02 -1.892896741628646851e-02 4.028714075684547424e-02
3.903000000000000000e+03 7.158235073089599609e+00 2.916914367675781250e+01 -2.575827529653906822e-03 -7.178204134106636047e-03 -2.926209475845098495e-03 9.971668012440204620e-03
3.904000000000000000e+03 9.529432296752929688e+00 3.095439147949218750e+01 -2.326647285372018814e-03 -1.012071222066879272e-02 -3.734207712113857269e-03 1.404901128262281418e-02
3.905000000000000000e+03 1.002142238616943359e+01 1.292692661285400391e+01 2.063895226456224918e-04 -5.019150557927787304e-04 -8.865765994414687157e-05 4.411757981870323420e-04
3.906000000000000000e+03 8.024503707885742188e+00 1.650920867919921875e+01 -4.899143241345882416e-04 -1.203013118356466293e-03 -5.078782560303807259e-04 9.778905950952321291e-05
3.907000000000000000e+03 8.112866401672363281e+00 1.579637336730957031e+01 1.819911994971334934e-04 -9.244512766599655151e-04 -2.227380318799987435e-04 -1.985450944630429149e-04
3.908000000000000000e+03 6.964629364013671875e+01 6.696343898773193359e+00 5.413342714309692383e-01 1.210831046104431152e+00 5.256496071815490723e-01 -4.967235922813415527e-01
3.909000000000000000e+03 6.990061950683593750e+01 4.964323997497558594e+00 4.561615288257598877e-01 9.334282279014587402e-01 4.168769121170043945e-01 -6.050796508789062500e-01
3.910000000000000000e+03 6.820938110351562500e+01 -6.498557925224304199e-01 1.203990802168846130e-01 9.600316286087036133e-01 3.241292238235473633e-01 -6.795675158500671387e-01
3.911000000000000000e+03 6.605905914306640625e+01 6.976582407951354980e-01 3.153114020824432373e-01 1.694464564323425293e+00 6.029328107833862305e-01 -3.138467371463775635e-01
3.912000000000000000e+03 8.336372375488281250e+00 2.290431594848632812e+01 -5.847409833222627640e-03 -1.421996974386274815e-03 -2.180822193622589111e-03 3.634695662185549736e-03
3.913000000000000000e+03 7.247593879699707031e+00 2.482099723815917969e+01 -4.337104968726634979e-03 -2.642885316163301468e-03 -2.093997085466980934e-03 5.133116617798805237e-03
3.914000000000000000e+03 1.630001831054687500e+01 2.596123313903808594e+01 -2.603176981210708618e-02 -2.664594212546944618e-03 -8.608909323811531067e-03 2.054317109286785126e-02
3.915000000000000000e+03 1.480387496948242188e+01 2.501465988159179688e+01 -2.100826986134052277e-02 -1.048660371452569962e-03 -6.617079023271799088e-03 1.432678196579217911e-02
3.916000000000000000e+03 6.550242900848388672e+00 -8.416363716125488281e+00 -2.199742943048477173e-01 -3.345410153269767761e-02 -7.602851837873458862e-02 -2.649994753301143646e-02
3.917000000000000000e+03 5.048071384429931641e+00 -9.571473121643066406e+00 -1.648881435394287109e-01 -1.131515391170978546e-02 -5.286099016666412354e-02 -6.316160410642623901e-02
3.918000000000000000e+03 9.020463943481445312e+00 -1.068472099304199219e+01 -4.650139212608337402e-01 -1.348595768213272095e-01 -1.799620538949966431e-01 -2.046025842428207397e-01
3.919000000000000000e+03 6.388533401489257812e+01 -4.971210002899169922e+00 -2.173548638820648193e-01 1.039988756179809570e+00 2.467901557683944702e-01 -6.695782393217086792e-02
3.920000000000000000e+03 6.822451019287109375e+01 6.296514987945556641e+00 5.797681808471679688e-01 1.786663889884948730e+00 7.099296450614929199e-01 -3.908354938030242920e-01
3.921000000000000000e+03 6.999851226806640625e+01 -1.939833521842956543e+00 -1.350960321724414825e-02 3.965220153331756592e-01 1.149037256836891174e-01 -8.624088168144226074e-01
3.922000000000000000e+03 7.068791961669921875e+01 -5.630153417587280273e-01 7.527305185794830322e-02 3.319894969463348389e-01 1.221787631511688232e-01 -8.775582909584045410e-01
3.923000000000000000e+03 6.999723815917968750e+01 2.875397443771362305e+00 2.963269650936126709e-01 6.734607815742492676e-01 2.909363210201263428e-01 -7.192534208297729492e-01
3.924000000000000000e+03 8.388253211975097656e+00 1.772781562805175781e+01 -7.237198879010975361e-04 -1.304668490774929523e-03 -6.085165077820420265e-04 1.334471744485199451e-04
3.925000000000000000e+03 8.175747871398925781e+00 1.003471660614013672e+01 3.660365764517337084e-04 -2.491696504876017570e-04 3.506007487885653973e-05 -5.651118772220797837e-05
3.926000000000000000e+03 7.706902980804443359e+00 1.287406730651855469e+01 2.126568870153278112e-04 -5.209190421737730503e-04 -9.247865818906575441e-05 1.233295042766258121e-04
3.927000000000000000e+03 8.027576446533203125e+00 1.189188289642333984e+01 1.946555566973984241e-04 -4.156323848292231560e-04 -6.629304698435589671e-05 1.505466498201712966e-04
3.928000000000000000e+03 9.310190200805664062e+00 2.778087806701660156e+01 -7.076186127960681915e-03 -5.170762073248624802e-03 -3.674084553495049477e-03 1.177769713103771210e-02
3.929000000000000000e+03 8.714471817016601562e+00 2.515199470520019531e+01 -6.435805466026067734e-03 -2.376510994508862495e-03 -2.643695101141929626e-03 6.618283689022064209e-03
3.930000000000000000e+03 7.035528564453125000e+01 1.111467838287353516e+01 6.513052582740783691e-01 1.032196044921875000e+00 5.050503611564636230e-01 -2.152584195137023926e-01
3.931000000000000000e+03 7.137368774414062500e+01 1.362584590911865234e+01 6.361265778541564941e-01 4.908620715141296387e-01 3.380965888500213623e-01 -3.622373193502426147e-02
3.932000000000000000e+03 7.260510253906250000e+01 1.378285026550292969e+01 5.151842236518859863e-01 -2.300365120172500610e-01 8.554430305957794189e-02 2.338354103267192841e-02
3.933000000000000000e+03 7.156336212158203125e+01 3.957536458969116211e+00 3.133500814437866211e-01 2.272522151470184326e-01 1.621806919574737549e-01 -7.243711352348327637e-01
3.934000000000000000e+03 3.542935180664062500e+01 1.951361846923828125e+01 -7.701758295297622681e-02 2.387316338717937469e-02 -1.594332605600357056e-02 3.838721290230751038e-02
3.935000000000000000e+03 7.082105255126953125e+01 2.302930641174316406e+01 1.955617070198059082e-01 6.225214004516601562e-01 2.454249262809753418e-01 7.792751789093017578e-01
3.936000000000000000e+03 6.953771209716796875e+01 -5.736424922943115234e+00 -3.565440177917480469e-01 3.009237945079803467e-01 -1.668606698513031006e-02 -8.224496841430664062e-01
3.937000000000000000e+03 6.878839874267578125e+01 -5.102009296417236328e+00 -2.988743484020233154e-01 4.296200871467590332e-01 3.922372311353683472e-02 -7.990782856941223145e-01
3.938000000000000000e+03 6.564429473876953125e+01 -8.901632428169250488e-01 1.906702071428298950e-01 1.478716373443603516e+00 5.008159875869750977e-01 -3.023930191993713379e-01
3.939000000000000000e+03 3.851557922363281250e+01 2.518386077880859375e+01 -1.151309255510568619e-02 5.851349979639053345e-02 1.410012226551771164e-02 7.072310429066419601e-03
3.940000000000000000e+03 6.392017745971679688e+01 2.187635040283203125e+01 7.317626476287841797e-01 3.759841203689575195e+00 1.347481131553649902e+00 -1.509204804897308350e-01
3.941000000000000000e+03 1.246412658691406250e+01 3.078766822814941406e+01 -3.584279678761959076e-03 -1.129854563623666763e-02 -4.464847501367330551e-03 1.907177269458770752e-02
3.942000000000000000e+03 1.285336494445800781e+01 3.246544647216796875e+01 2.741317963227629662e-03 -1.533146854490041733e-02 -3.777045290917158127e-03 1.926659792661666870e-02
3.943000000000000000e+03 7.289691925048828125e+01 5.074502944946289062e+00 2.668423652648925781e-01 -3.792204558849334717e-01 -3.371343389153480530e-02 -6.806209087371826172e-01
3.944000000000000000e+03 6.708971405029296875e+01 1.273489117622375488e+00 3.123596310615539551e-01 1.534376740455627441e+00 5.540208816528320312e-01 -4.661989808082580566e-01
3.945000000000000000e+03 6.817054748535156250e+01 1.800356268882751465e+00 3.024526834487915039e-01 1.225003957748413086e+00 4.582369923591613770e-01 -6.041819453239440918e-01
3.946000000000000000e+03 6.258319377899169922e+00 -2.061226844787597656e+01 6.739412248134613037e-02 -5.435248613357543945e-01 -1.428392231464385986e-01 -5.782811045646667480e-01
3.947000000000000000e+03 2.856902694702148438e+01 -3.445766448974609375e+00 -1.437326192855834961e+00 9.039285033941268921e-02 -4.040800034999847412e-01 -7.661055326461791992e-01
3.948000000000000000e+03 4.167317581176757812e+01 -1.563324069976806641e+01 3.282528877258300781e+00 2.255888938903808594e+00 1.661525368690490723e+00 -2.493871301412582397e-01
3.949000000000000000e+03 4.143715286254882812e+01 -1.610789108276367188e+01 3.069211721420288086e+00 2.153435468673706055e+00 1.566794157028198242e+00 3.064043074846267700e-02
3.950000000000000000e+03 2.748409843444824219e+01 -4.233972072601318359e+00 -9.188514947891235352e-01 -2.138342335820198059e-02 -2.820704877376556396e-01 -9.545969963073730469e-01
3.951000000000000000e+03 2.896719360351562500e+01 -4.421593189239501953e+00 -1.045593142509460449e+00 2.283057570457458496e-01 -2.451862096786499023e-01 -9.227743744850158691e-01
3.952000000000000000e+03 4.345419311523437500e+01 -9.711935997009277344e+00 -5.721578598022460938e-01 1.047497630119323730e+00 1.426019370555877686e-01 -1.416187733411788940e-01
3.953000000000000000e+03 4.557878112792968750e+01 -1.282573509216308594e+01 1.650738239288330078e+00 2.560880184173583984e+00 1.263485550880432129e+00 1.429344058036804199e+00
3.954000000000000000e+03 4.517955398559570312e+01 -1.245532131195068359e+01 1.209185719490051270e+00 2.529573440551757812e+00 1.121627688407897949e+00 1.051605105400085449e+00
3.955000000000000000e+03 4.141431808471679688e+01 -1.770212936401367188e+01 2.136431694030761719e+00 2.709331512451171875e+00 1.453729033470153809e+00 1.111501097679138184e+00
3.956000000000000000e+03 4.174014282226562500e+01 -1.506267642974853516e+01 3.046444892883300781e+00 2.259567737579345703e+00 1.591803789138793945e+00 -6.524917483329772949e-01
3.957000000000000000e+03 4.213788986206054688e+01 -1.499065303802490234e+01 3.219916582107543945e+00 2.617112159729003906e+00 1.751108646392822266e+00 -6.842331886291503906e-01
3.958000000000000000e+03 4.483560180664062500e+01 -1.247693538665771484e+01 1.191686034202575684e+00 2.684255361557006836e+00 1.162782430648803711e+00 7.626620531082153320e-01
3.959000000000000000e+03 4.595378875732421875e+01 -1.270914554595947266e+01 1.720736980438232422e+00 2.212522506713867188e+00 1.179977893829345703e+00 1.591952562332153320e+00
3.960000000000000000e+03 4.681526947021484375e+01 -1.300030708312988281e+01 2.267580509185791016e+00 1.658521294593811035e+00 1.177830576896667480e+00 1.910585522651672363e+00
3.961000000000000000e+03 2.795298957824707031e+01 -4.289993762969970703e+00 -9.954327940940856934e-01 4.726254567503929138e-02 -2.844510674476623535e-01 -9.578700065612792969e-01
3.962000000000000000e+03 3.072382736206054688e+01 -4.910203456878662109e+00 -1.008193969726562500e+00 6.207479834556579590e-01 -1.162337958812713623e-01 -7.378680706024169922e-01
3.963000000000000000e+03 4.214992523193359375e+01 -1.954021263122558594e+01 6.797119379043579102e-01 3.809141874313354492e+00 1.346656203269958496e+00 1.235158681869506836e+00
3.964000000000000000e+03 4.269458389282226562e+01 -1.390047454833984375e+01 2.313259840011596680e+00 2.973475694656372070e+00 1.586020708084106445e+00 -8.317519426345825195e-01
3.965000000000000000e+03 4.119469070434570312e+01 -1.388551521301269531e+01 2.101789712905883789e+00 1.785327076911926270e+00 1.166135072708129883e+00 -1.127151131629943848e+00
3.966000000000000000e+03 4.068378829956054688e+01 -1.239567184448242188e+01 1.208483338356018066e+00 1.275408506393432617e+00 7.451675534248352051e-01 -1.346704602241516113e+00
3.967000000000000000e+03 4.348188018798828125e+01 -1.322926139831542969e+01 1.646322131156921387e+00 3.144972085952758789e+00 1.437388181686401367e+00 -3.210331499576568604e-01
3.968000000000000000e+03 4.235771560668945312e+01 -1.403054046630859375e+01 2.413997173309326172e+00 2.667397022247314453e+00 1.524418234825134277e+00 -9.219854474067687988e-01
3.969000000000000000e+03 4.298870849609375000e+01 -1.377270698547363281e+01 2.168445348739624023e+00 3.153424978256225586e+00 1.596561193466186523e+00 -6.895372271537780762e-01
3.970000000000000000e+03 1.360660648345947266e+01 8.931162834167480469e+00 6.973741983529180288e-05 8.651473035570234060e-05 4.687564432970248163e-05 1.109001750592142344e-04
3.971000000000000000e+03 4.669850540161132812e+01 -1.251865100860595703e+01 1.718086242675781250e+00 1.694364666938781738e+00 1.023735284805297852e+00 1.820599794387817383e+00
3.972000000000000000e+03 4.315454864501953125e+01 -1.330481719970703125e+01 1.707468509674072266e+00 3.001017093658447266e+00 1.412545680999755859e+00 -5.372123122215270996e-01
3.973000000000000000e+03 4.142631912231445312e+01 -1.344618225097656250e+01 1.880332350730895996e+00 1.858242273330688477e+00 1.121572375297546387e+00 -1.170261740684509277e+00
3.974000000000000000e+03 1.255535507202148438e+01 9.706065177917480469e+00 -2.696957380976527929e-05 1.123598121921531856e-04 2.561707151471637189e-05 2.037990925600752234e-04
3.975000000000000000e+03 1.349026393890380859e+01 9.557843208312988281e+00 9.194727317662909627e-05 1.286416518269106746e-04 6.617667531827464700e-05 1.143995905295014381e-04
3.976000000000000000e+03 1.225127792358398438e+01 1.141233444213867188e+01 1.901801297208294272e-04 1.982535177376121283e-04 1.165300927823409438e-04 3.557425225153565407e-04
3.977000000000000000e+03 1.246172904968261719e+01 1.105600738525390625e+01 3.490717426757328212e-05 1.202051353175193071e-04 4.653369251172989607e-05 1.875697198556736112e-04
3.978000000000000000e+03 1.119999599456787109e+01 2.016451454162597656e+01 -4.884682130068540573e-03 -5.756957107223570347e-04 -1.638113288208842278e-03 3.236207994632422924e-04
3.979000000000000000e+03 1.431511306762695312e+01 8.147999763488769531e+00 -1.062031151377595961e-05 9.367563325213268399e-05 2.491659506631549448e-05 4.344457556726410985e-05
3.980000000000000000e+03 1.070273208618164062e+01 1.462099456787109375e+01 -5.232022158452309668e-05 -5.060895928181707859e-04 -1.675229432294145226e-04 4.322964232414960861e-04
3.981000000000000000e+03 9.067042350769042969e+00 1.520429134368896484e+01 3.537516749929636717e-04 -8.352172444574534893e-04 -1.444396621081978083e-04 -4.711495421361178160e-05
3.982000000000000000e+03 1.153392887115478516e+01 1.154442787170410156e+01 2.324922534171491861e-04 2.934261101472657174e-05 7.855045987525954843e-05 3.402745060157030821e-04
3.983000000000000000e+03 9.186736106872558594e+00 1.905545425415039062e+01 -2.240855013951659203e-03 -1.102720969356596470e-03 -1.003072829917073250e-03 2.288861433044075966e-04
3.984000000000000000e+03 1.426344585418701172e+01 6.550949573516845703e+00 7.169433229137212038e-05 2.918610334745608270e-05 3.026412923645693809e-05 4.888457260676659644e-05
3.985000000000000000e+03 1.443959140777587891e+01 7.080845355987548828e+00 -1.598494782228954136e-05 7.447932875948026776e-05 1.754831464495509863e-05 6.189685518620535731e-05
3.986000000000000000e+03 4.558311462402343750e+01 -1.088851737976074219e+01 2.278457731008529663e-01 1.500952005386352539e+00 5.186393260955810547e-01 9.840261936187744141e-01
3.987000000000000000e+03 1.060986614227294922e+01 1.594517230987548828e+01 -2.450701722409576178e-04 -8.990291971713304520e-04 -3.432298253756016493e-04 3.606394457165151834e-04
3.988000000000000000e+03 3.580218505859375000e+01 1.476099491119384766e+01 -3.870363906025886536e-02 6.565776653587818146e-03 -9.641358628869056702e-03 2.064989879727363586e-02
3.989000000000000000e+03 4.104007339477539062e+01 -1.552138519287109375e+01 2.788074970245361328e+00 1.789006948471069336e+00 1.373124599456787109e+00 -4.242510199546813965e-01
3.990000000000000000e+03 4.145304489135742188e+01 -1.523822116851806641e+01 2.962993860244750977e+00 2.004117012023925781e+00 1.490133285522460938e+00 -5.696069002151489258e-01
3.991000000000000000e+03 1.091051292419433594e+01 1.172354125976562500e+01 3.118939930573105812e-04 -1.347005745628848672e-04 5.315802263794466853e-05 3.184922679793089628e-04
3.992000000000000000e+03 9.732320785522460938e+00 1.383462619781494141e+01 1.221539569087326527e-04 -6.259795045480132103e-04 -1.511476584710180759e-04 4.362587933428585529e-04
3.993000000000000000e+03 9.473759651184082031e+00 8.674268722534179688e+00 5.294683796819299459e-05 -1.098287320928648114e-04 -1.706456714600790292e-05 6.354546349029988050e-05
3.994000000000000000e+03 3.545354461669921875e+01 1.748743247985839844e+01 -6.501860916614532471e-02 2.019038610160350800e-02 -1.344846654683351517e-02 3.407405316829681396e-02
3.995000000000000000e+03 1.368728828430175781e+01 6.643977642059326172e+00 9.742764632392209023e-06 5.702202543034218252e-05 2.002943620027508587e-05 9.138107270700857043e-05
3.996000000000000000e+03 1.216443443298339844e+01 2.202940940856933594e+01 -1.035562530159950256e-02 9.217209881171584129e-04 -2.830171259120106697e-03 2.391224959865212440e-03
3.997000000000000000e+03 4.107457351684570312e+01 -1.193740558624267578e+01 9.802803397178649902e-01 1.361895680427551270e+00 7.026528120040893555e-01 -1.264628529548645020e+00
3.998000000000000000e+03 1.288967227935791016e+01 9.438691139221191406e+00 1.357289875159040093e-04 5.625063931802287698e-05 5.759388659498654306e-05 1.420595071977004409e-04
3.999000000000000000e+03 1.411120510101318359e+01 7.693376064300537109e+00 1.000984957499895245e-05 8.011332829482853413e-05 2.703695281525142491e-05 9.034116374095901847e-05
4.000000000000000000e+03 2.093956565856933594e+01 2.701885032653808594e+01 -2.754138410091400146e-02 -2.132589742541313171e-02 -1.466018427163362503e-02 3.793656080961227417e-02
4.001000000000000000e+03 1.936717987060546875e+01 2.797121429443359375e+01 -1.885946840047836304e-02 -1.699403114616870880e-02 -1.075604930520057678e-02 3.478725254535675049e-02
4.002000000000000000e+03 3.528810501098632812e+01 1.581507968902587891e+01 -4.748758301138877869e-02 7.419504225254058838e-03 -1.202042307704687119e-02 2.957804501056671143e-02
4.003000000000000000e+03 1.009297370910644531e+01 -8.461731910705566406e+00 -3.970404565334320068e-01 -1.515203863382339478e-01 -1.645682454109191895e-01 -7.166910171508789062e-02
4.004000000000000000e+03 9.081615447998046875e+00 7.898399353027343750e+00 1.745213230606168509e-04 -2.068758913083001971e-04 -9.706371201900765300e-06 9.565313666826114058e-05
4.005000000000000000e+03 3.635577392578125000e+01 1.777754783630371094e+01 -6.740440428256988525e-02 2.209736779332160950e-02 -1.359211001545190811e-02 3.159498795866966248e-02
4.006000000000000000e+03 9.024163246154785156e+00 -9.902182579040527344e+00 -4.225786328315734863e-01 -1.301902532577514648e-01 -1.658306717872619629e-01 -1.508385390043258667e-01
4.007000000000000000e+03 4.192908477783203125e+01 -1.410356426239013672e+01 2.424269437789916992e+00 2.327378273010253906e+00 1.425494313240051270e+00 -9.980088472366333008e-01
4.008000000000000000e+03 1.195689392089843750e+01 2.410503196716308594e+01 -1.267461571842432022e-02 -1.265664323000237346e-04 -3.840354736894369125e-03 7.499676663428544998e-03
4.009000000000000000e+03 1.403309631347656250e+01 2.474057006835937500e+01 -1.942176558077335358e-02 5.429072189144790173e-04 -5.663657095283269882e-03 1.150175742805004120e-02
4.010000000000000000e+03 1.473409366607666016e+01 6.459935665130615234e+00 4.276543768355622888e-05 4.482702206587418914e-05 2.627773756103124470e-05 1.665454692556522787e-05
4.011000000000000000e+03 1.050754833221435547e+01 1.979753875732421875e+01 -4.062997642904520035e-03 -8.027769508771598339e-04 -1.459732302464544773e-03 5.178210558369755745e-04
4.012000000000000000e+03 1.690639305114746094e+01 2.625104713439941406e+01 -2.556256577372550964e-02 -6.686747074127197266e-03 -9.674794040620326996e-03 2.476206608116626740e-02
4.013000000000000000e+03 8.983459472656250000e+00 1.584806442260742188e+01 -2.771830186247825623e-04 -1.084738527424633503e-03 -4.085764812771230936e-04 2.146664337487891316e-04
4.014000000000000000e+03 7.875361919403076172e+00 1.350060272216796875e+01 5.176005070097744465e-04 -6.574328290298581123e-04 -4.194969005766324699e-05 -1.507550041424110532e-04
4.015000000000000000e+03 1.280934238433837891e+01 1.078964900970458984e+01 9.268065332435071468e-05 9.976387809729203582e-05 5.773335942649282515e-05 3.041502495761960745e-04
4.016000000000000000e+03 4.405135345458984375e+01 -1.006595420837402344e+01 -4.022114574909210205e-01 1.197722196578979492e+00 2.386532127857208252e-01 1.116832196712493896e-01
4.017000000000000000e+03 4.438149261474609375e+01 -1.089208793640136719e+01 8.652357757091522217e-02 1.635676145553588867e+00 5.166599154472351074e-01 3.348290622234344482e-01
4.018000000000000000e+03 3.399823379516601562e+01 2.028748130798339844e+01 -8.458810299634933472e-02 1.392453536391258240e-02 -2.119906991720199585e-02 3.987860307097434998e-02
4.019000000000000000e+03 3.470628738403320312e+01 2.001833915710449219e+01 -7.556857913732528687e-02 2.017570286989212036e-02 -1.661786437034606934e-02 3.606334328651428223e-02
4.020000000000000000e+03 9.840772628784179688e+00 1.954237747192382812e+01 -2.848064992576837540e-03 -1.079424167983233929e-03 -1.178246689960360527e-03 2.892055199481546879e-04
4.021000000000000000e+03 1.160878753662109375e+01 1.937737083435058594e+01 -2.928168512880802155e-03 -4.527800192590802908e-04 -1.014284556731581688e-03 -3.150894772261381149e-04
4.022000000000000000e+03 6.966585540771484375e+01 -1.011027216911315918e+00 6.120973452925682068e-02 5.797993540763854980e-01 1.923027187585830688e-01 -8.272207379341125488e-01
4.023000000000000000e+03 4.462368392944335938e+01 -1.156750774383544922e+01 5.159098505973815918e-01 2.059971570968627930e+00 7.727644443511962891e-01 5.272980928421020508e-01
4.024000000000000000e+03 8.857211112976074219e+00 2.372937965393066406e+01 -6.352341268211603165e-03 -1.412804704159498215e-03 -2.329543698579072952e-03 4.571615718305110931e-03
4.025000000000000000e+03 8.717628479003906250e+00 1.162346744537353516e+01 3.701167588587850332e-04 -3.841655852738767862e-04 -4.214651653455803171e-06 -6.092053445172496140e-05
4.026000000000000000e+03 1.026946926116943359e+01 1.218092823028564453e+01 2.272191632073372602e-04 -4.195308429189026356e-04 -5.769350173068232834e-05 3.997757157776504755e-04
4.027000000000000000e+03 8.455453872680664062e+00 1.445524597167968750e+01 4.604571440722793341e-04 -8.079828112386167049e-04 -1.042576986947096884e-04 -3.059528899029828608e-05
4.028000000000000000e+03 3.688036346435546875e+01 1.916301536560058594e+01 -7.441467791795730591e-02 3.303907811641693115e-02 -1.241267845034599304e-02 3.181689977645874023e-02
4.029000000000000000e+03 1.189667797088623047e+01 8.294192314147949219e+00 -5.250910544418729842e-05 4.365708264231216162e-06 -1.444301960873417556e-05 1.342802133876830339e-04
4.030000000000000000e+03 1.064867496490478516e+01 8.200049400329589844e+00 2.533694496378302574e-04 -5.275936564430594444e-05 6.018302156007848680e-05 1.462812506360933185e-04
4.031000000000000000e+03 1.831934738159179688e+01 2.754297065734863281e+01 -2.112242765724658966e-02 -1.324495114386081696e-02 -1.031021401286125183e-02 3.184457495808601379e-02
4.032000000000000000e+03 4.002583312988281250e+01 -1.029870033264160156e+01 2.253741770982742310e-01 7.552896738052368164e-01 2.941991686820983887e-01 -1.222260594367980957e+00
4.033000000000000000e+03 1.034829521179199219e+01 -9.731554985046386719e+00 -5.068607926368713379e-01 -1.939950287342071533e-01 -2.102567553520202637e-01 -1.597011834383010864e-01
4.034000000000000000e+03 5.304671764373779297e+00 -2.060237884521484375e+01 4.601455852389335632e-02 -5.735775232315063477e-01 -1.582688838243484497e-01 -5.276182889938354492e-01
4.035000000000000000e+03 5.408109664916992188e+00 -2.196495246887207031e+01 1.134160906076431274e-01 -6.522086262702941895e-01 -1.616377532482147217e-01 -5.029785633087158203e-01
4.036000000000000000e+03 1.678270149230957031e+01 2.764299964904785156e+01 -1.860996149480342865e-02 -9.798393584787845612e-03 -8.522506803274154663e-03 2.758830413222312927e-02
4.037000000000000000e+03 1.471916866302490234e+01 2.602175521850585938e+01 -2.060531638562679291e-02 -2.717165742069482803e-03 -6.996744778007268906e-03 1.837481744587421417e-02
4.038000000000000000e+03 6.527323150634765625e+01 -2.589408159255981445e+00 1.814835704863071442e-02 1.246049880981445312e+00 3.792594671249389648e-01 -2.897314727306365967e-01
4.039000000000000000e+03 2.425721740722656250e+01 2.616656303405761719e+01 -4.547196626663208008e-02 -3.147348761558532715e-02 -2.308363653719425201e-02 4.248565807938575745e-02
4.040000000000000000e+03 9.463809013366699219e+00 2.453279876708984375e+01 -8.252589963376522064e-03 -1.826046849600970745e-03 -3.023590892553329468e-03 6.736420094966888428e-03
4.041000000000000000e+03 8.101491928100585938e+00 -1.754088783264160156e+01 -1.489290595054626465e-01 -3.302941322326660156e-01 -1.437669545412063599e-01 -6.799336671829223633e-01
4.042000000000000000e+03 3.678379440307617188e+01 2.193428611755371094e+01 -6.016409397125244141e-02 4.541240632534027100e-02 -4.425506107509136200e-03 2.374552376568317413e-02
4.043000000000000000e+03 7.118626403808593750e+01 8.540739059448242188e+00 4.859763383865356445e-01 5.237807631492614746e-01 3.029271364212036133e-01 -4.504955410957336426e-01
4.044000000000000000e+03 6.978350830078125000e+01 1.382952094078063965e+00 2.394429296255111694e-01 7.016431093215942383e-01 2.823258042335510254e-01 -7.707957625389099121e-01
4.045000000000000000e+03 9.454905509948730469e+00 2.604644775390625000e+01 -7.910713553428649902e-03 -3.247937886044383049e-03 -3.347595455124974251e-03 9.328094311058521271e-03
4.046000000000000000e+03 7.388618469238281250e+01 2.012854766845703125e+01 2.602323591709136963e-01 -7.799409627914428711e-01 -1.559125930070877075e-01 5.681112408638000488e-01
4.047000000000000000e+03 6.921349334716796875e+01 2.240080118179321289e+00 3.080336451530456543e-01 9.778902530670166016e-01 3.857771754264831543e-01 -7.032625675201416016e-01
4.048000000000000000e+03 7.093855285644531250e+01 9.538781166076660156e+00 5.255891680717468262e-01 6.731487512588500977e-01 3.596213757991790771e-01 -3.421196341514587402e-01
4.049000000000000000e+03 7.346459960937500000e+01 9.667728424072265625e+00 2.947095036506652832e-01 -6.998572945594787598e-01 -1.215443387627601624e-01 -3.545895516872406006e-01
4.050000000000000000e+03 6.446218872070312500e+01 -2.144732713699340820e+00 1.053471937775611877e-01 1.505720019340515137e+00 4.833201766014099121e-01 -1.265575587749481201e-01
4.051000000000000000e+03 6.775543212890625000e+01 -2.112118721008300781e+00 5.223979707807302475e-03 8.982365727424621582e-01 2.710381746292114258e-01 -6.671080589294433594e-01
4.052000000000000000e+03 6.563162994384765625e+01 2.169591903686523438e+01 6.232333779335021973e-01 2.870692491531372070e+00 1.048177719116210938e+00 3.539322614669799805e-01
4.053000000000000000e+03 6.333455276489257812e+01 -6.151535034179687500e+00 -4.500969052314758301e-01 8.803904652595520020e-01 1.290880590677261353e-01 4.992728307843208313e-02
4.054000000000000000e+03 4.067875671386718750e+01 2.558154106140136719e+01 9.181628935039043427e-03 8.297631144523620605e-02 2.764738164842128754e-02 -7.323380559682846069e-03
4.055000000000000000e+03 2.590555000305175781e+01 2.943947219848632812e+01 5.810364149510860443e-03 -2.987147495150566101e-02 -7.218332961201667786e-03 3.409665450453758240e-02
4.056000000000000000e+03 2.416515159606933594e+01 2.825608634948730469e+01 -1.211326289921998978e-02 -2.988888509571552277e-02 -1.260064449161291122e-02 4.066007956862449646e-02
4.057000000000000000e+03 1.105650424957275391e+01 2.922890472412109375e+01 -6.479955743998289108e-03 -7.555590942502021790e-03 -4.210663959383964539e-03 1.546217408031225204e-02
4.058000000000000000e+03 7.279450988769531250e+01 1.108936977386474609e+01 4.218184053897857666e-01 -3.265357911586761475e-01 2.858478575944900513e-02 -2.551963329315185547e-01
4.059000000000000000e+03 4.327597427368164062e+01 -1.129996585845947266e+01 4.090741872787475586e-01 1.856972217559814453e+00 6.798139214515686035e-01 -3.105412125587463379e-01
4.060000000000000000e+03 4.552192687988281250e+01 -1.239137935638427734e+01 1.285828828811645508e+00 2.352450847625732422e+00 1.091483950614929199e+00 1.235805630683898926e+00
4.061000000000000000e+03 4.414894104003906250e+01 -1.289300537109375000e+01 1.377457141876220703e+00 3.153654813766479492e+00 1.359333515167236328e+00 2.500504851341247559e-01
4.062000000000000000e+03 1.382045555114746094e+01 8.311697959899902344e+00 3.426082548685371876e-05 8.640136366011574864e-05 3.619865674409084022e-05 1.045909375534392893e-04
4.063000000000000000e+03 1.173453044891357422e+01 9.319881439208984375e+00 2.688413078431040049e-04 -2.918751670222263783e-05 7.189613825175911188e-05 1.532824389869347215e-04
4.064000000000000000e+03 1.317335224151611328e+01 9.829833030700683594e+00 -8.010189048945903778e-05 1.640288392081856728e-04 2.517808570701163262e-05 1.958405773621052504e-04
4.065000000000000000e+03 4.158270263671875000e+01 -1.466086387634277344e+01 2.736441612243652344e+00 2.122695446014404297e+00 1.457741141319274902e+00 -8.552899360656738281e-01
4.066000000000000000e+03 4.632815170288085938e+01 -1.260973358154296875e+01 1.738172292709350586e+00 1.889753937721252441e+00 1.088377833366394043e+00 1.693816184997558594e+00
4.067000000000000000e+03 4.291419219970703125e+01 -1.025766468048095703e+01 -2.010810375213623047e-01 1.277209281921386719e+00 3.228384554386138916e-01 -4.375376105308532715e-01
4.068000000000000000e+03 4.381654739379882812e+01 -1.324333190917968750e+01 1.625833988189697266e+00 3.318050622940063477e+00 1.483165383338928223e+00 -3.890433162450790405e-02
4.069000000000000000e+03 4.546358489990234375e+01 -1.197337245941162109e+01 9.042311310768127441e-01 2.116089105606079102e+00 9.060960412025451660e-01 1.100290179252624512e+00
4.070000000000000000e+03 4.578514862060546875e+01 -1.188814640045166016e+01 9.169249534606933594e-01 1.932411432266235352e+00 8.548008799552917480e-01 1.266979217529296875e+00
4.071000000000000000e+03 1.228099727630615234e+01 8.666528701782226562e+00 1.778355072019621730e-04 1.123677520808996633e-05 5.672168481396511197e-05 1.320895680692046881e-04
4.072000000000000000e+03 2.943249130249023438e+01 -4.633506774902343750e+00 -9.867092370986938477e-01 3.489802181720733643e-01 -1.913187056779861450e-01 -8.881551027297973633e-01
4.073000000000000000e+03 4.297874450683593750e+01 -1.299444675445556641e+01 1.499786615371704102e+00 2.739318609237670898e+00 1.271731495857238770e+00 -5.933219194412231445e-01
4.074000000000000000e+03 4.229124450683593750e+01 -1.365229225158691406e+01 2.089905977249145508e+00 2.518203496932983398e+00 1.382432818412780762e+00 -9.624073505401611328e-01
4.075000000000000000e+03 4.240885543823242188e+01 -1.333234977722167969e+01 1.789480090141296387e+00 2.516262292861938477e+00 1.291722774505615234e+00 -9.204790592193603516e-01
4.076000000000000000e+03 4.615853118896484375e+01 -1.168783855438232422e+01 8.768398761749267578e-01 1.667747020721435547e+00 7.633760571479797363e-01 1.412790775299072266e+00
4.077000000000000000e+03 4.524024963378906250e+01 -1.134849834442138672e+01 4.599049985408782959e-01 1.813109040260314941e+00 6.819041967391967773e-01 8.881219625473022461e-01
4.078000000000000000e+03 1.154260540008544922e+01 2.287863349914550781e+01 -1.057073287665843964e-02 4.705597530119121075e-04 -3.030051942914724350e-03 4.123589955270290375e-03
4.079000000000000000e+03 1.544804573059082031e+01 6.484060287475585938e+00 1.028367332764901221e-04 6.775021029170602560e-05 5.117608088767156005e-05 -4.540201916825026274e-05
4.080000000000000000e+03 9.365568161010742188e+00 9.835945129394531250e+00 1.596439979039132595e-04 -9.468541247770190239e-05 1.948757562786340714e-05 1.101551824831403792e-04
4.081000000000000000e+03 1.229202175140380859e+01 7.930093765258789062e+00 1.483689266024157405e-04 7.607031420775456354e-06 4.679278936237096786e-05 1.266774197574704885e-04
4.082000000000000000e+03 1.278364944458007812e+01 7.620304107666015625e+00 -2.651218164828605950e-05 5.286369923851452768e-05 7.905455277068540454e-06 7.207399903563782573e-05
4.083000000000000000e+03 4.420852279663085938e+01 -1.144137191772460938e+01 4.848133623600006104e-01 1.994571805000305176e+00 7.438155412673950195e-01 2.161891460418701172e-01
4.084000000000000000e+03 4.148682785034179688e+01 -1.421052837371826172e+01 2.357553958892822266e+00 1.988491296768188477e+00 1.303813576698303223e+00 -1.018633008003234863e+00
4.085000000000000000e+03 1.336335563659667969e+01 8.525033950805664062e+00 -4.674854062614031136e-05 1.049955171765759587e-04 1.747409260133281350e-05 1.056868204614147544e-04
4.086000000000000000e+03 1.389561462402343750e+01 7.197777748107910156e+00 6.336867045320104808e-06 5.224182677920907736e-05 1.757360769261140376e-05 3.198792546754702926e-05
4.087000000000000000e+03 1.067172527313232422e+01 1.200918006896972656e+01 2.252695558127015829e-04 -1.725702168187126517e-04 1.580980278959032148e-05 1.928117999341338873e-04
4.088000000000000000e+03 8.645373344421386719e+00 1.338395309448242188e+01 1.801294856704771519e-04 -6.811191560700535774e-04 -1.502968952991068363e-04 2.548178308643400669e-04
4.089000000000000000e+03 1.295922946929931641e+01 8.775968551635742188e+00 1.224242587340995669e-04 4.641105624614283442e-05 5.065059667686000466e-05 1.271754154004156590e-04
4.090000000000000000e+03 8.216925621032714844e+00 2.017187118530273438e+01 -3.184847068041563034e-03 -1.231366535648703575e-03 -1.324864104390144348e-03 7.689584745094180107e-04
4.091000000000000000e+03 1.197401714324951172e+01 8.991492271423339844e+00 -6.418470002245157957e-05 2.972576476167887449e-05 -1.033768148772651330e-05 1.795627467799931765e-04
4.092000000000000000e+03 1.067126464843750000e+01 1.927857780456542969e+01 -2.372010610997676849e-03 -1.091426820494234562e-03 -1.039031194522976875e-03 1.501801598351448774e-04
4.093000000000000000e+03 4.309837341308593750e+01 -1.213783740997314453e+01 9.481176137924194336e-01 2.298806667327880859e+00 9.740772843360900879e-01 -4.971621930599212646e-01
4.094000000000000000e+03 9.131855964660644531e+00 1.459447669982910156e+01 8.267657904070802033e-06 -8.713836432434618473e-04 -2.589348005130887032e-04 3.135296574328094721e-04
4.095000000000000000e+03 9.726102828979492188e+00 1.227274608612060547e+01 4.668084729928523302e-04 -3.686764393933117390e-04 2.943961226264946163e-05 9.679531649453565478e-05
4.096000000000000000e+03 1.070427322387695312e+01 9.439426422119140625e+00 -8.685937245900277048e-06 -1.164355126093141735e-04 -3.753643613890744746e-05 1.830663386499509215e-04
4.097000000000000000e+03 1.175729942321777344e+01 1.016715335845947266e+01 1.678699481999501586e-04 3.730015669134445488e-05 6.155102892080321908e-05 2.054655196843668818e-04
4.098000000000000000e+03 4.117910385131835938e+01 -1.271637916564941406e+01 1.404399871826171875e+00 1.581540584564208984e+00 8.957821726799011230e-01 -1.270277023315429688e+00
4.099000000000000000e+03 3.633021926879882812e+01 2.016724014282226562e+01 -7.239779829978942871e-02 3.843750804662704468e-02 -1.018808782100677490e-02 2.938929572701454163e-02
4.100000000000000000e+03 4.067736816406250000e+01 -1.146043682098388672e+01 7.573893666267395020e-01 1.091324806213378906e+00 5.546142458915710449e-01 -1.297321915626525879e+00
4.101000000000000000e+03 4.126389694213867188e+01 -1.115765190124511719e+01 5.174390673637390137e-01 1.233142137527465820e+00 5.251743793487548828e-01 -1.136461973190307617e+00
4.102000000000000000e+03 8.951018333435058594e+00 1.402847957611083984e+01 3.313804045319557190e-04 -6.774055655114352703e-04 -1.038075497490353882e-04 -7.021190685918554664e-05
4.103000000000000000e+03 4.149863433837890625e+01 -1.161008453369140625e+01 7.696532607078552246e-01 1.448285102844238281e+00 6.653815507888793945e-01 -1.116134166717529297e+00
4.104000000000000000e+03 1.003655624389648438e+01 1.129594230651855469e+01 2.457468362990766764e-04 -3.281607932876795530e-04 -2.472418236720841378e-05 3.705054987221956253e-04
4.105000000000000000e+03 1.803016471862792969e+01 3.050204658508300781e+01 -3.921281313523650169e-04 -1.906162127852439880e-02 -5.836124997586011887e-03 3.051228262484073639e-02
4.106000000000000000e+03 1.773693656921386719e+01 2.848465538024902344e+01 -1.388394739478826523e-02 -1.336269546300172806e-02 -8.173992857336997986e-03 3.018284030258655548e-02
4.107000000000000000e+03 9.905863761901855469e+00 1.453966617584228516e+01 5.114515661261975765e-04 -6.859613349661231041e-04 -5.235292337602004409e-05 1.064057869371026754e-04
4.108000000000000000e+03 1.018285465240478516e+01 1.855252265930175781e+01 -2.026943024247884750e-03 -1.344450749456882477e-03 -1.011418062262237072e-03 7.343920879065990448e-05
4.109000000000000000e+03 8.924571990966796875e+00 1.651771163940429688e+01 -7.934542372822761536e-05 -9.882430313155055046e-04 -3.202765365131199360e-04 -7.236066448967903852e-05
4.110000000000000000e+03 9.457212448120117188e+00 1.744694709777832031e+01 -6.640859646722674370e-04 -1.150606549344956875e-03 -5.444077542051672935e-04 1.075376349035650492e-04
4.111000000000000000e+03 8.792249679565429688e+00 1.716816902160644531e+01 -7.844596402719616890e-04 -1.219491125084459782e-03 -6.011852528899908066e-04 4.036406971863470972e-05
4.112000000000000000e+03 4.409345626831054688e+01 -1.246285343170166016e+01 1.112984895706176758e+00 2.747403144836425781e+00 1.158116459846496582e+00 1.917663961648941040e-01
4.113000000000000000e+03 1.326565074920654297e+01 2.533533287048339844e+01 -1.795787736773490906e-02 -5.264577921479940414e-04 -5.545300431549549103e-03 1.295910868793725967e-02
4.114000000000000000e+03 1.114469146728515625e+01 8.424814224243164062e+00 -2.975293318741023540e-05 -6.258938810788094997e-05 -2.770269747998099774e-05 9.382367716170847416e-05
4.115000000000000000e+03 9.277747154235839844e+00 1.128067302703857422e+01 3.178222104907035828e-04 -3.713357145898044109e-04 -1.605404759175144136e-05 2.432260953355580568e-04
4.116000000000000000e+03 8.970967292785644531e+00 1.064158058166503906e+01 2.832861500792205334e-04 -2.362032682867720723e-04 1.412486562912818044e-05 2.104352461174130440e-05
4.117000000000000000e+03 9.869255065917968750e+00 1.523250579833984375e+01 -1.121958121075294912e-04 -8.776517352089285851e-04 -2.969542692881077528e-04 3.621163778007030487e-04
4.118000000000000000e+03 9.809947013854980469e+00 1.587041854858398438e+01 2.222035691374912858e-04 -8.471573237329721451e-04 -1.874861191026866436e-04 5.870953464182093740e-05
4.119000000000000000e+03 1.181363773345947266e+01 2.349730300903320312e+01 -1.320098992437124252e-02 6.635163445025682449e-04 -3.761242143809795380e-03 5.817726720124483109e-03
4.120000000000000000e+03 1.262719058990478516e+01 2.388382530212402344e+01 -1.584205031394958496e-02 8.480202523060142994e-04 -4.498208872973918915e-03 7.714979350566864014e-03
4.121000000000000000e+03 9.985220909118652344e+00 1.696244430541992188e+01 -3.770546754822134972e-04 -1.072519691661000252e-03 -4.348723159637302160e-04 -3.426315743126906455e-05
4.122000000000000000e+03 1.108029747009277344e+01 2.100070762634277344e+01 -6.961714476346969604e-03 -1.080347137758508325e-04 -2.120924880728125572e-03 1.107753021642565727e-03
4.123000000000000000e+03 9.480962753295898438e+00 2.021636009216308594e+01 -3.834263654425740242e-03 -8.991172071546316147e-04 -1.420014305040240288e-03 7.025633240118622780e-04
4.124000000000000000e+03 8.866046905517578125e+00 2.009921264648437500e+01 -2.976190531626343727e-03 -8.795312605798244476e-04 -1.156716607511043549e-03 3.975957515649497509e-04
4.125000000000000000e+03 1.230643653869628906e+01 2.551344490051269531e+01 -1.354113779962062836e-02 -1.716522849164903164e-03 -4.577298182994127274e-03 1.211460400372743607e-02
4.126000000000000000e+03 9.635130882263183594e+00 2.922863006591796875e+01 -4.222941119223833084e-03 -7.592604029923677444e-03 -3.544663544744253159e-03 1.364909205585718155e-02
4.127000000000000000e+03 9.016084671020507812e+00 2.067399787902832031e+01 -4.359309561550617218e-03 -1.055632252246141434e-03 -1.624482567422091961e-03 1.171108451671898365e-03
4.128000000000000000e+03 1.499560928344726562e+01 2.948754119873046875e+01 -8.295247331261634827e-03 -1.152522396296262741e-02 -5.946141667664051056e-03 2.464239299297332764e-02
4.129000000000000000e+03 1.425682640075683594e+01 2.851611709594726562e+01 -9.761618450284004211e-03 -8.885608054697513580e-03 -5.594167858362197876e-03 2.135572209954261780e-02
4.130000000000000000e+03 9.098947525024414062e+00 2.243879127502441406e+01 -5.813226103782653809e-03 -9.022617014124989510e-04 -2.014646306633949280e-03 2.808563178405165672e-03
4.131000000000000000e+03 9.615438461303710938e+00 1.839710807800292969e+01 -1.572619308717548847e-03 -1.031538471579551697e-03 -7.812473340891301632e-04 5.721779234590940177e-05
4.132000000000000000e+03 1.043704128265380859e+01 2.145381355285644531e+01 -6.484877318143844604e-03 -2.557331754360347986e-04 -2.022183267399668694e-03 1.626601093448698521e-03
4.133000000000000000e+03 4.114215469360351562e+01 -9.809908866882324219e+00 -2.036595195531845093e-01 8.848924040794372559e-01 2.043698579072952271e-01 -9.698135852813720703e-01
4.134000000000000000e+03 1.082544708251953125e+01 2.329358863830566406e+01 -1.028138585388660431e-02 -3.850150096695870161e-04 -3.199920291081070900e-03 5.012570880353450775e-03
4.135000000000000000e+03 1.015610599517822266e+01 2.390232658386230469e+01 -8.741041645407676697e-03 -8.330983691848814487e-04 -2.872242126613855362e-03 5.578740499913692474e-03
4.136000000000000000e+03 1.691591835021972656e+01 2.953709030151367188e+01 -8.318449370563030243e-03 -1.527566742151975632e-02 -7.078235037624835968e-03 2.983816154301166534e-02
4.137000000000000000e+03 7.070606231689453125e+01 5.842913150787353516e+00 4.317172169685363770e-01 5.753894448280334473e-01 3.021320104598999023e-01 -6.148172020912170410e-01
4.138000000000000000e+03 6.967578125000000000e+01 -4.258441925048828125e+00 -2.084066569805145264e-01 3.474595844745635986e-01 4.171587899327278137e-02 -8.463425040245056152e-01
4.139000000000000000e+03 6.767054748535156250e+01 2.913846969604492188e+00 4.484059214591979980e-01 1.601670384407043457e+00 6.150228977203369141e-01 -4.719395637512207031e-01
4.140000000000000000e+03 6.890824890136718750e+01 3.157587766647338867e+00 4.000464379787445068e-01 1.180863261222839355e+00 4.742729067802429199e-01 -6.075047254562377930e-01
4.141000000000000000e+03 6.870527648925781250e+01 -1.512600302696228027e+00 4.166066274046897888e-02 7.195034623146057129e-01 2.283492386341094971e-01 -7.529479265213012695e-01
4.142000000000000000e+03 3.421850967407226562e+01 2.087142181396484375e+01 -7.733709365129470825e-02 1.509695686399936676e-02 -1.867204159498214722e-02 3.297296538949012756e-02
4.143000000000000000e+03 3.577218246459960938e+01 2.117691612243652344e+01 -7.281497120857238770e-02 3.093886747956275940e-02 -1.256283186376094818e-02 3.278679028153419495e-02
4.144000000000000000e+03 1.492298984527587891e+01 2.769252204895019531e+01 -1.476514991372823715e-02 -7.349709514528512955e-03 -6.634457502514123917e-03 2.254736050963401794e-02
4.145000000000000000e+03 6.915461730957031250e+01 -2.287995815277099609e+00 -3.383792564272880554e-02 6.140866279602050781e-01 1.740746200084686279e-01 -8.110845685005187988e-01
4.146000000000000000e+03 6.897450256347656250e+01 -3.624296188354492188e+00 -1.599813252687454224e-01 5.105156898498535156e-01 1.051603034138679504e-01 -8.108617067337036133e-01
4.147000000000000000e+03 2.018322944641113281e+01 2.999434471130371094e+01 -2.061831532046198845e-03 -2.260686457157135010e-02 -7.400608621537685394e-03 3.456898033618927002e-02
4.148000000000000000e+03 6.478262329101562500e+01 -5.642219066619873047e+00 -3.662724494934082031e-01 7.869413495063781738e-01 1.262006610631942749e-01 -2.497574239969253540e-01
4.149000000000000000e+03 6.532970428466796875e+01 -6.385452747344970703e+00 -4.034635126590728760e-01 5.054732561111450195e-01 3.060293197631835938e-02 -3.492952883243560791e-01
4.150000000000000000e+03 6.717147064208984375e+01 -5.152027606964111328e+00 -3.117511570453643799e-01 5.998122692108154297e-01 8.641833811998367310e-02 -6.464053392410278320e-01
4.151000000000000000e+03 6.832811737060546875e+01 -2.916874647140502930e+00 -7.489490509033203125e-02 6.526300311088562012e-01 1.733205318450927734e-01 -7.407052516937255859e-01
4.152000000000000000e+03 6.649052429199218750e+01 -4.290801048278808594e+00 -1.820946335792541504e-01 7.680795192718505859e-01 1.757954806089401245e-01 -5.347148776054382324e-01
4.153000000000000000e+03 2.122892379760742188e+01 2.880219459533691406e+01 -1.217863988131284714e-02 -2.478159777820110321e-02 -1.108807139098644257e-02 3.842869400978088379e-02
4.154000000000000000e+03 1.017951583862304688e+01 2.531138038635253906e+01 -8.994068019092082977e-03 -2.016807207837700844e-03 -3.303262637928128242e-03 8.382130414247512817e-03
4.155000000000000000e+03 1.231329250335693359e+01 2.939082336425781250e+01 -6.104687694460153580e-03 -8.809026330709457397e-03 -4.474114160984754562e-03 1.853530295193195343e-02
4.156000000000000000e+03 7.139057159423828125e+01 6.850223541259765625e+00 3.957519233226776123e-01 3.346641063690185547e-01 2.191248089075088501e-01 -5.519124269485473633e-01
4.157000000000000000e+03 7.031587219238281250e+01 7.781403541564941406e+00 5.252110958099365234e-01 8.590273261070251465e-01 4.152715206146240234e-01 -4.505013227462768555e-01
4.158000000000000000e+03 3.183176612854003906e+01 2.616355323791503906e+01 -2.451091259717941284e-02 -6.391243077814579010e-03 -9.270646609365940094e-03 1.951255463063716888e-02
4.159000000000000000e+03 3.154996109008789062e+01 2.795899009704589844e+01 -1.349439728073775768e-03 -1.440181164070963860e-03 -8.368862327188253403e-04 1.618339866399765015e-02
4.160000000000000000e+03 6.344274997711181641e+00 -2.548178291320800781e+01 1.892781108617782593e-01 -7.339516878128051758e-01 -1.634020805358886719e-01 -3.733205497264862061e-01
4.161000000000000000e+03 6.871817779541015625e+01 8.257328271865844727e-01 2.268070280551910400e-01 9.836913347244262695e-01 3.631494939327239990e-01 -6.884356737136840820e-01
4.162000000000000000e+03 6.922520446777343750e+01 -9.601140767335891724e-02 1.418884098529815674e-01 7.351905703544616699e-01 2.631236910820007324e-01 -7.685458064079284668e-01
4.163000000000000000e+03 3.649711227416992188e+01 2.429204559326171875e+01 -3.357063233852386475e-02 4.107240960001945496e-02 2.250533550977706909e-03 1.633745804429054260e-02
4.164000000000000000e+03 3.512229156494140625e+01 2.203334617614746094e+01 -6.557781249284744263e-02 2.821600437164306641e-02 -1.120854262262582779e-02 2.681572176516056061e-02
4.165000000000000000e+03 7.207132720947265625e+01 1.285063076019287109e+01 5.039008259773254395e-01 6.480231881141662598e-02 1.706109493970870972e-01 -9.566728770732879639e-02
4.166000000000000000e+03 4.450233078002929688e+01 -1.202183818817138672e+01 8.794866204261779785e-01 2.420034170150756836e+00 9.898562431335449219e-01 4.655674695968627930e-01
4.167000000000000000e+03 4.447717285156250000e+01 -1.246405315399169922e+01 1.082714200019836426e+00 2.747573137283325195e+00 1.149086117744445801e+00 5.029780864715576172e-01
4.168000000000000000e+03 4.190709304809570312e+01 -1.360489559173583984e+01 2.002838850021362305e+00 2.213268518447875977e+00 1.264832139015197754e+00 -1.065705060958862305e+00
4.169000000000000000e+03 4.514802932739257812e+01 -1.203726863861083984e+01 9.273861646652221680e-01 2.270844221115112305e+00 9.594691395759582520e-01 9.333354830741882324e-01
4.170000000000000000e+03 4.409312057495117188e+01 -1.197226238250732422e+01 7.563920021057128906e-01 2.399555683135986328e+00 9.467843174934387207e-01 1.562925130128860474e-01
4.171000000000000000e+03 4.373896408081054688e+01 -1.258551406860351562e+01 1.154537439346313477e+00 2.779887199401855469e+00 1.180327415466308594e+00 -8.792296051979064941e-02
4.172000000000000000e+03 1.323191165924072266e+01 9.175947189331054688e+00 -6.964958447497338057e-05 1.327698410023003817e-04 1.893607804959174246e-05 1.577392831677570939e-04
4.173000000000000000e+03 4.286658859252929688e+01 -1.110482883453369141e+01 2.966140508651733398e-01 1.615317940711975098e+00 5.735796093940734863e-01 -5.463957190513610840e-01
4.174000000000000000e+03 1.228639221191406250e+01 9.328040122985839844e+00 1.728402858134359121e-04 5.301766577758826315e-06 5.344261444406583905e-05 1.511443115305155516e-04
4.175000000000000000e+03 1.159081840515136719e+01 8.697539329528808594e+00 2.338030026294291019e-04 -1.766296736604999751e-05 6.484201003331691027e-05 1.477896730648353696e-04
4.176000000000000000e+03 4.164698791503906250e+01 -1.296356964111328125e+01 1.537374734878540039e+00 1.888635158538818359e+00 1.027802944183349609e+00 -1.149199604988098145e+00
4.177000000000000000e+03 4.268971252441406250e+01 -1.315132713317871094e+01 1.649088740348815918e+00 2.607135057449340820e+00 1.276867151260375977e+00 -8.058620095252990723e-01
4.178000000000000000e+03 4.592911529541015625e+01 -1.125347042083740234e+01 4.927446842193603516e-01 1.567358732223510742e+00 6.180310249328613281e-01 1.223646402359008789e+00
4.179000000000000000e+03 1.015951728820800781e+01 1.171847820281982422e+01 3.296287322882562876e-04 -1.816967123886570334e-04 4.437960888026282191e-05 2.182652315241284668e-05
4.180000000000000000e+03 1.265117359161376953e+01 8.360400199890136719e+00 -5.469868847285397351e-05 7.031594577711075544e-05 4.685176918428624049e-06 1.225113810505717993e-04
4.181000000000000000e+03 4.484400177001953125e+01 -1.109415245056152344e+01 2.958887815475463867e-01 1.751529097557067871e+00 6.142253875732421875e-01 6.022161841392517090e-01
4.182000000000000000e+03 1.333039855957031250e+01 2.913058280944824219e+01 -9.109628386795520782e-03 -8.863368071615695953e-03 -5.391899030655622482e-03 2.112199924886226654e-02
4.183000000000000000e+03 1.352632617950439453e+01 2.641601181030273438e+01 -1.469091232866048813e-02 -3.272892907261848450e-03 -5.389141384512186050e-03 1.562209147959947586e-02
4.184000000000000000e+03 4.668683624267578125e+01 -1.206212043762207031e+01 1.284813642501831055e+00 1.476181268692016602e+00 8.282985091209411621e-01 1.649079680442810059e+00
4.185000000000000000e+03 1.090400028228759766e+01 8.923841476440429688e+00 2.994494861923158169e-04 -9.176612365990877151e-05 6.230500730453059077e-05 1.712296216282993555e-04
4.186000000000000000e+03 1.115526962280273438e+01 1.076860904693603516e+01 2.922501007560640574e-04 -2.161074917239602655e-05 8.119180711219087243e-05 2.472653577569872141e-04
4.187000000000000000e+03 9.725967407226562500e+00 1.090905857086181641e+01 1.881815842352807522e-04 -2.382763632340356708e-04 -1.502843406342435628e-05 6.928158109076321125e-05
4.188000000000000000e+03 1.031855106353759766e+01 2.261129760742187500e+01 -7.979763671755790710e-03 -2.880935207940638065e-04 -2.480357186868786812e-03 3.269758773967623711e-03
4.189000000000000000e+03 1.088533878326416016e+01 2.201409339904785156e+01 -8.467033505439758301e-03 -8.701360638951882720e-05 -2.566214185208082199e-03 2.556709805503487587e-03
4.190000000000000000e+03 1.064305496215820312e+01 2.042656517028808594e+01 -4.566045012325048447e-03 -4.043463268317282200e-04 -1.491117407567799091e-03 3.895699046552181244e-04
4.191000000000000000e+03 9.960969924926757812e+00 1.045760631561279297e+01 3.355832013767212629e-04 -1.492191659053787589e-04 5.590921500697731972e-05 1.821155019570142031e-04
4.192000000000000000e+03 1.165670776367187500e+01 9.689839363098144531e+00 -1.054982203640975058e-05 -6.470437801908701658e-05 -2.257625965285114944e-05 2.391718153376132250e-04
4.193000000000000000e+03 1.082050228118896484e+01 2.458443450927734375e+01 -1.097069866955280304e-02 -1.168204937130212784e-03 -3.641671035438776016e-03 8.014328777790069580e-03
4.194000000000000000e+03 1.152205944061279297e+01 2.520779228210449219e+01 -1.226233504712581635e-02 -1.184217981062829494e-03 -4.033965989947319031e-03 9.680002927780151367e-03
4.195000000000000000e+03 4.178795242309570312e+01 -1.103666877746582031e+01 4.074246287345886230e-01 1.360630989074707031e+00 5.304166674613952637e-01 -9.577507376670837402e-01
4.196000000000000000e+03 4.212857055664062500e+01 -1.212169361114501953e+01 9.705286622047424316e-01 1.847697138786315918e+00 8.454677462577819824e-01 -9.626514315605163574e-01
4.197000000000000000e+03 1.135778999328613281e+01 9.136258125305175781e+00 -5.789962233393453062e-05 -3.528124216245487332e-05 -2.795426007651258260e-05 1.639964757487177849e-04
4.198000000000000000e+03 6.808943176269531250e+01 -4.388669967651367188e+00 -2.208292335271835327e-01 5.395662188529968262e-01 9.562110155820846558e-02 -7.371467947959899902e-01
4.199000000000000000e+03 4.184892272949218750e+01 -1.053521919250488281e+01 6.544477492570877075e-02 1.189838051795959473e+00 3.765848577022552490e-01 -8.564755320549011230e-01
4.200000000000000000e+03 9.378601074218750000e+00 2.127985572814941406e+01 -4.854332655668258667e-03 -7.755233673378825188e-04 -1.688956748694181442e-03 1.561760087497532368e-03
4.201000000000000000e+03 9.804372787475585938e+00 2.195152664184570312e+01 -6.675689946860074997e-03 -7.589150336571037769e-04 -2.230381593108177185e-03 2.473359229043126106e-03
4.202000000000000000e+03 9.597820281982421875e+00 2.317991447448730469e+01 -7.849031127989292145e-03 -1.034989370964467525e-03 -2.665206091478466988e-03 4.440531600266695023e-03
4.203000000000000000e+03 6.720850372314453125e+01 -1.245833754539489746e+00 1.042525917291641235e-01 1.078948736190795898e+00 3.549604117870330811e-01 -5.766771435737609863e-01
4.204000000000000000e+03 6.585166168212890625e+01 -3.434900045394897461e+00 -8.583560585975646973e-02 1.049601554870605469e+00 2.891297936439514160e-01 -4.234756231307983398e-01
4.205000000000000000e+03 7.533877849578857422e+00 -1.984769248962402344e+01 4.783770814538002014e-02 -4.560197293758392334e-01 -1.224545985460281372e-01 -6.579766869544982910e-01
4.206000000000000000e+03 2.367728424072265625e+01 3.105965805053710938e+01 1.253394596278667450e-02 -2.885032445192337036e-02 -4.894913639873266220e-03 3.463563695549964905e-02
4.207000000000000000e+03 7.360803222656250000e+01 8.070142745971679688e+00 3.121995329856872559e-01 -6.725033521652221680e-01 -1.080911532044410706e-01 -4.713404178619384766e-01
4.208000000000000000e+03 1.593068981170654297e+01 2.852775382995605469e+01 -1.235699374228715897e-02 -9.986922144889831543e-03 -6.703174673020839691e-03 2.533366717398166656e-02
4.209000000000000000e+03 1.585192680358886719e+01 3.065527153015136719e+01 -1.687604119069874287e-03 -1.550712343305349350e-02 -5.158418323844671249e-03 2.579830959439277649e-02
4.210000000000000000e+03 6.426513671875000000e+01 -3.787527382373809814e-01 3.079717755317687988e-01 1.930060267448425293e+00 6.714096069335937500e-01 2.247465960681438446e-02
4.211000000000000000e+03 3.475214767456054688e+01 2.355940628051757812e+01 -5.068717524409294128e-02 2.431406825780868530e-02 -7.911932654678821564e-03 2.222029864788055420e-02
4.212000000000000000e+03 3.372442245483398438e+01 2.489499092102050781e+01 -3.998045995831489563e-02 1.349496934562921524e-02 -7.945647463202476501e-03 1.822660490870475769e-02
4.213000000000000000e+03 3.527318191528320312e+01 2.637103080749511719e+01 -1.226576231420040131e-02 3.308152779936790466e-02 6.244730204343795776e-03 1.001973915845155716e-02
4.214000000000000000e+03 6.556864166259765625e+01 -4.961810111999511719e+00 -2.416518479585647583e-01 7.922694683074951172e-01 1.651853024959564209e-01 -3.769474625587463379e-01
4.215000000000000000e+03 6.480301666259765625e+01 -4.094147205352783203e+00 -1.488188356161117554e-01 1.101064085960388184e+00 2.856735587120056152e-01 -2.079306989908218384e-01
4.216000000000000000e+03 6.898813629150390625e+01 5.696900367736816406e+00 5.062146186828613281e-01 1.350100159645080566e+00 5.568944215774536133e-01 -4.762690365314483643e-01
4.217000000000000000e+03 4.497375488281250000e+01 -1.173375797271728516e+01 7.187704443931579590e-01 2.139762163162231445e+00 8.575597405433654785e-01 7.493623495101928711e-01
4.218000000000000000e+03 4.484246444702148438e+01 -1.208003139495849609e+01 8.800989389419555664e-01 2.388697385787963867e+00 9.806388616561889648e-01 7.407392263412475586e-01
4.219000000000000000e+03 4.267952728271484375e+01 -1.283194065093994141e+01 1.442695379257202148e+00 2.430618762969970703e+00 1.161994218826293945e+00 -7.736936211585998535e-01
4.220000000000000000e+03 4.230094528198242188e+01 -1.271063041687011719e+01 1.359037995338439941e+00 2.175512313842773438e+00 1.060365080833435059e+00 -9.419767856597900391e-01
4.221000000000000000e+03 1.198898696899414062e+01 9.579333305358886719e+00 6.488630333478795364e-06 7.407372322631999850e-05 2.416870484012179077e-05 2.166963386116549373e-04
4.222000000000000000e+03 4.320924758911132812e+01 -1.176234817504882812e+01 6.379449367523193359e-01 2.054579019546508789e+00 8.077571392059326172e-01 -3.802233636379241943e-01
4.223000000000000000e+03 4.178390884399414062e+01 -1.194604969024658203e+01 9.289590120315551758e-01 1.649145603179931641e+00 7.734313607215881348e-01 -1.087597608566284180e+00
4.224000000000000000e+03 4.148291778564453125e+01 -1.228868103027343750e+01 1.121143341064453125e+00 1.624052166938781738e+00 8.235586285591125488e-01 -1.178792238235473633e+00
4.225000000000000000e+03 4.287402725219726562e+01 -1.247911262512207031e+01 1.142385840415954590e+00 2.363079309463500977e+00 1.051639556884765625e+00 -6.273053288459777832e-01
4.226000000000000000e+03 4.245454406738281250e+01 -1.073461818695068359e+01 1.284913569688796997e-01 1.422390699386596680e+00 4.652646183967590332e-01 -6.991757750511169434e-01
4.227000000000000000e+03 9.718633651733398438e+00 1.167742919921875000e+01 2.543921982578467578e-05 -3.070551611017435789e-04 -8.448478183709084988e-05 1.922326919157058001e-04
4.228000000000000000e+03 4.326773834228515625e+01 -1.077173137664794922e+01 4.002536460757255554e-02 1.544295668601989746e+00 4.752962887287139893e-01 -2.926717102527618408e-01
4.229000000000000000e+03 1.052730274200439453e+01 1.061417675018310547e+01 5.146127296029590070e-05 -2.169976214645430446e-04 -4.966090637026354671e-05 2.392119931755587459e-04
4.230000000000000000e+03 1.009955978393554688e+01 9.162995338439941406e+00 3.390793281141668558e-04 -1.441020140191540122e-04 5.849319131812080741e-05 1.117448191507719457e-04
4.231000000000000000e+03 1.214067173004150391e+01 2.477869606018066406e+01 -1.510144770145416260e-02 -1.006035672617144883e-04 -4.560615401715040207e-03 9.462515823543071747e-03
4.232000000000000000e+03 4.220149230957031250e+01 -1.115871334075927734e+01 3.892475366592407227e-01 1.447396874427795410e+00 5.509933233261108398e-01 -8.097969889640808105e-01
4.233000000000000000e+03 4.383313369750976562e+01 -1.073006439208984375e+01 3.841184824705123901e-02 1.562279462814331055e+00 4.802074134349822998e-01 -1.091496460139751434e-02
4.234000000000000000e+03 9.957301139831542969e+00 9.806177139282226562e+00 9.434580715605989099e-05 -2.400110388407483697e-04 -4.369956877781078219e-05 1.765836641425266862e-04
4.235000000000000000e+03 1.051357078552246094e+01 1.118094158172607422e+01 3.803067957051098347e-04 -1.672527287155389786e-04 6.391621718648821115e-05 1.603270065970718861e-04
4.236000000000000000e+03 9.746772766113281250e+00 1.647690391540527344e+01 -4.426929517649114132e-04 -1.182434149086475372e-03 -4.875381127931177616e-04 2.987807092722505331e-04
4.237000000000000000e+03 1.122632884979248047e+01 9.619981765747070312e+00 2.941885322798043489e-04 -3.757248850888572633e-05 7.698481931583955884e-05 1.800328464014455676e-04
4.238000000000000000e+03 1.059621620178222656e+01 1.000659465789794922e+01 2.920419210568070412e-04 -7.041463686618953943e-05 6.648818816756829619e-05 1.901832001749426126e-04
4.239000000000000000e+03 9.023400306701660156e+00 1.805181121826171875e+01 -1.417728839442133904e-03 -1.193535048514604568e-03 -7.833791896700859070e-04 8.813659223960712552e-05
4.240000000000000000e+03 1.215667819976806641e+01 2.648476028442382812e+01 -1.315834093838930130e-02 -2.643460407853126526e-03 -4.740540403872728348e-03 1.334508135914802551e-02
4.241000000000000000e+03 3.587562942504882812e+01 2.295886993408203125e+01 -5.874317139387130737e-02 3.754527866840362549e-02 -6.359367165714502335e-03 2.484838292002677917e-02
4.242000000000000000e+03 6.680738067626953125e+01 -2.760925054550170898e+00 -3.493478894233703613e-02 9.308841824531555176e-01 2.687848210334777832e-01 -5.472006201744079590e-01
4.243000000000000000e+03 7.209537506103515625e+01 7.726364135742187500e+00 4.389306902885437012e-01 5.020985007286071777e-02 1.467421650886535645e-01 -5.067201852798461914e-01
4.244000000000000000e+03 1.374733066558837891e+01 2.758502006530761719e+01 -1.477536559104919434e-02 -5.044175311923027039e-03 -5.945862270891666412e-03 1.948660425841808319e-02
4.245000000000000000e+03 3.695530700683593750e+01 2.594059181213378906e+01 -1.470164489001035690e-02 5.186594277620315552e-02 1.114929001778364182e-02 8.220657706260681152e-03
4.246000000000000000e+03 3.508530807495117188e+01 2.479836082458496094e+01 -3.815615922212600708e-02 3.290751576423645020e-02 -1.574592781253159046e-03 1.473373267799615860e-02
4.247000000000000000e+03 1.689923667907714844e+01 3.186905288696289062e+01 3.948751371353864670e-03 -1.995356567203998566e-02 -4.801444243639707565e-03 2.746819518506526947e-02
4.248000000000000000e+03 2.224499893188476562e+01 3.224018096923828125e+01 1.965409889817237854e-02 -2.843470126390457153e-02 -2.634180476889014244e-03 3.146294876933097839e-02
4.249000000000000000e+03 2.061354637145996094e+01 3.217572402954101562e+01 1.473106257617473602e-02 -2.527271583676338196e-02 -3.162496024742722511e-03 3.094389848411083221e-02
4.250000000000000000e+03 6.840723419189453125e+01 8.025248527526855469e+00 6.627129316329956055e-01 1.832351207733154297e+00 7.485192418098449707e-01 -3.303341567516326904e-01
4.251000000000000000e+03 1.533583068847656250e+01 2.673097229003906250e+01 -1.956248283386230469e-02 -4.422510974109172821e-03 -7.195497862994670868e-03 2.077303081750869751e-02
4.252000000000000000e+03 4.251300048828125000e+01 -1.227070236206054688e+01 1.055547356605529785e+00 2.035734891891479492e+00 9.273846745491027832e-01 -8.162121176719665527e-01
4.253000000000000000e+03 4.189625930786132812e+01 -1.253096961975097656e+01 1.286232233047485352e+00 1.895603060722351074e+00 9.545506238937377930e-01 -1.083367824554443359e+00
4.254000000000000000e+03 4.280562591552734375e+01 -1.188373374938964844e+01 7.697609066963195801e-01 1.978576660156250000e+00 8.245012760162353516e-01 -6.299057602882385254e-01
4.255000000000000000e+03 4.212665176391601562e+01 -1.174071121215820312e+01 7.785025238990783691e-01 1.714506626129150391e+00 7.479027509689331055e-01 -9.267594814300537109e-01
4.256000000000000000e+03 1.132220554351806641e+01 2.392385482788085938e+01 -1.171440538018941879e-02 -1.586502621648833156e-04 -3.561916528269648552e-03 6.440618075430393219e-03
4.257000000000000000e+03 1.104260921478271484e+01 2.601993942260742188e+01 -1.066041179001331329e-02 -2.804837888106703758e-03 -4.039574880152940750e-03 1.140073779970407486e-02
4.258000000000000000e+03 1.892541885375976562e+01 2.919488143920898438e+01 -9.723058901727199554e-03 -1.942973770201206207e-02 -8.745838887989521027e-03 3.469540178775787354e-02
4.259000000000000000e+03 1.664542007446289062e+01 3.487026977539062500e+01 1.484371628612279892e-02 -2.345971763134002686e-02 -2.584800589829683304e-03 2.091150917112827301e-02
4.260000000000000000e+03 3.544234848022460938e+01 2.834659385681152344e+01 1.032030116766691208e-02 4.496826976537704468e-02 1.658657193183898926e-02 7.829695823602378368e-04
4.261000000000000000e+03 2.431119537353515625e+01 2.947102165222167969e+01 2.923764754086732864e-03 -2.756371721625328064e-02 -7.391985971480607986e-03 3.609247505664825439e-02
4.262000000000000000e+03 4.500863075256347656e+00 -2.437479972839355469e+01 1.180921047925949097e-01 -8.430136442184448242e-01 -2.174764722585678101e-01 -3.552769124507904053e-01
4.263000000000000000e+03 7.373187255859375000e+01 -2.929095077514648438e+01 -5.920389201492071152e-03 -1.309970626607537270e-03 -2.169108018279075623e-03 7.705563213676214218e-03
4.264000000000000000e+03 7.184671020507812500e+01 2.851247596740722656e+01 -2.022575438022613525e-01 2.778001725673675537e-01 2.266278862953186035e-02 7.267132401466369629e-01
4.265000000000000000e+03 7.629311561584472656e+00 -3.021568298339843750e+01 1.916723549365997314e-01 -6.540597081184387207e-01 -1.387162059545516968e-01 -1.975849270820617676e-01
4.266000000000000000e+03 2.166959524154663086e+00 -3.698126602172851562e+01 4.918941762298345566e-03 -1.511684536933898926e+00 -4.520296752452850342e-01 6.727711297571659088e-03
4.267000000000000000e+03 7.730401611328125000e+01 3.624325942993164062e+01 -4.676034674048423767e-02 -7.378857731819152832e-01 -2.353938370943069458e-01 2.178925275802612305e-01
4.268000000000000000e+03 3.111904907226562500e+01 2.986176109313964844e+01 1.704644970595836639e-02 -4.314902704209089279e-03 3.819464240223169327e-03 1.523222494870424271e-02
4.269000000000000000e+03 6.506286621093750000e+00 -2.707412719726562500e+01 1.677550226449966431e-01 -7.586016654968261719e-01 -1.772539913654327393e-01 -2.983320355415344238e-01
4.270000000000000000e+03 3.192350769042968750e+01 -3.382142257690429688e+01 4.795897901058197021e-01 9.160233736038208008e-01 4.186839461326599121e-01 3.117525577545166016e-01
4.271000000000000000e+03 6.339400482177734375e+01 2.701723861694335938e+01 -3.335096240043640137e-01 2.273334264755249023e+00 5.819473862648010254e-01 -9.471722692251205444e-02
4.272000000000000000e+03 7.536218261718750000e+01 3.677059173583984375e+01 -1.012654229998588562e-01 -4.716966152191162109e-01 -1.718886196613311768e-01 2.422660589218139648e-01
4.273000000000000000e+03 4.070179367065429688e+01 2.842787361145019531e+01 4.503298550844192505e-02 1.052277907729148865e-01 4.507823288440704346e-02 -3.334564343094825745e-02
4.274000000000000000e+03 4.305885696411132812e+01 2.919488906860351562e+01 6.824290007352828979e-02 1.382808089256286621e-01 6.195711344480514526e-02 -6.806854903697967529e-02
4.275000000000000000e+03 6.848495483398437500e+01 -3.538432312011718750e+01 7.654107641428709030e-03 -7.764543406665325165e-03 -3.313078923383727670e-05 2.708521485328674316e-02
4.276000000000000000e+03 6.632781505584716797e+00 -3.800802230834960938e+01 4.362762346863746643e-02 -8.357497453689575195e-01 -2.376366257667541504e-01 -4.552960023283958435e-02
4.277000000000000000e+03 4.772137165069580078e+00 -3.741777420043945312e+01 3.889366239309310913e-02 -1.169851899147033691e+00 -3.392874896526336670e-01 -6.965262442827224731e-02
4.278000000000000000e+03 6.279505920410156250e+01 2.984820938110351562e+01 -4.676249027252197266e-01 1.843890547752380371e+00 4.128796756267547607e-01 -1.785397976636886597e-01
4.279000000000000000e+03 6.955184936523437500e+01 2.790352821350097656e+01 -2.804020643234252930e-01 9.431843757629394531e-01 1.988347023725509644e-01 6.745338439941406250e-01
4.280000000000000000e+03 7.018811035156250000e+01 2.661513137817382812e+01 -1.373631358146667480e-01 8.147820234298706055e-01 2.032256722450256348e-01 7.774046063423156738e-01
4.281000000000000000e+03 7.631079864501953125e+01 2.742302513122558594e+01 -5.465307459235191345e-02 -1.225600004196166992e+00 -3.840759098529815674e-01 5.459796190261840820e-01
4.282000000000000000e+03 7.634760284423828125e+01 2.880538558959960938e+01 -4.048641026020050049e-02 -1.104800105094909668e+00 -3.435859382152557373e-01 5.089954733848571777e-01
4.283000000000000000e+03 6.934806823730468750e+01 3.233065795898437500e+01 -4.257876276969909668e-01 6.775133609771728516e-01 7.551772147417068481e-02 4.765748977661132812e-01
4.284000000000000000e+03 7.303864288330078125e+01 2.994435310363769531e+01 -1.877020597457885742e-01 -1.139920800924301147e-01 -9.050824493169784546e-02 6.625289916992187500e-01
4.285000000000000000e+03 6.895717620849609375e+01 3.016150283813476562e+01 -3.828424513339996338e-01 9.218223094940185547e-01 1.616939604282379150e-01 5.338136553764343262e-01
4.286000000000000000e+03 6.884515380859375000e+01 2.656908416748046875e+01 -2.038327306509017944e-01 1.252543091773986816e+00 3.146131038665771484e-01 7.216485738754272461e-01
4.287000000000000000e+03 6.673782348632812500e+01 2.541852951049804688e+01 -1.043265461921691895e-01 2.026847600936889648e+00 5.767563581466674805e-01 5.322520732879638672e-01
4.288000000000000000e+03 6.886631774902343750e+01 -1.961959075927734375e+01 1.782166189514100552e-03 1.143111148849129677e-03 8.775831665843725204e-04 -1.982606627279892564e-04
4.289000000000000000e+03 2.360275268554687500e+01 -4.151085317134857178e-01 -6.281507611274719238e-01 1.099218353629112244e-01 -1.554686874151229858e-01 -7.509065419435501099e-02
4.290000000000000000e+03 2.302548408508300781e+01 3.479034423828125000e+00 -7.816026482032611966e-06 -1.018998864310560748e-05 -5.401804628490936011e-06 3.113306547675165348e-06
4.291000000000000000e+03 4.760284042358398438e+01 -1.647468185424804688e+01 2.606723308563232422e+00 6.459524631500244141e-01 9.758027195930480957e-01 1.239359855651855469e+00
4.292000000000000000e+03 4.444429016113281250e+01 -1.882675170898437500e+01 -3.133126497268676758e-01 5.762869834899902344e+00 1.634867191314697266e+00 2.951997518539428711e-01
4.293000000000000000e+03 4.415996932983398438e+01 -1.846804046630859375e+01 -5.115266144275665283e-02 6.373692989349365234e+00 1.896762132644653320e+00 9.325644969940185547e-01
4.294000000000000000e+03 4.380749130249023438e+01 -1.829534339904785156e+01 6.023864746093750000e-01 6.211733341217041016e+00 2.044235944747924805e+00 1.536254763603210449e+00
4.295000000000000000e+03 3.167612266540527344e+01 -1.675899744033813477e+00 -3.150169372558593750e+00 3.575019538402557373e-01 -8.378002047538757324e-01 -5.463514328002929688e-01
4.296000000000000000e+03 3.056631278991699219e+01 -1.729508519172668457e+00 -2.668040513992309570e+00 2.836883068084716797e-01 -7.153056263923645020e-01 -3.112638294696807861e-01
4.297000000000000000e+03 3.036761093139648438e+01 -1.750365972518920898e+00 -2.609074354171752930e+00 2.376483529806137085e-01 -7.114277482032775879e-01 -3.259161710739135742e-01
4.298000000000000000e+03 3.016478347778320312e+01 -2.083647489547729492e+00 -2.449906110763549805e+00 2.327583134174346924e-01 -6.651443243026733398e-01 -4.012120068073272705e-01
4.299000000000000000e+03 2.997436523437500000e+01 -2.064775466918945312e+00 -2.400464534759521484e+00 2.265418022871017456e-01 -6.521767973899841309e-01 -4.187254309654235840e-01
4.300000000000000000e+03 2.959857559204101562e+01 -2.148203611373901367e+00 -2.291813850402832031e+00 1.574869751930236816e-01 -6.402980685234069824e-01 -4.522728025913238525e-01
4.301000000000000000e+03 2.900169754028320312e+01 -1.866828918457031250e+00 -2.303676128387451172e+00 6.228271871805191040e-02 -6.724179983139038086e-01 -4.536952674388885498e-01
4.302000000000000000e+03 2.907288551330566406e+01 -2.120961427688598633e+00 -2.176178216934204102e+00 1.037523001432418823e-01 -6.217277646064758301e-01 -5.021045804023742676e-01
4.303000000000000000e+03 3.448289108276367188e+01 -1.385079979896545410e+00 -2.954087018966674805e+00 3.793538510799407959e-01 -7.724199295043945312e-01 5.641147494316101074e-02
4.304000000000000000e+03 3.415620040893554688e+01 -2.284273862838745117e+00 -2.634552478790283203e+00 1.571006476879119873e-01 -7.432355880737304688e-01 3.694039881229400635e-01
4.305000000000000000e+03 4.348270797729492188e+01 -1.714431953430175781e+01 4.163121223449707031e+00 5.197412967681884766e+00 2.808160305023193359e+00 2.374584913253784180e+00
4.306000000000000000e+03 2.056152725219726562e+01 5.377886295318603516e+00 -6.569173820025753230e-06 -4.872729914495721459e-05 -1.658894143474753946e-05 -1.326384335698094219e-05
4.307000000000000000e+03 2.735441207885742188e+01 -2.337411880493164062e+00 -1.717343211174011230e+00 -1.284653395414352417e-01 -5.537425875663757324e-01 -6.277174353599548340e-01
4.308000000000000000e+03 4.297691345214843750e+01 -1.676484107971191406e+01 4.439918518066406250e+00 3.864511013031005859e+00 2.491328954696655273e+00 1.403255343437194824e+00
4.309000000000000000e+03 4.304908752441406250e+01 -1.703985023498535156e+01 4.061412334442138672e+00 4.232282161712646484e+00 2.488108396530151367e+00 1.835163354873657227e+00
4.310000000000000000e+03 4.343399810791015625e+01 -1.628044700622558594e+01 5.604656696319580078e+00 4.331707000732421875e+00 2.980909109115600586e+00 7.522165179252624512e-01
4.311000000000000000e+03 4.308931732177734375e+01 -1.623381614685058594e+01 5.045880317687988281e+00 3.786972045898437500e+00 2.649855613708496094e+00 6.392212510108947754e-01
4.312000000000000000e+03 3.436783218383789062e+01 1.992103576660156250e+00 8.617939893156290054e-04 -6.160854245536029339e-04 7.371257379418238997e-05 -2.653976262081414461e-04
4.313000000000000000e+03 3.455361175537109375e+01 2.053098678588867188e+00 -1.569761079736053944e-04 7.683089352212846279e-04 1.833998539950698614e-04 1.874864537967368960e-04
4.314000000000000000e+03 3.367952728271484375e+01 2.047025442123413086e+00 -2.891116309911012650e-04 -6.894412799738347530e-04 -2.935658849310129881e-04 5.662004114128649235e-04
4.315000000000000000e+03 3.379840469360351562e+01 1.882335066795349121e+00 -3.526760265231132507e-04 5.996787804178893566e-04 7.410082616843283176e-05 3.974763385485857725e-04
4.316000000000000000e+03 3.363150405883789062e+01 1.863672733306884766e+00 5.120320129208266735e-04 -2.098908771586138755e-05 1.473128795623779297e-04 -6.393357180058956146e-04
4.317000000000000000e+03 1.817393875122070312e+01 7.653376579284667969e+00 -3.904012919520027936e-05 -5.479433093569241464e-05 -2.815033803926780820e-05 -3.832930815406143665e-05
4.318000000000000000e+03 4.374719238281250000e+01 -1.507481098175048828e+01 3.837755441665649414e+00 4.978594779968261719e+00 2.644905090332031250e+00 -3.646852374076843262e-01
4.319000000000000000e+03 4.437754821777343750e+01 -1.468414783477783203e+01 3.011310100555419922e+00 5.430052757263183594e+00 2.532408714294433594e+00 5.472325086593627930e-01
4.320000000000000000e+03 4.459697341918945312e+01 -1.457879734039306641e+01 2.844046354293823242e+00 5.311444282531738281e+00 2.446647167205810547e+00 9.839774966239929199e-01
4.321000000000000000e+03 4.564118957519531250e+01 -1.503655242919921875e+01 4.418859481811523438e+00 4.070816516876220703e+00 2.546902894973754883e+00 3.194310903549194336e+00
4.322000000000000000e+03 6.926464080810546875e+01 -1.845432090759277344e+01 5.440105815068818629e-05 9.382538846693933010e-04 2.977964759338647127e-04 4.090161237400025129e-04
4.323000000000000000e+03 1.453902721405029297e+01 1.377169132232666016e+01 2.938638499472290277e-04 1.024912344291806221e-03 3.956328437197953463e-04 9.553944255458191037e-05
4.324000000000000000e+03 1.426093864440917969e+01 1.786746215820312500e+01 5.987064796499907970e-04 2.803809940814971924e-03 1.020754920318722725e-03 3.799475962296128273e-04
4.325000000000000000e+03 1.418028259277343750e+01 1.752827835083007812e+01 -4.327889473643153906e-04 2.337993821129202843e-03 5.715614533983170986e-04 7.097591296769678593e-04
4.326000000000000000e+03 6.892513275146484375e+01 -1.894717025756835938e+01 -1.456828467780724168e-04 6.188097904669120908e-05 -2.514055995561648160e-05 2.487768651917576790e-04
4.327000000000000000e+03 6.843112182617187500e+01 -1.882887840270996094e+01 2.855666971299797297e-04 9.965022036340087652e-05 1.155650752480141819e-04 -4.506217082962393761e-04
4.328000000000000000e+03 2.493989562988281250e+01 2.236870765686035156e+01 -1.328947842121124268e-01 -1.713849417865276337e-02 -4.500998556613922119e-02 4.280005022883415222e-02
4.329000000000000000e+03 2.554313468933105469e+01 2.158233642578125000e+01 -1.636338382959365845e-01 -1.637715101242065430e-02 -5.400329455733299255e-02 4.499783366918563843e-02
4.330000000000000000e+03 3.192677688598632812e+01 1.407984161376953125e+01 -2.918108366429805756e-03 -1.394380442798137665e-02 -5.058574024587869644e-03 7.328291889280080795e-03
4.331000000000000000e+03 3.341011428833007812e+01 1.021081638336181641e+01 4.211986961308866739e-04 1.853209338150918484e-03 6.823224248364567757e-04 1.013540095300413668e-04
4.332000000000000000e+03 3.351705932617187500e+01 9.506078720092773438e+00 3.230513539165258408e-04 2.019043080508708954e-03 7.026283419691026211e-04 -7.596238865517079830e-04
4.333000000000000000e+03 3.365038299560546875e+01 9.138722419738769531e+00 1.596116489963606000e-04 1.759693492203950882e-03 5.757915787398815155e-04 -9.195174206979572773e-04
4.334000000000000000e+03 3.357181549072265625e+01 2.428138732910156250e+00 -9.829422924667596817e-04 -4.327407805249094963e-04 -4.247049218975007534e-04 5.685638752765953541e-04
4.335000000000000000e+03 3.469555664062500000e+01 -2.281576156616210938e+00 -2.482720613479614258e+00 4.229875504970550537e-01 -6.179199218750000000e-01 2.970106303691864014e-01
4.336000000000000000e+03 1.243980884552001953e+01 -2.078434944152832031e+01 3.619346320629119873e-01 -2.080010473728179932e-01 4.618007689714431763e-02 -6.250020265579223633e-01
4.337000000000000000e+03 3.383388519287109375e+01 2.216348171234130859e+00 -7.402146002277731895e-05 9.538466692902147770e-04 2.639475569594651461e-04 -2.044491848209872842e-04
4.338000000000000000e+03 2.284395790100097656e+01 -1.790201425552368164e+00 -6.874536275863647461e-01 6.750565022230148315e-02 -1.859843879938125610e-01 -3.597559928894042969e-01
4.339000000000000000e+03 2.265817070007324219e+01 -2.336134672164916992e+00 -6.708786487579345703e-01 2.909393422305583954e-02 -1.925354003906250000e-01 -4.549412131309509277e-01
4.340000000000000000e+03 3.408416748046875000e+01 2.301241636276245117e+00 7.612014887854456902e-04 -3.094076237175613642e-04 1.355381536995992064e-04 -3.023692115675657988e-04
4.341000000000000000e+03 1.931627464294433594e+01 6.501980781555175781e+00 -3.167175964335910976e-05 -5.002122634323313832e-05 -2.450789543217979372e-05 -3.178889164701104164e-05
4.342000000000000000e+03 2.920243072509765625e+01 -2.367222309112548828e+00 -2.079058408737182617e+00 1.228837370872497559e-01 -5.868523716926574707e-01 -5.466520190238952637e-01
4.343000000000000000e+03 3.423959350585937500e+01 2.971808433532714844e+00 4.733370442409068346e-04 1.028748345561325550e-03 4.506256082095205784e-04 -9.148828103207051754e-04
4.344000000000000000e+03 2.220989036560058594e+01 3.343519687652587891e+00 -9.557594239595346153e-06 -2.620134546305052936e-05 -1.072768191079376265e-05 -1.418989086232613772e-05
4.345000000000000000e+03 4.559370040893554688e+01 -1.422593688964843750e+01 3.028822898864746094e+00 3.547161102294921875e+00 1.972795248031616211e+00 2.248976945877075195e+00
4.346000000000000000e+03 4.533526229858398438e+01 -1.411133575439453125e+01 2.732133150100708008e+00 3.909680128097534180e+00 1.992543935775756836e+00 1.906241893768310547e+00
4.347000000000000000e+03 3.493822479248046875e+01 -2.880928993225097656e+01 6.573275923728942871e-01 1.023476243019104004e+00 5.042411684989929199e-01 6.821647882461547852e-01
4.348000000000000000e+03 3.582495880126953125e+01 -2.825014495849609375e+01 6.167431473731994629e-01 1.082508325576782227e+00 5.097754001617431641e-01 7.252195477485656738e-01
4.349000000000000000e+03 2.606497192382812500e+01 2.199140930175781250e+01 -1.477757096290588379e-01 -2.594182826578617096e-02 -5.211525782942771912e-02 5.158911645412445068e-02
4.350000000000000000e+03 2.664102745056152344e+01 -2.455628395080566406e+00 -1.497417092323303223e+00 -1.775160878896713257e-01 -5.024799704551696777e-01 -6.979745030403137207e-01
4.351000000000000000e+03 7.246305847167968750e+01 3.512030410766601562e+01 -2.871125340461730957e-01 6.038038432598114014e-02 -6.801964342594146729e-02 4.074548482894897461e-01
4.352000000000000000e+03 2.682315063476562500e+01 -2.391083478927612305e+00 -1.590726494789123535e+00 -1.755094528198242188e-01 -5.298708081245422363e-01 -6.699047684669494629e-01
4.353000000000000000e+03 4.522814941406250000e+01 -1.906089973449707031e+01 -2.489940822124481201e-01 4.459079742431640625e+00 1.263025641441345215e+00 -4.438220858573913574e-01
4.354000000000000000e+03 1.333966159820556641e+01 -1.098711967468261719e+01 -8.342783451080322266e-01 -4.809680283069610596e-01 -3.945738971233367920e-01 -3.042663037776947021e-01
4.355000000000000000e+03 7.176406860351562500e+01 -1.983902740478515625e+01 -8.501662523485720158e-04 -5.377401830628514290e-04 -4.163719422649592161e-04 -2.795549698930699378e-05
4.356000000000000000e+03 3.137285041809082031e+01 -1.968965291976928711e+00 -2.895138502120971680e+00 2.816836833953857422e-01 -7.840364575386047363e-01 -4.410980939865112305e-01
4.357000000000000000e+03 2.358188819885253906e+01 -3.431473541259765625e+01 5.318636894226074219e-01 5.790897011756896973e-01 3.332860171794891357e-01 -1.586370915174484253e-01
4.358000000000000000e+03 3.371825027465820312e+01 2.774890661239624023e+00 1.187717542052268982e-03 1.727801718516275287e-04 4.081493243575096130e-04 -6.833564257249236107e-04
4.359000000000000000e+03 3.063318061828613281e+01 -2.272147178649902344e+00 -2.435143709182739258e+00 2.809515297412872314e-01 -6.462576389312744141e-01 -4.282452166080474854e-01
4.360000000000000000e+03 7.774915313720703125e+01 -3.677576828002929688e+01 1.156769343651831150e-03 -1.964370161294937134e-02 -5.546079482883214951e-03 4.783362150192260742e-03
4.361000000000000000e+03 2.761717224121093750e+01 -2.875868797302246094e+00 -1.522343635559082031e+00 -7.934110611677169800e-02 -4.805054366588592529e-01 -7.246303558349609375e-01
4.362000000000000000e+03 2.792503738403320312e+01 -2.615715980529785156e+00 -1.723212718963623047e+00 -4.067799448966979980e-02 -5.291671752929687500e-01 -6.649784445762634277e-01
4.363000000000000000e+03 2.812971115112304688e+01 -2.526233673095703125e+00 -1.774338603019714355e+00 -2.855553105473518372e-02 -5.408682227134704590e-01 -6.295099854469299316e-01
4.364000000000000000e+03 2.848858070373535156e+01 -2.453799247741699219e+00 -1.910072922706604004e+00 2.140806801617145538e-02 -5.665994286537170410e-01 -5.926489233970642090e-01
4.365000000000000000e+03 2.831872558593750000e+01 -2.729207992553710938e+00 -1.714916586875915527e+00 1.269400678575038910e-02 -5.106667876243591309e-01 -6.665334105491638184e-01
4.366000000000000000e+03 2.874888992309570312e+01 -2.701334476470947266e+00 -1.831696629524230957e+00 8.736493438482284546e-02 -5.232995152473449707e-01 -6.366572380065917969e-01
4.367000000000000000e+03 4.636967849731445312e+01 -1.509135532379150391e+01 5.009672641754150391e+00 1.606883287429809570e+00 1.984966754913330078e+00 2.862379789352416992e+00
4.368000000000000000e+03 4.498193740844726562e+01 -1.460485935211181641e+01 3.043636560440063477e+00 5.167466163635253906e+00 2.463330984115600586e+00 1.718902826309204102e+00
4.369000000000000000e+03 4.478360748291015625e+01 -1.444740009307861328e+01 2.794371366500854492e+00 5.012299537658691406e+00 2.342001199722290039e+00 1.301648020744323730e+00
4.370000000000000000e+03 4.442792129516601562e+01 -1.422996616363525391e+01 2.493376970291137695e+00 4.649953842163085938e+00 2.142999172210693359e+00 6.487779617309570312e-01
4.371000000000000000e+03 4.420281600952148438e+01 -1.435742092132568359e+01 2.613811254501342773e+00 4.733864307403564453e+00 2.204302549362182617e+00 3.140596449375152588e-01
4.372000000000000000e+03 4.373783874511718750e+01 -1.462888717651367188e+01 3.057527780532836914e+00 4.591240882873535156e+00 2.294630527496337891e+00 -2.915204167366027832e-01
4.373000000000000000e+03 4.328700637817382812e+01 -1.497867679595947266e+01 3.636663198471069336e+00 4.086175918579101562e+00 2.316851615905761719e+00 -5.804269313812255859e-01
4.374000000000000000e+03 4.291788864135742188e+01 -1.540471553802490234e+01 4.051858425140380859e+00 3.534681320190429688e+00 2.275961875915527344e+00 -4.087418913841247559e-01
4.375000000000000000e+03 7.886100769042968750e+01 -1.961193275451660156e+01 5.198531289352104068e-05 5.440556560643017292e-04 1.788123045116662979e-04 -4.078674246557056904e-04
4.376000000000000000e+03 4.290328598022460938e+01 -1.594488334655761719e+01 4.708895206451416016e+00 3.477916717529296875e+00 2.456043481826782227e+00 1.648699492216110229e-01
4.377000000000000000e+03 4.259280776977539062e+01 -1.634607315063476562e+01 4.274743080139160156e+00 3.211820602416992188e+00 2.245969057083129883e+00 6.529231667518615723e-01
4.378000000000000000e+03 4.257188796997070312e+01 -1.688043594360351562e+01 3.859738588333129883e+00 3.446255207061767578e+00 2.191798210144042969e+00 1.268348932266235352e+00
4.379000000000000000e+03 4.294600296020507812e+01 -1.769621849060058594e+01 2.520393371582031250e+00 4.619127750396728516e+00 2.141856431961059570e+00 2.013346433639526367e+00
4.380000000000000000e+03 4.336507415771484375e+01 -1.841699981689453125e+01 9.157494902610778809e-01 5.484135627746582031e+00 1.919965505599975586e+00 1.638074636459350586e+00
4.381000000000000000e+03 5.059007167816162109e+00 -3.133756446838378906e+01 8.953502774238586426e-02 -1.004394531250000000e+00 -2.744578719139099121e-01 -1.230426728725433350e-01
4.382000000000000000e+03 3.492996454238891602e+00 -3.015538597106933594e+01 5.315832793712615967e-02 -1.190715670585632324e+00 -3.412671983242034912e-01 -1.217923462390899658e-01
4.383000000000000000e+03 7.321463108062744141e+00 -3.581999206542968750e+01 6.636483967304229736e-02 -7.718337178230285645e-01 -2.116406559944152832e-01 -7.019384205341339111e-02
4.384000000000000000e+03 2.289463424682617188e+01 2.313638496398925781e+01 -1.014265343546867371e-01 -1.431479398161172867e-02 -3.472239896655082703e-02 2.738086506724357605e-02
4.385000000000000000e+03 2.244738960266113281e+01 2.270523643493652344e+01 -1.108431816101074219e-01 -1.116269920021295547e-02 -3.660176321864128113e-02 1.851670816540718079e-02
4.386000000000000000e+03 1.942764282226562500e+01 5.818109512329101562e+00 7.539124453614931554e-06 -4.072075898875482380e-05 -9.954490451491437852e-06 -1.975920713448431343e-05
4.387000000000000000e+03 4.511370468139648438e+01 -1.403704833984375000e+01 2.478756189346313477e+00 4.005007266998291016e+00 1.945129156112670898e+00 1.555256605148315430e+00
4.388000000000000000e+03 1.861071014404296875e+01 5.982815742492675781e+00 -1.982872345251962543e-05 -3.663483585114590824e-05 -1.693906779109966010e-05 -3.996157465735450387e-05
4.389000000000000000e+03 1.684076690673828125e+01 8.968943595886230469e+00 -1.274076930712908506e-04 1.551813511468935758e-05 -3.356686647748574615e-05 -7.012647074589040130e-06
4.390000000000000000e+03 1.629872131347656250e+01 9.171439170837402344e+00 -1.144894995377399027e-04 4.592310506268404424e-05 -2.056991979770828038e-05 -3.663922689156606793e-05
4.391000000000000000e+03 1.399381446838378906e+01 1.438580799102783203e+01 -1.623319258214905858e-04 1.107517979107797146e-03 2.835557970684021711e-04 3.776201047003269196e-04
4.392000000000000000e+03 1.356299495697021484e+01 1.626032257080078125e+01 4.674254523706622422e-05 9.955712594091892242e-04 3.126941446680575609e-04 5.435303319245576859e-04
4.393000000000000000e+03 2.092804527282714844e+01 2.286385345458984375e+01 -8.378598093986511230e-02 -7.232629694044589996e-03 -2.730558253824710846e-02 1.483774837106466293e-02
4.394000000000000000e+03 3.474460220336914062e+01 4.543971061706542969e+00 -8.752695284783840179e-04 -4.313026438467204571e-04 -3.919716691598296165e-04 -3.715461643878370523e-04
4.395000000000000000e+03 3.340657043457031250e+01 9.855057716369628906e+00 -3.965990617871284485e-04 2.819175599142909050e-03 7.267729379236698151e-04 -1.044509932398796082e-03
4.396000000000000000e+03 3.395209884643554688e+01 9.682470321655273438e+00 -5.544667947106063366e-04 1.117337029427289963e-03 1.688610791461542249e-04 -4.002428322564810514e-04
4.397000000000000000e+03 3.286395263671875000e+01 1.416463279724121094e+01 -1.232224889099597931e-02 -1.272117625921964645e-02 -7.513027638196945190e-03 1.534807216376066208e-02
4.398000000000000000e+03 3.261194992065429688e+01 1.449195766448974609e+01 -1.132613699883222580e-02 -1.361734513193368912e-02 -7.483044639229774475e-03 1.667559333145618439e-02
4.399000000000000000e+03 1.834152030944824219e+01 2.242910957336425781e+01 -4.449619725346565247e-02 3.374321968294680119e-04 -1.324762962758541107e-02 6.550896214321255684e-04
4.400000000000000000e+03 1.491793251037597656e+01 -9.390995025634765625e+00 -6.990250945091247559e-01 -5.781940221786499023e-01 -3.831657469272613525e-01 -3.138037919998168945e-01
4.401000000000000000e+03 1.233881950378417969e+01 -1.207165813446044922e+01 -8.174659609794616699e-01 -3.608258664608001709e-01 -3.534875214099884033e-01 -3.709208071231842041e-01
4.402000000000000000e+03 3.407527923583984375e+01 2.649984836578369141e+00 -7.063496159389615059e-04 -3.699949011206626892e-04 -3.229033609386533499e-04 8.393543539568781853e-04
4.403000000000000000e+03 4.517851257324218750e+01 -1.430025291442871094e+01 2.847158193588256836e+00 4.285874843597412109e+00 2.139909982681274414e+00 1.836513400077819824e+00
4.404000000000000000e+03 3.490961837768554688e+01 3.790316104888916016e+00 -1.733245007926598191e-04 -5.739944754168391228e-04 -2.241956972284242511e-04 1.701527071418240666e-04
4.405000000000000000e+03 2.815290641784667969e+01 -2.995712280273437500e+00 -1.594990253448486328e+00 9.503355249762535095e-03 -4.756460785865783691e-01 -7.164539098739624023e-01
4.406000000000000000e+03 2.724337577819824219e+01 -2.536561012268066406e+00 -1.588543653488159180e+00 -1.337283998727798462e-01 -5.166816115379333496e-01 -6.799602508544921875e-01
4.407000000000000000e+03 3.576785659790039062e+01 4.581051349639892578e+00 -5.086167948320508003e-04 -4.852371930610388517e-04 -2.981561992783099413e-04 -7.898238836787641048e-04
4.408000000000000000e+03 4.490382385253906250e+01 -1.944883728027343750e+01 -1.735197454690933228e-01 4.724981307983398438e+00 1.365438580513000488e+00 -1.846488118171691895e-01
4.409000000000000000e+03 4.468328094482421875e+01 -1.932491111755371094e+01 -2.192833870649337769e-01 5.112732887268066406e+00 1.468034744262695312e+00 -1.088625490665435791e-01
4.410000000000000000e+03 4.552338600158691406e+00 4.093568801879882812e+00 1.026376266963779926e-04 2.211434730270411819e-05 3.742559420061297715e-05 -1.116848798119463027e-04
4.411000000000000000e+03 4.488398742675781250e+01 -1.405792045593261719e+01 2.446285247802734375e+00 4.288623332977294922e+00 2.020472526550292969e+00 1.324934959411621094e+00
4.412000000000000000e+03 4.203121185302734375e+01 -1.683810234069824219e+01 3.366805791854858398e+00 2.889828443527221680e+00 1.876990318298339844e+00 9.469901323318481445e-01
4.413000000000000000e+03 4.253019332885742188e+01 -1.766290855407714844e+01 2.609996557235717773e+00 3.940541982650756836e+00 1.965161561965942383e+00 1.749861001968383789e+00
4.414000000000000000e+03 1.483999443054199219e+01 1.080397033691406250e+01 2.352918454562313855e-05 3.496274584904313087e-04 1.119469889090396464e-04 4.320582593209110200e-05
4.415000000000000000e+03 5.980392456054687500e+01 -1.131027603149414062e+01 -1.257061243057250977e+00 6.050350666046142578e-01 -1.956078708171844482e-01 4.661308228969573975e-01
4.416000000000000000e+03 4.247060012817382812e+01 -3.376810073852539062e+01 -1.008627489209175110e-01 1.449527025222778320e+00 4.045992791652679443e-01 1.406737715005874634e-01
4.417000000000000000e+03 4.384076690673828125e+01 -1.884431457519531250e+01 1.307048797607421875e-01 5.712945461273193359e+00 1.753095149993896484e+00 9.495198130607604980e-01
4.418000000000000000e+03 3.777349472045898438e+01 1.024539566040039062e+01 -3.832223825156688690e-03 -2.627123321872204542e-04 -1.228480832651257515e-03 -1.962599111720919609e-03
4.419000000000000000e+03 3.775740432739257812e+01 1.138163471221923828e+01 -1.128279790282249451e-02 1.470302930101752281e-03 -2.943748608231544495e-03 -4.625749133992940187e-04
4.420000000000000000e+03 4.484077072143554688e+01 -1.370748424530029297e+01 2.087027788162231445e+00 3.844905376434326172e+00 1.779579877853393555e+00 1.107403397560119629e+00
4.421000000000000000e+03 4.379604339599609375e+01 -1.418684864044189453e+01 2.487253665924072266e+00 4.248937606811523438e+00 2.020857334136962891e+00 -1.506408303976058960e-01
4.422000000000000000e+03 4.239034652709960938e+01 -1.535280227661132812e+01 3.672852754592895508e+00 2.834921121597290039e+00 1.952332139015197754e+00 -4.468258023262023926e-01
4.423000000000000000e+03 4.262913513183593750e+01 -1.586802673339843750e+01 4.294834136962890625e+00 3.179086685180664062e+00 2.242176294326782227e+00 6.455004215240478516e-02
4.424000000000000000e+03 4.322712707519531250e+01 -7.537613868713378906e+00 -2.045481204986572266e+00 2.993568480014801025e-01 -5.238373279571533203e-01 2.276383340358734131e-02
4.425000000000000000e+03 1.875540924072265625e+01 5.658056259155273438e+00 4.434346465131966397e-06 7.114463369362056255e-05 2.267369563924148679e-05 1.930979306052904576e-05
4.426000000000000000e+03 1.969807434082031250e+01 2.333722877502441406e+01 -5.854808539152145386e-02 -2.939609810709953308e-03 -1.844630762934684753e-02 1.370849646627902985e-02
4.427000000000000000e+03 7.179247283935546875e+01 -2.183018684387207031e+01 -1.675565843470394611e-03 -8.855651831254363060e-04 -7.683393196202814579e-04 -3.408445918466895819e-04
4.428000000000000000e+03 7.626863098144531250e+01 -1.980433082580566406e+01 -1.239422126673161983e-04 -1.935761538334190845e-04 -9.525550558464601636e-05 4.269569399184547365e-05
4.429000000000000000e+03 7.251854705810546875e+01 -2.146545791625976562e+01 -1.229471876285970211e-03 4.964354448020458221e-04 -2.199109294451773167e-04 1.553386573505122215e-05
4.430000000000000000e+03 4.224586868286132812e+01 -1.704198837280273438e+01 3.295048713684082031e+00 3.198730230331420898e+00 1.948133707046508789e+00 1.201666593551635742e+00
4.431000000000000000e+03 4.174190902709960938e+01 -1.706757926940917969e+01 2.878208398818969727e+00 2.727117300033569336e+00 1.681597709655761719e+00 9.271540641784667969e-01
4.432000000000000000e+03 7.631478118896484375e+01 3.003515815734863281e+01 -7.813084870576858521e-02 -1.001906752586364746e+00 -3.240112960338592529e-01 4.569448232650756836e-01
4.433000000000000000e+03 2.716590881347656250e+01 -2.956901311874389648e+00 -1.389855146408081055e+00 -1.275602877140045166e-01 -4.552246332168579102e-01 -7.586490511894226074e-01
4.434000000000000000e+03 2.742540168762207031e+01 -3.215330839157104492e+00 -1.326558589935302734e+00 -8.300193399190902710e-02 -4.228681325912475586e-01 -8.132773041725158691e-01
4.435000000000000000e+03 2.707466316223144531e+01 2.309347343444824219e+01 -1.025772243738174438e-01 -4.595165699720382690e-02 -4.455866292119026184e-02 5.644168704748153687e-02
4.436000000000000000e+03 1.284158706665039062e+01 1.612608146667480469e+01 -7.191541953943669796e-05 2.750524727161973715e-04 6.094111813581548631e-05 6.423136219382286072e-04
4.437000000000000000e+03 3.423495864868164062e+01 -5.110822200775146484e+00 -1.164682626724243164e+00 6.454875469207763672e-01 -1.557585150003433228e-01 6.865276023745536804e-03
4.438000000000000000e+03 4.223639297485351562e+01 -7.902547836303710938e+00 -1.535472154617309570e+00 4.477826952934265137e-01 -3.263068199157714844e-01 -3.584215641021728516e-01
4.439000000000000000e+03 1.376631164550781250e+01 -8.684859275817871094e+00 -5.871062874794006348e-01 -4.344259500503540039e-01 -3.064596951007843018e-01 -2.112484723329544067e-01
4.440000000000000000e+03 1.771943473815917969e+01 -7.284211635589599609e+00 -5.416279435157775879e-01 -4.584343135356903076e-01 -3.000186681747436523e-01 -5.158725380897521973e-01
4.441000000000000000e+03 6.521435260772705078e+00 -2.856403350830078125e+01 1.515004932880401611e-01 -7.844558954238891602e-01 -1.898866295814514160e-01 -2.461484372615814209e-01
4.442000000000000000e+03 3.590745162963867188e+01 9.857399940490722656e+00 -1.778311328962445259e-03 -2.132518216967582703e-03 -1.173248863779008389e-03 1.588137529324740171e-04
4.443000000000000000e+03 3.690602874755859375e+01 -2.362465381622314453e+00 -2.372570276260375977e+00 6.375228166580200195e-01 -5.205142498016357422e-01 5.483856797218322754e-01
4.444000000000000000e+03 1.029274082183837891e+01 -1.786901855468750000e+01 -1.413751095533370972e-01 -3.555726110935211182e-01 -1.490843147039413452e-01 -7.713389992713928223e-01
4.445000000000000000e+03 3.040087699890136719e+01 -2.395999670028686523e+00 -2.327291011810302734e+00 2.743604183197021484e-01 -6.158791780471801758e-01 -4.669236540794372559e-01
4.446000000000000000e+03 5.071406936645507812e+01 -8.779414176940917969e+00 -9.701785445213317871e-01 4.672652482986450195e-01 -1.508739888668060303e-01 2.432712554931640625e+00
4.447000000000000000e+03 1.915509986877441406e+01 4.790455341339111328e+00 -4.773907858179882169e-05 -1.377038279315456748e-05 -1.845283804868813604e-05 -8.307515599881298840e-06
4.448000000000000000e+03 4.340695571899414062e+01 -1.939817810058593750e+01 1.363931745290756226e-01 5.006801605224609375e+00 1.542958498001098633e+00 8.646866083145141602e-01
4.449000000000000000e+03 2.382011413574218750e+01 -7.951251029968261719e+00 -5.016623139381408691e-01 -2.661136984825134277e-01 -2.303328067064285278e-01 -6.076491475105285645e-01
4.450000000000000000e+03 3.684889602661132812e+01 1.051655101776123047e+01 -5.259697325527667999e-03 -9.099429589696228504e-04 -1.850892091169953346e-03 -8.634201949462294579e-04
4.451000000000000000e+03 3.650826644897460938e+01 1.169735813140869141e+01 -1.666161976754665375e-02 -6.407158070942386985e-05 -5.017707590013742447e-03 3.317992435768246651e-03
4.452000000000000000e+03 2.746765518188476562e+01 2.230894279479980469e+01 -1.286538839340209961e-01 -5.062944069504737854e-02 -5.378499999642372131e-02 6.541024893522262573e-02
4.453000000000000000e+03 2.823914337158203125e+01 -3.425218105316162109e+00 -1.394052505493164062e+00 4.382840916514396667e-02 -4.050672352313995361e-01 -7.949029207229614258e-01
4.454000000000000000e+03 4.381978225708007812e+01 -8.009303092956542969e+00 -1.759564518928527832e+00 3.439855873584747314e-01 -4.246736764907836914e-01 1.748398840427398682e-01
4.455000000000000000e+03 4.283822631835937500e+01 -1.927586746215820312e+01 5.271827578544616699e-01 4.565209865570068359e+00 1.527717709541320801e+00 1.218981623649597168e+00
4.456000000000000000e+03 4.281842803955078125e+01 -2.039680290222167969e+01 1.864952147006988525e-01 4.143099308013916016e+00 1.298878312110900879e+00 8.114419579505920410e-01
4.457000000000000000e+03 4.890454864501953125e+01 -1.245576190948486328e+01 1.748411774635314941e+00 7.949103116989135742e-01 7.629966139793395996e-01 1.990639686584472656e+00
4.458000000000000000e+03 2.968328094482421875e+01 -2.467616796493530273e+00 -2.142009735107421875e+00 2.148745357990264893e-01 -5.781405568122863770e-01 -5.263152718544006348e-01
4.459000000000000000e+03 1.880837821960449219e+01 5.070820331573486328e+00 3.421910878387279809e-05 4.128653381485491991e-05 2.265169314341619611e-05 2.034069211731548421e-06
4.460000000000000000e+03 3.353285217285156250e+01 1.471009540557861328e+01 -2.240435406565666199e-02 -9.802357293665409088e-03 -9.662013500928878784e-03 2.241161838173866272e-02
4.461000000000000000e+03 1.552645492553710938e+01 8.934462547302246094e+00 -1.201214108732528985e-04 9.794336074264720082e-05 -6.653415312030119821e-06 4.045639798277989030e-05
4.462000000000000000e+03 3.089796066284179688e+01 2.024784088134765625e+01 -1.094910278916358948e-01 -4.627108201384544373e-02 -4.672863334417343140e-02 6.062112376093864441e-02
4.463000000000000000e+03 2.687664222717285156e+01 -3.819667577743530273e+00 -9.934933185577392578e-01 -1.115328967571258545e-01 -3.315078616142272949e-01 -9.386953711509704590e-01
4.464000000000000000e+03 3.573958206176757812e+01 -4.822672843933105469e+00 -1.636420249938964844e+00 6.616790294647216797e-01 -2.924223542213439941e-01 1.938618123531341553e-01
4.465000000000000000e+03 4.187509918212890625e+01 -1.600966072082519531e+01 3.443703413009643555e+00 2.457844257354736328e+00 1.770464301109313965e+00 4.671568050980567932e-02
4.466000000000000000e+03 4.131264114379882812e+01 -1.657865333557128906e+01 2.894888162612915039e+00 2.250893592834472656e+00 1.543734550476074219e+00 4.743050932884216309e-01
4.467000000000000000e+03 4.301526641845703125e+01 -1.452056026458740234e+01 3.019717454910278320e+00 3.553650140762329102e+00 1.972010254859924316e+00 -6.793618798255920410e-01
4.468000000000000000e+03 2.816802597045898438e+01 2.213897132873535156e+01 -1.249190494418144226e-01 -6.392111629247665405e-02 -5.665204674005508423e-02 6.579404324293136597e-02
4.469000000000000000e+03 3.586194229125976562e+01 1.033749103546142578e+01 -4.744364414364099503e-03 -5.483786808326840401e-04 -1.587822916917502880e-03 -9.052552923094481230e-05
4.470000000000000000e+03 3.160873985290527344e+01 -5.065389156341552734e+00 -9.629679322242736816e-01 6.723225712776184082e-01 -8.719361573457717896e-02 -5.411244034767150879e-01
4.471000000000000000e+03 7.323606872558593750e+01 -2.188994026184082031e+01 -1.018891809508204460e-03 -8.779738564044237137e-04 -5.690596881322562695e-04 1.012365100905299187e-04
4.472000000000000000e+03 2.663016128540039062e+01 -4.170878887176513672e+00 -8.844599723815917969e-01 -1.266074925661087036e-01 -3.033202588558197021e-01 -9.478791952133178711e-01
4.473000000000000000e+03 2.881739616394042969e+01 -4.844843387603759766e+00 -8.205060362815856934e-01 2.441066205501556396e-01 -1.729198098182678223e-01 -9.504755735397338867e-01
4.474000000000000000e+03 2.509865379333496094e+01 2.508844184875488281e+01 -6.032701209187507629e-02 -3.535680472850799561e-02 -2.870514616370201111e-02 4.497751966118812561e-02
4.475000000000000000e+03 4.483679580688476562e+01 -1.331331920623779297e+01 1.809311985969543457e+00 3.443022966384887695e+00 1.575700521469116211e+00 9.710078835487365723e-01
4.476000000000000000e+03 6.171149826049804688e+01 2.815724372863769531e+01 -3.801620006561279297e-01 2.136059999465942383e+00 5.267693996429443359e-01 -3.882124423980712891e-01
4.477000000000000000e+03 6.009162902832031250e+01 3.273866271972656250e+01 -4.739679098129272461e-01 1.436081051826477051e+00 2.886339724063873291e-01 -3.256307244300842285e-01
4.478000000000000000e+03 3.926544952392578125e+01 -8.169781684875488281e+00 -7.413021326065063477e-01 5.294024348258972168e-01 -6.356991827487945557e-02 -8.222279548645019531e-01
4.479000000000000000e+03 7.761709213256835938e+00 -2.534872627258300781e+01 2.677845060825347900e-01 -5.959233045578002930e-01 -9.844164550304412842e-02 -4.197207391262054443e-01
4.480000000000000000e+03 6.247837829589843750e+01 3.278495025634765625e+01 -5.525310039520263672e-01 1.462566614151000977e+00 2.730107009410858154e-01 -7.325240224599838257e-02
4.481000000000000000e+03 6.596909332275390625e+01 2.827780151367187500e+01 -4.285886287689208984e-01 1.733372330665588379e+00 3.914351165294647217e-01 3.334461152553558350e-01
4.482000000000000000e+03 3.572669601440429688e+01 9.344314575195312500e+00 -2.520343754440546036e-03 -3.106376156210899353e-03 -1.688015996478497982e-03 1.130554592236876488e-03
4.483000000000000000e+03 3.613261795043945312e+01 1.215690708160400391e+01 -1.375599298626184464e-02 1.592680229805409908e-03 -3.648993792012333870e-03 5.131149664521217346e-03
4.484000000000000000e+03 2.742563247680664062e+01 -3.815285444259643555e+00 -1.095355868339538574e+00 -3.171126917004585266e-02 -3.381201326847076416e-01 -9.236050248146057129e-01
4.485000000000000000e+03 6.367055892944335938e+00 -2.988727378845214844e+01 1.447143554687500000e-01 -8.136864304542541504e-01 -2.006916254758834839e-01 -1.991841793060302734e-01
4.486000000000000000e+03 2.858449172973632812e+01 -3.852130174636840820e+00 -1.265599966049194336e+00 1.133932322263717651e-01 -3.456620275974273682e-01 -8.503105640411376953e-01
4.487000000000000000e+03 3.385535049438476562e+01 1.405007171630859375e+01 -1.880405656993389130e-02 -5.485459230840206146e-03 -7.286854553967714310e-03 1.748937182128429413e-02
4.488000000000000000e+03 1.817102622985839844e+01 2.297111129760742188e+01 -4.377521574497222900e-02 3.708071308210492134e-04 -1.302132289856672287e-02 7.571554742753505707e-03
4.489000000000000000e+03 5.775302124023437500e+01 -9.997187614440917969e+00 -8.320625424385070801e-01 1.100990056991577148e+00 8.067826926708221436e-02 1.094538331031799316e+00
4.490000000000000000e+03 1.476021766662597656e+01 1.036703300476074219e+01 9.586717351339757442e-05 2.428480220260098577e-04 1.016145615722052753e-04 1.077132110367529094e-04
4.491000000000000000e+03 7.013233184814453125e+01 -2.822572517395019531e+01 -1.513054035604000092e-02 5.798383615911006927e-03 -2.799647161737084389e-03 6.830931175500154495e-03
4.492000000000000000e+03 6.958441162109375000e+01 -2.719299888610839844e+01 -1.301862765103578568e-02 2.544679213315248489e-03 -3.142184577882289886e-03 1.874629291705787182e-03
4.493000000000000000e+03 9.044611930847167969e+00 -1.803454780578613281e+01 -1.346987336874008179e-01 -3.588939607143402100e-01 -1.480778008699417114e-01 -7.331531047821044922e-01
4.494000000000000000e+03 3.963085937500000000e+01 -8.824542045593261719e+00 -4.488656222820281982e-01 5.509592890739440918e-01 3.062809631228446960e-02 -9.526047110557556152e-01
4.495000000000000000e+03 3.910936355590820312e+01 -9.153059959411621094e+00 -1.482260376214981079e-01 5.216267108917236328e-01 1.120202019810676575e-01 -1.046905517578125000e+00
4.496000000000000000e+03 4.152007675170898438e+01 -1.989529037475585938e+01 6.372824907302856445e-01 3.322113990783691406e+00 1.187819004058837891e+00 1.199935436248779297e+00
4.497000000000000000e+03 4.104577255249023438e+01 -1.945691490173339844e+01 9.028797745704650879e-01 2.950130939483642578e+00 1.155903220176696777e+00 1.258692383766174316e+00
4.498000000000000000e+03 3.969977569580078125e+01 -1.810705947875976562e+01 1.281470060348510742e+00 1.667775750160217285e+00 8.847737312316894531e-01 7.248783707618713379e-01
4.499000000000000000e+03 6.463201141357421875e+01 -1.212511062622070312e+00 1.652341932058334351e-01 1.697429299354553223e+00 5.587990283966064453e-01 -1.083896383643150330e-01
4.500000000000000000e+03 2.883430290222167969e+01 -3.224173784255981445e+00 -1.564948081970214844e+00 1.289224922657012939e-01 -4.308076798915863037e-01 -7.330448031425476074e-01
4.501000000000000000e+03 4.132960510253906250e+01 -1.633868789672851562e+01 2.898453474044799805e+00 2.160926342010498047e+00 1.517813920974731445e+00 2.030262351036071777e-01
4.502000000000000000e+03 2.403409385681152344e+01 2.433138465881347656e+01 -7.710395753383636475e-02 -2.747877500951290131e-02 -3.137481957674026489e-02 4.073720425367355347e-02
4.503000000000000000e+03 1.285384273529052734e+01 -6.976057052612304688e+00 -3.767242729663848877e-01 -2.722963690757751465e-01 -1.947061866521835327e-01 -1.137547269463539124e-01
4.504000000000000000e+03 7.597168445587158203e+00 -2.405644226074218750e+01 2.482476979494094849e-01 -6.009069681167602539e-01 -1.057977750897407532e-01 -4.808198809623718262e-01
4.505000000000000000e+03 5.318514347076416016e+00 -2.343085861206054688e+01 1.290380060672760010e-01 -7.358110547065734863e-01 -1.820319145917892456e-01 -4.359843134880065918e-01
4.506000000000000000e+03 7.141909599304199219e+00 -5.815696716308593750e+00 -1.090333312749862671e-01 -2.720600366592407227e-02 -4.087180271744728088e-02 6.636243313550949097e-02
4.507000000000000000e+03 4.449045562744140625e+01 -1.289316558837890625e+01 1.437076687812805176e+00 3.106966733932495117e+00 1.363212943077087402e+00 5.421028733253479004e-01
4.508000000000000000e+03 4.256105422973632812e+01 -1.436278915405273438e+01 2.763185262680053711e+00 2.932796716690063477e+00 1.708794593811035156e+00 -8.361245393753051758e-01
4.509000000000000000e+03 4.141931533813476562e+01 -8.266939163208007812e+00 -1.116152048110961914e+00 5.593349933624267578e-01 -1.670451164245605469e-01 -6.117812991142272949e-01
4.510000000000000000e+03 1.776185035705566406e+01 4.838585376739501953e+00 -2.533772385504562408e-05 -2.056215998891275376e-05 -1.376996533508645371e-05 7.110165370249887928e-06
4.511000000000000000e+03 1.936546707153320312e+01 4.440199375152587891e+00 3.553920396370813251e-05 4.822224582312628627e-06 1.210842856380622834e-05 2.012560617004055530e-05
4.512000000000000000e+03 1.824123191833496094e+01 2.342403984069824219e+01 -4.471319541335105896e-02 -2.189126098528504372e-04 -1.347963232547044754e-02 1.145726907998323441e-02
4.513000000000000000e+03 1.583176231384277344e+01 6.940961360931396484e+00 5.262952981865964830e-05 2.901854895753785968e-05 2.449442399665713310e-05 -1.259141845366684720e-05
4.514000000000000000e+03 3.438610839843750000e+01 1.513108348846435547e+01 -3.123769722878932953e-02 -8.720419136807322502e-04 -9.632921777665615082e-03 2.466501295566558838e-02
4.515000000000000000e+03 6.618157958984375000e+01 -1.874966144561767578e+00 5.636023357510566711e-02 1.241019129753112793e+00 3.892138004302978516e-01 -4.328261911869049072e-01
4.516000000000000000e+03 6.412540435791015625e+00 -2.167916870117187500e+01 1.269983798265457153e-01 -5.901125669479370117e-01 -1.389342695474624634e-01 -5.526956319808959961e-01
4.517000000000000000e+03 4.238648986816406250e+01 -1.460966873168945312e+01 2.928671121597290039e+00 2.809258460998535156e+00 1.721378922462463379e+00 -8.083254098892211914e-01
4.518000000000000000e+03 1.271165084838867188e+01 2.827904319763183594e+01 -1.025360450148582458e-02 -5.993873812258243561e-03 -4.874243400990962982e-03 1.710741035640239716e-02
4.519000000000000000e+03 4.563604354858398438e+01 2.296542739868164062e+01 -1.307875942438840866e-02 4.203974828124046326e-02 8.688297122716903687e-03 -8.287434466183185577e-03
4.520000000000000000e+03 4.274492645263671875e+01 2.148322486877441406e+01 -6.268455088138580322e-02 5.261355265974998474e-02 -3.021298907697200775e-03 1.023869775235652924e-02
4.521000000000000000e+03 1.627634239196777344e+01 2.676910972595214844e+01 -1.979047991335391998e-02 -6.582283414900302887e-03 -7.911829277873039246e-03 2.367745712399482727e-02
4.522000000000000000e+03 4.161629867553710938e+01 -1.804050064086914062e+01 1.824588060379028320e+00 3.111082792282104492e+00 1.480701208114624023e+00 1.356710433959960938e+00
4.523000000000000000e+03 3.436980438232421875e+01 1.567688655853271484e+01 -3.903984278440475464e-02 5.932826315984129906e-04 -1.153396815061569214e-02 2.959698252379894257e-02
4.524000000000000000e+03 3.426890182495117188e+01 1.365534400939941406e+01 -1.820448227226734161e-02 -3.622766816988587379e-03 -6.548175122588872910e-03 1.485549751669168472e-02
4.525000000000000000e+03 3.473083496093750000e+01 1.400223064422607422e+01 -2.305472083389759064e-02 -8.058646926656365395e-04 -7.158176042139530182e-03 1.617183722555637360e-02
4.526000000000000000e+03 2.145216178894042969e+01 2.494860267639160156e+01 -5.494897440075874329e-02 -1.730967313051223755e-02 -2.167759463191032410e-02 3.332196176052093506e-02
4.527000000000000000e+03 1.848901748657226562e+01 2.436443710327148438e+01 -4.442467540502548218e-02 -3.433923469856381416e-03 -1.435757987201213837e-02 2.052280865609645844e-02
4.528000000000000000e+03 3.474565887451171875e+01 1.493219375610351562e+01 -3.290677815675735474e-02 -1.550191896967589855e-03 -1.033709105104207993e-02 2.520826645195484161e-02
4.529000000000000000e+03 2.338821029663085938e+01 2.451832389831542969e+01 -7.246518135070800781e-02 -2.534594014286994934e-02 -2.934333682060241699e-02 3.904726728796958923e-02
4.530000000000000000e+03 4.941124439239501953e+00 2.932410812377929688e+01 -1.257307128980755806e-03 -7.361531257629394531e-03 -2.585651585832238197e-03 7.188927847892045975e-03
4.531000000000000000e+03 1.730198287963867188e+01 5.162425994873046875e+00 8.216673450078815222e-06 -2.324508022866211832e-05 -4.508521669777110219e-06 3.692397876875475049e-05
4.532000000000000000e+03 3.602483367919921875e+01 1.122672462463378906e+01 -7.655666675418615341e-03 -1.868105027824640274e-04 -2.352743176743388176e-03 2.040148014202713966e-03
4.533000000000000000e+03 1.230634689331054688e+01 1.489180469512939453e+01 -5.502789281308650970e-05 2.305587840965017676e-04 5.265926665742881596e-05 6.692408351227641106e-04
4.534000000000000000e+03 4.079822921752929688e+01 -1.605632781982421875e+01 2.680343627929687500e+00 1.739971160888671875e+00 1.326094388961791992e+00 -1.171637251973152161e-01
4.535000000000000000e+03 7.594838714599609375e+01 -3.044987106323242188e+01 -1.962372800335288048e-03 -5.233400035649538040e-03 -2.158731920644640923e-03 6.592529360204935074e-03
4.536000000000000000e+03 1.211945343017578125e+01 1.943040084838867188e+01 -3.536281874403357506e-03 -2.405684354016557336e-04 -1.133055076934397221e-03 -3.990794939454644918e-04
4.537000000000000000e+03 4.354202270507812500e+01 -1.357612895965576172e+01 1.915915250778198242e+00 3.458872079849243164e+00 1.612436175346374512e+00 -3.061390221118927002e-01
4.538000000000000000e+03 7.198940753936767578e+00 1.325882053375244141e+01 1.018095208564773202e-04 -5.688684759661555290e-04 -1.401176850777119398e-04 -1.629606413189321756e-04
4.539000000000000000e+03 1.239647769927978516e+01 1.455280780792236328e+01 4.226257151458412409e-04 2.506696619093418121e-04 2.019886160269379616e-04 5.216766730882227421e-04
4.540000000000000000e+03 1.478407573699951172e+01 -6.049214363098144531e+00 -3.101776838302612305e-01 -3.055511116981506348e-01 -1.847186386585235596e-01 -2.026081979274749756e-01
4.541000000000000000e+03 2.317967224121093750e+01 2.546573066711425781e+01 -5.486219748854637146e-02 -2.752769738435745239e-02 -2.471696771681308746e-02 4.109004139900207520e-02
4.542000000000000000e+03 1.886271286010742188e+01 2.606411170959472656e+01 -3.463305532932281494e-02 -1.008257456123828888e-02 -1.341468933969736099e-02 3.004555590450763702e-02
4.543000000000000000e+03 1.867349052429199219e+01 2.672901725769042969e+01 -2.740618959069252014e-02 -1.120631117373704910e-02 -1.158375013619661331e-02 3.095829300582408905e-02
4.544000000000000000e+03 7.033083343505859375e+01 3.938601732254028320e+00 3.661133050918579102e-01 6.366739869117736816e-01 3.008361756801605225e-01 -7.250727415084838867e-01
4.545000000000000000e+03 3.513603210449218750e+01 1.399972343444824219e+01 -2.659212797880172729e-02 1.349031110294163227e-03 -7.572928909212350845e-03 1.794851385056972504e-02
4.546000000000000000e+03 3.117610168457031250e+01 2.147786521911621094e+01 -1.022886857390403748e-01 -2.827621996402740479e-02 -3.916947171092033386e-02 4.047622159123420715e-02
4.547000000000000000e+03 1.611221885681152344e+01 6.819638729095458984e+00 4.464514495339244604e-05 8.267845987575128675e-05 3.819708217633888125e-05 9.577766832080669701e-06
4.548000000000000000e+03 1.285944938659667969e+01 2.246678161621093750e+01 -1.301091909408569336e-02 1.655196771025657654e-03 -3.406716743484139442e-03 3.411810845136642456e-03
4.549000000000000000e+03 2.066603851318359375e+01 2.566339683532714844e+01 -4.261972010135650635e-02 -1.624023169279098511e-02 -1.765798591077327728e-02 3.416238352656364441e-02
4.550000000000000000e+03 2.021518135070800781e+01 2.690373802185058594e+01 -2.994949929416179657e-02 -1.635341905057430267e-02 -1.389087550342082977e-02 3.531619533896446228e-02
4.551000000000000000e+03 2.088283157348632812e+01 2.620726966857910156e+01 -3.907966613769531250e-02 -1.784384064376354218e-02 -1.707705296576023102e-02 3.687312081456184387e-02
4.552000000000000000e+03 1.944616508483886719e+01 2.690032577514648438e+01 -2.861345000565052032e-02 -1.526698097586631775e-02 -1.316412910819053650e-02 3.418549895286560059e-02
4.553000000000000000e+03 4.665788650512695312e+01 -1.149588298797607422e+01 8.023511171340942383e-01 1.375777602195739746e+00 6.534386277198791504e-01 1.581532001495361328e+00
4.554000000000000000e+03 4.626419067382812500e+01 -1.215384578704833984e+01 1.232569336891174316e+00 1.787312626838684082e+00 9.059646129608154297e-01 1.549530506134033203e+00
4.555000000000000000e+03 1.284030532836914062e+01 1.010364818572998047e+01 1.148011506302282214e-04 7.714603998465463519e-05 5.758415863965637982e-05 2.116906398441642523e-04
4.556000000000000000e+03 1.173487281799316406e+01 1.106163120269775391e+01 7.410821854136884212e-05 -1.123652473324909806e-04 -1.147710827353876084e-05 2.719960757531225681e-04
4.557000000000000000e+03 1.103389644622802734e+01 1.129382514953613281e+01 7.925413228804245591e-05 -2.076152886729687452e-04 -3.850834400509484112e-05 2.910344628617167473e-04
4.558000000000000000e+03 1.166683197021484375e+01 1.894958114624023438e+01 -2.528052078559994698e-03 -8.420441299676895142e-04 -1.011028885841369629e-03 8.777587936492636800e-05
4.559000000000000000e+03 1.157823848724365234e+01 2.772681427001953125e+01 -9.338783100247383118e-03 -5.454245954751968384e-03 -4.437908530235290527e-03 1.546970102936029434e-02
4.560000000000000000e+03 1.147674465179443359e+01 2.219067573547363281e+01 -1.027557067573070526e-02 5.263811908662319183e-04 -2.924756845459342003e-03 2.765667159110307693e-03
4.561000000000000000e+03 4.112292861938476562e+01 -1.599911499023437500e+01 2.864455699920654297e+00 1.904248237609863281e+00 1.430611133575439453e+00 -1.238124296069145203e-01
4.562000000000000000e+03 2.362278938293457031e+01 2.648744392395019531e+01 -3.735700249671936035e-02 -3.063691779971122742e-02 -2.039817720651626587e-02 4.180289059877395630e-02
4.563000000000000000e+03 1.582267570495605469e+01 6.598114490509033203e+00 -1.131528770201839507e-04 2.317957478226162493e-05 -2.699198921618517488e-05 4.981670645065605640e-05
4.564000000000000000e+03 1.599354267120361328e+01 6.342200279235839844e+00 9.497062274022027850e-05 4.448813342605717480e-05 4.183762939646840096e-05 6.361960549838840961e-05
4.565000000000000000e+03 1.587765216827392578e+01 5.991452693939208984e+00 1.890539715532213449e-05 6.396669050445780158e-05 2.486162702552974224e-05 -3.198112244717776775e-05
4.566000000000000000e+03 7.137996673583984375e+01 1.055917644500732422e+01 5.437787771224975586e-01 4.476400315761566162e-01 2.974256575107574463e-01 -2.836372256278991699e-01
4.567000000000000000e+03 7.239553070068359375e+01 1.013131332397460938e+01 4.253144562244415283e-01 -1.112945079803466797e-01 9.420598298311233521e-02 -3.278441131114959717e-01
4.568000000000000000e+03 4.048420715332031250e+01 -1.636865997314453125e+01 2.381113052368164062e+00 1.631995916366577148e+00 1.203932642936706543e+00 4.166387394070625305e-02
4.569000000000000000e+03 3.358913803100585938e+01 1.974714469909667969e+01 -7.958306372165679932e-02 4.715203773230314255e-03 -2.246035635471343994e-02 4.211736470460891724e-02
4.570000000000000000e+03 1.547323226928710938e+01 6.040243148803710938e+00 -3.491993993520736694e-05 4.259376510162837803e-05 2.302147095178952441e-06 6.549945101141929626e-05
4.571000000000000000e+03 3.162986183166503906e+01 2.243648338317871094e+01 -8.483174443244934082e-02 -1.792555302381515503e-02 -3.082718886435031891e-02 2.931491471827030182e-02
4.572000000000000000e+03 4.190168380737304688e+01 -1.140441989898681641e+01 5.669185519218444824e-01 1.535566568374633789e+00 6.307455301284790039e-01 -9.896184802055358887e-01
4.573000000000000000e+03 2.280590820312500000e+01 2.518414306640625000e+01 -5.687871575355529785e-02 -2.458123303949832916e-02 -2.443798445165157318e-02 3.884524479508399963e-02
4.574000000000000000e+03 1.078072166442871094e+01 1.885752487182617188e+01 -2.275415463373064995e-03 -1.191961113363504410e-03 -1.040212926454842091e-03 -4.552273458102717996e-05
4.575000000000000000e+03 1.113777351379394531e+01 1.933587074279785156e+01 -3.331661224365234375e-03 -8.203772595152258873e-04 -1.245611463673412800e-03 2.222399925813078880e-04
4.576000000000000000e+03 7.299722290039062500e+01 1.608349227905273438e+01 4.177646636962890625e-01 -4.641222357749938965e-01 -1.390726584941148758e-02 2.430183738470077515e-01
4.577000000000000000e+03 2.288971900939941406e+01 2.574244308471679688e+01 -4.963076859712600708e-02 -2.639420703053474426e-02 -2.280749194324016571e-02 3.989972174167633057e-02
4.578000000000000000e+03 1.027839756011962891e+01 1.903208732604980469e+01 -2.203535987064242363e-03 -7.648590835742652416e-04 -8.905185386538505554e-04 5.131999932928010821e-05
4.579000000000000000e+03 7.199742126464843750e+01 2.794243574142456055e+00 2.192007303237915039e-01 -1.159682497382164001e-02 6.228117272257804871e-02 -8.132938742637634277e-01
4.580000000000000000e+03 1.120826148986816406e+01 1.017989635467529297e+01 7.515008292102720588e-06 -1.153741541202180088e-04 -3.235774420318193734e-05 2.218138106400147080e-04
4.581000000000000000e+03 1.054482555389404297e+01 1.164263725280761719e+01 1.082998132915236056e-04 -3.069353988394141197e-04 -5.959067493677139282e-05 4.373264382593333721e-04
4.582000000000000000e+03 1.246982002258300781e+01 1.037762928009033203e+01 4.951766823069192469e-05 9.025101462611928582e-05 4.193060522084124386e-05 1.835763250710442662e-04
4.583000000000000000e+03 4.375328445434570312e+01 -1.134413146972656250e+01 3.749002814292907715e-01 1.983958244323730469e+00 7.076575756072998047e-01 -6.124643981456756592e-02
4.584000000000000000e+03 4.365201568603515625e+01 -1.188018894195556641e+01 7.431951761245727539e-01 2.278106451034545898e+00 9.063904881477355957e-01 -1.084665581583976746e-01
4.585000000000000000e+03 4.345912170410156250e+01 -1.232206344604492188e+01 1.003319025039672852e+00 2.517178773880004883e+00 1.056149363517761230e+00 -2.518091499805450439e-01
4.586000000000000000e+03 4.321116638183593750e+01 -1.269246673583984375e+01 1.313985109329223633e+00 2.726958513259887695e+00 1.212283015251159668e+00 -4.671864807605743408e-01
4.587000000000000000e+03 4.352182769775390625e+01 -1.287174415588378906e+01 1.385599493980407715e+00 2.888225078582763672e+00 1.282147407531738281e+00 -2.895770668983459473e-01
4.588000000000000000e+03 1.644399833679199219e+01 5.901819705963134766e+00 3.025856858585029840e-05 1.735260593704879284e-05 1.428335235686972737e-05 3.077793735428713262e-05
4.589000000000000000e+03 7.275789642333984375e+01 3.762164831161499023e+00 2.058099061250686646e-01 -3.096050918102264404e-01 -3.113855607807636261e-02 -7.693925499916076660e-01
4.590000000000000000e+03 1.467026615142822266e+01 9.960600852966308594e+00 5.146232797414995730e-05 2.612819662317633629e-04 9.382328425999730825e-05 8.790326683083549142e-05
4.591000000000000000e+03 1.420155143737792969e+01 9.077848434448242188e+00 5.360146678867749870e-05 1.152202676166780293e-04 5.064652214059606194e-05 6.915292760822921991e-05
4.592000000000000000e+03 6.192763805389404297e+00 2.789569473266601562e+01 -2.582977293059229851e-03 -5.633730906993150711e-03 -2.465012483298778534e-03 7.899722084403038025e-03
4.593000000000000000e+03 1.219291877746582031e+01 9.960489273071289062e+00 9.402567957295104861e-05 2.117393341904971749e-05 3.455988553469069302e-05 2.086062304442748427e-04
4.594000000000000000e+03 7.199987030029296875e+01 1.608615684509277344e+01 4.851402044296264648e-01 -1.707322429865598679e-03 1.450298726558685303e-01 2.625931799411773682e-01
4.595000000000000000e+03 7.360970306396484375e+01 -3.385876655578613281e+00 -7.493776082992553711e-02 -3.339844346046447754e-01 -1.226766556501388550e-01 -8.561776280403137207e-01
4.596000000000000000e+03 1.106146526336669922e+01 1.976790237426757812e+01 -3.579268464818596840e-03 -5.196363781578838825e-04 -1.229671412147581577e-03 -1.645765005378052592e-04
4.597000000000000000e+03 9.609461784362792969e+00 5.996090888977050781e+00 3.046296660613734275e-05 -9.220420906785875559e-06 6.372763891704380512e-06 -8.665997484058607370e-06
4.598000000000000000e+03 4.208092498779296875e+01 -1.314481830596923828e+01 1.682366847991943359e+00 2.203089714050292969e+00 1.165637016296386719e+00 -1.035668969154357910e+00
4.599000000000000000e+03 4.557492446899414062e+01 -1.159599208831787109e+01 7.072176933288574219e-01 1.895350337028503418e+00 7.807704210281372070e-01 1.097755312919616699e+00
4.600000000000000000e+03 4.252897262573242188e+01 -1.150445365905761719e+01 5.670967698097229004e-01 1.707507729530334473e+00 6.823813319206237793e-01 -7.294774651527404785e-01
4.601000000000000000e+03 1.260500431060791016e+01 9.049519538879394531e+00 -6.430348003050312400e-05 9.294094343204051256e-05 8.591237929067574441e-06 1.749807706801220775e-04
4.602000000000000000e+03 8.256134033203125000e+00 1.510898113250732422e+01 -1.349151134490966797e-04 -9.440501453354954720e-04 -3.236895718146115541e-04 1.024394005071371794e-04
4.603000000000000000e+03 1.042809009552001953e+01 8.669178009033203125e+00 -2.833362850651610643e-05 -5.002143370802514255e-05 -2.350651811866555363e-05 6.539814785355702043e-05
4.604000000000000000e+03 9.475801467895507812e+00 1.045128250122070312e+01 2.351739967707544565e-04 -3.422639565542340279e-04 -3.212698356946930289e-05 1.771091920090839267e-04
4.605000000000000000e+03 3.365373611450195312e+01 1.576640963554382324e+00 4.379243182484060526e-04 -1.512701328465482220e-05 1.268391933990642428e-04 9.946925274562090635e-05
4.606000000000000000e+03 3.496414566040039062e+01 5.133104324340820312e-01 -5.629394581774249673e-05 -6.605117960134521127e-05 -3.670353908091783524e-05 1.110825905925594270e-04
4.607000000000000000e+03 3.455622100830078125e+01 1.531800985336303711e+00 -4.255956155247986317e-04 -1.909380371216684580e-04 -1.849600957939401269e-04 -1.550857450638432056e-05
4.608000000000000000e+03 3.492177963256835938e+01 7.063324451446533203e-01 -7.083627133397385478e-05 -2.364005922572687268e-04 -9.217105980496853590e-05 -6.847266922704875469e-05
4.609000000000000000e+03 3.478488922119140625e+01 1.781563878059387207e+00 -9.075303096324205399e-04 -9.283347753807902336e-05 -3.001091245096176863e-04 -1.147685834439471364e-04
4.610000000000000000e+03 3.458167266845703125e+01 1.753330111503601074e+00 4.694762174040079117e-04 -2.288439718540757895e-04 7.218967220978811383e-05 -1.596368965692818165e-04
4.611000000000000000e+03 3.462108230590820312e+01 1.320459365844726562e+00 -4.107060376554727554e-04 -4.805268545169383287e-04 -2.673698763828724623e-04 3.094027342740446329e-04
4.612000000000000000e+03 3.486197280883789062e+01 1.055792212486267090e+00 -4.927782356389798224e-05 1.198238169308751822e-04 2.116379801009315997e-05 -7.581644458696246147e-04
4.613000000000000000e+03 3.320969009399414062e+01 1.529959678649902344e+00 -5.465844878926873207e-04 -1.385010400554165244e-04 -2.055256627500057220e-04 1.513787865405902267e-04
4.614000000000000000e+03 3.334902191162109375e+01 1.622598052024841309e+00 4.017960236524231732e-05 3.456106423982419074e-05 2.242220034531783313e-05 -2.785458636935800314e-04
4.615000000000000000e+03 3.350032043457031250e+01 1.674203872680664062e+00 3.900506708305329084e-04 -6.868257769383490086e-04 -8.903253910830244422e-05 2.036074583884328604e-04
4.616000000000000000e+03 3.483629989624023438e+01 1.236152768135070801e+00 5.141281872056424618e-04 1.701443834463134408e-04 2.052817580988630652e-04 6.477361312136054039e-04
4.617000000000000000e+03 3.479904937744140625e+01 1.588803052902221680e+00 7.678820402361452579e-04 -1.565707498230040073e-04 1.833933783927932382e-04 -3.508268491714261472e-06
4.618000000000000000e+03 3.483137130737304688e+01 1.411675333976745605e+00 -5.142907612025737762e-04 3.038554568774998188e-04 -6.313058838713914156e-05 -1.906494289869442582e-04
4.619000000000000000e+03 3.490541458129882812e+01 8.838708996772766113e-01 2.683065831661224365e-04 1.603028649697080255e-04 1.285828329855576158e-04 4.293037345632910728e-04
4.620000000000000000e+03 3.373072814941406250e+01 1.148025155067443848e+00 4.228842153679579496e-04 2.240157482447102666e-04 1.940699876286089420e-04 -1.378645392833277583e-04
4.621000000000000000e+03 3.400005722045898438e+01 1.656924128532409668e+00 9.678416972747072577e-05 -2.692692505661398172e-04 -5.174551915843039751e-05 5.905667421757243574e-05
4.622000000000000000e+03 3.350587081909179688e+01 1.435347199440002441e+00 -4.424456274136900902e-04 -6.842573202447965741e-05 -1.532614114694297314e-04 2.779704809654504061e-04
4.623000000000000000e+03 3.422412490844726562e+01 1.719584941864013672e+00 2.364322281209751964e-04 -3.391079953871667385e-04 -3.080272654187865555e-05 -4.110066802240908146e-04
4.624000000000000000e+03 3.407532882690429688e+01 5.203839540481567383e-01 2.280771732330322266e-04 -5.046564183430746198e-05 5.328345650923438370e-05 -2.174955989175941795e-05
4.625000000000000000e+03 3.442555618286132812e+01 6.639856696128845215e-01 4.465060483198612928e-04 3.747406299225986004e-04 2.463739947415888309e-04 -8.613245881861075759e-06
4.626000000000000000e+03 3.364273452758789062e+01 1.700774073600769043e+00 -3.253915056120604277e-04 2.985813480336219072e-04 -8.043054549489170313e-06 2.175871195504441857e-04
4.627000000000000000e+03 3.433422088623046875e+01 1.559625267982482910e+00 7.371599785983562469e-04 7.675527012906968594e-04 4.514137981459498405e-04 -3.258828364778310061e-04
4.628000000000000000e+03 3.474470520019531250e+01 5.020679235458374023e-01 -7.415753498207777739e-05 -2.474377979524433613e-04 -9.647860133554786444e-05 -7.994109910214319825e-05
4.629000000000000000e+03 3.438750457763671875e+01 1.119982838630676270e+00 6.827906472608447075e-04 2.952062932308763266e-04 2.933990908786654472e-04 -1.626641751499846578e-04
4.630000000000000000e+03 3.410485458374023438e+01 1.378117084503173828e+00 -4.578540683723986149e-04 -4.624244174920022488e-04 -2.760835341177880764e-04 2.162382006645202637e-04
4.631000000000000000e+03 3.466735839843750000e+01 9.404675364494323730e-01 -8.392718737013638020e-04 -2.895435900427401066e-04 -3.386446333024650812e-04 -9.542232146486639977e-05
4.632000000000000000e+03 3.411146926879882812e+01 8.511812090873718262e-01 -6.918982835486531258e-04 -2.505278098396956921e-04 -2.827278221957385540e-04 2.639771992107853293e-05
4.633000000000000000e+03 3.379204177856445312e+01 1.664782166481018066e+00 3.160184714943170547e-04 7.350514060817658901e-04 3.153209690935909748e-04 -2.531309146434068680e-04
4.634000000000000000e+03 3.455142974853515625e+01 4.722054898738861084e-01 -1.368211960652843118e-04 5.754738813266158104e-04 1.315957924816757441e-04 -1.578223454998806119e-04
4.635000000000000000e+03 3.465433502197265625e+01 7.233890891075134277e-01 3.054411790799349546e-04 8.863499533617869020e-05 1.182228443212807178e-04 1.815804716898128390e-04
4.636000000000000000e+03 3.435990142822265625e+01 4.721285998821258545e-01 -1.490746944909915328e-04 -3.355970548000186682e-04 -1.454015291528776288e-04 3.512941475491970778e-04
4.637000000000000000e+03 3.439619827270507812e+01 1.747237682342529297e+00 -1.035055029205977917e-03 4.716274561360478401e-04 -1.690282806521281600e-04 7.330910884775221348e-04
4.638000000000000000e+03 3.355002593994140625e+01 -1.336139678955078125e+00 -2.685175657272338867e+00 -3.765951395034790039e-01 -9.185312390327453613e-01 1.675041466951370239e-01
4.639000000000000000e+03 3.387998962402343750e+01 -1.357542157173156738e+00 -3.362448930740356445e+00 2.231565676629543304e-02 -1.002039909362792969e+00 9.670362621545791626e-02
4.640000000000000000e+03 3.400633621215820312e+01 -1.437711238861083984e+00 -3.137911796569824219e+00 2.019188404083251953e-01 -8.807978630065917969e-01 3.344171345233917236e-01
4.641000000000000000e+03 3.359782409667968750e+01 -1.530442714691162109e+00 -2.759313583374023438e+00 -3.813199400901794434e-01 -9.421900510787963867e-01 4.777300357818603516e-01
4.642000000000000000e+03 3.337884902954101562e+01 -1.355730533599853516e+00 -3.867868423461914062e+00 -8.733335137367248535e-01 -1.422360539436340332e+00 -2.453471422195434570e-01
4.643000000000000000e+03 3.318160629272460938e+01 -1.385946512222290039e+00 -3.310267686843872070e+00 -6.143536567687988281e-01 -1.177386403083801270e+00 1.008719205856323242e+00
4.644000000000000000e+03 3.272080612182617188e+01 -1.474612951278686523e+00 -3.417723894119262695e+00 -8.617314100265502930e-01 -1.283836603164672852e+00 -5.900392532348632812e-01
4.645000000000000000e+03 3.291108322143554688e+01 -1.866258263587951660e+00 -2.587756156921386719e+00 -5.592801570892333984e-01 -9.441108703613281250e-01 -4.329224303364753723e-02
4.646000000000000000e+03 3.251934814453125000e+01 -1.439323782920837402e+00 -3.499320268630981445e+00 -3.835619091987609863e-01 -1.164864659309387207e+00 -5.283477902412414551e-01
4.647000000000000000e+03 3.221598434448242188e+01 -1.447337150573730469e+00 -3.213651418685913086e+00 -1.572657823562622070e-01 -1.011275172233581543e+00 -5.369845032691955566e-01
4.648000000000000000e+03 3.226885986328125000e+01 -1.600857377052307129e+00 -3.335933208465576172e+00 -2.648931741714477539e-01 -1.080247879028320312e+00 -5.870424509048461914e-01
4.649000000000000000e+03 3.204936599731445312e+01 -1.485772848129272461e+00 -3.220518112182617188e+00 -6.174885109066963196e-02 -9.846801161766052246e-01 -5.128759145736694336e-01
4.650000000000000000e+03 3.211537170410156250e+01 -1.726776599884033203e+00 -3.102727174758911133e+00 -6.433016061782836914e-02 -9.501171708106994629e-01 -6.170811057090759277e-01
4.651000000000000000e+03 3.182605171203613281e+01 -1.507937312126159668e+00 -3.006588459014892578e+00 2.407312989234924316e-01 -8.297570943832397461e-01 -3.350982069969177246e-01
4.652000000000000000e+03 3.372217178344726562e+01 -1.337684988975524902e+00 -3.788735389709472656e+00 2.392361313104629517e-02 -1.129443526268005371e+00 3.103113174438476562e-01
4.653000000000000000e+03 3.351655578613281250e+01 -1.788771152496337891e+00 -2.986397266387939453e+00 -3.241525292396545410e-01 -9.931648969650268555e-01 1.843114495277404785e-01
4.654000000000000000e+03 3.296868133544921875e+01 -1.440663218498229980e+00 -2.363725185394287109e+00 -1.341522216796875000e+00 -1.111574292182922363e+00 1.414199620485305786e-01
4.655000000000000000e+03 3.250159835815429688e+01 -1.746093511581420898e+00 -3.114742040634155273e+00 -5.365957617759704590e-01 -1.095401287078857422e+00 -5.471037030220031738e-01
4.656000000000000000e+03 3.236406326293945312e+01 -1.501782178878784180e+00 -3.253979444503784180e+00 -3.519613444805145264e-01 -1.081782221794128418e+00 -6.238779425621032715e-01
4.657000000000000000e+03 3.312557220458984375e+01 -1.569985032081604004e+00 -3.409771203994750977e+00 -8.591215610504150391e-01 -1.280667781829833984e+00 -2.406572848558425903e-01
4.658000000000000000e+03 3.236862182617187500e+01 -1.424049139022827148e+00 -3.548059701919555664e+00 -3.889468610286712646e-01 -1.181101918220520020e+00 -5.030103921890258789e-01
4.659000000000000000e+03 3.340180206298828125e+01 -1.497046351432800293e+00 -3.662751913070678711e+00 -3.965836763381958008e-01 -1.217800617218017578e+00 5.832104086875915527e-01
4.660000000000000000e+03 3.482025527954101562e+01 2.317851334810256958e-01 -2.152292490005493164e+00 -1.488115265965461731e-02 -6.501520872116088867e-01 -3.042706847190856934e-01
4.661000000000000000e+03 3.502776718139648438e+01 -3.995346128940582275e-01 -2.273182630538940430e+00 1.172174289822578430e-01 -6.467895507812500000e-01 -3.508349359035491943e-01
4.662000000000000000e+03 3.520851898193359375e+01 -9.952967762947082520e-01 -2.493987560272216797e+00 3.400183618068695068e-01 -6.461907625198364258e-01 -3.120089322328567505e-02
4.663000000000000000e+03 3.487051010131835938e+01 -9.423822760581970215e-01 -2.587135553359985352e+00 3.253164887428283691e-01 -6.785457134246826172e-01 -1.873361170291900635e-01
4.664000000000000000e+03 3.501298904418945312e+01 2.663194239139556885e-01 -2.304700613021850586e+00 -1.032098159193992615e-01 -7.223730683326721191e-01 -3.357644379138946533e-01
4.665000000000000000e+03 3.488112640380859375e+01 -1.439139619469642639e-02 -2.162972211837768555e+00 -8.368967473506927490e-02 -6.739985942840576172e-01 -3.881375193595886230e-01
4.666000000000000000e+03 3.504684829711914062e+01 -1.377833038568496704e-01 -2.144333124160766602e+00 2.171529084444046021e-02 -6.367853283882141113e-01 -3.007626533508300781e-01
4.667000000000000000e+03 3.448436355590820312e+01 -4.451995790004730225e-01 -2.390371084213256836e+00 2.045146226882934570e-01 -6.557569503784179688e-01 -6.331309676170349121e-01
4.668000000000000000e+03 3.444835281372070312e+01 1.789149492979049683e-01 -1.990585923194885254e+00 2.062848955392837524e-02 -5.909872055053710938e-01 -2.724245190620422363e-01
4.669000000000000000e+03 3.445236587524414062e+01 -9.279549121856689453e-01 -2.974369525909423828e+00 3.622300326824188232e-01 -7.836418151855468750e-01 -2.583006024360656738e-01
4.670000000000000000e+03 3.472159957885742188e+01 -4.574835002422332764e-01 -2.361549615859985352e+00 1.384699791669845581e-01 -6.669238805770874023e-01 -4.504800140857696533e-01
4.671000000000000000e+03 3.504224777221679688e+01 -9.963615536689758301e-01 -2.531684875488281250e+00 3.268263936042785645e-01 -6.614575982093811035e-01 -6.987401843070983887e-02
4.672000000000000000e+03 3.508397293090820312e+01 -6.545739173889160156e-01 -2.407177209854125977e+00 1.995137333869934082e-01 -6.622990369796752930e-01 -2.256957739591598511e-01
4.673000000000000000e+03 3.463124084472656250e+01 1.983687281608581543e-01 -2.071036577224731445e+00 -8.938813954591751099e-02 -6.481274366378784180e-01 -2.548476159572601318e-01
4.674000000000000000e+03 3.448096847534179688e+01 -8.303236216306686401e-02 -1.794296264648437500e+00 -4.455422610044479370e-02 -5.516551733016967773e-01 -5.372655391693115234e-01
4.675000000000000000e+03 3.466226196289062500e+01 -9.147076010704040527e-01 -2.752785205841064453e+00 3.453474342823028564e-01 -7.222313284873962402e-01 -2.631408274173736572e-01
4.676000000000000000e+03 3.429238891601562500e+01 1.145092993974685669e-01 -1.767054319381713867e+00 3.046017512679100037e-02 -5.209782719612121582e-01 -3.634992539882659912e-01
4.677000000000000000e+03 3.505037689208984375e+01 5.978215858340263367e-02 -2.102601528167724609e+00 -6.010493263602256775e-02 -6.488119363784790039e-01 -3.347088694572448730e-01
4.678000000000000000e+03 3.517032241821289062e+01 -8.236765265464782715e-01 -2.423618793487548828e+00 3.056243062019348145e-01 -6.353983879089355469e-01 -9.348631650209426880e-02
4.679000000000000000e+03 3.469303894042968750e+01 -8.869820088148117065e-02 -2.020771503448486328e+00 -1.394987665116786957e-02 -6.104164123535156250e-01 -4.878266453742980957e-01
4.680000000000000000e+03 3.400199890136718750e+01 -1.481593251228332520e-01 -1.756041526794433594e+00 1.006906107068061829e-01 -4.966052770614624023e-01 -7.550167441368103027e-01
4.681000000000000000e+03 3.396210098266601562e+01 -1.021292924880981445e+00 -3.580663442611694336e+00 3.002593815326690674e-01 -9.841212034225463867e-01 -5.666685476899147034e-02
4.682000000000000000e+03 3.408905029296875000e+01 9.776008874177932739e-02 -1.466037154197692871e+00 1.081096157431602478e-01 -4.073782861232757568e-01 -5.028504729270935059e-01
4.683000000000000000e+03 3.364619064331054688e+01 1.042624264955520630e-01 -4.773071706295013428e-01 -1.343934535980224609e-01 -1.835101842880249023e-01 -3.499206006526947021e-01
4.684000000000000000e+03 3.314983367919921875e+01 -7.385936975479125977e-01 -7.487515926361083984e+00 -1.748000741004943848e+00 -2.770654916763305664e+00 -6.421614885330200195e-01
4.685000000000000000e+03 3.311226272583007812e+01 4.197925329208374023e-02 9.327854514122009277e-01 9.983240813016891479e-02 3.097853660583496094e-01 -2.396628856658935547e-01
4.686000000000000000e+03 3.293719100952148438e+01 -1.020196080207824707e-02 2.593855261802673340e-01 -6.044118404388427734e-01 -1.035078912973403931e-01 5.728214979171752930e-01
4.687000000000000000e+03 3.265475845336914062e+01 -1.659001111984252930e-01 2.093907445669174194e-01 8.258887529373168945e-01 3.105838596820831299e-01 -4.270222187042236328e-01
4.688000000000000000e+03 3.276617813110351562e+01 -5.367523804306983948e-02 -4.464334249496459961e-01 -4.316606745123863220e-02 -1.468798369169235229e-01 6.399887800216674805e-01
4.689000000000000000e+03 3.156710624694824219e+01 -1.139999270439147949e+00 -3.315155029296875000e+00 4.474608600139617920e-01 -8.603082299232482910e-01 -1.070227026939392090e-01
4.690000000000000000e+03 3.131309318542480469e+01 -1.084291040897369385e-01 -1.818210363388061523e+00 -4.761864617466926575e-02 -5.597487092018127441e-01 -2.140060812234878540e-01
4.691000000000000000e+03 3.112607002258300781e+01 -1.395439654588699341e-01 -2.397414207458496094e+00 -2.122857123613357544e-01 -7.829099893569946289e-01 1.369151920080184937e-01
4.692000000000000000e+03 3.097275543212890625e+01 -1.923964768648147583e-01 -2.418771505355834961e+00 2.229341417551040649e-01 -6.587512493133544922e-01 -2.417372614145278931e-01
4.693000000000000000e+03 3.189393234252929688e+01 -1.208927392959594727e+00 -3.343636274337768555e+00 4.911553859710693359e-01 -8.557442426681518555e-01 -2.505959272384643555e-01
4.694000000000000000e+03 3.421673583984375000e+01 -9.602398872375488281e-01 -3.127279281616210938e+00 4.487014710903167725e-01 -8.035733699798583984e-01 -4.231810271739959717e-01
4.695000000000000000e+03 3.332613754272460938e+01 -1.090211391448974609e+00 -3.393466472625732422e+00 -5.739510059356689453e-01 -1.190225243568420410e+00 6.882967948913574219e-01
4.696000000000000000e+03 3.293823623657226562e+01 -8.090336322784423828e-01 -7.191592693328857422e+00 -2.894002437591552734e+00 -3.025678634643554688e+00 1.778096705675125122e-01
4.697000000000000000e+03 3.271237182617187500e+01 -1.201809287071228027e+00 -3.815804719924926758e+00 -6.464090943336486816e-01 -1.338664174079895020e+00 -6.509103178977966309e-01
4.698000000000000000e+03 3.169081687927246094e+01 -5.910111069679260254e-01 -3.017335891723632812e+00 5.496236681938171387e-01 -7.403137087821960449e-01 1.923074275255203247e-01
4.699000000000000000e+03 3.331299209594726562e+01 -2.003788948059082031e-01 -1.628302574157714844e+00 -2.870770692825317383e-01 -5.746139287948608398e-01 -1.023671388626098633e+00
4.700000000000000000e+03 3.383176803588867188e+01 -6.687225103378295898e-01 -3.097748279571533203e+00 3.306952416896820068e-01 -8.301159143447875977e-01 -1.008807897567749023e+00
4.701000000000000000e+03 3.385493087768554688e+01 1.196751296520233154e-01 -9.005680084228515625e-01 -1.353182345628738403e-01 -3.107658922672271729e-01 -4.743781983852386475e-01
4.702000000000000000e+03 3.342586898803710938e+01 -5.869226902723312378e-02 -6.382499933242797852e-01 -2.770566344261169434e-01 -2.745919823646545410e-01 -7.139638662338256836e-01
4.703000000000000000e+03 3.086922454833984375e+01 -3.279412388801574707e-01 -2.888464450836181641e+00 -1.337518990039825439e-01 -9.066649079322814941e-01 4.615291580557823181e-02
4.704000000000000000e+03 3.162461662292480469e+01 -1.862830966711044312e-01 -1.341966271400451660e+00 1.893147081136703491e-01 -3.457954823970794678e-01 3.535592555999755859e-01
4.705000000000000000e+03 3.416860198974609375e+01 -5.028523802757263184e-01 -2.647016763687133789e+00 1.863865852355957031e-01 -7.381890416145324707e-01 -6.503250002861022949e-01
4.706000000000000000e+03 3.360907745361328125e+01 -8.425797224044799805e-01 -4.794993400573730469e+00 1.026700064539909363e-01 -1.407696962356567383e+00 -4.229455888271331787e-01
4.707000000000000000e+03 3.276919937133789062e+01 -8.749681711196899414e-01 -4.466026306152343750e+00 -8.030419349670410156e-01 -1.580720543861389160e+00 -2.124000638723373413e-01
4.708000000000000000e+03 3.195477485656738281e+01 -3.696976304054260254e-01 -2.981314420700073242e+00 3.047758936882019043e-01 -8.029615283012390137e-01 9.498938918113708496e-01
4.709000000000000000e+03 3.252721786499023438e+01 -1.251863598823547363e+00 -3.750411748886108398e+00 -6.546581387519836426e-01 -1.321520924568176270e+00 -4.226721525192260742e-01
4.710000000000000000e+03 3.239929962158203125e+01 -9.122696518898010254e-01 -4.107108116149902344e+00 1.474747359752655029e-01 -1.187890052795410156e+00 -3.668640255928039551e-01
4.711000000000000000e+03 3.327270507812500000e+01 9.752890467643737793e-02 4.328441023826599121e-01 -1.316817253828048706e-01 9.034871309995651245e-02 -8.753356337547302246e-02
4.712000000000000000e+03 3.181629562377929688e+01 -2.469906955957412720e-02 -1.071963906288146973e+00 1.886374503374099731e-01 -2.649979293346405029e-01 7.998725771903991699e-02
4.713000000000000000e+03 3.197904205322265625e+01 -2.844978496432304382e-02 -8.026408553123474121e-01 -2.204699069261550903e-01 -3.069332242012023926e-01 -6.027475744485855103e-02
4.714000000000000000e+03 3.235213851928710938e+01 -1.281953215599060059e+00 -3.597316026687622070e+00 -1.105982959270477295e-01 -1.112374305725097656e+00 -5.847129821777343750e-01
4.715000000000000000e+03 3.244567871093750000e+01 -7.290428280830383301e-01 -4.105611324310302734e+00 -3.024936914443969727e-01 -1.322431445121765137e+00 4.622964933514595032e-02
4.716000000000000000e+03 3.355311584472656250e+01 -1.092567682266235352e+00 -4.283086776733398438e+00 -2.470720112323760986e-01 -1.359047532081604004e+00 3.602078258991241455e-01
4.717000000000000000e+03 3.296784591674804688e+01 -4.096782803535461426e-01 -4.626645445823669434e-01 -1.618036866188049316e+00 -6.242104172706604004e-01 -7.279341220855712891e-01
4.718000000000000000e+03 3.131776237487792969e+01 -6.395704746246337891e-01 -2.761570930480957031e+00 3.854660987854003906e-01 -7.128314375877380371e-01 1.444725394248962402e-01
4.719000000000000000e+03 3.368114471435546875e+01 -1.669717580080032349e-01 -1.544285893440246582e+00 -1.093828529119491577e-01 -4.961006343364715576e-01 -9.548593759536743164e-01
4.720000000000000000e+03 3.358239364624023438e+01 -4.102739095687866211e-01 -2.640465021133422852e+00 -1.427725404500961304e-01 -8.349712491035461426e-01 -8.299489617347717285e-01
4.721000000000000000e+03 3.337776565551757812e+01 -6.060455441474914551e-01 -3.326401233673095703e+00 -1.149582490324974060e-01 -1.032407879829406738e+00 -1.307778000831604004e+00
4.722000000000000000e+03 3.123846626281738281e+01 -3.502001464366912842e-01 -2.865262508392333984e+00 9.718181192874908447e-02 -8.304241895675659180e-01 5.050249397754669189e-02
4.723000000000000000e+03 3.214323425292968750e+01 -7.637282460927963257e-02 -3.334017097949981689e-02 5.835995078086853027e-01 1.650778055191040039e-01 5.824999809265136719e-01
4.724000000000000000e+03 3.233746719360351562e+01 -2.876764535903930664e-01 -1.957450151443481445e+00 -2.133272290229797363e-01 -6.512331962585449219e-01 9.787905216217041016e-01
4.725000000000000000e+03 3.215012741088867188e+01 -8.154843449592590332e-01 -4.020978450775146484e+00 1.880504935979843140e-01 -1.149878382682800293e+00 1.799055635929107666e-01
4.726000000000000000e+03 3.147759437561035156e+01 -6.211524456739425659e-02 -1.874926328659057617e+00 2.332713305950164795e-01 -4.924964904785156250e-01 -1.888782978057861328e-01
4.727000000000000000e+03 3.163834381103515625e+01 -3.776077926158905029e-02 -1.557900309562683105e+00 -1.645046174526214600e-01 -5.167214870452880859e-01 7.358767092227935791e-02
4.728000000000000000e+03 3.183118247985839844e+01 -1.824834942817687988e-01 -1.230806231498718262e+00 -1.060296893119812012e-01 -4.010507762432098389e-01 3.536182045936584473e-01
4.729000000000000000e+03 3.344159317016601562e+01 1.166179478168487549e-01 -2.370096510276198387e-03 -3.570749983191490173e-02 -1.142327859997749329e-02 -2.776068449020385742e-01
4.730000000000000000e+03 3.375662612915039062e+01 -1.085907697677612305e+00 -3.466155290603637695e+00 2.033598721027374268e-01 -9.788386225700378418e-01 1.310213357210159302e-01
4.731000000000000000e+03 3.311204147338867188e+01 -1.131238102912902832e+00 -3.419824123382568359e+00 -1.859058976173400879e+00 -1.583665013313293457e+00 5.918315052986145020e-02
4.732000000000000000e+03 3.291574096679687500e+01 -1.168885946273803711e+00 -4.528349876403808594e+00 -2.110325098037719727e+00 -1.991602540016174316e+00 -5.803368091583251953e-01
4.733000000000000000e+03 3.215005874633789062e+01 -1.031110167503356934e+00 -3.610996723175048828e+00 2.566635608673095703e-01 -1.006299972534179688e+00 -2.220766991376876831e-01
4.734000000000000000e+03 3.214545440673828125e+01 -1.263760447502136230e+00 -3.608767747879028320e+00 -1.673861593008041382e-01 -1.132846117019653320e+00 -3.753725290298461914e-01
4.735000000000000000e+03 3.192040824890136719e+01 -8.839121460914611816e-01 -3.642753839492797852e+00 3.608857095241546631e-01 -9.845604300498962402e-01 1.404068712145090103e-02
4.736000000000000000e+03 3.315047454833984375e+01 -3.186087310314178467e-01 -1.879846334457397461e+00 -1.132973313331604004e+00 -9.038459062576293945e-01 -8.309943675994873047e-01
4.737000000000000000e+03 3.148613548278808594e+01 -3.122936487197875977e-01 -2.704263925552368164e+00 3.754548430442810059e-01 -6.986427307128906250e-01 4.901409745216369629e-01
4.738000000000000000e+03 3.237022781372070312e+01 -1.101313352584838867e+00 -3.889168739318847656e+00 -3.575761020183563232e-01 -1.274023413658142090e+00 -4.679860770702362061e-01
4.739000000000000000e+03 3.256470108032226562e+01 -6.016697287559509277e-01 -4.882124423980712891e+00 -8.140810132026672363e-01 -1.708861708641052246e+00 3.005820810794830322e-01
4.740000000000000000e+03 3.260083007812500000e+01 -9.403727054595947266e-01 -4.515461444854736328e+00 -1.029879808425903320e+00 -1.663602471351623535e+00 -2.333356142044067383e-01
4.741000000000000000e+03 3.262161254882812500e+01 -4.030735492706298828e-01 -2.940582752227783203e+00 -1.240845441818237305e+00 -1.254428386688232422e+00 1.137930035591125488e+00
4.742000000000000000e+03 3.219610214233398438e+01 -5.578918457031250000e-01 -3.558378696441650391e+00 5.200203657150268555e-01 -9.115075469017028809e-01 1.312818229198455811e-01
4.743000000000000000e+03 3.048606872558593750e+01 2.310402989387512207e-01 1.624255492060910910e-05 3.846168692689388990e-05 1.641127346374560148e-05 -1.855702066677622497e-05
4.744000000000000000e+03 3.067443084716796875e+01 8.053497970104217529e-02 -3.404667268114280887e-06 -2.161617430829210207e-06 -1.669885364208312239e-06 -1.923522540892008692e-05
4.745000000000000000e+03 3.083256912231445312e+01 7.534402608871459961e-02 1.917865120049100369e-05 -3.589165498851798475e-05 -5.013901500205975026e-06 -5.541044629353564233e-06
4.746000000000000000e+03 3.146447753906250000e+01 1.434350162744522095e-01 -4.157862804277101532e-06 -8.083720217655354645e-07 -1.489870442128449213e-06 3.333188715259893797e-06
4.747000000000000000e+03 3.169309043884277344e+01 2.968901693820953369e-01 5.431073986983392388e-06 -9.815032626647735015e-07 1.334871285507688299e-06 -2.240489038740633987e-06
4.748000000000000000e+03 3.156153106689453125e+01 5.812429189682006836e-01 -2.071937842629267834e-06 -5.654281721945153549e-06 -2.317865892109693959e-06 3.272444700996857136e-06
4.749000000000000000e+03 3.117042160034179688e+01 1.019975543022155762e-01 3.920902599929831922e-06 -1.149096442532027140e-05 -2.271018502142396756e-06 -2.005380565606174059e-06
4.750000000000000000e+03 3.075090408325195312e+01 3.309426605701446533e-01 -2.955980107799405232e-06 -3.140910848742350936e-05 -1.030952626024372876e-05 1.426914241164922714e-05
4.751000000000000000e+03 3.095979499816894531e+01 2.792930305004119873e-01 -3.093193663517013192e-05 -1.909026423163595609e-06 -9.852288712863810360e-06 2.654116997291566804e-06
4.752000000000000000e+03 3.131006622314453125e+01 2.190151810646057129e-01 -1.740201150823850185e-05 -1.415313931829587091e-06 -5.645197688863845542e-06 2.518808059903676622e-06
4.753000000000000000e+03 3.163131332397460938e+01 1.642359793186187744e-01 4.055100077948736725e-07 5.928680820943554863e-06 1.900257188935938757e-06 -4.247398919687839225e-06
4.754000000000000000e+03 3.180051803588867188e+01 1.577325165271759033e-01 9.580351161275757477e-07 -2.238412889710161835e-06 -3.841133491278014844e-07 -5.765942319158057217e-07
4.755000000000000000e+03 3.122459983825683594e+01 4.408085644245147705e-01 7.075652774801710621e-06 9.172472346108406782e-06 4.874437308899359778e-06 -6.867316187708638608e-06
4.756000000000000000e+03 3.100239944458007812e+01 9.454712271690368652e-02 2.019060775637626648e-05 2.645974927872885019e-05 1.399510711053153500e-05 1.743500070006120950e-05
4.757000000000000000e+03 3.131899452209472656e+01 9.043892472982406616e-02 7.683394869673065841e-06 5.863019396201707423e-06 4.063924279762431979e-06 3.250161171308718622e-06
4.758000000000000000e+03 3.191551780700683594e+01 2.150069624185562134e-01 -3.559309789125109091e-07 -3.204818312951829284e-06 -1.068224833034037147e-06 2.425782213322236203e-06
4.759000000000000000e+03 3.196529197692871094e+01 3.894459009170532227e-01 3.815239040250162361e-07 3.551069539753370918e-06 1.179777996185293887e-06 -1.476660372645710595e-06
4.760000000000000000e+03 3.252656173706054688e+01 1.474916934967041016e+00 -2.855299680959433317e-04 3.028204082511365414e-04 5.187136594031471759e-06 5.417825741460546851e-05
4.761000000000000000e+03 3.277453613281250000e+01 3.826866447925567627e-01 -2.274893449794035405e-05 2.659930578374769539e-05 1.155111249317997135e-06 -1.874688678071834147e-05
4.762000000000000000e+03 3.231996536254882812e+01 1.288083195686340332e+00 -1.401711051585152745e-04 -2.054061915259808302e-04 -1.036731919157318771e-04 1.012830834952183068e-04
4.763000000000000000e+03 3.247399902343750000e+01 7.846297025680541992e-01 -1.087874697986990213e-04 -1.542361715110018849e-04 -7.890709093771874905e-05 1.050140708684921265e-04
4.764000000000000000e+03 3.306614303588867188e+01 1.100092530250549316e+00 4.664885927923023701e-04 1.526076957816258073e-04 1.857288880273699760e-04 8.281227201223373413e-05
4.765000000000000000e+03 3.320626068115234375e+01 3.682013154029846191e-01 -1.891419742605648935e-05 1.998167499550618231e-05 3.202431457793863956e-07 5.497033998835831881e-05
4.766000000000000000e+03 3.299676895141601562e+01 7.458893656730651855e-01 -3.121935587842017412e-04 2.151523221982643008e-05 -8.720350160729140043e-05 3.888334322255104780e-05
4.767000000000000000e+03 3.355887222290039062e+01 3.570089340209960938e-01 1.788980735000222921e-04 -2.486353623680770397e-04 -2.092119029839523137e-05 2.654391573742032051e-05
4.768000000000000000e+03 3.384705734252929688e+01 4.833906590938568115e-01 1.714055251795798540e-04 2.220023307017982006e-04 1.180223553092218935e-04 -1.318581198574975133e-04
4.769000000000000000e+03 3.371740341186523438e+01 4.005685746669769287e-01 9.293311450164765120e-05 -2.079756632156204432e-05 2.164066427212674171e-05 1.338032743660733104e-04
4.770000000000000000e+03 3.209313583374023438e+01 9.748304486274719238e-01 1.321167510468512774e-04 6.257948552956804633e-05 5.840887388330884278e-05 -8.188794890884310007e-05
4.771000000000000000e+03 3.339539337158203125e+01 3.439426422119140625e-01 1.405639486620202661e-04 2.032249612966552377e-04 1.031366773531772196e-04 -1.619839895283803344e-04
4.772000000000000000e+03 3.342350387573242188e+01 8.909338712692260742e-01 -3.339468385092914104e-04 -2.593456010799854994e-04 -1.779877347871661186e-04 2.145364123862236738e-04
4.773000000000000000e+03 3.273265075683593750e+01 7.511296272277832031e-01 -4.930225622956641018e-05 1.142180699389427900e-04 1.947474447661079466e-05 8.045592403504997492e-05
4.774000000000000000e+03 3.299393081665039062e+01 3.836881220340728760e-01 7.027167885098606348e-05 -7.783752516843378544e-05 -2.269755214001634158e-06 -2.113042683049570769e-05
4.775000000000000000e+03 3.326683044433593750e+01 6.439960002899169922e-01 1.623968819330912083e-05 2.180230658268555999e-04 7.027883111732080579e-05 -2.121125580742955208e-04
4.776000000000000000e+03 3.272225189208984375e+01 1.501854300498962402e+00 1.953005121322348714e-04 -2.399609184067230672e-05 5.139132554177194834e-05 -2.460569958202540874e-04
4.777000000000000000e+03 3.258716964721679688e+01 1.023952603340148926e+00 3.085187636315822601e-04 5.120734567753970623e-05 1.079178327927365899e-04 -7.638287934241816401e-05
4.778000000000000000e+03 3.220250701904296875e+01 4.758601486682891846e-01 -7.390628161374479532e-05 -2.419646443740930408e-05 -2.943082290585152805e-05 4.190480103716254234e-05
4.779000000000000000e+03 3.345799636840820312e+01 5.111693739891052246e-01 -6.823508010711520910e-05 -2.052584313787519932e-04 -8.204804908018559217e-05 3.364252188475802541e-05
4.780000000000000000e+03 3.253543472290039062e+01 3.972842991352081299e-01 3.297441071481443942e-05 3.396850297576747835e-05 2.008287447097245604e-05 -3.051570638490375131e-05
4.781000000000000000e+03 3.273504638671875000e+01 1.226690053939819336e+00 -2.891237963922321796e-04 -2.112473739543929696e-04 -1.501113438280299306e-04 8.121765131363645196e-05
4.782000000000000000e+03 3.299623489379882812e+01 1.477275013923645020e+00 -3.451981319813057780e-05 1.785118511179462075e-04 4.319761137594468892e-05 -2.198488800786435604e-04
4.783000000000000000e+03 3.361579895019531250e+01 6.195395588874816895e-01 -2.297138271387666464e-04 -1.474527962272986770e-04 -1.131499811890535057e-04 -1.226229651365429163e-04
4.784000000000000000e+03 2.781990051269531250e+01 -2.360724806785583496e-01 -2.050214214250445366e-03 9.250355651602149010e-04 -3.375535889063030481e-04 -3.973113489337265491e-04
4.785000000000000000e+03 2.646029090881347656e+01 7.749882936477661133e-01 -2.490227855741977692e-02 5.066934227943420410e-02 7.730118464678525925e-03 -6.890182942152023315e-02
4.786000000000000000e+03 2.671755599975585938e+01 8.129853606224060059e-01 1.282203244045376778e-03 6.480610370635986328e-02 1.982649043202400208e-02 -6.208532303571701050e-02
4.787000000000000000e+03 2.685140991210937500e+01 5.993382930755615234e-01 -4.327180981636047363e-02 7.208285480737686157e-02 8.643314242362976074e-03 -3.569114953279495239e-02
4.788000000000000000e+03 2.615445137023925781e+01 6.092628836631774902e-01 -9.189681708812713623e-02 -1.597581245005130768e-02 -3.236179053783416748e-02 -4.967994242906570435e-02
4.789000000000000000e+03 2.578784370422363281e+01 5.081817507743835449e-01 -1.531298458576202393e-01 -1.230599433183670044e-01 -8.285693824291229248e-02 1.708033494651317596e-02
4.790000000000000000e+03 2.515849876403808594e+01 3.271711468696594238e-01 -3.044983446598052979e-01 -1.314988285303115845e-01 -1.307991445064544678e-01 1.425836086273193359e-01
4.791000000000000000e+03 2.528490638732910156e+01 -1.167485713958740234e+00 -1.506059765815734863e+00 7.543577998876571655e-02 -4.291871786117553711e-01 -2.732772231101989746e-01
4.792000000000000000e+03 2.597053718566894531e+01 -1.693393230438232422e+00 -1.606942772865295410e+00 -2.092012614011764526e-01 -5.448431968688964844e-01 -5.405392050743103027e-01
4.793000000000000000e+03 2.837369155883789062e+01 -1.667419314384460449e+00 -2.296851873397827148e+00 -2.644783258438110352e-02 -6.969898939132690430e-01 -4.522677063941955566e-01
4.794000000000000000e+03 2.616794013977050781e+01 -1.584699869155883789e+00 -1.738432765007019043e+00 -2.364049255847930908e-01 -5.924512743949890137e-01 -4.963428676128387451e-01
4.795000000000000000e+03 2.545707130432128906e+01 -1.382107138633728027e+00 -1.555945754051208496e+00 3.261490166187286377e-02 -4.569992721080780029e-01 -3.973470926284790039e-01
4.796000000000000000e+03 2.507384490966796875e+01 -2.928588986396789551e-01 -8.613448739051818848e-01 -1.461109705269336700e-02 -2.627868056297302246e-01 1.704850196838378906e-01
4.797000000000000000e+03 2.553544807434082031e+01 3.138064444065093994e-01 -2.465895265340805054e-01 -1.775137335062026978e-01 -1.272309720516204834e-01 9.729579091072082520e-02
4.798000000000000000e+03 2.596484184265136719e+01 5.645281076431274414e-01 -1.089607551693916321e-01 -7.023623585700988770e-02 -5.375909805297851562e-02 -2.760406397283077240e-02
4.799000000000000000e+03 2.878841018676757812e+01 -7.704266905784606934e-02 -3.431526420172303915e-05 3.537479205988347530e-04 9.582979691913351417e-05 8.692597475601360202e-06
4.800000000000000000e+03 2.790844726562500000e+01 2.747163772583007812e-01 1.076644053682684898e-03 3.003237769007682800e-03 1.223964500240981579e-03 4.831334445043466985e-05
4.801000000000000000e+03 2.716904640197753906e+01 -9.880415350198745728e-02 8.428872562944889069e-03 2.697298675775527954e-02 1.062055770307779312e-02 3.008224070072174072e-02
4.802000000000000000e+03 2.750106239318847656e+01 6.892876625061035156e-01 2.974775154143571854e-03 8.507749997079372406e-03 3.444757778197526932e-03 -6.489590741693973541e-03
4.803000000000000000e+03 2.659551811218261719e+01 9.028003811836242676e-01 2.881858311593532562e-02 6.760586798191070557e-02 2.892733551561832428e-02 -7.033686339855194092e-02
4.804000000000000000e+03 2.561998748779296875e+01 4.662799537181854248e-01 -1.883468627929687500e-01 -1.301029324531555176e-01 -9.553493559360504150e-02 4.685264453291893005e-02
4.805000000000000000e+03 2.546137046813964844e+01 4.314995408058166504e-01 -2.274049371480941772e-01 -1.473599523305892944e-01 -1.124294698238372803e-01 8.297918736934661865e-02
4.806000000000000000e+03 2.541918945312500000e+01 2.043535113334655762e-01 -3.873893618583679199e-01 -1.502151936292648315e-01 -1.612813621759414673e-01 1.394996196031570435e-01
4.807000000000000000e+03 2.514461708068847656e+01 1.484151929616928101e-01 -4.233126640319824219e-01 -9.130918234586715698e-02 -1.543865501880645752e-01 9.994435310363769531e-02
4.808000000000000000e+03 3.124060249328613281e+01 -1.303454041481018066e+00 -3.057476997375488281e+00 3.530258834362030029e-01 -8.113353252410888672e-01 -2.022965252399444580e-01
4.809000000000000000e+03 3.089070892333984375e+01 -1.371482610702514648e+00 -2.903693914413452148e+00 3.124763667583465576e-01 -7.773652672767639160e-01 -1.943502128124237061e-01
4.810000000000000000e+03 3.008119964599609375e+01 -2.816029489040374756e-01 -3.031806230545043945e+00 4.356907680630683899e-03 -9.082348346710205078e-01 -2.766504287719726562e-01
4.811000000000000000e+03 2.892089462280273438e+01 -1.029202699661254883e+00 -2.715907573699951172e+00 -6.835122592747211456e-03 -8.168227672576904297e-01 -3.491333425045013428e-01
4.812000000000000000e+03 2.867807006835937500e+01 -7.479233145713806152e-01 -2.837243318557739258e+00 -2.487980015575885773e-02 -8.586369156837463379e-01 -3.427526056766510010e-01
4.813000000000000000e+03 2.775576591491699219e+01 -1.722179293632507324e+00 -2.147624969482421875e+00 -9.027945995330810547e-02 -6.713713407516479492e-01 -4.705686569213867188e-01
4.814000000000000000e+03 2.707432937622070312e+01 -1.548220634460449219e+00 -2.077963113784790039e+00 -1.899277716875076294e-01 -6.803672909736633301e-01 -4.060401320457458496e-01
4.815000000000000000e+03 3.027514839172363281e+01 -2.667401432991027832e-01 -2.980565071105957031e+00 -1.832472719252109528e-02 -8.996669650077819824e-01 -2.460465729236602783e-01
4.816000000000000000e+03 2.954090499877929688e+01 -1.550057530403137207e+00 -2.535713911056518555e+00 1.078205257654190063e-01 -7.283680438995361328e-01 -3.545480072498321533e-01
4.817000000000000000e+03 2.804059028625488281e+01 -4.530044198036193848e-01 -2.981410264968872070e+00 -2.884418517351150513e-02 -9.030762910842895508e-01 -3.178901076316833496e-01
4.818000000000000000e+03 2.824248123168945312e+01 -4.449058473110198975e-01 -3.005981445312500000e+00 -4.194084182381629944e-02 -9.143766760826110840e-01 -3.220274448394775391e-01
4.819000000000000000e+03 2.719761276245117188e+01 -9.446302652359008789e-01 -2.607672452926635742e+00 -8.691063523292541504e-02 -8.083749413490295410e-01 -2.914301753044128418e-01
4.820000000000000000e+03 2.722833442687988281e+01 -7.250214219093322754e-01 -2.789219379425048828e+00 -6.424225866794586182e-02 -8.560384511947631836e-01 -2.792550027370452881e-01
4.821000000000000000e+03 2.723756790161132812e+01 -5.151501893997192383e-01 -2.912407875061035156e+00 -2.786085754632949829e-02 -8.820806145668029785e-01 -2.954773604869842529e-01
4.822000000000000000e+03 2.515667152404785156e+01 -8.476480245590209961e-01 -1.250383257865905762e+00 1.040986254811286926e-01 -3.438853621482849121e-01 -1.674511730670928955e-01
4.823000000000000000e+03 2.675755500793457031e+01 -1.431399822235107422e+00 -2.028609275817871094e+00 -2.541406750679016113e-01 -6.848250031471252441e-01 -3.571924567222595215e-01
4.824000000000000000e+03 2.721723747253417969e+01 -3.033818006515502930e-01 2.204388193786144257e-02 6.154643371701240540e-03 8.459557779133319855e-03 1.434451248496770859e-02
4.825000000000000000e+03 2.635912895202636719e+01 5.831415057182312012e-01 -8.215127885341644287e-02 3.960279747843742371e-02 -1.276454329490661621e-02 -6.088843941688537598e-02
4.826000000000000000e+03 2.528482055664062500e+01 2.188069820404052734e-01 -3.911234438419342041e-01 -1.403274983167648315e-01 -1.594352871179580688e-01 1.367159783840179443e-01
4.827000000000000000e+03 2.822923660278320312e+01 -1.914909631013870239e-01 -7.755628321319818497e-04 -2.324550769117195159e-05 -2.396424970356747508e-04 -3.170220588799566031e-04
4.828000000000000000e+03 2.966212654113769531e+01 4.668440297245979309e-02 -2.323526314285118133e-05 2.973447953991126269e-05 1.949765191966434941e-06 -2.360552798563730903e-06
4.829000000000000000e+03 3.001603126525878906e+01 2.810606360435485840e-01 -2.014006167883053422e-05 -3.050416853511705995e-05 -1.519326906418427825e-05 2.222575494670309126e-05
4.830000000000000000e+03 3.014229011535644531e+01 3.720963746309280396e-02 2.526978823880199343e-05 1.106520539906341583e-05 1.090049772756174207e-05 -1.931917722686193883e-05
4.831000000000000000e+03 2.529310226440429688e+01 8.253997564315795898e-02 -4.536952674388885498e-01 -1.375203728675842285e-01 -1.773646920919418335e-01 1.470252126455307007e-01
4.832000000000000000e+03 2.677220344543457031e+01 4.099597036838531494e-01 -7.648206502199172974e-02 8.997371792793273926e-02 4.047495778650045395e-03 -2.139422111213207245e-02
4.833000000000000000e+03 2.790239715576171875e+01 5.528707504272460938e-01 -8.705486543476581573e-04 2.123820828273892403e-03 3.759816754609346390e-04 -2.468293241690844297e-04
4.834000000000000000e+03 2.709368515014648438e+01 9.841948002576828003e-02 -2.138126082718372345e-02 5.755209550261497498e-02 1.085125096142292023e-02 2.549015171825885773e-02
4.835000000000000000e+03 2.739620018005371094e+01 -4.905321821570396423e-02 2.879953477531671524e-03 1.579598709940910339e-02 5.602782126516103745e-03 1.450421381741762161e-02
4.836000000000000000e+03 2.778038978576660156e+01 -2.680426090955734253e-02 2.134917303919792175e-03 5.093616200610995293e-04 7.932836888357996941e-04 3.612825821619480848e-04
4.837000000000000000e+03 2.504582786560058594e+01 -6.777805089950561523e-01 -1.059541344642639160e+00 7.740548998117446899e-02 -2.946407794952392578e-01 7.073136046528816223e-03
4.838000000000000000e+03 2.517080116271972656e+01 -5.117816478013992310e-02 -6.725125312805175781e-01 -4.389789700508117676e-02 -2.149231433868408203e-01 1.398433148860931396e-01
4.839000000000000000e+03 2.726543045043945312e+01 4.595450162887573242e-01 -1.424545049667358398e-02 4.050039499998092651e-02 7.876483723521232605e-03 -1.091766450554132462e-02
4.840000000000000000e+03 2.696632385253906250e+01 2.802588045597076416e-01 -5.264459550380706787e-02 7.865670323371887207e-02 7.803632412105798721e-03 7.274740375578403473e-03
4.841000000000000000e+03 2.656919479370117188e+01 -1.512916088104248047e+00 -1.913632154464721680e+00 -2.857635915279388428e-01 -6.598187088966369629e-01 -3.989999890327453613e-01
4.842000000000000000e+03 2.524217987060546875e+01 -1.495204806327819824e+00 -1.424197435379028320e+00 5.407517775893211365e-02 -4.110366702079772949e-01 -4.457829594612121582e-01
4.843000000000000000e+03 2.580084037780761719e+01 -1.548887729644775391e+00 -1.626167654991149902e+00 -1.644097566604614258e-01 -5.371732115745544434e-01 -5.039111971855163574e-01
4.844000000000000000e+03 2.591897010803222656e+01 -1.845341563224792480e+00 -1.477319955825805664e+00 -1.798327267169952393e-01 -4.971458017826080322e-01 -6.116175055503845215e-01
4.845000000000000000e+03 2.644226455688476562e+01 -1.709385395050048828e+00 -1.746251821517944336e+00 -2.604642510414123535e-01 -6.020148396492004395e-01 -4.920960068702697754e-01
4.846000000000000000e+03 2.816950225830078125e+01 -1.683254241943359375e+00 -2.251252889633178711e+00 -4.440178349614143372e-02 -6.886963844299316406e-01 -4.646625816822052002e-01
4.847000000000000000e+03 2.744405555725097656e+01 -7.266522645950317383e-01 -2.779329299926757812e+00 -4.653070494532585144e-02 -8.477580547332763672e-01 -3.069961667060852051e-01
4.848000000000000000e+03 2.512719154357910156e+01 -7.094663977622985840e-01 -1.177663803100585938e+00 7.332628965377807617e-02 -3.313012421131134033e-01 2.080358192324638367e-02
4.849000000000000000e+03 2.637152290344238281e+01 -1.564704656600952148e+00 -1.762881755828857422e+00 -2.533797025680541992e-01 -6.048784255981445312e-01 -4.463244378566741943e-01
4.850000000000000000e+03 2.559491157531738281e+01 -1.626361131668090820e+00 -1.457548856735229492e+00 -5.695561692118644714e-02 -4.543513357639312744e-01 -4.857120811939239502e-01
4.851000000000000000e+03 2.519227409362792969e+01 -9.742129445075988770e-01 -1.450091004371643066e+00 1.051240488886833191e-01 -4.034900963306427002e-01 -2.072854340076446533e-01
4.852000000000000000e+03 2.694959831237792969e+01 -1.828551173210144043e+00 -1.856268763542175293e+00 -2.133809477090835571e-01 -6.208949089050292969e-01 -4.991920888423919678e-01
4.853000000000000000e+03 3.071470832824707031e+01 -7.099655270576477051e-01 -2.906931877136230469e+00 1.652539074420928955e-01 -8.225033879280090332e-01 -6.486842036247253418e-02
4.854000000000000000e+03 2.735287666320800781e+01 -1.777114272117614746e+00 -2.007848024368286133e+00 -1.505450904369354248e-01 -6.475179195404052734e-01 -4.869744479656219482e-01
4.855000000000000000e+03 2.755428123474121094e+01 -1.753542184829711914e+00 -2.107330560684204102e+00 -1.235568746924400330e-01 -6.692662239074707031e-01 -4.651719331741333008e-01
4.856000000000000000e+03 3.135067749023437500e+01 -1.199893712997436523e+00 -3.088245391845703125e+00 3.018283247947692871e-01 -8.359251022338867188e-01 -3.663809597492218018e-02
4.857000000000000000e+03 3.106115722656250000e+01 -9.513271450996398926e-01 -2.923329353332519531e+00 2.289800941944122314e-01 -8.083047866821289062e-01 4.914912208914756775e-02
4.858000000000000000e+03 3.107223701477050781e+01 -1.337526679039001465e+00 -2.950972795486450195e+00 2.938046157360076904e-01 -7.971504926681518555e-01 -1.393865793943405151e-01
4.859000000000000000e+03 2.715109252929687500e+01 -1.798541426658630371e+00 -1.946454048156738281e+00 -1.803127080202102661e-01 -6.380300521850585938e-01 -4.907113015651702881e-01
4.860000000000000000e+03 2.674503326416015625e+01 -1.859190106391906738e+00 -1.781730175018310547e+00 -2.269672900438308716e-01 -6.026092171669006348e-01 -5.235597491264343262e-01
4.861000000000000000e+03 2.906841278076171875e+01 -3.854454159736633301e-01 -3.086277246475219727e+00 -3.822130709886550903e-02 -9.373496174812316895e-01 -3.222050368785858154e-01
4.862000000000000000e+03 2.910834693908691406e+01 -1.358438611030578613e+00 -2.556354045867919922e+00 3.829354792833328247e-02 -7.554181218147277832e-01 -3.719074428081512451e-01
4.863000000000000000e+03 2.915472984313964844e+01 -1.597915291786193848e+00 -2.438498973846435547e+00 5.747685581445693970e-02 -7.143066525459289551e-01 -4.088207483291625977e-01
4.864000000000000000e+03 2.968448257446289062e+01 -3.178385496139526367e-01 -3.085568666458129883e+00 -8.351496420800685883e-03 -9.281760454177856445e-01 -3.060269653797149658e-01
4.865000000000000000e+03 2.865559959411621094e+01 -4.283179044723510742e-01 -3.054057836532592773e+00 -3.576611727476119995e-02 -9.269471764564514160e-01 -3.275030255317687988e-01
4.866000000000000000e+03 2.826641464233398438e+01 2.519997358322143555e-01 8.937575621530413628e-04 -1.223565079271793365e-03 -9.894223330775275826e-05 -5.242436964181251824e-05
4.867000000000000000e+03 2.842575073242187500e+01 -1.913074105978012085e-01 -9.944340854417532682e-05 9.627011604607105255e-05 -9.519883974462572951e-07 -4.714380775112658739e-04
4.868000000000000000e+03 2.944804954528808594e+01 -8.972559869289398193e-02 2.301566746609751135e-05 6.821974238846451044e-06 8.951292329584248364e-06 5.480167601490393281e-06
4.869000000000000000e+03 3.029812240600585938e+01 1.053279787302017212e-01 -3.088898665737360716e-05 -3.451087468420155346e-05 -1.961995803867466748e-05 3.479954466456547379e-05
4.870000000000000000e+03 2.950048637390136719e+01 3.034934401512145996e-01 -5.644667453452711925e-06 3.951624603359960020e-05 1.016147416521562263e-05 -1.362831244478002191e-05
4.871000000000000000e+03 2.944606971740722656e+01 7.450585067272186279e-02 -3.757333979592658579e-05 4.401782916829688475e-06 -9.951467291102744639e-06 5.561050420510582626e-05
4.872000000000000000e+03 2.802137947082519531e+01 -2.082492411136627197e-01 -1.392497448250651360e-03 -5.152918747626245022e-04 -5.723367794416844845e-04 -6.555540021508932114e-04
4.873000000000000000e+03 2.904725456237792969e+01 -2.856845781207084656e-02 -4.539152769211796112e-07 -8.058861567405983806e-05 -2.431275970593560487e-05 -5.210155723034404218e-05
4.874000000000000000e+03 3.051279258728027344e+01 -1.431428551673889160e+00 -2.764424085617065430e+00 2.540766894817352295e-01 -7.531042098999023438e-01 -2.426763176918029785e-01
4.875000000000000000e+03 2.844971275329589844e+01 -7.393308877944946289e-01 -2.837108612060546875e+00 -4.063661769032478333e-02 -8.633235692977905273e-01 -3.438215255737304688e-01
4.876000000000000000e+03 2.844795036315917969e+01 -4.390898346900939941e-01 -3.030776739120483398e+00 -3.137922286987304688e-02 -9.186468124389648438e-01 -3.276702165603637695e-01
4.877000000000000000e+03 2.784181976318359375e+01 -6.897981166839599609e-01 -2.822822332382202148e+00 -3.385841101408004761e-02 -8.570042252540588379e-01 -3.322081565856933594e-01
4.878000000000000000e+03 2.784101295471191406e+01 -4.653589725494384766e-01 -2.957945108413696289e+00 -3.996831551194190979e-02 -8.993740677833557129e-01 -3.135600984096527100e-01
4.879000000000000000e+03 2.764116668701171875e+01 -4.829903542995452881e-01 -2.935305595397949219e+00 -2.759910933673381805e-02 -8.888714313507080078e-01 -3.103802204132080078e-01
4.880000000000000000e+03 2.927213668823242188e+01 -3.567369878292083740e-01 -3.094587326049804688e+00 -1.698480173945426941e-02 -9.334716796875000000e-01 -3.196420967578887939e-01
4.881000000000000000e+03 2.882881164550781250e+01 -1.215668559074401855e+00 -2.577900648117065430e+00 4.502930212765932083e-03 -7.720193266868591309e-01 -3.741085231304168701e-01
4.882000000000000000e+03 2.858909034729003906e+01 1.528998911380767822e-01 -1.937651250045746565e-04 -3.803794970735907555e-04 -1.722433808026835322e-04 2.797009074129164219e-04
4.883000000000000000e+03 2.688063049316406250e+01 7.684969902038574219e-01 -7.061531301587820053e-03 6.318717449903488159e-02 1.683769188821315765e-02 -5.580684170126914978e-02
4.884000000000000000e+03 2.871318817138671875e+01 3.976906836032867432e-01 5.071170016890391707e-05 3.117845335509628057e-04 1.087488708435557783e-04 -9.500516898697242141e-05
4.885000000000000000e+03 2.493860626220703125e+01 -9.964184761047363281e-01 -1.230889439582824707e+00 1.309003829956054688e-01 -3.299967348575592041e-01 -1.647095680236816406e-01
4.886000000000000000e+03 2.857298660278320312e+01 -1.650406837463378906e+00 -2.322510480880737305e+00 4.630164708942174911e-03 -6.953640580177307129e-01 -4.444498121738433838e-01
4.887000000000000000e+03 2.875557708740234375e+01 -1.394296050071716309e+00 -2.484802961349487305e+00 6.375058554112911224e-03 -7.435283660888671875e-01 -3.998278975486755371e-01
4.888000000000000000e+03 2.694132995605468750e+01 -1.321903228759765625e+00 -2.219620466232299805e+00 -1.987493485212326050e-01 -7.255109548568725586e-01 -3.242241144180297852e-01
4.889000000000000000e+03 2.973933601379394531e+01 -1.530803084373474121e+00 -2.570102453231811523e+00 1.364560425281524658e-01 -7.300939559936523438e-01 -3.292809426784515381e-01
4.890000000000000000e+03 3.013170623779296875e+01 -1.486040472984313965e+00 -2.658871650695800781e+00 1.984088867902755737e-01 -7.381388545036315918e-01 -2.810455858707427979e-01
4.891000000000000000e+03 2.962875556945800781e+01 -1.063020944595336914e+00 -2.726003408432006836e+00 6.755721569061279297e-02 -7.975338697433471680e-01 -2.816698253154754639e-01
4.892000000000000000e+03 3.039701271057128906e+01 -1.152016401290893555e+00 -2.815052270889282227e+00 1.992868483066558838e-01 -7.847296595573425293e-01 -1.799118965864181519e-01
4.893000000000000000e+03 2.796207809448242188e+01 -1.698634266853332520e+00 -2.198101997375488281e+00 -7.093541324138641357e-02 -6.807112693786621094e-01 -4.670743942260742188e-01
4.894000000000000000e+03 3.057217597961425781e+01 -1.112314343452453613e+00 -2.861590623855590820e+00 2.341299504041671753e-01 -7.882381677627563477e-01 -1.718711704015731812e-01
4.895000000000000000e+03 2.993740844726562500e+01 -1.510368824005126953e+00 -2.608715057373046875e+00 1.540319770574569702e-01 -7.364048957824707031e-01 -3.077562451362609863e-01
4.896000000000000000e+03 2.947127151489257812e+01 -1.292900323867797852e+00 -2.623202085494995117e+00 7.712799310684204102e-02 -7.638222575187683105e-01 -3.288331925868988037e-01
4.897000000000000000e+03 2.892973709106445312e+01 -1.382635354995727539e+00 -2.513436555862426758e+00 2.070546336472034454e-02 -7.478193640708923340e-01 -3.897931575775146484e-01
4.898000000000000000e+03 2.927618789672851562e+01 -6.425587832927703857e-02 4.367143992567434907e-05 7.781394742778502405e-06 1.543584949104115367e-05 2.225850403192453086e-05
4.899000000000000000e+03 2.765856552124023438e+01 1.621758788824081421e-01 1.082032613339833915e-04 8.836535736918449402e-03 2.683421596884727478e-03 1.638088840991258621e-03
4.900000000000000000e+03 2.976152038574218750e+01 -6.182944774627685547e-01 -2.923690557479858398e+00 5.746023263782262802e-03 -8.753833770751953125e-01 -2.590221762657165527e-01
4.901000000000000000e+03 2.947806930541992188e+01 -3.339114189147949219e-01 -3.095729827880859375e+00 -3.839974477887153625e-02 -9.402388334274291992e-01 -3.086612522602081299e-01
4.902000000000000000e+03 3.009435653686523438e+01 -9.150875210762023926e-01 -2.824435710906982422e+00 9.269002825021743774e-02 -8.195237517356872559e-01 -1.946844011545181274e-01
4.903000000000000000e+03 2.856544685363769531e+01 -1.390156388282775879e+00 -2.478460788726806641e+00 -1.858923770487308502e-02 -7.491149902343750000e-01 -4.085353016853332520e-01
4.904000000000000000e+03 3.034239959716796875e+01 -5.648652315139770508e-01 -2.859447956085205078e+00 8.258049935102462769e-02 -8.330602049827575684e-01 -1.579623371362686157e-01
4.905000000000000000e+03 2.734449577331542969e+01 -1.325474739074707031e+00 -2.324491024017333984e+00 -1.267704814672470093e-01 -7.353785037994384766e-01 -3.669762909412384033e-01
4.906000000000000000e+03 2.710558700561523438e+01 -1.159500002861022949e+00 -2.403867006301879883e+00 -1.508098989725112915e-01 -7.664030790328979492e-01 -2.954971790313720703e-01
4.907000000000000000e+03 2.664535522460937500e+01 6.655923128128051758e-01 -5.390481278300285339e-02 7.758187502622604370e-02 7.103119045495986938e-03 -5.602804571390151978e-02
4.908000000000000000e+03 2.739227104187011719e+01 2.043175101280212402e-01 -6.291299592703580856e-03 2.541971392929553986e-02 5.738524254411458969e-03 6.425936240702867508e-03
4.909000000000000000e+03 2.934688377380371094e+01 -1.574162364006042480e+00 -2.485513925552368164e+00 8.966650813817977905e-02 -7.187541723251342773e-01 -3.758449852466583252e-01
4.910000000000000000e+03 3.032261085510253906e+01 -1.459050178527832031e+00 -2.712115287780761719e+00 2.184438109397888184e-01 -7.481014132499694824e-01 -2.589578330516815186e-01
4.911000000000000000e+03 2.978258132934570312e+01 -8.587885499000549316e-01 -2.832708835601806641e+00 4.942062124609947205e-02 -8.349864482879638672e-01 -2.540273666381835938e-01
4.912000000000000000e+03 2.852941322326660156e+01 -1.134404420852661133e+00 -2.613862276077270508e+00 -2.009945921599864960e-02 -7.901885509490966797e-01 -3.800089657306671143e-01
4.913000000000000000e+03 2.913703918457031250e+01 -1.132955670356750488e+00 -2.671251773834228516e+00 2.385057322680950165e-02 -7.942203879356384277e-01 -3.451775908470153809e-01
4.914000000000000000e+03 2.891152954101562500e+01 -7.358937859535217285e-01 -2.860061645507812500e+00 -2.795335091650485992e-02 -8.664044737815856934e-01 -3.378244042396545410e-01
4.915000000000000000e+03 2.925645446777343750e+01 -9.566388726234436035e-01 -2.765993833541870117e+00 1.711600925773382187e-03 -8.292847275733947754e-01 -3.187434077262878418e-01
4.916000000000000000e+03 2.933537292480468750e+01 -6.373291015625000000e-01 -2.931048870086669922e+00 -2.172772958874702454e-02 -8.858329653739929199e-01 -3.062402009963989258e-01
4.917000000000000000e+03 2.800453186035156250e+01 -9.263651967048645020e-01 -2.699293375015258789e+00 -4.430015757679939270e-02 -8.230780363082885742e-01 -3.637134730815887451e-01
4.918000000000000000e+03 2.729001426696777344e+01 -1.531453728675842285e+00 -2.172713279724121094e+00 -1.613734662532806396e-01 -7.002260088920593262e-01 -3.956606984138488770e-01
4.919000000000000000e+03 2.997507095336914062e+01 -6.148938536643981934e-01 -2.903505563735961914e+00 4.398833960294723511e-02 -8.578551411628723145e-01 -2.333582937717437744e-01
4.920000000000000000e+03 2.745512580871582031e+01 -9.636750221252441406e-01 -2.621614217758178711e+00 -8.265806734561920166e-02 -8.112816810607910156e-01 -3.166711330413818359e-01
4.921000000000000000e+03 2.823396110534667969e+01 -7.079256176948547363e-01 -2.844402074813842773e+00 -3.630048409104347229e-02 -8.642107844352722168e-01 -3.451046347618103027e-01
4.922000000000000000e+03 2.755640602111816406e+01 -1.198829770088195801e+00 -2.446618795394897461e+00 -9.455240517854690552e-02 -7.623513936996459961e-01 -3.577537238597869873e-01
4.923000000000000000e+03 2.944159126281738281e+01 -1.064152121543884277e+00 -2.714729785919189453e+00 4.363930970430374146e-02 -8.013271093368530273e-01 -3.049621880054473877e-01
4.924000000000000000e+03 2.815221786499023438e+01 -1.422696471214294434e+00 -2.399644136428833008e+00 -5.154941603541374207e-02 -7.353580594062805176e-01 -4.154175817966461182e-01
4.925000000000000000e+03 3.059735870361328125e+01 -7.972539067268371582e-01 -2.913997888565063477e+00 2.042061835527420044e-01 -8.129375576972961426e-01 -1.343578696250915527e-01
4.926000000000000000e+03 2.995605850219726562e+01 -5.597616545855998993e-03 -9.949942977982573211e-06 -1.843628888309467584e-05 -8.515869922121055424e-06 -7.891418931649241131e-07
4.927000000000000000e+03 2.979190826416015625e+01 -6.038608029484748840e-02 -1.182348569273017347e-05 3.632652442320249975e-05 7.350911346293287352e-06 -2.126863910234533250e-05
4.928000000000000000e+03 2.962926292419433594e+01 -8.498704433441162109e-02 -1.964838884305208921e-05 -2.061484883597586304e-05 -1.207897184940520674e-05 2.646943539730273187e-05
4.929000000000000000e+03 2.978279876708984375e+01 1.970997005701065063e-01 4.145229104324243963e-05 2.264501381432637572e-05 1.922919182106852531e-05 -1.880759373307228088e-05
4.930000000000000000e+03 3.070292282104492188e+01 -1.402674555778503418e+00 -2.812373876571655273e+00 2.658094167709350586e-01 -7.639693617820739746e-01 -2.039089202880859375e-01
4.931000000000000000e+03 3.090387916564941406e+01 -1.005632758140563965e+00 -2.923080921173095703e+00 2.694837450981140137e-01 -7.960791587829589844e-01 -9.637920558452606201e-02
4.932000000000000000e+03 3.022185134887695312e+01 -1.190913677215576172e+00 -2.763905525207519531e+00 1.871605962514877319e-01 -7.730234861373901367e-01 -2.153958678245544434e-01
4.933000000000000000e+03 2.859870910644531250e+01 -1.620338261127471924e-01 7.007149542914703488e-05 -5.385137628763914108e-04 -1.405326911481097341e-04 2.351064322283491492e-04
4.934000000000000000e+03 2.798626136779785156e+01 2.405132167041301727e-02 1.096266903914511204e-03 6.488653598353266716e-04 5.235397256910800934e-04 2.929342153947800398e-04
4.935000000000000000e+03 2.760408020019531250e+01 -4.810364171862602234e-02 1.274910056963562965e-03 9.433751925826072693e-03 3.212598618119955063e-03 3.860796568915247917e-03
4.936000000000000000e+03 2.762227249145507812e+01 -2.580721676349639893e-01 -4.622043343260884285e-04 1.903338357806205750e-03 4.323402245063334703e-04 2.074209507554769516e-03
4.937000000000000000e+03 2.742092132568359375e+01 -2.755425572395324707e-01 6.564290262758731842e-03 4.557719454169273376e-03 3.336602821946144104e-03 6.830436177551746368e-03
4.938000000000000000e+03 3.004961967468261719e+01 -1.233764171600341797e+00 -2.726262092590332031e+00 1.358456164598464966e-01 -7.771249413490295410e-01 -2.435075342655181885e-01
4.939000000000000000e+03 2.987006568908691406e+01 -1.269569873809814453e+00 -2.689708709716796875e+00 1.288925260305404663e-01 -7.682448029518127441e-01 -2.775947451591491699e-01
4.940000000000000000e+03 2.967793273925781250e+01 -1.289007782936096191e+00 -2.654838085174560547e+00 9.451689571142196655e-02 -7.680963277816772461e-01 -3.034519553184509277e-01
4.941000000000000000e+03 2.928291893005371094e+01 -1.328910589218139648e+00 -2.600661516189575195e+00 4.186192899942398071e-02 -7.676398158073425293e-01 -3.509354889392852783e-01
4.942000000000000000e+03 2.896192741394042969e+01 -1.619267821311950684e+00 -2.411477327346801758e+00 4.018666967749595642e-02 -7.113871574401855469e-01 -4.179666936397552490e-01
4.943000000000000000e+03 2.876846885681152344e+01 -1.636580586433410645e+00 -2.375540256500244141e+00 1.278482563793659210e-02 -7.088266611099243164e-01 -4.293788373470306396e-01
4.944000000000000000e+03 2.836238670349121094e+01 -1.414757847785949707e+00 -2.434181690216064453e+00 -2.684817090630531311e-02 -7.383089661598205566e-01 -4.206773340702056885e-01
4.945000000000000000e+03 2.792315673828125000e+01 -1.418533086776733398e+00 -2.360897779464721680e+00 -6.910361349582672119e-02 -7.290003895759582520e-01 -4.167838096618652344e-01
4.946000000000000000e+03 2.775188255310058594e+01 -1.074229359626770020e+00 -2.567327737808227539e+00 -6.571908295154571533e-02 -7.899140119552612305e-01 -3.646157085895538330e-01
4.947000000000000000e+03 2.768674468994140625e+01 -1.447214603424072266e+00 -2.306110382080078125e+00 -9.741885960102081299e-02 -7.210587859153747559e-01 -4.175100922584533691e-01
4.948000000000000000e+03 2.744003677368164062e+01 -5.022587180137634277e-01 -2.918569087982177734e+00 -4.200713708996772766e-02 -8.881728053092956543e-01 -3.032771646976470947e-01
4.949000000000000000e+03 2.764735794067382812e+01 -7.030430436134338379e-01 -2.798904418945312500e+00 -4.951115697622299194e-02 -8.545246720314025879e-01 -3.225685954093933105e-01
4.950000000000000000e+03 2.803458213806152344e+01 -6.944524645805358887e-01 -2.838841199874877930e+00 -4.785761982202529907e-02 -8.660095930099487305e-01 -3.389198482036590576e-01
4.951000000000000000e+03 2.716103935241699219e+01 8.718845844268798828e-01 2.843390032649040222e-02 2.590443566441535950e-02 1.630150154232978821e-02 -2.933158539235591888e-02
4.952000000000000000e+03 2.656223297119140625e+01 4.945255815982818604e-01 -9.068915992975234985e-02 7.622985541820526123e-02 -4.337791353464126587e-03 -4.647120833396911621e-02
4.953000000000000000e+03 2.686352920532226562e+01 -1.615345478057861328e+00 -1.971211194992065430e+00 -2.299517691135406494e-01 -6.603488922119140625e-01 -4.220035374164581299e-01
4.954000000000000000e+03 2.653672027587890625e+01 -1.884754896163940430e+00 -1.679523110389709473e+00 -2.536459863185882568e-01 -5.799507498741149902e-01 -5.457316040992736816e-01
4.955000000000000000e+03 2.632029342651367188e+01 -1.903447628021240234e+00 -1.613438248634338379e+00 -2.000984847545623779e-01 -5.440610051155090332e-01 -5.878249406814575195e-01
4.956000000000000000e+03 2.542119216918945312e+01 2.913774251937866211e-01 -3.086838722229003906e-01 -1.430430412292480469e-01 -1.355180740356445312e-01 1.177452579140663147e-01
4.957000000000000000e+03 2.530577659606933594e+01 3.775547146797180176e-01 -2.732961475849151611e-01 -1.225117668509483337e-01 -1.187423691153526306e-01 1.060723140835762024e-01
4.958000000000000000e+03 2.673913955688476562e+01 9.652376174926757812e-01 6.338656693696975708e-02 6.642448157072067261e-02 3.894331306219100952e-02 -7.746237516403198242e-02
4.959000000000000000e+03 2.691065597534179688e+01 9.572267532348632812e-01 6.216686964035034180e-02 4.188432171940803528e-02 3.121535666286945343e-02 -5.954512581229209900e-02
4.960000000000000000e+03 2.502824020385742188e+01 2.314311861991882324e-01 -3.728871047496795654e-01 -8.567368239164352417e-02 -1.375682353973388672e-01 9.522088617086410522e-02
4.961000000000000000e+03 2.507358169555664062e+01 -5.470762252807617188e-01 -9.970138072967529297e-01 4.234047234058380127e-02 -2.864019870758056641e-01 5.163990333676338196e-02
4.962000000000000000e+03 2.704986381530761719e+01 6.634962558746337891e-01 -1.669272035360336304e-02 5.621983483433723450e-02 1.185813453048467636e-02 -3.693643957376480103e-02
4.963000000000000000e+03 2.487689590454101562e+01 -1.669925600290298462e-01 -6.840268373489379883e-01 4.009623080492019653e-03 -2.040051519870758057e-01 1.109721437096595764e-01
4.964000000000000000e+03 2.913160896301269531e+01 -6.978766322135925293e-01 -2.893021821975708008e+00 -4.041085951030254364e-03 -8.691188693046569824e-01 -3.250632882118225098e-01
4.965000000000000000e+03 2.886347579956054688e+01 -4.104328453540802002e-01 -3.072488546371459961e+00 -2.561742439866065979e-02 -9.294317364692687988e-01 -3.257282376289367676e-01
4.966000000000000000e+03 2.954154586791992188e+01 -6.111316680908203125e-01 -2.941810369491577148e+00 4.782041069120168686e-03 -8.811084628105163574e-01 -2.911747097969055176e-01
4.967000000000000000e+03 2.988592720031738281e+01 -3.011800348758697510e-01 -3.068643808364868164e+00 -3.213540464639663696e-02 -9.302337765693664551e-01 -2.859805524349212646e-01
4.968000000000000000e+03 3.047628402709960938e+01 -2.706106901168823242e-01 -2.896406650543212891e+00 6.080931052565574646e-02 -8.506792187690734863e-01 -2.057553529739379883e-01
4.969000000000000000e+03 2.831880378723144531e+01 4.833793938159942627e-01 -5.368897109292447567e-04 -1.143567380495369434e-03 -5.041371332481503487e-04 6.752278422936797142e-04
4.970000000000000000e+03 2.911303520202636719e+01 3.305088281631469727e-01 2.285969458171166480e-06 -1.048703343258239329e-04 -3.077531073358841240e-05 1.836456613091286272e-05
4.971000000000000000e+03 2.596808815002441406e+01 -1.566657185554504395e+00 -1.657275915145874023e+00 -1.949887722730636597e-01 -5.556793808937072754e-01 -5.309422016143798828e-01
4.972000000000000000e+03 2.621855926513671875e+01 -1.727860927581787109e+00 -1.600103855133056641e+00 -2.015105932950973511e-01 -5.404843091964721680e-01 -5.340197682380676270e-01
4.973000000000000000e+03 2.665574264526367188e+01 -1.670958757400512695e+00 -1.829322576522827148e+00 -2.595190107822418213e-01 -6.266524791717529297e-01 -4.610466957092285156e-01
4.974000000000000000e+03 2.846273994445800781e+01 -2.514259889721870422e-02 3.925237979274243116e-04 -6.828564801253378391e-04 -8.709981193533167243e-05 -2.785124524962157011e-04
4.975000000000000000e+03 2.823483848571777344e+01 2.807835116982460022e-02 5.294617731124162674e-04 -4.314576290198601782e-05 1.458948099752888083e-04 -9.160120971500873566e-04
4.976000000000000000e+03 2.766182136535644531e+01 -9.075917005538940430e-01 -2.659461021423339844e+00 -4.976515844464302063e-02 -8.127678632736206055e-01 -3.399225771427154541e-01
4.977000000000000000e+03 3.074271583557128906e+01 -1.065460920333862305e+00 -2.874503850936889648e+00 2.230530232191085815e-01 -7.954352498054504395e-01 -1.068289577960968018e-01
4.978000000000000000e+03 3.027247810363769531e+01 -8.734555840492248535e-01 -2.839396476745605469e+00 1.456347703933715820e-01 -8.081285357475280762e-01 -1.642996370792388916e-01
4.979000000000000000e+03 2.492745590209960938e+01 -6.808144450187683105e-01 -1.039970397949218750e+00 1.189928725361824036e-01 -2.762932777404785156e-01 -6.944758445024490356e-02
4.980000000000000000e+03 2.994399070739746094e+01 -9.906327724456787109e-01 -2.787781953811645508e+00 1.066666096448898315e-01 -8.043345808982849121e-01 -2.339849174022674561e-01
4.981000000000000000e+03 2.980185317993164062e+01 -1.050683498382568359e+00 -2.751334667205810547e+00 8.038455992937088013e-02 -8.012850284576416016e-01 -2.544311583042144775e-01
4.982000000000000000e+03 2.816070175170898438e+01 -1.180420279502868652e+00 -2.531267404556274414e+00 -4.332364350557327271e-02 -7.723773121833801270e-01 -3.935581743717193604e-01
4.983000000000000000e+03 2.835287284851074219e+01 -1.187522649765014648e+00 -2.550166845321655273e+00 -3.724889457225799561e-02 -7.762247323989868164e-01 -3.852366209030151367e-01
4.984000000000000000e+03 2.819769477844238281e+01 -9.494147300720214844e-01 -2.702500104904174805e+00 -4.356244951486587524e-02 -8.238187432289123535e-01 -3.632387518882751465e-01
4.985000000000000000e+03 2.871496963500976562e+01 -1.038137078285217285e+00 -2.692706823348999023e+00 -2.551344782114028931e-02 -8.154661059379577637e-01 -3.688750565052032471e-01
4.986000000000000000e+03 3.079138374328613281e+01 -5.324212312698364258e-01 -2.812185049057006836e+00 1.708244830369949341e-01 -7.924082279205322266e-01 -1.281970888376235962e-01
4.987000000000000000e+03 2.940887069702148438e+01 -8.685036301612854004e-01 -2.826932430267333984e+00 1.745533756911754608e-02 -8.428431153297424316e-01 -3.050034344196319580e-01
4.988000000000000000e+03 3.016384696960449219e+01 -5.854021906852722168e-01 -2.891539812088012695e+00 3.167772293090820312e-02 -8.579586148262023926e-01 -1.915257871150970459e-01
4.989000000000000000e+03 3.051674270629882812e+01 -5.657013654708862305e-01 -2.808021783828735352e+00 1.315020918846130371e-01 -8.029559254646301270e-01 -7.785472273826599121e-02
4.990000000000000000e+03 2.748492050170898438e+01 -1.515446901321411133e+00 -2.224022865295410156e+00 -1.171467304229736328e-01 -7.023508548736572266e-01 -4.234464764595031738e-01
4.991000000000000000e+03 3.044175529479980469e+01 -8.363916277885437012e-01 -2.869413137435913086e+00 1.646104753017425537e-01 -8.114408254623413086e-01 -1.104766055941581726e-01
4.992000000000000000e+03 2.958901405334472656e+01 -8.487625122070312500e-01 -2.839615106582641602e+00 2.204764448106288910e-02 -8.452702164649963379e-01 -2.793471515178680420e-01
4.993000000000000000e+03 2.782859802246093750e+01 -8.955772519111633301e-01 -2.692318916320800781e+00 -5.783466249704360962e-02 -8.250460624694824219e-01 -3.524121642112731934e-01
4.994000000000000000e+03 2.839513969421386719e+01 -9.859659671783447266e-01 -2.693213939666748047e+00 -3.278633579611778259e-02 -8.178001046180725098e-01 -3.745579421520233154e-01
4.995000000000000000e+03 2.794436264038085938e+01 -1.159523010253906250e+00 -2.530627965927124023e+00 -6.465998291969299316e-02 -7.785863876342773438e-01 -3.766899108886718750e-01
4.996000000000000000e+03 2.647685241699218750e+01 9.727759361267089844e-01 4.963203519582748413e-02 4.946299642324447632e-02 2.972850948572158813e-02 -8.428960293531417847e-02
4.997000000000000000e+03 2.610982894897460938e+01 9.217603206634521484e-01 -1.852323068305850029e-03 3.832885064184665680e-03 5.941686104051768780e-04 -5.636170506477355957e-02
4.998000000000000000e+03 2.501363372802734375e+01 4.009114503860473633e-01 -2.702890038490295410e-01 -1.432318091392517090e-01 -1.240562424063682556e-01 1.100226715207099915e-01
4.999000000000000000e+03 2.524869537353515625e+01 6.084479093551635742e-01 -1.717255860567092896e-01 -1.056125536561012268e-01 -8.320144563913345337e-02 7.246266305446624756e-02
5.000000000000000000e+03 2.596435928344726562e+01 7.445604801177978516e-01 -7.471126317977905273e-02 -4.485213011503219604e-02 -3.586901724338531494e-02 -3.007800690829753876e-02
5.001000000000000000e+03 2.529867744445800781e+01 5.080273151397705078e-01 -2.212719619274139404e-01 -1.237728074193000793e-01 -1.035134270787239075e-01 1.049781516194343567e-01
5.002000000000000000e+03 2.514510345458984375e+01 4.417403340339660645e-01 -2.788307964801788330e-01 -1.033453121781349182e-01 -1.146528273820877075e-01 1.052734404802322388e-01
5.003000000000000000e+03 2.574004173278808594e+01 8.379517197608947754e-01 -6.756442040205001831e-02 -7.835672795772552490e-02 -4.377634450793266296e-02 -2.070857584476470947e-02
5.004000000000000000e+03 2.540418624877929688e+01 6.995720267295837402e-01 -1.197479143738746643e-01 -1.010674089193344116e-01 -6.624459475278854370e-02 7.416637241840362549e-02
5.005000000000000000e+03 2.562668418884277344e+01 6.353848576545715332e-01 -1.250412315130233765e-01 -1.218165233731269836e-01 -7.405732572078704834e-02 3.228320553898811340e-02
5.006000000000000000e+03 2.546116828918457031e+01 5.738193392753601074e-01 -1.730562001466751099e-01 -1.084354668855667114e-01 -8.444750308990478516e-02 5.250817909836769104e-02
5.007000000000000000e+03 2.579438400268554688e+01 6.921237111091613770e-01 -7.582829147577285767e-02 -7.744887471199035645e-02 -4.598315060138702393e-02 -1.212096400558948517e-02
5.008000000000000000e+03 2.630865478515625000e+01 9.588830471038818359e-01 2.933275885879993439e-02 4.418288171291351318e-02 2.205469273030757904e-02 -8.019571006298065186e-02
5.009000000000000000e+03 2.633842658996582031e+01 8.784570097923278809e-01 -8.852014318108558655e-03 4.334308579564094543e-02 1.034732069820165634e-02 -7.281941175460815430e-02
5.010000000000000000e+03 2.510928726196289062e+01 5.076749920845031738e-01 -2.559747993946075439e-01 -1.085090935230255127e-01 -1.093451678752899170e-01 1.165691539645195007e-01
5.011000000000000000e+03 2.614974594116210938e+01 8.036559820175170898e-01 -1.937234774231910706e-02 2.039623213931918144e-03 -5.199817009270191193e-03 -6.109711527824401855e-02
5.012000000000000000e+03 2.591700744628906250e+01 8.839657902717590332e-01 -3.445846261456608772e-03 -3.761153668165206909e-02 -1.231721509248018265e-02 -4.384468495845794678e-02
5.013000000000000000e+03 2.556867980957031250e+01 7.764952182769775391e-01 -9.464339166879653931e-02 -6.951890140771865845e-02 -4.924868792295455933e-02 1.604171283543109894e-02
5.014000000000000000e+03 3.925119400024414062e+01 3.659583628177642822e-01 -3.119837939739227295e-01 -6.608570367097854614e-02 -1.134208440780639648e-01 2.120291441679000854e-01
5.015000000000000000e+03 3.926422500610351562e+01 -6.637467443943023682e-02 -7.512680292129516602e-01 -1.205722466111183167e-01 -2.615520954132080078e-01 5.126675367355346680e-01
5.016000000000000000e+03 3.853815841674804688e+01 8.006714582443237305e-01 -3.057473897933959961e-01 -1.122266799211502075e-02 -9.509102255105972290e-02 5.636554583907127380e-02
5.017000000000000000e+03 3.856700515747070312e+01 2.940661311149597168e-01 -7.274614572525024414e-01 3.323527052998542786e-02 -2.082678526639938354e-01 2.872040867805480957e-01
5.018000000000000000e+03 3.863258743286132812e+01 -1.873374730348587036e-01 -1.077728509902954102e+00 7.733219116926193237e-02 -3.001188933849334717e-01 4.866062700748443604e-01
5.019000000000000000e+03 3.940476989746093750e+01 9.400728940963745117e-01 -2.437912672758102417e-02 1.526921335607767105e-02 -2.732974011451005936e-03 3.106886707246303558e-02
5.020000000000000000e+03 4.009798812866210938e+01 4.773842692375183105e-01 1.032136753201484680e-01 3.536602482199668884e-02 4.157390817999839783e-02 -9.179819375276565552e-02
5.021000000000000000e+03 3.978098297119140625e+01 1.255261451005935669e-01 -1.942074596881866455e-01 -2.834390103816986084e-01 -1.432939320802688599e-01 2.765902876853942871e-01
5.022000000000000000e+03 2.643321990966796875e+01 -4.614933729171752930e-01 7.116276025772094727e-01 4.414844140410423279e-02 2.267328202724456787e-01 1.945945769548416138e-01
5.023000000000000000e+03 2.662815284729003906e+01 -4.212739467620849609e-01 2.700705230236053467e-01 2.805982157588005066e-02 8.943910151720046997e-02 8.761692792177200317e-02
5.024000000000000000e+03 2.682308387756347656e+01 -3.810544908046722412e-01 1.192634478211402893e-01 1.216028071939945221e-02 3.942711651325225830e-02 4.562380909919738770e-02
5.025000000000000000e+03 2.701801681518554688e+01 -3.408350646495819092e-01 5.354779213666915894e-02 1.054350566118955612e-02 1.922738924622535706e-02 2.633286640048027039e-02
5.026000000000000000e+03 2.641584777832031250e+01 -4.056465029716491699e-01 4.028978347778320312e-01 1.144919320940971375e-01 1.552169322967529297e-01 2.898265123367309570e-01
5.027000000000000000e+03 2.659919929504394531e+01 -3.281958401203155518e-01 1.684217602014541626e-01 1.046290993690490723e-01 8.191525936126708984e-02 1.603671163320541382e-01
5.028000000000000000e+03 2.678255081176757812e+01 -2.507451474666595459e-01 6.808530539274215698e-02 5.090928450226783752e-02 3.569837659597396851e-02 9.424076974391937256e-02
5.029000000000000000e+03 2.696590232849121094e+01 -1.732944548130035400e-01 2.356544509530067444e-02 4.364884644746780396e-02 2.016428671777248383e-02 5.476366728544235229e-02
5.030000000000000000e+03 2.638792037963867188e+01 -3.542579412460327148e-01 1.699759662151336670e-01 1.882079541683197021e-01 1.074551790952682495e-01 2.979927361011505127e-01
5.031000000000000000e+03 2.655265426635742188e+01 -2.425482273101806641e-01 3.263784945011138916e-02 1.499715596437454224e-01 5.478282272815704346e-02 1.568082273006439209e-01
5.032000000000000000e+03 2.671738815307617188e+01 -1.308384984731674194e-01 -1.149973552674055099e-02 1.084174364805221558e-01 2.907531149685382843e-02 1.040860712528228760e-01
5.033000000000000000e+03 2.688212394714355469e+01 -1.912877708673477173e-02 -2.739943377673625946e-02 7.751809060573577881e-02 1.503559760749340057e-02 5.872282758355140686e-02
5.034000000000000000e+03 2.635051155090332031e+01 -3.092997670173645020e-01 -2.773760817945003510e-02 2.260578721761703491e-01 5.949607864022254944e-02 2.410866767168045044e-01
5.035000000000000000e+03 2.649030685424804688e+01 -1.676179021596908569e-01 -7.259109616279602051e-02 1.688614189624786377e-01 2.888109721243381500e-02 1.200931891798973083e-01
5.036000000000000000e+03 2.663010215759277344e+01 -2.593605220317840576e-02 -8.978454768657684326e-02 1.305528879165649414e-01 1.223050337284803391e-02 7.340251654386520386e-02
5.037000000000000000e+03 2.676989746093750000e+01 1.157457977533340454e-01 -7.987248152494430542e-02 1.093506217002868652e-01 8.843442425131797791e-03 3.835698962211608887e-02
5.038000000000000000e+03 2.630505752563476562e+01 -2.724972069263458252e-01 -1.575794219970703125e-01 2.115722298622131348e-01 1.619784347712993622e-02 1.428285688161849976e-01
5.039000000000000000e+03 2.641454887390136719e+01 -1.062803491950035095e-01 -1.529375612735748291e-01 1.398484706878662109e-01 -3.926726058125495911e-03 6.897666305303573608e-02
5.040000000000000000e+03 2.652403831481933594e+01 5.993652343750000000e-02 -1.417241394519805908e-01 1.277604103088378906e-01 -4.189115017652511597e-03 2.898011542856693268e-02
5.041000000000000000e+03 2.663352775573730469e+01 2.261533886194229126e-01 -1.175897195935249329e-01 1.050313562154769897e-01 -3.767510643228888512e-03 3.967659082263708115e-03
5.042000000000000000e+03 2.625329971313476562e+01 -2.452626526355743408e-01 -2.278310656547546387e-01 1.084242984652519226e-01 -3.582203015685081482e-02 5.393467471003532410e-02
5.043000000000000000e+03 2.632828330993652344e+01 -6.088940799236297607e-02 -1.927410066127777100e-01 8.755003660917282104e-02 -3.155729174613952637e-02 1.658386737108230591e-02
5.044000000000000000e+03 2.640326881408691406e+01 1.234838366508483887e-01 -1.770953834056854248e-01 7.670958340167999268e-02 -3.011574037373065948e-02 -6.942401640117168427e-03
5.045000000000000000e+03 2.647825241088867188e+01 3.078570663928985596e-01 -1.328989863395690918e-01 8.204627782106399536e-02 -1.525581069290637970e-02 -3.224516287446022034e-02
5.046000000000000000e+03 2.619722366333007812e+01 -2.286412119865417480e-01 -2.270860075950622559e-01 -3.542586788535118103e-02 -7.875356078147888184e-02 -8.840007358230650425e-04
5.047000000000000000e+03 2.623482513427734375e+01 -3.318699449300765991e-02 -2.257687747478485107e-01 -9.995550848543643951e-03 -7.072930037975311279e-02 -4.006903152912855148e-03
5.048000000000000000e+03 2.627242660522460938e+01 1.622672230005264282e-01 -1.803371906280517578e-01 1.510103791952133179e-02 -4.957084357738494873e-02 -3.359871730208396912e-02
5.049000000000000000e+03 2.631002807617187500e+01 3.577214479446411133e-01 -1.512451320886611938e-01 1.919344440102577209e-02 -3.961550444364547729e-02 -4.469371214509010315e-02
5.050000000000000000e+03 2.613898468017578125e+01 -2.232707291841506958e-01 -2.334153950214385986e-01 -2.143320143222808838e-01 -1.343242228031158447e-01 2.173220366239547729e-02
5.051000000000000000e+03 2.613776016235351562e+01 -2.423619106411933899e-02 -2.267564833164215088e-01 -1.068235263228416443e-01 -1.000740006566047668e-01 -3.244538675062358379e-04
5.052000000000000000e+03 2.613653564453125000e+01 1.747983545064926147e-01 -2.034874260425567627e-01 -7.258614897727966309e-02 -8.282206952571868896e-02 -2.285428531467914581e-02
5.053000000000000000e+03 2.613531112670898438e+01 3.738328814506530762e-01 -1.451523452997207642e-01 -3.858291730284690857e-02 -5.512057617306709290e-02 -4.064907133579254150e-02
5.054000000000000000e+03 2.608081626892089844e+01 -2.293573021888732910e-01 -2.334829866886138916e-01 -3.576330542564392090e-01 -1.773348152637481689e-01 1.046895384788513184e-01
5.055000000000000000e+03 2.604081344604492188e+01 -3.438049182295799255e-02 -2.684129178524017334e-01 -2.069740742444992065e-01 -1.426160931587219238e-01 4.712900146842002869e-02
5.056000000000000000e+03 2.600080871582031250e+01 1.605963259935379028e-01 -2.124823033809661865e-01 -1.453341394662857056e-01 -1.073449328541755676e-01 8.230322971940040588e-03
5.057000000000000000e+03 2.596080589294433594e+01 3.555731475353240967e-01 -1.718904972076416016e-01 -1.111999824643135071e-01 -8.492714166641235352e-02 -1.745953224599361420e-03
5.058000000000000000e+03 2.602495002746582031e+01 -2.466673702001571655e-01 -3.194542825222015381e-01 -4.506154656410217285e-01 -2.310209274291992188e-01 2.359934151172637939e-01
5.059000000000000000e+03 2.594770240783691406e+01 -6.323059648275375366e-02 -3.111873567104339600e-01 -2.741320729255676270e-01 -1.755958199501037598e-01 1.163211241364479065e-01
5.060000000000000000e+03 2.587045478820800781e+01 1.202061772346496582e-01 -2.753018736839294434e-01 -2.048218548297882080e-01 -1.440371274948120117e-01 7.042571157217025757e-02
5.061000000000000000e+03 2.579320716857910156e+01 3.036429584026336670e-01 -2.018770128488540649e-01 -1.627373993396759033e-01 -1.093843281269073486e-01 4.066631570458412170e-02
5.062000000000000000e+03 2.597352981567382812e+01 -2.745366394519805908e-01 -4.493067860603332520e-01 -4.647605121135711670e-01 -2.742201983928680420e-01 3.733477592468261719e-01
5.063000000000000000e+03 2.586200332641601562e+01 -1.096793785691261292e-01 -4.221344888210296631e-01 -3.046013116836547852e-01 -2.180207371711730957e-01 1.989237666130065918e-01
5.064000000000000000e+03 2.575047492980957031e+01 5.517788231372833252e-02 -3.455490767955780029e-01 -2.372303158044815063e-01 -1.748338192701339722e-01 1.369165182113647461e-01
5.065000000000000000e+03 2.563894844055175781e+01 2.200351357460021973e-01 -2.992107272148132324e-01 -1.821441650390625000e-01 -1.444064676761627197e-01 1.041576117277145386e-01
5.066000000000000000e+03 2.592853164672851562e+01 -3.118956089019775391e-01 -6.530876159667968750e-01 -4.165530502796173096e-01 -3.208922147750854492e-01 4.763898551464080811e-01
5.067000000000000000e+03 2.578700256347656250e+01 -1.719443351030349731e-01 -5.576494336128234863e-01 -2.982594370841979980e-01 -2.567726671695709229e-01 2.809980511665344238e-01
5.068000000000000000e+03 2.564547729492187500e+01 -3.199306875467300415e-02 -4.841532111167907715e-01 -2.224954217672348022e-01 -2.119945883750915527e-01 1.942723095417022705e-01
5.069000000000000000e+03 2.550395011901855469e+01 1.079582050442695618e-01 -3.962057828903198242e-01 -1.891478747129440308e-01 -1.756061017513275146e-01 1.566077470779418945e-01
5.070000000000000000e+03 2.589167785644531250e+01 -3.573106229305267334e-01 -8.935821056365966797e-01 -3.339266479015350342e-01 -3.682526350021362305e-01 5.243580937385559082e-01
5.071000000000000000e+03 2.572558212280273438e+01 -2.476360350847244263e-01 -7.250521183013916016e-01 -2.526571452617645264e-01 -2.933127880096435547e-01 3.378306031227111816e-01
5.072000000000000000e+03 2.555948638916015625e+01 -1.379614472389221191e-01 -6.573378443717956543e-01 -1.867040693759918213e-01 -2.532125711441040039e-01 2.480891495943069458e-01
5.073000000000000000e+03 2.539339256286621094e+01 -2.828685194253921509e-02 -5.654352903366088867e-01 -1.340116262435913086e-01 -2.098340690135955811e-01 1.702022701501846313e-01
5.074000000000000000e+03 2.586438560485839844e+01 -4.090388715267181396e-01 -1.120322942733764648e+00 -2.335519492626190186e-01 -4.061624705791473389e-01 5.207073688507080078e-01
5.075000000000000000e+03 2.568009567260742188e+01 -3.338497877120971680e-01 -9.301378726959228516e-01 -1.983649283647537231e-01 -3.385508358478546143e-01 3.559885919094085693e-01
5.076000000000000000e+03 2.549580574035644531e+01 -2.586606740951538086e-01 -8.274036049842834473e-01 -1.198293417692184448e-01 -2.841698825359344482e-01 2.737833261489868164e-01
5.077000000000000000e+03 2.531151580810546875e+01 -1.834715753793716431e-01 -7.975824475288391113e-01 -7.447662204504013062e-02 -2.616177201271057129e-01 2.024974226951599121e-01
5.078000000000000000e+03 2.584770202636718750e+01 -4.650952517986297607e-01 -1.341326355934143066e+00 -1.742154061794281006e-01 -4.546625316143035889e-01 4.645671546459197998e-01
5.079000000000000000e+03 2.565229034423828125e+01 -4.272770583629608154e-01 -1.126177549362182617e+00 -1.159924417734146118e-01 -3.726509809494018555e-01 3.431131541728973389e-01
5.080000000000000000e+03 2.545687675476074219e+01 -3.894588649272918701e-01 -1.022375464439392090e+00 -6.698898971080780029e-02 -3.268093168735504150e-01 2.526692152023315430e-01
5.081000000000000000e+03 2.526146507263183594e+01 -3.516406714916229248e-01 -9.474130868911743164e-01 -2.026019990444183350e-02 -2.903019785881042480e-01 2.159766256809234619e-01
5.082000000000000000e+03 2.584226799011230469e+01 -5.233285427093505859e-01 -1.516055464744567871e+00 -1.208277568221092224e-01 -4.910649657249450684e-01 3.968967199325561523e-01
5.083000000000000000e+03 2.564323234558105469e+01 -5.243325233459472656e-01 -1.331842660903930664e+00 -6.079867109656333923e-02 -4.177924096584320068e-01 2.817976474761962891e-01
5.084000000000000000e+03 2.544419670104980469e+01 -5.253365635871887207e-01 -1.195390582084655762e+00 -4.553427919745445251e-03 -3.599831759929656982e-01 1.987930983304977417e-01
5.085000000000000000e+03 2.524516105651855469e+01 -5.263405442237854004e-01 -1.073564887046813965e+00 1.220792625099420547e-02 -3.184070885181427002e-01 1.386404931545257568e-01
5.086000000000000000e+03 2.584828948974609375e+01 -5.815040469169616699e-01 -1.675641894340515137e+00 -1.172886490821838379e-01 -5.378791689872741699e-01 3.181069791316986084e-01
5.087000000000000000e+03 2.565326881408691406e+01 -6.212916970252990723e-01 -1.510927677154541016e+00 9.589347173459827900e-04 -4.529906213283538818e-01 1.989914476871490479e-01
5.088000000000000000e+03 2.545824813842773438e+01 -6.610794067382812500e-01 -1.365623235702514648e+00 2.186359465122222900e-02 -4.031279087066650391e-01 9.331721067428588867e-02
5.089000000000000000e+03 2.526322746276855469e+01 -7.008671164512634277e-01 -1.217860698699951172e+00 6.396330893039703369e-02 -3.461692333221435547e-01 1.418247725814580917e-02
5.090000000000000000e+03 2.586553764343261719e+01 -6.373892426490783691e-01 -1.818591713905334473e+00 -1.072211414575576782e-01 -5.777438282966613770e-01 2.472195625305175781e-01
5.091000000000000000e+03 2.568201637268066406e+01 -7.144337892532348633e-01 -1.664727568626403809e+00 1.395829580724239349e-02 -4.952307939529418945e-01 8.875972777605056763e-02
5.092000000000000000e+03 2.549849319458007812e+01 -7.914782762527465820e-01 -1.515204787254333496e+00 5.404971912503242493e-02 -4.383465051651000977e-01 -2.294144406914710999e-02
5.093000000000000000e+03 2.531497192382812500e+01 -8.685227036476135254e-01 -1.412696003913879395e+00 7.947086542844772339e-02 -3.999675214290618896e-01 -1.264809519052505493e-01
5.094000000000000000e+03 2.589335060119628906e+01 -6.888395547866821289e-01 -1.949677467346191406e+00 -1.071134209632873535e-01 -6.170372962951660156e-01 1.691140830516815186e-01
5.095000000000000000e+03 2.572836875915527344e+01 -8.001842498779296875e-01 -1.792491912841796875e+00 2.545123861636966467e-04 -5.376712083816528320e-01 -1.994739286601543427e-02
5.096000000000000000e+03 2.556338882446289062e+01 -9.115288853645324707e-01 -1.637250185012817383e+00 5.168217793107032776e-02 -4.756703972816467285e-01 -1.500806361436843872e-01
5.097000000000000000e+03 2.539840888977050781e+01 -1.022873520851135254e+00 -1.564402103424072266e+00 7.717714458703994751e-02 -4.461674988269805908e-01 -2.164443880319595337e-01
5.098000000000000000e+03 2.593066024780273438e+01 -7.338804602622985840e-01 -2.097687482833862305e+00 -1.343909502029418945e-01 -6.696234941482543945e-01 9.470377862453460693e-02
5.099000000000000000e+03 2.579055213928222656e+01 -8.752524256706237793e-01 -1.860007286071777344e+00 -3.503787890076637268e-02 -5.685135126113891602e-01 -1.378943026065826416e-01
5.100000000000000000e+03 2.565044403076171875e+01 -1.016624450683593750e+00 -1.748997688293457031e+00 8.725139312446117401e-03 -5.220817923545837402e-01 -2.319533675909042358e-01
5.101000000000000000e+03 2.551033592224121094e+01 -1.157996416091918945e+00 -1.622166991233825684e+00 4.471880197525024414e-02 -4.732344448566436768e-01 -3.236928880214691162e-01
5.102000000000000000e+03 2.597603416442871094e+01 -7.707836031913757324e-01 -2.166759729385375977e+00 -1.542633920907974243e-01 -6.963068842887878418e-01 -7.865348830819129944e-03
5.103000000000000000e+03 2.586617469787597656e+01 -9.367576241493225098e-01 -1.957116365432739258e+00 -1.195960864424705505e-01 -6.230137348175048828e-01 -2.088820934295654297e-01
5.104000000000000000e+03 2.575631713867187500e+01 -1.102731585502624512e+00 -1.761502981185913086e+00 -5.947170034050941467e-02 -5.462923645973205566e-01 -3.206078112125396729e-01
5.105000000000000000e+03 2.564645767211914062e+01 -1.268705606460571289e+00 -1.696392774581909180e+00 -1.513667497783899307e-02 -5.134588479995727539e-01 -3.674770593643188477e-01
5.106000000000000000e+03 2.602773094177246094e+01 -7.981326580047607422e-01 -2.289772272109985352e+00 -2.451971918344497681e-01 -7.604908347129821777e-01 -8.571888506412506104e-02
5.107000000000000000e+03 2.595233917236328125e+01 -9.823395013809204102e-01 -1.945145010948181152e+00 -1.967141628265380859e-01 -6.425577402114868164e-01 -2.669246494770050049e-01
5.108000000000000000e+03 2.587694549560546875e+01 -1.166546225547790527e+00 -1.848365426063537598e+00 -1.556466072797775269e-01 -6.012036204338073730e-01 -3.602165877819061279e-01
5.109000000000000000e+03 2.580155181884765625e+01 -1.350752949714660645e+00 -1.642890214920043945e+00 -1.244815289974212646e-01 -5.302115082740783691e-01 -4.217404127120971680e-01
5.110000000000000000e+03 2.608376884460449219e+01 -8.148782849311828613e-01 -2.266819477081298828e+00 -3.326911628246307373e-01 -7.798531651496887207e-01 -1.420091241598129272e-01
5.111000000000000000e+03 2.604573440551757812e+01 -1.010248780250549316e+00 -2.040248632431030273e+00 -3.043330609798431396e-01 -7.033745050430297852e-01 -2.780157625675201416e-01
5.112000000000000000e+03 2.600769996643066406e+01 -1.205619215965270996e+00 -1.820690870285034180e+00 -2.338774353265762329e-01 -6.163704991340637207e-01 -3.715726733207702637e-01
5.113000000000000000e+03 2.596966552734375000e+01 -1.400989651679992676e+00 -1.743059396743774414e+00 -2.303817868232727051e-01 -5.920323729515075684e-01 -4.742834568023681641e-01
5.114000000000000000e+03 2.614199638366699219e+01 -8.203776478767395020e-01 -2.341329097747802734e+00 -4.744037389755249023e-01 -8.447198867797851562e-01 -1.505274772644042969e-01
5.115000000000000000e+03 2.614278030395507812e+01 -1.019414424896240234e+00 -2.035900115966796875e+00 -3.636691272258758545e-01 -7.198707461357116699e-01 -2.440957129001617432e-01
5.116000000000000000e+03 2.614356422424316406e+01 -1.218451261520385742e+00 -1.922161579132080078e+00 -3.225172162055969238e-01 -6.734036803245544434e-01 -3.647789657115936279e-01
5.117000000000000000e+03 2.614434814453125000e+01 -1.417487978935241699e+00 -1.774448752403259277e+00 -2.549878656864166260e-01 -6.088309884071350098e-01 -4.510628581047058105e-01
5.118000000000000000e+03 2.620017814636230469e+01 -8.144198656082153320e-01 -2.331589937210083008e+00 -5.539698600769042969e-01 -8.656679391860961914e-01 -7.946202158927917480e-02
5.119000000000000000e+03 2.623974990844726562e+01 -1.009484767913818359e+00 -2.154906988143920898e+00 -4.305824339389801025e-01 -7.756468057632446289e-01 -1.995516121387481689e-01
5.120000000000000000e+03 2.627932167053222656e+01 -1.204549789428710938e+00 -1.970352768898010254e+00 -3.390386104583740234e-01 -6.928173899650573730e-01 -3.102151453495025635e-01
5.121000000000000000e+03 2.631889343261718750e+01 -1.399614572525024414e+00 -1.888958215713500977e+00 -3.008035719394683838e-01 -6.569285392761230469e-01 -4.020450413227081299e-01
5.122000000000000000e+03 2.625608253479003906e+01 -7.972335815429687500e-01 -2.449749708175659180e+00 -6.182635426521301270e-01 -9.204039573669433594e-01 1.581094786524772644e-02
5.123000000000000000e+03 2.633292388916015625e+01 -9.808409214019775391e-01 -2.237907409667968750e+00 -4.152597188949584961e-01 -7.959501147270202637e-01 -1.219502016901969910e-01
5.124000000000000000e+03 2.640976524353027344e+01 -1.164448261260986328e+00 -2.120422601699829102e+00 -3.563904464244842529e-01 -7.430439591407775879e-01 -2.539437711238861084e-01
5.125000000000000000e+03 2.648660659790039062e+01 -1.348055601119995117e+00 -1.972255468368530273e+00 -2.940492630004882812e-01 -6.798914074897766113e-01 -3.362049162387847900e-01
5.126000000000000000e+03 2.630756378173828125e+01 -7.694782018661499023e-01 -2.586864233016967773e+00 -5.593264698982238770e-01 -9.438571929931640625e-01 1.395739763975143433e-01
5.127000000000000000e+03 2.641872596740722656e+01 -9.345819354057312012e-01 -2.409794569015502930e+00 -3.926018178462982178e-01 -8.407189249992370605e-01 -6.930732727050781250e-02
5.128000000000000000e+03 2.652988815307617188e+01 -1.099685668945312500e+00 -2.249309301376342773e+00 -3.089827299118041992e-01 -7.674875855445861816e-01 -1.847269237041473389e-01
5.129000000000000000e+03 2.664105033874511719e+01 -1.264789462089538574e+00 -2.150462150573730469e+00 -2.857739329338073730e-01 -7.308708429336547852e-01 -2.877531349658966064e-01
5.130000000000000000e+03 2.635264587402343750e+01 -7.322189211845397949e-01 -2.822309494018554688e+00 -4.538207054138183594e-01 -9.828390479087829590e-01 2.082260102033615112e-01
5.131000000000000000e+03 2.649386215209960938e+01 -8.724831342697143555e-01 -2.575931310653686523e+00 -3.028332591056823730e-01 -8.636293411254882812e-01 -2.974020130932331085e-02
5.132000000000000000e+03 2.663508033752441406e+01 -1.012747406959533691e+00 -2.429783105850219727e+00 -2.628563344478607178e-01 -8.077918291091918945e-01 -1.487480700016021729e-01
5.133000000000000000e+03 2.677629661560058594e+01 -1.153011679649353027e+00 -2.323729515075683594e+00 -2.284282892942428589e-01 -7.656473517417907715e-01 -2.403814047574996948e-01
5.134000000000000000e+03 2.638959884643554688e+01 -6.868855953216552734e-01 -3.074801445007324219e+00 -2.729952335357666016e-01 -1.004338979721069336e+00 2.036028504371643066e-01
5.135000000000000000e+03 2.655545234680175781e+01 -7.969276309013366699e-01 -2.763446569442749023e+00 -2.158642113208770752e-01 -8.937932848930358887e-01 -3.815368562936782837e-02
5.136000000000000000e+03 2.672130393981933594e+01 -9.069696068763732910e-01 -2.597631454467773438e+00 -1.881354302167892456e-01 -8.357300162315368652e-01 -1.403289884328842163e-01
5.137000000000000000e+03 2.688715744018554688e+01 -1.017011642456054688e+00 -2.511248826980590820e+00 -1.650303751230239868e-01 -8.028837442398071289e-01 -2.147110104560852051e-01
5.138000000000000000e+03 2.641700553894042969e+01 -6.352178454399108887e-01 -3.303446531295776367e+00 -1.008477061986923218e-01 -1.021288275718688965e+00 1.002413779497146606e-01
5.139000000000000000e+03 2.660112953186035156e+01 -7.108147740364074707e-01 -2.926076173782348633e+00 -1.305588930845260620e-01 -9.169905185699462891e-01 -8.829364925622940063e-02
5.140000000000000000e+03 2.678525352478027344e+01 -7.864116430282592773e-01 -2.762853622436523438e+00 -1.145291253924369812e-01 -8.632148504257202148e-01 -1.658548116683959961e-01
5.141000000000000000e+03 2.696937561035156250e+01 -8.620085120201110840e-01 -2.664064407348632812e+00 -1.098576113581657410e-01 -8.321766257286071777e-01 -2.200371325016021729e-01
5.142000000000000000e+03 2.643381309509277344e+01 -5.791985392570495605e-01 -3.459677219390869141e+00 8.005696348845958710e-03 -1.035501480102539062e+00 -9.349390119314193726e-02
5.143000000000000000e+03 2.662914276123046875e+01 -6.174492239952087402e-01 -3.032023429870605469e+00 -6.809846311807632446e-02 -9.300365447998046875e-01 -1.656458377838134766e-01
5.144000000000000000e+03 2.682447052001953125e+01 -6.556999087333679199e-01 -2.904863595962524414e+00 -6.945338100194931030e-02 -8.922951221466064453e-01 -2.063221633434295654e-01
5.145000000000000000e+03 2.701979827880859375e+01 -6.939505934715270996e-01 -2.817617416381835938e+00 -3.887388482689857483e-02 -8.569474220275878906e-01 -2.612785398960113525e-01
5.146000000000000000e+03 2.643937683105468750e+01 -5.209773778915405273e-01 -3.447748184204101562e+00 3.494475409388542175e-02 -1.023841023445129395e+00 -3.006502389907836914e-01
5.147000000000000000e+03 2.663841629028320312e+01 -5.204139947891235352e-01 -3.135443449020385742e+00 -6.778448820114135742e-02 -9.609683752059936523e-01 -2.438887357711791992e-01
5.148000000000000000e+03 2.683745193481445312e+01 -5.198506116867065430e-01 -2.977465867996215820e+00 -8.610075339674949646e-03 -8.958228230476379395e-01 -2.828510999679565430e-01
5.149000000000000000e+03 2.703648948669433594e+01 -5.192871689796447754e-01 -2.930672883987426758e+00 -4.602297022938728333e-02 -8.930087685585021973e-01 -2.796234488487243652e-01
5.150000000000000000e+03 3.784771728515625000e+01 1.573838591575622559e-01 -1.138342261314392090e+00 1.419093012809753418e-01 -2.989298701286315918e-01 2.287352234125137329e-01
5.151000000000000000e+03 3.725452804565429688e+01 -4.614862799644470215e-01 -1.747807145118713379e+00 2.875176370143890381e-01 -4.380868673324584961e-01 3.310681283473968506e-01
5.152000000000000000e+03 3.576796340942382812e+01 -2.034789621829986572e-01 -1.972866892814636230e+00 5.492188408970832825e-02 -5.753834843635559082e-01 -1.275358647108078003e-01
5.153000000000000000e+03 3.773318862915039062e+01 6.399024128913879395e-01 -8.016930818557739258e-01 5.596330761909484863e-02 -2.237189412117004395e-01 8.080532774329185486e-03
5.154000000000000000e+03 3.793711853027343750e+01 -3.290801048278808594e-01 -1.453345656394958496e+00 2.064959108829498291e-01 -3.740549385547637939e-01 4.648637473583221436e-01
5.155000000000000000e+03 3.579476928710937500e+01 1.557014137506484985e-01 -2.022483587265014648e+00 3.004519827663898468e-02 -5.977315306663513184e-01 -2.433503866195678711e-01
5.156000000000000000e+03 3.544619369506835938e+01 -5.567274093627929688e-01 -2.258060216903686523e+00 2.130621522665023804e-01 -6.134994626045227051e-01 -1.138943508267402649e-01
5.157000000000000000e+03 3.542301177978515625e+01 -3.483869433403015137e-01 -2.119673490524291992e+00 7.994011789560317993e-02 -6.119200587272644043e-01 -1.145315840840339661e-01
5.158000000000000000e+03 3.557382965087890625e+01 -9.237620830535888672e-01 -2.327997207641601562e+00 3.081525564193725586e-01 -6.059533953666687012e-01 3.005361184477806091e-03
5.159000000000000000e+03 3.620565032958984375e+01 -5.708550214767456055e-01 -2.069306135177612305e+00 2.355109602212905884e-01 -5.501385927200317383e-01 1.380432844161987305e-01
5.160000000000000000e+03 3.543449020385742188e+01 -7.468969821929931641e-01 -2.387887239456176758e+00 2.788799703121185303e-01 -6.327022314071655273e-01 -9.305072575807571411e-02
5.161000000000000000e+03 3.575466537475585938e+01 -7.140525579452514648e-01 -2.257127285003662109e+00 2.890897691249847412e-01 -5.904112458229064941e-01 -8.591813966631889343e-03
5.162000000000000000e+03 3.536248397827148438e+01 8.274657279253005981e-02 -2.147836446762084961e+00 -7.319862954318523407e-03 -6.465468406677246094e-01 -2.502307295799255371e-01
5.163000000000000000e+03 3.537422180175781250e+01 -1.330137997865676880e-01 -2.145527124404907227e+00 1.474573928862810135e-02 -6.392343640327453613e-01 -2.786994874477386475e-01
5.164000000000000000e+03 3.720196914672851562e+01 2.339655533432960510e-02 -1.455278158187866211e+00 1.233116686344146729e-01 -3.995899558067321777e-01 1.917270720005035400e-01
5.165000000000000000e+03 3.633927154541015625e+01 3.176230490207672119e-01 -1.777851462364196777e+00 1.145356521010398865e-02 -5.299193859100341797e-01 -1.689245402812957764e-01
5.166000000000000000e+03 3.702178573608398438e+01 4.951345026493072510e-01 -1.299813747406005859e+00 -3.152646357193589211e-03 -3.908899426460266113e-01 -7.966832816600799561e-02
5.167000000000000000e+03 3.670540237426757812e+01 -2.419523298740386963e-01 -1.753245711326599121e+00 1.667295098304748535e-01 -4.759548604488372803e-01 1.568331420421600342e-01
5.168000000000000000e+03 3.540359497070312500e+01 3.248628079891204834e-01 -2.128215074539184570e+00 -4.371694102883338928e-02 -6.515796184539794922e-01 -3.356067240238189697e-01
5.169000000000000000e+03 2.680468750000000000e+01 1.088164567947387695e+00 1.014800071716308594e-01 4.584769159555435181e-02 4.419830814003944397e-02 -6.418564915657043457e-02
5.170000000000000000e+03 3.282873153686523438e+01 1.759412050247192383e+00 2.774868517008144408e-05 -4.170029133092612028e-04 -1.167762675322592258e-04 -5.113640872878022492e-05
5.171000000000000000e+03 3.256165695190429688e+01 1.791955471038818359e+00 4.098618228454142809e-04 4.444811493158340454e-04 2.563028829172253609e-04 -1.906505203805863857e-04
5.172000000000000000e+03 3.268337631225585938e+01 1.737726449966430664e+00 -3.113526909146457911e-04 3.609032719396054745e-04 1.486516703153029084e-05 -2.636869248817674816e-05
5.173000000000000000e+03 3.273002243041992188e+01 1.890288829803466797e+00 1.203698455356061459e-03 1.863768120529130101e-04 4.170225874986499548e-04 -3.920964663848280907e-04
5.174000000000000000e+03 3.914461517333984375e+01 2.359752893447875977e+00 8.182972087524831295e-04 -4.937418852932751179e-04 9.736659558257088065e-05 -1.997787039726972580e-04
5.175000000000000000e+03 3.842591857910156250e+01 1.450954198837280273e+00 1.507129782112315297e-04 3.248973225709050894e-04 1.426830858690664172e-04 -2.396534982835873961e-04
5.176000000000000000e+03 3.827068328857421875e+01 2.174587726593017578e+00 -3.073301049880683422e-04 8.873153274180367589e-05 -6.557957385666668415e-05 1.383513881592079997e-04
5.177000000000000000e+03 3.930421447753906250e+01 1.637129545211791992e+00 -9.845818858593702316e-04 -6.479874136857688427e-04 -4.897707840427756310e-04 6.774210487492382526e-04
5.178000000000000000e+03 3.970756530761718750e+01 2.307757139205932617e+00 1.102952868677675724e-03 1.388518139719963074e-03 7.474413141608238220e-04 -4.824628995265811682e-04
5.179000000000000000e+03 3.532656478881835938e+01 1.218266010284423828e+00 1.389064593240618706e-03 -2.112501388182863593e-04 3.533443377818912268e-04 -5.576758485403843224e-05
5.180000000000000000e+03 3.516021347045898438e+01 1.843163371086120605e+00 1.022557262331247330e-03 1.850660628406330943e-04 3.622869844548404217e-04 -1.036536468745907769e-05
5.181000000000000000e+03 3.509786987304687500e+01 1.261741042137145996e+00 -3.486369969323277473e-04 -1.664818846620619297e-04 -1.545356644783169031e-04 -6.568388198502361774e-04
5.182000000000000000e+03 3.551464080810546875e+01 1.057103157043457031e+00 -5.543140578083693981e-04 -4.816921136807650328e-04 -3.108018427155911922e-04 7.097368361428380013e-04
5.183000000000000000e+03 3.518862915039062500e+01 9.300561547279357910e-01 3.782977000810205936e-05 2.495242806617170572e-04 8.620621520094573498e-05 -3.594452864490449429e-04
5.184000000000000000e+03 3.561892700195312500e+01 7.942531704902648926e-01 -5.538483965210616589e-04 -1.439882616978138685e-04 -2.093509974656626582e-04 1.025740129989571869e-04
5.185000000000000000e+03 3.683752059936523438e+01 1.132660150527954102e+00 -8.885245915735140443e-05 1.049809434334747493e-04 4.838544555241242051e-06 -1.174606222775764763e-04
5.186000000000000000e+03 3.744252777099609375e+01 2.003676176071166992e+00 1.569262531120330095e-04 8.306845120387151837e-05 7.199840911198407412e-05 -5.917285307077690959e-05
5.187000000000000000e+03 3.758993148803710938e+01 1.278456091880798340e+00 -1.052835432346910238e-04 -2.561584115028381348e-04 -1.084325849660672247e-04 1.020460113068111241e-04
5.188000000000000000e+03 3.510199737548828125e+01 1.635613560676574707e+00 -5.787893314845860004e-04 4.795258282683789730e-04 -2.977904659928753972e-05 4.472170257940888405e-05
5.189000000000000000e+03 3.585155868530273438e+01 1.316713333129882812e+00 1.440461841411888599e-03 3.377161337994039059e-04 5.334533634595572948e-04 -1.752904936438426375e-04
5.190000000000000000e+03 3.670141983032226562e+01 1.860043287277221680e+00 2.738082548603415489e-04 -9.948462684405967593e-05 5.229709131526760757e-05 1.736312697175890207e-04
5.191000000000000000e+03 3.535565185546875000e+01 5.763555169105529785e-01 4.059562343172729015e-04 6.569101969944313169e-05 1.414941798429936171e-04 -1.065353280864655972e-04
5.192000000000000000e+03 3.511064147949218750e+01 1.445441007614135742e+00 4.663585568778216839e-04 2.905941510107368231e-04 2.270858094561845064e-04 7.512147567467764020e-05
5.193000000000000000e+03 3.613363647460937500e+01 9.247913360595703125e-01 -1.371585967717692256e-04 6.982546437939163297e-06 -3.905281482730060816e-05 3.579927579266950488e-05
5.194000000000000000e+03 3.546948623657226562e+01 1.730145692825317383e+00 3.523764899000525475e-04 -5.443892441689968109e-04 -5.760381827712990344e-05 -1.250097411684691906e-04
5.195000000000000000e+03 3.545494842529296875e+01 1.439249277114868164e+00 -6.752588669769465923e-04 -5.936411907896399498e-04 -3.806700115092098713e-04 -3.898971772287040949e-04
5.196000000000000000e+03 3.598669815063476562e+01 1.795895457267761230e+00 -9.007634944282472134e-04 1.585385762155056000e-04 -2.226674841949716210e-04 4.692429138231091201e-05
5.197000000000000000e+03 3.523711776733398438e+01 7.485983967781066895e-01 -1.537929929327219725e-04 1.937974739121273160e-04 1.200134465761948377e-05 -1.034393426380120218e-04
5.198000000000000000e+03 3.512268447875976562e+01 1.098272919654846191e+00 -2.882583648897707462e-04 3.077264773310162127e-05 -7.724571332801133394e-05 7.828036905266344547e-04
5.199000000000000000e+03 7.138031005859375000e+01 -1.674990081787109375e+01 5.469301831908524036e-04 -3.691284218803048134e-04 5.334052184480242431e-05 1.771383685991168022e-04
5.200000000000000000e+03 7.211955261230468750e+01 -1.671120262145996094e+01 6.715613417327404022e-04 2.129249623976647854e-04 2.653458795975893736e-04 1.911946674226783216e-05
5.201000000000000000e+03 7.071197509765625000e+01 -1.752739334106445312e+01 3.767755115404725075e-04 -4.453851142898201942e-04 -2.058287464024033397e-05 3.787849273066967726e-04
5.202000000000000000e+03 7.287363433837890625e+01 -1.741421890258789062e+01 5.727687967009842396e-04 8.676768629811704159e-05 1.978609361685812473e-04 -3.371322009115829132e-06
5.203000000000000000e+03 7.215311431884765625e+01 -1.745045852661132812e+01 4.585389397107064724e-04 -2.905715373344719410e-04 5.039021925767883658e-05 2.706225786823779345e-04
5.204000000000000000e+03 7.143251037597656250e+01 -1.748818206787109375e+01 3.746996808331459761e-04 2.779823844321072102e-04 1.958046195795759559e-04 7.723843009443953633e-05
5.205000000000000000e+03 7.285870361328125000e+01 -1.667398834228515625e+01 7.132634054869413376e-04 -1.140012973337434232e-04 1.797786389943212271e-04 7.999468652997165918e-05
5.206000000000000000e+03 7.064115142822265625e+01 -1.679008674621582031e+01 3.459237923379987478e-04 4.794052802026271820e-04 2.475987130310386419e-04 5.320017589838244021e-05
5.207000000000000000e+03 7.509190368652343750e+01 -1.672233772277832031e+01 7.286109030246734619e-04 -7.009555702097713947e-05 1.975546038011088967e-04 -3.733609628397971392e-05
5.208000000000000000e+03 7.507875823974609375e+01 -1.746236038208007812e+01 4.501364892348647118e-04 -7.467105024261400104e-05 1.126396309700794518e-04 -2.041176194325089455e-04
5.209000000000000000e+03 7.583750152587890625e+01 -1.675157546997070312e+01 6.185370148159563541e-04 3.184790330124087632e-05 1.951154845301061869e-04 -1.260594290215522051e-04
5.210000000000000000e+03 7.360292816162109375e+01 -1.740974807739257812e+01 5.396860069595277309e-04 -1.715464895823970437e-04 1.104418552131392062e-04 5.086825331090949476e-05
5.211000000000000000e+03 7.434651947021484375e+01 -1.669533538818359375e+01 7.645036093890666962e-04 3.686069248942658305e-05 2.404092956567183137e-04 -4.445715239853598177e-05
5.212000000000000000e+03 7.581685638427734375e+01 -1.749131965637207031e+01 4.230102058500051498e-04 -1.556458187224052381e-06 1.264361198991537094e-04 -6.190252315718680620e-05
5.213000000000000000e+03 7.434088134765625000e+01 -1.743563652038574219e+01 5.718236207030713558e-04 -2.132633926521521062e-05 1.651491766097024083e-04 -3.502296021906659007e-05
5.214000000000000000e+03 7.360105895996093750e+01 -1.666916847229003906e+01 7.568068103864789009e-04 -1.899342896649613976e-05 2.213440166087821126e-04 -1.523129503766540438e-05
5.215000000000000000e+03 7.968632507324218750e+01 -1.742419242858886719e+01 1.043911470333114266e-04 1.398893073201179504e-04 7.328413630602881312e-05 5.549675552174448967e-05
5.216000000000000000e+03 7.850669860839843750e+01 -1.755505180358886719e+01 8.345835522050037980e-05 6.795099761802703142e-05 4.542280294117517769e-05 -1.265031169168651104e-04
5.217000000000000000e+03 7.652082824707031250e+01 -1.751028823852539062e+01 3.643722156994044781e-04 -4.491931031225249171e-05 9.583587234374135733e-05 -3.221642109565436840e-04
5.218000000000000000e+03 7.873721313476562500e+01 -1.681438636779785156e+01 7.161500252550467849e-05 2.418554140604101121e-05 2.874016172427218407e-05 -4.137020005146041512e-05
5.219000000000000000e+03 7.785486602783203125e+01 -1.753419113159179688e+01 2.064932050416246057e-04 2.245045106974430382e-05 6.868309719720855355e-05 -2.305649395566433668e-04
5.220000000000000000e+03 7.802648925781250000e+01 -1.679383087158203125e+01 1.606342411832883954e-04 3.723382906173355877e-05 5.936041998211294413e-05 -5.474846329889260232e-05
5.221000000000000000e+03 7.718931579589843750e+01 -1.751985740661621094e+01 2.295749000040814281e-04 4.265156894689425826e-05 8.166794577846303582e-05 -1.412168057868257165e-04
5.222000000000000000e+03 7.657466888427734375e+01 -1.677053260803222656e+01 4.769830557052046061e-04 1.200307633553165942e-05 1.466958347009494901e-04 -4.370429451228119433e-05
5.223000000000000000e+03 7.909966278076171875e+01 -1.758989524841308594e+01 1.884540397441014647e-04 2.167346428905148059e-05 6.303824920905753970e-05 -1.311429805355146527e-04
5.224000000000000000e+03 7.938906860351562500e+01 -1.684892654418945312e+01 -1.225516607519239187e-04 -8.367819827981293201e-05 -6.186895916471257806e-05 -1.099505534511990845e-04
5.225000000000000000e+03 7.730204772949218750e+01 -1.677979850769042969e+01 3.257613279856741428e-04 -3.039738294319249690e-05 8.860918023856356740e-05 -1.171348631032742560e-04
5.226000000000000000e+03 7.943219757080078125e+01 -1.525699043273925781e+01 1.011799462139606476e-02 2.103562280535697937e-02 9.346085600554943085e-03 6.281631067395210266e-03
5.227000000000000000e+03 7.838642120361328125e+01 -1.516350746154785156e+01 -1.080043613910675049e-02 -1.538881286978721619e-02 -7.856775075197219849e-03 -9.495013509877026081e-04
5.228000000000000000e+03 7.780564117431640625e+01 -1.512424659729003906e+01 -2.605766616761684418e-02 -6.399834062904119492e-03 -9.737250395119190216e-03 -1.940784230828285217e-02
5.229000000000000000e+03 7.662574768066406250e+01 -1.525570678710937500e+01 -4.548159241676330566e-02 2.348732436075806618e-03 -1.293985825031995773e-02 -3.362190723419189453e-02
5.230000000000000000e+03 7.725820159912109375e+01 -1.518011665344238281e+01 -4.120386764407157898e-02 -2.861803397536277771e-02 -2.094656974077224731e-02 -2.558190189301967621e-02
5.231000000000000000e+03 7.888636779785156250e+01 -1.611222648620605469e+01 6.412011105567216873e-03 4.409965127706527710e-03 3.246592823415994644e-03 5.069247912615537643e-03
5.232000000000000000e+03 7.888313293457031250e+01 -1.558502388000488281e+01 -4.455801099538803101e-03 -1.354001183062791824e-02 -5.398743785917758942e-03 8.723923936486244202e-03
5.233000000000000000e+03 7.663484954833984375e+01 -1.599727630615234375e+01 -1.517990138381719589e-02 -1.038080267608165741e-02 -7.668211590498685837e-03 -1.134510897099971771e-02
5.234000000000000000e+03 7.962244415283203125e+01 -1.590537452697753906e+01 1.608748716535046697e-04 7.979332003742456436e-04 2.876424405258148909e-04 5.288645043037831783e-04
5.235000000000000000e+03 7.827157592773437500e+01 -1.562149429321289062e+01 -1.830301131121814251e-03 -1.822173944674432278e-03 -1.095742569305002689e-03 -2.897333353757858276e-03
5.236000000000000000e+03 7.741748809814453125e+01 -1.606798362731933594e+01 2.615328878164291382e-03 5.357034504413604736e-03 2.391709014773368835e-03 -4.349336493760347366e-03
5.237000000000000000e+03 7.816462707519531250e+01 -1.613920974731445312e+01 9.914146736264228821e-03 -8.950736373662948608e-03 2.890230971388518810e-04 -1.637098845094442368e-03
5.238000000000000000e+03 7.763186645507812500e+01 -1.553283691406250000e+01 -6.128925830125808716e-03 -6.974207703024148941e-03 -3.930940292775630951e-03 -6.200033705681562424e-03
5.239000000000000000e+03 7.896445465087890625e+01 -1.517584800720214844e+01 4.601804073899984360e-03 -9.924981743097305298e-03 -1.596953370608389378e-03 -1.581002841703593731e-03
5.240000000000000000e+03 7.435244750976562500e+01 -1.591604232788085938e+01 -1.132015585899353027e-01 1.682832837104797363e-02 -2.891196869313716888e-02 -1.584871113300323486e-02
5.241000000000000000e+03 7.588006591796875000e+01 -1.523305606842041016e+01 -8.067861199378967285e-02 -1.466948352754116058e-02 -2.860442735254764557e-02 -4.332510381937026978e-02
5.242000000000000000e+03 7.359722137451171875e+01 -1.514822292327880859e+01 -1.895326375961303711e-01 1.411243528127670288e-02 -5.262606218457221985e-02 -5.417314916849136353e-02
5.243000000000000000e+03 7.510590362548828125e+01 -1.594404602050781250e+01 -7.504728436470031738e-02 -1.399949658662080765e-02 -2.671403251588344574e-02 -1.700301840901374817e-02
5.244000000000000000e+03 7.359909057617187500e+01 -1.588880252838134766e+01 -1.559113115072250366e-01 -1.764220930635929108e-02 -5.206605792045593262e-02 -1.671566814184188843e-02
5.245000000000000000e+03 7.435808563232421875e+01 -1.517574119567871094e+01 -1.518022418022155762e-01 -8.872967213392257690e-03 -4.820256307721138000e-02 -5.720914155244827271e-02
5.246000000000000000e+03 7.585942077636718750e+01 -1.597279930114746094e+01 -4.045399278402328491e-02 1.018574088811874390e-02 -9.080475196242332458e-03 -1.258104946464300156e-02
5.247000000000000000e+03 7.511904144287109375e+01 -1.520402336120605469e+01 -1.107896417379379272e-01 5.078702699393033981e-03 -3.171328082680702209e-02 -4.854028671979904175e-02
5.248000000000000000e+03 7.132652282714843750e+01 -1.597409629821777344e+01 -1.785889565944671631e-01 1.459778193384408951e-02 -4.919735342264175415e-02 -4.060251638293266296e-03
5.249000000000000000e+03 7.056670379638671875e+01 -1.601350212097167969e+01 -1.500296443700790405e-01 5.689774174243211746e-03 -4.330195859074592590e-02 1.749884150922298431e-02
5.250000000000000000e+03 7.208541107177734375e+01 -1.593443489074707031e+01 -1.903148144483566284e-01 -9.607789106667041779e-03 -5.997678264975547791e-02 -7.324834819883108139e-03
5.251000000000000000e+03 7.284317016601562500e+01 -1.589438438415527344e+01 -1.842129677534103394e-01 1.701036281883716583e-02 -5.016078427433967590e-02 -1.826734282076358795e-02
5.252000000000000000e+03 7.282823944091796875e+01 -1.515415287017822266e+01 -2.184592336416244507e-01 1.924726762808859348e-03 -6.496035307645797729e-02 -3.453252092003822327e-02
5.253000000000000000e+03 7.049587249755859375e+01 -1.527619743347167969e+01 -2.417008876800537109e-01 2.018302865326404572e-02 -6.645535677671432495e-02 1.834563352167606354e-02
5.254000000000000000e+03 7.127433013916015625e+01 -1.523581504821777344e+01 -2.481748461723327637e-01 2.382579259574413300e-02 -6.730471551418304443e-02 1.718799211084842682e-02
5.255000000000000000e+03 7.205184173583984375e+01 -1.519517898559570312e+01 -2.402270287275314331e-01 2.473162673413753510e-02 -6.464862078428268433e-02 -2.528151869773864746e-02
5.256000000000000000e+03 6.809269714355468750e+01 -1.561150836944580078e+01 1.065094098448753357e-01 -2.191543392837047577e-02 2.537819370627403259e-02 -9.581749327480792999e-03
5.257000000000000000e+03 6.902137756347656250e+01 -1.593779945373535156e+01 3.720606118440628052e-02 4.273497685790061951e-02 2.398231066763401031e-02 2.736470662057399750e-02
5.258000000000000000e+03 6.852732849121093750e+01 -1.547273349761962891e+01 -1.022967696189880371e-01 -8.274368196725845337e-02 -5.551213398575782776e-02 6.527398526668548584e-02
5.259000000000000000e+03 6.853373718261718750e+01 -1.628846549987792969e+01 -4.838002100586891174e-02 -1.055091712623834610e-02 -1.767928153276443481e-02 2.232738398015499115e-02
5.260000000000000000e+03 6.976448822021484375e+01 -1.608898162841796875e+01 -9.601385891437530518e-02 -1.711444556713104248e-02 -3.393849357962608337e-02 9.593801223672926426e-04
5.261000000000000000e+03 6.975740051269531250e+01 -1.534004783630371094e+01 -2.099164575338363647e-01 2.072402462363243103e-02 -5.675772950053215027e-02 8.424486964941024780e-02
5.262000000000000000e+03 6.909480285644531250e+01 -1.537976169586181641e+01 -2.491634339094161987e-01 4.147370159626007080e-02 -6.230691820383071899e-02 1.096947789192199707e-01
5.263000000000000000e+03 6.846734619140625000e+01 -1.765766716003417969e+01 -3.677828935906291008e-04 -4.368097870610654354e-04 -2.413777983747422695e-04 4.350495000835508108e-04
5.264000000000000000e+03 6.902794647216796875e+01 -1.774423980712890625e+01 -3.471687959972769022e-04 2.762591611826792359e-05 -9.586285887053236365e-05 -3.277436189819127321e-05
5.265000000000000000e+03 6.989218139648437500e+01 -1.761616897583007812e+01 1.685855531832203269e-04 4.358778242021799088e-04 1.813390117604285479e-04 2.758851915132254362e-04
5.266000000000000000e+03 6.980416870117187500e+01 -1.688065528869628906e+01 8.513464126735925674e-05 -4.018117906525731087e-04 -9.500314627075567842e-05 1.922132360050454736e-04
5.267000000000000000e+03 6.892420196533203125e+01 -1.701133537292480469e+01 4.281096335034817457e-04 5.949993501417338848e-04 3.069326921831816435e-04 -2.898987149819731712e-04
5.268000000000000000e+03 1.639982223510742188e+01 -2.317397296428680420e-01 3.350729644298553467e-01 -6.434881943278014660e-04 1.003288403153419495e-01 -8.755557239055633545e-03
5.269000000000000000e+03 1.798723983764648438e+01 -8.314419388771057129e-01 6.588440388441085815e-02 -3.378592059016227722e-02 9.629545733332633972e-03 -1.178506463766098022e-01
5.270000000000000000e+03 1.645354080200195312e+01 -9.699125885963439941e-01 1.931829601526260376e-01 -2.393950521945953369e-02 5.077303946018218994e-02 -8.233218640089035034e-02
5.271000000000000000e+03 1.875374794006347656e+01 -7.599936723709106445e-01 -1.295728143304586411e-02 -3.164155036211013794e-02 -1.337965019047260284e-02 -1.361871361732482910e-01
5.272000000000000000e+03 1.790756225585937500e+01 -9.563824534416198730e-02 1.723640859127044678e-01 -5.028794985264539719e-03 5.020058527588844299e-02 -2.833453379571437836e-02
5.273000000000000000e+03 1.866109085083007812e+01 -2.537456899881362915e-02 8.184214681386947632e-02 -1.334593631327152252e-02 2.054886333644390106e-02 -3.963133692741394043e-02
5.274000000000000000e+03 1.715376663208007812e+01 -1.644264459609985352e-01 2.560199499130249023e-01 -1.022374350577592850e-02 7.373886555433273315e-02 -1.659221015870571136e-02
5.275000000000000000e+03 1.722046470642089844e+01 -9.014146924018859863e-01 1.358674317598342896e-01 -2.619683369994163513e-02 3.290117904543876648e-02 -9.989321976900100708e-02
5.276000000000000000e+03 1.941230964660644531e+01 7.625918835401535034e-02 -1.327785570174455643e-02 -9.504431858658790588e-03 -6.834686268121004105e-03 -5.051819607615470886e-02
5.277000000000000000e+03 2.090952491760253906e+01 3.449267148971557617e-01 -1.656600981950759888e-01 -6.983995903283357620e-03 -5.179322510957717896e-02 -5.862670391798019409e-02
5.278000000000000000e+03 1.952174568176269531e+01 -6.559218764305114746e-01 -8.855408430099487305e-02 -3.502614796161651611e-02 -3.707407042384147644e-02 -1.441075801849365234e-01
5.279000000000000000e+03 2.106011390686035156e+01 -3.798714280128479004e-01 -2.397500425577163696e-01 -1.162630133330821991e-02 -7.541289925575256348e-02 -1.299176067113876343e-01
5.280000000000000000e+03 2.183077621459960938e+01 -2.417316585779190063e-01 -3.075555264949798584e-01 1.664165593683719635e-02 -8.727416396141052246e-02 -1.073233559727668762e-01
5.281000000000000000e+03 2.165959548950195312e+01 4.794237911701202393e-01 -2.088867127895355225e-01 -2.249652752652764320e-03 -6.334090977907180786e-02 -4.933463037014007568e-02
5.282000000000000000e+03 2.016033744812011719e+01 2.105962187051773071e-01 -9.847958385944366455e-02 -1.518346741795539856e-02 -3.409891575574874878e-02 -5.529195442795753479e-02
5.283000000000000000e+03 2.029035186767578125e+01 -5.178933739662170410e-01 -1.650272756814956665e-01 -2.550766989588737488e-02 -5.716048553586006165e-02 -1.433767229318618774e-01
5.284000000000000000e+03 2.655191993713378906e+01 1.211927890777587891e+00 1.467114686965942383e-01 5.994661897420883179e-02 6.199742853641510010e-02 -9.730658680200576782e-02
5.285000000000000000e+03 2.642835426330566406e+01 1.133576512336730957e+00 8.105438202619552612e-02 5.208678543567657471e-02 3.994235023856163025e-02 -8.342690020799636841e-02
5.286000000000000000e+03 2.606766891479492188e+01 1.098246335983276367e+00 6.415833532810211182e-02 2.919315733015537262e-02 2.800544723868370056e-02 -6.643547862768173218e-02
5.287000000000000000e+03 2.582571220397949219e+01 1.493316173553466797e+00 1.592257022857666016e-01 3.100745566189289093e-02 5.706994980573654175e-02 -7.617224752902984619e-02
5.288000000000000000e+03 2.501582145690917969e+01 5.861303806304931641e-01 -2.256005704402923584e-01 -1.247873231768608093e-01 -1.051163673400878906e-01 1.076383516192436218e-01
5.289000000000000000e+03 2.419348907470703125e+01 1.309267878532409668e+00 4.252653196454048157e-02 2.016934379935264587e-02 1.880876161158084869e-02 6.218116730451583862e-02
5.290000000000000000e+03 2.509922599792480469e+01 7.193784713745117188e-01 -2.069052308797836304e-01 -8.880722522735595703e-02 -8.871373534202575684e-02 7.343420386314392090e-02
5.291000000000000000e+03 2.335133743286132812e+01 9.742200970649719238e-01 -7.336983084678649902e-02 3.083741851150989532e-02 -1.275972370058298111e-02 3.507821261882781982e-02
5.292000000000000000e+03 2.246587944030761719e+01 6.890802979469299316e-01 -1.787860244512557983e-01 2.154151536524295807e-02 -4.717335104942321777e-02 -1.663962192833423615e-02
5.293000000000000000e+03 2.265129470825195312e+01 -3.019443526864051819e-02 -3.728660941123962402e-01 6.688472628593444824e-02 -9.179440885782241821e-02 -5.636478960514068604e-02
5.294000000000000000e+03 2.354462623596191406e+01 2.551128566265106201e-01 -3.816590607166290283e-01 6.833872199058532715e-02 -9.399610757827758789e-02 1.742977648973464966e-02
5.295000000000000000e+03 2.584380340576171875e+01 1.124831318855285645e+00 4.772764816880226135e-02 -2.264565229415893555e-02 7.524598855525255203e-03 -2.993164584040641785e-02
5.296000000000000000e+03 2.487414550781250000e+01 4.951079189777374268e-01 -2.676638960838317871e-01 -1.053679585456848145e-01 -1.119095534086227417e-01 1.230628266930580139e-01
5.297000000000000000e+03 2.494935035705566406e+01 1.589968442916870117e+00 1.131639257073402405e-01 -2.487965859472751617e-02 2.648527920246124268e-02 2.365894243121147156e-02
5.298000000000000000e+03 2.549102401733398438e+01 1.621851563453674316e+00 1.140065044164657593e-01 -1.912841014564037323e-02 2.846342884004116058e-02 -3.567075729370117188e-02
5.299000000000000000e+03 2.559309387207031250e+01 1.118039727210998535e+00 5.302829295396804810e-02 -5.449773371219635010e-02 -4.408317909110337496e-04 -6.133583839982748032e-03
5.300000000000000000e+03 2.540032577514648438e+01 1.009757041931152344e+00 1.676103100180625916e-02 -7.567362487316131592e-02 -1.767377741634845734e-02 3.719115629792213440e-03
5.301000000000000000e+03 2.625621414184570312e+01 1.101973772048950195e+00 7.888137549161911011e-02 3.478473052382469177e-02 3.409983217716217041e-02 -7.957215607166290283e-02
5.302000000000000000e+03 2.504071807861328125e+01 1.115116357803344727e+00 2.420129068195819855e-02 -7.722191512584686279e-02 -1.590618863701820374e-02 1.840279251337051392e-02
5.303000000000000000e+03 2.523330116271972656e+01 8.552555441856384277e-01 -1.013768687844276428e-01 -9.232039004564285278e-02 -5.810917541384696960e-02 2.230169251561164856e-02
5.304000000000000000e+03 2.457161521911621094e+01 8.719542026519775391e-01 -1.462733149528503418e-01 -2.172970399260520935e-02 -5.040090531110763550e-02 4.760780930519104004e-02
5.305000000000000000e+03 2.627415084838867188e+01 1.360334515571594238e+00 1.933018714189529419e-01 5.136524885892868042e-02 7.340013235807418823e-02 -1.039043217897415161e-01
5.306000000000000000e+03 2.609403038024902344e+01 1.311385989189147949e+00 1.525965183973312378e-01 4.193688556551933289e-02 5.836002156138420105e-02 -8.793139457702636719e-02
5.307000000000000000e+03 2.439571952819824219e+01 4.309497177600860596e-01 -3.197432160377502441e-01 1.414847932755947113e-02 -9.167841821908950806e-02 6.536670029163360596e-02
5.308000000000000000e+03 2.488675880432128906e+01 6.897756457328796387e-01 -2.309328168630599976e-01 -9.860314428806304932e-02 -9.886078536510467529e-02 1.034583598375320435e-01
5.309000000000000000e+03 2.337566375732421875e+01 2.629750251770019531e+00 9.915521332004573196e-06 1.356845041300402954e-05 7.045191523502580822e-06 -2.361035512876696885e-06
5.310000000000000000e+03 2.201377296447753906e+01 2.125266075134277344e+00 2.587494918770971708e-06 1.974592851183842868e-05 6.700026915495982394e-06 -2.770927721940097399e-06
5.311000000000000000e+03 2.225197982788085938e+01 1.423350930213928223e+00 -1.085885287466226146e-06 -1.832608359109144658e-05 -5.823590981890447438e-06 3.078656618527020328e-06
5.312000000000000000e+03 2.309097290039062500e+01 1.672813296318054199e+00 1.236078219335468020e-06 1.216700638906331733e-05 4.020925189252011478e-06 -2.122997329934150912e-06
5.313000000000000000e+03 2.428779029846191406e+01 2.625434398651123047e+00 1.151170272351009771e-05 -2.547993062762543559e-06 2.689112761800060980e-06 -1.863778720689879265e-06
5.314000000000000000e+03 2.478089141845703125e+01 2.056442260742187500e+00 2.806322072501643561e-06 3.735609197974554263e-06 1.962579290193389170e-06 1.968722244782838970e-06
5.315000000000000000e+03 2.395736885070800781e+01 2.308834791183471680e+00 -1.288869498239364475e-05 -3.390547362869256176e-06 -4.883772362518357113e-06 5.432102767599644721e-08
5.316000000000000000e+03 2.392651367187500000e+01 2.926619052886962891e+00 2.668999513844028115e-06 -2.797570232360158116e-06 -3.857117647498853330e-08 4.945839009451447055e-06
5.317000000000000000e+03 2.456351280212402344e+01 2.352871417999267578e+00 -1.049136062647448853e-05 -5.970227334728406277e-07 -3.326515070511959493e-06 -5.389735633798409253e-06
5.318000000000000000e+03 2.273927497863769531e+01 2.339991807937622070e+00 -5.222471827437402681e-06 -1.523774426459567621e-05 -6.138064691185718402e-06 3.694589622682542540e-06
5.319000000000000000e+03 2.395885276794433594e+01 1.871361255645751953e+00 2.509542582629364915e-06 -7.876607924117706716e-06 -1.610119511497032363e-06 6.635938234467175789e-07
5.320000000000000000e+03 2.075237083435058594e+01 1.106616377830505371e+00 -3.466728003331809305e-06 -2.993787347804754972e-05 -1.002138014882802963e-05 4.515549335337709635e-06
5.321000000000000000e+03 2.060178184509277344e+01 1.831414580345153809e+00 2.404246288278955035e-06 2.580790169304236770e-05 8.463644917355850339e-06 -4.923462256556376815e-06
5.322000000000000000e+03 2.130817413330078125e+01 1.960395336151123047e+00 -1.070074517883767840e-06 -2.450077045068610460e-05 -7.671254024899099022e-06 1.638595790609542746e-06
5.323000000000000000e+03 1.918785858154296875e+01 1.579434752464294434e+00 3.114418632321758196e-06 3.250202644267119467e-05 1.068493293132632971e-05 -4.644248292606789619e-06
5.324000000000000000e+03 1.989505195617675781e+01 1.704050064086914062e+00 -4.210383849567733705e-06 -2.987296284118201584e-05 -1.022500418912386522e-05 2.030726136581506580e-06
5.325000000000000000e+03 1.929729461669921875e+01 8.472537398338317871e-01 -5.902928023715503514e-06 -3.660061702248640358e-05 -1.275106387765845284e-05 3.631132130976766348e-06
5.326000000000000000e+03 2.147934150695800781e+01 1.239288687705993652e+00 7.779554493936302606e-07 2.553831473051104695e-05 7.894881491665728390e-06 -5.446774594020098448e-06
5.327000000000000000e+03 2.002506446838378906e+01 9.755603671073913574e-01 -8.070210810728895012e-07 3.273282345617190003e-05 9.577740456734318286e-06 -6.404840405593859032e-06
5.328000000000000000e+03 1.701650238037109375e+01 1.350294589996337891e+00 -5.599308678938541561e-06 -3.733522316906601191e-05 -1.288035946345189586e-05 5.050187155575258657e-06
5.329000000000000000e+03 1.708320045471191406e+01 6.133062839508056641e-01 -4.216877641738392413e-06 4.386603541206568480e-05 1.189474733109818771e-05 -5.059303020971128717e-06
5.330000000000000000e+03 1.634315681457519531e+01 5.465459823608398438e-01 -7.538455520261777565e-06 -4.464635276235640049e-05 -1.565544152981601655e-05 4.040151907247491181e-06
5.331000000000000000e+03 1.782329559326171875e+01 6.808430552482604980e-01 -7.389878192043397576e-06 -4.195813744445331395e-05 -1.480440550949424505e-05 3.889846993843093514e-06
5.332000000000000000e+03 1.847070503234863281e+01 1.483781576156616211e+00 -4.619737865141360089e-06 -3.406889663892798126e-05 -1.160659030574606732e-05 2.340696028113598004e-06
5.333000000000000000e+03 1.856336212158203125e+01 7.491624951362609863e-01 -3.346564653838868253e-06 3.946807919419370592e-05 1.083645474864169955e-05 -5.595053607976296917e-06
5.334000000000000000e+03 1.628943824768066406e+01 1.284718871116638184e+00 4.688379249273566529e-06 4.176951551926322281e-05 1.393736783938948065e-05 -3.230515858376747929e-06
5.335000000000000000e+03 1.774361801147460938e+01 1.416646718978881836e+00 1.815592895582085475e-06 3.689845107146538794e-05 1.161421369033632800e-05 -4.955310032528359443e-06
5.336000000000000000e+03 1.408120155334472656e+01 1.187072157859802246e+00 2.016538246607524343e-06 -3.898300201399251819e-05 -1.108993910747813061e-05 1.425947084499057382e-05
5.337000000000000000e+03 1.410851097106933594e+01 4.475762248039245605e-01 4.894255198450991884e-06 4.512827217695303261e-05 1.500675807619700208e-05 -1.714695144983124919e-06
5.338000000000000000e+03 1.336430931091308594e+01 4.183164834976196289e-01 5.250145932222949341e-06 -4.279683344066143036e-05 -1.126400638895574957e-05 6.448180101870093495e-06
5.339000000000000000e+03 1.485382461547851562e+01 4.748390913009643555e-01 -2.877978431570227258e-06 -4.523509051068685949e-05 -1.443392102373763919e-05 5.783045253338059410e-06
5.340000000000000000e+03 1.555697250366210938e+01 1.239178419113159180e+00 -2.745711981333442964e-06 -3.854149326798506081e-05 -1.238616187038132921e-05 9.083851182367652655e-06
5.341000000000000000e+03 1.560021686553955078e+01 5.002670884132385254e-01 -2.331985569981043227e-06 4.624675057129934430e-05 1.317442911386024207e-05 -2.927087280113482848e-06
5.342000000000000000e+03 1.334496879577636719e+01 1.158104777336120605e+00 1.852000787039287388e-05 4.094457108294591308e-05 1.783937295840587467e-05 -6.799753204944636309e-09
5.343000000000000000e+03 1.481854820251464844e+01 1.214042663574218750e+00 8.595865438110195100e-06 4.228403486195020378e-05 1.526396954432129860e-05 -1.478554395362152718e-06
5.344000000000000000e+03 1.111325168609619141e+01 1.138490676879882812e+00 1.997463550651445985e-05 -3.303106859675608575e-05 -3.916929472325136885e-06 2.039856735791545361e-05
5.345000000000000000e+03 1.186833381652832031e+01 4.020517766475677490e-01 1.765337947290390730e-05 -3.758880484383553267e-05 -5.980627065582666546e-06 7.668505531910341233e-06
5.346000000000000000e+03 1.037295722961425781e+01 3.924405574798583984e-01 2.888118251576088369e-05 -2.912698255386203527e-05 -7.374001853577283327e-08 7.007969998085172847e-06
5.347000000000000000e+03 1.260390949249267578e+01 1.143149375915527344e+00 1.198215340991737321e-05 -3.702303729369305074e-05 -7.512265256082173437e-06 1.823423735913820565e-05
5.348000000000000000e+03 1.261756992340087891e+01 4.032067656517028809e-01 1.527291715319734067e-05 4.104124673176556826e-05 1.689424971118569374e-05 -5.277758532429288607e-07
5.349000000000000000e+03 1.036947441101074219e+01 1.132432341575622559e+00 3.972695049014873803e-05 2.631653660500887781e-05 1.981304740183986723e-05 -5.748565399699145928e-06
5.350000000000000000e+03 1.185806560516357422e+01 1.142010807991027832e+00 2.853451587725430727e-05 3.508626468828879297e-05 1.908623380586504936e-05 -1.515964072495989967e-06
5.351000000000000000e+03 1.112012767791748047e+01 3.985152244567871094e-01 2.879572275560349226e-05 3.330513936816714704e-05 1.863025863713119179e-05 -1.295724814553977922e-06
5.352000000000000000e+03 8.771651268005371094e+00 3.881228864192962646e-01 3.562796337064355612e-05 -1.619405520614236593e-05 5.830172995047178119e-06 5.225772838457487524e-06
5.353000000000000000e+03 8.818146705627441406e+00 1.128122925758361816e+00 4.618356251739896834e-05 1.503981093264883384e-05 1.836701085267122835e-05 -1.180723666038829833e-05
5.354000000000000000e+03 7.953170776367187500e+00 3.921383917331695557e-01 4.125067425775341690e-05 8.501431693730410188e-06 1.492563205829355866e-05 -5.335848527465714142e-06
5.355000000000000000e+03 6.319846630096435547e+00 3.892590403556823730e-01 3.398143235244788229e-05 -5.101502665638690814e-06 8.663979315315373242e-06 -8.793792403594125062e-06
5.356000000000000000e+03 5.502897262573242188e+00 3.910058438777923584e-01 2.393040813331026584e-05 1.035016157402424142e-05 1.028417136694770306e-05 4.568808890326181427e-06
5.357000000000000000e+03 4.685476779937744141e+00 3.909447193145751953e-01 2.099316770909354091e-05 -1.505600630480330437e-05 1.781148625923378859e-06 -1.112156314775347710e-05
5.358000000000000000e+03 3.050973415374755859e+00 3.907458484172821045e-01 8.757625437283422798e-06 -1.339018399448832497e-05 -1.389767703585675918e-06 -7.745473340037278831e-06
5.359000000000000000e+03 2.234469175338745117e+00 3.876248300075531006e-01 3.949881829612422734e-06 1.358741792500950396e-05 5.261189926386578009e-06 7.292935151781421155e-06
5.360000000000000000e+03 2.538473606109619141e+00 1.127624869346618652e+00 1.155350037151947618e-05 -1.366461947327479720e-05 -6.333356168397585861e-07 -1.530465488031040877e-05
5.361000000000000000e+03 1.768125653266906738e+00 1.127171397209167480e+00 8.368824637727811933e-06 9.283384315494913608e-06 5.295662958815228194e-06 1.333366162725724280e-05
5.362000000000000000e+03 1.067988038063049316e+00 1.148616075515747070e+00 -3.587313403841108084e-05 2.640466118464246392e-05 -2.840541355908499099e-06 -1.848019564931746572e-05
5.363000000000000000e+03 6.996063590049743652e-01 4.086160361766815186e-01 6.118693272583186626e-05 4.574008926283568144e-05 3.207810732419602573e-05 5.365836113924160600e-05
5.364000000000000000e+03 3.732481598854064941e-01 9.636608362197875977e-01 -6.492697866633534431e-05 -3.820185156655497849e-05 -3.093864870606921613e-05 -2.730310370679944754e-05
5.365000000000000000e+03 3.322789192199707031e+00 1.130745887756347656e+00 -4.658433567783504259e-07 2.057650272035971284e-05 6.033197678334545344e-06 3.897701390087604523e-06
5.366000000000000000e+03 3.868146419525146484e+00 3.889868557453155518e-01 7.760594598948955536e-06 1.605506440682802349e-05 7.144697519834153354e-06 3.624285454861819744e-06
5.367000000000000000e+03 5.678146839141845703e+00 1.131005883216857910e+00 3.604470475693233311e-05 -3.030683046745252796e-06 9.904206308419816196e-06 -2.407786087132990360e-05
5.368000000000000000e+03 7.247090816497802734e+00 1.132560849189758301e+00 4.470888598007149994e-05 6.030087206454481930e-06 1.522169168310938403e-05 -1.873300789156928658e-05
5.369000000000000000e+03 7.136218547821044922e+00 3.925608992576599121e-01 3.399689012439921498e-05 -2.385956122452626005e-06 9.483279427513480186e-06 4.030026957480004057e-06
5.370000000000000000e+03 8.031854629516601562e+00 1.132138371467590332e+00 3.055298293475061655e-05 -1.533286740595940500e-05 4.566034476738423109e-06 1.345718192169442773e-05
5.371000000000000000e+03 9.590107917785644531e+00 3.879971206188201904e-01 3.862140147248283029e-05 2.105078965541906655e-05 1.790165697457268834e-05 -2.642216031745192595e-06
5.372000000000000000e+03 9.604414939880371094e+00 1.127997159957885742e+00 2.788153688015881926e-05 -2.394571129116229713e-05 1.180747972284734715e-06 1.795444586605299264e-05
5.373000000000000000e+03 6.462907791137695312e+00 1.129258990287780762e+00 2.613740616652648896e-05 -5.231554496276658028e-06 6.271755410125479102e-06 8.498708666593302041e-06
5.374000000000000000e+03 4.892915248870849609e+00 1.130944728851318359e+00 1.265958235308062285e-05 7.465157068509142846e-06 6.037421826476929709e-06 5.595228685706388205e-06
5.375000000000000000e+03 4.107773303985595703e+00 1.128986835479736328e+00 3.017022390849888325e-05 -1.350098318653181195e-05 5.000772489438531920e-06 -2.245095856778789312e-05
5.376000000000000000e+03 1.431932568550109863e+00 3.871713578701019287e-01 -7.259618996613426134e-06 -1.856251219578552991e-05 -7.746639312244951725e-06 -1.727554990793578327e-05
5.377000000000000000e+03 1.338494110107421875e+01 -3.624081611633300781e-01 4.763216674327850342e-01 2.824306429829448462e-04 1.429812312126159668e-01 9.790284559130668640e-03
5.378000000000000000e+03 1.492772197723388672e+01 -1.047161340713500977e+00 2.850521504878997803e-01 -1.773347519338130951e-02 8.019559830427169800e-02 -3.792557865381240845e-02
5.379000000000000000e+03 1.340428161621093750e+01 -1.102196455001831055e+00 3.260278701782226562e-01 -9.628810919821262360e-03 9.491971880197525024e-02 -5.793196149170398712e-03
5.380000000000000000e+03 1.489244556427001953e+01 -3.079577088356018066e-01 4.309249520301818848e-01 -2.251557074487209320e-03 1.286020278930664062e-01 1.546595303807407618e-04
5.381000000000000000e+03 1.568929195404052734e+01 -1.018365263938903809e+00 2.413780242204666138e-01 -1.615705154836177826e-02 6.756629049777984619e-02 -5.758711695671081543e-02
5.382000000000000000e+03 1.564604759216308594e+01 -2.794539332389831543e-01 3.951850831508636475e-01 -3.486592322587966919e-03 1.175095438957214355e-01 -5.416184663772583008e-03
5.383000000000000000e+03 1.413872909545898438e+01 -3.356079757213592529e-01 4.576646089553833008e-01 -3.405657596886157990e-03 1.362776905298233032e-01 6.117342039942741394e-03
5.384000000000000000e+03 1.416603755950927734e+01 -1.075103878974914551e+00 3.123474121093750000e-01 -1.316581014543771744e-02 8.975448459386825562e-02 -2.050445787608623505e-02
5.385000000000000000e+03 1.037684440612792969e+01 -3.884835243225097656e-01 4.153104424476623535e-01 -1.144197653047740459e-03 1.242498680949211121e-01 1.605148613452911377e-02
5.386000000000000000e+03 1.189073276519775391e+01 -1.121461629867553711e+00 3.342039883136749268e-01 -7.178622763603925705e-03 9.810760617256164551e-02 2.215489186346530914e-02
5.387000000000000000e+03 1.038032817840576172e+01 -1.128475308418273926e+00 3.090042173862457275e-01 -5.089861806482076645e-03 9.117430448532104492e-02 3.837759047746658325e-02
5.388000000000000000e+03 1.264584636688232422e+01 -1.117530822753906250e+00 3.327829241752624512e-01 -6.561518646776676178e-03 9.786642342805862427e-02 1.111703924834728241e-02
5.389000000000000000e+03 1.188046455383300781e+01 -3.815026283264160156e-01 4.613099992275238037e-01 -1.729616080410778522e-03 1.378741115331649780e-01 1.113758981227874756e-02
5.390000000000000000e+03 1.263218593597412109e+01 -3.775882422924041748e-01 4.772872030735015869e-01 3.385289455763995647e-04 1.432877182960510254e-01 9.540895931422710419e-03
5.391000000000000000e+03 1.112868118286132812e+01 -3.851337432861328125e-01 4.409557282924652100e-01 -8.465589489787817001e-04 1.320327520370483398e-01 1.383142918348312378e-02
5.392000000000000000e+03 1.113555717468261719e+01 -1.125109195709228516e+00 3.244346380233764648e-01 -6.365289911627769470e-03 9.542080760002136230e-02 3.084522299468517303e-02
5.393000000000000000e+03 9.624593734741210938e+00 -1.131355285644531250e+00 2.888096570968627930e-01 -3.484261687844991684e-03 8.559761941432952881e-02 4.435771331191062927e-02
5.394000000000000000e+03 9.636611938476562500e+00 -3.913553059101104736e-01 3.845981061458587646e-01 -3.456973645370453596e-04 1.152757257223129272e-01 1.760405674576759338e-02
5.395000000000000000e+03 8.908035278320312500e+00 -3.932945430278778076e-01 3.501601517200469971e-01 -8.450000314041972160e-04 1.047945469617843628e-01 1.878956332802772522e-02
5.396000000000000000e+03 8.179648399353027344e+00 -3.947979807853698730e-01 3.137053847312927246e-01 -3.280900127720087767e-04 9.401318430900573730e-02 1.993592083454132080e-02
5.397000000000000000e+03 7.451354026794433594e+00 -3.965992927551269531e-01 2.755047082901000977e-01 -4.185815341770648956e-04 8.252584189176559448e-02 2.069906145334243774e-02
5.398000000000000000e+03 6.723036766052246094e+00 -3.981454968452453613e-01 2.364410907030105591e-01 1.425972150173038244e-04 7.097510248422622681e-02 2.103435434401035309e-02
5.399000000000000000e+03 5.994731426239013672e+00 -3.993945717811584473e-01 1.970949023962020874e-01 -3.573405774659477174e-05 5.911775305867195129e-02 2.096330747008323669e-02
5.400000000000000000e+03 5.266466140747070312e+00 -4.014726877212524414e-01 1.583520472049713135e-01 7.935673929750919342e-04 4.774368554353713989e-02 2.042640186846256256e-02
5.401000000000000000e+03 4.538172721862792969e+00 -4.045463800430297852e-01 1.211193948984146118e-01 2.121895813615992665e-04 3.639947623014450073e-02 1.939863339066505432e-02
5.402000000000000000e+03 3.810027122497558594e+00 -4.076895117759704590e-01 8.628910779953002930e-02 1.746265217661857605e-03 2.641061320900917053e-02 1.802320964634418488e-02
5.403000000000000000e+03 3.082192897796630859e+00 -4.105251729488372803e-01 5.501732230186462402e-02 1.313776359893381596e-03 1.689933054149150848e-02 1.512545067816972733e-02
5.404000000000000000e+03 2.355662584304809570e+00 -4.111475944519042969e-01 2.953560650348663330e-02 3.403855953365564346e-03 9.881839156150817871e-03 1.155256200581789017e-02
5.405000000000000000e+03 1.642585277557373047e+00 -4.047921001911163330e-01 1.136948633939027786e-02 2.273995429277420044e-03 4.093044437468051910e-03 5.962403491139411926e-03
5.406000000000000000e+03 6.508445143699645996e-01 -1.120625138282775879e+00 3.265567822381854057e-03 4.748668055981397629e-03 2.404270693659782410e-03 4.523448646068572998e-03
5.407000000000000000e+03 8.868407249450683594e+00 -1.133294582366943359e+00 2.653769850730895996e-01 -3.199595259502530098e-03 7.865321636199951172e-02 4.896105453372001648e-02
5.408000000000000000e+03 8.112410545349121094e+00 -1.134797930717468262e+00 2.386813610792160034e-01 -1.919284346513450146e-03 7.102862000465393066e-02 5.229137837886810303e-02
5.409000000000000000e+03 7.356505870819091797e+00 -1.136599302291870117e+00 2.105568498373031616e-01 -1.103781163692474365e-03 6.283591687679290771e-02 5.420100316405296326e-02
5.410000000000000000e+03 6.600578308105468750e+00 -1.138145565986633301e+00 1.813408434391021729e-01 2.675336872925981879e-06 5.440305545926094055e-02 5.535145103931427002e-02
5.411000000000000000e+03 5.844663143157958984e+00 -1.139394640922546387e+00 1.522080749273300171e-01 1.228303299285471439e-03 4.603091254830360413e-02 5.467633530497550964e-02
5.412000000000000000e+03 5.088787555694580078e+00 -1.141472697257995605e+00 1.232646629214286804e-01 2.002042951062321663e-03 3.758001327514648438e-02 5.356229096651077271e-02
5.413000000000000000e+03 4.332883834838867188e+00 -1.144546389579772949e+00 9.502739459276199341e-02 4.136405419558286667e-03 2.974914014339447021e-02 5.026061832904815674e-02
5.414000000000000000e+03 3.577128171920776367e+00 -1.147689461708068848e+00 6.943788379430770874e-02 4.989933222532272339e-03 2.232834696769714355e-02 4.561951756477355957e-02
5.415000000000000000e+03 2.821683883666992188e+00 -1.150525212287902832e+00 4.638920724391937256e-02 9.108251892030239105e-03 1.664923876523971558e-02 3.883494436740875244e-02
5.416000000000000000e+03 2.067543268203735352e+00 -1.151147603988647461e+00 2.669946104288101196e-02 1.149881724268198013e-02 1.145948283374309540e-02 2.796910516917705536e-02
5.417000000000000000e+03 1.326855897903442383e+00 -1.144792079925537109e+00 1.248292159289121628e-02 1.154232677072286606e-02 7.207574788480997086e-03 1.568912155926227570e-02
5.418000000000000000e+03 9.941840171813964844e-01 -3.806251585483551025e-01 2.467081882059574127e-03 1.603280194103717804e-03 1.221108599565923214e-03 2.052774187177419662e-03
5.419000000000000000e+03 3.480942845344543457e-01 -5.610816478729248047e-01 4.788772275787778199e-05 2.248615492135286331e-04 8.182477904483675957e-05 1.132152756326831877e-04
5.420000000000000000e+03 2.623828697204589844e+01 -5.017127990722656250e-01 1.474701523780822754e+00 -9.349454194307327271e-03 4.396056234836578369e-01 1.811012476682662964e-01
5.421000000000000000e+03 2.623249626159667969e+01 -4.830971956253051758e-01 1.365176200866699219e+00 -3.260419145226478577e-02 3.997716009616851807e-01 2.907578349113464355e-01
5.422000000000000000e+03 2.622318840026855469e+01 -4.659676551818847656e-01 1.132278203964233398e+00 -5.156960338354110718e-02 3.242125809192657471e-01 4.203690588474273682e-01
5.423000000000000000e+03 2.621071815490722656e+01 -4.509815871715545654e-01 8.525159955024719238e-01 -8.172710984945297241e-02 2.312366515398025513e-01 5.066541433334350586e-01
5.424000000000000000e+03 2.619556617736816406e+01 -4.387140870094299316e-01 5.551401972770690918e-01 -1.576543897390365601e-01 1.192457377910614014e-01 5.595643520355224609e-01
5.425000000000000000e+03 2.617831420898437500e+01 -4.296358823776245117e-01 2.781658470630645752e-01 -2.562355101108551025e-01 6.579099223017692566e-03 5.895065069198608398e-01
5.426000000000000000e+03 2.615962219238281250e+01 -4.240954220294952393e-01 -2.095924690365791321e-03 -3.957764208316802979e-01 -1.193616986274719238e-01 6.353189945220947266e-01
5.427000000000000000e+03 2.614020919799804688e+01 -4.223052561283111572e-01 -2.515032589435577393e-01 -5.156568884849548340e-01 -2.301480472087860107e-01 6.906798481941223145e-01
5.428000000000000000e+03 2.612081909179687500e+01 -4.243341088294982910e-01 -5.400592088699340820e-01 -6.136204004287719727e-01 -3.461038768291473389e-01 7.682982087135314941e-01
5.429000000000000000e+03 2.610219764709472656e+01 -4.301041364669799805e-01 -8.156265616416931152e-01 -6.446707248687744141e-01 -4.380891621112823486e-01 8.384975194931030273e-01
5.430000000000000000e+03 2.608505821228027344e+01 -4.393938779830932617e-01 -1.126704573631286621e+00 -6.205562353134155273e-01 -5.241782069206237793e-01 8.794412612915039062e-01
5.431000000000000000e+03 2.607005882263183594e+01 -4.518468976020812988e-01 -1.412974834442138672e+00 -5.430409908294677734e-01 -5.868047475814819336e-01 8.712211251258850098e-01
5.432000000000000000e+03 2.605777359008789062e+01 -4.669852256774902344e-01 -1.651989459991455078e+00 -4.443118870258331299e-01 -6.288903951644897461e-01 8.072004914283752441e-01
5.433000000000000000e+03 2.604867744445800781e+01 -4.842279851436614990e-01 -1.836661577224731445e+00 -3.695072233676910400e-01 -6.618506312370300293e-01 6.920347809791564941e-01
5.434000000000000000e+03 2.604311561584472656e+01 -5.029134154319763184e-01 -1.922433495521545410e+00 -3.063879907131195068e-01 -6.686464548110961914e-01 5.699415802955627441e-01
5.435000000000000000e+03 2.604130363464355469e+01 -5.223245024681091309e-01 -1.953253030776977539e+00 -3.060432970523834229e-01 -6.777889132499694824e-01 4.545893371105194092e-01
5.436000000000000000e+03 2.604331207275390625e+01 -5.417163372039794922e-01 -1.933641314506530762e+00 -3.080358803272247314e-01 -6.725031733512878418e-01 3.856355249881744385e-01
5.437000000000000000e+03 2.604906082153320312e+01 -5.603447556495666504e-01 -1.919079661369323730e+00 -3.404181897640228271e-01 -6.778493523597717285e-01 3.575372695922851562e-01
5.438000000000000000e+03 2.605833053588867188e+01 -5.774948596954345703e-01 -1.941607117652893066e+00 -3.708177804946899414e-01 -6.937274932861328125e-01 3.676132261753082275e-01
5.439000000000000000e+03 2.607076835632324219e+01 -5.925084948539733887e-01 -1.987935543060302734e+00 -3.813744485378265381e-01 -7.107930183410644531e-01 3.825863301753997803e-01
5.440000000000000000e+03 2.608589172363281250e+01 -6.048095226287841797e-01 -2.139330625534057617e+00 -4.394881129264831543e-01 -7.736456394195556641e-01 4.156917035579681396e-01
5.441000000000000000e+03 2.610312461853027344e+01 -6.139258742332458496e-01 -2.241457939147949219e+00 -4.804411828517913818e-01 -8.165697455406188965e-01 4.294978082180023193e-01
5.442000000000000000e+03 2.612180519104003906e+01 -6.195077300071716309e-01 -2.485487699508666992e+00 -5.928555727005004883e-01 -9.235029816627502441e-01 4.591651558876037598e-01
5.443000000000000000e+03 2.614121246337890625e+01 -6.213409304618835449e-01 -2.645285367965698242e+00 -6.750530600547790527e-01 -9.961014986038208008e-01 5.139057636260986328e-01
5.444000000000000000e+03 2.616060638427734375e+01 -6.193549633026123047e-01 -2.948997259140014648e+00 -7.855585217475891113e-01 -1.120366692543029785e+00 5.722640752792358398e-01
5.445000000000000000e+03 2.617924118041992188e+01 -6.136261820793151855e-01 -3.226171016693115234e+00 -8.017728924751281738e-01 -1.208383202552795410e+00 6.602494716644287109e-01
5.446000000000000000e+03 2.619640159606933594e+01 -6.043744087219238281e-01 -3.608047008514404297e+00 -7.880744338035583496e-01 -1.318836450576782227e+00 7.024787068367004395e-01
5.447000000000000000e+03 2.621142959594726562e+01 -5.919546484947204590e-01 -3.987771034240722656e+00 -6.644049286842346191e-01 -1.395652770996093750e+00 6.988773345947265625e-01
5.448000000000000000e+03 2.622374725341796875e+01 -5.768435597419738770e-01 -4.370158672332763672e+00 -5.156474709510803223e-01 -1.465741872787475586e+00 5.967987775802612305e-01
5.449000000000000000e+03 2.623288345336914062e+01 -5.596209764480590820e-01 -4.690834522247314453e+00 -3.420212268829345703e-01 -1.509856820106506348e+00 3.941510319709777832e-01
5.450000000000000000e+03 2.623848533630371094e+01 -5.409478545188903809e-01 -4.886485576629638672e+00 -1.846648901700973511e-01 -1.521345138549804688e+00 1.128584817051887512e-01
5.451000000000000000e+03 2.624034118652343750e+01 -5.215408205986022949e-01 -4.951960563659667969e+00 -1.004899516701698303e-01 -1.515735149383544922e+00 -2.551275491714477539e-01
5.452000000000000000e+03 4.516368865966796875e+01 -1.667224884033203125e+01 1.334744834899902344e+01 2.015044927597045898e+00 4.608747959136962891e+00 -3.986779212951660156e+00
5.453000000000000000e+03 4.517243194580078125e+01 -1.665487670898437500e+01 1.884463882446289062e+01 8.468708395957946777e-02 5.678797721862792969e+00 -1.940085738897323608e-01
5.454000000000000000e+03 4.517763137817382812e+01 -1.663613700866699219e+01 2.169758224487304688e+01 1.277984499931335449e+00 6.892670154571533203e+00 2.887468576431274414e+00
5.455000000000000000e+03 4.517908477783203125e+01 -1.661674308776855469e+01 2.315893173217773438e+01 3.328131198883056641e+00 7.946119308471679688e+00 6.066394329071044922e+00
5.456000000000000000e+03 4.517674255371093750e+01 -1.659743690490722656e+01 2.342068672180175781e+01 6.393146038055419922e+00 8.944149971008300781e+00 8.744040489196777344e+00
5.457000000000000000e+03 4.517068481445312500e+01 -1.657895660400390625e+01 2.253324699401855469e+01 1.005663585662841797e+01 9.776965141296386719e+00 1.082095050811767578e+01
5.458000000000000000e+03 4.516115188598632812e+01 -1.656200599670410156e+01 2.086329841613769531e+01 1.409840106964111328e+01 1.048851013183593750e+01 1.195020580291748047e+01
5.459000000000000000e+03 4.514850616455078125e+01 -1.654723358154296875e+01 1.871346473693847656e+01 1.802398490905761719e+01 1.102123451232910156e+01 1.202653026580810547e+01
5.460000000000000000e+03 4.513322448730468750e+01 -1.653520202636718750e+01 1.658323287963867188e+01 2.151561737060546875e+01 1.142965507507324219e+01 1.103649330139160156e+01
5.461000000000000000e+03 4.511589813232421875e+01 -1.652637100219726562e+01 1.479671478271484375e+01 2.407950210571289062e+01 1.166286468505859375e+01 9.234610557556152344e+00
5.462000000000000000e+03 4.509718322753906250e+01 -1.652108001708984375e+01 1.380187511444091797e+01 2.566786956787109375e+01 1.184092330932617188e+01 6.871058940887451172e+00
5.463000000000000000e+03 4.507779693603515625e+01 -1.651952743530273438e+01 1.343709373474121094e+01 2.605556869506835938e+01 1.184779834747314453e+01 4.419567584991455078e+00
5.464000000000000000e+03 4.505847930908203125e+01 -1.652177619934082031e+01 1.406081199645996094e+01 2.555948257446289062e+01 1.188608837127685547e+01 2.203368425369262695e+00
5.465000000000000000e+03 4.503997039794921875e+01 -1.652773857116699219e+01 1.512064361572265625e+01 2.423305702209472656e+01 1.180611038208007812e+01 4.657895267009735107e-01
5.466000000000000000e+03 4.502297210693359375e+01 -1.653718757629394531e+01 1.674117851257324219e+01 2.257586669921875000e+01 1.179511356353759766e+01 -5.539680123329162598e-01
5.467000000000000000e+03 4.500813674926757812e+01 -1.654976081848144531e+01 1.847828865051269531e+01 2.067843627929687500e+01 1.174701786041259766e+01 -8.827332854270935059e-01
5.468000000000000000e+03 4.499602890014648438e+01 -1.656497955322265625e+01 2.021493339538574219e+01 1.897078514099121094e+01 1.175571537017822266e+01 -4.741104543209075928e-01
5.469000000000000000e+03 4.498711013793945312e+01 -1.658226394653320312e+01 2.173649406433105469e+01 1.756325531005859375e+01 1.178992557525634766e+01 6.017850637435913086e-01
5.470000000000000000e+03 4.498172378540039062e+01 -1.660095024108886719e+01 2.276675033569335938e+01 1.666187667846679688e+01 1.182858848571777344e+01 2.196116209030151367e+00
5.471000000000000000e+03 4.498007583618164062e+01 -1.662032890319824219e+01 2.319838523864746094e+01 1.653203201293945312e+01 1.191912460327148438e+01 4.219852447509765625e+00
5.472000000000000000e+03 4.498223114013671875e+01 -1.663965797424316406e+01 2.272310638427734375e+01 1.702780723571777344e+01 1.192527389526367188e+01 6.337564468383789062e+00
5.473000000000000000e+03 4.498809814453125000e+01 -1.665819740295410156e+01 2.138429260253906250e+01 1.854375076293945312e+01 1.197841358184814453e+01 8.300724983215332031e+00
5.474000000000000000e+03 4.499746322631835938e+01 -1.667524337768554688e+01 1.905430030822753906e+01 2.045347595214843750e+01 1.185233306884765625e+01 9.748538970947265625e+00
5.475000000000000000e+03 4.500996017456054688e+01 -1.669014167785644531e+01 1.610664558410644531e+01 2.306304168701171875e+01 1.175090694427490234e+01 1.031278133392333984e+01
5.476000000000000000e+03 4.502511978149414062e+01 -1.670232582092285156e+01 1.261251163482666016e+01 2.533133316040039062e+01 1.138315296173095703e+01 9.939849853515625000e+00
5.477000000000000000e+03 4.504235839843750000e+01 -1.671132850646972656e+01 9.309603691101074219e+00 2.742192649841308594e+01 1.101945877075195312e+01 8.378577232360839844e+00
5.478000000000000000e+03 4.506101989746093750e+01 -1.671680641174316406e+01 6.195440292358398438e+00 2.838633537292480469e+01 1.037453269958496094e+01 6.043291091918945312e+00
5.479000000000000000e+03 4.508038711547851562e+01 -1.671855163574218750e+01 3.974407672882080078e+00 2.829150390625000000e+01 9.679773330688476562e+00 2.957480907440185547e+00
5.480000000000000000e+03 4.509972763061523438e+01 -1.671649742126464844e+01 2.439512491226196289e+00 2.674119758605957031e+01 8.754213333129882812e+00 -1.859597414731979370e-01
5.481000000000000000e+03 4.511829757690429688e+01 -1.671072006225585938e+01 2.180703401565551758e+00 2.376870155334472656e+01 7.784821510314941406e+00 -3.376691102981567383e+00
5.482000000000000000e+03 4.513538742065429688e+01 -1.670144081115722656e+01 2.644897699356079102e+00 1.955010604858398438e+01 6.658500671386718750e+00 -5.853816986083984375e+00
5.483000000000000000e+03 4.515034866333007812e+01 -1.668901824951171875e+01 5.999704837799072266e+00 1.225262641906738281e+01 5.475699424743652344e+00 -7.746427059173583984e+00
