# el_label, x, y, sXX, sYY, sZZ, sXY
1.000000000000000000e+00 3.496165466308593750e+01 5.144171714782714844e-01 -3.331408748863395886e-08 4.407602318678982556e-06 1.312286485699587502e-06 -7.411805563606321812e-05
2.000000000000000000e+00 3.385178756713867188e+01 1.652674555778503418e+00 -1.026489422656595707e-03 6.263100658543407917e-04 -1.200538172270171344e-04 -4.067212648806162179e-05
3.000000000000000000e+00 3.458976364135742188e+01 9.218790531158447266e-01 1.124181435443460941e-03 2.887762966565787792e-04 4.238873370923101902e-04 2.035833022091537714e-04
4.000000000000000000e+00 3.491311264038085938e+01 7.085409760475158691e-01 2.649041416589170694e-04 2.713436842896044254e-04 1.608743477845564485e-04 -2.917099664045963436e-05
5.000000000000000000e+00 3.479948043823242188e+01 1.796526551246643066e+00 1.069251098670065403e-03 -6.069525261409580708e-05 3.025667392648756504e-04 -3.104201459791511297e-04
6.000000000000000000e+00 3.480223083496093750e+01 1.634932875633239746e+00 -8.289717370644211769e-04 -7.885391241870820522e-04 -4.852532583754509687e-04 1.653976214583963156e-04
7.000000000000000000e+00 3.488457870483398438e+01 8.911195993423461914e-01 -7.607589941471815109e-04 -1.839338656282052398e-04 -2.834078622981905937e-04 -1.991356839425861835e-04
8.000000000000000000e+00 3.331605529785156250e+01 1.617044210433959961e+00 -2.125170794897712767e-05 1.160288011305965483e-04 2.843312722689006478e-05 -1.304372271988540888e-04
9.000000000000000000e+00 3.320041275024414062e+01 1.531326770782470703e+00 2.362944796914234757e-04 4.006731905974447727e-04 1.910902938107028604e-04 -6.691316229989752173e-05
1.000000000000000000e+01 3.366616821289062500e+01 1.625385999679565430e+00 -2.775074099190533161e-04 -3.975899307988584042e-04 -2.025292051257565618e-04 -3.177124599460512400e-04
1.100000000000000000e+01 3.463942337036132812e+01 1.757570981979370117e+00 -2.466717851348221302e-04 7.016407325863838196e-04 1.364906929666176438e-04 7.911170250736176968e-04
1.200000000000000000e+01 3.455562210083007812e+01 1.461896538734436035e+00 -8.925553411245346069e-04 7.873550202930346131e-05 -2.441459510009735823e-04 5.239804740995168686e-04
1.300000000000000000e+01 3.487050628662109375e+01 1.070537209510803223e+00 1.009166589938104153e-03 -2.569938369560986757e-04 2.256518200738355517e-04 4.504098615143448114e-04
1.400000000000000000e+01 3.462664031982421875e+01 7.191930413246154785e-01 -3.896936541423201561e-04 -1.484258391428738832e-04 -1.614358479855582118e-04 -2.292699791723862290e-04
1.500000000000000000e+01 3.342584609985351562e+01 1.420876383781433105e+00 6.894073449075222015e-04 -9.455737017560750246e-05 1.784549822332337499e-04 -3.859015123452991247e-05
1.600000000000000000e+01 3.348382568359375000e+01 1.612533807754516602e+00 -1.525728293927386403e-04 -1.485256507294252515e-04 -9.032954403664916754e-05 1.948105636984109879e-05
1.700000000000000000e+01 3.366086578369140625e+01 1.141610860824584961e+00 -6.510356324724853039e-04 -2.864396083168685436e-04 -2.812425664160400629e-04 1.223242288688197732e-04
1.800000000000000000e+01 3.404979705810546875e+01 1.654657959938049316e+00 1.479912316426634789e-03 -6.007908377796411514e-04 2.637364377733319998e-04 2.491879567969590425e-04
1.900000000000000000e+01 3.480712890625000000e+01 1.453485965728759766e+00 6.254891050048172474e-04 5.480949184857308865e-04 3.520752070471644402e-04 -4.417356394696980715e-04
2.000000000000000000e+01 3.445959472656250000e+01 1.708514451980590820e+00 8.877843501977622509e-04 -2.430191816529259086e-04 1.934295432874932885e-04 -7.754474645480513573e-04
2.100000000000000000e+01 3.435376739501953125e+01 4.701083302497863770e-01 1.931591541506350040e-04 4.756145353894680738e-04 2.006321010412648320e-04 -4.634981742128729820e-04
2.200000000000000000e+01 3.484666061401367188e+01 1.255394220352172852e+00 -8.067410090006887913e-04 -3.483689579297788441e-05 -2.524733718018978834e-04 -1.532540482003241777e-04
2.300000000000000000e+01 3.462213134765625000e+01 1.259581089019775391e+00 9.362224373035132885e-04 -1.822711783461272717e-04 2.261853660456836224e-04 -2.161045995308086276e-05
2.400000000000000000e+01 3.433314895629882812e+01 1.417333245277404785e+00 8.884495473466813564e-04 -5.329226842150092125e-04 1.066580662154592574e-04 -4.107055719941854477e-04
2.500000000000000000e+01 3.440039825439453125e+01 6.555607914924621582e-01 -5.959559348411858082e-04 -4.202368145342916250e-04 -3.048578219022601843e-04 2.658831363078206778e-05
2.600000000000000000e+01 3.425060272216796875e+01 1.680786132812500000e+00 -1.298595685511827469e-03 4.719090647995471954e-04 -2.480059920344501734e-04 5.400112713687121868e-04
2.700000000000000000e+01 3.454371643066406250e+01 4.704765677452087402e-01 1.002344215521588922e-04 -7.458030013367533684e-04 -1.936705812113359571e-04 2.383922983426600695e-04
2.800000000000000000e+01 3.410174179077148438e+01 1.349015712738037109e+00 -7.183759007602930069e-04 1.497777120675891638e-04 -1.705794420558959246e-04 -1.027354810503311455e-04
2.900000000000000000e+01 3.427789306640625000e+01 1.067310452461242676e+00 -5.723312497138977051e-04 -5.170053918845951557e-04 -3.268010041210800409e-04 4.523151437751948833e-04
3.000000000000000000e+01 3.407122039794921875e+01 8.469878435134887695e-01 8.756042807362973690e-04 3.562342317309230566e-04 3.695515624713152647e-04 -5.896459333598613739e-05
3.100000000000000000e+01 3.407165527343750000e+01 5.194346904754638672e-01 -3.121215268038213253e-04 2.541046524129342288e-05 -8.601331501267850399e-05 5.669028178090229630e-05
3.200000000000000000e+01 3.383483505249023438e+01 1.400443315505981445e+00 1.042327843606472015e-03 4.264559538569301367e-04 4.406351363286375999e-04 -2.690558612812310457e-04
3.300000000000000000e+01 3.473696136474609375e+01 5.025167465209960938e-01 7.552310853498056531e-05 3.115241415798664093e-04 1.161141772172413766e-04 5.120977220940403640e-05
3.400000000000000000e+01 3.463302230834960938e+01 1.094575047492980957e+00 -1.259614247828722000e-03 2.464124409016221762e-04 -3.039605508092790842e-04 1.111659366870298982e-05
3.500000000000000000e+01 3.444741058349609375e+01 1.204217433929443359e+00 -2.016856597037985921e-04 7.073972374200820923e-04 1.517134660389274359e-04 -3.192937292624264956e-04
3.600000000000000000e+01 3.355002593994140625e+01 -1.336139678955078125e+00 -2.648190736770629883e+00 -3.539916574954986572e-01 -9.006547331809997559e-01 1.540286540985107422e-01
3.700000000000000000e+01 3.387998962402343750e+01 -1.357542157173156738e+00 -3.307034969329833984e+00 3.178397193551063538e-02 -9.825752973556518555e-01 9.535396099090576172e-02
3.800000000000000000e+01 3.400633621215820312e+01 -1.437711238861083984e+00 -3.098071813583374023e+00 1.958171278238296509e-01 -8.706763982772827148e-01 3.105835020542144775e-01
3.900000000000000000e+01 3.359782409667968750e+01 -1.530442714691162109e+00 -2.730714321136474609e+00 -3.578256964683532715e-01 -9.265620112419128418e-01 4.545474648475646973e-01
4.000000000000000000e+01 3.337884902954101562e+01 -1.355730533599853516e+00 -3.797451972961425781e+00 -8.534616827964782715e-01 -1.395274162292480469e+00 -2.526484131813049316e-01
4.100000000000000000e+01 3.318160629272460938e+01 -1.385946512222290039e+00 -3.258651733398437500e+00 -5.909100770950317383e-01 -1.154868483543395996e+00 9.732143878936767578e-01
4.200000000000000000e+01 3.272080612182617188e+01 -1.474612951278686523e+00 -3.367254734039306641e+00 -8.230985403060913086e-01 -1.257105946540832520e+00 -6.024869680404663086e-01
4.300000000000000000e+01 3.291108322143554688e+01 -1.866258263587951660e+00 -2.564415454864501953e+00 -5.216302275657653809e-01 -9.258137345314025879e-01 -6.189038231968879700e-02
4.400000000000000000e+01 3.251934814453125000e+01 -1.439323782920837402e+00 -3.432601928710937500e+00 -3.882159888744354248e-01 -1.146245360374450684e+00 -5.443797707557678223e-01
4.500000000000000000e+01 3.221598434448242188e+01 -1.447337150573730469e+00 -3.147752523422241211e+00 -1.482751965522766113e-01 -9.888082742691040039e-01 -5.462366938591003418e-01
4.600000000000000000e+01 3.226885986328125000e+01 -1.600857377052307129e+00 -3.270877838134765625e+00 -2.564177811145782471e-01 -1.058188676834106445e+00 -5.951952934265136719e-01
4.700000000000000000e+01 3.204936599731445312e+01 -1.485772848129272461e+00 -3.158474445343017578e+00 -7.277521491050720215e-02 -9.693748950958251953e-01 -5.297723412513732910e-01
4.800000000000000000e+01 3.211537170410156250e+01 -1.726776599884033203e+00 -3.048952579498291016e+00 -7.003316283226013184e-02 -9.356957077980041504e-01 -6.332463026046752930e-01
4.900000000000000000e+01 3.182605171203613281e+01 -1.507937312126159668e+00 -2.920869112014770508e+00 2.394358664751052856e-01 -8.044300079345703125e-01 -3.436207771301269531e-01
5.000000000000000000e+01 3.372217178344726562e+01 -1.337684988975524902e+00 -3.723069667816162109e+00 2.671527862548828125e-02 -1.108906269073486328e+00 2.927062213420867920e-01
5.100000000000000000e+01 3.351655578613281250e+01 -1.788771152496337891e+00 -2.936209440231323242e+00 -3.072996735572814941e-01 -9.730527400970458984e-01 1.734253168106079102e-01
5.200000000000000000e+01 3.296868133544921875e+01 -1.440663218498229980e+00 -2.321317911148071289e+00 -1.298130273818969727e+00 -1.085834503173828125e+00 1.291700750589370728e-01
5.300000000000000000e+01 3.250159835815429688e+01 -1.746093511581420898e+00 -3.073025941848754883e+00 -5.327852964401245117e-01 -1.081743359565734863e+00 -5.756627917289733887e-01
5.400000000000000000e+01 3.236406326293945312e+01 -1.501782178878784180e+00 -3.188217163085937500e+00 -3.493273556232452393e-01 -1.061263442039489746e+00 -6.350594758987426758e-01
5.500000000000000000e+01 3.312557220458984375e+01 -1.569985032081604004e+00 -3.349435806274414062e+00 -8.340470790863037109e-01 -1.255044817924499512e+00 -2.532975375652313232e-01
5.600000000000000000e+01 3.236862182617187500e+01 -1.424049139022827148e+00 -3.476114988327026367e+00 -3.829478025436401367e-01 -1.157718777656555176e+00 -5.140376091003417969e-01
5.700000000000000000e+01 3.340180206298828125e+01 -1.497046351432800293e+00 -3.609265804290771484e+00 -3.851629495620727539e-01 -1.198328614234924316e+00 5.506852865219116211e-01
5.800000000000000000e+01 3.297209930419921875e+01 1.889202475547790527e+00 -8.443343103863298893e-04 -3.523033810779452324e-04 -3.589913249015808105e-04 1.402162888552993536e-04
5.900000000000000000e+01 3.441871643066406250e+01 1.975181579589843750e+00 -2.590724325273185968e-04 -1.098039676435291767e-03 -4.071336297784000635e-04 1.011717249639332294e-03
6.000000000000000000e+01 3.524645996093750000e+01 2.159754276275634766e+00 5.553584778681397438e-04 -7.786733476677909493e-05 1.432473509339615703e-04 1.427262213837821037e-05
6.100000000000000000e+01 3.589435958862304688e+01 2.331125974655151367e+00 -4.332301032263785601e-04 2.879619132727384567e-04 -4.358045771368779242e-05 -2.379788784310221672e-04
6.200000000000000000e+01 3.657053375244140625e+01 2.530402898788452148e+00 2.169350773328915238e-04 -3.613064181990921497e-04 -4.331140007707290351e-05 3.233609604649245739e-04
6.300000000000000000e+01 3.435380935668945312e+01 6.263349056243896484e+00 4.686919564846903086e-04 1.981135719688609242e-04 2.000416570808738470e-04 1.787097571650519967e-04
6.400000000000000000e+01 3.775642776489257812e+01 1.320522594451904297e+01 -3.121132403612136841e-02 9.192679077386856079e-03 -6.605593487620353699e-03 4.244259558618068695e-03
6.500000000000000000e+01 3.461429595947265625e+01 1.759494590759277344e+01 -6.399165838956832886e-02 6.359604652971029282e-03 -1.728961616754531860e-02 4.192762076854705811e-02
6.600000000000000000e+01 3.807290649414062500e+01 2.122348213195800781e+01 -7.395892590284347534e-02 5.130191892385482788e-02 -6.797103211283683777e-03 3.172937035560607910e-02
6.700000000000000000e+01 3.791702270507812500e+01 2.772776603698730469e+01 1.247514691203832626e-02 6.787110120058059692e-02 2.410387434065341949e-02 -4.053251352161169052e-03
6.800000000000000000e+01 3.564947891235351562e+01 3.086134719848632812e+01 3.786070644855499268e-02 6.047231331467628479e-02 2.949990518391132355e-02 -6.436950527131557465e-03
6.900000000000000000e+01 3.575138854980468750e+01 3.379522705078125000e+01 5.493688955903053284e-02 7.116491347551345825e-02 3.783054277300834656e-02 -7.324576377868652344e-03
7.000000000000000000e+01 3.624706649780273438e+01 3.703697967529296875e+01 6.374783068895339966e-02 1.025756672024726868e-01 4.989705234766006470e-02 -1.682191155850887299e-02
7.100000000000000000e+01 3.700751876831054688e+01 4.061258316040039062e+01 6.389629095792770386e-02 1.353364437818527222e-01 5.976982042193412781e-02 -4.641737323254346848e-03
7.200000000000000000e+01 3.243694305419921875e+01 4.092020034790039062e+01 7.201091945171356201e-02 4.534764215350151062e-02 3.520756587386131287e-02 -4.349164373707026243e-04
7.300000000000000000e+01 3.226079559326171875e+01 3.772844314575195312e+01 6.715004146099090576e-02 4.090049490332603455e-02 3.241516277194023132e-02 4.641165956854820251e-03
7.400000000000000000e+01 3.197354698181152344e+01 3.458589172363281250e+01 5.203538015484809875e-02 2.858000062406063080e-02 2.418461441993713379e-02 3.736511338502168655e-03
7.500000000000000000e+01 3.310941696166992188e+01 3.055706214904785156e+01 2.854118123650550842e-02 2.487009391188621521e-02 1.602338254451751709e-02 1.009799819439649582e-02
7.600000000000000000e+01 3.380391311645507812e+01 2.656417274475097656e+01 -1.628380641341209412e-02 2.109645865857601166e-02 1.443795976229012012e-03 1.519273128360509872e-02
7.700000000000000000e+01 3.310126495361328125e+01 2.298321723937988281e+01 -7.014714926481246948e-02 6.487291771918535233e-03 -1.909795589745044708e-02 2.921289950609207153e-02
7.800000000000000000e+01 3.220037841796875000e+01 2.162747955322265625e+01 -9.804376214742660522e-02 -8.317871019244194031e-03 -3.190848976373672485e-02 3.643038496375083923e-02
7.900000000000000000e+01 3.210681915283203125e+01 1.370073699951171875e+01 -4.043408203870058060e-03 -1.093711052089929581e-02 -4.494155757129192352e-03 6.295908708125352859e-03
8.000000000000000000e+01 3.305110168457031250e+01 1.140205669403076172e+01 -5.106275784783065319e-04 1.307855709455907345e-03 2.391684392932802439e-04 1.501768128946423531e-03
8.100000000000000000e+01 3.294616699218750000e+01 1.015416145324707031e+01 1.065633143298327923e-03 4.565343726426362991e-03 1.689292956143617630e-03 -7.771404343657195568e-04
8.200000000000000000e+01 3.320445251464843750e+01 8.542713165283203125e+00 1.412361161783337593e-03 3.411879530176520348e-03 1.447272254154086113e-03 -8.267727098427712917e-04
8.300000000000000000e+01 3.330781555175781250e+01 7.338132381439208984e+00 -6.883933092467486858e-04 2.070542424917221069e-03 4.146447463426738977e-04 -5.141338915564119816e-04
8.400000000000000000e+01 3.793112182617187500e+01 7.494329452514648438e+00 -2.128761494532227516e-03 -8.844923577271401882e-04 -9.039761498570442200e-04 1.320064300671219826e-03
8.500000000000000000e+01 3.894214248657226562e+01 3.338657617568969727e+00 3.746774455066770315e-04 -9.737172513268887997e-05 8.319171320181339979e-05 2.501067356206476688e-04
8.600000000000000000e+01 3.847715377807617188e+01 4.445939540863037109e+00 3.163022338412702084e-04 -3.857190022245049477e-04 -2.082502760458737612e-05 -2.423077967250719666e-05
8.700000000000000000e+01 3.726592636108398438e+01 2.748748779296875000e+00 2.663104969542473555e-04 2.281067572766914964e-04 1.483251835452392697e-04 -1.657710090512409806e-04
8.800000000000000000e+01 3.883564376831054688e+01 7.035385608673095703e+00 3.265116596594452858e-03 1.778502482920885086e-03 1.513085793703794479e-03 -1.097314292564988136e-03
8.900000000000000000e+01 3.931737899780273438e+01 8.065455436706542969e+00 -2.529908670112490654e-03 1.268558087758719921e-03 -3.784051514230668545e-04 2.708600601181387901e-03
9.000000000000000000e+01 3.979130935668945312e+01 9.320576667785644531e+00 3.564319107681512833e-03 3.911542706191539764e-03 2.242758637294173241e-03 -4.400165053084492683e-04
9.100000000000000000e+01 4.048741912841796875e+01 1.049069881439208984e+01 -5.539452657103538513e-03 9.065556805580854416e-04 -1.389869139529764652e-03 1.824186183512210846e-03
9.200000000000000000e+01 4.032756805419921875e+01 1.204243373870849609e+01 -2.130638994276523590e-02 -3.360426053404808044e-04 -6.492729764431715012e-03 -7.258335128426551819e-03
9.300000000000000000e+01 3.921083450317382812e+01 1.872421264648437500e+01 -8.495304733514785767e-02 4.498651251196861267e-02 -1.198996044695377350e-02 2.252199314534664154e-02
9.400000000000000000e+01 3.991641616821289062e+01 2.259283447265625000e+01 -5.466939881443977356e-02 6.690714508295059204e-02 3.671323414891958237e-03 2.265563793480396271e-02
9.500000000000000000e+01 4.042556381225585938e+01 2.394235038757324219e+01 -1.698480546474456787e-02 7.108495384454727173e-02 1.623004488646984100e-02 1.266928575932979584e-02
9.600000000000000000e+01 3.982295227050781250e+01 2.657732772827148438e+01 1.915898732841014862e-02 7.834776490926742554e-02 2.925202623009681702e-02 -4.985414911061525345e-03
9.700000000000000000e+01 3.948135757446289062e+01 3.286710739135742188e+01 5.521145835518836975e-02 1.410443484783172607e-01 5.887674167752265930e-02 -4.011711478233337402e-02
9.800000000000000000e+01 3.985633087158203125e+01 3.607364273071289062e+01 5.780296400189399719e-02 1.715345680713653564e-01 6.880126148462295532e-02 -3.360951691865921021e-02
9.900000000000000000e+01 4.064159393310546875e+01 3.935633087158203125e+01 4.473156481981277466e-02 2.254972904920578003e-01 8.106865733861923218e-02 -2.542446739971637726e-02
1.000000000000000000e+02 4.319056320190429688e+01 4.099652099609375000e+01 1.493735238909721375e-02 3.158681392669677734e-01 9.924165159463882446e-02 -2.017781883478164673e-02
1.010000000000000000e+02 4.084187698364257812e+01 1.309404850006103516e+01 -3.177666664123535156e-02 1.943800016306340694e-03 -8.949859999120235443e-03 -1.613648235797882080e-02
1.020000000000000000e+02 4.128406143188476562e+01 1.527716064453125000e+01 -6.675509363412857056e-02 1.396928820759057999e-02 -1.583574153482913971e-02 -1.153234392404556274e-02
1.030000000000000000e+02 4.332549667358398438e+01 1.714512443542480469e+01 -1.067329570651054382e-01 2.347021363675594330e-02 -2.497882395982742310e-02 -3.187199309468269348e-02
1.040000000000000000e+02 4.203445434570312500e+01 1.988183021545410156e+01 -8.682874590158462524e-02 5.944989621639251709e-02 -8.213656023144721985e-03 2.622338710352778435e-03
1.050000000000000000e+02 4.578220748901367188e+01 2.485821914672851562e+01 7.421195507049560547e-02 6.222262606024742126e-02 4.093037545680999756e-02 -4.908300191164016724e-02
1.060000000000000000e+02 4.334717178344726562e+01 2.462808609008789062e+01 1.565791480243206024e-02 7.881048321723937988e-02 2.834051847457885742e-02 -1.537348795682191849e-02
1.070000000000000000e+02 4.310523605346679688e+01 3.213648605346679688e+01 6.655164808034896851e-02 2.016938030719757080e-01 8.047363907098770142e-02 -8.798678219318389893e-02
1.080000000000000000e+02 4.329859924316406250e+01 3.519257736206054688e+01 4.007846117019653320e-02 2.827961146831512451e-01 9.686236828565597534e-02 -9.441003203392028809e-02
1.090000000000000000e+02 4.366484832763671875e+01 3.809568405151367188e+01 1.096305809915065765e-02 3.372682332992553711e-01 1.044693812727928162e-01 -6.447890400886535645e-02
1.100000000000000000e+02 4.499114227294921875e+01 1.621585273742675781e+01 -1.006752327084541321e-01 -3.131373599171638489e-02 -3.959669172763824463e-02 -7.015581429004669189e-02
1.110000000000000000e+02 4.603847122192382812e+01 1.704498863220214844e+01 -1.381968855857849121e-01 -6.508645415306091309e-02 -6.098499894142150879e-02 -8.153714984655380249e-02
1.120000000000000000e+02 4.758482360839843750e+01 2.003154945373535156e+01 -1.517041623592376709e-01 -6.529469974339008331e-03 -4.747008904814720154e-02 -6.052617728710174561e-02
1.130000000000000000e+02 4.649632644653320312e+01 3.169665336608886719e+01 8.162085711956024170e-02 3.133754432201385498e-01 1.184988915920257568e-01 -1.946061700582504272e-01
1.140000000000000000e+02 4.670631790161132812e+01 3.454677200317382812e+01 1.866506226360797882e-02 3.928759396076202393e-01 1.234622970223426819e-01 -1.714022755622863770e-01
1.150000000000000000e+02 4.700915145874023438e+01 3.756925201416015625e+01 -3.407121822237968445e-02 4.729674756526947021e-01 1.316688805818557739e-01 -1.351282000541687012e-01
1.160000000000000000e+02 4.733393478393554688e+01 4.081941223144531250e+01 -8.391231298446655273e-02 5.377445220947265625e-01 1.361496597528457642e-01 -4.169925302267074585e-02
1.170000000000000000e+02 4.998308181762695312e+01 2.157388496398925781e+01 -4.980334267020225525e-02 -2.741005457937717438e-02 -2.316401898860931396e-02 -8.380236476659774780e-02
1.180000000000000000e+02 5.051502990722656250e+01 2.391245651245117188e+01 1.923295408487319946e-01 2.736687287688255310e-02 6.590892374515533447e-02 -1.695391684770584106e-01
1.190000000000000000e+02 4.955904769897460938e+01 3.110158348083496094e+01 7.961782813072204590e-02 4.221650660037994385e-01 1.505348682403564453e-01 -3.011549115180969238e-01
1.200000000000000000e+02 4.996226882934570312e+01 3.384466171264648438e+01 -8.473279885947704315e-03 5.547859072685241699e-01 1.638937890529632568e-01 -2.867000102996826172e-01
1.210000000000000000e+02 5.095232391357421875e+01 3.966593933105468750e+01 -1.910425126552581787e-01 7.502061128616333008e-01 1.677490770816802979e-01 -9.693284332752227783e-02
1.220000000000000000e+02 5.338770294189453125e+01 4.111410522460937500e+01 -2.931812703609466553e-01 8.906891942024230957e-01 1.792523711919784546e-01 -6.443083286285400391e-02
1.230000000000000000e+02 5.191199111938476562e+01 2.063176345825195312e+01 -2.194115370512008667e-01 -2.256227843463420868e-02 -7.259214669466018677e-02 -1.230987086892127991e-01
1.240000000000000000e+02 5.412782287597656250e+01 2.307705497741699219e+01 4.139082431793212891e-01 2.320994064211845398e-02 1.311354488134384155e-01 -2.992730736732482910e-01
1.250000000000000000e+02 5.254629516601562500e+01 3.024600982666015625e+01 9.536426514387130737e-02 6.427413821220397949e-01 2.214316874742507935e-01 -5.010393261909484863e-01
1.260000000000000000e+02 5.322457122802734375e+01 3.300613784790039062e+01 -1.046229079365730286e-01 8.240063786506652832e-01 2.158150374889373779e-01 -4.179146289825439453e-01
1.270000000000000000e+02 5.365079879760742188e+01 3.585375595092773438e+01 -2.377597242593765259e-01 9.120110273361206055e-01 2.022753953933715820e-01 -2.815313935279846191e-01
1.280000000000000000e+02 5.408407211303710938e+01 3.847763824462890625e+01 -3.099975883960723877e-01 9.436348676681518555e-01 1.900911927223205566e-01 -1.904255002737045288e-01
1.290000000000000000e+02 5.461611938476562500e+01 2.141827774047851562e+01 8.410108834505081177e-02 1.719879917800426483e-02 3.038996458053588867e-02 -1.431371867656707764e-01
1.300000000000000000e+02 5.710762023925781250e+01 2.537205314636230469e+01 5.130779147148132324e-01 1.134476542472839355e+00 4.942663311958312988e-01 -1.101775884628295898e+00
1.310000000000000000e+02 5.631669616699218750e+01 3.248317718505859375e+01 -2.233615964651107788e-01 1.116112828254699707e+00 2.678253650665283203e-01 -4.829782545566558838e-01
1.320000000000000000e+02 5.699646759033203125e+01 3.505399703979492188e+01 -3.627960979938507080e-01 1.157171130180358887e+00 2.383124977350234985e-01 -3.501541018486022949e-01
1.330000000000000000e+02 5.781015014648437500e+01 3.792418289184570312e+01 -4.630892276763916016e-01 1.170094251632690430e+00 2.121015042066574097e-01 -1.866517364978790283e-01
1.340000000000000000e+02 5.787010574340820312e+01 4.097592163085937500e+01 -5.054469108581542969e-01 1.145387649536132812e+00 1.919822245836257935e-01 -5.188079923391342163e-02
1.350000000000000000e+02 5.891561889648437500e+01 2.173819351196289062e+01 2.568536996841430664e+00 9.940128922462463379e-01 1.068764925003051758e+00 -1.382845640182495117e+00
1.360000000000000000e+02 5.977975463867187500e+01 2.646541213989257812e+01 -4.356734920293092728e-03 2.071125984191894531e+00 6.200307607650756836e-01 -9.152476191520690918e-01
1.370000000000000000e+02 6.020404434204101562e+01 3.380650711059570312e+01 -4.912934005260467529e-01 1.447398424148559570e+00 2.868314981460571289e-01 -2.925384938716888428e-01
1.380000000000000000e+02 6.121163940429687500e+01 3.658152389526367188e+01 -5.878170132637023926e-01 1.318214535713195801e+00 2.191192507743835449e-01 -1.042140126228332520e-01
1.390000000000000000e+02 6.359835815429687500e+01 3.822940826416015625e+01 -5.960083007812500000e-01 1.142819404602050781e+00 1.640433371067047119e-01 1.344200037419795990e-02
1.400000000000000000e+02 6.270149612426757812e+01 4.103138732910156250e+01 -5.952150821685791016e-01 1.128954768180847168e+00 1.601219028234481812e-01 -1.352141611278057098e-03
1.410000000000000000e+02 6.165013504028320312e+01 2.100255584716796875e+01 1.958271026611328125e+00 4.836311340332031250e+00 2.038374662399291992e+00 -1.881168007850646973e+00
1.420000000000000000e+02 6.411378479003906250e+01 1.681341934204101562e+01 1.092305183410644531e+00 5.819399833679199219e+00 2.073511362075805664e+00 -6.863985061645507812e-01
1.430000000000000000e+02 6.653807067871093750e+01 1.434548664093017578e+01 9.468021988868713379e-01 3.757732152938842773e+00 1.411360263824462891e+00 -1.333435624837875366e-01
1.440000000000000000e+02 7.163296508789062500e+01 1.102337455749511719e+01 5.520910024642944336e-01 3.460116684436798096e-01 2.694308161735534668e-01 -2.437633275985717773e-01
1.450000000000000000e+02 7.528256988525390625e+01 7.861005783081054688e+00 1.950193196535110474e-01 -1.479272842407226562e+00 -3.852760493755340576e-01 -4.583400785923004150e-01
1.460000000000000000e+02 7.935157775878906250e+01 5.310544490814208984e+00 -3.172344877384603024e-04 -3.326845645904541016e+00 -9.981489181518554688e-01 -1.063451766967773438e-01
1.470000000000000000e+02 7.933820343017578125e+01 6.716866970062255859e+00 1.599057950079441071e-02 -3.568116664886474609e+00 -1.065637826919555664e+00 -8.963610976934432983e-02
1.480000000000000000e+02 7.805834197998046875e+01 5.233817577362060547e+00 3.160057961940765381e-02 -2.644263029098510742e+00 -7.837986946105957031e-01 -3.197005987167358398e-01
1.490000000000000000e+02 7.795632934570312500e+01 1.093480491638183594e+01 5.693512037396430969e-02 -3.168357372283935547e+00 -9.334266781806945801e-01 -1.257670074701309204e-01
1.500000000000000000e+02 7.530323028564453125e+01 1.258134651184082031e+01 2.506788074970245361e-01 -1.632291197776794434e+00 -4.144837260246276855e-01 -8.544676750898361206e-02
1.510000000000000000e+02 6.673576354980468750e+01 1.880529785156250000e+01 1.083908200263977051e+00 3.009828090667724609e+00 1.228120923042297363e+00 1.990357339382171631e-01
1.520000000000000000e+02 6.393442153930664062e+01 2.384478378295898438e+01 1.416853368282318115e-01 3.231327056884765625e+00 1.011903643608093262e+00 2.442463673651218414e-02
1.530000000000000000e+02 6.184959411621093750e+01 1.941589164733886719e+01 2.150734424591064453e+00 6.746119022369384766e+00 2.669055938720703125e+00 -2.650048494338989258e+00
1.540000000000000000e+02 6.229523849487304688e+01 1.806926345825195312e+01 1.107906699180603027e+00 8.287097930908203125e+00 2.818501234054565430e+00 -1.888862133026123047e+00
1.550000000000000000e+02 6.266932678222656250e+01 1.354217624664306641e+01 3.224456012248992920e-01 7.564962387084960938e+00 2.366222381591796875e+00 2.045549601316452026e-01
1.560000000000000000e+02 6.273361968994140625e+01 1.507388877868652344e+01 3.136973381042480469e-01 7.621525764465332031e+00 2.380567073822021484e+00 -2.308057397603988647e-01
1.570000000000000000e+02 6.210299682617187500e+01 1.075890636444091797e+01 2.429212778806686401e-01 7.557544231414794922e+00 2.340139627456665039e+00 9.953469038009643555e-01
1.580000000000000000e+02 6.287504196166992188e+01 9.187815666198730469e+00 6.355390548706054688e-01 6.097336292266845703e+00 2.019862651824951172e+00 9.555149674415588379e-01
1.590000000000000000e+02 6.153727722167968750e+01 8.092529296875000000e+00 4.707397222518920898e-01 6.696826934814453125e+00 2.150269985198974609e+00 1.782938241958618164e+00
1.600000000000000000e+02 6.132545852661132812e+01 6.799238681793212891e+00 9.733247160911560059e-01 6.245249271392822266e+00 2.165572166442871094e+00 1.985836863517761230e+00
1.610000000000000000e+02 6.280362701416015625e+01 5.319036960601806641e+00 1.019894123077392578e+00 4.522995471954345703e+00 1.662866830825805664e+00 9.325301647186279297e-01
1.620000000000000000e+02 6.709526062011718750e+01 -5.188394784927368164e-01 1.137320026755332947e-01 1.371316552162170410e+00 4.455145895481109619e-01 -5.295045971870422363e-01
1.630000000000000000e+02 7.310437774658203125e+01 -1.615871548652648926e+00 -2.342654578387737274e-02 -2.476872056722640991e-01 -8.133412897586822510e-02 -9.066686630249023438e-01
1.640000000000000000e+02 7.551995086669921875e+01 -5.795507907867431641e+00 -1.082933545112609863e-01 -4.692926108837127686e-01 -1.732757985591888428e-01 -6.512567400932312012e-01
1.650000000000000000e+02 7.941851043701171875e+01 -1.002834892272949219e+01 -3.263283288106322289e-03 -2.526488006114959717e-01 -7.677362114191055298e-02 -6.413415074348449707e-02
1.660000000000000000e+02 7.938349151611328125e+01 -5.863942146301269531e+00 -8.651779033243656158e-03 -9.082601666450500488e-01 -2.750735878944396973e-01 -1.142916232347488403e-01
1.670000000000000000e+02 7.684998321533203125e+01 -4.444664478302001953e+00 -3.576090186834335327e-02 -8.208020329475402832e-01 -2.569688856601715088e-01 -5.563789010047912598e-01
1.680000000000000000e+02 7.811716461181640625e+01 -3.077060937881469727e+00 -2.187022706493735313e-03 -1.258630275726318359e+00 -3.782452046871185303e-01 -3.864694237709045410e-01
1.690000000000000000e+02 7.561251068115234375e+01 -1.641116857528686523e+00 -1.732822507619857788e-02 -8.887225985527038574e-01 -2.718152403831481934e-01 -7.449116110801696777e-01
1.700000000000000000e+02 7.291180419921875000e+01 2.319596529006958008e+00 1.766042113304138184e-01 -2.686057686805725098e-01 -2.760046347975730896e-02 -8.424229025840759277e-01
1.710000000000000000e+02 6.578144073486328125e+01 7.662805080413818359e+00 8.417735695838928223e-01 3.449201107025146484e+00 1.287292361259460449e+00 9.673306345939636230e-02
1.720000000000000000e+02 6.570977783203125000e+01 1.000550270080566406e+01 7.286743521690368652e-01 4.070531845092773438e+00 1.439761877059936523e+00 1.032889187335968018e-01
1.730000000000000000e+02 6.362091064453125000e+01 6.953538894653320312e+00 8.170653581619262695e-01 4.765186786651611328e+00 1.674675583839416504e+00 6.704211235046386719e-01
1.740000000000000000e+02 6.267294311523437500e+01 8.015506744384765625e+00 7.857497930526733398e-01 6.021864891052246094e+00 2.042284488677978516e+00 1.273600459098815918e+00
1.750000000000000000e+02 6.043376922607421875e+01 4.891002655029296875e+00 1.610580086708068848e+00 5.210690975189208984e+00 2.046381235122680664e+00 2.393720865249633789e+00
1.760000000000000000e+02 5.963573074340820312e+01 3.855212450027465820e+00 1.524100303649902344e+00 3.881055116653442383e+00 1.621546626091003418e+00 2.419748783111572266e+00
1.770000000000000000e+02 6.364879989624023438e+01 1.947930574417114258e+00 4.582140147686004639e-01 2.876092195510864258e+00 1.000291824340820312e+00 2.838718891143798828e-01
1.780000000000000000e+02 6.721810913085937500e+01 -3.244745731353759766e+00 -1.207088530063629150e-01 9.897916316986083984e-01 2.607248425483703613e-01 -5.827969312667846680e-01
1.790000000000000000e+02 7.179561614990234375e+01 -5.454076290130615234e+00 -2.610981166362762451e-01 5.506357178092002869e-02 -6.181036308407783508e-02 -8.444827795028686523e-01
1.800000000000000000e+02 7.587635040283203125e+01 -8.473415374755859375e+00 -1.520182490348815918e-01 -2.854884564876556396e-01 -1.312520056962966919e-01 -4.636822938919067383e-01
1.810000000000000000e+02 7.863811492919921875e+01 -1.318410205841064453e+01 -1.795018836855888367e-02 -5.515320599079132080e-02 -2.193101868033409119e-02 -4.322519153356552124e-02
1.820000000000000000e+02 7.941329193115234375e+01 -8.636181831359863281e+00 -1.092224661260843277e-02 -4.324071407318115234e-01 -1.329988092184066772e-01 -8.199329674243927002e-02
1.830000000000000000e+02 5.984850692749023438e+01 1.872272133827209473e+00 9.231306314468383789e-01 3.328502893447875977e+00 1.275490045547485352e+00 1.733059167861938477e+00
1.840000000000000000e+02 6.188674926757812500e+01 1.425739973783493042e-01 4.579615294933319092e-01 2.628672122955322266e+00 9.259900450706481934e-01 6.917182803153991699e-01
1.850000000000000000e+02 6.034823989868164062e+01 -7.917716026306152344e+00 -7.928170561790466309e-01 1.148850083351135254e+00 1.068099141120910645e-01 7.960093021392822266e-01
1.860000000000000000e+02 6.261381149291992188e+01 -1.094516181945800781e+01 -1.500763654708862305e+00 1.008043587207794189e-01 -4.199877679347991943e-01 4.361801445484161377e-01
1.870000000000000000e+02 5.835139465332031250e+01 -1.421821212768554688e+01 -2.596264779567718506e-01 3.042221255600452423e-02 -6.876127421855926514e-02 1.494311839342117310e-01
1.880000000000000000e+02 6.090777206420898438e+01 -1.337583351135253906e+01 -9.699810147285461426e-01 -2.837001904845237732e-02 -2.995053231716156006e-01 -1.818066835403442383e-01
1.890000000000000000e+02 5.917258071899414062e+01 -1.265762805938720703e+01 -7.207269668579101562e-01 3.659395873546600342e-01 -1.064362078905105591e-01 4.104349613189697266e-01
1.900000000000000000e+02 6.334418487548828125e+01 -1.213138961791992188e+01 -2.826432704925537109e+00 -3.517836630344390869e-01 -9.534649252891540527e-01 -3.044439852237701416e-01
1.910000000000000000e+02 6.638745880126953125e+01 -1.140784931182861328e+01 -1.612777113914489746e+00 9.812593460083007812e-02 -4.543953537940979004e-01 -3.597834706306457520e-01
1.920000000000000000e+02 6.547625732421875000e+01 -1.236095046997070312e+01 -2.481132745742797852e+00 -3.889775574207305908e-01 -8.610330820083618164e-01 4.578115344047546387e-01
1.930000000000000000e+02 6.491950225830078125e+01 -5.739829063415527344e+00 -3.753823637962341309e-01 8.292433023452758789e-01 1.361582726240158081e-01 -2.454219907522201538e-01
1.940000000000000000e+02 6.251221084594726562e+01 -3.181844949722290039e+00 -4.178869724273681641e-02 1.734692335128784180e+00 5.078710913658142090e-01 3.015902638435363770e-01
1.950000000000000000e+02 6.459310913085937500e+01 1.040787816047668457e+00 4.112583994865417480e-01 2.354809761047363281e+00 8.298204541206359863e-01 4.559669271111488342e-02
1.960000000000000000e+02 6.006196212768554688e+01 -2.460498921573162079e-02 7.062863111495971680e-01 2.737817764282226562e+00 1.033231258392333984e+00 1.258521318435668945e+00
1.970000000000000000e+02 5.879524612426757812e+01 2.769058227539062500e+00 1.472043514251708984e+00 3.354708433151245117e+00 1.448025584220886230e+00 2.126214265823364258e+00
1.980000000000000000e+02 5.796451568603515625e+01 1.653388023376464844e+00 1.232069253921508789e+00 2.991203069686889648e+00 1.266981720924377441e+00 2.020125627517700195e+00
1.990000000000000000e+02 5.762051391601562500e+01 -3.291651725769042969e+00 2.659697830677032471e-01 2.311977624893188477e+00 7.733842134475708008e-01 1.111390471458435059e+00
2.000000000000000000e+02 5.651182174682617188e+01 -2.496058464050292969e+00 6.845391988754272461e-01 2.421229362487792969e+00 9.317305684089660645e-01 1.380663752555847168e+00
2.010000000000000000e+02 5.572402191162109375e+01 -7.714272975921630859e+00 -1.059717059135437012e+00 1.866537451744079590e+00 2.420461177825927734e-01 1.800773859024047852e+00
2.020000000000000000e+02 5.872232437133789062e+01 -1.149513339996337891e+01 -7.233436703681945801e-01 7.636861801147460938e-01 1.210274640470743179e-02 7.894643545150756836e-01
2.030000000000000000e+02 5.435470581054687500e+01 -1.468529033660888672e+01 1.852842450141906738e+00 2.069833427667617798e-01 6.179477572441101074e-01 6.000635027885437012e-01
2.040000000000000000e+02 5.359768295288085938e+01 -3.828486442565917969e+00 7.719269394874572754e-01 1.670902132987976074e+00 7.328487038612365723e-01 1.166326284408569336e+00
2.050000000000000000e+02 5.307784271240234375e+01 -7.981124401092529297e+00 -1.593087315559387207e+00 1.429062008857727051e+00 -4.920759424567222595e-02 2.324646472930908203e+00
2.060000000000000000e+02 4.908592987060546875e+01 -5.386152744293212891e+00 -6.580084323883056641e+00 -3.440917432308197021e-01 -2.077252864837646484e+00 1.114610195159912109e+00
2.070000000000000000e+02 5.005451583862304688e+01 -7.025884628295898438e+00 -2.700519084930419922e+00 -1.912676170468330383e-02 -8.158937692642211914e-01 1.985609173774719238e+00
2.080000000000000000e+02 4.635404968261718750e+01 -4.686645030975341797e+00 -6.147132396697998047e+00 -4.113046824932098389e-01 -1.967531204223632812e+00 1.715652227401733398e+00
2.090000000000000000e+02 4.368798828125000000e+01 -3.927510023117065430e+00 -5.730350494384765625e+00 -6.944643259048461914e-01 -1.927444458007812500e+00 1.777643322944641113e+00
2.100000000000000000e+02 4.015199661254882812e+01 -2.804641962051391602e+00 -3.075197219848632812e+00 6.281781196594238281e-02 -9.037138223648071289e-01 9.185270667076110840e-01
2.110000000000000000e+02 3.624544906616210938e+01 -2.624011993408203125e+00 -2.317620754241943359e+00 6.147298216819763184e-01 -5.108672976493835449e-01 4.731575846672058105e-01
2.120000000000000000e+02 3.248673248291015625e+01 -3.177431821823120117e+00 -1.916600108146667480e+00 9.417336434125900269e-02 -5.467280149459838867e-01 -2.843233942985534668e-01
2.130000000000000000e+02 3.284987258911132812e+01 -2.418778419494628906e+00 -2.347307443618774414e+00 -2.400873750448226929e-01 -7.762184739112854004e-01 -2.076326608657836914e-01
2.140000000000000000e+02 3.195292854309082031e+01 -1.978048086166381836e+00 -2.742891550064086914e+00 5.820584297180175781e-02 -8.054057359695434570e-01 -4.663513004779815674e-01
2.150000000000000000e+02 3.150915718078613281e+01 -1.646720886230468750e+00 -3.154191970825195312e+00 3.962872624397277832e-01 -8.273714184761047363e-01 -3.781654238700866699e-01
2.160000000000000000e+02 3.151739692687988281e+01 -1.954446315765380859e+00 -2.653130054473876953e+00 1.452215313911437988e-01 -7.523725628852844238e-01 -4.291812181472778320e-01
2.170000000000000000e+02 2.857072067260742188e+01 -8.085980415344238281e+00 6.426782011985778809e-01 3.506907820701599121e-02 2.033241838216781616e-01 -4.968287944793701172e-01
2.180000000000000000e+02 2.573675918579101562e+01 -9.412781715393066406e+00 -7.110944986343383789e-01 -2.924794852733612061e-01 -3.010722100734710693e-01 -4.845892190933227539e-01
2.190000000000000000e+02 2.753944206237792969e+01 -7.905630111694335938e+00 -2.804682776331901550e-02 -2.837044894695281982e-01 -9.352538734674453735e-02 -5.501030683517456055e-01
2.200000000000000000e+02 2.674350929260253906e+01 -7.319578170776367188e+00 -2.337213307619094849e-01 -3.478274941444396973e-01 -1.744646430015563965e-01 -7.648887634277343750e-01
2.210000000000000000e+02 3.972197723388671875e+01 -2.025307655334472656e+00 -2.472797632217407227e+00 -9.299825876951217651e-02 -7.697387337684631348e-01 1.216135501861572266e+00
2.220000000000000000e+02 3.936174392700195312e+01 -7.416729927062988281e-01 -1.181545019149780273e+00 -6.253693997859954834e-02 -3.732245862483978271e-01 6.715626120567321777e-01
2.230000000000000000e+02 3.799341583251953125e+01 -8.924062848091125488e-01 -1.675530195236206055e+00 2.962964475154876709e-01 -4.137701392173767090e-01 5.477479696273803711e-01
2.240000000000000000e+02 3.653293991088867188e+01 -1.167938351631164551e+00 -2.092888832092285156e+00 3.993408381938934326e-01 -5.080644488334655762e-01 3.272543847560882568e-01
2.250000000000000000e+02 3.351354598999023438e+01 -2.328800678253173828e+00 -2.458876371383666992e+00 -1.251056641340255737e-01 -7.751945853233337402e-01 1.924463659524917603e-01
2.260000000000000000e+02 4.034835052490234375e+01 -1.429546236991882324e+00 -1.419917941093444824e+00 -8.023008704185485840e-01 -6.666656136512756348e-01 1.091443657875061035e+00
2.270000000000000000e+02 2.527972412109375000e+01 -2.627712726593017578e+00 -1.167862653732299805e+00 -6.029156222939491272e-02 -3.684462606906890869e-01 -7.218303680419921875e-01
2.280000000000000000e+02 2.339468765258789062e+01 -3.248575210571289062e+00 -7.639386653900146484e-01 -4.153767228126525879e-02 -2.416429072618484497e-01 -6.573944091796875000e-01
2.290000000000000000e+02 1.904218673706054688e+01 -2.210748672485351562e+00 -1.609052270650863647e-01 -8.184967190027236938e-02 -7.282646745443344116e-02 -2.871961891651153564e-01
2.300000000000000000e+02 1.578017807006835938e+01 -1.743483185768127441e+00 1.658128499984741211e-01 -4.498529434204101562e-02 3.624826669692993164e-02 -9.709280729293823242e-02
2.310000000000000000e+02 1.270887374877929688e+01 -1.840761065483093262e+00 2.476335465908050537e-01 -2.290070243179798126e-02 6.741985678672790527e-02 1.424962468445301056e-02
2.320000000000000000e+02 1.043302631378173828e+01 -1.861517786979675293e+00 2.358362376689910889e-01 -1.263723615556955338e-02 6.695970147848129272e-02 6.136972829699516296e-02
2.330000000000000000e+02 5.084578514099121094e+00 -2.700917005538940430e+00 6.466282904148101807e-02 1.068129949271678925e-02 2.260323986411094666e-02 9.965840727090835571e-02
2.340000000000000000e+02 1.218716621398925781e+00 -2.115920305252075195e+00 1.182896923273801804e-02 3.403880819678306580e-02 1.376033294945955276e-02 3.084900602698326111e-02
2.350000000000000000e+02 5.250466465950012207e-01 -3.597220659255981445e+00 3.231367096304893494e-03 8.171121776103973389e-02 2.548277564346790314e-02 2.256942540407180786e-02
2.360000000000000000e+02 2.484854698181152344e+01 -2.050486803054809570e+00 -1.136610984802246094e+00 4.182028025388717651e-02 -3.284372091293334961e-01 -5.533411502838134766e-01
2.370000000000000000e+02 2.421293067932128906e+01 -1.789770483970642090e+00 -9.797379970550537109e-01 8.554320037364959717e-02 -2.682584524154663086e-01 -4.246098101139068604e-01
2.380000000000000000e+02 2.436434745788574219e+01 -9.395909309387207031e-01 -9.016003012657165527e-01 1.141220256686210632e-01 -2.362434715032577515e-01 -1.748794168233871460e-01
2.390000000000000000e+02 2.439215469360351562e+01 -1.890817731618881226e-01 -5.498151779174804688e-01 3.803930431604385376e-02 -1.535327583551406860e-01 1.022330112755298615e-02
2.400000000000000000e+02 1.119068241119384766e+01 -1.854630589485168457e+00 2.458377480506896973e-01 -1.524268463253974915e-02 6.917852163314819336e-02 4.956592619419097900e-02
2.410000000000000000e+02 7.362771987915039062e+00 -1.876214742660522461e+00 1.648282110691070557e-01 -2.197603695094585419e-03 4.878918454051017761e-02 8.532690256834030151e-02
2.420000000000000000e+02 3.519947290420532227e+00 -1.866705894470214844e+00 5.878565460443496704e-02 1.347122434526681900e-02 2.167706377804279327e-02 6.885894387960433960e-02
2.430000000000000000e+02 5.038006782531738281e+00 -1.888411045074462891e+00 9.989485889673233032e-02 6.049622315913438797e-03 3.178334236145019531e-02 8.145852386951446533e-02
2.440000000000000000e+02 1.424414348602294922e+01 -1.800545334815979004e+00 2.244527041912078857e-01 -3.371580690145492554e-02 5.722106993198394775e-02 -3.560798615217208862e-02
2.450000000000000000e+02 1.205339908599853516e+01 -2.565998315811157227e+00 1.399560570716857910e-01 -3.889448940753936768e-02 3.031847067177295685e-02 2.807423472404479980e-02
2.460000000000000000e+02 4.444339275360107422e+00 -3.801248311996459961e+00 1.658552139997482300e-02 2.388703450560569763e-02 1.214176695793867111e-02 1.037771254777908325e-01
2.470000000000000000e+02 2.045727491378784180e+00 -9.390353202819824219e+00 -3.943058848381042480e-02 1.136416718363761902e-01 2.226332575082778931e-02 -2.018897607922554016e-02
2.480000000000000000e+02 3.330650806427001953e+00 -9.143836021423339844e+00 -8.520597964525222778e-02 5.039107427000999451e-02 -1.044447161257266998e-02 -2.814936079084873199e-02
2.490000000000000000e+02 1.864930748939514160e+00 -1.639517021179199219e+01 -2.210476621985435486e-02 -3.229698836803436279e-01 -1.035223975777626038e-01 -2.348973900079727173e-01
2.500000000000000000e+02 2.038581609725952148e+00 -2.058493804931640625e+01 1.143750827759504318e-02 -8.077241778373718262e-01 -2.388859987258911133e-01 -2.760387361049652100e-01
2.510000000000000000e+02 6.467778086662292480e-01 -2.767175483703613281e+01 7.975929416716098785e-03 -1.680344343185424805e+00 -5.017105340957641602e-01 -4.248371347784996033e-02
2.520000000000000000e+02 1.963641405105590820e+00 -2.773108100891113281e+01 2.414125576615333557e-02 -1.447797775268554688e+00 -4.270969629287719727e-01 -1.221011355519294739e-01
2.530000000000000000e+02 6.847630143165588379e-01 -3.462448120117187500e+01 1.490511582233011723e-03 -1.875886917114257812e+00 -5.623189210891723633e-01 7.192483637481927872e-03
2.540000000000000000e+02 7.093263268470764160e-01 -3.600278472900390625e+01 -2.593460027128458023e-03 -1.864625215530395508e+00 -5.601656436920166016e-01 5.248742643743753433e-03
2.550000000000000000e+02 1.332148313522338867e+00 -4.005743408203125000e+01 2.686437219381332397e-02 -1.724419713020324707e+00 -5.092666149139404297e-01 5.395580828189849854e-02
2.560000000000000000e+02 8.196029663085937500e+00 -4.113383102416992188e+01 1.459885109215974808e-02 -7.408062815666198730e-01 -2.178622335195541382e-01 -1.228900067508220673e-02
2.570000000000000000e+02 9.702366828918457031e+00 -3.568981552124023438e+01 1.196038946509361267e-01 -4.663599133491516113e-01 -1.040268018841743469e-01 -7.426470518112182617e-02
2.580000000000000000e+02 9.595343589782714844e+00 -3.288000869750976562e+01 1.732659190893173218e-01 -4.814666211605072021e-01 -9.246020764112472534e-02 -1.441873311996459961e-01
2.590000000000000000e+02 1.111173725128173828e+01 -2.718374824523925781e+01 4.447738826274871826e-01 -2.169830352067947388e-01 6.833725422620773315e-02 -3.595606088638305664e-01
2.600000000000000000e+02 7.341916084289550781e+00 -2.556776428222656250e+01 2.681786119937896729e-01 -6.776895523071289062e-01 -1.228532865643501282e-01 -4.228918552398681641e-01
2.610000000000000000e+02 8.923342704772949219e+00 -1.732587623596191406e+01 -1.930552721023559570e-01 -3.305335342884063721e-01 -1.570766419172286987e-01 -7.800122499465942383e-01
2.620000000000000000e+02 1.055722713470458984e+01 -1.333438777923583984e+01 -7.005980610847473145e-01 -2.334037572145462036e-01 -2.802005410194396973e-01 -5.170947909355163574e-01
2.630000000000000000e+02 8.140933990478515625e+00 -1.105101394653320312e+01 -4.523220062255859375e-01 -1.023162156343460083e-01 -1.663914620876312256e-01 -2.446603178977966309e-01
2.640000000000000000e+02 9.211370468139648438e+00 -5.616892814636230469e+00 -1.737579852342605591e-01 -6.167383491992950439e-02 -7.062954455614089966e-02 5.352060496807098389e-02
2.650000000000000000e+02 8.902629852294921875e+00 -1.869515299797058105e+00 2.053735554218292236e-01 -7.012878078967332840e-03 5.950820446014404297e-02 7.728225737810134888e-02
2.660000000000000000e+02 2.036276578903198242e+00 -4.162800979614257812e+01 -6.417595595121383667e-02 -1.698758482933044434e+00 -5.288803577423095703e-01 1.816243305802345276e-02
2.670000000000000000e+02 1.264043807983398438e+01 -4.121331787109375000e+01 6.837654113769531250e-02 -1.340338885784149170e-01 -1.969720609486103058e-02 -1.547642704099416733e-02
2.680000000000000000e+02 1.279486465454101562e+01 -3.849461364746093750e+01 8.856413513422012329e-02 -1.190980225801467896e-01 -9.160166606307029724e-03 -5.493725463747978210e-02
2.690000000000000000e+02 1.264576816558837891e+01 -3.561087417602539062e+01 1.590284407138824463e-01 -1.261278241872787476e-01 9.870183654129505157e-03 -9.503335505723953247e-02
2.700000000000000000e+02 1.235936832427978516e+01 -3.264381790161132812e+01 2.678252160549163818e-01 -1.079998984932899475e-01 4.794759303331375122e-02 -1.674538403749465942e-01
2.710000000000000000e+02 1.297519779205322266e+01 -2.362058258056640625e+01 6.064198017120361328e-01 1.084184497594833374e-01 2.144514769315719604e-01 -5.471411347389221191e-01
2.720000000000000000e+02 1.019828414916992188e+01 -1.916456413269042969e+01 6.027879193425178528e-02 -3.558173775672912598e-01 -8.866157382726669312e-02 -8.492171168327331543e-01
2.730000000000000000e+02 1.275655746459960938e+01 -1.802717781066894531e+01 -1.119249388575553894e-01 -3.861181735992431641e-01 -1.494129300117492676e-01 -7.637289762496948242e-01
2.740000000000000000e+02 1.227701282501220703e+01 -1.357642364501953125e+01 -8.826490044593811035e-01 -3.930520415306091309e-01 -3.827103078365325928e-01 -5.760599970817565918e-01
2.750000000000000000e+02 1.172680568695068359e+01 -1.124485397338867188e+01 -8.022860288619995117e-01 -3.128358423709869385e-01 -3.345365524291992188e-01 -3.280013799667358398e-01
2.760000000000000000e+02 1.181595897674560547e+01 -5.757096290588378906e+00 -2.540811300277709961e-01 -1.568925529718399048e-01 -1.232921034097671509e-01 -1.870618388056755066e-02
2.770000000000000000e+02 1.675056457519531250e+01 -3.811053085327148438e+01 1.709361821413040161e-01 3.091428279876708984e-01 1.440237015485763550e-01 -7.950128614902496338e-02
2.780000000000000000e+02 1.572462558746337891e+01 -3.515889739990234375e+01 2.433912456035614014e-01 2.445328384637832642e-01 1.463772356510162354e-01 -1.400519758462905884e-01
2.790000000000000000e+02 1.481116199493408203e+01 -3.265166091918945312e+01 3.439785838127136230e-01 1.733279675245285034e-01 1.551919728517532349e-01 -2.045265287160873413e-01
2.800000000000000000e+02 1.375391101837158203e+01 -2.574514198303222656e+01 6.045996546745300293e-01 2.167823910713195801e-01 2.464146167039871216e-01 -4.406187832355499268e-01
2.810000000000000000e+02 1.809517288208007812e+01 -2.569845581054687500e+01 9.405542016029357910e-01 8.879560232162475586e-01 5.485530495643615723e-01 -8.567579388618469238e-01
2.820000000000000000e+02 1.712305259704589844e+01 -2.464567947387695312e+01 8.396396040916442871e-01 9.369304180145263672e-01 5.329710245132446289e-01 -8.544977903366088867e-01
2.830000000000000000e+02 1.538593769073486328e+01 -2.240549278259277344e+01 6.838036775588989258e-01 1.017861366271972656e+00 5.104994773864746094e-01 -7.851988673210144043e-01
2.840000000000000000e+02 1.477337455749511719e+01 -2.128385734558105469e+01 4.756358861923217773e-01 9.241865873336791992e-01 4.199467599391937256e-01 -6.008866429328918457e-01
2.850000000000000000e+02 1.265775394439697266e+01 -1.938008689880371094e+01 1.961879730224609375e-01 -2.197811454534530640e-01 -7.077949587255716324e-03 -7.549818754196166992e-01
2.860000000000000000e+02 1.415796470642089844e+01 -1.942531394958496094e+01 8.967439085245132446e-02 1.689127087593078613e-01 7.757613062858581543e-02 -3.624322116374969482e-01
2.870000000000000000e+02 1.420914936065673828e+01 -1.803608894348144531e+01 -1.538899727165699005e-02 -4.322123229503631592e-01 -1.342803984880447388e-01 -2.920806109905242920e-01
2.880000000000000000e+02 1.463440990447998047e+01 -1.514462471008300781e+01 -6.194469332695007324e-01 -1.460904002189636230e+00 -6.241052746772766113e-01 -8.442206978797912598e-01
2.890000000000000000e+02 1.437014865875244141e+01 -1.126856517791748047e+01 -1.121659874916076660e+00 -7.386885285377502441e-01 -5.581045150756835938e-01 -4.662685394287109375e-01
2.900000000000000000e+02 1.559901523590087891e+01 -1.263728618621826172e+01 -1.465662598609924316e+00 -1.220820426940917969e+00 -8.059449195861816406e-01 -9.947849512100219727e-01
2.910000000000000000e+02 1.627549362182617188e+01 -5.696693420410156250e+00 -3.714223504066467285e-01 -3.322176635265350342e-01 -2.110920101404190063e-01 -3.172696530818939209e-01
2.920000000000000000e+02 1.730307197570800781e+01 -4.110747909545898438e+01 1.430785953998565674e-01 3.539625406265258789e-01 1.491123437881469727e-01 -2.326932922005653381e-02
2.930000000000000000e+02 2.077294540405273438e+01 -3.760085296630859375e+01 2.947606444358825684e-01 5.939803123474121094e-01 2.666222751140594482e-01 -1.182335987687110901e-01
2.940000000000000000e+02 1.786787414550781250e+01 -3.376704788208007812e+01 4.001158475875854492e-01 4.398252069950103760e-01 2.519823312759399414e-01 -2.162207663059234619e-01
2.950000000000000000e+02 1.779473686218261719e+01 -3.061956596374511719e+01 5.857120156288146973e-01 4.903192520141601562e-01 3.228093981742858887e-01 -3.659369945526123047e-01
2.960000000000000000e+02 2.126986503601074219e+01 -2.858460044860839844e+01 1.157225728034973145e+00 6.584939956665039062e-01 5.447158813476562500e-01 -7.845328450202941895e-01
2.970000000000000000e+02 1.912615966796875000e+01 -2.669176864624023438e+01 9.462969303131103516e-01 7.743706703186035156e-01 5.162002444267272949e-01 -8.381122946739196777e-01
2.980000000000000000e+02 2.018562889099121094e+01 -2.765972137451171875e+01 1.015546202659606934e+00 7.312803864479064941e-01 5.240479707717895508e-01 -7.976765632629394531e-01
2.990000000000000000e+02 2.194491767883300781e+01 -4.091381072998046875e+01 2.330984920263290405e-01 6.441047191619873047e-01 2.631609737873077393e-01 -2.928388305008411407e-02
3.000000000000000000e+02 2.437586784362792969e+01 -3.712630462646484375e+01 4.175187945365905762e-01 6.980159878730773926e-01 3.346604406833648682e-01 -8.235423266887664795e-02
3.010000000000000000e+02 2.458204269409179688e+01 -3.006091308593750000e+01 1.321006178855895996e+00 2.831249535083770752e-01 4.812393486499786377e-01 -3.133414387702941895e-01
3.020000000000000000e+02 2.332234382629394531e+01 -3.057535743713378906e+01 1.189672946929931641e+00 4.869180619716644287e-01 5.029773116111755371e-01 -4.396860003471374512e-01
3.030000000000000000e+02 2.239365959167480469e+01 -2.937834739685058594e+01 1.323629140853881836e+00 5.415040850639343262e-01 5.595399737358093262e-01 -6.305390000343322754e-01
3.040000000000000000e+02 2.634148025512695312e+01 -4.060908126831054688e+01 2.990625500679016113e-01 8.396784663200378418e-01 3.416223227977752686e-01 -1.857521198689937592e-02
3.050000000000000000e+02 2.703026390075683594e+01 -3.602444076538085938e+01 5.206781029701232910e-01 7.224382758140563965e-01 3.729349076747894287e-01 -2.439263463020324707e-02
3.060000000000000000e+02 3.239970397949218750e+01 -2.945674324035644531e+01 8.249574303627014160e-01 6.380700469017028809e-01 4.389082491397857666e-01 5.222229957580566406e-01
3.070000000000000000e+02 3.237347793579101562e+01 -2.717860031127929688e+01 7.037271261215209961e-01 6.701059937477111816e-01 4.121499359607696533e-01 6.811287403106689453e-01
3.080000000000000000e+02 2.976749610900878906e+01 -3.288357543945312500e+01 7.263084053993225098e-01 6.301204562187194824e-01 4.069286584854125977e-01 2.142842262983322144e-01
3.090000000000000000e+02 2.625896644592285156e+01 -3.229043197631835938e+01 9.041414856910705566e-01 4.563462138175964355e-01 4.081462919712066650e-01 -1.290826350450515747e-01
3.100000000000000000e+02 2.950366020202636719e+01 -3.896120071411132812e+01 3.422245383262634277e-01 9.080877304077148438e-01 3.750936686992645264e-01 4.831986129283905029e-02
3.110000000000000000e+02 3.120803451538085938e+01 -3.628445434570312500e+01 4.241682291030883789e-01 9.224584102630615234e-01 4.039879739284515381e-01 1.578847765922546387e-01
3.120000000000000000e+02 2.883331871032714844e+01 -3.454423904418945312e+01 6.414889693260192871e-01 6.830273270606994629e-01 3.973548710346221924e-01 8.421643823385238647e-02
3.130000000000000000e+02 3.024005126953125000e+01 -2.896537590026855469e+01 1.054153203964233398e+00 4.802249968051910400e-01 4.603134691715240479e-01 5.691133141517639160e-01
3.140000000000000000e+02 3.618204116821289062e+01 -2.819996070861816406e+01 6.695733070373535156e-01 9.513722658157348633e-01 4.862836897373199463e-01 8.272496461868286133e-01
3.150000000000000000e+02 4.229794692993164062e+01 -2.797118377685546875e+01 2.163776010274887085e-01 2.435324430465698242e+00 7.955105900764465332e-01 7.139698266983032227e-01
3.160000000000000000e+02 4.417714691162109375e+01 -2.645055198669433594e+01 2.592109739780426025e-01 3.300666093826293945e+00 1.067963123321533203e+00 3.293250799179077148e-01
3.170000000000000000e+02 4.593468856811523438e+01 -2.618077278137207031e+01 4.398016929626464844e-01 3.293746232986450195e+00 1.120064377784729004e+00 -9.069797992706298828e-01
3.180000000000000000e+02 4.556314468383789062e+01 -2.481117248535156250e+01 4.844838082790374756e-01 4.884644508361816406e+00 1.610738515853881836e+00 -7.950263023376464844e-01
3.190000000000000000e+02 4.386251449584960938e+01 -2.203097915649414062e+01 5.555071830749511719e-01 5.081606388092041016e+00 1.691134095191955566e+00 6.550661921501159668e-01
3.200000000000000000e+02 4.529026794433593750e+01 -2.196464538574218750e+01 2.061654478311538696e-01 6.335227012634277344e+00 1.962417721748352051e+00 2.255620807409286499e-01
3.210000000000000000e+02 4.012195205688476562e+01 -1.837275886535644531e+01 1.324347138404846191e+00 1.591383695602416992e+00 8.747192621231079102e-01 1.791343837976455688e-01
3.220000000000000000e+02 3.522655487060546875e+01 -1.506722259521484375e+01 2.284267246723175049e-01 -1.016121730208396912e-01 3.804436326026916504e-02 -3.854628503322601318e-01
3.230000000000000000e+02 3.487720108032226562e+01 -1.133205604553222656e+01 1.295131444931030273e+00 1.446392893791198730e+00 8.224573135375976562e-01 -1.336594700813293457e+00
3.240000000000000000e+02 3.469161224365234375e+01 -1.249863529205322266e+01 9.622872471809387207e-01 1.654404044151306152e+00 7.850074172019958496e-01 -1.222780823707580566e+00
3.250000000000000000e+02 3.320850372314453125e+01 -4.072411727905273438e+01 2.054238468408584595e-01 1.098414897918701172e+00 3.911516070365905762e-01 5.002225190401077271e-02
3.260000000000000000e+02 3.438325881958007812e+01 -3.746523666381835938e+01 2.503072321414947510e-01 1.119322299957275391e+00 4.108888506889343262e-01 2.054384499788284302e-01
3.270000000000000000e+02 3.511785507202148438e+01 -3.458790969848632812e+01 3.416202664375305176e-01 1.102077484130859375e+00 4.331093132495880127e-01 3.673112094402313232e-01
3.280000000000000000e+02 3.589355087280273438e+01 -3.016795921325683594e+01 5.394618511199951172e-01 1.044869899749755859e+00 4.752995371818542480e-01 6.856308579444885254e-01
3.290000000000000000e+02 3.447372055053710938e+01 -2.968293762207031250e+01 6.684781312942504883e-01 8.488008379936218262e-01 4.551836848258972168e-01 6.159820556640625000e-01
3.300000000000000000e+02 3.774123764038085938e+01 -4.098856353759765625e+01 2.711957320570945740e-02 1.292365431785583496e+00 3.958455026149749756e-01 6.428940594196319580e-02
3.310000000000000000e+02 3.816780090332031250e+01 -3.798888397216796875e+01 4.746168479323387146e-02 1.304459929466247559e+00 4.055764675140380859e-01 1.882307082414627075e-01
3.320000000000000000e+02 3.841820907592773438e+01 -3.509589004516601562e+01 1.125335395336151123e-01 1.367998957633972168e+00 4.441597461700439453e-01 3.506503105163574219e-01
3.330000000000000000e+02 4.003202056884765625e+01 -2.910672760009765625e+01 3.213050365447998047e-01 1.716109395027160645e+00 6.112242937088012695e-01 8.016000986099243164e-01
3.340000000000000000e+02 3.856893539428710938e+01 -3.230900573730468750e+01 2.078028917312622070e-01 1.428487062454223633e+00 4.908870160579681396e-01 5.510500669479370117e-01
3.350000000000000000e+02 4.237034606933593750e+01 -3.793762969970703125e+01 -1.066297441720962524e-01 1.373734235763549805e+00 3.801313340663909912e-01 7.726766169071197510e-02
3.360000000000000000e+02 4.182759857177734375e+01 -3.500255584716796875e+01 -1.094156801700592041e-01 1.502083063125610352e+00 4.178002178668975830e-01 1.952114701271057129e-01
3.370000000000000000e+02 4.166132736206054688e+01 -2.991769218444824219e+01 5.781615898013114929e-02 2.029817342758178711e+00 6.262900829315185547e-01 6.037250757217407227e-01
3.380000000000000000e+02 4.247645950317382812e+01 -4.100747299194335938e+01 -1.094122454524040222e-01 1.284456253051757812e+00 3.525131940841674805e-01 1.340904552489519119e-02
3.390000000000000000e+02 4.418829727172851562e+01 -3.396449661254882812e+01 -1.379685848951339722e-01 1.540584802627563477e+00 4.207848608493804932e-01 5.271045118570327759e-02
3.400000000000000000e+02 4.731309509277343750e+01 -2.825942230224609375e+01 4.846643507480621338e-01 1.726633667945861816e+00 6.633893847465515137e-01 -7.435366511344909668e-01
3.410000000000000000e+02 4.674332046508789062e+01 -3.044284820556640625e+01 -2.166312932968139648e-01 1.744150638580322266e+00 4.582557976245880127e-01 -3.480889499187469482e-01
3.420000000000000000e+02 4.721977996826171875e+01 -4.089331054687500000e+01 -7.894292473793029785e-02 9.781056642532348633e-01 2.697488367557525635e-01 -2.992556616663932800e-02
3.430000000000000000e+02 4.666761779785156250e+01 -3.762762451171875000e+01 -1.111578643321990967e-01 1.089553236961364746e+00 2.935186028480529785e-01 -9.800229221582412720e-02
3.440000000000000000e+02 4.843453598022460938e+01 -2.895558166503906250e+01 3.418642282485961914e-01 6.962194442749023438e-01 3.114250898361206055e-01 -5.218127965927124023e-01
3.450000000000000000e+02 5.176613998413085938e+01 -4.064046096801757812e+01 4.516818374395370483e-02 4.973582327365875244e-01 1.627579182386398315e-01 -4.998478665947914124e-02
3.460000000000000000e+02 5.058470535278320312e+01 -3.717932128906250000e+01 -4.871051758527755737e-03 6.163225173950195312e-01 1.834354400634765625e-01 -1.681230962276458740e-01
3.470000000000000000e+02 4.787324142456054688e+01 -3.244895553588867188e+01 -1.589544117450714111e-01 1.208907365798950195e+00 3.149859011173248291e-01 -2.880291640758514404e-01
3.480000000000000000e+02 5.236067962646484375e+01 -3.043419837951660156e+01 -2.744135856628417969e-01 4.468398168683052063e-02 -6.891887634992599487e-02 -1.421383395791053772e-02
3.490000000000000000e+02 5.098636245727539062e+01 -3.010324096679687500e+01 -1.166617348790168762e-01 4.316717758774757385e-02 -2.204836905002593994e-02 -7.969600707292556763e-02
3.500000000000000000e+02 5.385238265991210938e+01 -3.616022491455078125e+01 7.748022675514221191e-02 2.301756292581558228e-01 9.229675680398941040e-02 -9.937395900487899780e-02
3.510000000000000000e+02 5.322277069091796875e+01 -3.387481689453125000e+01 2.121942117810249329e-02 1.570280641317367554e-01 5.347424373030662537e-02 -1.142871528863906860e-01
3.520000000000000000e+02 5.659943389892578125e+01 -3.080678939819335938e+01 -2.711533308029174805e-01 -2.734972350299358368e-02 -8.955091238021850586e-02 5.543368868529796600e-03
3.530000000000000000e+02 5.336764144897460938e+01 -3.218311309814453125e+01 -7.066985964775085449e-02 8.127203583717346191e-02 3.180652623996138573e-03 -7.515592873096466064e-02
3.540000000000000000e+02 5.541646575927734375e+01 -3.906137084960937500e+01 9.676419198513031006e-02 2.125214487314224243e-01 9.278569370508193970e-02 -2.912971377372741699e-02
3.550000000000000000e+02 5.784089279174804688e+01 -3.649420547485351562e+01 7.499483227729797363e-02 1.386215072125196457e-02 2.665709517896175385e-02 2.046040445566177368e-02
3.560000000000000000e+02 5.632141113281250000e+01 -3.483519744873046875e+01 2.395953238010406494e-02 3.589693084359169006e-02 1.795693859457969666e-02 2.501435391604900360e-02
3.570000000000000000e+02 5.817942047119140625e+01 -3.072550582885742188e+01 -2.092782706022262573e-01 1.040294021368026733e-02 -5.966259911656379700e-02 -2.740916563197970390e-03
3.580000000000000000e+02 5.850220489501953125e+01 -4.083635711669921875e+01 1.126007586717605591e-01 9.099479019641876221e-02 6.107866391539573669e-02 8.694862946867942810e-03
3.590000000000000000e+02 6.023490524291992188e+01 -3.781823730468750000e+01 7.031273096799850464e-02 2.488867379724979401e-02 2.856042236089706421e-02 2.813587896525859833e-02
3.600000000000000000e+02 6.113546752929687500e+01 -2.931484794616699219e+01 -1.006790176033973694e-01 -2.833499340340495110e-03 -3.105375543236732483e-02 -3.099286556243896484e-02
3.610000000000000000e+02 6.351606369018554688e+01 -2.761142921447753906e+01 -3.290326148271560669e-02 -5.238282494246959686e-03 -1.144246291369199753e-02 -2.175461500883102417e-02
3.620000000000000000e+02 6.662733459472656250e+01 -2.813244628906250000e+01 -3.281490132212638855e-02 6.652903277426958084e-03 -7.848598994314670563e-03 -3.806412452831864357e-03
3.630000000000000000e+02 7.231652832031250000e+01 -2.748302650451660156e+01 -8.478941395878791809e-03 1.612692372873425484e-03 -2.059874590486288071e-03 7.387146353721618652e-03
3.640000000000000000e+02 7.517475891113281250e+01 -2.683414077758789062e+01 -2.112285001203417778e-03 -1.305023324675858021e-03 -1.025192555971443653e-03 4.632854368537664413e-03
3.650000000000000000e+02 7.813143157958984375e+01 -2.543375587463378906e+01 -2.392755821347236633e-03 -9.741430403664708138e-04 -1.010069623589515686e-03 1.211825991049408913e-03
3.660000000000000000e+02 7.941458129882812500e+01 -2.410871887207031250e+01 -1.412593177519738674e-03 9.509302908554673195e-04 -1.384988572681322694e-04 1.445527159376069903e-04
3.670000000000000000e+02 7.956830596923828125e+01 -1.994799804687500000e+01 8.408105932176113129e-04 6.557872984558343887e-04 4.489793500397354364e-04 -2.562666486483067274e-04
3.680000000000000000e+02 7.750392913818359375e+01 -2.027177619934082031e+01 1.429064315743744373e-03 1.677305990597233176e-04 4.790384555235505104e-04 -8.846973069012165070e-04
3.690000000000000000e+02 7.901058959960937500e+01 -1.852916908264160156e+01 1.598801754880696535e-04 5.765729001723229885e-04 2.209359226981177926e-04 -1.670790807111188769e-04
3.700000000000000000e+02 6.282183456420898438e+01 -4.118960952758789062e+01 8.066784590482711792e-02 -6.220714654773473740e-03 2.233413979411125183e-02 9.604311548173427582e-03
3.710000000000000000e+02 6.345169830322265625e+01 -3.855385589599609375e+01 6.197545304894447327e-02 -1.038435846567153931e-03 1.828110404312610626e-02 3.665347024798393250e-02
3.720000000000000000e+02 6.400457763671875000e+01 -3.599925231933593750e+01 1.684008166193962097e-02 1.915400498546659946e-03 5.626644939184188843e-03 4.532074555754661560e-02
3.730000000000000000e+02 6.787012481689453125e+01 -3.132591056823730469e+01 -2.380056120455265045e-02 8.532593958079814911e-03 -4.580389708280563354e-03 2.159147523343563080e-02
3.740000000000000000e+02 6.559489440917968750e+01 -3.037917900085449219e+01 -4.267799109220504761e-02 1.272894348949193954e-02 -8.984713815152645111e-03 1.347188279032707214e-02
3.750000000000000000e+02 6.476385498046875000e+01 -3.178274726867675781e+01 -5.190023034811019897e-02 1.338886190205812454e-02 -1.155341044068336487e-02 2.901329658925533295e-02
3.760000000000000000e+02 6.736508178710937500e+01 -4.123525238037109375e+01 4.270146787166595459e-02 -1.730842143297195435e-02 7.617913186550140381e-03 8.690964430570602417e-03
3.770000000000000000e+02 7.049438476562500000e+01 -3.809621810913085938e+01 1.476111914962530136e-02 -1.377037726342678070e-02 2.972225483972579241e-04 2.114240638911724091e-02
3.780000000000000000e+02 6.655043029785156250e+01 -3.380497360229492188e+01 -1.330261025577783585e-02 5.837831646203994751e-03 -2.239433582872152328e-03 3.638714551925659180e-02
3.790000000000000000e+02 7.029875946044921875e+01 -3.103398513793945312e+01 -1.424858625978231430e-02 5.556091666221618652e-03 -2.607748378068208694e-03 2.250587381422519684e-02
3.800000000000000000e+02 6.629649353027343750e+01 -3.187788009643554688e+01 -3.361275419592857361e-02 1.161359623074531555e-02 -6.599747110158205032e-03 3.104731440544128418e-02
3.810000000000000000e+02 7.186403656005859375e+01 -4.094584274291992188e+01 1.761881634593009949e-02 -2.006355300545692444e-02 -7.334207766689360142e-04 5.107415840029716492e-03
3.820000000000000000e+02 7.280887603759765625e+01 -3.669852066040039062e+01 9.882284328341484070e-03 -1.431099604815244675e-02 -1.328613492660224438e-03 1.690942607820034027e-02
3.830000000000000000e+02 7.289282989501953125e+01 -3.369983291625976562e+01 -5.038342787884175777e-04 -7.470086682587862015e-03 -2.392176305875182152e-03 1.729417778551578522e-02
3.840000000000000000e+02 7.345402526855468750e+01 -3.151877403259277344e+01 -4.617706872522830963e-03 -4.812166094779968262e-03 -2.828961703926324844e-03 1.348918303847312927e-02
3.850000000000000000e+02 7.171641540527343750e+01 -3.069320869445800781e+01 -9.984080679714679718e-03 -6.593107245862483978e-04 -3.193017328158020973e-03 1.384579390287399292e-02
3.860000000000000000e+02 7.541555023193359375e+01 -4.016547012329101562e+01 4.377051256597042084e-03 -2.387665584683418274e-02 -5.849881563335657120e-03 7.787249051034450531e-03
3.870000000000000000e+02 7.564347076416015625e+01 -3.590395736694335938e+01 5.416942760348320007e-03 -1.736042276024818420e-02 -3.583043813705444336e-03 1.322060637176036835e-02
3.880000000000000000e+02 7.807572174072265625e+01 -2.948902702331542969e+01 1.500917598605155945e-03 -5.703125614672899246e-03 -1.260662334971129894e-03 3.746271133422851562e-03
3.890000000000000000e+02 7.935599517822265625e+01 -2.817515945434570312e+01 1.957549946382641792e-03 -2.452031243592500687e-03 -1.483443775214254856e-04 8.121075807139277458e-04
3.900000000000000000e+02 7.808142089843750000e+01 -4.166663360595703125e+01 2.564897993579506874e-03 -3.393671289086341858e-02 -9.411544539034366608e-03 7.501533837057650089e-04
3.910000000000000000e+02 7.893304443359375000e+01 -4.024417495727539062e+01 -2.495588734745979309e-03 -3.291217982769012451e-02 -1.062233094125986099e-02 1.748992479406297207e-03
3.920000000000000000e+02 7.908724975585937500e+01 -3.772623825073242188e+01 -4.919925122521817684e-04 -2.917701005935668945e-02 -8.900701068341732025e-03 1.388703007251024246e-03
3.930000000000000000e+02 7.770222473144531250e+01 -3.481793594360351562e+01 2.892370568588376045e-03 -1.854399219155311584e-02 -4.695486277341842651e-03 8.406445384025573730e-03
3.940000000000000000e+02 7.935636138916015625e+01 -3.224388122558593750e+01 -2.961187856271862984e-03 -1.231942791491746902e-02 -4.584184847772121429e-03 2.135374583303928375e-03
3.950000000000000000e+02 7.772666168212890625e+01 -1.838512992858886719e+01 8.193340036086738110e-04 1.995050552068278193e-04 3.056517161894589663e-04 -5.242345505394041538e-04
3.960000000000000000e+02 7.578141784667968750e+01 -1.823080825805664062e+01 -9.920702268573222682e-07 -5.198303842917084694e-04 -1.562467368785291910e-04 -4.906684043817222118e-04
3.970000000000000000e+02 7.411447143554687500e+01 -2.164657783508300781e+01 -6.450448418036103249e-04 1.485242246417328715e-04 -1.489561982452869415e-04 1.320301089435815811e-03
3.980000000000000000e+02 7.478027343750000000e+01 -2.552959442138671875e+01 -4.623147659003734589e-03 -9.245980181731283665e-04 -1.664323615841567516e-03 1.937321736477315426e-03
3.990000000000000000e+02 7.671621704101562500e+01 -2.812330818176269531e+01 1.207659443025477231e-04 -3.533911425620317459e-03 -1.023943652398884296e-03 4.485186189413070679e-03
4.000000000000000000e+02 7.435272979736328125e+01 -1.818032646179199219e+01 -2.464464923832565546e-04 -3.757587692234665155e-04 -1.866615784820169210e-04 -5.869909073226153851e-04
4.010000000000000000e+02 7.292973327636718750e+01 -1.816817665100097656e+01 -5.940339178778231144e-04 1.932908389790100046e-06 -1.776302960934117436e-04 -9.386732563143596053e-05
4.020000000000000000e+02 6.848424530029296875e+01 -1.882963180541992188e+01 -7.364457123912870884e-04 4.171115506323985755e-06 -2.196823770646005869e-04 -4.642637577489949763e-05
4.030000000000000000e+02 6.956543731689453125e+01 -2.120508193969726562e+01 -2.262957394123077393e-03 -6.374812073772773147e-05 -6.980116595514118671e-04 3.675436601042747498e-04
4.040000000000000000e+02 7.232680511474609375e+01 -1.893996810913085938e+01 -1.205858774483203888e-03 5.377985507948324084e-05 -3.456236445344984531e-04 3.773274074774235487e-04
4.050000000000000000e+02 7.084305572509765625e+01 -1.832595825195312500e+01 5.498084356077015400e-04 3.083210685872472823e-05 1.741921587381511927e-04 3.374498919583857059e-04
4.060000000000000000e+02 7.153449249267578125e+01 -1.822684097290039062e+01 -2.487030578777194023e-04 -4.919726779917255044e-05 -8.937009260989725590e-05 5.001386161893606186e-04
4.070000000000000000e+02 6.650257110595703125e+01 -2.476666641235351562e+01 -7.731783203780651093e-03 -2.471738727763295174e-03 -3.061056602746248245e-03 -5.848286673426628113e-04
4.080000000000000000e+02 6.549218750000000000e+01 -2.562252616882324219e+01 -8.991620503365993500e-03 1.154222525656223297e-03 -2.351219300180673599e-03 -8.269859477877616882e-03
4.090000000000000000e+02 6.451304626464843750e+01 -2.659755134582519531e+01 -2.248969487845897675e-02 -9.382266551256179810e-03 -9.561588056385517120e-03 -7.443104404956102371e-03
4.100000000000000000e+02 4.285050201416015625e+01 -2.042728996276855469e+01 1.483551740646362305e+00 3.872865200042724609e+00 1.606925010681152344e+00 1.067099571228027344e+00
4.110000000000000000e+02 3.885611724853515625e+01 -1.417212867736816406e+01 1.185993909835815430e+00 5.643528103828430176e-01 5.251039862632751465e-01 -1.258800387382507324e+00
4.120000000000000000e+02 3.616930770874023438e+01 -9.183509826660156250e+00 3.742388784885406494e-01 7.063190340995788574e-01 3.241673707962036133e-01 -7.859785556793212891e-01
4.130000000000000000e+02 3.328895568847656250e+01 -8.958118438720703125e+00 1.137375950813293457e+00 1.472172379493713379e+00 7.828645110130310059e-01 -1.019429206848144531e+00
4.140000000000000000e+02 3.145478630065917969e+01 -8.949500083923339844e+00 2.278535366058349609e+00 1.462136626243591309e+00 1.122201561927795410e+00 -1.620280146598815918e+00
4.150000000000000000e+02 3.251584243774414062e+01 -9.793194770812988281e+00 1.903513669967651367e+00 1.776936531066894531e+00 1.104135036468505859e+00 -1.787613153457641602e+00
4.160000000000000000e+02 4.539994812011718750e+01 -1.925586891174316406e+01 1.469751000404357910e+00 8.819584846496582031e+00 3.086800813674926758e+00 2.140249729156494141e+00
4.170000000000000000e+02 4.618645477294921875e+01 -1.731164741516113281e+01 4.102922439575195312e+00 7.046060085296630859e+00 3.344694852828979492e+00 4.130733013153076172e+00
4.180000000000000000e+02 4.714693832397460938e+01 -1.635293960571289062e+01 5.870428085327148438e+00 4.628910541534423828e+00 3.149801492691040039e+00 4.629665851593017578e+00
4.190000000000000000e+02 4.819686508178710938e+01 -1.555709457397460938e+01 7.109522819519042969e+00 3.044277906417846680e+00 3.046140193939208984e+00 3.385908603668212891e+00
4.200000000000000000e+02 4.905030059814453125e+01 -1.450530338287353516e+01 5.025700092315673828e+00 2.011602640151977539e+00 2.111190795898437500e+00 2.443676471710205078e+00
4.210000000000000000e+02 5.175212860107421875e+01 -1.361075782775878906e+01 2.942513942718505859e+00 6.349447965621948242e-01 1.073237657546997070e+00 2.014388561248779297e+00
4.220000000000000000e+02 5.536428070068359375e+01 -1.255507564544677734e+01 4.332514405250549316e-01 6.217886805534362793e-01 3.165120482444763184e-01 1.534924507141113281e+00
4.230000000000000000e+02 5.429115295410156250e+01 -9.627766609191894531e+00 -7.590114474296569824e-01 1.360621094703674316e+00 1.804828941822052002e-01 2.261656522750854492e+00
4.240000000000000000e+02 5.198741912841796875e+01 -6.034709453582763672e+00 -2.753514766693115234e+00 8.111655712127685547e-01 -5.827047824859619141e-01 1.457221984863281250e+00
4.250000000000000000e+02 6.655663299560546875e+01 -1.314741516113281250e+01 -1.013776421546936035e+00 -1.774240434169769287e-01 -3.573601245880126953e-01 5.422183275222778320e-01
4.260000000000000000e+02 6.766047668457031250e+01 -8.969753265380859375e+00 -8.258724212646484375e-01 2.889397740364074707e-01 -1.610797941684722900e-01 -5.912944674491882324e-01
4.270000000000000000e+02 6.794837188720703125e+01 -6.680773258209228516e+00 -5.280027389526367188e-01 4.006022214889526367e-01 -3.822015598416328430e-02 -7.063745260238647461e-01
4.280000000000000000e+02 6.636478424072265625e+01 -4.380821228027343750e+00 -2.374915182590484619e-01 8.709823489189147949e-01 1.900472491979598999e-01 -4.823411405086517334e-01
4.290000000000000000e+02 6.837097930908203125e+01 -1.379359054565429688e+01 -6.389985680580139160e-01 1.227793246507644653e-01 -1.548657715320587158e-01 1.544205099344253540e-01
4.300000000000000000e+02 6.911635589599609375e+01 -1.385450839996337891e+01 -5.658782720565795898e-01 5.929585918784141541e-02 -1.519747227430343628e-01 7.535174489021301270e-02
4.310000000000000000e+02 7.048529815673828125e+01 -1.457643222808837891e+01 -3.593361675739288330e-01 7.326009869575500488e-02 -8.582282811403274536e-02 3.775253891944885254e-02
4.320000000000000000e+02 7.203620147705078125e+01 -1.449942588806152344e+01 -3.155531883239746094e-01 4.827884957194328308e-02 -8.018230646848678589e-02 -4.564971849322319031e-02
4.330000000000000000e+02 7.437841796875000000e+01 -1.444410228729248047e+01 -1.890766322612762451e-01 4.526392091065645218e-03 -5.536507070064544678e-02 -9.837190806865692139e-02
4.340000000000000000e+02 7.488534545898437500e+01 -1.113861656188964844e+01 -2.313294112682342529e-01 -7.564754039049148560e-02 -9.209308773279190063e-02 -3.331113159656524658e-01
4.350000000000000000e+02 7.204247283935546875e+01 -1.070300483703613281e+01 -5.591995716094970703e-01 1.300232857465744019e-01 -1.287528872489929199e-01 -4.127668142318725586e-01
4.360000000000000000e+02 7.160336303710937500e+01 -8.462056159973144531e+00 -4.957973957061767578e-01 1.347812116146087646e-01 -1.083048507571220398e-01 -6.730162501335144043e-01
4.370000000000000000e+02 7.514530181884765625e+01 -1.449706840515136719e+01 -1.471342146396636963e-01 -1.446210220456123352e-02 -4.847889766097068787e-02 -8.897781372070312500e-02
4.380000000000000000e+02 7.937428283691406250e+01 -1.676278948783874512e+00 3.813875606283545494e-03 -1.816070795059204102e+00 -5.436770915985107422e-01 -1.344818919897079468e-01
4.390000000000000000e+02 7.937525939941406250e+01 -2.790106534957885742e-01 -5.147949559614062309e-04 -2.139687299728393555e+00 -6.420606374740600586e-01 -1.328143030405044556e-01
4.400000000000000000e+02 7.555383300781250000e+01 2.361790418624877930e+00 8.854804933071136475e-02 -1.247162699699401855e+00 -3.475843966007232666e-01 -6.966424584388732910e-01
4.410000000000000000e+02 6.649023437500000000e+01 9.000582695007324219e+00 8.339561820030212402e-01 3.228630781173706055e+00 1.218776106834411621e+00 4.918711725622415543e-03
4.420000000000000000e+02 6.447163391113281250e+01 1.524809169769287109e+01 8.336772322654724121e-01 5.682959556579589844e+00 1.954990983009338379e+00 -3.015002608299255371e-01
4.430000000000000000e+02 7.812194824218750000e+01 -1.685892939567565918e+00 -5.020265001803636551e-03 -1.509822368621826172e+00 -4.544527828693389893e-01 -3.947390913963317871e-01
4.440000000000000000e+02 7.808854675292968750e+01 3.838393211364746094e+00 1.637631095945835114e-02 -2.456727504730224609e+00 -7.321053743362426758e-01 -3.485314249992370605e-01
4.450000000000000000e+02 7.549255371093750000e+01 5.035616397857666016e+00 1.318166106939315796e-01 -1.438240170478820801e+00 -3.919270634651184082e-01 -5.959415435791015625e-01
4.460000000000000000e+02 7.060424804687500000e+01 1.006024456024169922e+01 5.782653093338012695e-01 9.153451323509216309e-01 4.480831325054168701e-01 -3.257864713668823242e-01
4.470000000000000000e+02 6.626558685302734375e+01 1.247173976898193359e+01 8.044468760490417480e-01 3.927496910095214844e+00 1.419583201408386230e+00 2.284381538629531860e-02
4.480000000000000000e+02 6.255046081542968750e+01 1.661378288269042969e+01 5.449140667915344238e-01 8.099934577941894531e+00 2.593454599380493164e+00 -8.899055123329162598e-01
4.490000000000000000e+02 7.932439422607421875e+01 1.094272136688232422e+01 5.320961121469736099e-03 -4.061044692993164062e+00 -1.216717123985290527e+00 -3.487646207213401794e-02
4.500000000000000000e+02 7.805866241455078125e+01 1.379364776611328125e+01 6.326942145824432373e-02 -3.294322967529296875e+00 -9.693160653114318848e-01 2.310373634099960327e-02
4.510000000000000000e+02 7.552670288085937500e+01 1.805343055725097656e+01 1.880980581045150757e-01 -1.706022500991821289e+00 -4.553773403167724609e-01 3.814502358436584473e-01
4.520000000000000000e+02 6.942522430419921875e+01 2.019209671020507812e+01 6.442351937294006348e-01 1.414685487747192383e+00 6.176761984825134277e-01 6.004971265792846680e-01
4.530000000000000000e+02 6.441637420654296875e+01 2.545409393310546875e+01 -1.483035385608673096e-01 2.816119909286499023e+00 8.003448843955993652e-01 7.234805077314376831e-02
4.540000000000000000e+02 6.214402389526367188e+01 2.455054473876953125e+01 1.645503938198089600e-02 3.131570100784301758e+00 9.444075226783752441e-01 -6.200428009033203125e-01
4.550000000000000000e+02 7.937059020996093750e+01 1.516656970977783203e+01 1.377893146127462387e-02 -4.137447357177734375e+00 -1.237100481986999512e+00 3.846660628914833069e-02
4.560000000000000000e+02 7.811991882324218750e+01 1.797570610046386719e+01 3.790437430143356323e-02 -3.135087490081787109e+00 -9.291549324989318848e-01 2.060312479734420776e-01
4.570000000000000000e+02 7.414990997314453125e+01 2.063119506835937500e+01 2.100230902433395386e-01 -9.349206686019897461e-01 -2.174692600965499878e-01 6.025877594947814941e-01
4.580000000000000000e+02 6.801255035400390625e+01 2.798368453979492188e+01 -3.482997715473175049e-01 1.423004269599914551e+00 3.224113583564758301e-01 6.016158461570739746e-01
4.590000000000000000e+02 6.306228637695312500e+01 2.987439155578613281e+01 -5.225279331207275391e-01 1.907056689262390137e+00 4.153586328029632568e-01 -1.089873313903808594e-01
4.600000000000000000e+02 6.574208831787109375e+01 2.896210098266601562e+01 -4.795320928096771240e-01 1.781027317047119141e+00 3.904485702514648438e-01 2.912822365760803223e-01
4.610000000000000000e+02 7.937702941894531250e+01 1.796439170837402344e+01 9.933538734912872314e-03 -3.911673307418823242e+00 -1.170521855354309082e+00 7.799214124679565430e-02
4.620000000000000000e+02 7.798369598388671875e+01 2.212807083129882812e+01 2.442252822220325470e-02 -2.579359531402587891e+00 -7.664811015129089355e-01 3.519107401371002197e-01
4.630000000000000000e+02 7.365016174316406250e+01 2.501192665100097656e+01 -3.600337728857994080e-02 -5.099548697471618652e-01 -1.637874692678451538e-01 7.771158814430236816e-01
4.640000000000000000e+02 7.217377471923828125e+01 2.611269187927246094e+01 -7.953624427318572998e-02 1.299960762262344360e-01 1.513794995844364166e-02 8.281797170639038086e-01
4.650000000000000000e+02 6.877644348144531250e+01 3.002227401733398438e+01 -4.273611903190612793e-01 1.069331645965576172e+00 1.925911307334899902e-01 5.776363015174865723e-01
4.660000000000000000e+02 6.419217681884765625e+01 3.547529220581054688e+01 -5.942654013633728027e-01 1.254853844642639160e+00 1.981765478849411011e-01 5.789872631430625916e-02
4.670000000000000000e+02 6.355422210693359375e+01 3.261623001098632812e+01 -5.929251313209533691e-01 1.546197056770324707e+00 2.859815955162048340e-01 -8.429850451648235321e-03
4.680000000000000000e+02 7.933617401123046875e+01 2.215396308898925781e+01 5.958025343716144562e-03 -3.253257274627685547e+00 -9.741898179054260254e-01 1.300937831401824951e-01
4.690000000000000000e+02 7.795013427734375000e+01 2.349251365661621094e+01 1.407122332602739334e-02 -2.364277601242065430e+00 -7.050619125366210938e-01 3.802601099014282227e-01
4.700000000000000000e+02 7.433911895751953125e+01 2.676762771606445312e+01 -6.835149973630905151e-02 -6.313310861587524414e-01 -2.099047750234603882e-01 7.441933751106262207e-01
4.710000000000000000e+02 7.172723388671875000e+01 3.055866432189941406e+01 -2.888542413711547852e-01 3.202578425407409668e-01 9.421085938811302185e-03 6.580285429954528809e-01
4.720000000000000000e+02 6.747510528564453125e+01 3.568564224243164062e+01 -5.355682969093322754e-01 9.544596076011657715e-01 1.256674081087112427e-01 2.462178915739059448e-01
4.730000000000000000e+02 7.931660461425781250e+01 2.493133354187011719e+01 2.081274520605802536e-03 -2.691940307617187500e+00 -8.069577217102050781e-01 1.441557407379150391e-01
4.740000000000000000e+02 7.792056274414062500e+01 2.622063064575195312e+01 -2.063606167212128639e-03 -1.927901268005371094e+00 -5.789894461631774902e-01 3.926532268524169922e-01
4.750000000000000000e+02 7.359075927734375000e+01 3.164068603515625000e+01 -2.070487737655639648e-01 -1.595005542039871216e-01 -1.099647954106330872e-01 5.888115763664245605e-01
4.760000000000000000e+02 7.050362396240234375e+01 3.601644897460937500e+01 -3.890045285224914551e-01 4.187148511409759521e-01 8.913096971809864044e-03 3.553015291690826416e-01
4.770000000000000000e+02 6.734718322753906250e+01 3.858300781250000000e+01 -5.244047641754150391e-01 8.169956803321838379e-01 8.777727186679840088e-02 1.318610012531280518e-01
4.780000000000000000e+02 6.740051269531250000e+01 4.124666595458984375e+01 -5.248874425888061523e-01 7.777565121650695801e-01 7.586072385311126709e-02 3.907499462366104126e-02
4.790000000000000000e+02 7.924291992187500000e+01 2.913475608825683594e+01 -7.948786020278930664e-03 -1.855498671531677246e+00 -5.590342283248901367e-01 1.359052956104278564e-01
4.800000000000000000e+02 7.760330963134765625e+01 3.044997978210449219e+01 -3.906037285923957825e-02 -1.259199857711791992e+00 -3.894780874252319336e-01 3.434638977050781250e-01
4.810000000000000000e+02 7.491827392578125000e+01 3.427035903930664062e+01 -1.454503089189529419e-01 -4.231321811676025391e-01 -1.705747544765472412e-01 4.227287769317626953e-01
4.820000000000000000e+02 7.920706939697265625e+01 3.193532371520996094e+01 -1.791148632764816284e-02 -1.408662796020507812e+00 -4.279722869396209717e-01 1.117769405245780945e-01
4.830000000000000000e+02 7.765069580078125000e+01 3.322800827026367188e+01 -3.752790018916130066e-02 -9.842010140419006348e-01 -3.065186738967895508e-01 2.799331843852996826e-01
4.840000000000000000e+02 7.296230316162109375e+01 3.597964859008789062e+01 -2.725796401500701904e-01 3.733345121145248413e-02 -7.057385891675949097e-02 3.397200405597686768e-01
4.850000000000000000e+02 7.184548187255859375e+01 4.119351577758789062e+01 -3.017711043357849121e-01 1.760744303464889526e-01 -3.770900145173072815e-02 6.683336943387985229e-02
4.860000000000000000e+02 7.926972961425781250e+01 3.608440017700195312e+01 -9.567671455442905426e-03 -9.188065528869628906e-01 -2.785122692584991455e-01 6.830317527055740356e-02
4.870000000000000000e+02 7.664369964599609375e+01 3.715776824951171875e+01 -4.537560790777206421e-02 -6.060028672218322754e-01 -1.954135447740554810e-01 2.394641339778900146e-01
4.880000000000000000e+02 7.906862640380859375e+01 3.876930999755859375e+01 -2.352609531953930855e-03 -6.813656091690063477e-01 -2.051154524087905884e-01 6.300174444913864136e-02
4.890000000000000000e+02 7.797938537597656250e+01 4.164867019653320312e+01 -8.235736191272735596e-02 -5.547081828117370605e-01 -1.911196708679199219e-01 2.314343117177486420e-02
4.900000000000000000e+02 2.773028755187988281e+01 4.105427169799804688e+01 6.520960479974746704e-02 -3.976061474531888962e-03 1.837006211280822754e-02 4.229240119457244873e-03
4.910000000000000000e+02 2.813746261596679688e+01 3.808350753784179688e+01 6.126195564866065979e-02 -3.580623539164662361e-03 1.730439998209476471e-02 8.291327394545078278e-03
4.920000000000000000e+02 2.837126731872558594e+01 3.510160064697265625e+01 5.166186392307281494e-02 -6.693648640066385269e-03 1.349046453833580017e-02 1.816054619848728180e-02
4.930000000000000000e+02 2.887826347351074219e+01 2.959279060363769531e+01 1.058152969926595688e-02 -2.099352329969406128e-02 -3.123598406091332436e-03 2.749171853065490723e-02
4.940000000000000000e+02 2.733869361877441406e+01 2.692062568664550781e+01 -2.177792042493820190e-02 -3.518587723374366760e-02 -1.708913967013359070e-02 3.959184139966964722e-02
4.950000000000000000e+02 2.808910942077636719e+01 2.229021453857421875e+01 -1.268156766891479492e-01 -6.298442184925079346e-02 -5.694003030657768250e-02 6.561342626810073853e-02
4.960000000000000000e+02 2.590562438964843750e+01 2.146063995361328125e+01 -1.796160042285919189e-01 -1.860528998076915741e-02 -5.946638807654380798e-02 5.335026979446411133e-02
4.970000000000000000e+02 2.858371162414550781e+01 2.048787498474121094e+01 -2.368732094764709473e-01 -1.071851924061775208e-01 -1.032175198197364807e-01 1.444357335567474365e-01
4.980000000000000000e+02 2.909531021118164062e+01 2.056222724914550781e+01 -1.794283390045166016e-01 -1.110420227050781250e-01 -8.714110404253005981e-02 1.058845967054367065e-01
4.990000000000000000e+02 3.000902748107910156e+01 1.979648780822753906e+01 -1.175633445382118225e-01 -9.857470542192459106e-02 -6.484141945838928223e-02 9.505935013294219971e-02
5.000000000000000000e+02 2.420993232727050781e+01 3.801032257080078125e+01 4.934067651629447937e-02 -2.300938218832015991e-02 7.899388670921325684e-03 1.548225805163383484e-02
5.010000000000000000e+02 2.506843185424804688e+01 3.510218048095703125e+01 4.288279637694358826e-02 -2.265653759241104126e-02 6.067877635359764099e-03 2.100296132266521454e-02
5.020000000000000000e+02 2.554081726074218750e+01 3.232134628295898438e+01 2.919818274676799774e-02 -2.663536928594112396e-02 7.688435725867748260e-04 3.080199472606182098e-02
5.030000000000000000e+02 2.616548538208007812e+01 2.661047554016113281e+01 -2.959699742496013641e-02 -3.657340258359909058e-02 -1.985112018883228302e-02 4.279824346303939819e-02
5.040000000000000000e+02 2.537677764892578125e+01 2.228204727172851562e+01 -1.456347107887268066e-01 -2.235943078994750977e-02 -5.039824172854423523e-02 4.906205460429191589e-02
5.050000000000000000e+02 2.309385299682617188e+01 4.100084304809570312e+01 5.212674662470817566e-02 -2.594568580389022827e-02 7.854318246245384216e-03 3.371173748746514320e-03
5.060000000000000000e+02 2.084170532226562500e+01 3.747617340087890625e+01 3.836523741483688354e-02 -2.937855571508407593e-02 2.696004696190357208e-03 1.689856313169002533e-02
5.070000000000000000e+02 2.222758674621582031e+01 3.473807144165039062e+01 3.196366876363754272e-02 -2.911365032196044922e-02 8.550051716156303883e-04 2.759456075727939606e-02
5.080000000000000000e+02 2.228976249694824219e+01 2.621202087402343750e+01 -4.229467362165451050e-02 -2.657908946275711060e-02 -2.066212892532348633e-02 4.228973388671875000e-02
5.090000000000000000e+02 2.194409179687500000e+01 2.223955726623535156e+01 -1.368938088417053223e-01 -7.214153185486793518e-03 -4.323238879442214966e-02 1.136294100433588028e-02
5.100000000000000000e+02 1.992568969726562500e+01 2.199884796142578125e+01 -6.538156419992446899e-02 -7.947450503706932068e-04 -1.985289342701435089e-02 -6.961253937333822250e-03
5.110000000000000000e+02 2.274666595458984375e+01 2.213054656982421875e+01 -1.330738365650177002e-01 -6.600060965865850449e-03 -4.190216958522796631e-02 2.528366632759571075e-02
5.120000000000000000e+02 1.874751853942871094e+01 4.071274185180664062e+01 3.452486172318458557e-02 -2.957934886217117310e-02 1.483653672039508820e-03 6.645529530942440033e-03
5.130000000000000000e+02 1.838103103637695312e+01 3.640214920043945312e+01 2.626560628414154053e-02 -2.893479913473129272e-02 -8.007583674043416977e-04 2.067274972796440125e-02
5.140000000000000000e+02 2.000310897827148438e+01 3.402875518798828125e+01 2.270223386585712433e-02 -2.805213630199432373e-02 -1.604970660991966724e-03 2.726244181394577026e-02
5.150000000000000000e+02 1.938612937927246094e+01 3.128005027770996094e+01 6.006757728755474091e-03 -2.471344172954559326e-02 -5.612005479633808136e-03 3.355584666132926941e-02
5.160000000000000000e+02 1.820655822753906250e+01 2.616901969909667969e+01 -3.244573250412940979e-02 -9.053565561771392822e-03 -1.244978886097669601e-02 2.966917492449283600e-02
5.170000000000000000e+02 1.873656272888183594e+01 2.177473640441894531e+01 -4.841267690062522888e-02 -1.717219827696681023e-03 -1.503896899521350861e-02 -7.636557798832654953e-03
5.180000000000000000e+02 1.583192253112792969e+01 3.916258621215820312e+01 2.593477815389633179e-02 -2.745563164353370667e-02 -4.562558024190366268e-04 9.443409740924835205e-03
5.190000000000000000e+02 1.441073036193847656e+01 3.663867568969726562e+01 1.416159886866807938e-02 -2.352955751121044159e-02 -2.810387639328837395e-03 1.610613428056240082e-02
5.200000000000000000e+02 1.539393424987792969e+01 3.321262741088867188e+01 6.663388572633266449e-03 -2.091341093182563782e-02 -4.275006707757711411e-03 2.423187159001827240e-02
5.210000000000000000e+02 1.373692989349365234e+01 2.996668434143066406e+01 -6.826974451541900635e-03 -1.172568928450345993e-02 -5.565798841416835785e-03 2.272219583392143250e-02
5.220000000000000000e+02 1.609195899963378906e+01 2.576863861083984375e+01 -2.587389573454856873e-02 -2.870886353775858879e-03 -8.623435162007808685e-03 2.108774706721305847e-02
5.230000000000000000e+02 1.602761268615722656e+01 2.180644226074218750e+01 -2.444185130298137665e-02 1.419407199136912823e-03 -6.906733382493257523e-03 5.987101467326283455e-04
5.240000000000000000e+02 1.214873313903808594e+01 4.083472442626953125e+01 1.678432151675224304e-02 -2.446462400257587433e-02 -2.304091118276119232e-03 3.265806939452886581e-03
5.250000000000000000e+02 1.155869579315185547e+01 3.773358535766601562e+01 1.310265250504016876e-02 -2.194539271295070648e-02 -2.652822295203804970e-03 1.211052108556032181e-02
5.260000000000000000e+02 1.344754123687744141e+01 3.438215637207031250e+01 9.294706396758556366e-03 -2.000601775944232941e-02 -3.213393734768033028e-03 1.906069181859493256e-02
5.270000000000000000e+02 1.081002902984619141e+01 3.082394218444824219e+01 -3.751791315153241158e-03 -1.093113236129283905e-02 -4.404876846820116043e-03 1.696232892572879791e-02
5.280000000000000000e+02 1.246717739105224609e+01 2.664573478698730469e+01 -1.387945935130119324e-02 -3.749219700694084167e-03 -5.288603715598583221e-03 1.591687463223934174e-02
5.290000000000000000e+02 1.400837612152099609e+01 2.258135604858398438e+01 -1.756070181727409363e-02 2.672334667295217514e-03 -4.466510377824306488e-03 3.632740350440144539e-03
5.300000000000000000e+02 1.469805049896240234e+01 1.618796920776367188e+01 4.731206863652914762e-04 2.615172183141112328e-03 9.264879045076668262e-04 2.063081192318350077e-04
5.310000000000000000e+02 1.110798645019531250e+01 5.183929920196533203e+00 1.052101943059824407e-04 -6.645795110671315342e-06 2.956932075903750956e-05 1.288652470066153910e-06
5.320000000000000000e+02 1.035755157470703125e+01 1.838183283805847168e+00 5.629177394439466298e-05 1.685686765995342284e-05 2.194459193560760468e-05 1.362182274533552118e-06
5.330000000000000000e+02 1.404600811004638672e+01 1.874464511871337891e+00 -8.204119126276054885e-07 -2.479636350471992046e-05 -7.685032869630958885e-06 2.087420580210164189e-05
5.340000000000000000e+02 1.331310462951660156e+01 1.853663802146911621e+00 2.895364013966172934e-05 3.047082282137125731e-05 1.782733852451201528e-05 2.247876636829460040e-06
5.350000000000000000e+02 1.109836006164550781e+01 1.839361190795898438e+00 1.382965092489030212e-05 -2.428221523587126285e-05 -3.135769475193228573e-06 2.551960278651677072e-05
5.360000000000000000e+02 7.931549549102783203e+00 4.095774459838867188e+01 7.117610424757003784e-03 -2.030041068792343140e-02 -3.954840358346700668e-03 2.523360773921012878e-03
5.370000000000000000e+02 8.472826957702636719e+00 3.791064071655273438e+01 7.376286666840314865e-03 -1.986052095890045166e-02 -3.745270427316427231e-03 7.673813030123710632e-03
5.380000000000000000e+02 8.172833442687988281e+00 2.785774040222167969e+01 -5.906341131776571274e-03 -5.838226992636919022e-03 -3.523370483890175819e-03 1.039314270019531250e-02
5.390000000000000000e+02 8.734014511108398438e+00 2.388896369934082031e+01 -7.591962814331054688e-03 -1.702480483800172806e-03 -2.788332989439368248e-03 4.788466729223728180e-03
5.400000000000000000e+02 6.966946601867675781e+00 2.058520698547363281e+01 -2.252167323604226112e-03 -1.196195837110280991e-03 -1.034508924931287766e-03 1.009398023597896099e-03
5.410000000000000000e+02 7.712901115417480469e+00 1.703738403320312500e+01 -7.878961041569709778e-04 -1.182839390821754932e-03 -5.912206252105534077e-04 1.792912953533232212e-04
5.420000000000000000e+02 9.539422035217285156e+00 1.285659027099609375e+01 4.163366102147847414e-04 -4.164479614701122046e-04 -3.340594645351302461e-08 1.797758450265973806e-04
5.430000000000000000e+02 6.451876640319824219e+00 9.584609985351562500e+00 4.337416030466556549e-04 -1.810848480090498924e-04 7.579702651128172874e-05 -1.349374360870569944e-04
5.440000000000000000e+02 8.299274444580078125e+00 5.196054935455322266e+00 1.177226222353056073e-04 -4.122260725125670433e-05 2.295000558660831302e-05 -3.180668136337772012e-05
5.450000000000000000e+02 8.080687522888183594e+00 1.844678997993469238e+00 2.223884985141921788e-05 -2.875393693102523685e-05 -1.954526396730216220e-06 3.480166924418881536e-06
5.460000000000000000e+02 6.547882080078125000e+00 1.864156246185302734e+00 2.313329605385661125e-05 -3.463520988589152694e-05 -3.450574013186269440e-06 -4.942214673064881936e-06
5.470000000000000000e+02 4.786899089813232422e+00 4.017106628417968750e+01 2.848943928256630898e-03 -1.961539313197135925e-02 -5.029934458434581757e-03 2.751453546807169914e-03
5.480000000000000000e+02 5.882930755615234375e+00 3.773847579956054688e+01 4.138122312724590302e-03 -1.784435659646987915e-02 -4.111870191991329193e-03 6.189688574522733688e-03
5.490000000000000000e+02 5.473963260650634766e+00 3.311340713500976562e+01 4.187898302916437387e-04 -1.290395483374595642e-02 -3.745549358427524567e-03 8.779220283031463623e-03
5.500000000000000000e+02 6.856671333312988281e+00 3.028855133056640625e+01 -1.664391253143548965e-03 -9.050608612596988678e-03 -3.214499913156032562e-03 1.073747966438531876e-02
5.510000000000000000e+02 6.541767597198486328e+00 2.762685012817382812e+01 -3.025751328095793724e-03 -5.992830265313386917e-03 -2.705574501305818558e-03 8.278294466435909271e-03
5.520000000000000000e+02 4.159794330596923828e+00 2.473811912536621094e+01 -1.424614572897553444e-03 -2.484930912032723427e-03 -1.172863645479083061e-03 3.304847516119480133e-03
5.530000000000000000e+02 5.945782184600830078e+00 2.074357795715332031e+01 -2.446669852361083031e-03 -1.274966169148683548e-03 -1.116490806452929974e-03 1.004699384793639183e-03
5.540000000000000000e+02 4.993514537811279297e+00 1.742385101318359375e+01 -6.414432427845895290e-04 -6.190172862261533737e-04 -3.781381528824567795e-04 -3.156671300530433655e-04
5.550000000000000000e+02 5.410885334014892578e+00 7.254407882690429688e+00 3.124180948361754417e-04 -7.274115341715514660e-05 7.190307951532304287e-05 -7.730572178843431175e-06
5.560000000000000000e+02 4.242849349975585938e+00 1.930009245872497559e+00 3.959418972954154015e-05 3.766044028452597558e-05 2.317638973181601614e-05 -3.601225034799426794e-05
5.570000000000000000e+02 2.702159643173217773e+00 2.006002664566040039e+00 2.077049612125847489e-05 4.808180892723612487e-05 2.065569060505367815e-05 -2.198416405008174479e-05
5.580000000000000000e+02 4.301467418670654297e+00 2.790257692337036133e+00 1.828349013521801680e-05 -3.092845508945174515e-05 -3.793489213421707973e-06 -1.753345145516504999e-06
5.590000000000000000e+02 1.988111019134521484e+00 4.160289764404296875e+01 3.952125844080001116e-04 -2.238636277616024017e-02 -6.597344763576984406e-03 1.051735525834374130e-04
5.600000000000000000e+02 1.856102943420410156e+00 3.788206863403320312e+01 6.188977276906371117e-04 -1.970660872757434845e-02 -5.726313218474388123e-03 2.054255455732345581e-03
5.610000000000000000e+02 2.210186958312988281e+00 3.319154739379882812e+01 6.554549909196794033e-04 -1.281373482197523117e-02 -3.647483885288238525e-03 4.272239748388528824e-03
5.620000000000000000e+02 2.007732629776000977e+00 3.176706123352050781e+01 -6.773488130420446396e-04 -1.027780212461948395e-02 -3.286545164883136749e-03 3.807764733210206032e-03
5.630000000000000000e+02 1.801542997360229492e+00 2.757179260253906250e+01 -1.863803504420502577e-06 -3.910838626325130463e-03 -1.173810684122145176e-03 2.496798057109117508e-03
5.640000000000000000e+02 1.776659131050109863e+00 2.480808258056640625e+01 -6.171967834234237671e-05 -9.865217143669724464e-04 -3.144724178127944469e-04 1.459932071156799793e-03
5.650000000000000000e+02 1.691792488098144531e+00 2.070337486267089844e+01 -5.359281785786151886e-04 9.518939186818897724e-04 1.247897162102162838e-04 6.430924986489117146e-05
5.660000000000000000e+02 1.721505761146545410e+00 1.797044181823730469e+01 -3.803540894296020269e-04 1.015708199702203274e-03 1.906062243506312370e-04 -3.265665727667510509e-04
5.670000000000000000e+02 1.860967040061950684e+00 1.516859340667724609e+01 -2.367681008763611317e-04 6.668177666142582893e-04 1.290148939006030560e-04 -3.777242382057011127e-04
5.680000000000000000e+02 1.838392972946166992e+00 1.088186168670654297e+01 2.786285767797380686e-04 2.400782250333577394e-04 1.556120405439287424e-04 -1.899683120427653193e-04
5.690000000000000000e+02 1.984300374984741211e+00 7.937696933746337891e+00 2.106300089508295059e-04 1.154635247075930238e-04 9.782805864233523607e-05 -1.195448785438202322e-04
5.700000000000000000e+02 2.777246236801147461e+00 3.002591609954833984e+00 -1.090635669243056327e-05 6.459647920564748347e-06 -1.334012608822376933e-06 -1.568617517477832735e-05
5.710000000000000000e+02 4.236991703510284424e-01 3.560902357101440430e+00 9.442387818126007915e-05 1.718135536066256464e-05 3.348157042637467384e-05 -2.201817551394924521e-05
5.720000000000000000e+02 1.690333747863769531e+01 3.206495761871337891e+00 -8.291808626381680369e-06 -1.734074066916946322e-05 -7.689764970564283431e-06 9.935866728483233601e-06
5.730000000000000000e+02 1.615806007385253906e+01 1.079839992523193359e+01 1.685379684204235673e-04 1.550432352814823389e-04 9.707435674499720335e-05 2.258232780150137842e-05
5.740000000000000000e+02 1.975922966003417969e+01 2.338550567626953125e+00 -9.909776963468175381e-06 -3.402607035241089761e-05 -1.318075464951107278e-05 5.922180207562632859e-06
5.750000000000000000e+02 1.623808288574218750e+01 1.966847538948059082e+00 1.352329491055570543e-05 3.277467112638987601e-05 1.388939017488155514e-05 -3.582785666367271915e-06
5.760000000000000000e+02 1.555014991760253906e+01 1.184356212615966797e+01 -1.315833796979859471e-04 3.428173949941992760e-04 6.337020749924704432e-05 -1.799790625227615237e-04
5.770000000000000000e+02 1.416032886505126953e+01 1.617778778076171875e+01 -4.067192785441875458e-04 1.986560178920626640e-03 4.739522701129317284e-04 4.793204716406762600e-04
5.780000000000000000e+02 1.473374176025390625e+01 1.859456443786621094e+01 9.379459079355001450e-04 5.192098207771778107e-03 1.839013188146054745e-03 4.599484382197260857e-04
5.790000000000000000e+02 1.484358310699462891e+01 1.944732284545898438e+01 5.200415034778416157e-05 4.009387921541929245e-03 1.218417659401893616e-03 2.258738386444747448e-04
5.800000000000000000e+02 3.347200775146484375e+01 4.966706275939941406e+00 -1.551101217046380043e-03 1.748456415953114629e-04 -4.128766595385968685e-04 -5.333389271982014179e-04
5.810000000000000000e+02 3.646609497070312500e+01 -1.651395988464355469e+01 3.875528275966644287e-01 -2.633616626262664795e-01 3.725735098123550415e-02 -5.693941116333007812e-01
5.820000000000000000e+02 3.555327987670898438e+01 -1.918252182006835938e+01 -1.936159469187259674e-02 -1.495830178260803223e+00 -4.545575380325317383e-01 7.430064678192138672e-02
5.830000000000000000e+02 3.557759094238281250e+01 -2.057418823242187500e+01 5.263958871364593506e-02 -1.231215119361877441e+00 -3.535726666450500488e-01 1.150915250182151794e-01
5.840000000000000000e+02 3.529913711547851562e+01 -2.328629112243652344e+01 3.841968178749084473e-01 9.470633417367935181e-02 1.436709463596343994e-01 4.554484188556671143e-01
5.850000000000000000e+02 3.715836715698242188e+01 -2.752512359619140625e+01 6.535760164260864258e-01 1.095370650291442871e+00 5.246840119361877441e-01 9.021894335746765137e-01
5.860000000000000000e+02 3.429670333862304688e+01 -2.530476570129394531e+01 5.662136077880859375e-01 5.613599419593811035e-01 3.382720649242401123e-01 6.248499751091003418e-01
5.870000000000000000e+02 3.432394790649414062e+01 -2.758830451965332031e+01 7.150994539260864258e-01 7.003054618835449219e-01 4.246214926242828369e-01 6.963593363761901855e-01
5.880000000000000000e+02 3.334985733032226562e+01 -2.621860122680664062e+01 6.503675580024719238e-01 7.101126909255981445e-01 4.081440567970275879e-01 6.366119980812072754e-01
5.890000000000000000e+02 1.519893550872802734e+01 -1.030247783660888672e+01 -9.917779564857482910e-01 -7.283433675765991211e-01 -5.160363912582397461e-01 -3.937346637248992920e-01
5.900000000000000000e+02 1.959765052795410156e+01 -7.710402488708496094e+00 -7.570461630821228027e-01 -4.003700017929077148e-01 -3.472248613834381104e-01 -6.878278255462646484e-01
5.910000000000000000e+02 1.936822891235351562e+01 -1.003899765014648438e+01 -1.262167334556579590e+00 -4.821183979511260986e-01 -5.232857465744018555e-01 -7.911341190338134766e-01
5.920000000000000000e+02 2.339258575439453125e+01 -1.058771038055419922e+01 -8.994012475013732910e-01 -1.209540441632270813e-01 -3.061065971851348877e-01 -4.081706106662750244e-01
5.930000000000000000e+02 2.371437835693359375e+01 -8.074458122253417969e+00 -7.111197710037231445e-01 -2.534581422805786133e-01 -2.893733680248260498e-01 -6.407473683357238770e-01
5.940000000000000000e+02 2.381095123291015625e+01 -2.607504606246948242e+00 -8.824093937873840332e-01 2.057927846908569336e-02 -2.585490345954895020e-01 -6.139761805534362793e-01
5.950000000000000000e+02 2.412531852722167969e+01 -9.058401107788085938e+00 -7.861805558204650879e-01 -1.927664130926132202e-01 -2.936840951442718506e-01 -5.446015596389770508e-01
5.960000000000000000e+02 3.570391082763671875e+01 -3.363362789154052734e+00 -2.177935123443603516e+00 6.168566942214965820e-01 -4.683235585689544678e-01 4.104205369949340820e-01
5.970000000000000000e+02 3.135036468505859375e+01 -7.573825836181640625e+00 5.325117707252502441e-01 1.263850331306457520e+00 5.389086604118347168e-01 -8.533103466033935547e-01
5.980000000000000000e+02 3.775414657592773438e+01 -1.190892982482910156e+01 9.432911872863769531e-01 3.909542560577392578e-01 4.002736508846282959e-01 -1.399375081062316895e+00
5.990000000000000000e+02 3.878985595703125000e+01 -1.304511547088623047e+01 1.022582411766052246e+00 4.186151027679443359e-01 4.323592782020568848e-01 -1.426421761512756348e+00
6.000000000000000000e+02 4.429804611206054688e+01 -1.703798484802246094e+01 3.214042663574218750e+00 4.008312225341796875e+00 2.166706323623657227e+00 1.175481438636779785e+00
6.010000000000000000e+02 3.821673202514648438e+01 8.475139617919921875e+00 2.634057775139808655e-03 -1.232523121871054173e-03 4.204604192636907101e-04 7.257373654283583164e-04
6.020000000000000000e+02 4.119420242309570312e+01 1.162547779083251953e+01 -3.568485379219055176e-03 -1.374287297949194908e-03 -1.482831779867410660e-03 -7.446048781275749207e-03
6.030000000000000000e+02 3.855931472778320312e+01 1.282146930694580078e+01 -3.334334120154380798e-02 6.576558109372854233e-03 -8.030034601688385010e-03 -1.717536826618015766e-03
6.040000000000000000e+02 3.971025085449218750e+01 1.101905727386474609e+01 -6.151897367089986801e-03 1.733874320052564144e-03 -1.325406949035823345e-03 -4.935054574161767960e-03
6.050000000000000000e+02 4.009085464477539062e+01 1.531671619415283203e+01 -7.048274576663970947e-02 2.524203062057495117e-02 -1.357221417129039764e-02 -3.942395560443401337e-03
6.060000000000000000e+02 3.075094223022460938e+01 1.750132369995117188e+01 -2.908398211002349854e-02 -8.871409296989440918e-02 -3.533942252397537231e-02 4.640299454331398010e-02
6.070000000000000000e+02 3.762638854980468750e+01 1.694173049926757812e+01 -7.098093628883361816e-02 3.270928934216499329e-02 -1.148149557411670685e-02 2.031428366899490356e-02
6.080000000000000000e+02 4.823312377929687500e+01 1.870399093627929688e+01 -2.214107960462570190e-01 -8.811398595571517944e-02 -9.285743534564971924e-02 -1.191147640347480774e-01
6.090000000000000000e+02 3.148488235473632812e+01 2.039940071105957031e+01 -1.079865694046020508e-01 -3.141812607645988464e-02 -4.182140901684761047e-02 5.618827044963836670e-02
6.100000000000000000e+02 3.768365859985351562e+01 1.942037582397460938e+01 -8.148288726806640625e-02 4.254167154431343079e-02 -1.168236415833234787e-02 3.104916773736476898e-02
6.110000000000000000e+02 4.396716690063476562e+01 1.545188045501708984e+01 -8.031371235847473145e-02 -3.285976499319076538e-02 -3.395204246044158936e-02 -4.456079751253128052e-02
6.120000000000000000e+02 7.506306457519531250e+01 2.206928825378417969e+01 1.184608414769172668e-01 -1.183579683303833008e+00 -3.195356726646423340e-01 6.523172259330749512e-01
6.130000000000000000e+02 7.062271118164062500e+01 1.991488647460937500e+01 5.551542043685913086e-01 8.962911963462829590e-01 4.354336261749267578e-01 6.267988681793212891e-01
6.140000000000000000e+02 6.805049133300781250e+01 2.034967231750488281e+01 6.998382210731506348e-01 2.076899766921997070e+00 8.330214023590087891e-01 5.400808453559875488e-01
6.150000000000000000e+02 5.888514709472656250e+01 2.335627174377441406e+01 1.006909966468811035e+00 1.884663224220275879e+00 8.674719333648681641e-01 -1.609957337379455566e+00
6.160000000000000000e+02 5.602142333984375000e+01 2.167734527587890625e+01 4.388868212699890137e-01 -1.320683490484952927e-02 1.277039945125579834e-01 -1.878176182508468628e-01
6.170000000000000000e+02 5.265966033935546875e+01 2.267348861694335938e+01 1.969107538461685181e-01 1.406107563525438309e-02 6.329154968261718750e-02 -1.971558481454849243e-01
6.180000000000000000e+02 4.494592285156250000e+01 2.191774177551269531e+01 -6.173610314726829529e-02 4.063207283616065979e-02 -6.331208627671003342e-03 2.558533742558211088e-05
6.190000000000000000e+02 4.224804687500000000e+01 2.193557167053222656e+01 -5.324646085500717163e-02 6.968139111995697021e-02 4.930478986352682114e-03 8.469766937196254730e-03
6.200000000000000000e+02 3.869100189208984375e+01 2.310116195678710938e+01 -4.326234757900238037e-02 5.680483207106590271e-02 4.062744788825511932e-03 2.486659213900566101e-02
6.210000000000000000e+02 3.171791839599609375e+01 2.340362930297851562e+01 -7.032908499240875244e-02 -1.491349283605813980e-02 -2.557277306914329529e-02 2.817163988947868347e-02
6.220000000000000000e+02 3.651396942138671875e+01 2.401976585388183594e+01 -4.775742068886756897e-02 4.616768658161163330e-02 -4.769194347318261862e-04 2.116662636399269104e-02
6.230000000000000000e+02 8.478025436401367188e+00 2.078657722473144531e+01 -4.089023452252149582e-03 -1.127109630033373833e-03 -1.564839971251785755e-03 1.139569911174476147e-03
6.240000000000000000e+02 3.971204519271850586e+00 2.207699394226074219e+01 -9.127515950240194798e-04 -9.602204663679003716e-04 -5.618916475214064121e-04 1.351595041342079639e-03
6.250000000000000000e+02 3.989567041397094727e+00 1.708413696289062500e+01 1.209354595630429685e-04 -1.254488306585699320e-04 -1.354009668830258306e-06 -2.807577257044613361e-04
6.260000000000000000e+02 6.925336837768554688e+00 1.707818412780761719e+01 -9.581205085851252079e-05 -1.027921563945710659e-03 -3.371200873516499996e-04 -2.853863989003002644e-04
6.270000000000000000e+02 6.699755859375000000e+01 1.736649703979492188e+01 1.078622221946716309e+00 3.013220787048339844e+00 1.227552890777587891e+00 1.031789332628250122e-01
6.280000000000000000e+02 7.133795166015625000e+01 1.682694625854492188e+01 6.270703673362731934e-01 4.825458824634552002e-01 3.328848779201507568e-01 3.303484916687011719e-01
6.290000000000000000e+02 7.548112487792968750e+01 1.936855506896972656e+01 1.610055863857269287e-01 -1.614044785499572754e+00 -4.359117448329925537e-01 4.766849875450134277e-01
6.300000000000000000e+02 5.665149092674255371e-01 2.062654495239257812e+01 2.605149929877370596e-04 2.160426462069153786e-03 7.262824801728129387e-04 3.987249147030524909e-05
6.310000000000000000e+02 7.000006103515625000e+01 1.295022678375244141e+01 7.664722800254821777e-01 1.372169494628906250e+00 6.415925025939941406e-01 -9.183011949062347412e-02
6.320000000000000000e+02 7.030101013183593750e+01 1.543996143341064453e+01 7.430645823478698730e-01 1.137021064758300781e+00 5.640257000923156738e-01 1.460026353597640991e-01
6.330000000000000000e+02 7.554068756103515625e+01 1.540066909790039062e+01 2.244689315557479858e-01 -1.789736986160278320e+00 -4.695804119110107422e-01 1.663107424974441528e-01
6.340000000000000000e+02 6.476200866699218750e+01 1.086017322540283203e+01 7.846910357475280762e-01 4.933165073394775391e+00 1.715356826782226562e+00 2.822030186653137207e-01
6.350000000000000000e+02 6.715901947021484375e+01 1.132318496704101562e+01 7.687376141548156738e-01 3.136502265930175781e+00 1.171571969985961914e+00 -3.085861355066299438e-02
6.360000000000000000e+02 7.504254913330078125e+01 1.102190589904785156e+01 2.600023746490478516e-01 -1.452887892723083496e+00 -3.578656315803527832e-01 -2.359118759632110596e-01
6.370000000000000000e+02 7.503833007812500000e+01 9.405107498168945312e+00 2.341623157262802124e-01 -1.397095680236816406e+00 -3.488800227642059326e-01 -3.541752994060516357e-01
6.380000000000000000e+02 6.720867156982421875e+01 9.650634765625000000e+00 7.270171642303466797e-01 2.912399768829345703e+00 1.091825127601623535e+00 -1.163855269551277161e-01
6.390000000000000000e+02 6.975146484375000000e+01 6.448956012725830078e+00 5.569329261779785156e-01 1.198323488235473633e+00 5.265769362449645996e-01 -4.835435748100280762e-01
6.400000000000000000e+02 6.670758056640625000e+01 3.919256925582885742e+00 5.919081568717956543e-01 2.241473197937011719e+00 8.500143885612487793e-01 -2.589371502399444580e-01
6.410000000000000000e+02 6.674984741210937500e+01 5.263345241546630859e+00 5.956473946571350098e-01 2.488833904266357422e+00 9.253444075584411621e-01 -2.490966469049453735e-01
6.420000000000000000e+02 7.286392211914062500e+01 3.605636835098266602e+00 1.978603452444076538e-01 -2.873992025852203369e-01 -2.686165645718574524e-02 -8.008608818054199219e-01
6.430000000000000000e+02 6.460974884033203125e+01 2.915930747985839844e+00 6.133751273155212402e-01 2.779077768325805664e+00 1.017735838890075684e+00 1.021204888820648193e-01
6.440000000000000000e+02 7.047616577148437500e+01 8.698121905326843262e-01 1.567377597093582153e-01 5.185518860816955566e-01 2.025868892669677734e-01 -8.495808839797973633e-01
6.450000000000000000e+02 7.557382202148437500e+01 1.030691742897033691e+00 4.452296346426010132e-02 -1.140174508094787598e+00 -3.286954760551452637e-01 -7.306391596794128418e-01
6.460000000000000000e+02 5.635400009155273438e+01 -6.489545106887817383e-01 1.523778676986694336e+00 2.951268672943115234e+00 1.342514157295227051e+00 2.045360803604125977e+00
6.470000000000000000e+02 6.203686141967773438e+01 -4.138127326965332031e+00 -2.194969356060028076e-01 1.661047458648681641e+00 4.324651658535003662e-01 3.934593796730041504e-01
6.480000000000000000e+02 6.034219741821289062e+01 -1.879243493080139160e+00 3.330748677253723145e-01 2.297679424285888672e+00 7.892262935638427734e-01 8.769471049308776855e-01
6.490000000000000000e+02 6.817332458496093750e+01 4.545910656452178955e-02 1.466268599033355713e-01 1.118313193321228027e+00 3.794820308685302734e-01 -6.815228462219238281e-01
6.500000000000000000e+02 7.562574005126953125e+01 -2.994577407836914062e+00 -2.687695063650608063e-02 -7.594258189201354980e-01 -2.358908355236053467e-01 -7.311104536056518555e-01
6.510000000000000000e+02 7.560133361816406250e+01 -4.375982284545898438e+00 -8.776418119668960571e-02 -6.161091327667236328e-01 -2.111619859933853149e-01 -7.040530443191528320e-01
6.520000000000000000e+02 5.737334060668945312e+01 -1.402636408805847168e+00 1.043781757354736328e+00 2.578050136566162109e+00 1.086549639701843262e+00 1.441431641578674316e+00
6.530000000000000000e+02 3.821185827255249023e+00 -6.668370246887207031e+00 -5.780532583594322205e-02 4.992126673460006714e-02 -2.365218475461006165e-03 6.240588054060935974e-02
6.540000000000000000e+02 6.888683319091796875e+00 -7.770813941955566406e+00 -2.262410670518875122e-01 -2.861971221864223480e-02 -7.645823061466217041e-02 2.638481091707944870e-03
6.550000000000000000e+02 1.965246391296386719e+01 -1.365453124046325684e+00 -1.197364032268524170e-01 -4.719298705458641052e-02 -5.007881671190261841e-02 -2.180081307888031006e-01
6.560000000000000000e+02 2.047138595581054688e+01 -6.675728321075439453e+00 -6.576125025749206543e-01 -3.087092638015747070e-01 -2.898965477943420410e-01 -6.885038614273071289e-01
6.570000000000000000e+02 2.270685005187988281e+01 -8.418472290039062500e+00 -8.346845507621765137e-01 -2.019747048616409302e-01 -3.109977543354034424e-01 -6.497924923896789551e-01
6.580000000000000000e+02 3.738359069824218750e+01 -1.673668026924133301e+00 -2.157213211059570312e+00 5.099714398384094238e-01 -4.941725432872772217e-01 5.682907700538635254e-01
6.590000000000000000e+02 3.593781661987304688e+01 -5.153224945068359375e+00 -1.574697613716125488e+00 7.535626888275146484e-01 -2.463404685258865356e-01 1.491226255893707275e-01
6.600000000000000000e+02 3.973360824584960938e+01 -1.032472801208496094e+01 2.476950436830520630e-01 3.749774992465972900e-01 1.868017613887786865e-01 -1.079927206039428711e+00
6.610000000000000000e+02 4.454088973999023438e+01 -1.360020828247070312e+01 1.872501730918884277e+00 2.256831407546997070e+00 1.238799929618835449e+00 1.399667561054229736e-01
6.620000000000000000e+02 4.625061035156250000e+01 -1.541524982452392578e+01 4.000989913940429688e+00 4.069771289825439453e+00 2.421228408813476562e+00 1.906811356544494629e+00
6.630000000000000000e+02 4.792333221435546875e+01 -1.365057277679443359e+01 2.771816253662109375e+00 2.940168619155883789e+00 1.713595509529113770e+00 2.043224096298217773e+00
6.640000000000000000e+02 4.135464096069335938e+01 -3.457015275955200195e+00 -3.660380840301513672e+00 -9.037648439407348633e-01 -1.369243621826171875e+00 1.327614903450012207e+00
6.650000000000000000e+02 4.120059585571289062e+01 -4.863615036010742188e+00 -3.337611913681030273e+00 -1.308781355619430542e-01 -1.040547013282775879e+00 3.118457794189453125e-01
6.660000000000000000e+02 4.402207183837890625e+01 -9.881963729858398438e+00 -5.452290773391723633e-01 7.812590599060058594e-01 7.080898433923721313e-02 -2.255821824073791504e-01
6.670000000000000000e+02 4.611967086791992188e+01 -8.753877639770507812e+00 -1.535402297973632812e+00 4.304332733154296875e-01 -3.314907252788543701e-01 5.838935971260070801e-01
6.680000000000000000e+02 4.820155715942382812e+01 -1.020983314514160156e+01 -3.385168015956878662e-01 1.165063619613647461e+00 2.479640543460845947e-01 1.513322353363037109e+00
6.690000000000000000e+02 5.008306884765625000e+01 -1.190915870666503906e+01 1.231528043746948242e+00 1.320469737052917480e+00 7.655993103981018066e-01 2.349647045135498047e+00
6.700000000000000000e+02 5.065053558349609375e+01 -1.350697994232177734e+01 2.636525630950927734e+00 1.272777915000915527e+00 1.172791004180908203e+00 2.450789690017700195e+00
6.710000000000000000e+02 4.472502899169921875e+01 -5.464811801910400391e+00 -4.561090946197509766e+00 -3.149553537368774414e-01 -1.462813854217529297e+00 1.082800745964050293e+00
6.720000000000000000e+02 4.731683349609375000e+01 -6.217720031738281250e+00 -4.562536716461181641e+00 -4.084933102130889893e-01 -1.491309046745300293e+00 9.960620999336242676e-01
6.730000000000000000e+02 4.920588684082031250e+01 -1.043119812011718750e+01 -7.573429495096206665e-02 1.047772645950317383e+00 2.916114926338195801e-01 2.025206327438354492e+00
6.740000000000000000e+02 5.236921310424804688e+01 -1.061848545074462891e+01 -6.539122760295867920e-02 1.017675995826721191e+00 2.856854498386383057e-01 2.438533782958984375e+00
6.750000000000000000e+02 4.866641616821289062e+01 -6.569204330444335938e+00 -3.837594985961914062e+00 -5.854520201683044434e-01 -1.326914072036743164e+00 1.253171920776367188e+00
6.760000000000000000e+02 5.346933746337890625e+01 -6.723957538604736328e+00 -1.572113990783691406e+00 1.926561713218688965e+00 1.063343062996864319e-01 2.033300399780273438e+00
6.770000000000000000e+02 5.699503326416015625e+01 -6.073437213897705078e+00 -7.878625392913818359e-01 2.013016700744628906e+00 3.675462305545806885e-01 1.283436179161071777e+00
6.780000000000000000e+02 6.455513000488281250e+01 -6.952414035797119141e+00 -5.797540545463562012e-01 5.905531644821166992e-01 3.239736892282962799e-03 -1.391188651323318481e-01
6.790000000000000000e+02 6.037881088256835938e+01 -6.282083034515380859e+00 -6.000221371650695801e-01 1.468175172805786133e+00 2.604458928108215332e-01 7.322355508804321289e-01
6.800000000000000000e+02 7.030834960937500000e+01 -3.655364036560058594e+00 -1.723748594522476196e-01 3.251634240150451660e-01 4.583656787872314453e-02 -8.731788992881774902e-01
6.810000000000000000e+02 2.133966636657714844e+01 -1.685191273689270020e+00 -3.657308220863342285e-01 -1.275212131440639496e-02 -1.135448887944221497e-01 -2.927730083465576172e-01
6.820000000000000000e+02 2.119515419006347656e+01 -1.050706744194030762e+00 -2.667150199413299561e-01 -1.311259530484676361e-02 -8.394828438758850098e-02 -2.077540755271911621e-01
6.830000000000000000e+02 1.887811279296875000e+01 -1.480790734291076660e+00 -4.778833687305450439e-02 -5.453534051775932312e-02 -3.069710358977317810e-02 -2.050779312849044800e-01
6.840000000000000000e+02 1.514455699920654297e+01 -2.495692968368530273e+00 7.488679140806198120e-02 -7.443455606698989868e-02 1.356700522592291236e-04 -1.035937890410423279e-01
6.850000000000000000e+02 1.810402107238769531e+01 -1.561886310577392578e+00 1.482793129980564117e-02 -5.529115721583366394e-02 -1.213896833360195160e-02 -1.845025718212127686e-01
6.860000000000000000e+02 1.828301906585693359e+00 -7.952177524566650391e+00 -2.551124431192874908e-02 1.400605291128158569e-01 3.436478599905967712e-02 2.449322864413261414e-02
6.870000000000000000e+02 4.234896659851074219e+00 -4.944228172302246094e+00 -1.641239039599895477e-02 3.579128533601760864e-02 5.813668947666883469e-03 9.903334081172943115e-02
6.880000000000000000e+02 5.840870857238769531e+00 -1.032739067077636719e+01 -2.529224157333374023e-01 -4.756862297654151917e-02 -9.014730900526046753e-02 -1.477391421794891357e-01
6.890000000000000000e+02 7.539621353149414062e+00 -1.173344516754150391e+01 -4.183548092842102051e-01 -1.077745109796524048e-01 -1.578387916088104248e-01 -3.038150966167449951e-01
6.900000000000000000e+02 1.095776081085205078e+01 -5.875792980194091797e+00 -2.452079504728317261e-01 -1.289911270141601562e-01 -1.122597232460975647e-01 1.046906784176826477e-02
6.910000000000000000e+02 1.546163463592529297e+01 -8.536048889160156250e+00 -7.112818360328674316e-01 -5.625147223472595215e-01 -3.821389675140380859e-01 -3.412660956382751465e-01
6.920000000000000000e+02 3.670434951782226562e+01 -8.202673912048339844e+00 -1.609553247690200806e-01 6.113250851631164551e-01 1.351109147071838379e-01 -5.317621231079101562e-01
6.930000000000000000e+02 4.076346969604492188e+01 -7.271431922912597656e+00 -1.707431077957153320e+00 2.423570454120635986e-01 -4.395222365856170654e-01 -4.335137009620666504e-01
6.940000000000000000e+02 4.188308715820312500e+01 -7.368044376373291016e+00 -1.881047368049621582e+00 1.342378258705139160e-01 -5.240428447723388672e-01 -3.238890767097473145e-01
6.950000000000000000e+02 6.021931076049804688e+01 -9.534723281860351562e+00 -9.922876358032226562e-01 8.618330359458923340e-01 -3.913637623190879822e-02 7.816728949546813965e-01
6.960000000000000000e+02 6.450019073486328125e+01 -1.135617542266845703e+01 -2.374939441680908203e+00 -5.661799311637878418e-01 -8.823358416557312012e-01 -4.428402706980705261e-02
6.970000000000000000e+02 6.087094879150390625e+01 -1.053789997100830078e+01 -1.134765386581420898e+00 6.099112033843994141e-01 -1.574562489986419678e-01 6.638728380203247070e-01
6.980000000000000000e+02 6.868639373779296875e+01 -6.976478576660156250e+00 -5.298575758934020996e-01 3.705561459064483643e-01 -4.779042676091194153e-02 -7.117812633514404297e-01
6.990000000000000000e+02 4.102593898773193359e+00 -1.024429130554199219e+01 -1.384733766317367554e-01 2.609204500913619995e-03 -4.075925052165985107e-02 -9.692944586277008057e-02
7.000000000000000000e+02 4.522138595581054688e+00 -1.181273365020751953e+01 -1.830937564373016357e-01 -6.280053406953811646e-02 -7.376828789710998535e-02 -2.078968584537506104e-01
7.010000000000000000e+02 1.013843917846679688e+01 -1.490845870971679688e+01 -5.784484744071960449e-01 -2.482005059719085693e-01 -2.479947060346603394e-01 -6.935544610023498535e-01
7.020000000000000000e+02 1.321744251251220703e+01 -1.197365379333496094e+01 -1.008377432823181152e+00 -5.244492888450622559e-01 -4.598480165004730225e-01 -4.367777407169342041e-01
7.030000000000000000e+02 1.684076690673828125e+01 -1.242516613006591797e+01 -1.962690472602844238e+00 -1.246795058250427246e+00 -9.628456234931945801e-01 -1.290670156478881836e+00
7.040000000000000000e+02 1.863501667976379395e+00 -1.368013381958007812e+01 -3.385990113019943237e-02 -6.615698337554931641e-02 -3.000506386160850525e-02 -1.632330417633056641e-01
7.050000000000000000e+02 3.169872283935546875e+00 -1.253631973266601562e+01 -9.488158673048019409e-02 -5.461037158966064453e-02 -4.484758898615837097e-02 -1.974601447582244873e-01
7.060000000000000000e+02 4.515548706054687500e+00 -1.762695884704589844e+01 -5.480655655264854431e-02 -4.277854561805725098e-01 -1.447776108980178833e-01 -5.119364857673645020e-01
7.070000000000000000e+02 1.329369449615478516e+01 -1.446870899200439453e+01 -9.295598864555358887e-01 -6.739978194236755371e-01 -4.810673296451568604e-01 -7.275281548500061035e-01
7.080000000000000000e+02 1.532857990264892578e+01 -1.391733264923095703e+01 -1.194614171981811523e+00 -1.555564284324645996e+00 -8.250535726547241211e-01 -1.153257846832275391e+00
7.090000000000000000e+02 3.131369113922119141e+00 -1.639936447143554688e+01 -4.917902499437332153e-02 -3.383228182792663574e-01 -1.162505522370338440e-01 -3.646547794342041016e-01
7.100000000000000000e+02 4.437683105468750000e+00 -1.637019729614257812e+01 -9.425914287567138672e-02 -3.351087272167205811e-01 -1.288103610277175903e-01 -4.655972719192504883e-01
7.110000000000000000e+02 4.617247104644775391e+00 -1.894803047180175781e+01 -1.330006588250398636e-02 -5.343883037567138672e-01 -1.643065065145492554e-01 -5.327351689338684082e-01
7.120000000000000000e+02 9.230038642883300781e+00 -2.292381477355957031e+01 3.540728390216827393e-01 -4.828096628189086914e-01 -3.862105309963226318e-02 -5.991751551628112793e-01
7.130000000000000000e+02 1.268576812744140625e+01 -1.662540245056152344e+01 -4.379034638404846191e-01 -5.147519111633300781e-01 -2.857966125011444092e-01 -7.893978357315063477e-01
7.140000000000000000e+02 1.425286197662353516e+01 -1.657071876525878906e+01 -3.076136112213134766e-01 -1.046297907829284668e+00 -4.061734676361083984e-01 -5.133078694343566895e-01
7.150000000000000000e+02 3.412363290786743164e+00 -2.052081871032714844e+01 3.090069815516471863e-02 -7.220963835716247559e-01 -2.073587030172348022e-01 -4.231162965297698975e-01
7.160000000000000000e+02 9.960558891296386719e+00 -2.610765457153320312e+01 4.151925742626190186e-01 -4.002146720886230469e-01 4.493366926908493042e-03 -4.176882207393646240e-01
7.170000000000000000e+02 1.103771972656250000e+01 -2.064918899536132812e+01 3.189822733402252197e-01 -3.035053908824920654e-01 4.643061663955450058e-03 -7.637713551521301270e-01
7.180000000000000000e+02 2.121241331100463867e+00 -2.349356651306152344e+01 2.997184358537197113e-02 -1.106919050216674805e+00 -3.230841755867004395e-01 -2.348103374242782593e-01
7.190000000000000000e+02 5.025000572204589844e+00 -2.194914817810058594e+01 1.050321981310844421e-01 -7.389143705368041992e-01 -1.901646554470062256e-01 -5.150811076164245605e-01
7.200000000000000000e+02 6.246258258819580078e+00 -2.905597305297851562e+01 1.834421753883361816e-01 -8.706874251365661621e-01 -2.061735838651657104e-01 -2.414692938327789307e-01
7.210000000000000000e+02 8.768784523010253906e+00 -2.844753456115722656e+01 2.601636052131652832e-01 -5.649337172508239746e-01 -9.143104404211044312e-02 -2.881148755550384521e-01
7.220000000000000000e+02 1.897172689437866211e+00 -2.906948471069335938e+01 2.430905587971210480e-02 -1.525939583778381348e+00 -4.504891633987426758e-01 -9.014370292425155640e-02
7.230000000000000000e+02 3.172826290130615234e+00 -2.911979293823242188e+01 5.742822960019111633e-02 -1.317604899406433105e+00 -3.780530095100402832e-01 -1.398517638444900513e-01
7.240000000000000000e+02 5.835716724395751953e+00 -3.092375373840332031e+01 8.949662744998931885e-02 -9.908277988433837891e-01 -2.703993618488311768e-01 -1.561376154422760010e-01
7.250000000000000000e+02 1.240927505493164062e+01 -2.996014022827148438e+01 3.829528093338012695e-01 -7.867936789989471436e-02 9.128202497959136963e-02 -2.499065250158309937e-01
7.260000000000000000e+02 1.563876247406005859e+01 -2.819840049743652344e+01 5.941255688667297363e-01 4.066124856472015381e-01 3.002214133739471436e-01 -4.323056340217590332e-01
7.270000000000000000e+02 1.888682365417480469e+00 -3.041645812988281250e+01 1.977264881134033203e-02 -1.583297729492187500e+00 -4.690575301647186279e-01 -6.371624767780303955e-02
7.280000000000000000e+02 4.320814609527587891e+00 -3.028568267822265625e+01 4.844051226973533630e-02 -1.180623292922973633e+00 -3.396548330783843994e-01 -1.399728506803512573e-01
7.290000000000000000e+02 7.218777656555175781e+00 -3.348748397827148438e+01 1.012354865670204163e-01 -7.962407469749450684e-01 -2.085015773773193359e-01 -1.110180988907814026e-01
7.300000000000000000e+02 2.043051528930664062e+01 -3.274125671386718750e+01 6.079066395759582520e-01 5.640153884887695312e-01 3.515765964984893799e-01 -3.016368746757507324e-01
7.310000000000000000e+02 4.342731475830078125e+01 -3.212747192382812500e+01 -1.746357679367065430e-01 1.815698862075805664e+00 4.923189282417297363e-01 1.836849153041839600e-01
7.320000000000000000e+02 6.081443786621093750e+01 -3.204376983642578125e+01 -8.551915735006332397e-02 8.377787307836115360e-04 -2.540441416203975677e-02 3.625621646642684937e-02
7.330000000000000000e+02 7.516088104248046875e+01 -3.183853912353515625e+01 -1.249516964890062809e-03 -7.491739001125097275e-03 -2.622376894578337669e-03 1.022781059145927429e-02
7.340000000000000000e+02 2.098630428314208984e+00 -3.442139816284179688e+01 2.185217663645744324e-02 -1.656100988388061523e+00 -4.902746379375457764e-01 -1.428649760782718658e-02
7.350000000000000000e+02 3.621366739273071289e+00 -3.422097015380859375e+01 3.518520295619964600e-02 -1.378321528434753418e+00 -4.029408991336822510e-01 -4.345222190022468567e-02
7.360000000000000000e+02 7.253681182861328125e+00 -3.568307876586914062e+01 7.391008734703063965e-02 -8.314336538314819336e-01 -2.272570729255676270e-01 -6.985627114772796631e-02
7.370000000000000000e+02 9.259419441223144531e+00 -3.841670608520507812e+01 4.808380082249641418e-02 -5.755382180213928223e-01 -1.582363247871398926e-01 -4.103980213403701782e-02
7.380000000000000000e+02 2.008755111694335938e+01 -3.472421646118164062e+01 4.008185267448425293e-01 5.513097047805786133e-01 2.856384515762329102e-01 -1.927645802497863770e-01
7.390000000000000000e+02 2.553233528137207031e+01 -3.384919738769531250e+01 7.006844282150268555e-01 5.571352839469909668e-01 3.773459196090698242e-01 -7.537993043661117554e-02
7.400000000000000000e+02 4.639420700073242188e+01 -3.474301528930664062e+01 -1.679289042949676514e-01 1.286847710609436035e+00 3.356756567955017090e-01 -1.677099466323852539e-01
7.410000000000000000e+02 4.838246917724609375e+01 -3.404155731201171875e+01 -8.677407354116439819e-02 9.074872732162475586e-01 2.462139576673507690e-01 -2.259842306375503540e-01
7.420000000000000000e+02 6.150363159179687500e+01 -3.526730728149414062e+01 7.710880134254693985e-03 -1.954590436071157455e-03 1.726886956021189690e-03 5.368872359395027161e-02
7.430000000000000000e+02 6.676721191406250000e+01 -3.612174987792968750e+01 1.581162773072719574e-02 -4.411941859871149063e-03 3.419905900955200195e-03 4.093862324953079224e-02
7.440000000000000000e+02 7.508461761474609375e+01 -3.372728347778320312e+01 1.088932738639414310e-03 -1.097212079912424088e-02 -2.964956453070044518e-03 1.249033864587545395e-02
7.450000000000000000e+02 7.658315896987915039e-01 -3.736941146850585938e+01 1.731425710022449493e-02 -1.833535194396972656e+00 -5.448662638664245605e-01 2.402089163661003113e-02
7.460000000000000000e+02 3.633627176284790039e+00 -3.560034179687500000e+01 4.307072237133979797e-02 -1.438072562217712402e+00 -4.185005724430084229e-01 -4.377748072147369385e-02
7.470000000000000000e+02 7.498391723632812500e+01 -3.776266479492187500e+01 3.951801918447017670e-03 -2.026078104972839355e-02 -4.892693832516670227e-03 1.005101483315229416e-02
7.480000000000000000e+02 7.048099517822265625e+01 -2.648126029968261719e+01 -1.096936874091625214e-02 2.724890829995274544e-03 -2.473343396559357643e-03 4.156371578574180603e-03
7.490000000000000000e+02 6.970553588867187500e+01 -2.358288192749023438e+01 -4.446485545486211777e-03 2.552645280957221985e-03 -5.681520560756325722e-04 -4.872306817560456693e-05
7.500000000000000000e+02 6.818183135986328125e+01 -2.186624908447265625e+01 -2.817448694258928299e-03 1.385107054375112057e-03 -4.297024570405483246e-04 9.781882399693131447e-04
7.510000000000000000e+02 6.883360290527343750e+01 -2.320445442199707031e+01 -6.959721446037292480e-03 -1.309165963903069496e-03 -2.480666153132915497e-03 -3.327118698507547379e-03
7.520000000000000000e+02 7.572817993164062500e+01 -1.896564292907714844e+01 4.787643847521394491e-04 3.445424372330307961e-04 2.469920436851680279e-04 3.369547630427405238e-05
7.530000000000000000e+02 7.712369537353515625e+01 -2.399750900268554688e+01 -2.728112740442156792e-03 -5.716080777347087860e-04 -9.899162687361240387e-04 1.028800150379538536e-03
7.540000000000000000e+02 4.399484634399414062e+01 -2.812957954406738281e+01 1.976343803107738495e-02 2.729920387268066406e+00 8.249051570892333984e-01 2.188696563243865967e-01
7.550000000000000000e+02 4.412766265869140625e+01 -2.499840354919433594e+01 4.955921471118927002e-01 3.750212669372558594e+00 1.273741483688354492e+00 2.997069358825683594e-01
7.560000000000000000e+02 3.792281341552734375e+01 -2.036082458496093750e+01 5.006187558174133301e-01 6.279801130294799805e-01 3.385796546936035156e-01 5.518789291381835938e-01
7.570000000000000000e+02 4.080312347412109375e+01 -2.746167182922363281e+01 3.429313302040100098e-01 2.106905460357666016e+00 7.349510788917541504e-01 9.345392584800720215e-01
7.580000000000000000e+02 3.975843429565429688e+01 -2.284401130676269531e+01 7.437155842781066895e-01 1.884065985679626465e+00 7.883344888687133789e-01 1.142010092735290527e+00
7.590000000000000000e+02 3.681764984130859375e+01 -2.191960144042968750e+01 3.830628693103790283e-01 2.203568071126937866e-01 1.810258924961090088e-01 7.432304024696350098e-01
7.600000000000000000e+02 4.532987594604492188e+01 -2.339204978942871094e+01 3.304185271263122559e-01 6.039285659790039062e+00 1.910911202430725098e+00 -2.909471392631530762e-01
7.610000000000000000e+02 4.039139938354492188e+01 -1.982191658020019531e+01 1.288993954658508301e+00 1.922999382019042969e+00 9.635980129241943359e-01 6.785626411437988281e-01
7.620000000000000000e+02 4.534326171875000000e+01 -1.277373886108398438e+01 1.267633080482482910e+00 2.102898120880126953e+00 1.011159420013427734e+00 1.716833263635635376e-01
7.630000000000000000e+02 3.634608840942382812e+01 -1.391258716583251953e+01 8.848277926445007324e-01 3.912068307399749756e-01 3.828103840351104736e-01 -1.299746990203857422e+00
7.640000000000000000e+02 6.982574462890625000e+01 -1.127701854705810547e+01 -7.894343137741088867e-01 2.546584904193878174e-01 -1.604327559471130371e-01 -3.506535887718200684e-01
7.650000000000000000e+02 6.720258331298828125e+01 -1.220081233978271484e+01 -1.649109125137329102e+00 1.728719323873519897e-01 -4.428711533546447754e-01 8.171984553337097168e-02
7.660000000000000000e+02 4.454816055297851562e+01 -1.184178256988525391e+01 6.963771581649780273e-01 1.600688695907592773e+00 6.891197562217712402e-01 -4.544208943843841553e-02
7.670000000000000000e+02 4.017367935180664062e+01 -9.235204696655273438e+00 -4.560123682022094727e-01 3.610191047191619873e-01 -2.849798090755939484e-02 -9.115598201751708984e-01
7.680000000000000000e+02 3.646220397949218750e+01 -1.166914367675781250e+01 1.085075855255126953e+00 4.069652557373046875e-01 4.476123452186584473e-01 -1.205755352973937988e+00
7.690000000000000000e+02 7.506619262695312500e+01 2.489476394653320312e+01 -1.546731963753700256e-02 -9.728030562400817871e-01 -2.964811027050018311e-01 7.145001292228698730e-01
7.700000000000000000e+02 7.239014434814453125e+01 2.484426498413085938e+01 1.164455898106098175e-03 9.003587812185287476e-02 2.736010029911994934e-02 8.335962295532226562e-01
7.710000000000000000e+02 5.889775466918945312e+01 2.512704086303710938e+01 3.152893781661987305e-01 1.827385067939758301e+00 6.428022980690002441e-01 -1.124950885772705078e+00
7.720000000000000000e+02 5.526943206787109375e+01 2.514468765258789062e+01 5.650462508201599121e-01 4.328496158123016357e-01 2.993687689304351807e-01 -7.297012805938720703e-01
7.730000000000000000e+02 5.146420288085937500e+01 2.622854995727539062e+01 3.084829747676849365e-01 2.002843469381332397e-01 1.526301950216293335e-01 -3.648329377174377441e-01
7.740000000000000000e+02 4.629405593872070312e+01 2.647356605529785156e+01 1.148565188050270081e-01 1.212590262293815613e-01 7.083466649055480957e-02 -1.079519689083099365e-01
7.750000000000000000e+02 3.360013961791992188e+01 2.839864921569824219e+01 8.859080262482166290e-03 2.802021428942680359e-02 1.106378808617591858e-02 9.106358513236045837e-03
7.760000000000000000e+02 3.571447372436523438e+01 2.837240791320800781e+01 1.514982245862483978e-02 4.668772965669631958e-02 1.855126582086086273e-02 3.002006793394684792e-03
7.770000000000000000e+02 2.234927749633789062e+01 2.220000267028808594e+01 -1.390655785799026489e-01 -7.671623025089502335e-03 -4.402115941047668457e-02 2.071397751569747925e-02
7.780000000000000000e+02 1.913269424438476562e+01 2.184761047363281250e+01 -5.544802546501159668e-02 -2.508864505216479301e-03 -1.738706603646278381e-02 -6.680864375084638596e-03
7.790000000000000000e+02 1.560277175903320312e+01 2.188209152221679688e+01 -2.142049558460712433e-02 2.772074891254305840e-03 -5.594526417553424835e-03 1.093630446121096611e-03
7.800000000000000000e+02 7.080453395843505859e+00 2.552789115905761719e+01 -5.617688409984111786e-03 -3.112703561782836914e-03 -2.619117498397827148e-03 6.780538707971572876e-03
7.810000000000000000e+02 4.070106029510498047e+00 2.338765907287597656e+01 -1.974563812837004662e-03 -1.709723728708922863e-03 -1.105286297388374805e-03 2.149405190721154213e-03
7.820000000000000000e+02 5.819798707962036133e-01 2.342255401611328125e+01 2.323463995708152652e-04 1.453444012440741062e-03 5.057371454313397408e-04 3.138067258987575769e-04
7.830000000000000000e+02 7.368107604980468750e+01 2.789997673034667969e+01 -1.111909672617912292e-01 -3.208806514739990234e-01 -1.296214908361434937e-01 7.643340229988098145e-01
7.840000000000000000e+02 7.175378417968750000e+01 2.803341484069824219e+01 -1.766707450151443481e-01 2.638397812843322754e-01 2.615071088075637817e-02 7.737845778465270996e-01
7.850000000000000000e+02 5.888496017456054688e+01 3.155550575256347656e+01 -3.789253234863281250e-01 1.487210273742675781e+00 3.324854671955108643e-01 -4.776610732078552246e-01
7.860000000000000000e+02 5.689628219604492188e+01 3.030321693420410156e+01 -1.218613237142562866e-01 1.222255945205688477e+00 3.301183879375457764e-01 -6.441262960433959961e-01
7.870000000000000000e+02 3.880946350097656250e+01 3.005117607116699219e+01 4.745734483003616333e-02 9.696745127439498901e-02 4.332743957638740540e-02 -2.330577932298183441e-02
7.880000000000000000e+02 3.133534622192382812e+01 3.202238845825195312e+01 4.065036773681640625e-02 9.188112802803516388e-03 1.495154388248920441e-02 1.167565677314996719e-02
7.890000000000000000e+02 2.987871360778808594e+01 2.741367149353027344e+01 -1.144528295844793320e-02 -2.441511303186416626e-02 -1.075811870396137238e-02 2.304971404373645782e-02
7.900000000000000000e+02 2.563895416259765625e+01 2.768826866149902344e+01 -1.989490166306495667e-02 -3.788520395755767822e-02 -1.733403280377388000e-02 4.188971593976020813e-02
7.910000000000000000e+02 2.124174880981445312e+01 2.690302467346191406e+01 -3.297578915953636169e-02 -2.161318808794021606e-02 -1.637669280171394348e-02 4.119557514786720276e-02
7.920000000000000000e+02 1.920931243896484375e+01 2.681988143920898438e+01 -3.115641698241233826e-02 -1.400728244334459305e-02 -1.354910992085933685e-02 3.475674986839294434e-02
7.930000000000000000e+02 1.643712043762207031e+01 2.670642662048339844e+01 -2.445488609373569489e-02 -6.865096744149923325e-03 -9.395994246006011963e-03 2.586288005113601685e-02
7.940000000000000000e+02 1.094587421417236328e+01 2.614255142211914062e+01 -1.199837680906057358e-02 -2.721977885812520981e-03 -4.416106268763542175e-03 1.181179564446210861e-02
7.950000000000000000e+02 7.054789066314697266e+00 2.701235198974609375e+01 -4.883193876594305038e-03 -4.750445950776338577e-03 -2.890092087909579277e-03 8.022676222026348114e-03
7.960000000000000000e+02 4.142170429229736328e+00 2.754657363891601562e+01 -1.271532732062041759e-03 -5.242847371846437454e-03 -1.954314066097140312e-03 5.399555899202823639e-03
7.970000000000000000e+02 6.025854945182800293e-01 2.762821960449218750e+01 -4.176158108748495579e-04 -2.757563488557934761e-03 -9.525537607260048389e-04 8.879623492248356342e-04
7.980000000000000000e+02 7.597918701171875000e+01 3.333882522583007812e+01 -1.011880561709403992e-01 -6.320846676826477051e-01 -2.199818193912506104e-01 3.951809108257293701e-01
7.990000000000000000e+02 7.063372802734375000e+01 3.367301559448242188e+01 -3.813016712665557861e-01 4.635725617408752441e-01 2.468127198517322540e-02 4.725235104560852051e-01
8.000000000000000000e+02 6.828372955322265625e+01 3.320477294921875000e+01 -5.159902572631835938e-01 9.990888833999633789e-01 1.449295729398727417e-01 3.730311393737792969e-01
8.010000000000000000e+02 2.841931343078613281e+01 3.224832534790039062e+01 3.367790952324867249e-02 -1.193560659885406494e-02 6.522690877318382263e-03 2.126853354275226593e-02
8.020000000000000000e+02 2.326912689208984375e+01 3.030759239196777344e+01 8.456305600702762604e-03 -3.027267195284366608e-02 -6.544909905642271042e-03 3.954511135816574097e-02
8.030000000000000000e+02 1.829553604125976562e+01 3.302884292602539062e+01 1.246817037463188171e-02 -2.570591494441032410e-02 -3.971323836594820023e-03 2.926461771130561829e-02
8.040000000000000000e+02 1.443651866912841797e+01 3.154955101013183594e+01 9.717928478494286537e-04 -1.607965864241123199e-02 -4.532359540462493896e-03 2.362405881285667419e-02
8.050000000000000000e+02 1.099112129211425781e+01 3.279986572265625000e+01 2.841567620635032654e-03 -1.498458441346883774e-02 -3.642905037850141525e-03 1.732428558170795441e-02
8.060000000000000000e+02 9.237376213073730469e+00 3.283108520507812500e+01 6.658785860054194927e-04 -1.361484825611114502e-02 -3.884690813720226288e-03 1.394511852413415909e-02
8.070000000000000000e+02 5.107312679290771484e+00 3.087311172485351562e+01 -7.857013260945677757e-04 -9.864818304777145386e-03 -3.195155877619981766e-03 8.185058832168579102e-03
8.080000000000000000e+02 6.408593058586120605e-01 3.045203399658203125e+01 -4.315646656323224306e-04 -7.618341129273176193e-03 -2.414971822872757912e-03 1.238591386936604977e-03
8.090000000000000000e+02 5.035325241088867188e+01 3.673778152465820312e+01 -1.138995960354804993e-01 6.562808156013488770e-01 1.627143621444702148e-01 -2.058210968971252441e-01
8.100000000000000000e+02 1.119876003265380859e+01 3.507782363891601562e+01 5.871854722499847412e-03 -1.828047446906566620e-02 -3.722585970535874367e-03 1.496709324419498444e-02
8.110000000000000000e+02 6.872338771820068359e+00 3.435331344604492188e+01 2.755867084488272667e-03 -1.502677891403436661e-02 -3.681273665279150009e-03 1.000534929335117340e-02
8.120000000000000000e+02 6.308558940887451172e+00 3.170974922180175781e+01 -9.594539733370766044e-05 -1.130695082247257233e-02 -3.420868888497352600e-03 9.981345385313034058e-03
8.130000000000000000e+02 8.282698988914489746e-01 3.474524307250976562e+01 3.822378930635750294e-04 -1.595606096088886261e-02 -4.672146867960691452e-03 1.340808346867561340e-03
8.140000000000000000e+02 7.355271148681640625e+01 3.818864059448242188e+01 -2.293820232152938843e-01 -4.087163507938385010e-02 -8.107610046863555908e-02 2.157123237848281860e-01
8.150000000000000000e+02 7.086338043212890625e+01 3.857880783081054688e+01 -3.712372779846191406e-01 3.514958322048187256e-01 -5.922430660575628281e-03 2.211130857467651367e-01
8.160000000000000000e+02 6.565009355545043945e-01 3.753609466552734375e+01 1.001401571556925774e-03 -1.979975402355194092e-02 -5.639505572617053986e-03 6.122037302702665329e-04
8.170000000000000000e+02 4.340971946716308594e+00 1.375667095184326172e+01 3.338261158205568790e-04 -1.764731132425367832e-04 4.720590368378907442e-05 -4.822201735805720091e-04
8.180000000000000000e+02 7.425849914550781250e+00 1.387668228149414062e+01 4.381956532597541809e-04 -7.150868768803775311e-04 -8.306735981022939086e-05 -2.217723376816138625e-04
8.190000000000000000e+02 5.999966859817504883e-01 1.641757965087890625e+01 -2.612334210425615311e-04 1.457466278225183487e-03 3.588698455132544041e-04 -1.748875947669148445e-04
8.200000000000000000e+02 4.205220699310302734e+00 9.944137573242187500e+00 -6.565898365806788206e-05 -5.136101390235126019e-05 -3.510599708533845842e-05 -1.994399644900113344e-04
8.210000000000000000e+02 7.181160449981689453e+00 1.057762336730957031e+01 4.475214809644967318e-04 -2.863485715351998806e-04 4.835187064600177109e-05 -8.796377369435504079e-05
8.220000000000000000e+02 6.302384734153747559e-01 1.359090900421142578e+01 -2.073921641567721963e-04 8.195317932404577732e-04 1.836418814491480589e-04 -1.470640563638880849e-04
8.230000000000000000e+02 4.080662727355957031e+00 5.679371356964111328e+00 7.590375753352418542e-05 1.831618828873615712e-05 2.826598392857704312e-05 -4.786886347574181855e-05
8.240000000000000000e+02 8.633562088012695312e+00 5.688428401947021484e+00 2.517894026823341846e-04 -8.063083078013733029e-05 5.134756793268024921e-05 6.611440767301246524e-05
8.250000000000000000e+02 1.201092052459716797e+01 6.303769111633300781e+00 -8.054831596382427961e-06 -6.380465038091642782e-06 -4.330589035816956311e-06 1.346397766610607505e-04
8.260000000000000000e+02 6.376603841781616211e-01 9.324628829956054688e+00 1.447047106921672821e-04 2.261039771838113666e-04 1.112426034524105489e-04 -6.000617213430814445e-05
8.270000000000000000e+02 5.780814647674560547e+00 1.881470799446105957e+00 4.898893530480563641e-05 2.962945472972933203e-05 2.358551682846155018e-05 -2.228313860541675240e-05
8.280000000000000000e+02 8.102874755859375000e+00 2.532345533370971680e+00 7.995676423888653517e-05 3.805297865255852230e-06 2.512862010917160660e-05 -3.553067926986841485e-06
8.290000000000000000e+02 6.273690462112426758e-01 6.415822982788085938e+00 1.023467120830900967e-04 7.347563951043412089e-05 5.274670547805726528e-05 -1.793657793314196169e-05
8.300000000000000000e+02 1.950442886352539062e+01 3.413810253143310547e+00 -2.217834844486787915e-05 -1.456085919926408678e-05 -1.102176247513853014e-05 3.175998926963075064e-06
8.310000000000000000e+02 6.904848480224609375e+01 -1.467480564117431641e+01 -3.623762130737304688e-01 5.569706112146377563e-02 -9.200374782085418701e-02 9.398613125085830688e-02
8.320000000000000000e+02 3.459505844116210938e+01 1.990350484848022461e+00 -1.632124040042981505e-04 5.448468727990984917e-04 1.144903362728655338e-04 -6.214315653778612614e-04
8.330000000000000000e+02 3.633972549438476562e+01 3.099225044250488281e+00 1.587767037563025951e-04 6.281316746026277542e-04 2.360725193284451962e-04 -5.277485470287501812e-04
8.340000000000000000e+02 3.806176757812500000e+01 3.018476724624633789e+00 -3.769005415961146355e-04 2.499368520147982053e-06 -1.123203473980538547e-04 9.881424193736165762e-05
8.350000000000000000e+02 3.930689239501953125e+01 4.860633373260498047e+00 -1.120423898100852966e-03 3.177251492161303759e-04 -2.408096188446506858e-04 1.342361356364563107e-04
8.360000000000000000e+02 3.924710845947265625e+01 6.132283687591552734e+00 9.487158968113362789e-04 1.031102496199309826e-03 5.939455004408955574e-04 3.805413143709301949e-04
8.370000000000000000e+02 4.191030120849609375e+01 1.272534179687500000e+01 -2.506435662508010864e-02 -1.097022835165262222e-02 -1.081037521362304688e-02 -1.241625286638736725e-02
8.380000000000000000e+02 4.269343948364257812e+01 1.516775226593017578e+01 -7.473559677600860596e-02 -2.180345123633742332e-03 -2.307478152215480804e-02 -3.054823726415634155e-02
8.390000000000000000e+02 4.711754608154296875e+01 1.788466072082519531e+01 -1.717137396335601807e-01 -5.881084501743316650e-02 -6.915737688541412354e-02 -1.114486753940582275e-01
8.400000000000000000e+02 4.939575195312500000e+01 1.946768379211425781e+01 -2.573230862617492676e-01 -6.764104962348937988e-02 -9.748924523591995239e-02 -1.414834260940551758e-01
8.410000000000000000e+02 5.062196350097656250e+01 2.012329673767089844e+01 -2.806424796581268311e-01 -8.410114794969558716e-02 -1.094230934977531433e-01 -1.187446713447570801e-01
8.420000000000000000e+02 5.324763488769531250e+01 2.105388832092285156e+01 -1.173141971230506897e-01 -5.402283743023872375e-02 -5.140111222863197327e-02 -9.960962831974029541e-02
8.430000000000000000e+02 5.745672607421875000e+01 2.183911705017089844e+01 1.253495454788208008e+00 2.215072214603424072e-01 4.425008296966552734e-01 -4.837912023067474365e-01
8.440000000000000000e+02 6.236720657348632812e+01 1.212388324737548828e+01 2.033776640892028809e-01 7.498715877532958984e+00 2.310628175735473633e+00 6.766517758369445801e-01
8.450000000000000000e+02 6.183781814575195312e+01 9.408449172973632812e+00 6.399151086807250977e-01 7.544518470764160156e+00 2.455330133438110352e+00 1.517488121986389160e+00
8.460000000000000000e+02 5.545906829833984375e+01 -1.740794301033020020e+00 1.532814621925354004e+00 2.464568614959716797e+00 1.199215054512023926e+00 1.852184176445007324e+00
8.470000000000000000e+02 4.770211791992187500e+01 -5.080239295959472656e+00 -6.781632900238037109e+00 -6.175669431686401367e-01 -2.219759941101074219e+00 1.577926039695739746e+00
8.480000000000000000e+02 4.501733398437500000e+01 -4.291810989379882812e+00 -5.790946483612060547e+00 -5.005747079849243164e-01 -1.887456297874450684e+00 1.584081411361694336e+00
8.490000000000000000e+02 4.245497512817382812e+01 -3.520802974700927734e+00 -4.813997268676757812e+00 -1.209095954895019531e+00 -1.806928038597106934e+00 1.906162142753601074e+00
8.500000000000000000e+02 3.726475906372070312e+01 -1.027253150939941406e+00 -1.919503450393676758e+00 3.407067060470581055e-01 -4.736390113830566406e-01 5.162205100059509277e-01
8.510000000000000000e+02 3.670557022094726562e+01 -1.812788367271423340e+00 -2.246195077896118164e+00 5.038775205612182617e-01 -5.226953029632568359e-01 4.905390143394470215e-01
8.520000000000000000e+02 3.531196594238281250e+01 -1.344773650169372559e+00 -2.498485088348388672e+00 4.471739232540130615e-01 -6.153933405876159668e-01 1.060256063938140869e-01
8.530000000000000000e+02 3.463160705566406250e+01 -1.324454307556152344e+00 -2.916339874267578125e+00 3.968517184257507324e-01 -7.558464407920837402e-01 4.568682238459587097e-02
8.540000000000000000e+02 3.420740509033203125e+01 -1.625745654106140137e+00 -2.916445493698120117e+00 2.784497737884521484e-01 -7.913987040519714355e-01 1.843292266130447388e-01
8.550000000000000000e+02 3.132748985290527344e+01 -1.639100551605224609e+00 -2.813904523849487305e+00 3.005468249320983887e-01 -7.540073394775390625e-01 -3.135171830654144287e-01
8.560000000000000000e+02 2.943609619140625000e+01 -2.200603723526000977e+00 -2.166283369064331055e+00 1.472993940114974976e-01 -6.056951880455017090e-01 -5.095338225364685059e-01
8.570000000000000000e+02 2.829925537109375000e+01 -2.170502901077270508e+00 -1.958865642547607422e+00 -2.463803999125957489e-02 -5.950511097908020020e-01 -5.530182123184204102e-01
8.580000000000000000e+02 2.661886024475097656e+01 -2.174942016601562500e+00 -1.530218482017517090e+00 -1.795813292264938354e-01 -5.129399299621582031e-01 -6.373872160911560059e-01
8.590000000000000000e+02 2.276644134521484375e+01 -6.566163897514343262e-01 -4.520724713802337646e-01 6.080327928066253662e-02 -1.173807606101036072e-01 -1.559021472930908203e-01
8.600000000000000000e+02 2.042574501037597656e+01 -1.215120434761047363e+00 -1.891356557607650757e-01 -3.291698545217514038e-02 -6.661579757928848267e-02 -2.148614972829818726e-01
8.610000000000000000e+02 1.732892990112304688e+01 -1.632708191871643066e+00 7.583832740783691406e-02 -5.503949522972106934e-02 6.239650771021842957e-03 -1.590315252542495728e-01
8.620000000000000000e+02 1.655272865295410156e+01 -1.696972846984863281e+00 1.226289495825767517e-01 -4.992968589067459106e-02 2.180977910757064819e-02 -1.264273375272750854e-01
8.630000000000000000e+02 1.347469806671142578e+01 -1.825287818908691406e+00 2.391180992126464844e-01 -2.902413345873355865e-02 6.302818655967712402e-02 -7.968769408762454987e-03
8.640000000000000000e+02 1.501229381561279297e+01 -1.773464441299438477e+00 1.991120576858520508e-01 -3.920786082744598389e-02 4.797125980257987976e-02 -6.297167390584945679e-02
8.650000000000000000e+02 1.194870567321777344e+01 -1.847718954086303711e+00 2.488023340702056885e-01 -1.894304156303405762e-02 6.895778328180313110e-02 3.485903516411781311e-02
8.660000000000000000e+02 9.009198188781738281e+00 -2.611198663711547852e+00 1.262965053319931030e-01 -1.426523365080356598e-02 3.360937908291816711e-02 8.890437334775924683e-02
8.670000000000000000e+02 8.133788108825683594e+00 -1.872183561325073242e+00 1.863444894552230835e-01 -4.723046440631151199e-03 5.448643490672111511e-02 8.221270143985748291e-02
8.680000000000000000e+02 4.274276256561279297e+00 -1.865126371383666992e+00 7.958969473838806152e-02 8.621536195278167725e-03 2.646337077021598816e-02 7.742454856634140015e-02
8.690000000000000000e+02 2.766332626342773438e+00 -1.922872900962829590e+00 4.234665632247924805e-02 1.839162781834602356e-02 1.822148635983467102e-02 5.933478102087974548e-02
8.700000000000000000e+02 2.001858949661254883e+00 -2.010262250900268555e+00 2.625774592161178589e-02 2.645633555948734283e-02 1.581422425806522369e-02 4.845578968524932861e-02
8.710000000000000000e+02 5.077640533447265625e+00 -4.030235290527343750e+01 -1.596996001899242401e-02 -1.227091073989868164e+00 -3.729183077812194824e-01 -5.302727594971656799e-02
8.720000000000000000e+02 9.503780603408813477e-01 -3.870339965820312500e+01 -3.831947688013315201e-03 -1.784809470176696777e+00 -5.365924239158630371e-01 3.018941171467304230e-02
8.730000000000000000e+02 6.614573597908020020e-01 -3.324307250976562500e+01 9.184081107378005981e-03 -1.879354834556579590e+00 -5.610511898994445801e-01 -3.184989793226122856e-03
8.740000000000000000e+02 6.395841240882873535e-01 -3.185591697692871094e+01 -1.308235572651028633e-03 -1.861179232597351074e+00 -5.587462186813354492e-01 -1.246140804141759872e-02
8.750000000000000000e+02 6.280430555343627930e-01 -2.906464004516601562e+01 2.748427446931600571e-03 -1.764940738677978516e+00 -5.286576747894287109e-01 -3.048372827470302582e-02
8.760000000000000000e+02 6.726940870285034180e-01 -2.627392578125000000e+01 5.310842301696538925e-03 -1.570873975753784180e+00 -4.696689546108245850e-01 -5.644383281469345093e-02
8.770000000000000000e+02 2.098542213439941406e+00 -2.203531837463378906e+01 2.140143513679504395e-02 -9.634295105934143066e-01 -2.826084196567535400e-01 -2.629567384719848633e-01
8.780000000000000000e+02 1.966555953025817871e+00 -1.915820503234863281e+01 7.172218174673616886e-04 -6.443953514099121094e-01 -1.931034326553344727e-01 -2.765900790691375732e-01
8.790000000000000000e+02 6.193051338195800781e-01 -1.636530303955078125e+01 -5.099355708807706833e-03 -2.785983681678771973e-01 -8.510931581258773804e-02 -8.393768221139907837e-02
8.800000000000000000e+02 1.849087715148925781e+00 -1.503650379180908203e+01 -2.666927129030227661e-02 -1.820004880428314209e-01 -6.260092556476593018e-02 -2.041521668434143066e-01
8.810000000000000000e+02 1.926861047744750977e+00 -1.230778789520263672e+01 -3.974598646163940430e-02 2.100405283272266388e-02 -5.622579716145992279e-03 -1.217396333813667297e-01
8.820000000000000000e+02 6.699197292327880859e-01 -9.326363563537597656e+00 -8.577760308980941772e-03 2.382723838090896606e-01 6.890838593244552612e-02 -4.685527179390192032e-03
8.830000000000000000e+02 1.736604332923889160e+00 -5.258170604705810547e+00 -5.848063621670007706e-03 1.056923270225524902e-01 2.995327860116958618e-02 6.134814396500587463e-02
8.840000000000000000e+02 7.966649627685546875e+01 -1.862724685668945312e+01 -6.922425818629562855e-04 6.759350799256935716e-05 -1.873947185231372714e-04 -4.372069270175416023e-06
8.850000000000000000e+02 7.944511413574218750e+01 -2.274049568176269531e+01 1.106327981688082218e-03 1.063473289832472801e-03 6.509404047392308712e-04 -6.996995944064110518e-05
8.860000000000000000e+02 7.832640838623046875e+01 -2.271653175354003906e+01 -1.686236006207764149e-03 2.812134043779224157e-04 -4.215067601762712002e-04 6.304327689576894045e-05
8.870000000000000000e+02 7.936056518554687500e+01 -2.682127952575683594e+01 -1.944187562912702560e-03 -7.755847182124853134e-04 -8.159316494129598141e-04 7.869888795539736748e-04
8.880000000000000000e+02 7.805187988281250000e+01 -2.677779006958007812e+01 1.240587327629327774e-03 -1.708446419797837734e-03 -1.403577480232343078e-04 1.689965487457811832e-03
8.890000000000000000e+02 7.936501312255859375e+01 -3.088889312744140625e+01 2.546970965340733528e-03 -8.305052295327186584e-03 -1.727424445562064648e-03 1.569550717249512672e-03
8.900000000000000000e+02 7.810046386718750000e+01 -3.215668869018554688e+01 2.133798319846391678e-03 -1.177761889994144440e-02 -2.893146127462387085e-03 5.792218260467052460e-03
8.910000000000000000e+02 7.922077178955078125e+01 -3.497281646728515625e+01 -1.973646460101008415e-03 -2.212434634566307068e-02 -7.229397539049386978e-03 2.425377955660223961e-03
8.920000000000000000e+02 7.738594818115234375e+01 -3.625439453125000000e+01 2.086801978293806314e-04 -2.179759182035923004e-02 -6.476673297584056854e-03 6.536560133099555969e-03
8.930000000000000000e+02 7.914421081542968750e+01 -3.903056335449218750e+01 1.668428536504507065e-03 -3.069029003381729126e-02 -8.706558495759963989e-03 6.584609509445726871e-04
8.940000000000000000e+02 7.679226684570312500e+01 -2.007538414001464844e+01 -4.562082467600703239e-04 -6.449872162193059921e-04 -3.303586272522807121e-04 2.598358551040291786e-04
8.950000000000000000e+02 7.709359741210937500e+01 -1.833229827880859375e+01 -2.452920598443597555e-04 -3.307065926492214203e-04 -1.727995986584573984e-04 -6.314934580586850643e-05
8.960000000000000000e+02 7.645680999755859375e+01 -1.827790260314941406e+01 5.263334605842828751e-04 4.354823031462728977e-04 2.885447174776345491e-04 -3.638068446889519691e-04
8.970000000000000000e+02 7.363683319091796875e+01 -1.816489219665527344e+01 1.295282389037311077e-03 -1.925722026498988271e-04 3.308130544610321522e-04 4.193291824776679277e-04
8.980000000000000000e+02 7.506881713867187500e+01 -1.819929504394531250e+01 7.976303459145128727e-04 2.148167259292677045e-04 3.037341230083256960e-04 2.135004469892010093e-04
8.990000000000000000e+02 7.223092651367187500e+01 -1.819018936157226562e+01 1.274887355975806713e-03 -3.714735503308475018e-04 2.710241533350199461e-04 1.284075260628014803e-04
9.000000000000000000e+02 6.859732818603515625e+01 -2.063858222961425781e+01 2.009404124692082405e-03 1.532075693830847740e-03 1.062443945556879044e-03 8.672020339872688055e-05
9.010000000000000000e+02 6.774151611328125000e+01 -2.432974052429199219e+01 -9.433727711439132690e-03 3.718039952218532562e-04 -2.718577161431312561e-03 -3.136099083349108696e-03
9.020000000000000000e+02 6.238275527954101562e+01 -2.850518608093261719e+01 -6.911561638116836548e-02 -1.974901184439659119e-02 -2.665938809514045715e-02 -1.778938062489032745e-02
9.030000000000000000e+02 5.515399169921875000e+01 -3.078045654296875000e+01 -3.233830928802490234e-01 2.455690130591392517e-02 -8.964785188436508179e-02 1.822331920266151428e-02
9.040000000000000000e+02 5.375562286376953125e+01 -3.063016319274902344e+01 -3.323456645011901855e-01 -1.360954809933900833e-02 -1.037865653634071350e-01 8.686690707691013813e-04
9.050000000000000000e+02 5.201991271972656250e+01 -3.192234992980957031e+01 -5.249566584825515747e-02 9.902366250753402710e-02 1.395839918404817581e-02 -1.375780850648880005e-01
9.060000000000000000e+02 4.582778549194335938e+01 -2.801777267456054688e+01 2.901026904582977295e-01 2.456175327301025391e+00 8.238834142684936523e-01 -4.640547335147857666e-01
9.070000000000000000e+02 4.392688369750976562e+01 -1.861076164245605469e+01 2.345510959625244141e+00 4.483727455139160156e+00 2.048771619796752930e+00 1.287525296211242676e+00
9.080000000000000000e+02 5.570284652709960938e+01 -1.460421180725097656e+01 9.013931155204772949e-01 4.873422160744667053e-02 2.850382030010223389e-01 3.917976319789886475e-01
9.090000000000000000e+02 5.702486801147460938e+01 -1.442968750000000000e+01 2.225574702024459839e-01 1.188444420695304871e-01 1.024205759167671204e-01 2.561870813369750977e-01
9.100000000000000000e+02 5.965176391601562500e+01 -1.388314628601074219e+01 -5.606238245964050293e-01 1.254730075597763062e-01 -1.305452436208724976e-01 -3.752188012003898621e-02
9.110000000000000000e+02 6.212792968750000000e+01 -1.274433040618896484e+01 -1.547319769859313965e+00 -4.263100400567054749e-02 -4.769852161407470703e-01 -5.055719614028930664e-01
9.120000000000000000e+02 6.832504272460937500e+01 -1.471301460266113281e+01 -3.411155641078948975e-01 -3.383946791291236877e-02 -1.124865114688873291e-01 1.714733242988586426e-01
9.130000000000000000e+02 6.974913024902343750e+01 -1.461971092224121094e+01 -4.032805263996124268e-01 5.627617985010147095e-02 -1.041013002395629883e-01 6.327287852764129639e-02
9.140000000000000000e+02 7.279585266113281250e+01 -1.377813148498535156e+01 -3.265441656112670898e-01 5.044699832797050476e-02 -8.282914757728576660e-02 -1.060793474316596985e-01
9.150000000000000000e+02 7.359769439697265625e+01 -1.443023967742919922e+01 -2.334909290075302124e-01 1.002477388828992844e-02 -6.703984737396240234e-02 -8.685048669576644897e-02
9.160000000000000000e+02 7.442162322998046875e+01 -1.369666194915771484e+01 -2.193509191274642944e-01 -2.277336316183209419e-03 -6.648847460746765137e-02 -1.317700147628784180e-01
9.170000000000000000e+02 7.587804412841796875e+01 -1.456702709197998047e+01 -1.127054467797279358e-01 -9.370296262204647064e-03 -3.662272170186042786e-02 -7.473303377628326416e-02
9.180000000000000000e+02 7.653988647460937500e+01 -1.458856010437011719e+01 -8.797540515661239624e-02 -2.727461606264114380e-02 -3.457500413060188293e-02 -6.554825603961944580e-02
9.190000000000000000e+02 7.835601806640625000e+01 -1.446921825408935547e+01 -1.857529766857624054e-02 -2.635556645691394806e-02 -1.347925886511802673e-02 -2.019147574901580811e-02
9.200000000000000000e+02 7.939357757568359375e+01 -1.145679950714111328e+01 -1.119359117001295090e-02 -1.197746321558952332e-01 -3.929046541452407837e-02 -4.563076421618461609e-02
9.210000000000000000e+02 7.897778320312500000e+01 -1.436593246459960938e+01 -1.309401728212833405e-02 -1.670266874134540558e-02 -8.939005434513092041e-03 -1.120722293853759766e-02
9.220000000000000000e+02 7.964900970458984375e+01 -1.429740333557128906e+01 -4.864815156906843185e-03 5.112101789563894272e-03 7.418602035613730550e-05 -7.853938732296228409e-04
9.230000000000000000e+02 7.499460601806640625e+01 4.039854431152343750e+01 -1.519658863544464111e-01 -2.828065752983093262e-01 -1.304317414760589600e-01 7.245957851409912109e-02
9.240000000000000000e+02 7.869675445556640625e+01 4.010953140258789062e+01 1.227263547480106354e-02 -5.893948674201965332e-01 -1.731366664171218872e-01 7.337051630020141602e-02
9.250000000000000000e+02 7.657703399658203125e+01 3.914709472656250000e+01 -5.326328054070472717e-02 -5.535115003585815430e-01 -1.820324361324310303e-01 1.429001241922378540e-01
9.260000000000000000e+02 7.925749206542968750e+01 3.470497131347656250e+01 -6.660619284957647324e-03 -1.063065052032470703e+00 -3.209176957607269287e-01 8.429956436157226562e-02
9.270000000000000000e+02 7.927841186523437500e+01 2.772788047790527344e+01 4.443723883014172316e-04 -2.118218660354614258e+00 -6.353322863578796387e-01 1.434464007616043091e-01
9.280000000000000000e+02 7.803614044189453125e+01 2.074936103820800781e+01 3.513694554567337036e-02 -2.788228273391723633e+00 -8.259273767471313477e-01 3.084165155887603760e-01
9.290000000000000000e+02 7.812693786621093750e+01 1.659284400939941406e+01 4.388382285833358765e-02 -3.244531631469726562e+00 -9.601943492889404297e-01 1.485538184642791748e-01
9.300000000000000000e+02 7.800164031982421875e+01 1.236653232574462891e+01 5.438445881009101868e-02 -3.250476121902465820e+00 -9.588274955749511719e-01 -5.052458867430686951e-02
9.310000000000000000e+02 7.794501495361328125e+01 9.506609916687011719e+00 4.093692079186439514e-02 -3.066742181777954102e+00 -9.077416062355041504e-01 -1.809439808130264282e-01
9.320000000000000000e+02 7.801707458496093750e+01 6.646678924560546875e+00 3.383777290582656860e-02 -2.812657833099365234e+00 -8.336459994316101074e-01 -2.923788726329803467e-01
9.330000000000000000e+02 7.936268615722656250e+01 3.909179210662841797e+00 7.842810824513435364e-03 -3.055757284164428711e+00 -9.143743515014648438e-01 -1.126478388905525208e-01
9.340000000000000000e+02 7.810797882080078125e+01 2.456328153610229492e+00 2.446712180972099304e-02 -2.240091323852539062e+00 -6.646872758865356445e-01 -3.662146925926208496e-01
9.350000000000000000e+02 7.812335968017578125e+01 -3.013474345207214355e-01 1.353016030043363571e-02 -1.761030316352844238e+00 -5.242500305175781250e-01 -3.925234377384185791e-01
9.360000000000000000e+02 7.937303924560546875e+01 -3.074923038482666016e+00 -4.147213883697986603e-03 -1.497350215911865234e+00 -4.504492580890655518e-01 -1.327389180660247803e-01
9.370000000000000000e+02 7.811768341064453125e+01 -4.468031883239746094e+00 -2.214843593537807465e-02 -1.021087169647216797e+00 -3.129706978797912598e-01 -3.671129941940307617e-01
9.380000000000000000e+02 7.939795684814453125e+01 -7.250262737274169922e+00 -2.793638035655021667e-03 -6.530817747116088867e-01 -1.967626214027404785e-01 -9.958712756633758545e-02
9.390000000000000000e+02 7.816225433349609375e+01 -1.121947097778320312e+01 -3.407667949795722961e-02 -1.723067462444305420e-01 -6.191502511501312256e-02 -1.383723318576812744e-01
9.400000000000000000e+02 3.884482383728027344e-01 2.184447526931762695e+00 -8.619688742328435183e-05 -2.630473500175867230e-05 -3.375048618181608617e-05 -2.736590431595686823e-06
9.410000000000000000e+02 5.191350579261779785e-01 4.965137481689453125e+00 -9.713888721307739615e-05 5.023326230002567172e-05 -1.407168838341021910e-05 -2.803659526762203313e-07
9.420000000000000000e+02 1.891448020935058594e+00 6.301825523376464844e+00 -7.435955922119319439e-05 7.113015453796833754e-05 -9.688220643511158414e-07 -2.134258465957827866e-05
9.430000000000000000e+02 1.875718712806701660e+00 9.446735382080078125e+00 -1.794904965208843350e-04 1.950653822859749198e-04 4.672465365729294717e-06 -1.280294382013380527e-04
9.440000000000000000e+02 6.261742711067199707e-01 1.217360305786132812e+01 2.102445432683452964e-04 5.696573061868548393e-04 2.339705533813685179e-04 -8.354277815669775009e-05
9.450000000000000000e+02 1.856117486953735352e+00 1.230546092987060547e+01 -1.864868536358699203e-04 3.898267459589987993e-04 6.100196696934290230e-05 -2.724616788327693939e-04
9.460000000000000000e+02 1.783410310745239258e+00 1.658036994934082031e+01 2.745188248809427023e-04 8.527855970896780491e-04 3.381913411431014538e-04 -3.264133119955658913e-04
9.470000000000000000e+02 1.689762115478515625e+00 1.934077644348144531e+01 1.833485875977203250e-04 1.083342125639319420e-03 3.800072008743882179e-04 -9.357835369883105159e-05
9.480000000000000000e+02 5.730475187301635742e-01 2.202444267272949219e+01 -3.648363344836980104e-04 1.970610814169049263e-03 4.817323642782866955e-04 1.144195484812371433e-04
9.490000000000000000e+02 5.912063121795654297e-01 2.482240676879882812e+01 -3.948723024222999811e-04 4.874170408584177494e-04 2.776341534627135843e-05 4.875407903455197811e-04
9.500000000000000000e+02 5.967755317687988281e-01 2.622401809692382812e+01 2.423197292955592275e-04 -8.992090006358921528e-04 -1.970667944988235831e-04 6.778615061193704605e-04
9.510000000000000000e+02 6.153943538665771484e-01 2.903887748718261719e+01 2.709605032578110695e-04 -5.020480137318372726e-03 -1.424855901859700680e-03 1.047529513016343117e-03
9.520000000000000000e+02 1.829785585403442383e+00 2.897102546691894531e+01 -6.837400724180042744e-04 -5.937101785093545914e-03 -1.986252609640359879e-03 3.020426724106073380e-03
9.530000000000000000e+02 7.525594234466552734e-01 3.329744720458984375e+01 -2.168247738154605031e-04 -1.346928905695676804e-02 -4.105834290385246277e-03 1.464776112698018551e-03
9.540000000000000000e+02 8.033425807952880859e-01 3.618637466430664062e+01 -2.631344832479953766e-04 -1.804552972316741943e-02 -5.492599215358495712e-03 1.191799994558095932e-03
9.550000000000000000e+02 1.196861386299133301e+00 4.001114654541015625e+01 4.121093370486050844e-04 -2.220326848328113556e-02 -6.537348031997680664e-03 5.114810774102807045e-04
9.560000000000000000e+02 9.606842994689941406e+00 1.837684392929077148e+00 1.874719418992754072e-05 -2.418892290734220296e-05 -1.632518319638620596e-06 1.602960037416778505e-05
9.570000000000000000e+02 8.844817161560058594e+00 1.839948534965515137e+00 6.427180051105096936e-05 1.356204120384063572e-05 2.335015233256854117e-05 -1.704771989352593664e-06
9.580000000000000000e+02 5.011612415313720703e+00 1.903315901756286621e+00 1.828605127229820937e-05 -3.857744377455674112e-05 -6.087417204980738461e-06 -2.779080887194140814e-06
9.590000000000000000e+02 1.932085156440734863e+00 2.066040515899658203e+00 1.569630330777727067e-05 -4.810304017155431211e-05 -9.722020877234172076e-06 9.011529073177371174e-06
9.600000000000000000e+02 1.162573575973510742e+00 2.130832433700561523e+00 5.466092261485755444e-06 6.616277096327394247e-05 2.148865860363002867e-05 -9.510185918770730495e-06
9.610000000000000000e+02 1.107648658752441406e+01 2.509188175201416016e+00 6.027392737451009452e-05 1.469791368435835466e-05 2.249155295430682600e-05 2.631246388773433864e-06
9.620000000000000000e+02 1.257767677307128906e+01 1.842377424240112305e+00 8.083844477368984371e-06 -2.502955794625449926e-05 -5.083713858766714111e-06 2.642942308739293367e-05
9.630000000000000000e+02 1.551195240020751953e+01 1.925591111183166504e+00 -5.504087766894372180e-06 -2.475165820214897394e-05 -9.076724381884559989e-06 1.375165538775036111e-05
9.640000000000000000e+02 1.695814514160156250e+01 2.020712137222290039e+00 -8.359033927263226360e-06 -2.735008638410363346e-05 -1.071273618435952812e-05 7.503117558371741325e-06
9.650000000000000000e+02 1.838459587097167969e+01 2.137659311294555664e+00 -8.348503797606099397e-06 -3.030812877113930881e-05 -1.159698967967415228e-05 4.522425570030463859e-06
9.660000000000000000e+02 2.043414306640625000e+01 2.468780279159545898e+00 9.690022125141695142e-06 3.329341416247189045e-05 1.289503052248619497e-05 -8.093910764728207141e-06
9.670000000000000000e+02 2.111280059814453125e+01 2.639926195144653320e+00 -1.036509729601675645e-05 -2.964725717902183533e-05 -1.200370661535998806e-05 1.397239884681766853e-06
9.680000000000000000e+02 2.307167053222656250e+01 3.731725692749023438e+00 -1.427014558430528268e-05 -9.712663995742332190e-06 -7.194842964963754639e-06 -1.068558412953279912e-05
9.690000000000000000e+02 2.338777160644531250e+01 3.464658260345458984e+00 2.633812800922896713e-05 6.932313681318191811e-06 9.981132279790472239e-06 9.907639650919009000e-06
9.700000000000000000e+02 2.230838394165039062e+01 3.868335485458374023e+00 -1.804743078537285328e-05 2.675141558938776143e-06 -4.611687018041266128e-06 -9.579036941431695595e-07
9.710000000000000000e+02 2.237808990478515625e+01 4.654414176940917969e+00 3.735422433237545192e-05 4.456656461115926504e-05 2.457623668306041509e-05 3.518321682349778712e-05
9.720000000000000000e+02 2.180276679992675781e+01 2.804515838623046875e+00 2.424920921839657240e-06 1.134530248236842453e-05 4.131066816626116633e-06 1.733896965561143588e-06
9.730000000000000000e+02 2.212891006469726562e+01 4.872542381286621094e+00 -3.634169843280687928e-05 -5.479196624946780503e-05 -2.734010013227816671e-05 -3.633557571447454393e-05
9.740000000000000000e+02 2.146998023986816406e+01 5.277417182922363281e+00 -1.528995016997214407e-05 -1.917351983138360083e-05 -1.033904027281096205e-05 -1.267494371859356761e-05
9.750000000000000000e+02 2.081585884094238281e+01 5.806034088134765625e+00 -1.092569345928495750e-05 -3.083502815570682287e-05 -1.252821675734594464e-05 -1.175126817543059587e-05
9.760000000000000000e+02 2.022786140441894531e+01 6.366455554962158203e+00 -2.919186408689711243e-05 -4.173510023974813521e-05 -2.127808875229675323e-05 -2.649358430062420666e-05
9.770000000000000000e+02 1.992722511291503906e+01 6.631924629211425781e+00 2.599369145173113793e-05 3.497791840345598757e-05 1.829148277465719730e-05 3.810337148024700582e-05
9.780000000000000000e+02 1.876138687133789062e+01 7.712772369384765625e+00 3.252809256082400680e-05 5.884281199541874230e-05 2.741127173067070544e-05 5.244875501375645399e-05
9.790000000000000000e+02 1.789891052246093750e+01 8.558892250061035156e+00 -4.201551928417757154e-05 -5.868847074452787638e-05 -3.021119664481375366e-05 -3.547628875821828842e-05
9.800000000000000000e+02 1.758077049255371094e+01 8.815639495849609375e+00 4.208679092698730528e-05 5.689397585229016840e-05 2.969423076137900352e-05 5.997642438160255551e-05
9.810000000000000000e+02 1.704413223266601562e+01 9.460730552673339844e+00 8.852010796545073390e-05 6.862050940981134772e-05 4.714218448498286307e-05 5.456386497826315463e-05
9.820000000000000000e+02 1.660375022888183594e+01 1.013528823852539062e+01 1.348774530924856663e-04 9.731863974593579769e-05 6.965883221710100770e-05 4.902373621007427573e-05
9.830000000000000000e+02 1.682165718078613281e+01 9.798834800720214844e+00 -1.034898887155577540e-04 -6.463680165325058624e-06 -3.298607043689116836e-05 -8.609352516941726208e-05
9.840000000000000000e+02 1.593548011779785156e+01 1.113266563415527344e+01 -1.135295460699126124e-04 1.439848128939047456e-04 9.136578228208236396e-06 -1.481548824813216925e-04
9.850000000000000000e+02 1.572910022735595703e+01 1.148003005981445312e+01 1.988780859392136335e-04 3.125014773104339838e-04 1.534138573333621025e-04 -2.072557072096969932e-05
9.860000000000000000e+02 1.512541675567626953e+01 1.298613071441650391e+01 3.037349088117480278e-04 7.335935370065271854e-04 3.111985279247164726e-04 -1.452536071155918762e-05
9.870000000000000000e+02 1.502424716949462891e+01 1.337944507598876953e+01 -3.077884612139314413e-04 8.349574636667966843e-04 1.581507094670087099e-04 -2.251280238851904869e-04
9.880000000000000000e+02 1.478323459625244141e+01 1.457499599456787109e+01 4.934211028739809990e-04 1.698201987892389297e-03 6.574869621545076370e-04 -1.320145383942872286e-05
9.890000000000000000e+02 1.473344135284423828e+01 1.497854137420654297e+01 -3.875317052006721497e-04 2.019015140831470490e-03 4.894450539723038673e-04 -5.437524578155716881e-06
9.900000000000000000e+02 1.427979469299316406e+01 1.492154598236083984e+01 5.406167474575340748e-04 1.484194304794073105e-03 6.074433331377804279e-04 3.355628286954015493e-04
9.910000000000000000e+02 1.469655132293701172e+01 1.578674411773681641e+01 -4.176300135441124439e-04 2.390269655734300613e-03 5.917919334024190903e-04 1.658790424698963761e-04
9.920000000000000000e+02 1.470600891113281250e+01 1.658993339538574219e+01 -4.834494611714035273e-04 2.931137802079319954e-03 7.343064644373953342e-04 2.060184342553839087e-04
9.930000000000000000e+02 1.473846817016601562e+01 1.818545341491699219e+01 -6.374343065544962883e-04 4.604380112141370773e-03 1.190083683468401432e-03 2.575483522377908230e-04
9.940000000000000000e+02 1.672618103027343750e+01 2.122866439819335938e+01 -2.344253286719322205e-02 -2.338792197406291962e-03 -7.734397426247596741e-03 -6.143829785287380219e-03
9.950000000000000000e+02 1.833967399597167969e+01 2.169879531860351562e+01 -4.194070771336555481e-02 -1.458659884519875050e-03 -1.301981043070554733e-02 -7.123460527509450912e-03
9.960000000000000000e+02 2.392588043212890625e+01 2.191138648986816406e+01 -1.457044035196304321e-01 -6.455576047301292419e-03 -4.564799368381500244e-02 3.013724461197853088e-02
9.970000000000000000e+02 2.514885902404785156e+01 2.172900962829589844e+01 -1.647424846887588501e-01 -1.459464803338050842e-02 -5.380114167928695679e-02 4.307315126061439514e-02
9.980000000000000000e+02 2.670061874389648438e+01 2.130657196044921875e+01 -1.852598041296005249e-01 -2.469396591186523438e-02 -6.298613548278808594e-02 6.220475211739540100e-02
9.990000000000000000e+02 2.710729598999023438e+01 2.119966888427734375e+01 -1.949423253536224365e-01 -2.491052635014057159e-02 -6.595585495233535767e-02 6.873875856399536133e-02
1.000000000000000000e+03 2.748899459838867188e+01 2.103406524658203125e+01 -2.163363248109817505e-01 -3.324548155069351196e-02 -7.487454265356063843e-02 7.858747243881225586e-02
1.001000000000000000e+03 2.786548805236816406e+01 2.087545394897460938e+01 -2.405297160148620605e-01 -4.998465627431869507e-02 -8.715431392192840576e-02 9.730581194162368774e-02
1.002000000000000000e+03 2.823304176330566406e+01 2.069837188720703125e+01 -2.500845789909362793e-01 -7.697465270757675171e-02 -9.811776876449584961e-02 1.221425309777259827e-01
1.003000000000000000e+03 2.890886497497558594e+01 2.024166107177734375e+01 -2.021392881870269775e-01 -1.414307504892349243e-01 -1.030710116028785706e-01 1.525155156850814819e-01
1.004000000000000000e+03 2.947294998168945312e+01 1.966747283935546875e+01 -1.119173988699913025e-01 -1.548036783933639526e-01 -8.001632243394851685e-02 1.228977069258689880e-01
1.005000000000000000e+03 3.044819259643554688e+01 1.827791404724121094e+01 -5.040602385997772217e-02 -1.044746339321136475e-01 -4.646419733762741089e-02 6.519821286201477051e-02
1.006000000000000000e+03 3.089086914062500000e+01 1.712252044677734375e+01 -1.968905702233314514e-02 -7.756428420543670654e-02 -2.917600236833095551e-02 3.860482946038246155e-02
1.007000000000000000e+03 3.184745979309082031e+01 1.626104354858398438e+01 -2.152047306299209595e-02 -3.871174156665802002e-02 -1.806966401636600494e-02 3.351414576172828674e-02
1.008000000000000000e+03 3.103091239929199219e+01 1.674663543701171875e+01 -1.590392179787158966e-02 -6.565473228693008423e-02 -2.446759678423404694e-02 3.038665838539600372e-02
1.009000000000000000e+03 3.147537994384765625e+01 1.563147449493408203e+01 -7.118906825780868530e-03 -3.644644469022750854e-02 -1.306960545480251312e-02 1.881468109786510468e-02
1.010000000000000000e+03 3.172250366210937500e+01 1.483500385284423828e+01 -6.232090294361114502e-03 -2.520260401070117950e-02 -9.430408477783203125e-03 1.318560913205146790e-02
1.011000000000000000e+03 3.228705596923828125e+01 1.332127571105957031e+01 -1.841829507611691952e-03 -6.754801142960786819e-03 -2.578989136964082718e-03 5.669066682457923889e-03
1.012000000000000000e+03 3.241534042358398438e+01 1.291840839385986328e+01 -3.614315763115882874e-03 -4.052744247019290924e-03 -2.300118096172809601e-03 3.704015864059329033e-03
1.013000000000000000e+03 3.245545196533203125e+01 1.249674129486083984e+01 -7.751667289994657040e-04 -1.224448787979781628e-03 -5.998846609145402908e-04 2.567941090092062950e-03
1.014000000000000000e+03 3.296711349487304688e+01 1.212719249725341797e+01 -1.242104568518698215e-03 -1.151205622591078281e-03 -7.179930689744651318e-04 3.371895756572484970e-03
1.015000000000000000e+03 3.284650039672851562e+01 1.054939174652099609e+01 -8.863128023222088814e-04 4.577543120831251144e-03 1.107369200326502323e-03 -1.167055102996528149e-03
1.016000000000000000e+03 3.314793014526367188e+01 8.943159103393554688e+00 -1.147450646385550499e-03 3.987305331975221634e-03 8.519564289599657059e-04 -1.118573010899126530e-03
1.017000000000000000e+03 3.343681335449218750e+01 5.354152202606201172e+00 1.423102337867021561e-03 4.847494710702449083e-04 5.723555805161595345e-04 2.551640791352838278e-04
1.018000000000000000e+03 3.355591583251953125e+01 4.150366783142089844e+00 -1.681091613136231899e-03 4.051540599903091788e-05 -4.921728977933526039e-04 -2.593521203380078077e-04
1.019000000000000000e+03 3.351428985595703125e+01 3.721213817596435547e+00 1.924899872392416000e-03 -1.365038042422384024e-04 5.365188117139041424e-04 7.984148396644741297e-05
1.020000000000000000e+03 3.498482131958007812e+01 -1.373756313323974609e+01 3.921502530574798584e-01 8.708720207214355469e-01 3.789066672325134277e-01 -7.330701947212219238e-01
1.021000000000000000e+03 3.538473892211914062e+01 -1.642644500732421875e+01 4.702623561024665833e-02 -9.572824835777282715e-01 -2.730768620967864990e-01 -1.492440551519393921e-01
1.022000000000000000e+03 3.548301315307617188e+01 -1.779987335205078125e+01 7.422239333391189575e-02 -1.435229778289794922e+00 -4.083022177219390869e-01 -2.790607279166579247e-03
1.023000000000000000e+03 3.550335311889648438e+01 -2.196270179748535156e+01 1.021060869097709656e-01 -6.169812083244323730e-01 -1.544625461101531982e-01 2.355500608682632446e-01
1.024000000000000000e+03 3.555893707275390625e+01 -2.474934005737304688e+01 6.041693687438964844e-01 4.972971677780151367e-01 3.304399549961090088e-01 6.989042162895202637e-01
1.025000000000000000e+03 2.896444129943847656e+01 -2.969315338134765625e+01 1.047539234161376953e+00 2.752782106399536133e-01 3.968452513217926025e-01 3.273793756961822510e-01
1.026000000000000000e+03 2.750349044799804688e+01 -3.011691474914550781e+01 1.109261631965637207e+00 2.152271121740341187e-01 3.973466157913208008e-01 1.302740126848220825e-01
1.027000000000000000e+03 1.621521377563476562e+01 -2.354184722900390625e+01 7.482755184173583984e-01 9.437711238861083984e-01 5.076139569282531738e-01 -8.127860426902770996e-01
1.028000000000000000e+03 1.940578651428222656e+01 -1.141478252410888672e+01 -1.853733301162719727e+00 -3.101503849029541016e-01 -6.491650938987731934e-01 -5.962223410606384277e-01
1.029000000000000000e+03 2.211854934692382812e+01 -1.097207260131835938e+01 -1.107485055923461914e+00 -1.301645189523696899e-01 -3.712948560714721680e-01 -4.001213908195495605e-01
1.030000000000000000e+03 2.460568237304687500e+01 -1.007398891448974609e+01 -7.452227473258972168e-01 -2.050965875387191772e-01 -2.850958108901977539e-01 -4.325845837593078613e-01
1.031000000000000000e+03 3.955902862548828125e+01 3.547758102416992188e+00 1.517218071967363358e-03 3.589315165299922228e-04 5.628448561765253544e-04 -1.856998278526589274e-04
1.032000000000000000e+03 3.549905395507812500e+01 3.217115879058837891e+00 3.594072768464684486e-04 9.130721446126699448e-04 3.817438264377415180e-04 -9.103908669203519821e-04
1.033000000000000000e+03 3.347958755493164062e+01 3.284680366516113281e+00 -1.762388157658278942e-03 2.178472204832360148e-04 -4.633622884284704924e-04 3.434888494666665792e-04
1.034000000000000000e+03 3.325596237182617188e+01 1.793682336807250977e+00 1.858826290117576718e-04 -9.257079364033415914e-05 2.799354842863976955e-05 2.252842386951670051e-04
1.035000000000000000e+03 3.338968276977539062e+01 2.305325269699096680e+00 1.738319951982703060e-05 3.106967487838119268e-04 9.842398867476731539e-05 -3.063376061618328094e-04
1.036000000000000000e+03 3.306487655639648438e+01 2.227473974227905273e+00 2.004092326387763023e-03 -1.786995999282225966e-04 5.476178484968841076e-04 -1.445586531190201640e-04
1.037000000000000000e+03 3.360221099853515625e+01 1.891377329826354980e+00 -2.103172737406566739e-04 5.417799693532288074e-04 9.943879558704793453e-05 -7.827347144484519958e-05
1.038000000000000000e+03 3.401009368896484375e+01 2.023437261581420898e+00 -1.385773299261927605e-03 2.581030421424657106e-04 -3.383010625839233398e-04 1.018349867081269622e-04
1.039000000000000000e+03 3.349811172485351562e+01 2.106307983398437500e+00 -1.004736191134725232e-06 -5.006652208976447582e-04 -1.505009859101846814e-04 9.051612578332424164e-04
1.040000000000000000e+03 3.095705795288085938e+01 -1.653690934181213379e+00 -2.753437519073486328e+00 2.832562327384948730e-01 -7.410544157028198242e-01 -2.533961236476898193e-01
1.041000000000000000e+03 3.020975112915039062e+01 -1.775751471519470215e+00 -2.503100872039794922e+00 2.111276835203170776e-01 -6.875919103622436523e-01 -3.510463237762451172e-01
1.042000000000000000e+03 2.840476417541503906e+01 -1.910933256149291992e+00 -2.076716423034667969e+00 -1.455516461282968521e-02 -6.273815035820007324e-01 -5.190144777297973633e-01
1.043000000000000000e+03 2.980053710937500000e+01 -1.817666530609130859e+00 -2.380730867385864258e+00 1.594677269458770752e-01 -6.663789749145507812e-01 -4.087498188018798828e-01
1.044000000000000000e+03 2.899044036865234375e+01 -1.887094974517822266e+00 -2.203634738922119141e+00 4.801701381802558899e-02 -6.466853618621826172e-01 -4.782209098339080811e-01
1.045000000000000000e+03 2.879253005981445312e+01 -2.162957668304443359e+00 -2.051100730895996094e+00 4.170577228069305420e-02 -6.028184890747070312e-01 -5.421534180641174316e-01
1.046000000000000000e+03 2.701900863647460938e+01 -2.078045845031738281e+00 -1.685571908950805664e+00 -1.694382578134536743e-01 -5.565030574798583984e-01 -5.814395546913146973e-01
1.047000000000000000e+03 2.638595390319824219e+01 -2.239648103713989258e+00 -1.466637134552001953e+00 -1.891183257102966309e-01 -4.967266321182250977e-01 -6.721493601799011230e-01
1.048000000000000000e+03 2.682305145263671875e+01 -2.117340803146362305e+00 -1.605154156684875488e+00 -1.852409094572067261e-01 -5.371185541152954102e-01 -6.181687712669372559e-01
1.049000000000000000e+03 3.076814079284667969e+01 -1.653749585151672363e+00 -2.742197751998901367e+00 3.076599240303039551e-01 -7.303613424301147461e-01 -3.086256086826324463e-01
1.050000000000000000e+03 3.000487327575683594e+01 -1.798616409301757812e+00 -2.455448865890502930e+00 2.057605385780334473e-01 -6.749064922332763672e-01 -3.860630095005035400e-01
1.051000000000000000e+03 2.919271850585937500e+01 -1.877978682518005371e+00 -2.253264427185058594e+00 8.893089741468429565e-02 -6.493000388145446777e-01 -4.588385522365570068e-01
1.052000000000000000e+03 2.760603523254394531e+01 -2.026926994323730469e+00 -1.845795512199401855e+00 -1.054686978459358215e-01 -5.853792428970336914e-01 -5.621495842933654785e-01
1.053000000000000000e+03 2.721259117126464844e+01 -2.053449630737304688e+00 -1.733275532722473145e+00 -1.619057953357696533e-01 -5.685544013977050781e-01 -5.727721452713012695e-01
1.054000000000000000e+03 2.592519569396972656e+01 -2.281657457351684570e+00 -1.345572352409362793e+00 -1.189833432435989380e-01 -4.393666982650756836e-01 -6.867763996124267578e-01
1.055000000000000000e+03 2.646826171875000000e+01 -2.699778795242309570e+00 -1.323620319366455078e+00 -1.613409370183944702e-01 -4.454883635044097900e-01 -7.448268532752990723e-01
1.056000000000000000e+03 3.525593566894531250e+01 -1.725825667381286621e+00 -2.503536462783813477e+00 4.701296687126159668e-01 -6.100220680236816406e-01 1.873449683189392090e-01
1.057000000000000000e+03 3.504968643188476562e+01 -1.339017868041992188e+00 -2.611417531967163086e+00 4.189899861812591553e-01 -6.577282547950744629e-01 5.876168981194496155e-02
1.058000000000000000e+03 3.444514083862304688e+01 -1.358424067497253418e+00 -2.952140092849731445e+00 3.880957663059234619e-01 -7.692133188247680664e-01 3.381255641579627991e-02
1.059000000000000000e+03 3.285104751586914062e+01 2.099462747573852539e+00 7.497523329220712185e-04 7.790985400788486004e-04 4.586552677210420370e-04 -5.240900791250169277e-04
1.060000000000000000e+03 3.310496139526367188e+01 1.789323329925537109e+00 3.128290409222245216e-04 7.076848414726555347e-04 3.061541647184640169e-04 -2.682074846234172583e-04
1.061000000000000000e+03 1.428562545776367188e+01 1.858862876892089844e+01 -3.378290566615760326e-04 2.949678106233477592e-03 7.835546857677400112e-04 5.150487995706498623e-04
1.062000000000000000e+03 1.475125598907470703e+01 1.901551055908203125e+01 -4.655356460716575384e-04 5.228236317634582520e-03 1.428810297511518002e-03 8.786637336015701294e-04
1.063000000000000000e+03 1.509719276428222656e+01 1.982645416259765625e+01 -1.872828695923089981e-03 2.183381002396345139e-03 9.316571231465786695e-05 1.503505773143842816e-04
1.064000000000000000e+03 1.713476562500000000e+01 2.138204765319824219e+01 -2.926190756261348724e-02 -2.651847666129469872e-03 -9.574126452207565308e-03 -6.064869929105043411e-03
1.065000000000000000e+03 1.473817157745361328e+01 1.778717994689941406e+01 6.108779925853013992e-04 4.057846032083034515e-03 1.400617300532758236e-03 2.436125651001930237e-04
1.066000000000000000e+03 1.539413070678710938e+01 1.221978187561035156e+01 2.367388078710064292e-04 5.141872679814696312e-04 2.252778213005512953e-04 -7.322214514715597034e-06
1.067000000000000000e+03 1.526628589630126953e+01 1.077616786956787109e+01 -1.512228773208335042e-04 2.257648302474990487e-04 2.236258660559542477e-05 -5.145617251400835812e-05
1.068000000000000000e+03 2.032506370544433594e+01 2.207405281066894531e+01 -7.393320649862289429e-02 -1.193010015413165092e-03 -2.253786474466323853e-02 -7.445806171745061874e-03
1.069000000000000000e+03 1.470609092712402344e+01 1.538358497619628906e+01 4.924160311929881573e-04 2.215291373431682587e-03 8.123121806420385838e-04 1.289529318455606699e-04
1.070000000000000000e+03 1.435097789764404297e+01 1.450982856750488281e+01 -3.344941360410302877e-04 1.389440731145441532e-03 3.164839872624725103e-04 1.812626433093100786e-04
1.071000000000000000e+03 1.452918434143066406e+01 1.326677322387695312e+01 3.177949984092265368e-04 8.351555443368852139e-04 3.458851715549826622e-04 1.900939096231013536e-04
1.072000000000000000e+03 1.485296535491943359e+01 1.417438793182373047e+01 -3.786074812524020672e-04 1.360640046186745167e-03 2.946097811218351126e-04 -1.995073253056034446e-04
1.073000000000000000e+03 1.544069290161132812e+01 2.012430381774902344e+01 -2.911935793235898018e-03 7.416711887344717979e-04 -6.510793464258313179e-04 -1.467899070121347904e-03
1.074000000000000000e+03 1.793763542175292969e+01 2.160271263122558594e+01 -3.673189505934715271e-02 -1.461673760786652565e-03 -1.145807094871997833e-02 -6.553058978170156479e-03
1.075000000000000000e+03 1.636171722412109375e+01 2.097922897338867188e+01 -1.694849692285060883e-02 -2.980759134516119957e-03 -5.978777073323726654e-03 -4.998503252863883972e-03
1.076000000000000000e+03 1.575589275360107422e+01 2.039762878417968750e+01 -5.705199204385280609e-03 -1.086580683477222919e-03 -2.037534024566411972e-03 -2.264446811750531197e-03
1.077000000000000000e+03 1.524986267089843750e+01 1.260055446624755859e+01 -2.213594707427546382e-04 5.568134947679936886e-04 1.006362072075717151e-04 -1.839525211835280061e-04
1.078000000000000000e+03 1.499846172332763672e+01 1.204349422454833984e+01 -1.350467355223372579e-04 3.876916307490319014e-04 7.579346856800839305e-05 -1.225647283717989922e-04
1.079000000000000000e+03 2.072578620910644531e+01 2.214709663391113281e+01 -8.808964490890502930e-02 -2.092520939186215401e-03 -2.705464884638786316e-02 -7.256038021296262741e-03
1.080000000000000000e+03 1.962347030639648438e+01 6.891824245452880859e+00 -3.863312304019927979e-05 -4.498089765547774732e-05 -2.508420766389463097e-05 -3.154170917696319520e-05
1.081000000000000000e+03 1.421396064758300781e+01 1.533957862854003906e+01 -3.378611872904002666e-04 1.680354122072458267e-03 4.027478862553834915e-04 3.342830750625580549e-04
1.082000000000000000e+03 1.728176689147949219e+01 9.113957405090332031e+00 -7.629233732586726546e-05 -2.907871748902834952e-05 -3.161131826345808804e-05 -5.727243478759191930e-05
1.083000000000000000e+03 1.817240142822265625e+01 8.263133049011230469e+00 4.716257171821780503e-05 3.333867425681091845e-05 2.415037306491285563e-05 3.682689202832989395e-05
1.084000000000000000e+03 1.753537750244140625e+01 2.149944686889648438e+01 -3.320886939764022827e-02 -1.419400796294212341e-03 -1.038848143070936203e-02 -6.241205614060163498e-03
1.085000000000000000e+03 1.638308525085449219e+01 1.046833705902099609e+01 -1.194428623421117663e-04 3.491313327685929835e-05 -2.535891871957574040e-05 -1.116174680646508932e-04
1.086000000000000000e+03 1.932613754272460938e+01 7.159321308135986328e+00 3.156188904540613294e-05 3.246495180064812303e-05 1.920805152622051537e-05 4.131085734115913510e-05
1.087000000000000000e+03 2.312835693359375000e+01 3.097218990325927734e+00 -6.214759650902124122e-06 -7.081050625856732950e-06 -3.988743173977127299e-06 1.457985217712121084e-05
1.088000000000000000e+03 1.624542999267578125e+01 9.938440322875976562e+00 -1.310469087911769748e-04 6.253932224353775382e-05 -2.055227741948328912e-05 -8.524838631274178624e-05
1.089000000000000000e+03 2.259473991394042969e+01 4.371104717254638672e+00 -3.295043643447570503e-05 -1.824653372750617564e-05 -1.535909177619032562e-05 -1.554028676764573902e-05
1.090000000000000000e+03 1.604320335388183594e+01 1.028139400482177734e+01 1.356517168460413814e-04 1.562065735924988985e-04 8.755748422117903829e-05 3.572660716599784791e-05
1.091000000000000000e+03 1.582824993133544922e+01 1.061847400665283203e+01 -1.430455740774050355e-04 1.440305932192131877e-04 2.955057709641550900e-07 -9.685732220532372594e-05
1.092000000000000000e+03 2.181772994995117188e+01 3.819679498672485352e+00 -1.852384116318717133e-06 -8.712083399586845189e-06 -3.169340288877720013e-06 -4.193096174276433885e-06
1.093000000000000000e+03 2.052176475524902344e+01 6.090761184692382812e+00 1.275148133572656661e-05 3.130361801595427096e-05 1.321653053310001269e-05 2.824329021677840501e-05
1.094000000000000000e+03 2.181192970275878906e+01 5.057706832885742188e+00 1.675789098953828216e-05 3.186445974279195070e-05 1.458670521969906986e-05 2.720801785471849144e-05
1.095000000000000000e+03 1.430764102935791016e+01 1.818121719360351562e+01 7.128044962882995605e-04 3.175344550982117653e-03 1.166444737464189529e-03 7.363921613432466984e-04
1.096000000000000000e+03 1.423353576660156250e+01 1.700587654113769531e+01 -4.530107253231108189e-04 2.431133296340703964e-03 5.934367654845118523e-04 6.048710783943533897e-04
1.097000000000000000e+03 1.986051940917968750e+01 2.254109191894531250e+01 -6.872127950191497803e-02 -1.595302746864035726e-04 -2.066424302756786346e-02 2.347966423258185387e-03
1.098000000000000000e+03 1.952910041809082031e+01 2.192566299438476562e+01 -6.038101390004158020e-02 -4.799415473826229572e-04 -1.825828664004802704e-02 -6.362493149936199188e-03
1.099000000000000000e+03 2.168433380126953125e+01 4.622115612030029297e+00 -1.205067837872775272e-05 -1.247420527761278208e-06 -3.989429387729614973e-06 -9.320707249571569264e-06
1.100000000000000000e+03 2.113085365295410156e+01 5.530134677886962891e+00 7.491638370993314311e-06 1.485734264861093834e-05 6.704694442305481061e-06 1.108886135625652969e-05
1.101000000000000000e+03 1.846301841735839844e+01 7.977397918701171875e+00 -5.203002365306019783e-05 -4.340234590927138925e-05 -2.862971086869947612e-05 -5.006103310734033585e-05
1.102000000000000000e+03 1.476452445983886719e+01 1.241189193725585938e+01 1.918736379593610764e-04 6.283504772000014782e-04 2.460672403685748577e-04 1.756961719365790486e-04
1.103000000000000000e+03 1.472940731048583984e+01 1.739098167419433594e+01 -5.517890676856040955e-04 3.646051045507192612e-03 9.282785467803478241e-04 2.392510941717773676e-04
1.104000000000000000e+03 1.429173183441162109e+01 1.779364585876464844e+01 -5.109250778332352638e-04 2.943590516224503517e-03 7.297996198758482933e-04 5.990387289784848690e-04
1.105000000000000000e+03 1.903993606567382812e+01 7.435737609863281250e+00 -4.225501470500603318e-05 -5.290295302984304726e-05 -2.854739068425260484e-05 -3.160551932523958385e-05
1.106000000000000000e+03 1.471743202209472656e+01 1.699180603027343750e+01 5.296429735608398914e-04 3.280350239947438240e-03 1.142997993156313896e-03 2.148102503269910812e-04
1.107000000000000000e+03 3.396767807006835938e+01 3.273173809051513672e+00 1.693232567049562931e-03 -4.099900543224066496e-04 3.849727509077638388e-04 3.293064655736088753e-04
1.108000000000000000e+03 3.337250900268554688e+01 2.847778320312500000e+00 1.458087470382452011e-03 1.819602330215275288e-04 4.920143401250243187e-04 -6.342079723253846169e-04
1.109000000000000000e+03 3.317248535156250000e+01 2.493290662765502930e+00 -1.851690816693007946e-03 -3.766661684494465590e-04 -6.685071275569498539e-04 7.185760186985135078e-04
1.110000000000000000e+03 3.320975112915039062e+01 1.916834354400634766e+00 -5.019583622924983501e-04 -4.641848499886691570e-04 -2.898429811466485262e-04 5.354858003556728363e-04
1.111000000000000000e+03 2.920279121398925781e+01 1.996422386169433594e+01 -1.546074301004409790e-01 -1.587101072072982788e-01 -9.399526566267013550e-02 1.448229700326919556e-01
1.112000000000000000e+03 2.828016471862792969e+01 2.166807174682617188e+01 -1.525239050388336182e-01 -7.389221340417861938e-02 -6.792483478784561157e-02 7.737408578395843506e-02
1.113000000000000000e+03 2.939953422546386719e+01 2.029094696044921875e+01 -1.599133610725402832e-01 -1.149451360106468201e-01 -8.245754987001419067e-02 1.044600605964660645e-01
1.114000000000000000e+03 2.841761589050292969e+01 2.105292701721191406e+01 -1.911931931972503662e-01 -8.629231154918670654e-02 -8.324564993381500244e-02 9.590823203325271606e-02
1.115000000000000000e+03 2.806085777282714844e+01 2.126947593688964844e+01 -1.836190521717071533e-01 -7.244480401277542114e-02 -7.681915909051895142e-02 8.983210474252700806e-02
1.116000000000000000e+03 3.463106536865234375e+01 2.661576509475708008e+00 3.834743984043598175e-04 1.250202883966267109e-03 4.901032079942524433e-04 -1.477418001741170883e-03
1.117000000000000000e+03 2.313910484313964844e+01 2.205363464355468750e+01 -1.322570890188217163e-01 -4.543379414826631546e-03 -4.104014113545417786e-02 2.631286345422267914e-02
1.118000000000000000e+03 2.321119499206542969e+01 2.253777885437011719e+01 -1.261916607618331909e-01 -9.384265169501304626e-03 -4.067277908325195312e-02 2.941048517823219299e-02
1.119000000000000000e+03 2.973935508728027344e+01 1.936698341369628906e+01 -8.371448516845703125e-02 -1.334960162639617920e-01 -6.516315042972564697e-02 1.040095463395118713e-01
1.120000000000000000e+03 3.003454017639160156e+01 1.906801033020019531e+01 -6.960991024971008301e-02 -1.165851131081581116e-01 -5.585850775241851807e-02 8.817742019891738892e-02
1.121000000000000000e+03 3.388414382934570312e+01 6.154359340667724609e+00 -8.355097961612045765e-04 6.300302920863032341e-04 -6.164386286400258541e-05 -8.077179081737995148e-04
1.122000000000000000e+03 3.333787155151367188e+01 6.936938762664794922e+00 8.590987999923527241e-04 1.535861287266016006e-03 7.184880087152123451e-04 -1.641925628064200282e-04
1.123000000000000000e+03 3.372173690795898438e+01 6.958171844482421875e+00 -5.707591772079467773e-04 1.099220942705869675e-03 1.585385325597599149e-04 -9.575727744959294796e-04
1.124000000000000000e+03 3.060424613952636719e+01 1.788452911376953125e+01 -3.624616190791130066e-02 -9.730508923530578613e-02 -4.006537795066833496e-02 5.700349062681198120e-02
1.125000000000000000e+03 3.354043197631835938e+01 4.571187019348144531e+00 1.635022694244980812e-03 5.817391866003163159e-05 5.079589900560677052e-04 2.871107717510312796e-04
1.126000000000000000e+03 3.250035858154296875e+01 1.209769439697265625e+01 -1.867861254140734673e-03 1.202674233354628086e-03 -1.995561178773641586e-04 8.089170441962778568e-04
1.127000000000000000e+03 2.629884529113769531e+01 2.306471252441406250e+01 -1.124331206083297729e-01 -3.851509839296340942e-02 -4.528446495532989502e-02 5.537278950214385986e-02
1.128000000000000000e+03 3.253868865966796875e+01 1.384871101379394531e+01 -4.916447214782238007e-03 -1.092789135873317719e-02 -4.753301385790109634e-03 1.001152954995632172e-02
1.129000000000000000e+03 3.399438095092773438e+01 4.754708766937255859e+00 -1.324094337178394198e-04 3.315777867101132870e-04 5.975050589768216014e-05 -6.512217805720865726e-04
1.130000000000000000e+03 3.327613449096679688e+01 7.739409446716308594e+00 9.602982900105416775e-04 2.516763284802436829e-03 1.043118536472320557e-03 -4.599493695423007011e-04
1.131000000000000000e+03 3.383383178710937500e+01 5.066744804382324219e+00 6.548461969941854477e-04 4.488956765271723270e-04 3.311225445941090584e-04 2.317178878001868725e-04
1.132000000000000000e+03 3.342388534545898438e+01 5.743971347808837891e+00 -1.078811241313815117e-03 5.531631177291274071e-04 -1.576944487169384956e-04 -4.295175313018262386e-04
1.133000000000000000e+03 3.379197311401367188e+01 6.563279628753662109e+00 9.200617205351591110e-04 7.605831488035619259e-04 5.041934782639145851e-04 -8.775085734669119120e-05
1.134000000000000000e+03 3.133147430419921875e+01 1.600644683837890625e+01 -1.068786624819040298e-02 -4.420450702309608459e-02 -1.646771281957626343e-02 2.032695710659027100e-02
1.135000000000000000e+03 2.736581802368164062e+01 2.174048995971679688e+01 -1.650497615337371826e-01 -4.506423324346542358e-02 -6.303419917821884155e-02 7.503957301378250122e-02
1.136000000000000000e+03 3.091150283813476562e+01 1.902274894714355469e+01 -8.060652762651443481e-02 -7.115627080202102661e-02 -4.552884027361869812e-02 7.074040174484252930e-02
1.137000000000000000e+03 2.353207588195800781e+01 2.198060989379882812e+01 -1.379322260618209839e-01 -6.472104694694280624e-03 -4.332130029797554016e-02 2.750373445451259613e-02
1.138000000000000000e+03 2.629158592224121094e+01 2.136681747436523438e+01 -1.820143163204193115e-01 -1.985146664083003998e-02 -6.055973470211029053e-02 5.781403928995132446e-02
1.139000000000000000e+03 3.028133773803710938e+01 1.869851493835449219e+01 -6.178162246942520142e-02 -1.093449369072914124e-01 -5.133796483278274536e-02 7.705688476562500000e-02
1.140000000000000000e+03 2.473685646057128906e+01 2.181099891662597656e+01 -1.587698012590408325e-01 -1.163195166736841202e-02 -5.112052708864212036e-02 3.849762305617332458e-02
1.141000000000000000e+03 3.273625946044921875e+01 1.093433570861816406e+01 9.422965813428163528e-04 4.342852160334587097e-03 1.585544669069349766e-03 -3.845051978714764118e-04
1.142000000000000000e+03 3.336904144287109375e+01 6.535715579986572266e+00 -8.209873922169208527e-04 1.181138912215828896e-03 1.080454458133317530e-04 -3.370966296643018723e-04
1.143000000000000000e+03 3.324319458007812500e+01 8.141567230224609375e+00 -7.322165765799582005e-04 2.991548506543040276e-03 6.777995731681585312e-04 -7.594297057949006557e-04
1.144000000000000000e+03 3.185144615173339844e+01 1.447412490844726562e+01 -5.420030560344457626e-03 -1.931324973702430725e-02 -7.419983856379985809e-03 9.521911852061748505e-03
1.145000000000000000e+03 3.199884414672851562e+01 1.410248851776123047e+01 -3.316316986456513405e-03 -1.524337287992238998e-02 -5.567906890064477921e-03 8.736900053918361664e-03
1.146000000000000000e+03 2.635897445678710938e+01 2.181727027893066406e+01 -1.672354340553283691e-01 -2.661842480301856995e-02 -5.815615504980087280e-02 5.926355347037315369e-02
1.147000000000000000e+03 3.117850303649902344e+01 1.637435722351074219e+01 -1.087586581707000732e-02 -5.331690981984138489e-02 -1.925783231854438782e-02 2.569786086678504944e-02
1.148000000000000000e+03 2.432143211364746094e+01 2.184808540344238281e+01 -1.521272659301757812e-01 -9.753048419952392578e-03 -4.856409132480621338e-02 3.342553973197937012e-02
1.149000000000000000e+03 3.297795104980468750e+01 1.176228713989257812e+01 -2.569410251453518867e-03 3.586432139854878187e-04 -6.632301374338567257e-04 1.687709940597414970e-03
1.150000000000000000e+03 3.407342147827148438e+01 4.120294570922851562e+00 1.813895418308675289e-03 2.093320072162896395e-04 6.069682422094047070e-04 -1.011222120723687112e-04
1.151000000000000000e+03 3.362582015991210938e+01 9.393009185791015625e+00 -1.101140398532152176e-03 1.679803826846182346e-03 1.735990372253581882e-04 -1.238181372173130512e-03
1.152000000000000000e+03 3.366928482055664062e+01 8.991904258728027344e+00 1.224921201355755329e-03 1.230627647601068020e-03 7.366646314039826393e-04 -4.404612700454890728e-04
1.153000000000000000e+03 3.308911514282226562e+01 9.345854759216308594e+00 1.344013144262135029e-03 4.197980277240276337e-03 1.662597991526126862e-03 -6.253122701309621334e-04
1.154000000000000000e+03 3.255782699584960938e+01 1.170653533935546875e+01 5.420166417025029659e-04 2.807598561048507690e-03 1.004884601570665836e-03 3.912184038199484348e-04
1.155000000000000000e+03 3.263647842407226562e+01 1.131862068176269531e+01 -1.087779412046074867e-03 3.739356063306331635e-03 7.954729953780770302e-04 -6.356478552334010601e-04
1.156000000000000000e+03 3.162350273132324219e+01 1.523505973815917969e+01 -8.597441017627716064e-03 -3.025002777576446533e-02 -1.165424101054668427e-02 1.538767665624618530e-02
1.157000000000000000e+03 7.714360809326171875e+01 -1.456548690795898438e+01 -5.601817741990089417e-02 -1.453159842640161514e-02 -2.116493321955204010e-02 -4.682432860136032104e-02
1.158000000000000000e+03 7.755320739746093750e+01 -1.380487346649169922e+01 -6.208728253841400146e-02 -3.533884510397911072e-02 -2.922783792018890381e-02 -7.101682573556900024e-02
1.159000000000000000e+03 7.780126953125000000e+01 -1.232816219329833984e+01 -6.600300222635269165e-02 -1.130680590867996216e-01 -5.372131988406181335e-02 -1.153549924492835999e-01
1.160000000000000000e+03 7.774845886230468750e+01 -1.453394508361816406e+01 -3.968176618218421936e-02 -3.663778677582740784e-02 -2.289586514234542847e-02 -3.752485290169715881e-02
1.161000000000000000e+03 7.762223052978515625e+01 -1.931336784362792969e+01 -1.040862407535314560e-03 4.909476047032512724e-05 -2.975302923005074263e-04 3.309094608994200826e-05
1.162000000000000000e+03 7.836572265625000000e+01 -1.844054985046386719e+01 -3.736402723006904125e-04 -2.428996594971977174e-07 -1.121649547712877393e-04 -2.863837871700525284e-04
1.163000000000000000e+03 7.947213745117187500e+01 -2.133741950988769531e+01 -9.415757376700639725e-04 9.425014141015708447e-04 2.777074428195192013e-07 -8.106011591735295951e-06
1.164000000000000000e+03 2.250106430053710938e+01 2.970225095748901367e+00 -4.608113613358000293e-06 3.092015049332985654e-06 -4.548296317352651386e-07 -7.988303877937141806e-06
1.165000000000000000e+03 2.243251991271972656e+01 3.462501525878906250e+00 1.472427629778394476e-05 1.011422227747971192e-06 4.720709512184839696e-06 1.068961773853516206e-05
1.166000000000000000e+03 2.217647361755371094e+01 4.240540027618408203e+00 8.018586413527373224e-06 2.410492743365466595e-05 9.637054063205141574e-06 -3.232996959923184477e-06
1.167000000000000000e+03 4.051663208007812500e+01 -5.919291377067565918e-01 -3.389055728912353516e-01 -8.376190066337585449e-01 -3.529573678970336914e-01 5.026513338088989258e-01
1.168000000000000000e+03 3.868606948852539062e+01 -7.794798016548156738e-01 -1.489808797836303711e+00 1.321522444486618042e-01 -4.072969555854797363e-01 6.554592251777648926e-01
1.169000000000000000e+03 4.100322341918945312e+01 -2.195994138717651367e+00 -2.670592308044433594e+00 -1.364436626434326172e+00 -1.210508704185485840e+00 1.650423049926757812e+00
1.170000000000000000e+03 3.922275543212890625e+01 -1.527850031852722168e+00 -1.783903241157531738e+00 -1.822849176824092865e-02 -5.406395196914672852e-01 9.881148934364318848e-01
1.171000000000000000e+03 6.854601287841796875e+01 -1.299509620666503906e+01 -8.099439740180969238e-01 7.015628367662429810e-02 -2.219363003969192505e-01 2.645850181579589844e-02
1.172000000000000000e+03 7.054231262207031250e+01 -1.390881824493408203e+01 -4.911669492721557617e-01 9.596178680658340454e-02 -1.185615509748458862e-01 -1.393915805965662003e-02
1.173000000000000000e+03 6.763023376464843750e+01 -1.472074031829833984e+01 -2.851962447166442871e-01 -1.784733682870864868e-01 -1.391008943319320679e-01 1.929271519184112549e-01
1.174000000000000000e+03 2.023921394348144531e+01 2.997911453247070312e+00 -1.607409649295732379e-05 -3.112923513981513679e-05 -1.416099985362961888e-05 1.222974060510750860e-05
1.175000000000000000e+03 1.762786483764648438e+01 2.654537439346313477e+00 -9.140347174252383411e-06 -2.362714985792990774e-05 -9.830248927755746990e-06 6.028438747307518497e-06
1.176000000000000000e+03 1.907879829406738281e+01 2.224479675292968750e+00 1.151209107774775475e-05 3.230871152481995523e-05 1.314624114456819370e-05 -7.937748705444391817e-06
1.177000000000000000e+03 2.052579879760742188e+01 3.633501052856445312e+00 -3.368877514731138945e-05 -2.735209818638395518e-05 -1.831226109061390162e-05 1.188706846733111888e-05
1.178000000000000000e+03 1.994212722778320312e+01 6.050869464874267578e+00 2.952383874799124897e-05 2.675152245501521975e-05 1.688260817900300026e-05 2.433591544104274362e-05
1.179000000000000000e+03 7.168096160888671875e+01 -1.891660881042480469e+01 1.195593387819826603e-03 -4.376416327431797981e-04 2.273855352541431785e-04 -4.740577423945069313e-05
1.180000000000000000e+03 7.005199432373046875e+01 -1.855974960327148438e+01 -2.216648863395676017e-04 -1.094771796488203108e-04 -9.934262197930365801e-05 3.038173599634319544e-04
1.181000000000000000e+03 7.112425994873046875e+01 -1.907823753356933594e+01 -4.442346835276111960e-05 4.582030305755324662e-05 4.190503091194841545e-07 2.789892605505883694e-04
1.182000000000000000e+03 7.054996490478515625e+01 -1.952228736877441406e+01 4.497364716371521354e-05 -1.538977958261966705e-04 -3.267724605393595994e-05 1.077684573829174042e-03
1.183000000000000000e+03 1.767498207092285156e+01 2.076313018798828125e+00 9.021388905239291489e-06 3.238088538637384772e-05 1.242068265128182247e-05 -5.672070983564481139e-06
1.184000000000000000e+03 1.547010040283203125e+01 2.551048278808593750e+00 1.996334322029724717e-05 3.332966662128455937e-05 1.598790368007030338e-05 -8.740380508243106306e-07
1.185000000000000000e+03 1.831573867797851562e+01 2.704873085021972656e+00 1.438739855075255036e-05 2.840797424141783267e-05 1.283861183765111491e-05 -5.809190497529925779e-06
1.186000000000000000e+03 1.619812393188476562e+01 2.583803415298461914e+00 -9.373691682412754744e-06 -2.066514571197330952e-05 -9.011650945467408746e-06 1.274248461413662881e-05
1.187000000000000000e+03 3.601160430908203125e+01 3.595706224441528320e+00 -3.516236611176282167e-04 -8.350724820047616959e-04 -3.560088225640356541e-04 8.194079855456948280e-04
1.188000000000000000e+03 3.574301528930664062e+01 2.794588565826416016e+00 2.434457710478454828e-04 -7.549283909611403942e-04 -1.534447801532223821e-04 5.744711379520595074e-04
1.189000000000000000e+03 3.399614715576171875e+01 3.705517292022705078e+00 -1.775112235918641090e-03 3.325594298075884581e-04 -4.327658389229327440e-04 -1.966214913409203291e-04
1.190000000000000000e+03 3.478841400146484375e+01 2.373801231384277344e+00 2.454755012877285480e-04 -1.150226802565157413e-03 -2.714253787416964769e-04 4.162384429946541786e-04
1.191000000000000000e+03 1.397399330139160156e+01 3.129645824432373047e+00 -2.802651351885288022e-06 -1.793076626199763268e-05 -6.220025625225389376e-06 3.335244036861695349e-05
1.192000000000000000e+03 1.477951717376708984e+01 1.898368239402770996e+00 1.773640906321816146e-05 3.297870716778561473e-05 1.521453577879583463e-05 -7.791574319071514765e-08
1.193000000000000000e+03 1.181068611145019531e+01 2.503295421600341797e+00 9.537054211250506341e-06 -2.218952067778445780e-05 -3.795740212808595970e-06 3.599845149437896907e-05
1.194000000000000000e+03 1.473778438568115234e+01 2.525710344314575195e+00 -4.820696631213650107e-06 -1.934484316734597087e-05 -7.249661848618416116e-06 2.181758645747322589e-05
1.195000000000000000e+03 7.438815307617187500e+01 -1.894534301757812500e+01 9.270130540244281292e-04 2.330173811060376465e-05 2.850944583769887686e-04 4.917081096209585667e-04
1.196000000000000000e+03 7.369933319091796875e+01 -1.895664024353027344e+01 -9.643372613936662674e-04 -3.578102914616465569e-04 -3.966442600358277559e-04 -6.913430988788604736e-04
1.197000000000000000e+03 7.506622314453125000e+01 -1.894025230407714844e+01 -4.210146435070782900e-04 -6.365414010360836983e-04 -3.172668220940977335e-04 -7.257360848598182201e-04
1.198000000000000000e+03 1.183844470977783203e+01 1.840254068374633789e+00 4.111622547497972846e-05 2.412457979517057538e-05 1.957224230864085257e-05 2.657022832863731310e-06
1.199000000000000000e+03 1.395530414581298828e+01 3.730180025100708008e+00 3.560319237294606864e-05 4.231635466567240655e-05 2.337586374778766185e-05 6.350313469738466665e-06
1.200000000000000000e+03 1.254344463348388672e+01 2.498766422271728516e+00 4.173063643975183368e-05 2.596690319478511810e-05 2.030926225415896624e-05 4.165128302702214569e-06
1.201000000000000000e+03 1.139861869812011719e+01 -3.321321249008178711e+00 4.320134222507476807e-02 -5.325008928775787354e-02 -3.014624118804931641e-03 4.179870337247848511e-02
1.202000000000000000e+03 1.129442501068115234e+01 -2.580104827880859375e+00 1.412802487611770630e-01 -3.147452324628829956e-02 3.294171765446662903e-02 4.977848008275032043e-02
1.203000000000000000e+03 1.281938648223876953e+01 -2.553027153015136719e+00 1.319824159145355225e-01 -4.768719896674156189e-02 2.528856508433818817e-02 3.133730730041861534e-03
1.204000000000000000e+03 9.670367240905761719e+00 -1.866603612899780273e+00 2.223010510206222534e-01 -8.986181579530239105e-03 6.399445980787277222e-02 7.038214057683944702e-02
1.205000000000000000e+03 7.281626892089843750e+01 -1.445240879058837891e+01 -2.679386436939239502e-01 2.397061139345169067e-02 -7.319040596485137939e-02 -8.015930652618408203e-02
1.206000000000000000e+03 7.523815917968750000e+01 -1.379576683044433594e+01 -1.808393299579620361e-01 -1.781432330608367920e-02 -5.959609895944595337e-02 -1.275400966405868530e-01
1.207000000000000000e+03 7.590205383300781250e+01 -1.399735355377197266e+01 -1.217822432518005371e-01 -2.575504966080188751e-02 -4.426118731498718262e-02 -1.091802716255187988e-01
1.208000000000000000e+03 7.697872161865234375e+01 -1.388526725769042969e+01 -8.748120814561843872e-02 -3.710751980543136597e-02 -3.737661987543106079e-02 -7.487137615680694580e-02
1.209000000000000000e+03 1.448958778381347656e+01 -3.241695880889892578e+00 -1.034169923514127731e-02 -1.064242646098136902e-01 -3.502978757023811340e-02 -9.461298584938049316e-02
1.210000000000000000e+03 1.359371662139892578e+01 -2.537317276000976562e+00 1.200225055217742920e-01 -5.697861313819885254e-02 1.891316659748554230e-02 -2.867714501917362213e-02
1.211000000000000000e+03 1.437084674835205078e+01 -2.518097877502441406e+00 1.005658134818077087e-01 -6.669124215841293335e-02 1.016236934810876846e-02 -6.294095516204833984e-02
1.212000000000000000e+03 1.591597938537597656e+01 -2.466466665267944336e+00 4.242851585149765015e-02 -8.284015953540802002e-02 -1.212349440902471542e-02 -1.407571136951446533e-01
1.213000000000000000e+03 6.589830398559570312e+00 2.589445114135742188e+00 7.010073750279843807e-05 1.061871080310083926e-05 2.421583303657826036e-05 -1.627684832783415914e-05
1.214000000000000000e+03 7.314866542816162109e+00 1.852235555648803711e+00 6.225397373782470822e-05 1.889231862151063979e-05 2.434388625260908157e-05 -1.001593955152202398e-05
1.215000000000000000e+03 5.065518379211425781e+00 2.709320545196533203e+00 5.004041304346174002e-05 2.556511935836169869e-05 2.268165917485021055e-05 -3.249581641284748912e-05
1.216000000000000000e+03 8.854854583740234375e+00 2.519865989685058594e+00 1.576843715156428516e-05 -2.520443740650080144e-05 -2.830799985531484708e-06 1.161023465101607144e-05
1.217000000000000000e+03 3.473931550979614258e+00 1.962347269058227539e+00 1.728557776914385613e-06 -3.248146458645351231e-05 -9.225872418028302491e-06 -1.393956239326143987e-07
1.218000000000000000e+03 3.669738054275512695e+00 3.797555685043334961e+00 4.580026143230497837e-06 -1.751726267684716731e-05 -3.881171323882881552e-06 1.752977914293296635e-05
1.219000000000000000e+03 5.830668449401855469e+00 2.641959428787231445e+00 2.440148091409355402e-05 -3.206967448932118714e-05 -2.300457481396733783e-06 -1.400786732119740918e-05
1.220000000000000000e+03 1.246989369392395020e+00 3.406450271606445312e+00 -1.842750316427554935e-05 -1.397103824274381623e-05 -9.719562513055279851e-06 6.915714493516134098e-06
1.221000000000000000e+03 1.034168338775634766e+01 2.512532949447631836e+00 1.127476298279361799e-05 -2.223238516307901591e-05 -3.287286745035089552e-06 2.928221147158183157e-05
1.222000000000000000e+03 9.602369308471679688e+00 2.514196872711181641e+00 7.677858957322314382e-05 5.031169621361186728e-06 2.454292734910268337e-05 1.755454832164105028e-06
1.223000000000000000e+03 1.053698348999023438e+01 -2.594806194305419922e+00 1.393534243106842041e-01 -2.469033189117908478e-02 3.439892828464508057e-02 6.600569933652877808e-02
1.224000000000000000e+03 6.588898658752441406e+00 -1.882809400558471680e+00 1.427750438451766968e-01 4.832881095353513956e-04 4.297750070691108704e-02 8.615267276763916016e-02
1.225000000000000000e+03 5.812819480895996094e+00 -1.890301704406738281e+00 1.200724467635154724e-01 3.246645443141460419e-03 3.699572756886482239e-02 8.522266894578933716e-02
1.226000000000000000e+03 7.580304145812988281e+00 -3.357149362564086914e+00 4.567946121096611023e-02 -8.918989449739456177e-03 1.102814171463251114e-02 1.055372729897499084e-01
1.227000000000000000e+03 4.315165042877197266e+00 -2.599674701690673828e+00 5.638828873634338379e-02 1.443777885288000107e-02 2.124782092869281769e-02 9.262336790561676025e-02
1.228000000000000000e+03 7.469891548156738281e+00 -2.623051881790161133e+00 1.060013100504875183e-01 -5.783434025943279266e-03 3.006536327302455902e-02 1.004002317786216736e-01
1.229000000000000000e+03 3.990617990493774414e+00 -3.158164978027343750e+00 3.485149890184402466e-02 2.371050789952278137e-02 1.756860315799713135e-02 9.769561141729354858e-02
1.230000000000000000e+03 8.241839408874511719e+00 -2.614602327346801758e+00 1.164968684315681458e-01 -9.400812909007072449e-03 3.212881460785865784e-02 9.553752839565277100e-02
1.231000000000000000e+03 6.690970420837402344e+00 -2.642128944396972656e+00 9.253139793872833252e-02 2.531598729547113180e-04 2.783536724746227264e-02 1.029356345534324646e-01
1.232000000000000000e+03 3.651241302490234375e+00 -2.563429594039916992e+00 4.737434536218643188e-02 2.228631637990474701e-02 2.089819870889186859e-02 8.294317126274108887e-02
1.233000000000000000e+03 2.980354547500610352e+00 -2.741114139556884766e+00 3.425246849656105042e-02 2.791821770370006561e-02 1.865120604634284973e-02 7.670205086469650269e-02
1.234000000000000000e+03 4.116955399513244629e-01 -2.188864707946777344e+00 3.819994395598769188e-03 2.639394253492355347e-02 9.064180776476860046e-03 1.111803948879241943e-02
1.235000000000000000e+03 5.884990096092224121e-01 -5.052299499511718750e+00 -6.115443538874387741e-04 1.376045197248458862e-01 4.109789058566093445e-02 2.552973292768001556e-02
1.236000000000000000e+03 3.115050125122070312e+01 -1.628760814666748047e+00 -2.815655946731567383e+00 2.945578396320343018e-01 -7.563294172286987305e-01 -3.165479302406311035e-01
1.237000000000000000e+03 3.231187820434570312e+01 -2.532297611236572266e+00 -2.407742261886596680e+00 -8.272401243448257446e-02 -7.471398711204528809e-01 -4.112196266651153564e-01
1.238000000000000000e+03 3.476649856567382812e+01 -2.885539770126342773e+00 -2.300072669982910156e+00 4.445138275623321533e-01 -5.566676259040832520e-01 3.748754858970642090e-01
1.239000000000000000e+03 3.304074478149414062e+01 -3.851210832595825195e+00 -1.672522187232971191e+00 3.396348655223846436e-01 -3.998661935329437256e-01 -1.378309279680252075e-01
1.240000000000000000e+03 3.581486892700195312e+01 -1.312148451805114746e+00 -2.308841228485107422e+00 3.713442981243133545e-01 -5.812490582466125488e-01 2.074678391218185425e-01
1.241000000000000000e+03 3.556252670288085938e+01 -2.157054185867309570e+00 -2.416328668594360352e+00 5.037347078323364258e-01 -5.737782120704650879e-01 3.753575682640075684e-01
1.242000000000000000e+03 3.566604995727539062e+01 -2.725260257720947266e+00 -2.325429201126098633e+00 6.056009531021118164e-01 -5.159484744071960449e-01 4.042681753635406494e-01
1.243000000000000000e+03 1.825973701477050781e+01 -2.303082466125488281e+00 -9.640350192785263062e-02 -9.050174802541732788e-02 -5.607157573103904724e-02 -2.599957585334777832e-01
1.244000000000000000e+03 1.760801124572753906e+01 -3.121337175369262695e+00 -1.468232423067092896e-01 -1.379141062498092651e-01 -8.542120456695556641e-02 -2.881814539432525635e-01
1.245000000000000000e+03 1.669253158569335938e+01 -2.424756288528442383e+00 4.115641117095947266e-03 -8.914408832788467407e-02 -2.550853416323661804e-02 -1.854553073644638062e-01
1.246000000000000000e+03 1.747551727294921875e+01 -2.370543956756591797e+00 -4.706924036145210266e-02 -9.239450097084045410e-02 -4.183912277221679688e-02 -2.227127552032470703e-01
1.247000000000000000e+03 7.126010894775390625e+01 -1.454332733154296875e+01 -3.468616008758544922e-01 4.915830492973327637e-02 -8.931098878383636475e-02 -1.896680891513824463e-02
1.248000000000000000e+03 7.203314971923828125e+01 -1.384155845642089844e+01 -3.597635626792907715e-01 5.200002714991569519e-02 -9.232906252145767212e-02 -9.910240024328231812e-02
1.249000000000000000e+03 7.128492736816406250e+01 -1.389440727233886719e+01 -4.230477213859558105e-01 1.028518080711364746e-01 -9.605877846479415894e-02 -5.080891028046607971e-02
1.250000000000000000e+03 7.358370208740234375e+01 -1.372998428344726562e+01 -2.692586481571197510e-01 1.839634217321872711e-02 -7.525868713855743408e-02 -1.416268050670623779e-01
1.251000000000000000e+03 2.196274948120117188e+01 -8.742281198501586914e-01 -3.560393452644348145e-01 2.646278217434883118e-02 -9.887296706438064575e-02 -1.841046810150146484e-01
1.252000000000000000e+03 2.207019615173339844e+01 -1.436776638031005859e+00 -4.451172351837158203e-01 1.542549580335617065e-02 -1.289075314998626709e-01 -2.799333631992340088e-01
1.253000000000000000e+03 2.359169387817382812e+01 -1.054503083229064941e+00 -6.970412135124206543e-01 9.010485559701919556e-02 -1.820809096097946167e-01 -2.284959256649017334e-01
1.254000000000000000e+03 1.981683921813964844e+01 -2.077799081802368164e+00 -2.222532182931900024e-01 -6.607127189636230469e-02 -8.649734407663345337e-02 -3.006241619586944580e-01
1.255000000000000000e+03 2.058362007141113281e+01 -1.901263952255249023e+00 -2.946349680423736572e-01 -4.684137180447578430e-02 -1.024428978562355042e-01 -3.069387376308441162e-01
1.256000000000000000e+03 2.349620819091796875e+01 -1.754256248474121094e+00 -7.554016709327697754e-01 7.452569901943206787e-02 -2.042627930641174316e-01 -3.650342822074890137e-01
1.257000000000000000e+03 6.913934326171875000e+01 -1.870967674255371094e+01 5.539956619031727314e-04 6.854335078969597816e-04 3.718287625815719366e-04 1.163445340353064239e-04
1.258000000000000000e+03 6.999918365478515625e+01 -2.025218009948730469e+01 1.580462791025638580e-03 -1.548486325191333890e-04 4.276842519175261259e-04 -1.137871149694547057e-04
1.259000000000000000e+03 6.903630828857421875e+01 -1.964501762390136719e+01 -7.091530133038759232e-04 9.739747620187699795e-04 7.944651588331907988e-05 1.298390678130090237e-03
1.260000000000000000e+03 3.697793960571289062e+01 3.458353519439697266e+00 -9.924828191287815571e-05 -7.157772779464721680e-04 -2.445076534058898687e-04 4.396500880829989910e-04
1.261000000000000000e+03 4.506974792480468750e+01 -1.807375907897949219e+01 3.179577350616455078e+00 6.987784862518310547e+00 3.050208568572998047e+00 2.407517671585083008e+00
1.262000000000000000e+03 2.325385284423828125e+01 -2.429435968399047852e+00 -7.946447134017944336e-01 3.729763999581336975e-02 -2.272041290998458862e-01 -5.177432298660278320e-01
1.263000000000000000e+03 2.429021453857421875e+01 -2.886868476867675781e+00 -9.086042046546936035e-01 -2.144617214798927307e-02 -2.790150940418243408e-01 -6.937402486801147461e-01
1.264000000000000000e+03 5.726162719726562500e+01 2.348916625976562500e+01 1.052194476127624512e+00 6.513039469718933105e-01 5.110495090484619141e-01 -1.089740157127380371e+00
1.265000000000000000e+03 3.435322570800781250e+01 -9.654623031616210938e+00 9.956634640693664551e-01 1.164002060890197754e+00 6.478996276855468750e-01 -9.150874614715576172e-01
1.266000000000000000e+03 3.352073669433593750e+01 -1.067737388610839844e+01 1.644575476646423340e+00 2.095878601074218750e+00 1.122136235237121582e+00 -1.646162629127502441e+00
1.267000000000000000e+03 6.789467620849609375e+01 -1.277072620391845703e+01 -9.875539541244506836e-01 1.496928483247756958e-01 -2.513583302497863770e-01 1.838680505752563477e-01
1.268000000000000000e+03 7.830199432373046875e+01 -2.024751663208007812e+01 -1.611476182006299496e-03 2.143846941180527210e-04 -4.191274638287723064e-04 -6.615979946218430996e-04
1.269000000000000000e+03 7.938238525390625000e+01 -2.546938323974609375e+01 1.404161914251744747e-03 4.398172895889729261e-04 5.531937349587678909e-04 3.221053921151906252e-04
1.270000000000000000e+03 7.809748840332031250e+01 -3.083575248718261719e+01 -3.273830981925129890e-03 -8.275560103356838226e-03 -3.464817302301526070e-03 4.899388644844293594e-03
1.271000000000000000e+03 7.936065673828125000e+01 -2.953243446350097656e+01 -2.636007266119122505e-03 -4.980512429028749466e-03 -2.284955931827425957e-03 1.537987263873219490e-03
1.272000000000000000e+03 7.912971496582031250e+01 -3.635324859619140625e+01 1.855727750808000565e-03 -2.622049860656261444e-02 -7.309431210160255432e-03 2.566035604104399681e-03
1.273000000000000000e+03 7.930912017822265625e+01 -3.360320281982421875e+01 2.296137623488903046e-03 -1.736995391547679901e-02 -4.522145260125398636e-03 2.675090683624148369e-03
1.274000000000000000e+03 7.798179626464843750e+01 -3.346677780151367188e+01 -3.451032796874642372e-03 -1.432327646762132645e-02 -5.332292523235082626e-03 6.383817177265882492e-03
1.275000000000000000e+03 7.824732971191406250e+01 -2.407697868347167969e+01 1.241990015842020512e-03 -6.930223025847226381e-05 3.518063458614051342e-04 3.305131685920059681e-04
1.276000000000000000e+03 7.805023193359375000e+01 -2.813188743591308594e+01 -3.002585843205451965e-03 -3.452091477811336517e-03 -1.936403219588100910e-03 3.162267617881298065e-03
1.277000000000000000e+03 7.752282714843750000e+01 -3.929470062255859375e+01 5.219258600845932961e-04 -3.000367619097232819e-02 -8.844524621963500977e-03 4.106553737074136734e-03
1.278000000000000000e+03 2.944269752502441406e+01 -6.869965076446533203e+00 -3.758248640224337578e-03 4.861948490142822266e-01 1.447309851646423340e-01 -1.044475913047790527e+00
1.279000000000000000e+03 3.039151382446289062e+01 -8.294082641601562500e+00 2.069532394409179688e+00 8.091141581535339355e-01 8.635939955711364746e-01 -1.134359240531921387e+00
1.280000000000000000e+03 4.258428192138671875e+01 1.378297615051269531e+01 -3.806332498788833618e-02 -1.795194111764431000e-02 -1.680457964539527893e-02 -2.938402071595191956e-02
1.281000000000000000e+03 4.119355010986328125e+01 1.413676166534423828e+01 -6.112660095095634460e-02 1.073470897972583771e-02 -1.511756796389818192e-02 -1.554473023861646652e-02
1.282000000000000000e+03 3.708659744262695312e+01 7.792896270751953125e+00 2.461005933582782745e-03 -9.576628799550235271e-04 4.510029393713921309e-04 3.343400894664227962e-04
1.283000000000000000e+03 3.833518981933593750e+01 6.169850349426269531e+00 -1.444184104911983013e-03 -1.218979828990995884e-03 -7.989492150954902172e-04 2.123034326359629631e-03
1.284000000000000000e+03 4.683223342895507812e+01 2.140986633300781250e+01 -8.158760517835617065e-02 1.174610294401645660e-02 -2.095245011150836945e-02 -1.450373791158199310e-02
1.285000000000000000e+03 5.127224349975585938e+01 2.217856597900390625e+01 3.648372739553451538e-02 -4.337448999285697937e-02 -2.067227847874164581e-03 -1.026981547474861145e-01
1.286000000000000000e+03 4.433933258056640625e+01 1.771902275085449219e+01 -1.249258369207382202e-01 -4.403928178362548351e-04 -3.760986775159835815e-02 -3.397537395358085632e-02
1.287000000000000000e+03 3.899057006835937500e+01 1.006822204589843750e+01 -5.647573620080947876e-03 -1.856980728916823864e-03 -2.251366386190056801e-03 3.592973225750029087e-04
1.288000000000000000e+03 4.875839233398437500e+01 2.084142303466796875e+01 -1.327886283397674561e-01 -3.299822658300399780e-02 -4.973605647683143616e-02 -5.146839097142219543e-02
1.289000000000000000e+03 4.646135330200195312e+01 1.921141242980957031e+01 -1.568690836429595947e-01 -1.738515123724937439e-02 -5.227626860141754150e-02 -4.701936617493629456e-02
1.290000000000000000e+03 4.538299560546875000e+01 1.842561149597167969e+01 -1.355119198560714722e-01 6.094361655414104462e-03 -3.882526978850364685e-02 -5.072696879506111145e-02
1.291000000000000000e+03 1.802575492858886719e+01 -1.177506637573242188e+01 -2.263040781021118164e+00 -7.102701663970947266e-01 -8.919932842254638672e-01 -1.020036935806274414e+00
1.292000000000000000e+03 6.023609542846679688e+01 2.125904846191406250e+01 2.909631967544555664e+00 3.486175298690795898e+00 1.918742179870605469e+00 -2.484562397003173828e+00
1.293000000000000000e+03 6.266705703735351562e+01 2.614084434509277344e+01 -1.843233853578567505e-01 2.646952629089355469e+00 7.387887835502624512e-01 -3.349452912807464600e-01
1.294000000000000000e+03 2.971309661865234375e+01 -7.639557838439941406e+00 1.038513541221618652e+00 5.590383410453796387e-01 4.792655706405639648e-01 -8.453021645545959473e-01
1.295000000000000000e+03 3.702737808227539062e+01 -2.453087997436523438e+01 7.281891107559204102e-01 6.333483457565307617e-01 4.084612429141998291e-01 9.832804203033447266e-01
1.296000000000000000e+03 2.596192550659179688e+01 -3.012450790405273438e+01 1.177518844604492188e+00 1.206596642732620239e-01 3.894535601139068604e-01 -4.826667532324790955e-02
1.297000000000000000e+03 1.430503749847412109e+01 -1.232467937469482422e+01 -1.121692419052124023e+00 -8.039793968200683594e-01 -5.777015686035156250e-01 -5.598169565200805664e-01
1.298000000000000000e+03 2.185798454284667969e+01 -9.796236038208007812e+00 -1.045989274978637695e+00 -1.408404856920242310e-01 -3.560489416122436523e-01 -5.628122091293334961e-01
1.299000000000000000e+03 1.818773651123046875e+01 -9.686076164245605469e+00 -1.077834725379943848e+00 -6.980076432228088379e-01 -5.327526926994323730e-01 -7.318500876426696777e-01
1.300000000000000000e+03 1.643950462341308594e+01 -1.114737606048583984e+01 -1.375579714775085449e+00 -9.023132920265197754e-01 -6.833679080009460449e-01 -5.830600857734680176e-01
1.301000000000000000e+03 2.788794898986816406e+01 -3.242195892333984375e+01 8.262727856636047363e-01 4.937461018562316895e-01 3.960056602954864502e-01 8.528395742177963257e-02
1.302000000000000000e+03 3.662229919433593750e+01 -1.915226554870605469e+01 1.476600766181945801e-01 -4.142725765705108643e-01 -7.998375594615936279e-02 8.823552727699279785e-02
1.303000000000000000e+03 2.605873870849609375e+01 -7.945605754852294922e+00 -3.298764228820800781e-01 -3.597333431243896484e-01 -2.068829387426376343e-01 -6.040643453598022461e-01
1.304000000000000000e+03 2.680710792541503906e+01 -8.732528686523437500e+00 -5.078718066215515137e-01 -2.965584397315979004e-01 -2.413290590047836304e-01 -4.311295747756958008e-01
1.305000000000000000e+03 2.130198097229003906e+01 -3.107303237915039062e+01 7.744451761245727539e-01 5.965462923049926758e-01 4.112974405288696289e-01 -3.804293274879455566e-01
1.306000000000000000e+03 2.243805122375488281e+01 -3.194528198242187500e+01 7.963772416114807129e-01 6.140434145927429199e-01 4.231262207031250000e-01 -3.545626997947692871e-01
1.307000000000000000e+03 2.064714622497558594e+01 -9.993160247802734375e+00 -1.280574440956115723e+00 -2.379454970359802246e-01 -4.555559754371643066e-01 -6.844320297241210938e-01
1.308000000000000000e+03 3.630976867675781250e+01 -1.273532104492187500e+01 1.113843321800231934e+00 3.172850608825683594e-01 4.293385148048400879e-01 -1.381432414054870605e+00
1.309000000000000000e+03 3.643294143676757812e+01 -1.521049785614013672e+01 4.657231867313385010e-01 6.939741224050521851e-02 1.605361849069595337e-01 -9.381099343299865723e-01
1.310000000000000000e+03 2.080122375488281250e+01 -1.125474262237548828e+01 -1.345767498016357422e+00 -5.957337096333503723e-02 -4.216022491455078125e-01 -4.065806865692138672e-01
1.311000000000000000e+03 3.225248336791992188e+01 -8.228815078735351562e+00 1.045819759368896484e+00 1.260772705078125000e+00 6.919777393341064453e-01 -9.236139059066772461e-01
1.312000000000000000e+03 3.137509727478027344e+01 -2.814291763305664062e+01 9.245874285697937012e-01 6.921767592430114746e-01 4.850292503833770752e-01 6.833126544952392578e-01
1.313000000000000000e+03 3.651165771484375000e+01 -1.781606864929199219e+01 1.768042892217636108e-01 -4.500987231731414795e-01 -8.198833465576171875e-02 -1.737035810947418213e-01
1.314000000000000000e+03 1.423490428924560547e+01 -2.321393203735351562e+01 6.379700303077697754e-01 4.203496277332305908e-01 3.174958825111389160e-01 -5.377345681190490723e-01
1.315000000000000000e+03 1.498240566253662109e+01 -2.456261634826660156e+01 6.654875874519348145e-01 5.482836365699768066e-01 3.641313612461090088e-01 -5.943585634231567383e-01
1.316000000000000000e+03 1.901241874694824219e+01 -2.913876533508300781e+01 8.109230995178222656e-01 6.080489754676818848e-01 4.256916344165802002e-01 -5.709978342056274414e-01
1.317000000000000000e+03 1.593413639068603516e+01 -2.577761650085449219e+01 7.191545963287353516e-01 6.037747263908386230e-01 3.968788087368011475e-01 -5.923553109169006348e-01
1.318000000000000000e+03 2.515818405151367188e+01 -8.528368949890136719e+00 -5.977737307548522949e-01 -2.763593494892120361e-01 -2.622399032115936279e-01 -5.090071558952331543e-01
1.319000000000000000e+03 3.765698623657226562e+01 -1.411204147338867188e+01 1.006193995475769043e+00 2.857035100460052490e-01 3.875692486763000488e-01 -1.325353264808654785e+00
1.320000000000000000e+03 2.490996170043945312e+01 -3.211993408203125000e+01 8.339890837669372559e-01 4.630243480205535889e-01 3.891040384769439697e-01 -2.670852243900299072e-01
1.321000000000000000e+03 3.529638671875000000e+01 -2.684806632995605469e+01 7.704507708549499512e-01 7.254934310913085938e-01 4.487832486629486084e-01 7.914767861366271973e-01
1.322000000000000000e+03 1.691000175476074219e+01 -2.693187141418457031e+01 7.102354168891906738e-01 6.368086338043212891e-01 4.041132032871246338e-01 -6.018832921981811523e-01
1.323000000000000000e+03 1.468860626220703125e+01 -2.696866226196289062e+01 5.791081190109252930e-01 3.347296118736267090e-01 2.741513252258300781e-01 -4.540525972843170166e-01
1.324000000000000000e+03 5.029196548461914062e+01 -1.497799301147460938e+01 5.420676708221435547e+00 7.557930946350097656e-01 1.852940917015075684e+00 1.705080389976501465e+00
1.325000000000000000e+03 4.714542770385742188e+01 -1.456070899963378906e+01 3.264283418655395508e+00 3.221297025680541992e+00 1.945674180984497070e+00 1.772297382354736328e+00
1.326000000000000000e+03 5.405386734008789062e+01 -5.619456768035888672e+00 -1.566917181015014648e+00 2.223921537399291992e+00 1.971012800931930542e-01 1.510778427124023438e+00
1.327000000000000000e+03 5.267570877075195312e+01 -4.811045646667480469e+00 -1.291275858879089355e+00 1.114315867424011230e+00 -5.308802053332328796e-02 7.453621029853820801e-01
1.328000000000000000e+03 7.776611328125000000e+01 3.457965469360351562e+01 -3.107839450240135193e-02 -8.728023767471313477e-01 -2.711642384529113770e-01 2.243150919675827026e-01
1.329000000000000000e+03 7.921264648437500000e+01 3.054009437561035156e+01 -5.189691437408328056e-04 -1.617910623550415039e+00 -4.855288863182067871e-01 1.287442892789840698e-01
1.330000000000000000e+03 7.773065185546875000e+01 2.901965141296386719e+01 -2.655699476599693298e-02 -1.453477382659912109e+00 -4.440103173255920410e-01 3.704314529895782471e-01
1.331000000000000000e+03 7.785324096679687500e+01 2.760738372802734375e+01 -2.519960515201091766e-02 -1.687787175178527832e+00 -5.138960480690002441e-01 3.831841945648193359e-01
1.332000000000000000e+03 7.677262878417968750e+01 5.139946937561035156e+00 5.720609426498413086e-02 -2.020681858062744141e+00 -5.890427827835083008e-01 -4.832578003406524658e-01
1.333000000000000000e+03 7.932538604736328125e+01 8.126556396484375000e+00 2.884592686314135790e-05 -3.771439790725708008e+00 -1.131423354148864746e+00 -7.451745867729187012e-02
1.334000000000000000e+03 7.822849273681640625e+01 -8.550418853759765625e+00 -2.713438495993614197e-02 -4.347925782203674316e-01 -1.385780870914459229e-01 -2.394880354404449463e-01
1.335000000000000000e+03 7.824368286132812500e+01 -9.886946678161621094e+00 -4.193149879574775696e-02 -2.888639867305755615e-01 -9.923864901065826416e-02 -1.876110583543777466e-01
1.336000000000000000e+03 7.937411499023437500e+01 1.116608619689941406e+00 6.300833076238632202e-03 -2.458110809326171875e+00 -7.355430126190185547e-01 -1.275649815797805786e-01
1.337000000000000000e+03 7.933734893798828125e+01 1.235185623168945312e+01 1.488393638283014297e-02 -4.140127182006835938e+00 -1.237573027610778809e+00 -1.386591978371143341e-02
1.338000000000000000e+03 7.935498809814453125e+01 1.376100826263427734e+01 9.804917499423027039e-03 -4.168459892272949219e+00 -1.247596502304077148e+00 1.241164375096559525e-02
1.339000000000000000e+03 7.936614990234375000e+01 1.936338996887207031e+01 8.619615808129310608e-03 -3.729192733764648438e+00 -1.116171956062316895e+00 9.907682240009307861e-02
1.340000000000000000e+03 7.932496643066406250e+01 2.354295730590820312e+01 2.556735649704933167e-03 -2.979068756103515625e+00 -8.929536342620849609e-01 1.391386091709136963e-01
1.341000000000000000e+03 7.930394744873046875e+01 2.632485580444335938e+01 -1.748980605043470860e-03 -2.401774168014526367e+00 -7.210569381713867188e-01 1.444070339202880859e-01
1.342000000000000000e+03 7.793865203857421875e+01 2.485297775268554688e+01 -1.963727641850709915e-03 -2.152026653289794922e+00 -6.461971402168273926e-01 3.881016671657562256e-01
1.343000000000000000e+03 7.922976684570312500e+01 3.331925582885742188e+01 -3.368481760844588280e-03 -1.227251172065734863e+00 -3.691858947277069092e-01 9.385188668966293335e-02
1.344000000000000000e+03 7.755783081054687500e+01 3.186254310607910156e+01 -3.684301301836967468e-02 -1.111835241317749023e+00 -3.446034491062164307e-01 3.146988153457641602e-01
1.345000000000000000e+03 7.923673248291015625e+01 3.744312286376953125e+01 2.714624395594000816e-03 -7.929343581199645996e-01 -2.370659112930297852e-01 6.387861818075180054e-02
1.346000000000000000e+03 7.782070922851562500e+01 3.590421295166015625e+01 -3.516855463385581970e-02 -7.867380380630493164e-01 -2.465719878673553467e-01 1.891625523567199707e-01
1.347000000000000000e+03 7.749504089355468750e+01 3.815908813476562500e+01 -1.912444271147251129e-02 -6.078352332115173340e-01 -1.880878955125808716e-01 1.686718761920928955e-01
1.348000000000000000e+03 7.808587646484375000e+01 1.936302757263183594e+01 3.875235095620155334e-02 -2.976981401443481445e+00 -8.814687132835388184e-01 2.541425228118896484e-01
1.349000000000000000e+03 7.935077667236328125e+01 2.076108169555664062e+01 6.780866999179124832e-03 -3.506549119949340820e+00 -1.049930453300476074e+00 1.161885708570480347e-01
1.350000000000000000e+03 7.810443878173828125e+01 1.520343875885009766e+01 4.697846993803977966e-02 -3.295054912567138672e+00 -9.744228720664978027e-01 9.193553775548934937e-02
1.351000000000000000e+03 7.937825012207031250e+01 1.656696891784667969e+01 5.460541229695081711e-03 -4.048856735229492188e+00 -1.213018894195556641e+00 6.035539135336875916e-02
1.352000000000000000e+03 7.797217559814453125e+01 8.075118064880371094e+00 5.390808358788490295e-02 -2.957734584808349609e+00 -8.711479902267456055e-01 -2.395629733800888062e-01
1.353000000000000000e+03 7.931926727294921875e+01 9.535602569580078125e+00 1.700008474290370941e-02 -3.937250375747680664e+00 -1.176075100898742676e+00 -5.706371366977691650e-02
1.354000000000000000e+03 7.811890411376953125e+01 1.077820897102355957e+00 8.773106150329113007e-03 -2.007781267166137695e+00 -5.997024178504943848e-01 -3.836479187011718750e-01
1.355000000000000000e+03 7.937022399902343750e+01 2.512317895889282227e+00 9.206694085150957108e-04 -2.765750885009765625e+00 -8.294490575790405273e-01 -1.214718893170356750e-01
1.356000000000000000e+03 7.813507080078125000e+01 -5.847210884094238281e+00 -1.868072152137756348e-02 -8.009525537490844727e-01 -2.458899766206741333e-01 -3.346015512943267822e-01
1.357000000000000000e+03 7.937538909912109375e+01 -4.471407413482666016e+00 -3.451432276051491499e-04 -1.191703200340270996e+00 -3.576145172119140625e-01 -1.257612556219100952e-01
1.358000000000000000e+03 7.817809295654296875e+01 -7.203948497772216797e+00 -3.638604283332824707e-02 -6.065998077392578125e-01 -1.928957551717758179e-01 -2.900300323963165283e-01
1.359000000000000000e+03 7.948926544189453125e+01 -1.290295410156250000e+01 -7.892273366451263428e-03 -4.140513390302658081e-02 -1.478922180831432343e-02 -2.363642491400241852e-02
1.360000000000000000e+03 5.048794937133789062e+01 -5.574524402618408203e+00 -4.736769199371337891e+00 -4.886725451797246933e-03 -1.422496795654296875e+00 8.605406284332275391e-01
1.361000000000000000e+03 6.200325775146484375e+01 -3.066044044494628906e+01 -1.091752499341964722e-01 1.897356240078806877e-03 -3.218336775898933411e-02 1.517720520496368408e-02
1.362000000000000000e+03 5.975156021118164062e+01 -3.020886421203613281e+01 -1.589365452527999878e-01 -3.153334930539131165e-02 -5.714096501469612122e-02 -4.904111381620168686e-03
1.363000000000000000e+03 5.778706741333007812e+01 -3.309711074829101562e+01 -5.863421410322189331e-02 -2.584825083613395691e-02 -2.534473873674869537e-02 3.930615633726119995e-02
1.364000000000000000e+03 4.932901382446289062e+01 -3.108099746704101562e+01 4.935141652822494507e-02 5.985239744186401367e-01 1.943626254796981812e-01 -4.056291878223419189e-01
1.365000000000000000e+03 4.965748596191406250e+01 -2.959680938720703125e+01 1.254356205463409424e-01 3.851551711559295654e-01 1.531772464513778687e-01 -2.452026903629302979e-01
1.366000000000000000e+03 5.029106521606445312e+01 -3.302879333496093750e+01 -2.127415314316749573e-02 5.598194003105163574e-01 1.615635752677917480e-01 -3.469708561897277832e-01
1.367000000000000000e+03 4.173131179809570312e+01 -2.295466041564941406e+01 7.589264512062072754e-01 3.085336685180664062e+00 1.153278946876525879e+00 1.063662290573120117e+00
1.368000000000000000e+03 4.647705459594726562e+01 -3.248727798461914062e+01 -1.598163098096847534e-01 1.488365173339843750e+00 3.985646665096282959e-01 -2.165367305278778076e-01
1.369000000000000000e+03 6.897965240478515625e+01 -2.414237594604492188e+01 -5.359574686735868454e-03 1.445713918656110764e-03 -1.174158183857798576e-03 -6.847123731859028339e-04
1.370000000000000000e+03 6.766169738769531250e+01 -2.301641845703125000e+01 3.985464107245206833e-03 9.048089268617331982e-04 1.467081950977444649e-03 -4.889508127234876156e-04
1.371000000000000000e+03 5.611441421508789062e+01 -3.291888427734375000e+01 -7.127774506807327271e-02 3.430242091417312622e-02 -1.109259761869907379e-02 2.388982474803924561e-02
1.372000000000000000e+03 5.797494506835937500e+01 -1.300263881683349609e+01 -2.295406460762023926e-01 3.859860301017761230e-01 4.693360999226570129e-02 5.807422399520874023e-01
1.373000000000000000e+03 5.677473831176757812e+01 -1.330125904083251953e+01 2.147603332996368408e-01 2.729524374008178711e-01 1.463138312101364136e-01 7.959287166595458984e-01
1.374000000000000000e+03 6.317283630371093750e+01 -2.982983970642089844e+01 -6.778530031442642212e-02 9.771332144737243652e-03 -1.740419119596481323e-02 -8.614273741841316223e-03
1.375000000000000000e+03 6.546163177490234375e+01 -2.777575492858886719e+01 -2.790853939950466156e-02 6.753296125680208206e-03 -6.346573121845722198e-03 -7.847160100936889648e-03
1.376000000000000000e+03 5.158935928344726562e+01 -1.492367649078369141e+01 3.921744346618652344e+00 2.120805084705352783e-01 1.240147471427917480e+00 1.057916879653930664e+00
1.377000000000000000e+03 4.959618759155273438e+01 -1.313597488403320312e+01 2.208853721618652344e+00 1.667676210403442383e+00 1.162958979606628418e+00 2.182009696960449219e+00
1.378000000000000000e+03 5.456553649902343750e+01 -1.366508388519287109e+01 1.384129285812377930e+00 3.444584906101226807e-01 5.185763239860534668e-01 1.272148728370666504e+00
1.379000000000000000e+03 7.095595550537109375e+01 -2.094525337219238281e+01 -2.560603432357311249e-03 -3.123818314634263515e-04 -8.618955616839230061e-04 2.357917692279443145e-04
1.380000000000000000e+03 5.295896911621093750e+01 -1.476878356933593750e+01 2.925924301147460938e+00 2.329336702823638916e-01 9.476573467254638672e-01 8.995149135589599609e-01
1.381000000000000000e+03 5.564018630981445312e+01 -1.356905746459960938e+01 7.707095146179199219e-01 3.329801559448242188e-01 3.311069011688232422e-01 9.414471983909606934e-01
1.382000000000000000e+03 4.406169509887695312e+01 -2.063662338256835938e+01 1.061520457267761230e+00 5.772651195526123047e+00 2.050251483917236328e+00 1.517314791679382324e+00
1.383000000000000000e+03 4.533087921142578125e+01 -2.056917190551757812e+01 1.150397062301635742e-01 7.212838649749755859e+00 2.198363542556762695e+00 5.624197721481323242e-01
1.384000000000000000e+03 6.380695724487304688e+01 1.832362937927246094e+01 1.572858572006225586e+00 5.323484420776367188e+00 2.068902969360351562e+00 -8.298898935317993164e-01
1.385000000000000000e+03 4.601137924194335938e+01 -5.829801559448242188e+00 -4.770743370056152344e+00 -2.584224939346313477e-01 -1.508749723434448242e+00 9.848836660385131836e-01
1.386000000000000000e+03 1.792379260063171387e+00 2.618773078918457031e+01 -7.296021794900298119e-04 -2.316294936463236809e-03 -9.137690649367868900e-04 1.994879683479666710e-03
1.387000000000000000e+03 2.552533388137817383e+00 3.474453735351562500e+01 2.961176796816289425e-04 -1.558433566242456436e-02 -4.586465656757354736e-03 4.209742415696382523e-03
1.388000000000000000e+03 6.821421980857849121e-01 3.186690330505371094e+01 2.122768491972237825e-04 -1.053835824131965637e-02 -3.097824286669492722e-03 1.467001391574740410e-03
1.389000000000000000e+03 3.067879438400268555e+00 3.883639144897460938e+01 7.666010060347616673e-04 -1.985081285238265991e-02 -5.725263617932796478e-03 2.868322888389229774e-03
1.390000000000000000e+03 7.410558462142944336e-01 3.874386596679687500e+01 -8.316680905409157276e-04 -2.136055752635002136e-02 -6.657667923718690872e-03 6.423632730729877949e-04
1.391000000000000000e+03 3.396999835968017578e+00 -3.694947433471679688e+01 4.131576046347618103e-02 -1.508991837501525879e+00 -4.403028190135955811e-01 1.580063812434673309e-02
1.392000000000000000e+03 1.749615907669067383e+00 2.343313407897949219e+01 -6.766674341633915901e-04 -7.030996493995189667e-05 -2.240932080894708633e-04 9.021362639032304287e-04
1.393000000000000000e+03 1.907449007034301758e+00 3.037311744689941406e+01 1.759393780957907438e-04 -8.217989467084407806e-03 -2.412614878267049789e-03 3.437360282987356186e-03
1.394000000000000000e+03 6.258450746536254883e-01 -3.046076011657714844e+01 7.410062011331319809e-03 -1.823508739471435547e+00 -5.448296070098876953e-01 -1.896705105900764465e-02
1.395000000000000000e+03 5.769653916358947754e-01 -6.494363784790039062e+00 -4.180813208222389221e-03 1.951760500669479370e-01 5.729857087135314941e-02 1.992115378379821777e-02
1.396000000000000000e+03 6.792306900024414062e-01 -1.074641323089599609e+01 -7.013432215899229050e-03 2.141836881637573242e-01 6.215107813477516174e-02 -2.073025330901145935e-02
1.397000000000000000e+03 6.463243961334228516e-01 -1.216143989562988281e+01 -1.081899181008338928e-02 1.519818305969238281e-01 4.234885051846504211e-02 -3.943744674324989319e-02
1.398000000000000000e+03 6.222394704818725586e-01 -1.356785583496093750e+01 -4.704826977103948593e-03 4.504015296697616577e-02 1.210059691220521927e-02 -5.759933218359947205e-02
1.399000000000000000e+03 6.332820653915405273e-01 -1.776668357849121094e+01 -2.660018159076571465e-03 -4.798949956893920898e-01 -1.447665095329284668e-01 -9.295074641704559326e-02
1.400000000000000000e+03 6.538413763046264648e-01 -1.917563819885253906e+01 -1.651740749366581440e-03 -6.913340687751770020e-01 -2.078957557678222656e-01 -9.802394360303878784e-02
1.401000000000000000e+03 6.772909164428710938e-01 -2.059341049194335938e+01 1.598933711647987366e-03 -9.020096063613891602e-01 -2.701232135295867920e-01 -9.828358888626098633e-02
1.402000000000000000e+03 6.950819492340087891e-01 -2.201650047302246094e+01 4.182616248726844788e-03 -1.100036740303039551e+00 -3.287562429904937744e-01 -9.268389642238616943e-02
1.403000000000000000e+03 7.015686631202697754e-01 -2.344076728820800781e+01 5.701299291104078293e-03 -1.280130028724670410e+00 -3.823285996913909912e-01 -8.289963006973266602e-02
1.404000000000000000e+03 2.044232130050659180e+00 -2.636780166625976562e+01 2.954439818859100342e-02 -1.351831912994384766e+00 -3.966862559318542480e-01 -1.564518362283706665e-01
1.405000000000000000e+03 2.022769212722778320e+00 -3.309121322631835938e+01 1.506882067769765854e-02 -1.628966212272644043e+00 -4.841692149639129639e-01 -2.742922119796276093e-02
1.406000000000000000e+03 2.138922929763793945e+00 -3.573940277099609375e+01 1.520350761711597443e-02 -1.653492212295532227e+00 -4.914866089820861816e-01 2.074173279106616974e-02
1.407000000000000000e+03 1.523924827575683594e+00 4.750379562377929688e+00 5.311339191393926740e-05 2.083968865917995572e-05 2.218592453573364764e-05 -6.804928125347942114e-05
1.408000000000000000e+03 1.717260837554931641e+00 2.206619071960449219e+01 3.568037936929613352e-05 6.277983193285763264e-04 1.990436139749363065e-04 5.107098841108381748e-04
1.409000000000000000e+03 5.677592754364013672e-01 1.922766685485839844e+01 -3.251523303333669901e-04 2.057650126516819000e-03 5.197493010200560093e-04 -1.097272543120197952e-04
1.410000000000000000e+03 5.795868039131164551e-01 1.782552909851074219e+01 2.661948674358427525e-04 1.800763304345309734e-03 6.200874340720474720e-04 -1.009794286801479757e-04
1.411000000000000000e+03 6.217430233955383301e-01 1.500535202026367188e+01 2.429704763926565647e-04 1.124808797612786293e-03 4.103337705601006746e-04 -1.210022674058564007e-04
1.412000000000000000e+03 6.238375902175903320e-01 1.075312614440917969e+01 -1.619765826035290956e-04 3.822225553449243307e-04 6.607379327761009336e-05 -8.069248724495992064e-05
1.413000000000000000e+03 6.607268452644348145e-01 7.880666732788085938e+00 -9.705779666546732187e-05 1.266238978132605553e-04 8.869830708135850728e-06 -3.248914799769409001e-05
1.414000000000000000e+03 3.502187252044677734e+00 -3.901313781738281250e+01 2.116263657808303833e-02 -1.553950667381286621e+00 -4.598363935947418213e-01 1.078168046660721302e-03
1.415000000000000000e+03 2.551955223083496094e+00 -3.801770019531250000e+01 3.707829490303993225e-02 -1.589935302734375000e+00 -4.658571183681488037e-01 3.923872485756874084e-02
1.416000000000000000e+03 1.940961837768554688e+00 -3.175953102111816406e+01 1.583668030798435211e-02 -1.611752510070800781e+00 -4.787747561931610107e-01 -4.086645320057868958e-02
1.417000000000000000e+03 2.102071046829223633e+00 -2.494728469848632812e+01 3.126452490687370300e-02 -1.238444089889526367e+00 -3.621538877487182617e-01 -1.976712346076965332e-01
1.418000000000000000e+03 6.941962838172912598e-01 -2.486235618591308594e+01 7.609506603330373764e-03 -1.437006831169128418e+00 -4.288192093372344971e-01 -6.981279700994491577e-02
1.419000000000000000e+03 6.146351099014282227e-01 -1.496683692932128906e+01 -6.407841108739376068e-03 -1.013606414198875427e-01 -3.233054280281066895e-02 -7.035794109106063843e-02
1.420000000000000000e+03 2.808775186538696289e+00 -6.654783248901367188e+00 -3.485837578773498535e-02 8.429858833551406860e-02 1.483206450939178467e-02 6.000740081071853638e-02
1.421000000000000000e+03 6.163238883018493652e-01 -7.907882690429687500e+00 -4.568859469145536423e-03 2.316748052835464478e-01 6.813178211450576782e-02 9.414978325366973877e-03
1.422000000000000000e+03 1.457641720771789551e+00 -3.344110965728759766e+00 7.329856976866722107e-03 6.311076134443283081e-02 2.113218419253826141e-02 5.355770513415336609e-02
1.423000000000000000e+03 1.887792229652404785e+00 1.373875617980957031e+01 2.883395354729145765e-04 5.157975829206407070e-04 2.412411413388326764e-04 -2.973831142298877239e-04
1.424000000000000000e+03 4.227589797973632812e+01 -4.968848228454589844e+00 -3.413476467132568359e+00 -4.341674447059631348e-01 -1.154293179512023926e+00 4.585046172142028809e-01
1.425000000000000000e+03 4.206561279296875000e+01 -6.223472118377685547e+00 -2.798691987991333008e+00 -8.366037905216217041e-02 -8.647056818008422852e-01 6.620113551616668701e-02
1.426000000000000000e+03 6.228993225097656250e+01 4.494350910186767578e+00 1.083158969879150391e+00 4.183581829071044922e+00 1.580022335052490234e+00 1.059941649436950684e+00
1.427000000000000000e+03 6.152257919311523438e+01 5.523767948150634766e+00 1.391027569770812988e+00 5.404156684875488281e+00 2.038555383682250977e+00 1.834093809127807617e+00
1.428000000000000000e+03 5.452304458618164062e+01 -2.786084890365600586e+00 1.099013686180114746e+00 1.969541192054748535e+00 9.205664992332458496e-01 1.592636466026306152e+00
1.429000000000000000e+03 5.820195007324218750e+01 -2.852871119976043701e-01 1.103385686874389648e+00 2.666299581527709961e+00 1.130905628204345703e+00 1.656166195869445801e+00
1.430000000000000000e+03 6.264866256713867188e+01 6.940689086914062500e+00 9.848493933677673340e-01 5.153942584991455078e+00 1.841637611389160156e+00 1.340264797210693359e+00
1.431000000000000000e+03 5.479448318481445312e+01 -4.592876911163330078e+00 -6.321243047714233398e-01 2.054568290710449219e+00 4.267331659793853760e-01 1.023645162582397461e+00
1.432000000000000000e+03 5.717167282104492188e+01 4.994618594646453857e-01 1.364295721054077148e+00 3.111930847167968750e+00 1.342867970466613770e+00 1.965652823448181152e+00
1.433000000000000000e+03 6.597016143798828125e+01 1.568893527984619141e+01 1.039372563362121582e+00 4.049884319305419922e+00 1.526777029037475586e+00 -1.921621412038803101e-01
1.434000000000000000e+03 6.069285202026367188e+01 2.867493391036987305e+00 9.101562500000000000e-01 4.002260684967041016e+00 1.473725080490112305e+00 1.553181290626525879e+00
1.435000000000000000e+03 5.563523101806640625e+01 -3.552403926849365234e+00 4.203931391239166260e-01 2.211589097976684570e+00 7.895946502685546875e-01 1.264288187026977539e+00
1.436000000000000000e+03 6.422425842285156250e+01 1.280462551116943359e+01 6.060456037521362305e-01 5.788295745849609375e+00 1.918302297592163086e+00 1.081871166825294495e-01
1.437000000000000000e+03 6.523063659667968750e+01 1.375574302673339844e+01 7.500588297843933105e-01 4.999931812286376953e+00 1.724997162818908691e+00 -6.774073094129562378e-02
1.438000000000000000e+03 6.730599212646484375e+01 -2.628343200683593750e+01 -1.538784801959991455e-02 2.496384084224700928e-03 -3.867439227178692818e-03 -6.639634724706411362e-03
1.439000000000000000e+03 6.557425689697265625e+01 -1.041315078735351562e+01 -1.254800677299499512e+00 -7.373943924903869629e-02 -3.985620439052581787e-01 -3.632453382015228271e-01
1.440000000000000000e+03 3.434980392456054688e+01 2.368281126022338867e+00 -1.383272348903119564e-03 -8.553782245144248009e-04 -6.715952185913920403e-04 1.151958131231367588e-03
1.441000000000000000e+03 3.443516540527343750e+01 3.330283641815185547e+00 -1.341033726930618286e-03 1.353983534500002861e-04 -3.616906178649514914e-04 -4.115893680136650801e-04
1.442000000000000000e+03 3.342398834228515625e+01 1.835299253463745117e+00 3.396244574105367064e-05 -1.007097016554325819e-04 -2.002417568292003125e-05 2.341901417821645737e-04
1.443000000000000000e+03 2.859544754028320312e+01 -1.894611835479736328e+00 -2.126489639282226562e+00 4.775678273290395737e-03 -6.365141868591308594e-01 -5.013508200645446777e-01
1.444000000000000000e+03 2.802636528015136719e+01 -2.005162239074707031e+00 -1.958416461944580078e+00 -5.832053720951080322e-02 -6.050211191177368164e-01 -5.510822534561157227e-01
1.445000000000000000e+03 2.939611053466796875e+01 -1.862870573997497559e+00 -2.286461591720581055e+00 9.814023971557617188e-02 -6.564964056015014648e-01 -4.381861686706542969e-01
1.446000000000000000e+03 3.071606445312500000e+01 -1.855973005294799805e+00 -2.571713209152221680e+00 2.811469733715057373e-01 -6.871699094772338867e-01 -3.841644227504730225e-01
1.447000000000000000e+03 2.740638542175292969e+01 -2.033794879913330078e+00 -1.798333406448364258e+00 -1.395439952611923218e-01 -5.813632607460021973e-01 -5.597407221794128418e-01
1.448000000000000000e+03 2.845290756225585938e+01 -2.122566938400268555e+00 -1.984220147132873535e+00 -1.435486786067485809e-02 -5.995724797248840332e-01 -5.508373379707336426e-01
1.449000000000000000e+03 2.781925964355468750e+01 -2.036202430725097656e+00 -1.899777531623840332e+00 -8.381883054971694946e-02 -5.950788855552673340e-01 -5.492097735404968262e-01
1.450000000000000000e+03 2.900054168701171875e+01 -2.194984436035156250e+00 -2.072526216506958008e+00 8.223211020231246948e-02 -5.970882177352905273e-01 -5.340192317962646484e-01
1.451000000000000000e+03 3.093642425537109375e+01 -1.914648175239562988e+00 -2.698293685913085938e+00 3.138641119003295898e-01 -7.153289318084716797e-01 -4.233357310295104980e-01
1.452000000000000000e+03 2.985533905029296875e+01 -2.132711648941040039e+00 -2.257483005523681641e+00 1.853446066379547119e-01 -6.216415166854858398e-01 -4.663368165493011475e-01
1.453000000000000000e+03 2.743690681457519531e+01 -2.290967941284179688e+00 -1.692120790481567383e+00 -1.252512484788894653e-01 -5.452116131782531738e-01 -6.227039098739624023e-01
1.454000000000000000e+03 2.561694526672363281e+01 -3.260621786117553711e+00 -1.046158671379089355e+00 -1.242911964654922485e-01 -3.511349856853485107e-01 -8.415213227272033691e-01
1.455000000000000000e+03 3.423394775390625000e+01 2.004910469055175781e+00 1.293712295591831207e-03 3.368123725522309542e-04 4.891573917120695114e-04 -7.743130554445087910e-04
1.456000000000000000e+03 2.359899139404296875e+01 2.245169830322265625e+01 -1.296141594648361206e-01 -9.783561341464519501e-03 -4.181931540369987488e-02 3.315218910574913025e-02
1.457000000000000000e+03 3.340242767333984375e+01 6.137468338012695312e+00 9.442687733098864555e-04 8.543833391740918159e-04 5.395956104621291161e-04 -6.832058716099709272e-05
1.458000000000000000e+03 3.505721282958984375e+01 6.152430534362792969e+00 4.817983062821440399e-05 -7.353381370194256306e-04 -2.061474951915442944e-04 4.030876443721354008e-04
1.459000000000000000e+03 2.330404663085937500e+01 2.302764701843261719e+01 -1.134779155254364014e-01 -1.492798142135143280e-02 -3.852177038788795471e-02 3.219561651349067688e-02
1.460000000000000000e+03 1.778710365295410156e+01 2.221508216857910156e+01 -4.008260741829872131e-02 -6.360161933116614819e-05 -1.204386260360479355e-02 -9.194586891680955887e-05
1.461000000000000000e+03 1.383721160888671875e+01 1.782158470153808594e+01 5.263741477392613888e-04 1.911453669890761375e-03 7.313483511097729206e-04 6.401597638614475727e-04
1.462000000000000000e+03 2.207781219482421875e+01 4.581342697143554688e+00 1.014217286865459755e-05 -2.247450720460619777e-05 -3.699700300785480067e-06 2.069830458140131668e-07
1.463000000000000000e+03 1.867879486083984375e+01 2.231231689453125000e+01 -5.028981342911720276e-02 -1.280833850614726543e-03 -1.547119393944740295e-02 8.730009431019425392e-04
1.464000000000000000e+03 1.816416931152343750e+01 7.582738399505615234e+00 1.875949601526372135e-05 2.272803430969361216e-05 1.244625855179037899e-05 6.219484203029423952e-05
1.465000000000000000e+03 1.864258003234863281e+01 7.031592369079589844e+00 4.404114952194504440e-05 4.661404818762093782e-05 2.719656004046555609e-05 4.608471135725267231e-05
1.466000000000000000e+03 1.896299171447753906e+01 6.744811534881591797e+00 -2.890982068493030965e-05 -5.292499554343521595e-05 -2.455044523230753839e-05 -3.141504930681549013e-05
1.467000000000000000e+03 2.142506217956542969e+01 3.996815443038940430e+00 2.421893441351130605e-05 5.112023427500389516e-05 2.260175097035244107e-05 -2.652161492733284831e-05
1.468000000000000000e+03 2.078936004638671875e+01 5.037255287170410156e+00 -9.446941476198844612e-06 -4.042557702632620931e-05 -1.496175536885857582e-05 -1.548802174511365592e-05
1.469000000000000000e+03 1.459369945526123047e+01 1.282403755187988281e+01 -2.957335673272609711e-04 6.558446912094950676e-04 1.080333386198617518e-04 -4.211160194245167077e-05
1.470000000000000000e+03 1.389653015136718750e+01 1.818213272094726562e+01 -3.940419992431998253e-04 1.771060284227132797e-03 4.131055029574781656e-04 6.096468423493206501e-04
1.471000000000000000e+03 3.259317398071289062e+01 1.600304222106933594e+01 -2.662431634962558746e-02 -2.526747621595859528e-02 -1.556753739714622498e-02 3.390554711222648621e-02
1.472000000000000000e+03 1.588631629943847656e+01 9.767296791076660156e+00 1.238518016180023551e-04 1.393730344716459513e-04 7.896744500612840056e-05 4.221877679810859263e-05
1.473000000000000000e+03 2.398492813110351562e+01 2.237404060363769531e+01 -1.336598992347717285e-01 -1.257876679301261902e-02 -4.387160018086433411e-02 3.626831620931625366e-02
1.474000000000000000e+03 1.560760307312011719e+01 1.096048355102539062e+01 1.427170645911246538e-04 2.671572437975555658e-04 1.229622866958379745e-04 3.013929745065979660e-05
1.475000000000000000e+03 1.549308872222900391e+01 1.043639850616455078e+01 1.101938396459445357e-04 2.377695054747164249e-04 1.043890006258152425e-04 5.003059413866139948e-05
1.476000000000000000e+03 1.519431018829345703e+01 1.167571640014648438e+01 1.479759375797584653e-04 4.629631584975868464e-04 1.832817215472459793e-04 5.862803664058446884e-05
1.477000000000000000e+03 1.539313220977783203e+01 1.131369113922119141e+01 -1.458954648114740849e-04 2.702379424590617418e-04 3.730273965629749000e-05 -9.162516653304919600e-05
1.478000000000000000e+03 3.318330383300781250e+01 1.105227756500244141e+01 -1.306426594965159893e-03 1.551308552734553814e-03 7.346458005486056209e-05 1.658914989093318582e-04
1.479000000000000000e+03 3.217970275878906250e+01 1.478863906860351562e+01 -1.175128761678934097e-02 -2.047594450414180756e-02 -9.668169543147087097e-03 1.707633584737777710e-02
1.480000000000000000e+03 3.212141036987304688e+01 1.546086311340332031e+01 -1.509487256407737732e-02 -2.680399268865585327e-02 -1.256965938955545425e-02 2.335322462022304535e-02
1.481000000000000000e+03 2.112923431396484375e+01 2.220610237121582031e+01 -1.057185232639312744e-01 -3.696816507726907730e-03 -3.282460197806358337e-02 -4.460608121007680893e-03
1.482000000000000000e+03 2.028315353393554688e+01 2.261644935607910156e+01 -7.803689688444137573e-02 -7.956462795846164227e-04 -2.364976331591606140e-02 5.195529665797948837e-03
1.483000000000000000e+03 1.493453216552734375e+01 1.377597713470458984e+01 4.148876178078353405e-04 1.088428660295903683e-03 4.509948776103556156e-04 -3.883546378347091377e-05
1.484000000000000000e+03 1.367796993255615234e+01 1.663535118103027344e+01 -3.527688677422702312e-04 1.463281922042369843e-03 3.331539046484977007e-04 8.033561171032488346e-04
1.485000000000000000e+03 1.984305381774902344e+01 5.520355224609375000e+00 5.542123835766687989e-05 -7.643461685802321881e-06 1.433333272871095687e-05 2.012335971812717617e-05
1.486000000000000000e+03 2.770612525939941406e+01 2.148621749877929688e+01 -1.755554974079132080e-01 -5.635413154959678650e-02 -6.957288831472396851e-02 8.375372737646102905e-02
1.487000000000000000e+03 1.782644462585449219e+01 8.005999565124511719e+00 -1.266859471797943115e-04 -8.351109499926678836e-06 -4.051111682201735675e-05 1.782787694537546486e-05
1.488000000000000000e+03 3.160576629638671875e+01 1.658806991577148438e+01 -2.383223548531532288e-02 -4.789060354232788086e-02 -2.151685208082199097e-02 3.535065427422523499e-02
1.489000000000000000e+03 3.350176239013671875e+01 1.027313804626464844e+01 -1.160534447990357876e-03 1.342211966402828693e-03 5.450327444123104215e-05 -5.250958492979407310e-04
1.490000000000000000e+03 3.308952713012695312e+01 1.292824268341064453e+01 -4.455692600458860397e-03 -5.158689804375171661e-03 -2.884314628317952156e-03 7.898955605924129486e-03
1.491000000000000000e+03 3.091568756103515625e+01 1.961404609680175781e+01 -9.936930984258651733e-02 -6.348743289709091187e-02 -4.885702207684516907e-02 7.346094399690628052e-02
1.492000000000000000e+03 3.038434410095214844e+01 1.961649513244628906e+01 -1.039079949259757996e-01 -8.247069269418716431e-02 -5.591360852122306824e-02 8.386219292879104614e-02
1.493000000000000000e+03 3.359910583496093750e+01 9.822310447692871094e+00 7.454213919118046761e-04 1.493409392423927784e-03 6.716492353007197380e-04 -9.260947263101115823e-05
1.494000000000000000e+03 3.380018234252929688e+01 5.378651618957519531e+00 -1.137154409661889076e-03 3.202438820153474808e-04 -2.450731699354946613e-04 -6.168919499032199383e-04
1.495000000000000000e+03 1.602834129333496094e+01 9.413648605346679688e+00 -1.456163590773940086e-04 8.307184180011972785e-05 -1.876335591077804565e-05 -5.849355875398032367e-05
1.496000000000000000e+03 3.302759170532226562e+01 9.750318527221679688e+00 -7.000739569775760174e-04 4.373418167233467102e-03 1.102003268897533417e-03 -1.236690906807780266e-03
1.497000000000000000e+03 3.266460037231445312e+01 1.460943794250488281e+01 -1.242384221404790878e-02 -1.611694507300853729e-02 -8.562236092984676361e-03 1.824373006820678711e-02
1.498000000000000000e+03 1.447651386260986328e+01 1.368685245513916016e+01 -3.687033313326537609e-04 1.023877062834799290e-03 1.965521369129419327e-04 4.097057171748019755e-05
1.499000000000000000e+03 1.401906108856201172e+01 1.274235725402832031e+01 2.585715265013277531e-04 5.995179526507854462e-04 2.574268437456339598e-04 2.517836401239037514e-04
1.500000000000000000e+03 1.438426303863525391e+01 1.210754776000976562e+01 3.139447653666138649e-05 4.057830083183944225e-04 1.311532541876658797e-04 1.617135239939671010e-05
1.501000000000000000e+03 1.890173339843750000e+01 3.328017473220825195e+00 2.363958810747135431e-05 1.697789230092894286e-05 1.218524448631796986e-05 -3.012062961715855636e-06
1.502000000000000000e+03 3.254567718505859375e+01 1.556805419921875000e+01 -2.375881373882293701e-02 -2.303481847047805786e-02 -1.403808966279029846e-02 2.873348817229270935e-02
1.503000000000000000e+03 1.905914878845214844e+01 2.233339309692382812e+01 -5.623837560415267944e-02 -5.435188068076968193e-04 -1.703456789255142212e-02 -4.906023386865854263e-04
1.504000000000000000e+03 1.824958229064941406e+01 2.230927276611328125e+01 -4.540419578552246094e-02 -2.125275386788416654e-05 -1.362763531506061554e-02 4.481164796743541956e-04
1.505000000000000000e+03 3.469248962402343750e+01 4.418719291687011719e+00 1.365040545351803303e-03 3.319628885947167873e-04 5.091010243631899357e-04 6.415311363525688648e-04
1.506000000000000000e+03 3.427481079101562500e+01 4.498557567596435547e+00 -9.129567188210785389e-04 -1.733984827296808362e-04 -3.259065560996532440e-04 1.609609316801652312e-04
1.507000000000000000e+03 2.474659347534179688e+01 2.229821014404296875e+01 -1.424540430307388306e-01 -1.882583089172840118e-02 -4.838396236300468445e-02 4.448584839701652527e-02
1.508000000000000000e+03 1.605704498291015625e+01 2.067539215087890625e+01 -9.411405771970748901e-03 -1.623173477128148079e-03 -3.310373751446604729e-03 -4.298988729715347290e-03
1.509000000000000000e+03 1.514427375793457031e+01 2.100461006164550781e+01 -1.367776654660701752e-02 2.263701055198907852e-03 -3.424219554290175438e-03 -1.463493797928094864e-03
1.510000000000000000e+03 1.827659606933593750e+01 6.595261573791503906e+00 -5.784523182228440419e-06 -4.027883551316335797e-05 -1.381900710839545354e-05 -4.411784902913495898e-05
1.511000000000000000e+03 1.944855308532714844e+01 2.245117950439453125e+01 -6.148248910903930664e-02 -7.332096574828028679e-04 -1.866471022367477417e-02 -2.795050386339426041e-04
1.512000000000000000e+03 2.043561553955078125e+01 5.378243446350097656e+00 2.230667269031982869e-05 3.907466452801600099e-05 1.841440098360180855e-05 3.080560054513625801e-05
1.513000000000000000e+03 2.637824058532714844e+01 2.223788070678710938e+01 -1.449636667966842651e-01 -3.225668147206306458e-02 -5.316610634326934814e-02 5.906766280531883240e-02
1.514000000000000000e+03 1.515895271301269531e+01 1.024363803863525391e+01 -1.337923458777368069e-04 1.634546497371047735e-04 8.898689884517807513e-06 -2.052552736131474376e-05
1.515000000000000000e+03 1.643228912353515625e+01 9.585309028625488281e+00 1.156657963292673230e-04 1.054296808433718979e-04 6.632864824496209621e-05 4.952126619173213840e-05
1.516000000000000000e+03 2.552907371520996094e+01 2.158383560180664062e+01 -1.729060709476470947e-01 -1.458246819674968719e-02 -5.624656006693840027e-02 4.881240427494049072e-02
1.517000000000000000e+03 1.359892845153808594e+01 1.833066749572753906e+01 -2.357596677029505372e-04 9.491405216977000237e-04 2.140142605639994144e-04 3.277127107139676809e-04
1.518000000000000000e+03 3.286793899536132812e+01 1.396881484985351562e+01 -1.156729180365800858e-02 -1.104750111699104309e-02 -6.784438155591487885e-03 1.543198060244321823e-02
1.519000000000000000e+03 2.153592491149902344e+01 2.223973846435546875e+01 -1.236976161599159241e-01 -4.627067595720291138e-03 -3.849740698933601379e-02 1.784732332453131676e-03
1.520000000000000000e+03 3.368323135375976562e+01 7.349409580230712891e+00 1.129916752688586712e-03 1.427525654435157776e-03 7.672326755709946156e-04 -5.331111024133861065e-04
1.521000000000000000e+03 3.405421447753906250e+01 7.353169918060302734e+00 -4.337647987995296717e-04 6.103898049332201481e-04 5.298749601934105158e-05 -9.320029639638960361e-04
1.522000000000000000e+03 1.662984085083007812e+01 7.531903266906738281e+00 7.666759483981877565e-05 6.618214683840051293e-05 4.285492104827426374e-05 4.013050420326180756e-05
1.523000000000000000e+03 3.408566665649414062e+01 6.998076915740966797e+00 7.263355655595660210e-04 1.020151539705693722e-03 5.239461315795779228e-04 -3.347575548104941845e-04
1.524000000000000000e+03 3.118835639953613281e+01 1.767215728759765625e+01 -4.101070016622543335e-02 -6.874883174896240234e-02 -3.292785957455635071e-02 5.270171910524368286e-02
1.525000000000000000e+03 3.099522209167480469e+01 1.852263641357421875e+01 -6.424728035926818848e-02 -7.412575930356979370e-02 -4.151191189885139465e-02 6.600084900856018066e-02
1.526000000000000000e+03 3.409766387939453125e+01 5.271123886108398438e+00 4.455951566342264414e-04 5.915897781960666180e-04 3.111554833594709635e-04 -3.421026340220123529e-04
1.527000000000000000e+03 3.015480995178222656e+01 2.022106170654296875e+01 -1.276537328958511353e-01 -7.558423280715942383e-02 -6.097138673067092896e-02 7.839316129684448242e-02
1.528000000000000000e+03 1.399558353424072266e+01 1.403433036804199219e+01 -3.133568679913878441e-04 1.016627764329314232e-03 2.109812630806118250e-04 2.976593968924134970e-04
1.529000000000000000e+03 1.482191562652587891e+01 1.148171806335449219e+01 -1.519312208984047174e-04 3.110475663561373949e-04 4.773490582010708749e-05 1.418957162968581542e-05
1.530000000000000000e+03 1.543484592437744141e+01 2.071327590942382812e+01 -1.014784723520278931e-02 1.355591346509754658e-03 -2.637676661834120750e-03 -2.884961431846022606e-03
1.531000000000000000e+03 3.503655242919921875e+01 2.910465002059936523e+00 1.344571501249447465e-05 -1.195934601128101349e-03 -3.547466767486184835e-04 9.990753605961799622e-04
1.532000000000000000e+03 2.070766258239746094e+01 2.321719551086425781e+01 -7.959804683923721313e-02 -6.827103439718484879e-03 -2.592754550278186798e-02 1.860446855425834656e-02
1.533000000000000000e+03 2.876633262634277344e+01 2.081806182861328125e+01 -1.891418695449829102e-01 -1.019943207502365112e-01 -8.734085410833358765e-02 1.019358709454536438e-01
1.534000000000000000e+03 2.794942665100097656e+01 2.187372779846191406e+01 -1.481660008430480957e-01 -6.607886403799057007e-02 -6.427346169948577881e-02 7.562409341335296631e-02
1.535000000000000000e+03 2.282035636901855469e+01 2.261935043334960938e+01 -1.228976845741271973e-01 -9.853600524365901947e-03 -3.982538729906082153e-02 2.395201660692691803e-02
1.536000000000000000e+03 2.241478729248046875e+01 2.268336105346679688e+01 -1.155181676149368286e-01 -1.327357906848192215e-02 -3.863752633333206177e-02 2.023743465542793274e-02
1.537000000000000000e+03 2.848198127746582031e+01 2.209153938293457031e+01 -1.248147934675216675e-01 -7.159262150526046753e-02 -5.892222374677658081e-02 6.326308846473693848e-02
1.538000000000000000e+03 1.648045158386230469e+01 2.184871482849121094e+01 -2.649942785501480103e-02 5.486726877279579639e-04 -7.785226684063673019e-03 1.913595187943428755e-04
1.539000000000000000e+03 1.691361427307128906e+01 2.200098037719726562e+01 -3.075781464576721191e-02 -1.510778529336676002e-04 -9.272667579352855682e-03 -4.509209538809955120e-04
1.540000000000000000e+03 2.931293296813964844e+01 2.093469619750976562e+01 -1.540284454822540283e-01 -9.135898202657699585e-02 -7.361622899770736694e-02 7.654156535863876343e-02
1.541000000000000000e+03 2.988030815124511719e+01 2.038167953491210938e+01 -1.402215957641601562e-01 -8.565856516361236572e-02 -6.776404380798339844e-02 8.100057393312454224e-02
1.542000000000000000e+03 2.961576080322265625e+01 2.065537452697753906e+01 -1.516669541597366333e-01 -8.878568559885025024e-02 -7.213579118251800537e-02 7.958132028579711914e-02
1.543000000000000000e+03 1.371252059936523438e+01 1.887048912048339844e+01 -9.574247524142265320e-04 1.029222155921161175e-03 2.153921377612277865e-05 -4.715372051578015089e-04
1.544000000000000000e+03 3.407304763793945312e+01 2.453199148178100586e+00 1.717274426482617855e-03 -6.594831575057469308e-06 5.132039077579975128e-04 1.536487834528088570e-04
1.545000000000000000e+03 3.324055099487304688e+01 2.153328418731689453e+00 1.970050216186791658e-04 -1.620989409275352955e-03 -4.271953075658529997e-04 8.008043514564633369e-04
1.546000000000000000e+03 1.416048240661621094e+01 2.005687904357910156e+01 -4.426470492035150528e-03 1.561191165819764137e-03 -8.595837862230837345e-04 -1.576967653818428516e-03
1.547000000000000000e+03 1.419341373443603516e+01 1.953677368164062500e+01 -2.860072767361998558e-03 1.613238826394081116e-03 -3.740501997526735067e-04 -1.109966542571783066e-03
1.548000000000000000e+03 3.454278945922851562e+01 -2.230101585388183594e+00 -2.539997816085815430e+00 3.883155286312103271e-01 -6.455046534538269043e-01 2.785157263278961182e-01
1.549000000000000000e+03 3.520119094848632812e+01 2.553351402282714844e+00 -2.272672281833365560e-04 9.262594976462423801e-04 2.096976822940632701e-04 -6.237652269192039967e-04
1.550000000000000000e+03 1.420512199401855469e+01 1.903568840026855469e+01 4.494459426496177912e-04 1.861049444414675236e-03 6.931486423127353191e-04 -4.502765295910649002e-05
1.551000000000000000e+03 3.169621849060058594e+01 -2.285899877548217773e+00 -2.554230928421020508e+00 1.786458492279052734e-01 -7.126755118370056152e-01 -4.742018878459930420e-01
1.552000000000000000e+03 7.698935699462890625e+01 -1.919419860839843750e+01 5.552436923608183861e-04 4.914728924632072449e-04 3.140149638056755066e-04 -7.954345783218741417e-04
1.553000000000000000e+03 7.636596679687500000e+01 -1.905630874633789062e+01 -1.308330392930656672e-04 -7.030525594018399715e-04 -2.501656708773225546e-04 -3.202051739208400249e-04
1.554000000000000000e+03 2.082026863098144531e+01 3.196813821792602539e+00 3.086090146098285913e-05 3.500879392959177494e-05 1.976090788957662880e-05 -1.420053649781038985e-05
1.555000000000000000e+03 7.807061767578125000e+01 -1.361653614044189453e+01 -4.299972206354141235e-02 -7.040539383888244629e-02 -3.402153402566909790e-02 -5.996621400117874146e-02
1.556000000000000000e+03 7.300959777832031250e+01 -1.895897674560546875e+01 1.744166598655283451e-03 -5.906966980546712875e-04 3.460409643594175577e-04 4.692089860327541828e-04
1.557000000000000000e+03 7.444725799560546875e+01 -1.974321556091308594e+01 -7.415545405820012093e-04 -9.885781910270452499e-04 -5.190398078411817551e-04 -8.204322657547891140e-04
1.558000000000000000e+03 2.176194000244140625e+01 3.376943349838256836e+00 6.521952400362351909e-06 1.332326610281597823e-05 5.953565505478763953e-06 -8.277305823867209256e-06
1.559000000000000000e+03 1.898024177551269531e+01 2.777430534362792969e+00 -1.436134789400966838e-05 -2.538577064115088433e-05 -1.192413583339657634e-05 3.595530415623215958e-06
1.560000000000000000e+03 1.826925659179687500e+01 3.261643409729003906e+00 -1.445177986170165241e-05 -1.652960781939327717e-05 -9.294416486227419227e-06 2.845318078925629379e-07
1.561000000000000000e+03 2.296721267700195312e+01 -2.989727735519409180e+00 -7.286647558212280273e-01 -1.356691587716341019e-02 -2.226694971323013306e-01 -5.946413874626159668e-01
1.562000000000000000e+03 3.935894012451171875e+01 -3.288050413131713867e+00 -2.661537408828735352e+00 3.630022704601287842e-01 -6.895605325698852539e-01 6.379921436309814453e-01
1.563000000000000000e+03 7.644052124023437500e+01 -1.401668930053710938e+01 -8.408908545970916748e-02 -3.533716499805450439e-02 -3.582787513732910156e-02 -7.866100966930389404e-02
1.564000000000000000e+03 1.617394447326660156e+01 3.185814380645751953e+00 2.203045733040198684e-05 3.157764149364084005e-05 1.608242928341496736e-05 -1.889745931293873582e-06
1.565000000000000000e+03 1.543746185302734375e+01 3.156026840209960938e+00 -1.065403557731769979e-05 -1.414552752976305783e-05 -7.439869023073697463e-06 1.909473940031602979e-05
1.566000000000000000e+03 6.982170104980468750e+01 -1.388871479034423828e+01 -5.047453641891479492e-01 1.192374825477600098e-01 -1.156523674726486206e-01 5.344738811254501343e-02
1.567000000000000000e+03 6.752647399902343750e+01 -1.365196990966796875e+01 -7.209144234657287598e-01 -1.864376068115234375e-01 -2.722056210041046143e-01 2.259706407785415649e-01
1.568000000000000000e+03 1.962257766723632812e+01 2.873003959655761719e+00 1.893175976874772459e-05 2.498000685591250658e-05 1.317353053309489042e-05 -9.544865861244034022e-06
1.569000000000000000e+03 2.044303703308105469e+01 4.044294834136962891e+00 1.847333078330848366e-05 -1.959932524187024683e-05 -3.377985251518111909e-07 -6.109235073381569237e-06
1.570000000000000000e+03 2.103006553649902344e+01 4.297812461853027344e+00 -1.275988142879214138e-05 -4.541894668363966048e-05 -1.745364897942636162e-05 1.111676374421222135e-05
1.571000000000000000e+03 7.133430480957031250e+01 -2.017999649047851562e+01 1.367097604088485241e-03 -5.550818168558180332e-04 2.436047507217153907e-04 -4.507667035795748234e-04
1.572000000000000000e+03 7.163307952880859375e+01 -1.953304862976074219e+01 -1.002731267362833023e-03 -3.061067254748195410e-04 -3.926513891201466322e-04 1.040660426951944828e-03
1.573000000000000000e+03 1.327401542663574219e+01 2.500031709671020508e+00 1.905964950310590211e-06 -2.113586924679111689e-05 -5.768971277575474232e-06 3.162677603540942073e-05
1.574000000000000000e+03 1.252098560333251953e+01 3.146943569183349609e+00 5.076236902823438868e-06 -1.994669946725480258e-05 -4.461138814804144204e-06 4.467086182557977736e-05
1.575000000000000000e+03 1.691912460327148438e+01 2.618099451065063477e+00 1.492371575295692310e-05 3.092874248977750540e-05 1.375573810946661979e-05 -4.135153631068533286e-06
1.576000000000000000e+03 7.568204498291015625e+01 -1.967414093017578125e+01 -6.290659657679498196e-04 -7.185699651017785072e-04 -4.042907676193863153e-04 -8.454468334093689919e-04
1.577000000000000000e+03 3.656158447265625000e+01 4.051387310028076172e+00 9.654705645516514778e-04 6.669673603028059006e-04 4.897313774563372135e-04 -7.438681786879897118e-04
1.578000000000000000e+03 1.400491905212402344e+01 2.508919715881347656e+00 2.873003541026264429e-05 3.247765562264248729e-05 1.836230694607365876e-05 3.719134610946639441e-06
1.579000000000000000e+03 7.456065368652343750e+01 -2.052204322814941406e+01 -4.028958210255950689e-04 5.980068235658109188e-04 5.853330003446899354e-05 5.724631482735276222e-04
1.580000000000000000e+03 3.485261535644531250e+01 3.874598026275634766e+00 1.191570190712809563e-03 3.959956811740994453e-04 4.762697499245405197e-04 -5.379460635595023632e-04
1.581000000000000000e+03 1.106232452392578125e+01 3.181972503662109375e+00 8.509689905622508377e-06 -2.096640491799917072e-05 -3.737014822036144324e-06 4.493130836635828018e-05
1.582000000000000000e+03 1.324710369110107422e+01 3.134219169616699219e+00 3.968344390159472823e-05 3.217123230569995940e-05 2.155640322598628700e-05 5.870251243322854862e-06
1.583000000000000000e+03 8.141138076782226562e+00 3.214817762374877930e+00 1.543176040286198258e-05 -2.706654777284711599e-05 -3.490436483843950555e-06 3.624043756644823588e-06
1.584000000000000000e+03 1.075061893463134766e+01 -4.127611637115478516e+00 -4.713259637355804443e-02 -6.491610407829284668e-02 -3.361460939049720764e-02 5.102052912116050720e-02
1.585000000000000000e+03 1.064383888244628906e+01 -3.346112251281738281e+00 4.620720073580741882e-02 -4.222081229090690613e-02 1.195916789583861828e-03 6.243894994258880615e-02
1.586000000000000000e+03 7.496275329589843750e+01 -1.267110729217529297e+01 -2.276119440793991089e-01 -4.512285068631172180e-02 -8.182043582201004028e-02 -2.014099508523941040e-01
1.587000000000000000e+03 7.433222961425781250e+01 -1.297715663909912109e+01 -2.488476186990737915e-01 2.595258643850684166e-03 -7.387571036815643311e-02 -1.988752186298370361e-01
1.588000000000000000e+03 7.618798828125000000e+01 -1.253211307525634766e+01 -1.546893268823623657e-01 -8.101802319288253784e-02 -7.071220874786376953e-02 -1.759684532880783081e-01
1.589000000000000000e+03 7.558841705322265625e+01 -1.312946414947509766e+01 -1.467017531394958496e-01 -3.388407081365585327e-02 -5.417574569582939148e-02 -1.552475094795227051e-01
1.590000000000000000e+03 1.527053451538085938e+01 -3.232169866561889648e+00 -3.627437353134155273e-02 -1.196641921997070312e-01 -4.678156971931457520e-02 -1.390594393014907837e-01
1.591000000000000000e+03 9.775011062622070312e+00 -2.605891704559326172e+00 1.338712722063064575e-01 -1.909298636019229889e-02 3.443348407745361328e-02 7.875464856624603271e-02
1.592000000000000000e+03 7.347546100616455078e+00 2.553915023803710938e+00 2.106468491547275335e-05 -2.963456972793210298e-05 -2.570965534687275067e-06 -4.958840236213291064e-06
1.593000000000000000e+03 7.405694007873535156e+00 3.248316287994384766e+00 9.416732791578397155e-05 -9.806341950024943799e-06 2.530829624447505921e-05 -1.009967036225134507e-05
1.594000000000000000e+03 8.875559806823730469e+00 3.198305130004882812e+00 9.897667769109830260e-05 -9.678492460807319731e-06 2.678945566003676504e-05 2.313943696208298206e-06
1.595000000000000000e+03 5.176186561584472656e+00 3.510892391204833984e+00 3.087830191361717880e-05 -2.544919880165252835e-05 1.628731297387275845e-06 -2.341535218874923885e-05
1.596000000000000000e+03 3.540228843688964844e+00 2.881796598434448242e+00 5.796006007585674524e-05 2.298611070727929473e-05 2.428385232633445412e-05 -5.019075979362241924e-05
1.597000000000000000e+03 2.950716257095336914e+00 3.931136846542358398e+00 1.030332423397339880e-04 -1.519888337497832254e-05 2.635030614328570664e-05 -7.470665877917781472e-05
1.598000000000000000e+03 5.347349643707275391e+00 4.290367126464843750e+00 7.492009899578988552e-05 -1.481944582337746397e-05 1.803019586077425629e-05 -4.280629946151748300e-05
1.599000000000000000e+03 6.669076919555664062e+00 3.306049585342407227e+00 2.294917248946148902e-05 -2.712774767132941633e-05 -1.253572690984583460e-06 -1.421516117261489853e-05
1.600000000000000000e+03 6.782493591308593750e+00 4.007220268249511719e+00 1.082969101844355464e-04 -2.898011007346212864e-05 2.379504076088778675e-05 -2.472479172865860164e-05
1.601000000000000000e+03 1.033374309539794922e+01 3.191113471984863281e+00 8.581081056036055088e-05 -8.015610575284881634e-08 2.571919685578905046e-05 2.062685780401807278e-06
1.602000000000000000e+03 9.606509208679199219e+00 3.193464517593383789e+00 5.618181603495031595e-06 -2.156373739126138389e-05 -4.783667009178316221e-06 2.692177258722949773e-05
1.603000000000000000e+03 5.903505802154541016e+00 -2.671091794967651367e+00 7.879387587308883667e-02 4.402503836899995804e-03 2.495891228318214417e-02 1.026559993624687195e-01
1.604000000000000000e+03 6.811998367309570312e+00 -3.391587257385253906e+00 4.299912974238395691e-02 -3.517903387546539307e-03 1.184436772018671036e-02 1.088886633515357971e-01
1.605000000000000000e+03 6.223914146423339844e+00 -4.259298801422119141e+00 -9.286568500101566315e-03 2.454784465953707695e-03 -2.049535047262907028e-03 1.063263416290283203e-01
1.606000000000000000e+03 8.344847679138183594e+00 -3.352849721908569336e+00 4.874728620052337646e-02 -1.730891689658164978e-02 9.431510232388973236e-03 1.003415510058403015e-01
1.607000000000000000e+03 4.824048042297363281e+00 -4.465789794921875000e+00 -5.406768526881933212e-03 2.256130427122116089e-02 5.146360956132411957e-03 1.047001034021377563e-01
1.608000000000000000e+03 2.630208969116210938e+00 -3.771552324295043945e+00 1.143974438309669495e-02 4.896494746208190918e-02 1.812140829861164093e-02 8.149989694356918335e-02
1.609000000000000000e+03 2.245922327041625977e+00 -2.977312803268432617e+00 1.979121938347816467e-02 4.068803042173385620e-02 1.814377494156360626e-02 6.871213018894195557e-02
1.610000000000000000e+03 2.034824371337890625e+00 -4.248865127563476562e+00 2.908422844484448433e-03 7.587246596813201904e-02 2.363426797091960907e-02 6.939802318811416626e-02
1.611000000000000000e+03 9.110418319702148438e+00 -3.359640836715698242e+00 4.824890941381454468e-02 -2.359171397984027863e-02 7.397159002721309662e-03 9.072364121675491333e-02
1.612000000000000000e+03 3.190007019042968750e+01 -2.748186588287353516e+00 -2.226902484893798828e+00 1.973105669021606445e-01 -6.088775396347045898e-01 -4.534325003623962402e-01
1.613000000000000000e+03 3.805252456665039062e+01 -1.539817690849304199e+00 -2.032718420028686523e+00 3.574068844318389893e-01 -5.025933980941772461e-01 7.640895247459411621e-01
1.614000000000000000e+03 1.771600151062011719e+01 -3.879580974578857422e+00 -2.487623095512390137e-01 -1.920138001441955566e-01 -1.322328299283981323e-01 -3.455204367637634277e-01
1.615000000000000000e+03 1.840719985961914062e+01 -3.065933704376220703e+00 -2.089248895645141602e-01 -1.324781328439712524e-01 -1.024209037423133850e-01 -3.319697976112365723e-01
1.616000000000000000e+03 1.215538024902343750e+01 -3.294425725936889648e+00 3.651113063097000122e-02 -6.493431329727172852e-02 -8.526955731213092804e-03 1.729590259492397308e-02
1.617000000000000000e+03 1.292494106292724609e+01 -3.270575046539306641e+00 2.721979841589927673e-02 -7.829786837100982666e-02 -1.532342098653316498e-02 -1.436731684952974319e-02
1.618000000000000000e+03 7.200168609619140625e+01 -1.317635917663574219e+01 -4.434525668621063232e-01 1.065718829631805420e-01 -1.010642051696777344e-01 -1.351170539855957031e-01
1.619000000000000000e+03 7.274172210693359375e+01 -1.307722854614257812e+01 -3.550411164760589600e-01 4.379725828766822815e-02 -9.337314963340759277e-02 -1.846603602170944214e-01
1.620000000000000000e+03 7.129962921142578125e+01 -1.325684261322021484e+01 -4.797238111495971680e-01 9.683020412921905518e-02 -1.148680746555328369e-01 -1.184737756848335266e-01
1.621000000000000000e+03 1.604572296142578125e+01 -3.211122274398803711e+00 -6.834729760885238647e-02 -1.285456717014312744e-01 -5.906789004802703857e-02 -1.900937706232070923e-01
1.622000000000000000e+03 3.768698501586914062e+01 3.896051406860351562e+00 4.349611408542841673e-04 5.776290199719369411e-04 3.037770511582493782e-04 3.129924880340695381e-05
1.623000000000000000e+03 3.783032608032226562e+01 5.294316291809082031e+00 1.561972545459866524e-03 1.075025298632681370e-03 7.910993299447000027e-04 -5.122412112541496754e-04
1.624000000000000000e+03 7.352389526367187500e+01 -1.300921344757080078e+01 -3.113286197185516357e-01 3.077059052884578705e-02 -8.416740596294403076e-02 -1.638853698968887329e-01
1.625000000000000000e+03 7.376126098632812500e+01 -1.980238914489746094e+01 1.119389780797064304e-03 -2.002157270908355713e-04 2.757522161118686199e-04 9.726531570777297020e-04
1.626000000000000000e+03 7.232334136962890625e+01 -1.973236083984375000e+01 2.003750065341591835e-03 -8.702856139279901981e-04 3.400393470656126738e-04 -1.272136432817205787e-04
1.627000000000000000e+03 2.471952056884765625e+01 -3.297775983810424805e+00 -9.149884581565856934e-01 -6.070309504866600037e-02 -2.927074730396270752e-01 -7.745690941810607910e-01
1.628000000000000000e+03 2.281477165222167969e+01 -1.211487889289855957e+00 -5.577901005744934082e-01 6.529181450605392456e-02 -1.477494835853576660e-01 -2.493336200714111328e-01
1.629000000000000000e+03 2.155754852294921875e+01 -2.351588249206542969e+00 -4.738808274269104004e-01 -2.836380712687969208e-02 -1.506733894348144531e-01 -4.038982391357421875e-01
1.630000000000000000e+03 1.921482467651367188e+01 -2.984825849533081055e+00 -2.619564831256866455e-01 -1.135766282677650452e-01 -1.126599311828613281e-01 -3.672803342342376709e-01
1.631000000000000000e+03 2.558727455139160156e+01 -4.294281005859375000e+00 -8.170431852340698242e-01 -1.689202636480331421e-01 -2.957890331745147705e-01 -9.190162420272827148e-01
1.632000000000000000e+03 2.283141708374023438e+01 -1.775497794151306152e+00 -6.327341794967651367e-01 4.882753267884254456e-02 -1.751720011234283447e-01 -3.512407541275024414e-01
1.633000000000000000e+03 2.000618171691894531e+01 -2.840505838394165039e+00 -3.256095051765441895e-01 -9.648764133453369141e-02 -1.266291439533233643e-01 -3.920044302940368652e-01
1.634000000000000000e+03 2.077878379821777344e+01 -2.622089862823486328e+00 -3.897026479244232178e-01 -6.749988347291946411e-02 -1.371607631444931030e-01 -4.023721218109130859e-01
1.635000000000000000e+03 5.203094482421875000e+01 2.439504432678222656e+01 2.967474460601806641e-01 7.253426313400268555e-02 1.107845082879066467e-01 -2.617983520030975342e-01
1.636000000000000000e+03 3.360478210449218750e+01 -3.811810016632080078e+00 -1.764069676399230957e+00 4.066742956638336182e-01 -4.072186052799224854e-01 3.037912026047706604e-02
1.637000000000000000e+03 3.357155990600585938e+01 -3.074668645858764648e+00 -2.071138381958007812e+00 1.665660440921783447e-01 -5.713716745376586914e-01 7.856032997369766235e-02
1.638000000000000000e+03 6.372640609741210938e+01 7.893326759338378906e+00 8.647047281265258789e-01 4.781608104705810547e+00 1.693893909454345703e+00 6.988565325736999512e-01
1.639000000000000000e+03 4.345626068115234375e+01 -5.171330928802490234e+00 -3.929668664932250977e+00 -6.771665215492248535e-01 -1.382050514221191406e+00 9.071101546287536621e-01
1.640000000000000000e+03 4.686145782470703125e+01 -7.461713790893554688e+00 -2.804094076156616211e+00 -1.207217946648597717e-01 -8.774447441101074219e-01 8.538026213645935059e-01
1.641000000000000000e+03 5.901787185668945312e+01 8.155720829963684082e-01 1.065309405326843262e+00 3.049288749694824219e+00 1.234379410743713379e+00 1.721428275108337402e+00
1.642000000000000000e+03 6.173970413208007812e+01 1.927861094474792480e+00 6.249083876609802246e-01 3.232057332992553711e+00 1.157089710235595703e+00 9.136345982551574707e-01
1.643000000000000000e+03 5.566019058227539062e+01 2.336331367492675781e+01 7.598487734794616699e-01 2.388386130332946777e-01 2.996062040328979492e-01 -6.071552634239196777e-01
1.644000000000000000e+03 2.301943397521972656e+01 -9.483757972717285156e+00 -8.998624086380004883e-01 -1.881427168846130371e-01 -3.264015316963195801e-01 -5.586099624633789062e-01
1.645000000000000000e+03 2.058794212341308594e+01 -8.800049781799316406e+00 -9.389275312423706055e-01 -3.508170843124389648e-01 -3.869234025478363037e-01 -7.428097128868103027e-01
1.646000000000000000e+03 1.904522895812988281e+01 -3.186805915832519531e+01 5.767423510551452637e-01 5.568475127220153809e-01 3.400769531726837158e-01 -3.187458217144012451e-01
1.647000000000000000e+03 1.951762008666992188e+01 -8.789562225341796875e+00 -9.245384931564331055e-01 -4.584990143775939941e-01 -4.149112403392791748e-01 -7.050262093544006348e-01
1.648000000000000000e+03 9.550966262817382812e+00 -1.644920158386230469e+01 -3.221300542354583740e-01 -2.869530320167541504e-01 -1.827249228954315186e-01 -7.795573472976684570e-01
1.649000000000000000e+03 4.264656066894531250e+01 -2.639120864868164062e+01 3.143328726291656494e-01 2.864585638046264648e+00 9.536755084991455078e-01 7.132717967033386230e-01
1.650000000000000000e+03 3.605677032470703125e+01 4.513277530670166016e+00 -1.142524648457765579e-03 -5.884947604499757290e-04 -5.193058168515563011e-04 7.293993839994072914e-04
1.651000000000000000e+03 5.099335098266601562e+01 -1.234962844848632812e+01 1.492362499237060547e+00 1.172455906867980957e+00 7.994455099105834961e-01 2.207821369171142578e+00
1.652000000000000000e+03 6.735468292236328125e+01 -1.058705520629882812e+01 -1.148682951927185059e+00 1.660686880350112915e-01 -2.947842776775360107e-01 -3.826875984668731689e-01
1.653000000000000000e+03 3.835621261596679688e+01 1.086846923828125000e+01 -8.202485740184783936e-03 8.454803028143942356e-04 -2.207101788371801376e-03 -2.447328530251979828e-03
1.654000000000000000e+03 2.166003608703613281e+01 -8.661285400390625000e+00 -9.525253772735595703e-01 -2.446689456701278687e-01 -3.591583073139190674e-01 -7.116280794143676758e-01
1.655000000000000000e+03 3.337026214599609375e+01 -2.848486328125000000e+01 7.913642525672912598e-01 7.255448102951049805e-01 4.550727009773254395e-01 6.198538541793823242e-01
1.656000000000000000e+03 5.982006072998046875e+01 -1.110116481781005859e+01 -1.140710353851318359e+00 7.083131670951843262e-01 -1.297191381454467773e-01 6.858809590339660645e-01
1.657000000000000000e+03 5.756138229370117188e+01 -1.178340435028076172e+01 -4.682056009769439697e-01 7.048236727714538574e-01 7.098541408777236938e-02 1.074029445648193359e+00
1.658000000000000000e+03 6.440667724609375000e+01 2.160321044921875000e+01 7.924295067787170410e-01 3.662151575088500977e+00 1.336374402046203613e+00 5.215641111135482788e-02
1.659000000000000000e+03 7.839312744140625000e+01 -2.135669517517089844e+01 1.207854365929961205e-03 5.271308473311364651e-04 5.204955814406275749e-04 -1.004385630949400365e-04
1.660000000000000000e+03 7.717584228515625000e+01 -2.266454124450683594e+01 1.079901005141437054e-03 -1.849440195655915886e-05 3.184219822287559509e-04 -5.469646930578164756e-05
1.661000000000000000e+03 7.664915466308593750e+01 -2.670990371704101562e+01 -4.064527805894613266e-03 -2.303701359778642654e-03 -1.910468796268105507e-03 3.306353697553277016e-03
1.662000000000000000e+03 7.683895874023437500e+01 -2.531994438171386719e+01 6.631248979829251766e-04 -9.927890496328473091e-04 -9.889923967421054840e-05 1.528674038127064705e-03
1.663000000000000000e+03 7.681262207031250000e+01 -3.085688018798828125e+01 6.507285288535058498e-04 -7.905473001301288605e-03 -2.176423324272036552e-03 7.596889045089483261e-03
1.664000000000000000e+03 7.681266784667968750e+01 -3.322817993164062500e+01 2.276011509820818901e-03 -1.347240991890430450e-02 -3.358919406309723854e-03 9.764934889972209930e-03
1.665000000000000000e+03 7.629001617431640625e+01 -3.443807983398437500e+01 -3.308049170300364494e-03 -1.377533655613660812e-02 -5.125015508383512497e-03 1.078496500849723816e-02
1.666000000000000000e+03 7.691573333740234375e+01 -3.211625671386718750e+01 -4.421263933181762695e-03 -9.245174005627632141e-03 -4.099931567907333374e-03 7.830785587430000305e-03
1.667000000000000000e+03 7.679248809814453125e+01 -2.948666000366210938e+01 -4.427311476320028305e-03 -5.098479334264993668e-03 -2.857737243175506592e-03 6.080189719796180725e-03
1.668000000000000000e+03 5.462022399902343750e+01 -1.205780029296875000e+01 5.294074416160583496e-01 7.122605443000793457e-01 3.725003898143768311e-01 1.753210306167602539e+00
1.669000000000000000e+03 5.369230651855468750e+01 -1.224596881866455078e+01 8.397238850593566895e-01 7.975260615348815918e-01 4.911749660968780518e-01 1.912901759147644043e+00
1.670000000000000000e+03 3.067966651916503906e+01 -6.969383239746093750e+00 2.634432315826416016e-01 1.048196554183959961e+00 3.934919238090515137e-01 -1.047807455062866211e+00
1.671000000000000000e+03 2.787625694274902344e+01 -7.001558303833007812e+00 2.092787325382232666e-01 -1.011323928833007812e-01 3.244389966130256653e-02 -9.947437644004821777e-01
1.672000000000000000e+03 4.272829055786132812e+01 1.859185791015625000e+01 -1.092960014939308167e-01 3.386987373232841492e-02 -2.262783981859683990e-02 -4.592478740960359573e-03
1.673000000000000000e+03 4.174653625488281250e+01 1.813916587829589844e+01 -9.926261007785797119e-02 4.664619266986846924e-02 -1.578492484986782074e-02 -6.572898942977190018e-03
1.674000000000000000e+03 7.681281280517578125e+01 3.763511419296264648e+00 6.332573294639587402e-02 -1.889408469200134277e+00 -5.478248000144958496e-01 -5.216997265815734863e-01
1.675000000000000000e+03 7.654261779785156250e+01 1.095506095886230469e+01 1.267177313566207886e-01 -2.324313640594482422e+00 -6.592787504196166992e-01 -1.815322637557983398e-01
1.676000000000000000e+03 7.653129577636718750e+01 9.473333358764648438e+00 1.309970617294311523e-01 -2.257887601852416992e+00 -6.380671858787536621e-01 -2.844582200050354004e-01
1.677000000000000000e+03 7.686179351806640625e+01 -3.052768468856811523e+00 -3.061579354107379913e-02 -1.010030150413513184e+00 -3.121937811374664307e-01 -5.853849053382873535e-01
1.678000000000000000e+03 7.686701202392578125e+01 -1.674200892448425293e+00 6.747637409716844559e-03 -1.201356649398803711e+00 -3.583827316761016846e-01 -5.963681340217590332e-01
1.679000000000000000e+03 7.683753967285156250e+01 2.402918815612792969e+00 3.621427342295646667e-02 -1.739770889282226562e+00 -5.110669732093811035e-01 -5.598492622375488281e-01
1.680000000000000000e+03 7.684104156494140625e+01 1.800145530700683594e+01 9.902564436197280884e-02 -2.405301094055175781e+00 -6.918826103210449219e-01 3.048323392868041992e-01
1.681000000000000000e+03 7.685662078857421875e+01 1.664814186096191406e+01 1.096397265791893005e-01 -2.494289159774780273e+00 -7.153948545455932617e-01 2.234274595975875854e-01
1.682000000000000000e+03 7.656887054443359375e+01 2.211001396179199219e+01 6.723464280366897583e-02 -1.901732802391052246e+00 -5.503494739532470703e-01 5.225695371627807617e-01
1.683000000000000000e+03 7.650721740722656250e+01 2.346401214599609375e+01 3.200775384902954102e-02 -1.744822621345520020e+00 -5.138444304466247559e-01 5.606701374053955078e-01
1.684000000000000000e+03 7.593482971191406250e+01 3.030134773254394531e+01 -8.256170153617858887e-02 -8.280560970306396484e-01 -2.731853425502777100e-01 5.220743417739868164e-01
1.685000000000000000e+03 7.652836608886718750e+01 2.480732154846191406e+01 1.619197614490985870e-02 -1.592037916183471680e+00 -4.727537631988525391e-01 5.873820781707763672e-01
1.686000000000000000e+03 7.678717041015625000e+01 1.936404418945312500e+01 8.837379515171051025e-02 -2.262363910675048828e+00 -6.521970033645629883e-01 3.846697211265563965e-01
1.687000000000000000e+03 7.683048248291015625e+01 1.528121948242187500e+01 1.250244975090026855e-01 -2.519472122192382812e+00 -7.183343172073364258e-01 1.238371133804321289e-01
1.688000000000000000e+03 7.675601196289062500e+01 1.388110065460205078e+01 1.300746649503707886e-01 -2.485883712768554688e+00 -7.067427039146423340e-01 3.430991619825363159e-02
1.689000000000000000e+03 7.664813232421875000e+01 1.243300437927246094e+01 1.551209539175033569e-01 -2.407306194305419922e+00 -6.756556034088134766e-01 -7.716744393110275269e-02
1.690000000000000000e+03 7.661621856689453125e+01 7.998046875000000000e+00 1.134366542100906372e-01 -2.180028438568115234e+00 -6.199775338172912598e-01 -3.737711906433105469e-01
1.691000000000000000e+03 7.670715332031250000e+01 6.548879146575927734e+00 8.853878080844879150e-02 -2.114166736602783203e+00 -6.076883673667907715e-01 -4.335475862026214600e-01
1.692000000000000000e+03 7.685353851318359375e+01 1.047312378883361816e+00 3.927947208285331726e-02 -1.566820263862609863e+00 -4.582622349262237549e-01 -5.816638469696044922e-01
1.693000000000000000e+03 7.686309814453125000e+01 -3.099478781223297119e-01 7.021866738796234131e-03 -1.388902187347412109e+00 -4.145641028881072998e-01 -5.950652360916137695e-01
1.694000000000000000e+03 7.685278320312500000e+01 -5.826033115386962891e+00 -7.152513414621353149e-02 -6.551969647407531738e-01 -2.180166244506835938e-01 -5.102784037590026855e-01
1.695000000000000000e+03 7.670159149169921875e+01 -1.180657482147216797e+01 -9.867732971906661987e-02 -1.199553236365318298e-01 -6.558979302644729614e-02 -1.951961964368820190e-01
1.696000000000000000e+03 7.707892608642578125e+01 -9.712474822998046875e+00 -8.477324992418289185e-02 -2.689559459686279297e-01 -1.061187535524368286e-01 -2.964447438716888428e-01
1.697000000000000000e+03 7.703200531005859375e+01 -8.477836608886718750e+00 -9.392847865819931030e-02 -3.787397146224975586e-01 -1.418004482984542847e-01 -3.745900094509124756e-01
1.698000000000000000e+03 7.698401641845703125e+01 -1.084150314331054688e+01 -1.093022078275680542e-01 -1.912221312522888184e-01 -9.015730023384094238e-02 -2.402020543813705444e-01
1.699000000000000000e+03 7.630857086181640625e+01 3.456680679321289062e+01 -9.351685643196105957e-02 -6.440309882164001465e-01 -2.212643474340438843e-01 3.015007972717285156e-01
1.700000000000000000e+03 7.527899932861328125e+01 2.726929473876953125e+01 -7.397096604108810425e-02 -9.123578071594238281e-01 -2.958986461162567139e-01 6.554611325263977051e-01
1.701000000000000000e+03 7.656597137451171875e+01 2.612989234924316406e+01 -2.958649024367332458e-02 -1.436031937599182129e+00 -4.396855533123016357e-01 5.756582617759704590e-01
1.702000000000000000e+03 7.692145538330078125e+01 -7.174731731414794922e+00 -6.889203935861587524e-02 -5.118399858474731445e-01 -1.742195934057235718e-01 -4.487278759479522705e-01
1.703000000000000000e+03 4.368571090698242188e+01 1.917033958435058594e+01 -1.086477264761924744e-01 4.225203022360801697e-02 -1.991870813071727753e-02 -1.685451343655586243e-02
1.704000000000000000e+03 3.824580383300781250e+01 -2.685518455505371094e+01 6.400802731513977051e-01 1.294628739356994629e+00 5.804126858711242676e-01 1.038065910339355469e+00
1.705000000000000000e+03 6.847218322753906250e+01 -2.576548194885253906e+01 -1.186640653759241104e-02 1.523854327388107777e-03 -3.102765651419758797e-03 1.277892501093447208e-03
1.706000000000000000e+03 6.150057220458984375e+01 -1.161542034149169922e+01 -1.704756617546081543e+00 3.674369156360626221e-01 -4.011959135532379150e-01 2.695729136466979980e-01
1.707000000000000000e+03 6.034723663330078125e+01 -1.220037460327148438e+01 -1.080526709556579590e+00 4.538226425647735596e-01 -1.880112439393997192e-01 1.893331706523895264e-01
1.708000000000000000e+03 3.524057769775390625e+01 -2.883219528198242188e+01 7.340375781059265137e-01 8.769397139549255371e-01 4.832932054996490479e-01 7.545759081840515137e-01
1.709000000000000000e+03 3.168880224227905273e+00 3.027299690246582031e+01 -9.588273824192583561e-04 -8.584617637097835541e-03 -2.863033441826701164e-03 5.427703261375427246e-03
1.710000000000000000e+03 3.262524366378784180e+00 3.162285041809082031e+01 2.869224699679762125e-04 -1.045083999633789062e-02 -3.049175255000591278e-03 5.626099184155464172e-03
1.711000000000000000e+03 2.914773464202880859e+00 2.342545318603515625e+01 -5.286089726723730564e-04 -9.999762987717986107e-04 -4.585756105370819569e-04 1.623810385353863239e-03
1.712000000000000000e+03 2.968427658081054688e+00 2.478309822082519531e+01 -1.312014646828174591e-03 -2.057181904092431068e-03 -1.010759035125374794e-03 2.368916990235447884e-03
1.713000000000000000e+03 2.485091209411621094e+00 3.640593338012695312e+01 1.133621088229119778e-03 -1.756952144205570221e-02 -4.930770490318536758e-03 3.399372333660721779e-03
1.714000000000000000e+03 2.997549533843994141e+00 2.615381622314453125e+01 -6.198699120432138443e-04 -3.201877698302268982e-03 -1.146524329669773579e-03 3.201627638190984726e-03
1.715000000000000000e+03 2.980550289154052734e+00 2.752451515197753906e+01 -1.237868098542094231e-03 -4.672727081924676895e-03 -1.773178577423095703e-03 3.937772475183010101e-03
1.716000000000000000e+03 2.983723402023315430e+00 2.888837051391601562e+01 -3.305586578790098429e-04 -6.371983792632818222e-03 -2.010762691497802734e-03 4.606082569807767868e-03
1.717000000000000000e+03 3.333000659942626953e+00 -2.787102699279785156e+01 6.158455833792686462e-02 -1.246703267097473145e+00 -3.555355966091156006e-01 -1.866201460361480713e-01
1.718000000000000000e+03 3.470146656036376953e+00 -2.653357887268066406e+01 6.913897395133972168e-02 -1.163552045822143555e+00 -3.283239006996154785e-01 -2.371909469366073608e-01
1.719000000000000000e+03 3.276083707809448242e+00 -3.162341308593750000e+01 4.046938568353652954e-02 -1.384661197662353516e+00 -4.032575488090515137e-01 -8.320967853069305420e-02
1.720000000000000000e+03 2.854989290237426758e+00 2.208770561218261719e+01 -1.068272744305431843e-03 -3.992444835603237152e-04 -4.402551567181944847e-04 8.288598619401454926e-04
1.721000000000000000e+03 2.076206207275390625e+00 -1.087584209442138672e+01 -4.814854636788368225e-02 7.770884782075881958e-02 8.868090808391571045e-03 -6.977883726358413696e-02
1.722000000000000000e+03 1.715716719627380371e+00 -6.590534210205078125e+00 -1.327366288751363754e-02 1.344812065362930298e-01 3.636226058006286621e-02 4.792642593383789062e-02
1.723000000000000000e+03 1.905950188636779785e+00 -1.776413726806640625e+01 -1.216103415936231613e-02 -4.775125086307525635e-01 -1.469020694494247437e-01 -2.629422545433044434e-01
1.724000000000000000e+03 3.193150281906127930e+00 -1.772019386291503906e+01 -3.007632866501808167e-02 -4.616433382034301758e-01 -1.475158929824829102e-01 -3.947107493877410889e-01
1.725000000000000000e+03 2.917696714401245117e+00 1.678977012634277344e+01 -3.956759755965322256e-04 3.053484251722693443e-04 -2.709826549107674509e-05 -4.812273837160319090e-04
1.726000000000000000e+03 2.820460319519042969e+00 1.813547897338867188e+01 1.419728068867698312e-04 3.522621700540184975e-04 1.482704828958958387e-04 -2.279371838085353374e-04
1.727000000000000000e+03 3.152484893798828125e+00 1.387631893157958984e+01 -1.941276714205741882e-04 1.644447620492428541e-04 -8.904872629500459880e-06 -4.137867072131484747e-04
1.728000000000000000e+03 3.280535221099853516e+00 8.295301437377929688e+00 -1.289065403398126364e-04 1.150552179751684889e-05 -3.522030601743608713e-05 -1.660155976423993707e-04
1.729000000000000000e+03 2.845055818557739258e+00 -5.499590396881103516e+00 -1.744569092988967896e-02 7.386094331741333008e-02 1.692457683384418488e-02 8.213151991367340088e-02
1.730000000000000000e+03 3.418228626251220703e+00 -1.126379489898681641e+01 -1.080458462238311768e-01 -5.873762071132659912e-03 -3.417588397860527039e-02 -1.351642161607742310e-01
1.731000000000000000e+03 3.106316328048706055e+00 -1.380852699279785156e+01 -7.997864484786987305e-02 -1.301848441362380981e-01 -6.304904818534851074e-02 -2.590795755386352539e-01
1.732000000000000000e+03 3.288173437118530273e+00 -1.908629417419433594e+01 -4.226294811815023422e-03 -5.857553482055664062e-01 -1.769945025444030762e-01 -4.205156266689300537e-01
1.733000000000000000e+03 3.574608087539672852e+00 -2.354438400268554688e+01 7.207220792770385742e-02 -9.600493311882019043e-01 -2.663931250572204590e-01 -3.571117818355560303e-01
1.734000000000000000e+03 3.532641410827636719e+00 -2.201895523071289062e+01 5.395522341132164001e-02 -8.475601077079772949e-01 -2.380814552307128906e-01 -3.978383839130401611e-01
1.735000000000000000e+03 5.075134754180908203e+00 -2.360554504394531250e+01 1.371520459651947021e-01 -8.287127017974853516e-01 -2.074681967496871948e-01 -4.512095451354980469e-01
1.736000000000000000e+03 3.100896835327148438e+00 -1.509759712219238281e+01 -7.135476917028427124e-02 -2.258658558130264282e-01 -8.916618674993515015e-02 -3.140876591205596924e-01
1.737000000000000000e+03 2.967802762985229492e+00 -7.866246700286865234e+00 -5.083192139863967896e-02 8.025390654802322388e-02 8.826596662402153015e-03 2.797485142946243286e-02
1.738000000000000000e+03 4.006194591522216797e+00 -7.666371822357177734e+00 -8.487511426210403442e-02 3.723911568522453308e-02 -1.429080031812191010e-02 2.868889458477497101e-02
1.739000000000000000e+03 3.090176105499267578e+00 6.045790195465087891e+00 6.844765448477119207e-05 2.462626616761554033e-05 2.792217674141284078e-05 -1.199010075652040541e-04
1.740000000000000000e+03 2.997760057449340820e+00 1.101445007324218750e+01 -1.499082864029332995e-04 1.413926947861909866e-04 -2.554677621446899138e-06 -2.467160229571163654e-04
1.741000000000000000e+03 3.034762620925903320e+00 1.239945507049560547e+01 3.845728642772883177e-04 1.085014882846735418e-04 1.479222992202267051e-04 -3.379778063390403986e-04
1.742000000000000000e+03 3.107380151748657227e+00 1.537719726562500000e+01 3.525009087752550840e-04 1.948590797837823629e-04 1.642080023884773254e-04 -4.007635579910129309e-04
1.743000000000000000e+03 3.813649415969848633e+00 4.719977378845214844e+00 3.275700146332383156e-05 6.137229502201080322e-05 2.823879003699403256e-05 -8.746123057790100574e-05
1.744000000000000000e+03 2.785014867782592773e+00 1.945392990112304688e+01 -6.922695320099592209e-04 2.793666499201208353e-04 -1.238708646269515157e-04 -1.167029695352539420e-04
1.745000000000000000e+03 3.064082860946655273e+00 9.659211158752441406e+00 3.182992222718894482e-04 7.390215614577755332e-05 1.176604127977043390e-04 -1.711936347419396043e-04
1.746000000000000000e+03 3.356711959838867188e+01 -6.419023990631103516e+00 -5.148570537567138672e-01 8.724706768989562988e-01 1.072840914130210876e-01 -2.817473113536834717e-01
1.747000000000000000e+03 3.761769866943359375e+01 -1.670212173461914062e+01 6.881641745567321777e-01 2.839019000530242920e-01 2.916198074817657471e-01 -6.513017416000366211e-01
1.748000000000000000e+03 3.775123596191406250e+01 -1.546063518524169922e+01 8.975837230682373047e-01 3.736336231231689453e-01 3.813652098178863525e-01 -1.056692242622375488e+00
1.749000000000000000e+03 7.884697723388671875e+01 -1.963459396362304688e+01 -2.070320770144462585e-04 4.069583083037286997e-04 5.997787229716777802e-05 -3.416873223613947630e-04
1.750000000000000000e+03 7.824980163574218750e+01 -1.938176345825195312e+01 1.033805194310843945e-03 8.295242150779813528e-05 3.350272600073367357e-04 -1.686567993601784110e-04
1.751000000000000000e+03 5.190036010742187500e+01 -1.240243244171142578e+01 1.209585309028625488e+00 1.080458402633666992e+00 6.870130896568298340e-01 2.277488946914672852e+00
1.752000000000000000e+03 5.292365646362304688e+01 -1.352494335174560547e+01 2.036915540695190430e+00 5.142326951026916504e-01 7.653444409370422363e-01 1.559887528419494629e+00
1.753000000000000000e+03 3.943037796020507812e+01 1.244287395477294922e+01 -2.425051666796207428e-02 5.234654061496257782e-03 -5.704758688807487488e-03 -7.181262131780385971e-03
1.754000000000000000e+03 3.893373107910156250e+01 1.158363914489746094e+01 -1.836100965738296509e-02 5.096452659927308559e-04 -5.355409346520900726e-03 -3.443658119067549706e-03
1.755000000000000000e+03 3.774214172363281250e+01 -1.903051376342773438e+01 4.067416787147521973e-01 3.639398217201232910e-01 2.312044501304626465e-01 1.121889874339103699e-01
1.756000000000000000e+03 3.753862762451171875e+01 -1.780402946472167969e+01 4.653074145317077637e-01 2.284599691629409790e-01 2.081302106380462646e-01 -2.634512186050415039e-01
1.757000000000000000e+03 2.014633178710937500e+01 -3.017632484436035156e+01 8.493224382400512695e-01 5.820083618164062500e-01 4.293992519378662109e-01 -4.507817625999450684e-01
1.758000000000000000e+03 5.675583648681640625e+01 -4.324525833129882812e+00 -3.288193345069885254e-01 2.248869180679321289e+00 5.760149359703063965e-01 1.080732464790344238e+00
1.759000000000000000e+03 4.258850097656250000e+01 -2.391255569458007812e+01 6.517812013626098633e-01 3.367596626281738281e+00 1.205813288688659668e+00 8.546339869499206543e-01
1.760000000000000000e+03 3.684214782714843750e+01 -1.061634159088134766e+01 8.634029030799865723e-01 5.665112137794494629e-01 4.289742410182952881e-01 -1.115186095237731934e+00
1.761000000000000000e+03 6.259107208251953125e+01 2.815639495849609375e+00 7.366760969161987305e-01 3.477019071578979492e+00 1.264108538627624512e+00 7.885754108428955078e-01
1.762000000000000000e+03 6.150853347778320312e+01 3.752865314483642578e+00 8.331823945045471191e-01 4.044837951660156250e+00 1.463406085968017578e+00 1.179016590118408203e+00
1.763000000000000000e+03 6.324911117553710938e+01 -3.134984207153320312e+01 -7.172312587499618530e-02 1.174567732959985733e-02 -1.799323596060276031e-02 3.264624252915382385e-02
1.764000000000000000e+03 9.901168823242187500e+00 -2.021794509887695312e+01 1.913744211196899414e-01 -4.206870794296264648e-01 -6.879379600286483765e-02 -8.036194443702697754e-01
1.765000000000000000e+03 3.890087509155273438e+01 1.360115337371826172e+01 -3.868036717176437378e-02 1.177257951349020004e-02 -8.072336204349994659e-03 -8.562683360651135445e-04
1.766000000000000000e+03 5.846151351928710938e+01 -2.204781532287597656e+00 5.007854104042053223e-01 2.354405403137207031e+00 8.565572500228881836e-01 1.171643018722534180e+00
1.767000000000000000e+03 3.128049659729003906e+01 -3.028336715698242188e+01 8.163849115371704102e-01 6.489310264587402344e-01 4.395947754383087158e-01 4.744692444801330566e-01
1.768000000000000000e+03 3.030763435363769531e+01 -3.125720024108886719e+01 7.999465465545654297e-01 6.382262110710144043e-01 4.314518272876739502e-01 3.482075035572052002e-01
1.769000000000000000e+03 7.053553771972656250e+01 -2.178700065612792969e+01 9.185730596072971821e-04 -5.523909931071102619e-04 1.098546272260136902e-04 -6.023275200277566910e-04
1.770000000000000000e+03 5.926156234741210938e+01 -1.095631837844848633e+00 6.966060996055603027e-01 2.576913118362426758e+00 9.820557832717895508e-01 1.209529280662536621e+00
1.771000000000000000e+03 6.248534011840820312e+01 -3.313280487060546875e+01 -4.317047074437141418e-02 7.263436447829008102e-03 -1.077211089432239532e-02 4.722812399268150330e-02
1.772000000000000000e+03 2.465722274780273438e+01 -7.636923789978027344e+00 -5.637207031250000000e-01 -2.848796248435974121e-01 -2.545801103115081787e-01 -6.869795918464660645e-01
1.773000000000000000e+03 6.450107574462890625e+01 -2.899217796325683594e+01 -6.054267287254333496e-02 5.878592841327190399e-03 -1.639922522008419037e-02 8.807035046629607677e-04
1.774000000000000000e+03 3.672850036621093750e+01 -2.052358627319335938e+01 1.571163237094879150e-01 -1.544663608074188232e-01 7.949908613227307796e-04 3.938958346843719482e-01
1.775000000000000000e+03 4.418374633789062500e+01 -1.949470901489257812e+01 2.062326192855834961e+00 4.942720413208007812e+00 2.101514101028442383e+00 1.670964956283569336e+00
1.776000000000000000e+03 2.021222114562988281e+00 3.194113016128540039e+00 -5.222703293839003891e-06 4.300855289329774678e-05 1.133575551648391411e-05 -1.416084796801442280e-05
1.777000000000000000e+03 3.763459777832031250e+01 -1.294699096679687500e+01 1.051655769348144531e+00 3.919583261013031006e-01 4.330842196941375732e-01 -1.349166750907897949e+00
1.778000000000000000e+03 4.818921661376953125e+01 -7.718869209289550781e+00 -2.426303386688232422e+00 -5.714339762926101685e-02 -7.450340390205383301e-01 1.356472611427307129e+00
1.779000000000000000e+03 1.398138046264648438e+01 -1.338737297058105469e+01 -1.092502117156982422e+00 -7.848616838455200195e-01 -5.632091164588928223e-01 -6.317206621170043945e-01
1.780000000000000000e+03 4.935692977905273438e+01 -8.117162704467773438e+00 -1.956339836120605469e+00 1.613641381263732910e-01 -5.384926795959472656e-01 1.934535264968872070e+00
1.781000000000000000e+03 5.156631851196289062e+01 -7.533083438873291016e+00 -2.183176279067993164e+00 8.518264889717102051e-01 -3.994049727916717529e-01 2.346376180648803711e+00
1.782000000000000000e+03 6.319679641723632812e+01 1.039963531494140625e+01 6.358439922332763672e-01 6.336534976959228516e+00 2.091713666915893555e+00 8.693189620971679688e-01
1.783000000000000000e+03 1.386443710327148438e+01 -2.073059844970703125e+01 4.016648232936859131e-01 4.219058752059936523e-01 2.470712065696716309e-01 -5.871015191078186035e-01
1.784000000000000000e+03 4.497500228881835938e+01 -3.219065093994140625e+01 -1.984211206436157227e-01 1.707165122032165527e+00 4.526232182979583740e-01 -8.255234360694885254e-02
1.785000000000000000e+03 4.803013610839843750e+01 -3.071761894226074219e+01 9.513399563729763031e-03 1.270202517509460449e+00 3.839147686958312988e-01 -5.324310064315795898e-01
1.786000000000000000e+03 1.746357727050781250e+01 -1.062121582031250000e+01 -1.268210053443908691e+00 -8.853175640106201172e-01 -6.460582613945007324e-01 -6.860989332199096680e-01
1.787000000000000000e+03 4.619226455688476562e+01 -1.366180515289306641e+01 2.246995687484741211e+00 2.922666549682617188e+00 1.550898671150207520e+00 1.068548083305358887e+00
1.788000000000000000e+03 5.471787261962890625e+01 -7.260699748992919922e+00 -1.402977585792541504e+00 1.920671939849853516e+00 1.553083062171936035e-01 1.812153100967407227e+00
1.789000000000000000e+03 4.249465942382812500e+01 -2.174938011169433594e+01 1.078690648078918457e+00 3.688165664672851562e+00 1.430056929588317871e+00 1.113453149795532227e+00
1.790000000000000000e+03 3.636391830444335938e+01 -2.623773574829101562e+01 7.448078393936157227e-01 8.293771147727966309e-01 4.722554981708526611e-01 9.289522767066955566e-01
1.791000000000000000e+03 3.689742279052734375e+01 -2.326003646850585938e+01 5.595611333847045898e-01 4.465796053409576416e-01 3.018422126770019531e-01 9.539887905120849609e-01
1.792000000000000000e+03 4.087925338745117188e+01 -6.134992122650146484e+00 -2.349273204803466797e+00 1.018220260739326477e-01 -6.742353439331054688e-01 -1.315338611602783203e-01
1.793000000000000000e+03 1.570871639251708984e+01 -9.264455795288085938e+00 -7.975015640258789062e-01 -6.418228745460510254e-01 -4.317973256111145020e-01 -3.822810351848602295e-01
1.794000000000000000e+03 4.322935867309570312e+01 -6.376397609710693359e+00 -2.995150327682495117e+00 -1.688129007816314697e-01 -9.491890072822570801e-01 2.235605269670486450e-01
1.795000000000000000e+03 3.574237823486328125e+01 -3.205928802490234375e+01 4.827211499214172363e-01 1.076276183128356934e+00 4.676991999149322510e-01 5.569691061973571777e-01
1.796000000000000000e+03 5.946603775024414062e+01 -3.408189392089843750e+01 -3.734269738197326660e-02 6.882355082780122757e-03 -9.138102643191814423e-03 5.342362821102142334e-02
1.797000000000000000e+03 3.839666366577148438e+01 -2.321646690368652344e+01 7.069229483604431152e-01 1.166531801223754883e+00 5.620364546775817871e-01 1.094840764999389648e+00
1.798000000000000000e+03 4.531645965576171875e+01 -3.021433448791503906e+01 -1.698801517486572266e-01 1.949567198753356934e+00 5.339061021804809570e-01 -6.851842254400253296e-02
1.799000000000000000e+03 6.369361877441406250e+01 -1.015697383880615234e+01 -1.185134649276733398e+00 -1.130605712532997131e-01 -3.894585669040679932e-01 1.158868446946144104e-01
1.800000000000000000e+03 2.872992324829101562e+01 -2.441130638122558594e+00 -1.893084406852722168e+00 5.648558214306831360e-02 -5.509796738624572754e-01 -6.045113205909729004e-01
1.801000000000000000e+03 2.608869552612304688e+01 -2.900722503662109375e+00 -1.184212923049926758e+00 -1.288149505853652954e-01 -3.939083516597747803e-01 -7.960478663444519043e-01
1.802000000000000000e+03 2.761351013183593750e+01 -2.305441856384277344e+00 -1.730599164962768555e+00 -1.058562025427818298e-01 -5.509365797042846680e-01 -6.146051287651062012e-01
1.803000000000000000e+03 3.029326057434082031e+01 -2.119891166687011719e+00 -2.379049301147460938e+00 2.604741454124450684e-01 -6.355725526809692383e-01 -4.594932794570922852e-01
1.804000000000000000e+03 2.897755241394042969e+01 -2.516403198242187500e+00 -1.917202711105346680e+00 8.927541971206665039e-02 -5.483781695365905762e-01 -6.100356578826904297e-01
1.805000000000000000e+03 2.972915649414062500e+01 -2.522317886352539062e+00 -2.081627607345581055e+00 2.035861760377883911e-01 -5.634124279022216797e-01 -5.655411481857299805e-01
1.806000000000000000e+03 2.975572586059570312e+01 -2.913541793823242188e+00 -1.908921241760253906e+00 2.083911895751953125e-01 -5.101590156555175781e-01 -6.284350156784057617e-01
1.807000000000000000e+03 3.126364135742187500e+01 -2.113362312316894531e+00 -2.654417514801025391e+00 2.775668203830718994e-01 -7.130551934242248535e-01 -5.002357959747314453e-01
1.808000000000000000e+03 3.096300697326660156e+01 -2.230087757110595703e+00 -2.447516441345214844e+00 2.655900716781616211e-01 -6.545779705047607422e-01 -4.496570527553558350e-01
1.809000000000000000e+03 3.117951202392578125e+01 -1.844328880310058594e+00 -2.795681476593017578e+00 3.026056885719299316e-01 -7.479227781295776367e-01 -3.205098807811737061e-01
1.810000000000000000e+03 3.375579071044921875e+01 2.606562614440917969e+00 -7.852782146073877811e-04 -8.956367964856326580e-04 -5.042745033279061317e-04 7.361493771895766258e-04
1.811000000000000000e+03 2.565505409240722656e+01 2.284660148620605469e+01 -1.241484358906745911e-01 -3.009739145636558533e-02 -4.627374932169914246e-02 5.154518783092498779e-02
1.812000000000000000e+03 1.933251571655273438e+01 2.299753761291503906e+01 -5.957997590303421021e-02 -1.097128726541996002e-03 -1.820313185453414917e-02 9.479785338044166565e-03
1.813000000000000000e+03 3.416793441772460938e+01 -3.039143323898315430e+00 -2.110365152359008789e+00 3.040280640125274658e-01 -5.419011116027832031e-01 2.517572939395904541e-01
1.814000000000000000e+03 1.732885360717773438e+01 8.437257766723632812e+00 5.543896622839383781e-05 7.204408120742300525e-06 1.879301271401345730e-05 -3.746734364540316164e-05
1.815000000000000000e+03 1.839965248107910156e+01 7.333217620849609375e+00 -5.343463999452069402e-05 -5.163243258721195161e-05 -3.152012141072191298e-05 -3.623431985033676028e-05
1.816000000000000000e+03 1.786020660400390625e+01 6.745143890380859375e+00 1.920986869663465768e-05 4.461235948838293552e-05 1.914666790980845690e-05 3.847719926852732897e-05
1.817000000000000000e+03 2.415578842163085938e+01 2.328361320495605469e+01 -1.100232452154159546e-01 -2.162766829133033752e-02 -3.949527442455291748e-02 4.180740937590599060e-02
1.818000000000000000e+03 2.070903015136718750e+01 2.267616271972656250e+01 -8.644905686378479004e-02 -3.269182518124580383e-03 -2.691547200083732605e-02 9.180228225886821747e-03
1.819000000000000000e+03 1.358720874786376953e+01 1.570696926116943359e+01 -3.137101884931325912e-04 1.162127591669559479e-03 2.545252209529280663e-04 5.652661784552037716e-04
1.820000000000000000e+03 2.124102210998535156e+01 4.777864933013916016e+00 1.534557668492197990e-05 2.213239167758729309e-05 1.124339087255066261e-05 4.763163815368898213e-06
1.821000000000000000e+03 1.336540412902832031e+01 1.748077201843261719e+01 4.215872031636536121e-04 1.015313551761209965e-03 4.310702206566929817e-04 4.917564219795167446e-04
1.822000000000000000e+03 2.708097648620605469e+01 2.207744979858398438e+01 -1.529471129179000854e-01 -4.129802808165550232e-02 -5.827353894710540771e-02 6.885615736246109009e-02
1.823000000000000000e+03 3.430971908569335938e+01 5.590101242065429688e+00 -4.490308638196438551e-04 -2.180287701776251197e-04 -2.001178945647552609e-04 -8.885610441211611032e-05
1.824000000000000000e+03 3.474922180175781250e+01 6.488026618957519531e+00 1.170762232504785061e-03 4.174817149760201573e-05 3.637531190179288387e-04 -1.451090676710009575e-03
1.825000000000000000e+03 1.554335975646972656e+01 9.624214172363281250e+00 -1.514693140052258968e-04 1.454053563065826893e-04 -1.819184603846224491e-06 -4.247411197866313159e-06
1.826000000000000000e+03 1.570248889923095703e+01 1.010462951660156250e+01 -1.522750098956748843e-04 1.368946250295266509e-04 -4.614116733137052506e-06 -5.420216621132567525e-05
1.827000000000000000e+03 3.272391891479492188e+01 1.649427223205566406e+01 -3.873660042881965637e-02 -2.406332269310951233e-02 -1.883997768163681030e-02 4.009806737303733826e-02
1.828000000000000000e+03 1.694668388366699219e+01 7.977372169494628906e+00 9.005663741845637560e-05 5.436132414615713060e-05 4.332538810558617115e-05 -3.051728526770602912e-05
1.829000000000000000e+03 1.426718807220458984e+01 1.740543365478515625e+01 5.495790974237024784e-04 2.725886413827538490e-03 9.826396126300096512e-04 5.239482270553708076e-04
1.830000000000000000e+03 1.503526878356933594e+01 1.112673759460449219e+01 1.247390318894758821e-04 3.583751094993203878e-04 1.449342380510643125e-04 8.432095637544989586e-05
1.831000000000000000e+03 3.238855743408203125e+01 1.518800544738769531e+01 -1.462445408105850220e-02 -2.206314727663993835e-02 -1.100628077983856201e-02 2.128619141876697540e-02
1.832000000000000000e+03 1.425626087188720703e+01 1.169208717346191406e+01 -1.627667661523446441e-04 3.382280119694769382e-04 5.263838102109730244e-05 1.858849427662789822e-04
1.833000000000000000e+03 1.330524253845214844e+01 1.712314224243164062e+01 -3.126348892692476511e-04 8.686342625878751278e-04 1.667998003540560603e-04 8.962063002400100231e-04
1.834000000000000000e+03 1.375755882263183594e+01 1.704725646972656250e+01 5.413045291788876057e-04 1.612614141777157784e-03 6.461755838245153427e-04 5.780695355497300625e-04
1.835000000000000000e+03 1.734267616271972656e+01 2.212397766113281250e+01 -3.453721851110458374e-02 -4.911689902655780315e-04 -1.050851680338382721e-02 -7.066749385558068752e-04
1.836000000000000000e+03 2.082130050659179688e+01 3.889886379241943359e+00 1.503564635640941560e-05 5.161283115739934146e-05 1.999454252654686570e-05 -2.129110907844733447e-05
1.837000000000000000e+03 3.322396850585937500e+01 1.457488632202148438e+01 -1.932313106954097748e-02 -1.174549665302038193e-02 -9.320588782429695129e-03 2.116194926202297211e-02
1.838000000000000000e+03 1.979772377014160156e+01 2.309390640258789062e+01 -6.726545095443725586e-02 -1.807014225050806999e-03 -2.072174102067947388e-02 1.175618078559637070e-02
1.839000000000000000e+03 1.888179779052734375e+01 2.276387977600097656e+01 -5.348372459411621094e-02 -2.272539859404787421e-05 -1.605193503201007843e-02 5.421398673206567764e-03
1.840000000000000000e+03 2.291481781005859375e+01 2.313111877441406250e+01 -1.066548302769660950e-01 -1.609271392226219177e-02 -3.682426363229751587e-02 2.956311218440532684e-02
1.841000000000000000e+03 3.159119987487792969e+01 1.981069183349609375e+01 -9.969446063041687012e-02 -3.338135033845901489e-02 -3.992274403572082520e-02 5.802270397543907166e-02
1.842000000000000000e+03 3.211076354980468750e+01 1.749537849426269531e+01 -5.199247971177101135e-02 -3.685120493173599243e-02 -2.665310539305210114e-02 5.035207048058509827e-02
1.843000000000000000e+03 3.426280975341796875e+01 8.486276626586914062e+00 1.725970534607768059e-03 9.764869464561343193e-04 8.107372559607028961e-04 -1.825502375140786171e-03
1.844000000000000000e+03 1.943814086914062500e+01 5.986155509948730469e+00 2.921617851825430989e-05 2.461932308506220579e-05 1.615065048099495471e-05 -1.603960845386609435e-05
1.845000000000000000e+03 1.997268295288085938e+01 4.029555797576904297e+00 -3.140131229883991182e-05 5.727953976020216942e-06 -7.702007678744848818e-06 5.385226813814369962e-06
1.846000000000000000e+03 3.336611557006835938e+01 1.069034481048583984e+01 -3.111931437160819769e-04 1.383466878905892372e-03 3.216821060050278902e-04 6.879103020764887333e-04
1.847000000000000000e+03 3.407834243774414062e+01 9.225352287292480469e+00 8.148397901095449924e-04 1.713673467747867107e-03 7.585539715364575386e-04 -1.374311279505491257e-03
1.848000000000000000e+03 1.403648090362548828e+01 2.053634262084960938e+01 -9.005850180983543396e-03 1.784690306521952152e-03 -2.166348043829202652e-03 -1.391198602505028248e-03
1.849000000000000000e+03 1.483312225341796875e+01 1.003713703155517578e+01 5.367606718209572136e-05 2.883525448851287365e-04 1.026085810735821724e-04 1.037162437569350004e-04
1.850000000000000000e+03 1.536400127410888672e+01 9.925423622131347656e+00 8.576728578191250563e-05 2.184730692533776164e-04 9.127210068982094526e-05 4.371282557258382440e-05
1.851000000000000000e+03 2.676473999023437500e+01 2.269788932800292969e+01 -1.295611858367919922e-01 -4.049821943044662476e-02 -5.101782083511352539e-02 6.081441044807434082e-02
1.852000000000000000e+03 2.601893615722656250e+01 2.266026306152343750e+01 -1.308466494083404541e-01 -3.123237192630767822e-02 -4.862370714545249939e-02 5.528598278760910034e-02
1.853000000000000000e+03 3.296900939941406250e+01 1.550345516204833984e+01 -2.332682907581329346e-02 -1.915282197296619415e-02 -1.274389587342739105e-02 2.873225323855876923e-02
1.854000000000000000e+03 3.351198196411132812e+01 1.240478706359863281e+01 -4.034955985844135284e-03 -3.495474811643362045e-03 -2.259129192680120468e-03 5.985997617244720459e-03
1.855000000000000000e+03 1.965027236938476562e+01 6.299609184265136719e+00 -2.160725307476241142e-05 -4.287655974621884525e-05 -1.934514511958695948e-05 -1.691038960416335613e-05
1.856000000000000000e+03 3.366692352294921875e+01 1.186871147155761719e+01 -5.050886888056993484e-03 -1.841278048232197762e-03 -2.067649504169821739e-03 4.339420236647129059e-03
1.857000000000000000e+03 3.445732116699218750e+01 3.695486068725585938e+00 1.433111377991735935e-03 -3.690564772114157677e-04 3.192164876963943243e-04 2.772000734694302082e-04
1.858000000000000000e+03 2.113540649414062500e+01 2.271571922302246094e+01 -9.538996219635009766e-02 -6.956930737942457199e-03 -3.070406801998615265e-02 1.294425688683986664e-02
1.859000000000000000e+03 2.025325393676757812e+01 2.316404342651367188e+01 -7.297283411026000977e-02 -3.623722353950142860e-03 -2.297896705567836761e-02 1.529431529343128204e-02
1.860000000000000000e+03 1.921430587768554688e+01 5.729938030242919922e+00 -7.057205220917239785e-05 -2.091679016302805394e-05 -2.744665289355907589e-05 2.932357892859727144e-05
1.861000000000000000e+03 1.678914070129394531e+01 8.835196495056152344e+00 1.223008293891325593e-04 7.548553548986092210e-05 5.933591091888956726e-05 2.402773679932579398e-05
1.862000000000000000e+03 1.661009979248046875e+01 9.220426559448242188e+00 -1.206741508212871850e-04 2.489112375769764185e-05 -2.873490848287474364e-05 -6.880674482090398669e-05
1.863000000000000000e+03 3.414113616943359375e+01 8.083892822265625000e+00 -1.057223067618906498e-03 5.371354054659605026e-04 -1.560262753628194332e-04 -5.933404900133609772e-04
1.864000000000000000e+03 3.193976593017578125e+01 1.683573150634765625e+01 -3.361495956778526306e-02 -4.095415771007537842e-02 -2.237073518335819244e-02 4.220099374651908875e-02
1.865000000000000000e+03 3.170003700256347656e+01 1.742399406433105469e+01 -4.228896647691726685e-02 -4.989707842469215393e-02 -2.765581384301185608e-02 4.965993762016296387e-02
1.866000000000000000e+03 2.599822807312011719e+01 2.223031425476074219e+01 -1.477804183959960938e-01 -2.810012549161911011e-02 -5.276416242122650146e-02 5.481494590640068054e-02
1.867000000000000000e+03 3.462811660766601562e+01 5.306359291076660156e+00 4.527581913862377405e-04 7.375331479124724865e-04 3.570874105207622051e-04 -3.330721810925751925e-04
1.868000000000000000e+03 2.638223838806152344e+01 2.264677810668945312e+01 -1.322150379419326782e-01 -3.716935962438583374e-02 -5.081531777977943420e-02 5.966550111770629883e-02
1.869000000000000000e+03 1.571373462677001953e+01 2.099714851379394531e+01 -1.508589833974838257e-02 5.708393873646855354e-04 -4.354517441242933273e-03 -2.609074348583817482e-03
1.870000000000000000e+03 1.859426307678222656e+01 6.371812820434570312e+00 3.651009319582954049e-05 6.118253077147528529e-05 2.930778646259568632e-05 1.800253630790393800e-05
1.871000000000000000e+03 3.370858001708984375e+01 1.274858188629150391e+01 -1.112450938671827316e-02 -4.424018319696187973e-03 -4.664558451622724533e-03 1.015188731253147125e-02
1.872000000000000000e+03 3.475549697875976562e+01 8.259733200073242188e+00 -7.360949530266225338e-04 -1.379959750920534134e-03 -6.348164170049130917e-04 1.169498646049760282e-04
1.873000000000000000e+03 3.458852386474609375e+01 7.933228015899658203e+00 1.552014146000146866e-03 7.964952383190393448e-04 7.045528036542236805e-04 -1.555471331812441349e-03
1.874000000000000000e+03 2.598257637023925781e+01 -3.775068283081054688e+00 -9.710835814476013184e-01 -1.494177132844924927e-01 -3.361503779888153076e-01 -9.053988456726074219e-01
1.875000000000000000e+03 1.464192962646484375e+01 1.182850551605224609e+01 4.478814662434160709e-05 6.125351646915078163e-04 1.971969904843717813e-04 1.410083059454336762e-04
1.876000000000000000e+03 3.451484298706054688e+01 6.768466472625732422e+00 -1.171281983260996640e-04 3.378464607521891594e-04 6.621547800023108721e-05 -8.449352026218548417e-05
1.877000000000000000e+03 3.441822814941406250e+01 7.037912845611572266e+00 1.406573865097016096e-04 -5.283685750328004360e-04 -1.163133638328872621e-04 -1.557500800117850304e-03
1.878000000000000000e+03 3.157843017578125000e+01 1.820810127258300781e+01 -6.096859276294708252e-02 -5.259293690323829651e-02 -3.406845778226852417e-02 5.931557342410087585e-02
1.879000000000000000e+03 3.108835220336914062e+01 1.807968139648437500e+01 -5.390820652246475220e-02 -7.227123528718948364e-02 -3.785383328795433044e-02 5.834023654460906982e-02
1.880000000000000000e+03 1.360334777832031250e+01 1.397280025482177734e+01 4.044103261549025774e-04 7.667973404750227928e-04 3.513622796162962914e-04 4.602206172421574593e-04
1.881000000000000000e+03 1.595401287078857422e+01 2.133776283264160156e+01 -1.912757009267807007e-02 1.580866519361734390e-03 -5.264011211693286896e-03 -2.079024910926818848e-03
1.882000000000000000e+03 1.553625774383544922e+01 2.153902244567871094e+01 -2.001908235251903534e-02 1.905606477521359921e-03 -5.434042774140834808e-03 1.715669895929750055e-05
1.883000000000000000e+03 2.199203491210937500e+01 2.272225189208984375e+01 -1.094060838222503662e-01 -1.411848142743110657e-02 -3.705736994743347168e-02 1.872034370899200439e-02
1.884000000000000000e+03 1.448502254486083984e+01 2.061487960815429688e+01 -9.072199463844299316e-03 2.288466319441795349e-03 -2.035120036453008652e-03 -1.602169708348810673e-03
1.885000000000000000e+03 1.371126937866210938e+01 1.525337600708007812e+01 5.769362323917448521e-04 1.114235841669142246e-03 5.073515931144356728e-04 6.092553376220166683e-04
1.886000000000000000e+03 1.382436561584472656e+01 1.483170986175537109e+01 -2.456691290717571974e-04 1.139799598604440689e-03 2.682391204871237278e-04 3.777075326070189476e-04
1.887000000000000000e+03 1.441896533966064453e+01 1.409963035583496094e+01 4.231128550600260496e-04 1.176565070636570454e-03 4.799033922608941793e-04 2.296381862834095955e-04
1.888000000000000000e+03 2.969336318969726562e+01 2.002418327331542969e+01 -1.378375589847564697e-01 -1.080068498849868774e-01 -7.375331968069076538e-02 1.023918166756629944e-01
1.889000000000000000e+03 2.863113403320312500e+01 2.143907737731933594e+01 -1.535522341728210449e-01 -8.446218818426132202e-02 -7.140432298183441162e-02 7.646880298852920532e-02
1.890000000000000000e+03 2.115649223327636719e+01 2.324650764465332031e+01 -8.424626290798187256e-02 -1.079246029257774353e-02 -2.851161733269691467e-02 2.181525714695453644e-02
1.891000000000000000e+03 1.765495109558105469e+01 2.284066963195800781e+01 -4.079378396272659302e-02 4.690183559432625771e-04 -1.209743041545152664e-02 5.705974064767360687e-03
1.892000000000000000e+03 1.625369071960449219e+01 2.247026634216308594e+01 -2.891026996076107025e-02 2.017728984355926514e-03 -8.067762479186058044e-03 3.783779451623558998e-03
1.893000000000000000e+03 1.936790466308593750e+01 5.068832397460937500e+00 1.405970124324085191e-05 -9.181696441373787820e-06 1.463401304135913961e-06 -1.438897288608131930e-05
1.894000000000000000e+03 1.998005676269531250e+01 4.580467700958251953e+00 3.751946496777236462e-05 -1.461949432268738747e-05 6.869990556879201904e-06 5.688661531166872010e-06
1.895000000000000000e+03 2.249337196350097656e+01 2.319404220581054688e+01 -1.017118766903877258e-01 -1.633023098111152649e-02 -3.541263192892074585e-02 2.688330970704555511e-02
1.896000000000000000e+03 2.898073768615722656e+01 2.119504165649414062e+01 -1.564627885818481445e-01 -8.966577798128128052e-02 -7.383856922388076782e-02 7.598545402288436890e-02
1.897000000000000000e+03 2.885526275634765625e+01 2.185596466064453125e+01 -1.297484338283538818e-01 -7.652752101421356201e-02 -6.188279017806053162e-02 6.276852637529373169e-02
1.898000000000000000e+03 2.957315254211425781e+01 2.134929275512695312e+01 -1.353253722190856934e-01 -7.398819178342819214e-02 -6.279406696557998657e-02 5.863290280103683472e-02
1.899000000000000000e+03 1.666847801208496094e+01 2.269130897521972656e+01 -3.229726850986480713e-02 1.199374208226799965e-03 -9.329368360340595245e-03 5.506925284862518311e-03
1.900000000000000000e+03 1.522329330444335938e+01 2.229735565185546875e+01 -2.230609394609928131e-02 3.227327717468142509e-03 -5.723630078136920929e-03 2.663719467818737030e-03
1.901000000000000000e+03 2.691048622131347656e+01 -2.396332025527954102e+00 -1.527366161346435547e+00 -1.499645113945007324e-01 -5.031992197036743164e-01 -6.714400053024291992e-01
1.902000000000000000e+03 2.672711181640625000e+01 -2.536453723907470703e+00 -1.437518954277038574e+00 -1.720898449420928955e-01 -4.828826487064361572e-01 -7.123253941535949707e-01
1.903000000000000000e+03 3.013662338256835938e+01 2.063972854614257812e+01 -1.343284845352172852e-01 -6.718343496322631836e-02 -6.045357510447502136e-02 6.676818430423736572e-02
1.904000000000000000e+03 2.922107124328613281e+01 2.161198234558105469e+01 -1.317712217569351196e-01 -7.735873013734817505e-02 -6.273898482322692871e-02 6.020354852080345154e-02
1.905000000000000000e+03 1.470322895050048828e+01 2.020076751708984375e+01 -5.968456156551837921e-03 2.323186723515391350e-03 -1.093580853193998337e-03 -1.971815247088670731e-03
1.906000000000000000e+03 3.405181121826171875e+01 2.853760480880737305e+00 -1.454526674933731556e-03 1.263142097741365433e-03 -5.741537097492255270e-05 -1.197824953123927116e-03
1.907000000000000000e+03 2.379718208312988281e+01 2.380423164367675781e+01 -9.387015551328659058e-02 -2.423652261495590210e-02 -3.543200343847274780e-02 4.135336726903915405e-02
1.908000000000000000e+03 1.298705005645751953e+01 1.966209030151367188e+01 -4.406015854328870773e-03 2.511912607587873936e-04 -1.246447442099452019e-03 -7.917843759059906006e-04
1.909000000000000000e+03 1.626413726806640625e+01 8.647242546081542969e+00 -1.184528809972107410e-04 2.831320671248249710e-05 -2.704190228541847318e-05 -1.697139850875828415e-05
1.910000000000000000e+03 1.614550781250000000e+01 9.039219856262207031e+00 1.081575610442087054e-04 1.133940968429669738e-04 6.646549445576965809e-05 3.536606527632102370e-05
1.911000000000000000e+03 7.636410522460937500e+01 -2.100351524353027344e+01 2.602138010843191296e-05 -1.011092354019638151e-05 4.773136879521189258e-06 -7.898382027633488178e-04
1.912000000000000000e+03 7.509353637695312500e+01 -1.970351982116699219e+01 6.968511152081191540e-04 1.225597370648756623e-04 2.458232629578560591e-04 1.500005746493116021e-04
1.913000000000000000e+03 3.155384254455566406e+01 1.918417358398437500e+01 -8.693477511405944824e-02 -4.358934983611106873e-02 -3.915723785758018494e-02 6.450214236974716187e-02
1.914000000000000000e+03 3.202889251708984375e+01 -3.262861728668212891e+00 -1.974175453186035156e+00 1.795443594455718994e-01 -5.383893251419067383e-01 -4.635695815086364746e-01
1.915000000000000000e+03 3.606546020507812500e+01 -1.957499146461486816e+00 -2.358232259750366211e+00 5.532570481300354004e-01 -5.414925813674926758e-01 3.775905966758728027e-01
1.916000000000000000e+03 1.884228324890136719e+01 3.869669675827026367e+00 -2.494121144991368055e-05 -5.667474397341720760e-06 -9.182605936075560749e-06 -7.963940333866048604e-06
1.917000000000000000e+03 1.761310577392578125e+01 3.773666858673095703e+00 -1.550039451103657484e-05 -3.223671228624880314e-06 -5.617219812847906724e-06 5.196660595174762420e-07
1.918000000000000000e+03 1.616045570373535156e+01 3.770100831985473633e+00 -1.510830770712345839e-05 -1.266047456738306209e-05 -8.330634955200366676e-06 8.938837709138169885e-06
1.919000000000000000e+03 1.691489982604980469e+01 3.779457092285156250e+00 1.431631062587257475e-05 2.281633169332053512e-05 1.113979305955581367e-05 3.949453457607887685e-06
1.920000000000000000e+03 3.251467895507812500e+01 -3.763980150222778320e+00 -1.729326128959655762e+00 3.125226795673370361e-01 -4.250410497188568115e-01 -2.668288052082061768e-01
1.921000000000000000e+03 3.866960144042968750e+01 -1.431837439537048340e+00 -1.778830766677856445e+00 2.298572361469268799e-01 -4.646920561790466309e-01 7.819378376007080078e-01
1.922000000000000000e+03 1.470404529571533203e+01 3.135981798171997070e+00 2.758663504209835082e-05 3.741153341252356768e-05 1.949944999068975449e-05 4.526549673755653203e-06
1.923000000000000000e+03 2.006113815307617188e+01 3.510215044021606445e+00 3.040139927179552615e-05 1.113350754167186096e-05 1.246047213498968631e-05 -1.267704374185996130e-05
1.924000000000000000e+03 1.994414710998535156e+01 5.110675334930419922e+00 -3.807685789070092142e-05 -9.641442375141195953e-06 -1.431549026165157557e-05 -1.466579396947054192e-05
1.925000000000000000e+03 1.323827838897705078e+01 4.348883628845214844e+00 4.557418287731707096e-05 4.281229848857037723e-05 2.651594331837259233e-05 7.980152986419852823e-06
1.926000000000000000e+03 1.760510253906250000e+01 3.223506927490234375e+00 1.552049616293516010e-05 2.749875784502364695e-05 1.290577620238764212e-05 -1.486624455537821632e-06
1.927000000000000000e+03 1.178819751739501953e+01 3.820343255996704102e+00 8.325227099703624845e-06 -2.115648385370150208e-05 -3.849377208098303527e-06 5.958168912911787629e-05
1.928000000000000000e+03 3.906628799438476562e+01 -2.550330400466918945e+00 -2.659116983413696289e+00 4.596329331398010254e-01 -6.598451733589172363e-01 7.205750346183776855e-01
1.929000000000000000e+03 1.824541282653808594e+01 3.802403926849365234e+00 2.125313403666950762e-05 1.458874339732574299e-05 1.075256295735016465e-05 8.015117032300622668e-07
1.930000000000000000e+03 3.716059875488281250e+01 4.605546474456787109e+00 -4.168330342508852482e-04 -1.098386128433048725e-03 -4.545657429844141006e-04 8.453037589788436890e-04
1.931000000000000000e+03 1.323459148406982422e+01 3.751809835433959961e+00 8.821052119856176432e-07 -1.771486131474375725e-05 -5.049826995673356578e-06 4.986733256373554468e-05
1.932000000000000000e+03 1.540861225128173828e+01 3.732959270477294922e+00 2.555777064117137343e-05 4.754003384732641280e-05 2.192934152844827622e-05 5.431872978078899905e-06
1.933000000000000000e+03 1.467903900146484375e+01 3.722953796386718750e+00 -7.884241313149686903e-06 -1.777557190507650375e-05 -7.697944056417327374e-06 3.236806151107884943e-05
1.934000000000000000e+03 1.179247665405273438e+01 3.164999961853027344e+00 5.896211223443970084e-05 1.793536102923098952e-05 2.306924216100014746e-05 4.407423148222733289e-06
1.935000000000000000e+03 1.105769634246826172e+01 3.855809450149536133e+00 8.400822116527706385e-05 3.213772970411810093e-06 2.616659730847459286e-05 1.799808615032816306e-06
1.936000000000000000e+03 1.032972621917724609e+01 3.877068758010864258e+00 1.489554733780096285e-06 -1.978306863748002797e-05 -5.488053830049466342e-06 5.039346069679595530e-05
1.937000000000000000e+03 1.251380920410156250e+01 3.783312559127807617e+00 5.442400288302451372e-05 2.793642488541081548e-05 2.470812796673271805e-05 6.658971415163250640e-06
1.938000000000000000e+03 2.514328765869140625e+01 -3.802249193191528320e+00 -9.007838964462280273e-01 -1.366539001464843750e-01 -3.112313449382781982e-01 -8.679941296577453613e-01
1.939000000000000000e+03 3.479863739013671875e+01 3.215096235275268555e+00 7.560318917967379093e-04 1.205857377499341965e-03 5.885667633265256882e-04 -1.155734295025467873e-03
1.940000000000000000e+03 3.686836624145507812e+01 -2.495086431503295898e+00 -2.349143266677856445e+00 6.539174318313598633e-01 -5.085677504539489746e-01 5.293188691139221191e-01
1.941000000000000000e+03 3.752459335327148438e+01 -2.357317447662353516e+00 -2.319560050964355469e+00 5.587964057922363281e-01 -5.282290577888488770e-01 6.371961236000061035e-01
1.942000000000000000e+03 1.150585651397705078e+01 -4.087645053863525391e+00 -5.352912470698356628e-02 -7.888246327638626099e-02 -3.972347453236579895e-02 2.952495776116847992e-02
1.943000000000000000e+03 7.573652648925781250e+01 -1.138995933532714844e+01 -1.974226087331771851e-01 -1.126575842499732971e-01 -9.302406013011932373e-02 -2.772714793682098389e-01
1.944000000000000000e+03 7.616600799560546875e+01 -1.353647327423095703e+01 -1.387906223535537720e-01 -5.252157151699066162e-02 -5.739365890622138977e-02 -1.252146810293197632e-01
1.945000000000000000e+03 6.924975585937500000e+01 -1.304571628570556641e+01 -7.386424541473388672e-01 1.848802268505096436e-01 -1.661286652088165283e-01 7.122629135847091675e-02
1.946000000000000000e+03 7.429846191406250000e+01 -1.230217933654785156e+01 -2.654716968536376953e-01 -4.970890935510396957e-03 -8.113277703523635864e-02 -2.298798710107803345e-01
1.947000000000000000e+03 9.879504203796386719e+00 -3.360333681106567383e+00 4.727850854396820068e-02 -3.302391245961189270e-02 4.276378080248832703e-03 7.912759482860565186e-02
1.948000000000000000e+03 1.388270187377929688e+01 -4.643203258514404297e+00 -1.727523952722549438e-01 -1.734591275453567505e-01 -1.038634553551673889e-01 -9.758975356817245483e-02
1.949000000000000000e+03 9.611810684204101562e+00 3.877900362014770508e+00 1.209981128340587020e-04 -2.013097582675982267e-05 3.026014201168436557e-05 5.398688244895311072e-06
1.950000000000000000e+03 6.994000244140625000e+01 -1.315154838562011719e+01 -7.038295269012451172e-01 1.575654745101928711e-01 -1.638792157173156738e-01 -4.003859683871269226e-02
1.951000000000000000e+03 6.854564666748046875e+01 -1.221544361114501953e+01 -1.141493201255798340e+00 2.780682444572448730e-01 -2.590275108814239502e-01 -1.520905829966068268e-02
1.952000000000000000e+03 1.370544433593750000e+01 -3.252688407897949219e+00 1.093898061662912369e-02 -9.330624341964721680e-02 -2.471017837524414062e-02 -5.098549649119377136e-02
1.953000000000000000e+03 1.380411624908447266e+01 -3.959560394287109375e+00 -8.761967718601226807e-02 -1.307190358638763428e-01 -6.550161540508270264e-02 -7.603134959936141968e-02
1.954000000000000000e+03 6.262641429901123047e+00 4.819694995880126953e+00 1.261821307707577944e-04 -5.999969289405271411e-05 1.985473136301152408e-05 -4.850880941376090050e-05
1.955000000000000000e+03 7.486049175262451172e+00 3.931123971939086914e+00 1.984434129553847015e-05 -2.847166797437239438e-05 -2.588198412922793068e-06 -2.305656380485743284e-06
1.956000000000000000e+03 4.599498271942138672e+00 4.502226352691650391e+00 4.642114799935370684e-05 -1.619352769921533763e-05 9.068286999536212534e-06 -3.636617111624218524e-05
1.957000000000000000e+03 5.927307605743408203e+00 3.393206834793090820e+00 7.576563075417652726e-05 -5.466251309371727984e-07 2.256570223835296929e-05 -2.661539474502205849e-05
1.958000000000000000e+03 4.421573638916015625e+00 3.652501583099365234e+00 4.286678813514299691e-05 2.963167753478046507e-05 2.174953988287597895e-05 -5.072626299806870520e-05
1.959000000000000000e+03 7.177173137664794922e+00 -4.805373668670654297e+00 -5.506060272455215454e-02 -1.339910365641117096e-02 -2.053791098296642303e-02 9.687674790620803833e-02
1.960000000000000000e+03 7.686502933502197266e+00 -4.067839145660400391e+00 -9.958966635167598724e-03 -1.663573831319808960e-02 -7.978411391377449036e-03 1.026527956128120422e-01
1.961000000000000000e+03 6.962014198303222656e+00 -4.125149726867675781e+00 -9.806102141737937927e-03 -5.571912974119186401e-03 -4.613404627889394760e-03 1.066088974475860596e-01
1.962000000000000000e+03 6.039891242980957031e+00 -3.453358411788940430e+00 3.766663372516632080e-02 5.882799159735441208e-03 1.306483056396245956e-02 1.099059730768203735e-01
1.963000000000000000e+03 5.233514785766601562e+00 -3.530696868896484375e+00 2.988597564399242401e-02 1.259934995323419571e-02 1.274559833109378815e-02 1.080344691872596741e-01
1.964000000000000000e+03 3.700011730194091797e+00 -4.267943859100341797e+00 1.942672766745090485e-03 4.087036848068237305e-02 1.284391246736049652e-02 9.744451195001602173e-02
1.965000000000000000e+03 3.321606159210205078e+00 -3.494851589202880859e+00 2.054837718605995178e-02 3.931577876210212708e-02 1.795924641191959381e-02 9.067293256521224976e-02
1.966000000000000000e+03 2.881444931030273438e+00 -4.524100780487060547e+00 -8.280469337478280067e-04 6.299480050802230835e-02 1.865002512931823730e-02 8.655861020088195801e-02
1.967000000000000000e+03 8.425874710083007812e+00 -4.084372043609619141e+00 -1.972831226885318756e-02 -2.251630648970603943e-02 -1.267338637262582779e-02 9.600112587213516235e-02
1.968000000000000000e+03 9.974190711975097656e+00 -4.136720657348632812e+00 -3.681656718254089355e-02 -5.055274814367294312e-02 -2.621079422533512115e-02 7.009642571210861206e-02
1.969000000000000000e+03 1.851770591735839844e+01 -3.841893434524536133e+00 -2.912565469741821289e-01 -1.741301566362380981e-01 -1.396160125732421875e-01 -3.973358273506164551e-01
1.970000000000000000e+03 8.899281501770019531e+00 3.872867822647094727e+00 4.182212705927668139e-06 -2.560153188824187964e-05 -6.425796073017409071e-06 1.691861507424619049e-05
1.971000000000000000e+03 1.682161140441894531e+01 -3.170568466186523438e+00 -1.061436235904693604e-01 -1.373096555471420288e-01 -7.303598523139953613e-02 -2.352506071329116821e-01
1.972000000000000000e+03 1.225822067260742188e+01 -4.031242370605468750e+00 -5.826801061630249023e-02 -9.710956364870071411e-02 -4.661327227950096130e-02 1.594928326085209846e-03
1.973000000000000000e+03 7.061720275878906250e+01 -1.324884986877441406e+01 -5.577986836433410645e-01 1.670567840337753296e-01 -1.172225624322891235e-01 -7.499223947525024414e-02
1.974000000000000000e+03 7.189859008789062500e+01 -1.250339794158935547e+01 -4.623640179634094238e-01 9.460961818695068359e-02 -1.103263199329376221e-01 -2.172792553901672363e-01
1.975000000000000000e+03 7.164647674560546875e+01 -1.183468151092529297e+01 -5.995528101921081543e-01 1.593588143587112427e-01 -1.320581883192062378e-01 -2.731860280036926270e-01
1.976000000000000000e+03 7.461250305175781250e+01 -1.171245288848876953e+01 -2.989865243434906006e-01 -3.244756162166595459e-02 -9.943022578954696655e-02 -2.929680943489074707e-01
1.977000000000000000e+03 1.458966732025146484e+01 -3.966257333755493164e+00 -1.101938635110855103e-01 -1.538688093423843384e-01 -7.921880483627319336e-02 -1.212404668331146240e-01
1.978000000000000000e+03 1.538111877441406250e+01 -3.987146377563476562e+00 -1.404917687177658081e-01 -1.725548058748245239e-01 -9.391397237777709961e-02 -1.789780855178833008e-01
1.979000000000000000e+03 7.105354309082031250e+01 -1.217765998840332031e+01 -5.738850831985473633e-01 1.700015217065811157e-01 -1.211650669574737549e-01 -2.257730066776275635e-01
1.980000000000000000e+03 1.694161605834960938e+01 -3.935740947723388672e+00 -2.009530514478683472e-01 -1.939340233802795410e-01 -1.184661239385604858e-01 -2.890859246253967285e-01
1.981000000000000000e+03 2.863255691528320312e+01 -7.106911182403564453e+00 1.874522417783737183e-01 1.648016124963760376e-01 1.056761592626571655e-01 -1.121188998222351074e+00
1.982000000000000000e+03 3.496616744995117188e+01 5.504405975341796875e+00 7.760468288324773312e-04 -5.881960387341678143e-04 5.635524212266318500e-05 1.865824742708355188e-04
1.983000000000000000e+03 3.516209411621093750e+01 4.304458618164062500e+00 -1.442446722649037838e-03 -2.914590004365891218e-04 -5.201717140153050423e-04 2.013602934312075377e-04
1.984000000000000000e+03 7.346030426025390625e+01 -1.222723388671875000e+01 -3.429165780544281006e-01 1.893801800906658173e-02 -9.719356894493103027e-02 -2.747913002967834473e-01
1.985000000000000000e+03 2.244583892822265625e+01 -2.885910034179687500e+00 -6.536503434181213379e-01 -1.773374341428279877e-02 -2.014152258634567261e-01 -5.341902375221252441e-01
1.986000000000000000e+03 7.262970733642578125e+01 -1.233727455139160156e+01 -4.429954886436462402e-01 9.163200110197067261e-02 -1.054090484976768494e-01 -2.228463590145111084e-01
1.987000000000000000e+03 6.939455413818359375e+01 -1.216394329071044922e+01 -9.919528365135192871e-01 2.542339563369750977e-01 -2.213156670331954956e-01 -1.853802949190139771e-01
1.988000000000000000e+03 7.014263916015625000e+01 -1.241533184051513672e+01 -6.934191584587097168e-01 2.326207607984542847e-01 -1.382395178079605103e-01 -1.509503424167633057e-01
1.989000000000000000e+03 7.606032562255859375e+01 -2.279590797424316406e+01 -1.898036454804241657e-03 -1.216232310980558395e-03 -9.342805715277791023e-04 1.220778067363426089e-04
1.990000000000000000e+03 7.305001068115234375e+01 -1.981467247009277344e+01 -2.163393655791878700e-03 -8.919587708078324795e-05 -6.757768569514155388e-04 -5.604213220067322254e-04
1.991000000000000000e+03 3.810763931274414062e+01 9.521392822265625000e+00 -2.941813319921493530e-03 5.074444925412535667e-04 -7.303106249310076237e-04 -1.665215706452727318e-03
1.992000000000000000e+03 2.223348808288574219e+01 -2.003640651702880859e+00 -5.462110638618469238e-01 1.804682053625583649e-02 -1.584492772817611694e-01 -3.723734021186828613e-01
1.993000000000000000e+03 1.354729080200195312e+01 -1.006168937683105469e+01 -8.490525484085083008e-01 -4.970337152481079102e-01 -4.038258790969848633e-01 -2.678673565387725830e-01
1.994000000000000000e+03 1.542617034912109375e+01 -1.135023880004882812e+01 -1.336657047271728516e+00 -8.026255369186401367e-01 -6.417847871780395508e-01 -5.678474307060241699e-01
1.995000000000000000e+03 3.016385269165039062e+01 -6.360162258148193359e+00 -1.187438741326332092e-01 7.308242917060852051e-01 1.836241334676742554e-01 -9.625875353813171387e-01
1.996000000000000000e+03 3.302985000610351562e+01 -7.400474548339843750e+00 1.144053190946578979e-01 1.196824669837951660e+00 3.933690190315246582e-01 -5.706088542938232422e-01
1.997000000000000000e+03 3.210757064819335938e+01 -6.863569736480712891e+00 2.409841679036617279e-02 1.022630214691162109e+00 3.140186071395874023e-01 -6.788828372955322266e-01
1.998000000000000000e+03 2.866615104675292969e+01 -6.409232616424560547e+00 -1.698935925960540771e-01 1.971029639244079590e-01 8.162812329828739166e-03 -1.008858799934387207e+00
1.999000000000000000e+03 3.137130355834960938e+01 -6.330885410308837891e+00 -3.367424309253692627e-01 9.765064716339111328e-01 1.919292211532592773e-01 -6.533180475234985352e-01
2.000000000000000000e+03 2.101049804687500000e+01 -3.379587411880493164e+00 -4.824491143226623535e-01 -9.770558029413223267e-02 -1.740464121103286743e-01 -5.056138634681701660e-01
2.001000000000000000e+03 2.333418273925781250e+01 -4.139779567718505859e+00 -7.189922332763671875e-01 -1.111602708697319031e-01 -2.490457445383071899e-01 -7.400467395782470703e-01
2.002000000000000000e+03 2.022757530212402344e+01 -3.678343534469604492e+00 -4.178903400897979736e-01 -1.373557895421981812e-01 -1.665738373994827271e-01 -4.870009720325469971e-01
2.003000000000000000e+03 4.081600570678710938e+01 -2.213846778869628906e+01 9.992972016334533691e-01 2.424742698669433594e+00 1.027211904525756836e+00 1.108280777931213379e+00
2.004000000000000000e+03 3.837110900878906250e+01 -2.876407623291015625e+00 -2.471354007720947266e+00 5.214127898216247559e-01 -5.849823355674743652e-01 6.653385758399963379e-01
2.005000000000000000e+03 3.431179428100585938e+01 1.467804813385009766e+01 -2.969016321003437042e-02 -2.541120629757642746e-03 -9.669384919106960297e-03 2.292480692267417908e-02
2.006000000000000000e+03 1.296289825439453125e+01 -1.282428169250488281e+01 -9.867151975631713867e-01 -5.192090272903442383e-01 -4.517772793769836426e-01 -5.322059392929077148e-01
2.007000000000000000e+03 1.130871295928955078e+01 -1.428909397125244141e+01 -7.727952599525451660e-01 -3.202882409095764160e-01 -3.279250562191009521e-01 -6.484049558639526367e-01
2.008000000000000000e+03 4.069858932495117188e+01 1.781939315795898438e+01 -9.015209227800369263e-02 3.663190826773643494e-02 -1.605605520308017731e-02 7.891088724136352539e-03
2.009000000000000000e+03 1.331893348693847656e+01 -2.818976020812988281e+01 4.837848246097564697e-01 5.894992500543594360e-02 1.628204286098480225e-01 -3.297820985317230225e-01
2.010000000000000000e+03 5.251591682434082031e+00 1.645976829528808594e+01 1.050599748850800097e-04 -5.462312255986034870e-04 -1.323513715760782361e-04 -2.851130557246506214e-04
2.011000000000000000e+03 6.479361724853515625e+01 -9.219677925109863281e+00 -1.042914032936096191e+00 -3.338190913200378418e-02 -3.228887915611267090e-01 -2.031638026237487793e-01
2.012000000000000000e+03 6.287272262573242188e+01 -9.083170890808105469e+00 -1.045296192169189453e+00 4.006290137767791748e-01 -1.934001445770263672e-01 3.501593470573425293e-01
2.013000000000000000e+03 4.396814346313476562e+00 -8.658739089965820312e+00 -1.326426714658737183e-01 1.639233343303203583e-02 -3.487510234117507935e-02 -2.102204598486423492e-02
2.014000000000000000e+03 4.324158859252929688e+01 -1.779887390136718750e+01 2.748279333114624023e+00 3.779057741165161133e+00 1.958201169967651367e+00 9.151621460914611816e-01
2.015000000000000000e+03 4.321850967407226562e+01 -1.933930206298828125e+01 1.814943552017211914e+00 4.385132789611816406e+00 1.860022902488708496e+00 1.264672398567199707e+00
2.016000000000000000e+03 3.768939590454101562e+01 1.040666675567626953e+01 -7.950350642204284668e-03 -2.177320187911391258e-03 -3.038301365450024605e-03 1.520049176178872585e-03
2.017000000000000000e+03 3.539652252197265625e+01 8.945212364196777344e+00 -1.962352776899933815e-03 -2.516248729079961777e-03 -1.343580428510904312e-03 -1.499845093348994851e-04
2.018000000000000000e+03 1.666643905639648438e+01 -2.939030265808105469e+01 5.844186544418334961e-01 4.344766736030578613e-01 3.056685924530029297e-01 -4.170723557472229004e-01
2.019000000000000000e+03 6.188165283203125000e+01 -9.865467071533203125e+00 -1.137831687927246094e+00 4.316487312316894531e-01 -2.118548899888992310e-01 4.516449868679046631e-01
2.020000000000000000e+03 5.001615524291992188e+01 -9.073299407958984375e+00 -1.234881281852722168e+00 5.860249400138854980e-01 -1.946569085121154785e-01 2.211307525634765625e+00
2.021000000000000000e+03 5.072978210449218750e+01 -1.096626281738281250e+01 1.951920837163925171e-01 1.167676687240600586e+00 4.088606238365173340e-01 2.296656608581542969e+00
2.022000000000000000e+03 5.283645629882812500e+01 -1.235751914978027344e+01 1.242805719375610352e+00 7.495254874229431152e-01 5.976993441581726074e-01 2.226401567459106445e+00
2.023000000000000000e+03 7.196857452392578125e+01 -2.155806350708007812e+01 1.010358799248933792e-03 -4.286922339815646410e-04 1.744999608490616083e-04 -1.719784922897815704e-04
2.024000000000000000e+03 7.219543457031250000e+01 -2.059113311767578125e+01 -2.722483361139893532e-03 -2.244228671770542860e-04 -8.840718655847012997e-04 3.675143816508352757e-04
2.025000000000000000e+03 7.343542480468750000e+01 2.385561180114746094e+01 9.036603569984436035e-02 -4.074859321117401123e-01 -9.513596445322036743e-02 7.850850224494934082e-01
2.026000000000000000e+03 3.815206146240234375e+01 1.209183979034423828e+01 -2.035679295659065247e-02 4.748818930238485336e-03 -4.682392347604036331e-03 -1.175389857962727547e-03
2.027000000000000000e+03 3.522759628295898438e+01 9.681562423706054688e+00 -2.116645453497767448e-03 -3.671718528494238853e-03 -1.736509148031473160e-03 9.473681566305458546e-04
2.028000000000000000e+03 7.430535888671875000e+01 -2.854044139385223389e-01 2.425224334001541138e-02 -6.423065066337585449e-01 -1.854162663221359253e-01 -8.471916317939758301e-01
2.029000000000000000e+03 3.465460062026977539e+00 -3.289883422851562500e+01 3.848023712635040283e-02 -1.390556573867797852e+00 -4.056228995323181152e-01 -5.852807313203811646e-02
2.030000000000000000e+03 7.115212917327880859e+00 -3.061003875732421875e+01 1.681703031063079834e-01 -7.903147339820861816e-01 -1.866433322429656982e-01 -1.922498643398284912e-01
2.031000000000000000e+03 5.968744754791259766e+00 -1.876000595092773438e+01 -2.769732847809791565e-02 -4.725230038166046143e-01 -1.500661075115203857e-01 -6.359076499938964844e-01
2.032000000000000000e+03 4.876913547515869141e+00 5.318946361541748047e+00 5.885339123778976500e-05 -4.064855602337047458e-05 5.461450655275257304e-06 -7.844161882530897856e-05
2.033000000000000000e+03 6.915962219238281250e+01 -2.223121070861816406e+01 1.321060350164771080e-03 1.013009969028644264e-04 4.267084004823118448e-04 -1.655278319958597422e-04
2.034000000000000000e+03 7.063693237304687500e+01 -2.427977943420410156e+01 -7.460963446646928787e-03 -9.362861164845526218e-04 -2.519174944609403610e-03 5.998641136102378368e-04
2.035000000000000000e+03 7.418971252441406250e+01 1.422382068634033203e+01 3.563268780708312988e-01 -1.048704147338867188e+00 -2.077131867408752441e-01 6.063643470406532288e-02
2.036000000000000000e+03 2.316114425659179688e+01 -6.284247398376464844e+00 -6.702503561973571777e-01 -2.407191693782806396e-01 -2.732908427715301514e-01 -7.785094976425170898e-01
2.037000000000000000e+03 2.802525520324707031e+00 2.076670074462890625e+01 -1.816001895349472761e-04 8.356754551641643047e-05 -2.940979175036773086e-05 3.895839618053287268e-04
2.038000000000000000e+03 3.840440034866333008e+00 1.955610275268554688e+01 -2.818000502884387970e-04 -2.963701845146715641e-04 -1.734510587994009256e-04 1.632169005461037159e-04
2.039000000000000000e+03 6.808448028564453125e+01 -1.141989421844482422e+01 -1.165368556976318359e+00 2.683002948760986328e-01 -2.691204547882080078e-01 -3.813299834728240967e-01
2.040000000000000000e+03 4.243647575378417969e+00 2.991406250000000000e+01 -5.732247373089194298e-04 -8.214144036173820496e-03 -2.636210760101675987e-03 6.571198347955942154e-03
2.041000000000000000e+03 4.442594528198242188e+01 -6.618906021118164062e+00 -3.179247379302978516e+00 -2.525567114353179932e-01 -1.029541254043579102e+00 4.041466414928436279e-01
2.042000000000000000e+03 1.216048240661621094e+01 -1.534116935729980469e+01 -6.795811653137207031e-01 -4.602643251419067383e-01 -3.419536352157592773e-01 -7.690226435661315918e-01
2.043000000000000000e+03 6.423816680908203125e+01 9.921572685241699219e+00 6.501384973526000977e-01 5.247622013092041016e+00 1.769328117370605469e+00 4.139553904533386230e-01
2.044000000000000000e+03 7.536468505859375000e+01 -2.823069000244140625e+01 -5.621687974780797958e-03 -2.870226744562387466e-03 -2.547574462369084358e-03 5.879278760403394699e-03
2.045000000000000000e+03 7.730323791503906250e+01 -2.137642097473144531e+01 -1.756418962031602859e-03 -1.941373775480315089e-04 -5.851669120602309704e-04 3.504854976199567318e-05
2.046000000000000000e+03 7.428492736816406250e+01 2.991342544555664062e+01 -1.465794295072555542e-01 -4.128518700599670410e-01 -1.678293794393539429e-01 6.643406152725219727e-01
2.047000000000000000e+03 4.225099563598632812e+01 1.676171112060546875e+01 -9.491449594497680664e-02 1.722769998013973236e-02 -2.330603823065757751e-02 -1.608698070049285889e-02
2.048000000000000000e+03 4.389603137969970703e+00 -1.390361499786376953e+01 -1.550460904836654663e-01 -1.622402518987655640e-01 -9.518589824438095093e-02 -3.463351726531982422e-01
2.049000000000000000e+03 5.290237903594970703e+00 -1.247192859649658203e+01 -2.350589931011199951e-01 -1.047622561454772949e-01 -1.019463762640953064e-01 -2.932447493076324463e-01
2.050000000000000000e+03 4.447901535034179688e+01 -1.530635261535644531e+01 2.932814121246337891e+00 2.997026920318603516e+00 1.778952240943908691e+00 4.975756406784057617e-01
2.051000000000000000e+03 4.352775192260742188e+01 -1.608948135375976562e+01 2.667405605316162109e+00 3.073278427124023438e+00 1.722205281257629395e+00 3.540607690811157227e-01
2.052000000000000000e+03 3.506179046630859375e+01 -8.704251289367675781e+00 5.083020329475402832e-01 8.856715559959411621e-01 4.181920886039733887e-01 -6.708691716194152832e-01
2.053000000000000000e+03 3.554347229003906250e+01 -1.021837234497070312e+01 1.030146121978759766e+00 8.071057796478271484e-01 5.511755943298339844e-01 -1.010732769966125488e+00
2.054000000000000000e+03 3.904854202270507812e+01 1.529236412048339844e+01 -6.026723980903625488e-02 2.103788405656814575e-02 -1.176880765706300735e-02 5.155374761670827866e-03
2.055000000000000000e+03 4.004642486572265625e+01 1.431697750091552734e+01 -5.080409348011016846e-02 1.427299156785011292e-02 -1.095933001488447189e-02 -6.380888167768716812e-03
2.056000000000000000e+03 1.120841789245605469e+01 -2.293462371826171875e+01 4.952878654003143311e-01 -2.601582109928131104e-01 7.053889334201812744e-02 -5.902736783027648926e-01
2.057000000000000000e+03 7.419474029541015625e+01 1.684689331054687500e+01 3.304255306720733643e-01 -1.047019720077514648e+00 -2.149782478809356689e-01 3.197334110736846924e-01
2.058000000000000000e+03 7.423739624023437500e+01 -5.543484210968017578e+00 -1.814201176166534424e-01 -3.055729568004608154e-01 -1.460979282855987549e-01 -7.535576224327087402e-01
2.059000000000000000e+03 7.597882080078125000e+01 -9.591045379638671875e+00 -1.644075214862823486e-01 -2.273878753185272217e-01 -1.175386235117912292e-01 -3.863171637058258057e-01
2.060000000000000000e+03 4.145424842834472656e+00 1.240883827209472656e+01 -5.226529901847243309e-05 -6.257644417928531766e-05 -3.445252150413580239e-05 -2.745834062807261944e-04
2.061000000000000000e+03 1.603668975830078125e+01 -1.012584114074707031e+01 -1.016560435295104980e+00 -7.578511238098144531e-01 -5.323234200477600098e-01 -4.879762530326843262e-01
2.062000000000000000e+03 7.417193603515625000e+01 6.264101982116699219e+00 2.352859228849411011e-01 -9.188095927238464355e-01 -2.050571143627166748e-01 -5.944823622703552246e-01
2.063000000000000000e+03 2.615071296691894531e+01 -6.688819885253906250e+00 -3.688584864139556885e-01 -3.101533353328704834e-01 -2.037035375833511353e-01 -8.231906294822692871e-01
2.064000000000000000e+03 6.973812103271484375e+01 -2.519596099853515625e+01 -9.327832609415054321e-03 2.586969407275319099e-03 -2.022258937358856201e-03 -1.306730671785771847e-03
2.065000000000000000e+03 4.225486755371093750e+00 2.613893508911132812e+01 -2.167077502235770226e-03 -3.867112100124359131e-03 -1.810256857424974442e-03 4.396809730678796768e-03
2.066000000000000000e+03 6.626821136474609375e+01 -2.685777664184570312e+01 -2.320575155317783356e-02 3.599487536121159792e-04 -6.853740662336349487e-03 -1.614512875676155090e-03
2.067000000000000000e+03 6.912769317626953125e+01 -2.709042930603027344e+01 -1.770689338445663452e-02 5.119431298226118088e-03 -3.776238765567541122e-03 4.437060269992798567e-04
2.068000000000000000e+03 6.663885498046875000e+01 -9.626042366027832031e+00 -1.130437612533569336e+00 1.750567704439163208e-01 -2.866142690181732178e-01 -4.805528819561004639e-01
2.069000000000000000e+03 6.599720764160156250e+01 -8.472320556640625000e+00 -7.943310141563415527e-01 3.082206547260284424e-01 -1.458331048488616943e-01 -4.581156969070434570e-01
2.070000000000000000e+03 4.469001770019531250e+01 1.982878494262695312e+01 -1.175749972462654114e-01 2.510099671781063080e-02 -2.774219959974288940e-02 -1.124290097504854202e-02
2.071000000000000000e+03 4.290391921997070312e+01 2.058220100402832031e+01 -8.977473527193069458e-02 5.106733366847038269e-02 -1.161221973598003387e-02 8.959444239735603333e-03
2.072000000000000000e+03 1.134799480438232422e+01 -1.930904388427734375e+01 1.267339140176773071e-01 -3.471012413501739502e-01 -6.611020117998123169e-02 -8.305080533027648926e-01
2.073000000000000000e+03 4.917576217651367188e+01 2.321316719055175781e+01 7.441890239715576172e-02 1.071079447865486145e-02 2.553890831768512726e-02 -8.672116696834564209e-02
2.074000000000000000e+03 3.491765737533569336e+00 3.286663818359375000e+01 -4.457184695638716221e-04 -1.237405557185411453e-02 -3.845932194963097572e-03 6.139643955975770950e-03
2.075000000000000000e+03 4.282867431640625000e+01 -2.508003044128417969e+01 5.110212564468383789e-01 3.317733526229858398e+00 1.148626446723937988e+00 7.861226201057434082e-01
2.076000000000000000e+03 4.390743637084960938e+01 -2.352776718139648438e+01 6.742355823516845703e-01 4.358384609222412109e+00 1.509786128997802734e+00 4.469093978404998779e-01
2.077000000000000000e+03 3.806990432739257812e+01 -1.091535472869873047e+01 7.106459140777587891e-01 3.081145882606506348e-01 3.056281507015228271e-01 -1.209766745567321777e+00
2.078000000000000000e+03 5.361198043823242188e+01 2.481651496887207031e+01 4.782194495201110840e-01 2.233610749244689941e-01 2.104741632938385010e-01 -5.054674148559570312e-01
2.079000000000000000e+03 6.529647827148437500e+01 1.859836387634277344e+01 1.233411788940429688e+00 3.983686685562133789e+00 1.565129518508911133e+00 -6.637438386678695679e-02
2.080000000000000000e+03 6.499562072753906250e+01 2.017675590515136719e+01 1.060361146926879883e+00 3.768656730651855469e+00 1.448705315589904785e+00 -1.079686917364597321e-02
2.081000000000000000e+03 6.347109985351562500e+01 1.976003074645996094e+01 1.453622341156005859e+00 4.922859668731689453e+00 1.912944674491882324e+00 -5.018532276153564453e-01
2.082000000000000000e+03 1.793267631530761719e+01 -2.804467773437500000e+01 7.574197649955749512e-01 6.487962603569030762e-01 4.218648076057434082e-01 -6.059448122978210449e-01
2.083000000000000000e+03 4.561616516113281250e+01 -6.997934818267822266e+00 -3.209779262542724609e+00 -3.102574311196804047e-02 -9.722414612770080566e-01 5.867589712142944336e-01
2.084000000000000000e+03 6.363578414916992188e+01 1.159865570068359375e+01 4.515136182308197021e-01 6.359930038452148438e+00 2.043433189392089844e+00 4.306641519069671631e-01
2.085000000000000000e+03 2.245749282836914062e+01 -7.385726451873779297e+00 -7.537375688552856445e-01 -2.583515644073486328e-01 -3.036267161369323730e-01 -7.327226996421813965e-01
2.086000000000000000e+03 7.570394897460937500e+01 3.189721870422363281e+01 -1.102877333760261536e-01 -6.700856685638427734e-01 -2.341120243072509766e-01 4.715137183666229248e-01
2.087000000000000000e+03 3.975553131103515625e+01 -5.866007328033447266e+00 -2.259207248687744141e+00 3.845281302928924561e-01 -5.624037981033325195e-01 -1.518594473600387573e-01
2.088000000000000000e+03 4.573730087280273438e+01 2.057393074035644531e+01 -9.896970540285110474e-02 3.002174757421016693e-02 -2.068438753485679626e-02 -2.240534685552120209e-02
2.089000000000000000e+03 4.361114501953125000e+01 -3.010029029846191406e+01 -3.830671310424804688e-02 2.135254859924316406e+00 6.290844082832336426e-01 2.443819642066955566e-01
2.090000000000000000e+03 4.022973251342773438e+01 -4.723555088043212891e+00 -2.933520078659057617e+00 1.603476405143737793e-01 -8.319517374038696289e-01 3.368364572525024414e-01
2.091000000000000000e+03 5.933997344970703125e+01 -1.011832809448242188e+01 -9.216994643211364746e-01 9.594751000404357910e-01 1.133268792182207108e-02 9.448338150978088379e-01
2.092000000000000000e+03 4.855747222900390625e+01 -1.260166263580322266e+01 1.922437310218811035e+00 2.022240638732910156e+00 1.183403372764587402e+00 1.997743010520935059e+00
2.093000000000000000e+03 4.695841217041015625e+01 -1.285072612762451172e+01 1.696478724479675293e+00 2.226224660873413086e+00 1.176811099052429199e+00 1.141936182975769043e+00
2.094000000000000000e+03 2.054758834838867188e+01 -7.693453311920166016e+00 -7.956399321556091309e-01 -3.379286825656890869e-01 -3.400705754756927490e-01 -7.084915041923522949e-01
2.095000000000000000e+03 5.875304412841796875e+01 -4.164051055908203125e+00 -1.960586309432983398e-01 2.086988925933837891e+00 5.672791004180908203e-01 9.273750782012939453e-01
2.096000000000000000e+03 3.963682174682617188e+01 -4.152993679046630859e+00 -2.783076524734497070e+00 3.739877939224243164e-01 -7.227265834808349609e-01 4.366896748542785645e-01
2.097000000000000000e+03 4.041824340820312500e+01 -3.726635456085205078e+00 -3.033051490783691406e+00 -9.441490285098552704e-03 -9.127479195594787598e-01 6.153087019920349121e-01
2.098000000000000000e+03 2.179690361022949219e+01 -3.374699401855468750e+01 5.482969880104064941e-01 5.918330550193786621e-01 3.420390188694000244e-01 -2.431349605321884155e-01
2.099000000000000000e+03 5.722311401367187500e+01 -1.050944805145263672e+01 -6.276236176490783691e-01 1.126585841178894043e+00 1.496886759996414185e-01 1.363513469696044922e+00
2.100000000000000000e+03 5.526091766357421875e+01 -6.276388168334960938e+00 -1.056043863296508789e+00 2.035639286041259766e+00 2.938786149024963379e-01 1.584291577339172363e+00
2.101000000000000000e+03 5.781254959106445312e+01 -5.145799636840820312e+00 -4.961215555667877197e-01 2.145055532455444336e+00 4.946801960468292236e-01 1.148766398429870605e+00
2.102000000000000000e+03 7.720737457275390625e+01 -3.777900314331054688e+01 3.413468599319458008e-03 -2.531106024980545044e-02 -6.569277029484510422e-03 6.680906284600496292e-03
2.103000000000000000e+03 5.629560852050781250e+01 -6.933840274810791016e+00 -1.091339588165283203e+00 2.073202848434448242e+00 2.945590317249298096e-01 1.550358176231384277e+00
2.104000000000000000e+03 4.100558757781982422e+00 3.712899780273437500e+01 1.886662445031106472e-03 -1.774864085018634796e-02 -4.758593626320362091e-03 4.854952916502952576e-03
2.105000000000000000e+03 5.404961109161376953e+00 3.579698562622070312e+01 2.042526146396994591e-03 -1.646108180284500122e-02 -4.325566813349723816e-03 7.390532176941633224e-03
2.106000000000000000e+03 4.530344772338867188e+01 -1.626435852050781250e+01 3.481880903244018555e+00 4.374717235565185547e+00 2.356979608535766602e+00 1.541939139366149902e+00
2.107000000000000000e+03 3.905133819580078125e+01 -1.550243377685546875e+01 1.152478694915771484e+00 6.926603913307189941e-01 5.535417199134826660e-01 -9.890236854553222656e-01
2.108000000000000000e+03 5.295656204223632812e+00 -3.563150787353515625e+01 4.601122066378593445e-02 -1.115958929061889648e+00 -3.209843039512634277e-01 -5.932773649692535400e-02
2.109000000000000000e+03 5.854273796081542969e+00 -7.176677227020263672e+00 -1.490132212638854980e-01 -1.986959250643849373e-03 -4.530005529522895813e-02 3.327732533216476440e-02
2.110000000000000000e+03 6.324797439575195312e+01 6.160757064819335938e+00 8.467000126838684082e-01 4.483792304992675781e+00 1.599147677421569824e+00 8.899963498115539551e-01
2.111000000000000000e+03 3.853827953338623047e+00 7.231809616088867188e+00 2.415568014839664102e-04 3.239400029997341335e-05 8.218523726100102067e-05 -1.045816952682798728e-05
2.112000000000000000e+03 6.443312835693359375e+01 -3.373185348510742188e+01 -2.179455198347568512e-02 5.040270742028951645e-03 -5.026284605264663696e-03 4.773925989866256714e-02
2.113000000000000000e+03 4.064350128173828125e+01 -2.399773025512695312e+01 7.121886610984802246e-01 2.209398031234741211e+00 8.764759898185729980e-01 1.145470857620239258e+00
2.114000000000000000e+03 3.811998748779296875e+01 -2.175530433654785156e+01 5.831819176673889160e-01 8.932628631591796875e-01 4.429334402084350586e-01 8.935346007347106934e-01
2.115000000000000000e+03 4.136147689819335938e+01 -1.772433853149414062e+01 1.966938972473144531e+00 2.182892560958862305e+00 1.244949460029602051e+00 2.568876743316650391e-01
2.116000000000000000e+03 6.338213348388671875e+01 3.708254098892211914e+00 6.704842448234558105e-01 3.627084493637084961e+00 1.289270639419555664e+00 5.014035105705261230e-01
2.117000000000000000e+03 4.173583602905273438e+01 -2.477847671508789062e+01 5.608009696006774902e-01 2.695911407470703125e+00 9.770137071609497070e-01 1.013522386550903320e+00
2.118000000000000000e+03 4.536257171630859375e+01 -1.448740005493164062e+01 2.381982803344726562e+00 3.056938886642456055e+00 1.631676554679870605e+00 5.501326322555541992e-01
2.119000000000000000e+03 7.482639312744140625e+01 3.592427062988281250e+01 -1.552680134773254395e-01 -2.983023822307586670e-01 -1.360711157321929932e-01 3.442673087120056152e-01
2.120000000000000000e+03 1.080301761627197266e+01 -1.589041137695312500e+01 -4.833485186100006104e-01 -3.016414642333984375e-01 -2.354969978332519531e-01 -7.760921120643615723e-01
2.121000000000000000e+03 1.142546081542968750e+01 -1.809165382385253906e+01 -1.190398260951042175e-01 -3.443928360939025879e-01 -1.390298008918762207e-01 -8.806548118591308594e-01
2.122000000000000000e+03 6.779827117919921875e+01 1.479757785797119141e+01 9.334478378295898438e-01 2.761506080627441406e+00 1.108486175537109375e+00 -3.133636340498924255e-02
2.123000000000000000e+03 6.559030151367187500e+01 1.710558509826660156e+01 1.269100666046142578e+00 4.117437362670898438e+00 1.615961432456970215e+00 -2.036558240652084351e-01
2.124000000000000000e+03 3.707853317260742188e+01 -2.956278800964355469e+01 5.331023335456848145e-01 1.184685349464416504e+00 5.153362751007080078e-01 7.564864754676818848e-01
2.125000000000000000e+03 5.961734008789062500e+01 -3.042758941650390625e+00 1.307277530431747437e-01 2.208928108215332031e+00 7.018967270851135254e-01 8.817709088325500488e-01
2.126000000000000000e+03 5.634182739257812500e+01 -1.209916210174560547e+01 3.735512029379606247e-03 7.098898887634277344e-01 2.140876203775405884e-01 1.321149110794067383e+00
2.127000000000000000e+03 1.378530120849609375e+01 -2.192357826232910156e+01 6.319135427474975586e-01 2.769156396389007568e-01 2.726487517356872559e-01 -6.092000603675842285e-01
2.128000000000000000e+03 6.727935791015625000e+01 1.308277702331542969e+01 8.488945364952087402e-01 3.233206987380981445e+00 1.224630475044250488e+00 -6.719043105840682983e-02
2.129000000000000000e+03 2.921381187438964844e+01 -2.895430803298950195e+00 -1.780468463897705078e+00 1.593536883592605591e-01 -4.863344430923461914e-01 -6.730297207832336426e-01
2.130000000000000000e+03 2.816127204895019531e+01 -2.267899990081787109e+00 -1.855067253112792969e+00 -2.902357466518878937e-02 -5.652272701263427734e-01 -5.946921110153198242e-01
2.131000000000000000e+03 2.730792617797851562e+01 -2.618263721466064453e+00 -1.529204249382019043e+00 -1.217721402645111084e-01 -4.952929317951202393e-01 -6.986187100410461426e-01
2.132000000000000000e+03 3.043649101257324219e+01 -2.467666149139404297e+00 -2.241872072219848633e+00 2.602457404136657715e-01 -5.944879055023193359e-01 -5.027632713317871094e-01
2.133000000000000000e+03 2.696587181091308594e+01 -2.840923786163330078e+00 -1.370476007461547852e+00 -1.366775780916213989e-01 -4.521460533142089844e-01 -7.558556199073791504e-01
2.134000000000000000e+03 3.136943054199218750e+01 -2.487546920776367188e+00 -2.330776214599609375e+00 2.423704266548156738e-01 -6.265217065811157227e-01 -4.838143885135650635e-01
2.135000000000000000e+03 1.880575180053710938e+01 2.364198303222656250e+01 -5.148018151521682739e-02 -1.378033543005585670e-03 -1.585746556520462036e-02 1.470875553786754608e-02
2.136000000000000000e+03 1.802723312377929688e+01 7.195581912994384766e+00 1.892166255856864154e-05 1.188214082503691316e-05 9.241141015081666410e-06 -4.234753942000679672e-05
2.137000000000000000e+03 2.827740669250488281e+01 2.281357574462890625e+01 -1.049757897853851318e-01 -6.220858544111251831e-02 -5.015531182289123535e-02 5.654110014438629150e-02
2.138000000000000000e+03 2.744249725341796875e+01 2.258259963989257812e+01 -1.247651502490043640e-01 -5.249383300542831421e-02 -5.317769572138786316e-02 6.447137892246246338e-02
2.139000000000000000e+03 1.402457237243652344e+01 1.363153362274169922e+01 3.830151399597525597e-04 8.105948800221085548e-04 3.580829943530261517e-04 3.417838306631892920e-04
2.140000000000000000e+03 2.707752037048339844e+01 -2.334597826004028320e+00 -1.593839526176452637e+00 -1.586321592330932617e-01 -5.257415175437927246e-01 -6.488479375839233398e-01
2.141000000000000000e+03 1.338217926025390625e+01 1.782970619201660156e+01 -4.041630018036812544e-04 6.023003370501101017e-04 5.944119766354560852e-05 6.171677378006279469e-04
2.142000000000000000e+03 3.341022872924804688e+01 1.149786663055419922e+01 -2.357889665290713310e-03 -8.839520160108804703e-04 -9.725524578243494034e-04 2.496682107448577881e-03
2.143000000000000000e+03 3.373805618286132812e+01 1.153119754791259766e+01 -2.586379880085587502e-03 -1.248630345799028873e-03 -1.150503056123852730e-03 3.260987810790538788e-03
2.144000000000000000e+03 3.357759094238281250e+01 1.124129772186279297e+01 -2.873714081943035126e-03 -5.031559849157929420e-04 -1.013061031699180603e-03 2.521059708669781685e-03
2.145000000000000000e+03 1.402299404144287109e+01 1.320714092254638672e+01 -3.050023806281387806e-04 7.636444643139839172e-04 1.375926221953704953e-04 2.066919987555593252e-04
2.146000000000000000e+03 1.733598709106445312e+01 8.076384544372558594e+00 -1.155429708887822926e-04 -4.332421212893677875e-06 -3.596261740312911570e-05 3.967154407291673124e-05
2.147000000000000000e+03 1.688944435119628906e+01 8.410065650939941406e+00 -1.198931568069383502e-04 2.506125747459009290e-05 -2.844957089109811932e-05 -4.291941877454519272e-06
2.148000000000000000e+03 1.318574047088623047e+01 1.674594306945800781e+01 4.283415910322219133e-04 8.159546996466815472e-04 3.732888726517558098e-04 4.851120465900748968e-04
2.149000000000000000e+03 3.224752426147460938e+01 1.662497329711914062e+01 -3.234857693314552307e-02 -3.347757086157798767e-02 -1.974784396588802338e-02 3.941892832517623901e-02
2.150000000000000000e+03 1.380905151367187500e+01 1.743857383728027344e+01 -4.140478267800062895e-04 1.695161452516913414e-03 3.843340964522212744e-04 8.131463546305894852e-04
2.151000000000000000e+03 2.024119758605957031e+01 2.373363113403320312e+01 -6.754352152347564697e-02 -6.691521499305963516e-03 -2.227051183581352234e-02 2.236600778996944427e-02
2.152000000000000000e+03 3.410566329956054688e+01 9.955377578735351562e+00 -7.728951168246567249e-04 7.254116353578865528e-04 -1.424505171598866582e-05 -7.166465511545538902e-04
2.153000000000000000e+03 3.327692794799804688e+01 1.412580966949462891e+01 -1.458497252315282822e-02 -1.062685064971446991e-02 -7.563546765595674515e-03 1.766741462051868439e-02
2.154000000000000000e+03 3.376865768432617188e+01 1.461408615112304688e+01 -2.258894778788089752e-02 -8.540348149836063385e-03 -9.338788688182830811e-03 2.299242839217185974e-02
2.155000000000000000e+03 3.482119369506835938e+01 7.286571979522705078e+00 -8.681150211486965418e-05 -1.642689458094537258e-03 -5.188502836972475052e-04 -1.268947264179587364e-03
2.156000000000000000e+03 3.340471267700195312e+01 1.207973194122314453e+01 -6.153251510113477707e-03 -2.075183205306529999e-03 -2.468530554324388504e-03 4.984392784535884857e-03
2.157000000000000000e+03 1.935953712463378906e+01 4.519079685211181641e+00 -3.154396108584478498e-05 3.304160145489731804e-06 -8.471940418530721217e-06 -1.045683802658459172e-06
2.158000000000000000e+03 1.875748825073242188e+01 5.998669147491455078e+00 -5.174657781026326120e-05 -2.906140798586420715e-05 -2.424239573883824050e-05 1.002800445348839276e-06
2.159000000000000000e+03 3.724177551269531250e+01 8.577284812927246094e+00 -2.214279957115650177e-03 -1.779773971065878868e-03 -1.198216108605265617e-03 2.801291702780872583e-04
2.160000000000000000e+03 3.401501464843750000e+01 1.034181880950927734e+01 -4.139065276831388474e-04 3.539469325914978981e-04 -1.798787707230076194e-05 9.646120597608387470e-04
2.161000000000000000e+03 3.498880386352539062e+01 8.600054740905761719e+00 1.118482556194067001e-03 -4.576777864713221788e-04 1.982414396479725838e-04 -1.372814062051475048e-03
2.162000000000000000e+03 3.488328552246093750e+01 9.286523818969726562e+00 2.791763399727642536e-04 -1.278296404052525759e-04 4.540400914265774190e-05 -8.524804143235087395e-04
2.163000000000000000e+03 3.282248687744140625e+01 1.506450843811035156e+01 -2.080206759274005890e-02 -1.732850819826126099e-02 -1.143917255103588104e-02 2.442899346351623535e-02
2.164000000000000000e+03 1.783441162109375000e+01 7.677313327789306641e+00 4.299684951547533274e-05 -2.183542710554320365e-05 6.348426722979638726e-06 -4.262642323737964034e-05
2.165000000000000000e+03 1.492509174346923828e+01 1.057414817810058594e+01 8.304489165311679244e-05 3.032918029930442572e-04 1.159010062110610306e-04 1.118685031542554498e-04
2.166000000000000000e+03 1.439545154571533203e+01 1.127892017364501953e+01 1.570143649587407708e-04 3.985888615716248751e-04 1.666809694143012166e-04 1.456589088775217533e-04
2.167000000000000000e+03 1.392175292968750000e+01 1.443016242980957031e+01 4.824370553251355886e-04 1.057364861480891705e-03 4.619405663106590509e-04 4.518681380432099104e-04
2.168000000000000000e+03 1.358679866790771484e+01 1.363023662567138672e+01 -2.469961182214319706e-04 7.760060834698379040e-04 1.587029983056709170e-04 4.407905507832765579e-04
2.169000000000000000e+03 3.209510803222656250e+01 1.713670539855957031e+01 -4.125553369522094727e-02 -3.771319612860679626e-02 -2.369061857461929321e-02 4.610541462898254395e-02
2.170000000000000000e+03 3.154744338989257812e+01 1.866390419006347656e+01 -7.497987151145935059e-02 -4.925010725855827332e-02 -3.726899251341819763e-02 6.133364140987396240e-02
2.171000000000000000e+03 2.711427307128906250e+01 2.295178794860839844e+01 -1.150790229439735413e-01 -4.766587913036346436e-02 -4.882347211241722107e-02 6.061949580907821655e-02
2.172000000000000000e+03 1.760327529907226562e+01 2.343508529663085938e+01 -4.138899594545364380e-02 -1.997000508708879352e-04 -1.247660815715789795e-02 1.170190609991550446e-02
2.173000000000000000e+03 1.813529396057128906e+01 2.291386795043945312e+01 -4.652227833867073059e-02 1.954477047547698021e-04 -1.389804948121309280e-02 6.713085342198610306e-03
2.174000000000000000e+03 1.833990097045898438e+01 5.778597831726074219e+00 5.385811891756020486e-05 4.896948667010292411e-05 3.084828131250105798e-05 -1.231494934472721070e-06
2.175000000000000000e+03 1.772063255310058594e+01 5.959115505218505859e+00 7.171381002990528941e-05 4.900268322671763599e-05 3.621494761318899691e-05 1.257397616427624598e-05
2.176000000000000000e+03 3.462897491455078125e+01 4.761429309844970703e+00 7.778811850585043430e-04 2.051554765785112977e-04 2.949110057670623064e-04 -1.131267054006457329e-03
2.177000000000000000e+03 3.215988922119140625e+01 1.924393081665039062e+01 -8.963003754615783691e-02 -2.412664704024791718e-02 -3.412700444459915161e-02 5.585512518882751465e-02
2.178000000000000000e+03 1.888315773010253906e+01 5.587104797363281250e+00 5.009623419027775526e-05 2.662729457370005548e-05 2.301705899299122393e-05 -3.457863567746244371e-05
2.179000000000000000e+03 1.948332786560058594e+01 5.502624511718750000e+00 4.304834510548971593e-05 -7.398119578283512965e-06 1.069506743078818545e-05 2.305900306964758784e-05
2.180000000000000000e+03 1.267415142059326172e+01 1.591511344909667969e+01 1.566559658385813236e-04 3.114028950221836567e-04 1.404176582582294941e-04 4.079919599462300539e-04
2.181000000000000000e+03 1.976422119140625000e+01 2.368430137634277344e+01 -6.176791340112686157e-02 -4.117459058761596680e-03 -1.976561173796653748e-02 1.959407702088356018e-02
2.182000000000000000e+03 3.472418594360351562e+01 6.979526519775390625e+00 1.719562569633126259e-03 3.321864642202854156e-04 6.155247101560235023e-04 -6.555300788022577763e-04
2.183000000000000000e+03 3.516935348510742188e+01 3.573616027832031250e+00 -7.325832848437130451e-04 -6.855659303255379200e-04 -4.254447703715413809e-04 8.595047402195632458e-04
2.184000000000000000e+03 3.254906845092773438e+01 1.793831634521484375e+01 -6.559414416551589966e-02 -2.402989380061626434e-02 -2.688721008598804474e-02 5.231313034892082214e-02
2.185000000000000000e+03 1.350180149078369141e+01 1.431867313385009766e+01 -1.663665025262162089e-04 7.675398373976349831e-04 1.803519990062341094e-04 4.193770873825997114e-04
2.186000000000000000e+03 1.335107612609863281e+01 1.914996337890625000e+01 -2.323418855667114258e-03 4.530669539235532284e-04 -5.611055530607700348e-04 -3.492560645099729300e-04
2.187000000000000000e+03 1.332036399841308594e+01 1.813935279846191406e+01 1.461315696360543370e-05 7.286283071152865887e-04 2.229724486824125051e-04 3.366789896972477436e-04
2.188000000000000000e+03 3.163429832458496094e+01 1.779829025268554688e+01 -5.327279493212699890e-02 -5.120976641774177551e-02 -3.134476765990257263e-02 5.361545458436012268e-02
2.189000000000000000e+03 1.488458728790283203e+01 2.126861381530761719e+01 -1.478965766727924347e-02 2.748645143583416939e-03 -3.612303873524069786e-03 -1.212385250255465508e-03
2.190000000000000000e+03 1.537363052368164062e+01 2.125407218933105469e+01 -1.624162681400775909e-02 2.675285562872886658e-03 -4.069902468472719193e-03 -1.379855093546211720e-03
2.191000000000000000e+03 1.587803077697753906e+01 2.232749748229980469e+01 -2.577320858836174011e-02 2.118111588060855865e-03 -7.096529006958007812e-03 3.495862009003758430e-03
2.192000000000000000e+03 1.927389717102050781e+01 2.362327957153320312e+01 -5.781602114439010620e-02 -2.666943706572055817e-03 -1.814488880336284637e-02 1.630852930247783661e-02
2.193000000000000000e+03 1.858720588684082031e+01 2.315245246887207031e+01 -5.245701223611831665e-02 -5.635486450046300888e-04 -1.590616814792156219e-02 9.608473628759384155e-03
2.194000000000000000e+03 1.462647533416748047e+01 2.110987472534179688e+01 -1.328467484563589096e-02 2.874751109629869461e-03 -3.122976981103420258e-03 -8.082594140432775021e-04
2.195000000000000000e+03 1.484858512878417969e+01 2.078873634338378906e+01 -1.083052437752485275e-02 2.421377226710319519e-03 -2.522744238376617432e-03 -2.253779675811529160e-03
2.196000000000000000e+03 1.337855815887451172e+01 1.469323635101318359e+01 4.616129153873771429e-04 8.262851624749600887e-04 3.863694146275520325e-04 6.632314762100577354e-04
2.197000000000000000e+03 2.160084915161132812e+01 2.325034332275390625e+01 -8.957991003990173340e-02 -1.438587717711925507e-02 -3.118973597884178162e-02 2.366196550428867340e-02
2.198000000000000000e+03 3.088739013671875000e+01 2.064955139160156250e+01 -1.166189685463905334e-01 -4.299842193722724915e-02 -4.788521677255630493e-02 5.774255469441413879e-02
2.199000000000000000e+03 3.049496841430664062e+01 2.016809272766113281e+01 -1.212429031729698181e-01 -6.519494205713272095e-02 -5.593135207891464233e-02 7.388329505920410156e-02
2.200000000000000000e+03 1.587532329559326172e+01 8.049558639526367188e+00 -1.160212486865930259e-04 3.239231227780692279e-05 -2.508868055883795023e-05 -6.824745469202753156e-06
2.201000000000000000e+03 1.350481986999511719e+01 1.322349548339843750e+01 3.105925279669463634e-04 5.521876155398786068e-04 2.588340430520474911e-04 4.040157946292310953e-04
2.202000000000000000e+03 1.302188110351562500e+01 1.552101516723632812e+01 4.874051082879304886e-04 6.261522066779434681e-04 3.340671828482300043e-04 8.350688731297850609e-04
2.203000000000000000e+03 1.322322082519531250e+01 1.509253883361816406e+01 -1.016529276967048645e-04 7.134879124350845814e-04 1.835504954215139151e-04 4.516135377343744040e-04
2.204000000000000000e+03 1.354048824310302734e+01 1.958355522155761719e+01 -2.459157491102814674e-03 7.780256564728915691e-04 -5.043395212851464748e-04 -1.217844430357217789e-03
2.205000000000000000e+03 1.305421066284179688e+01 1.880427742004394531e+01 -8.848888683132827282e-04 2.191584353568032384e-04 -1.997191284317523241e-04 -5.058445385657250881e-04
2.206000000000000000e+03 1.312489986419677734e+01 1.835688400268554688e+01 -6.395276868715882301e-04 4.425136139616370201e-04 -5.910421896260231733e-05 -2.511841594241559505e-04
2.207000000000000000e+03 2.073663520812988281e+01 2.435763168334960938e+01 -6.325995177030563354e-02 -1.278004329651594162e-02 -2.281199954450130463e-02 3.020444884896278381e-02
2.208000000000000000e+03 1.472278213500976562e+01 2.153930473327636719e+01 -1.613137125968933105e-02 3.152097575366497040e-03 -3.893781919032335281e-03 6.240915390662848949e-04
2.209000000000000000e+03 3.228148269653320312e+01 1.989787101745605469e+01 -9.352575242519378662e-02 -1.896441727876663208e-02 -3.374705091118812561e-02 5.352446809411048889e-02
2.210000000000000000e+03 1.561134815216064453e+01 9.304868698120117188e+00 1.138934167101979256e-04 1.108421929529868066e-04 6.742068217135965824e-05 2.596181730041280389e-05
2.211000000000000000e+03 1.885391998291015625e+01 5.164465904235839844e+00 1.999589403567370027e-05 2.207111174357123673e-05 1.262010209757136181e-05 3.068202204303815961e-05
2.212000000000000000e+03 2.204816246032714844e+01 2.323114204406738281e+01 -9.477476030588150024e-02 -1.614277437329292297e-02 -3.327525779604911804e-02 2.503509633243083954e-02
2.213000000000000000e+03 2.211056518554687500e+01 2.374945259094238281e+01 -8.349048346281051636e-02 -1.854305155575275421e-02 -3.061006031930446625e-02 3.047560155391693115e-02
2.214000000000000000e+03 2.947051048278808594e+01 2.207510566711425781e+01 -1.143075227737426758e-01 -6.560692936182022095e-02 -5.397433787584304810e-02 4.976663738489151001e-02
2.215000000000000000e+03 2.305920410156250000e+01 2.369686126708984375e+01 -9.393774718046188354e-02 -2.060510031878948212e-02 -3.436285257339477539e-02 3.495149314403533936e-02
2.216000000000000000e+03 2.257859992980957031e+01 2.372356224060058594e+01 -8.766559511423110962e-02 -1.966547966003417969e-02 -3.219932317733764648e-02 3.283364698290824890e-02
2.217000000000000000e+03 3.023276138305664062e+01 2.149654960632324219e+01 -1.214188486337661743e-01 -5.469680577516555786e-02 -5.283469706773757935e-02 4.882648587226867676e-02
2.218000000000000000e+03 1.433444690704345703e+01 2.096414756774902344e+01 -1.166565343737602234e-02 2.107207430526614189e-03 -2.867533825337886810e-03 -1.546782790683209896e-03
2.219000000000000000e+03 1.492324256896972656e+01 2.198416900634765625e+01 -1.896554976701736450e-02 2.983642742037773132e-03 -4.794572014361619949e-03 1.551923691295087337e-03
2.220000000000000000e+03 1.467193126678466797e+01 9.504687309265136719e+00 7.295645627891644835e-05 2.311126154381781816e-04 9.122072515310719609e-05 7.230512710520997643e-05
2.221000000000000000e+03 3.059099578857421875e+01 2.205146408081054688e+01 -1.020164638757705688e-01 -4.026348143815994263e-02 -4.268398508429527283e-02 3.918332234025001526e-02
2.222000000000000000e+03 3.548712158203125000e+01 4.850817680358886719e+00 2.204207703471183777e-03 -9.472150122746825218e-05 6.328459130600094795e-04 -3.984370850957930088e-04
2.223000000000000000e+03 3.585157012939453125e+01 5.445598125457763672e+00 -1.463105436414480209e-03 -4.365008790045976639e-04 -5.698819295503199100e-04 -3.261141246184706688e-04
2.224000000000000000e+03 2.990750122070312500e+01 2.103338050842285156e+01 -1.330490261316299438e-01 -6.967984139919281006e-02 -6.081866100430488586e-02 5.993877351284027100e-02
2.225000000000000000e+03 3.060347747802734375e+01 2.119824409484863281e+01 -1.180790588259696960e-01 -4.600758105516433716e-02 -4.922599345445632935e-02 5.044775083661079407e-02
2.226000000000000000e+03 1.711087989807128906e+01 2.356849479675292969e+01 -3.611575067043304443e-02 9.260544902645051479e-04 -1.055690832436084747e-02 1.137732621282339096e-02
2.227000000000000000e+03 1.531533813476562500e+01 2.256997489929199219e+01 -2.475455589592456818e-02 2.476728288456797600e-03 -6.683348212391138077e-03 4.747425206005573273e-03
2.228000000000000000e+03 1.355605030059814453e+01 2.006339073181152344e+01 -5.939182359725236893e-03 1.135894097387790680e-03 -1.440986408852040768e-03 -1.137825893238186836e-03
2.229000000000000000e+03 3.634111022949218750e+01 -3.272838115692138672e+00 -2.248677492141723633e+00 7.068732380867004395e-01 -4.625412523746490479e-01 4.376895427703857422e-01
2.230000000000000000e+03 1.825001907348632812e+01 4.325406074523925781e+00 1.412474972539712326e-07 2.214690994151169434e-06 7.067815204209182411e-07 3.158352910759276710e-06
2.231000000000000000e+03 1.942324829101562500e+01 3.961537122726440430e+00 3.545004437910392880e-05 -2.721495320656686090e-06 9.818564649322070181e-06 -1.989998281715088524e-07
2.232000000000000000e+03 3.651835250854492188e+01 5.144424438476562500e+00 2.256329637020826340e-03 1.174097342300228775e-04 7.121218368411064148e-04 -7.241831044666469097e-04
2.233000000000000000e+03 3.463772964477539062e+01 5.888718605041503906e+00 5.743316141888499260e-04 3.739279054570943117e-04 2.844778646249324083e-04 -1.295968890190124512e-03
2.234000000000000000e+03 3.102602958679199219e+01 -2.607182502746582031e+00 -2.288373947143554688e+00 2.868742644786834717e-01 -6.004499197006225586e-01 -5.358369350433349609e-01
2.235000000000000000e+03 3.208578872680664062e+01 -3.724549293518066406e+00 -1.685973644256591797e+00 2.981626391410827637e-01 -4.163433015346527100e-01 -3.913032710552215576e-01
2.236000000000000000e+03 2.054242134094238281e+01 4.523617267608642578e+00 -7.102894869603915140e-06 3.238120552850887179e-05 7.583493243146222085e-06 1.128562644225894473e-06
2.237000000000000000e+03 1.607031822204589844e+01 4.315407276153564453e+00 2.953096554847434163e-05 6.822778959758579731e-05 2.932762618002016097e-05 -3.913313321390887722e-06
2.238000000000000000e+03 3.415352630615234375e+01 -3.781525611877441406e+00 -1.868078708648681641e+00 4.311455786228179932e-01 -4.310799539089202881e-01 1.797238588333129883e-01
2.239000000000000000e+03 3.508236694335937500e+01 -3.542471885681152344e+00 -2.065056324005126953e+00 5.461904406547546387e-01 -4.556597471237182617e-01 3.384529948234558105e-01
2.240000000000000000e+03 1.643889427185058594e+01 4.864405632019042969e+00 3.626009129220619798e-05 8.211495151044800878e-05 3.551251211320050061e-05 4.292240555514581501e-05
2.241000000000000000e+03 2.505977821350097656e+01 2.254382896423339844e+01 -1.345283985137939453e-01 -2.143304795026779175e-02 -4.678843542933464050e-02 4.579868540167808533e-02
2.242000000000000000e+03 2.378924179077148438e+01 2.336319732666015625e+01 -1.076172068715095520e-01 -2.018069475889205933e-02 -3.833937272429466248e-02 3.875430300831794739e-02
2.243000000000000000e+03 1.701916122436523438e+01 4.284173488616943359e+00 4.125014285705219663e-08 2.721074270084500313e-05 8.175597940862644464e-06 1.389225963066564873e-05
2.244000000000000000e+03 2.258186721801757812e+01 -3.393163919448852539e+00 -6.563629508018493652e-01 -6.006953865289688110e-02 -2.149297446012496948e-01 -6.142510771751403809e-01
2.245000000000000000e+03 2.735173988342285156e+01 -5.273891925811767578e+00 -6.182742118835449219e-01 -5.761018395423889160e-02 -2.027653157711029053e-01 -1.054101347923278809e+00
2.246000000000000000e+03 1.325797557830810547e+01 4.924170017242431641e+00 3.941282102459808812e-06 -1.731257361825555563e-05 -4.011387318314518780e-06 7.369265222223475575e-05
2.247000000000000000e+03 1.394959354400634766e+01 4.310422420501708984e+00 -4.840733254241058603e-06 -1.482908373873215169e-05 -5.900944870518287644e-06 5.036384754930622876e-05
2.248000000000000000e+03 1.765612983703613281e+01 4.321697235107421875e+00 3.399296474526636302e-05 2.292845465490245260e-06 1.088574390450958163e-05 -3.694558017741655931e-06
2.249000000000000000e+03 2.673346710205078125e+01 2.317514610290527344e+01 -1.061966866254806519e-01 -4.346010461449623108e-02 -4.489703848958015442e-02 5.669024214148521423e-02
2.250000000000000000e+03 2.554287338256835938e+01 2.376073837280273438e+01 -9.615375846624374390e-02 -3.436088562011718750e-02 -3.915439173579216003e-02 5.055882409214973450e-02
2.251000000000000000e+03 1.032610511779785156e+01 4.577031612396240234e+00 1.246039028046652675e-04 -2.217324799858033657e-05 3.072919571422971785e-05 -4.132865342398872599e-06
2.252000000000000000e+03 1.537534809112548828e+01 4.286550998687744141e+00 -1.249159868166316301e-05 -2.225886782980524004e-05 -1.042514031723840162e-05 3.306745202280580997e-05
2.253000000000000000e+03 1.466326045989990234e+01 4.290665149688720703e+00 3.196724719600751996e-05 5.296668678056448698e-05 2.548017982917372137e-05 3.900591309502488002e-06
2.254000000000000000e+03 1.252555179595947266e+01 4.402097702026367188e+00 5.728795258619356900e-06 -1.954408617166336626e-05 -4.144587364862672985e-06 7.040039781713858247e-05
2.255000000000000000e+03 1.180368709564208984e+01 4.463574409484863281e+00 7.536776683991774917e-05 1.709074240352492779e-05 2.773755113594233990e-05 5.497020993061596528e-06
2.256000000000000000e+03 7.305797576904296875e+01 -2.076412391662597656e+01 2.043852582573890686e-03 -8.827695855870842934e-04 3.483248583506792784e-04 8.042787667363882065e-04
2.257000000000000000e+03 1.162950325012207031e+01 -4.890658378601074219e+00 -1.457377821207046509e-01 -1.131322681903839111e-01 -7.766101509332656860e-02 1.171006355434656143e-02
2.258000000000000000e+03 1.085522079467773438e+01 -4.957717895507812500e+00 -1.391889899969100952e-01 -8.894733339548110962e-02 -6.844089925289154053e-02 3.486399725079536438e-02
2.259000000000000000e+03 9.604663848876953125e+00 4.574662208557128906e+00 -2.058095014945138246e-05 -1.830702240113168955e-05 -1.166639140137704089e-05 3.757209924515336752e-05
2.260000000000000000e+03 3.851309299468994141e+00 -5.703500747680664062e+00 -3.785266727209091187e-02 4.809626191854476929e-02 3.073078580200672150e-03 8.466959744691848755e-02
2.261000000000000000e+03 5.344382762908935547e+00 -4.909313678741455078e+00 -2.939500473439693451e-02 1.537565886974334717e-02 -4.205803386867046356e-03 1.022740378975868225e-01
2.262000000000000000e+03 1.465238475799560547e+01 -4.677363872528076172e+00 -2.003924399614334106e-01 -1.979099214076995850e-01 -1.194907128810882568e-01 -1.478451937437057495e-01
2.263000000000000000e+03 5.896459102630615234e+00 5.660940647125244141e+00 6.043451503501273692e-05 -8.225414057960733771e-05 -6.545888027176260948e-06 -7.485754031222313643e-05
2.264000000000000000e+03 6.072257041931152344e+00 4.123401641845703125e+00 2.874890742532443255e-05 -1.732755845296196640e-05 3.426404873607680202e-06 -2.365512955293525010e-05
2.265000000000000000e+03 6.563954830169677734e+00 -5.066324234008789062e+00 -5.831308290362358093e-02 -1.968678319826722145e-03 -1.808452792465686798e-02 9.511519968509674072e-02
2.266000000000000000e+03 5.475177764892578125e+00 -4.305585384368896484e+00 -6.983313709497451782e-03 1.229841355234384537e-02 1.594529836438596249e-03 1.071711406111717224e-01
2.267000000000000000e+03 3.699120330810546875e+01 -3.184420824050903320e+00 -2.317388057708740234e+00 6.740812659263610840e-01 -4.929920434951782227e-01 4.970698952674865723e-01
2.268000000000000000e+03 9.190957069396972656e+00 -4.116916179656982422e+00 -2.768835611641407013e-02 -3.757841885089874268e-02 -1.958003267645835876e-02 8.762135356664657593e-02
2.269000000000000000e+03 1.004487228393554688e+01 -4.937954902648925781e+00 -1.270076036453247070e-01 -7.347762584686279297e-02 -6.014556810259819031e-02 5.714579299092292786e-02
2.270000000000000000e+03 8.190225601196289062e+00 3.887643098831176758e+00 1.172274205600842834e-04 -2.464756835252046585e-05 2.777395638986490667e-05 -2.088403107336489484e-06
2.271000000000000000e+03 6.924154758453369141e+00 4.688292980194091797e+00 3.063756230403669178e-05 -2.285112714162096381e-05 2.335930503249983303e-06 -4.859945690327549528e-08
2.272000000000000000e+03 1.302576255798339844e+01 -3.982300043106079102e+00 -6.979161500930786133e-02 -1.155659556388854980e-01 -5.560727044939994812e-02 -3.499096259474754333e-02
2.273000000000000000e+03 5.585898399353027344e+00 5.020359992980957031e+00 5.961512579233385623e-05 2.535375870138523169e-06 1.864515070337802172e-05 -3.088437006226740777e-05
2.274000000000000000e+03 7.764063835144042969e+00 -4.731939792633056641e+00 -6.493329256772994995e-02 -2.036585658788681030e-02 -2.558974362909793854e-02 9.409970790147781372e-02
2.275000000000000000e+03 4.892277240753173828e+00 -5.364007949829101562e+00 -4.779573902487754822e-02 2.274741977453231812e-02 -7.514494936913251877e-03 9.329143911600112915e-02
2.276000000000000000e+03 7.581946372985839844e+00 4.599915027618408203e+00 1.363511692034080625e-04 -4.366931898402981460e-05 2.780455542961135507e-05 -2.095936906698625535e-05
2.277000000000000000e+03 8.911156654357910156e+00 4.537838459014892578e+00 1.480760256526991725e-04 -3.322713382658548653e-05 3.445466791163198650e-05 1.826347397582139820e-05
2.278000000000000000e+03 8.241575241088867188e+00 4.546898365020751953e+00 2.279695036122575402e-05 -4.102196544408798218e-05 -5.467504252010257915e-06 1.387966403854079545e-05
2.279000000000000000e+03 1.754901504516601562e+01 -5.319333553314208984e+00 -3.859043717384338379e-01 -3.013349175453186035e-01 -2.061717808246612549e-01 -4.128714799880981445e-01
2.280000000000000000e+03 1.856664657592773438e+01 -4.627020359039306641e+00 -3.802739977836608887e-01 -2.247826755046844482e-01 -1.815170049667358398e-01 -4.429591298103332520e-01
2.281000000000000000e+03 8.453213691711425781e+00 -4.812765598297119141e+00 -7.817555218935012817e-02 -3.229580819606781006e-02 -3.314140811562538147e-02 8.637242019176483154e-02
2.282000000000000000e+03 3.561232376098632812e+01 4.000295162200927734e+00 1.381851267069578171e-03 5.057343514636158943e-04 5.662757321260869503e-04 -9.249217109754681587e-04
2.283000000000000000e+03 1.616951179504394531e+01 -3.988004446029663086e+00 -1.711672246456146240e-01 -1.838828325271606445e-01 -1.065150126814842224e-01 -2.321784049272537231e-01
2.284000000000000000e+03 1.237658786773681641e+01 -4.766649723052978516e+00 -1.520596444606781006e-01 -1.365538835525512695e-01 -8.658405393362045288e-02 -2.124798111617565155e-02
2.285000000000000000e+03 1.312713527679443359e+01 -4.671723365783691406e+00 -1.594816297292709351e-01 -1.506278067827224731e-01 -9.303282946348190308e-02 -5.634414032101631165e-02
2.286000000000000000e+03 3.213154602050781250e+01 -4.644901752471923828e+00 -1.305116534233093262e+00 6.053845286369323730e-01 -2.099195867776870728e-01 -4.049777388572692871e-01
2.287000000000000000e+03 3.385107040405273438e+01 -4.373842239379882812e+00 -1.527384877204895020e+00 5.491740703582763672e-01 -2.934632301330566406e-01 2.539719454944133759e-02
2.288000000000000000e+03 7.539596557617187500e+01 -1.206748962402343750e+01 -1.707919239997863770e-01 -6.522452086210250854e-02 -7.080493122339248657e-02 -2.271255850791931152e-01
2.289000000000000000e+03 7.592847442626953125e+01 -1.056798076629638672e+01 -1.582992076873779297e-01 -1.559738218784332275e-01 -9.428190439939498901e-02 -3.211120367050170898e-01
2.290000000000000000e+03 1.707931327819824219e+01 -4.728136062622070312e+00 -3.036675453186035156e-01 -2.623487114906311035e-01 -1.698048710823059082e-01 -3.392377197742462158e-01
2.291000000000000000e+03 7.240375518798828125e+01 -1.155193614959716797e+01 -4.616615474224090576e-01 8.884146064519882202e-02 -1.118460223078727722e-01 -3.371184170246124268e-01
2.292000000000000000e+03 7.055280303955078125e+01 -1.174185466766357422e+01 -7.743586897850036621e-01 2.148024737834930420e-01 -1.678668558597564697e-01 -2.738380432128906250e-01
2.293000000000000000e+03 7.412615203857421875e+01 -1.117807960510253906e+01 -3.032935857772827148e-01 -2.648118883371353149e-02 -9.893243014812469482e-02 -3.534084856510162354e-01
2.294000000000000000e+03 1.630045509338378906e+01 -4.833314418792724609e+00 -2.777212858200073242e-01 -2.530928850173950195e-01 -1.592442542314529419e-01 -2.876638174057006836e-01
2.295000000000000000e+03 2.381093025207519531e+01 -3.556891679763793945e+00 -7.904309034347534180e-01 -6.789866089820861816e-02 -2.574988901615142822e-01 -7.285758256912231445e-01
2.296000000000000000e+03 2.468070220947265625e+01 -4.408127784729003906e+00 -7.614039778709411621e-01 -1.553509682416915894e-01 -2.750264704227447510e-01 -8.620804548263549805e-01
2.297000000000000000e+03 7.328995513916015625e+01 -1.136830711364746094e+01 -4.038068056106567383e-01 4.673883318901062012e-02 -1.071203872561454773e-01 -3.236600756645202637e-01
2.298000000000000000e+03 3.299674224853515625e+01 -3.126667499542236328e+00 -2.038066864013671875e+00 1.163856461644172668e-01 -5.765044093132019043e-01 -7.316195219755172729e-02
2.299000000000000000e+03 2.292948722839355469e+01 -3.787421703338623047e+00 -6.943603754043579102e-01 -8.189076930284500122e-02 -2.328753471374511719e-01 -6.866055727005004883e-01
2.300000000000000000e+03 4.955404281616210938e+00 -7.425667285919189453e+00 -1.183765605092048645e-01 1.224144268780946732e-02 -3.184053674340248108e-02 2.819089032709598541e-02
2.301000000000000000e+03 4.670335292816162109e+00 -5.908452033996582031e+00 -6.262298673391342163e-02 2.631127275526523590e-02 -1.089351437985897064e-02 8.252082020044326782e-02
2.302000000000000000e+03 5.941064357757568359e+00 6.643495082855224609e+00 -5.720157423638738692e-05 -4.907858601654879749e-05 -3.188404662068933249e-05 -1.243435253854840994e-04
2.303000000000000000e+03 4.641381740570068359e+00 6.572220802307128906e+00 7.421422196784988046e-06 -6.164927617646753788e-05 -1.626835546630900353e-05 -1.581896503921598196e-04
2.304000000000000000e+03 7.127746582031250000e+01 -1.266651916503906250e+01 -5.697219371795654297e-01 1.648135930299758911e-01 -1.214725077152252197e-01 -1.688553839921951294e-01
2.305000000000000000e+03 2.722355461120605469e+01 -6.666252136230468750e+00 -1.792440265417098999e-01 -2.628785669803619385e-01 -1.326367706060409546e-01 -9.233168363571166992e-01
2.306000000000000000e+03 3.767320632934570312e+01 -3.067100524902343750e+00 -2.454592466354370117e+00 6.839143037796020508e-01 -5.312034487724304199e-01 5.638483166694641113e-01
2.307000000000000000e+03 2.059461975097656250e+01 -4.554968833923339844e+00 -5.171198248863220215e-01 -1.792155206203460693e-01 -2.089006006717681885e-01 -5.859143733978271484e-01
2.308000000000000000e+03 1.937511825561523438e+01 -3.817442655563354492e+00 -3.656690120697021484e-01 -1.635778397321701050e-01 -1.587740480899810791e-01 -4.499678611755371094e-01
2.309000000000000000e+03 6.575890350341796875e+01 -7.166266441345214844e+00 -5.999270677566528320e-01 4.406692683696746826e-01 -4.777733236551284790e-02 -3.991266489028930664e-01
2.310000000000000000e+03 6.385854339599609375e+01 -8.137345314025878906e+00 -7.163686752319335938e-01 4.224232137203216553e-01 -8.818363398313522339e-02 5.681778118014335632e-02
2.311000000000000000e+03 3.889152526855468750e+01 1.624258232116699219e+01 -7.254570722579956055e-02 3.245254606008529663e-02 -1.202794909477233887e-02 8.333859965205192566e-03
2.312000000000000000e+03 3.906574630737304688e+01 1.441923999786376953e+01 -5.545292049646377563e-02 1.850262656807899475e-02 -1.108508836477994919e-02 5.516837700270116329e-04
2.313000000000000000e+03 2.919468688964843750e+01 -6.268547058105468750e+00 -1.640892177820205688e-01 3.219116926193237305e-01 4.734674096107482910e-02 -1.038564682006835938e+00
2.314000000000000000e+03 1.679509925842285156e+01 -9.776750564575195312e+00 -9.729905128479003906e-01 -7.344828248023986816e-01 -5.122420191764831543e-01 -5.292413234710693359e-01
2.315000000000000000e+03 1.492004680633544922e+01 -9.407980918884277344e+00 -7.994481921195983887e-01 -5.948618054389953613e-01 -4.182929992675781250e-01 -3.226083815097808838e-01
2.316000000000000000e+03 2.176651382446289062e+01 -3.059334039688110352e+00 -5.542241930961608887e-01 -4.993899166584014893e-02 -1.812489628791809082e-01 -5.046722292900085449e-01
2.317000000000000000e+03 4.377188205718994141e+00 3.203861999511718750e+01 -5.157198029337450862e-05 -1.104449480772018433e-02 -3.328819992020726204e-03 7.233193609863519669e-03
2.318000000000000000e+03 3.867808580398559570e+00 1.831808853149414062e+01 -7.233876385726034641e-04 -2.095987583743408322e-04 -2.798959030769765377e-04 -2.890109026338905096e-04
2.319000000000000000e+03 9.016429901123046875e+00 -1.984392356872558594e+01 9.611765295267105103e-02 -4.183779060840606689e-01 -9.667807072401046753e-02 -7.851206064224243164e-01
2.320000000000000000e+03 1.028059673309326172e+01 -2.191778945922851562e+01 3.918798267841339111e-01 -3.766252994537353516e-01 4.576357547193765640e-03 -6.926741600036621094e-01
2.321000000000000000e+03 3.876628112792968750e+01 -4.548910617828369141e+00 -2.401238203048706055e+00 5.835200548171997070e-01 -5.453153848648071289e-01 2.646557688713073730e-01
2.322000000000000000e+03 3.857394409179687500e+01 -3.644195556640625000e+00 -2.607085943222045898e+00 6.015598177909851074e-01 -6.016578674316406250e-01 5.200046300888061523e-01
2.323000000000000000e+03 7.558442687988281250e+01 -2.180892181396484375e+01 -5.375939654186367989e-04 -3.719560627359896898e-04 -2.728649997152388096e-04 9.596444433555006981e-04
2.324000000000000000e+03 7.621150970458984375e+01 -1.979179954528808594e+01 -4.034935773233883083e-05 4.851475823670625687e-04 1.334394764853641391e-04 -2.441029500914737582e-04
2.325000000000000000e+03 6.398116302490234375e+01 4.677494525909423828e+00 8.579335212707519531e-01 3.562956094741821289e+00 1.326266884803771973e+00 4.356178939342498779e-01
2.326000000000000000e+03 6.438231658935546875e+01 5.692837715148925781e+00 8.175567984580993652e-01 3.804081439971923828e+00 1.386491417884826660e+00 4.092541038990020752e-01
2.327000000000000000e+03 3.710876846313476562e+01 1.176945400238037109e+01 -1.642663404345512390e-02 1.518207835033535957e-03 -4.472527652978897095e-03 3.165366826578974724e-03
2.328000000000000000e+03 2.239081192016601562e+01 -4.312531948089599609e+00 -6.398745775222778320e-01 -1.296952962875366211e-01 -2.308709621429443359e-01 -6.865538954734802246e-01
2.329000000000000000e+03 4.908185005187988281e+00 1.492337799072265625e+01 8.958025864558294415e-05 -3.051932144444435835e-04 -6.468388892244547606e-05 -2.079476107610389590e-04
2.330000000000000000e+03 6.463964080810546875e+01 6.713206291198730469e+00 8.283164501190185547e-01 3.914783716201782227e+00 1.422930002212524414e+00 3.823565542697906494e-01
2.331000000000000000e+03 4.225098419189453125e+01 -1.873135757446289062e+01 1.901580095291137695e+00 2.905376195907592773e+00 1.442086935043334961e+00 7.464336156845092773e-01
2.332000000000000000e+03 3.992678070068359375e+01 -1.405738544464111328e+01 1.257480978965759277e+00 7.723548412322998047e-01 6.089507341384887695e-01 -1.226123213768005371e+00
2.333000000000000000e+03 2.517293548583984375e+01 -4.947149276733398438e+00 -7.082208991050720215e-01 -2.089005708694458008e-01 -2.751364409923553467e-01 -9.119378328323364258e-01
2.334000000000000000e+03 4.272207736968994141e+00 1.585003566741943359e+01 -2.276487357448786497e-04 -2.798877249006181955e-04 -1.522609381936490536e-04 -5.420571542344987392e-04
2.335000000000000000e+03 3.882439804077148438e+01 -1.208858680725097656e+01 9.374575614929199219e-01 4.049844145774841309e-01 4.027325809001922607e-01 -1.295866727828979492e+00
2.336000000000000000e+03 2.425782203674316406e+01 -6.776817798614501953e+00 -6.113739013671875000e-01 -2.711298465728759766e-01 -2.647511363029479980e-01 -7.693135142326354980e-01
2.337000000000000000e+03 2.548049545288085938e+01 -7.158134460449218750e+00 -4.704453647136688232e-01 -3.138959109783172607e-01 -2.353023886680603027e-01 -7.446091771125793457e-01
2.338000000000000000e+03 3.404400634765625000e+01 -8.059356689453125000e+00 3.155662715435028076e-01 1.018147706985473633e+00 4.001141786575317383e-01 -5.134539604187011719e-01
2.339000000000000000e+03 1.408119583129882812e+01 -9.542793273925781250e+00 -7.952713966369628906e-01 -5.267653465270996094e-01 -3.966110348701477051e-01 -2.640204429626464844e-01
2.340000000000000000e+03 5.330747604370117188e+01 -1.137702751159667969e+01 3.434567451477050781e-01 1.023912668228149414e+00 4.102108180522918701e-01 2.395948648452758789e+00
2.341000000000000000e+03 5.439075088500976562e+01 -8.362469673156738281e+00 -1.203091263771057129e+00 1.780484199523925781e+00 1.732178628444671631e-01 2.135543346405029297e+00
2.342000000000000000e+03 5.194520950317382812e+00 1.235080146789550781e+01 3.901641757693141699e-04 -2.520560519769787788e-04 4.143243495491333306e-05 -3.332250053063035011e-04
2.343000000000000000e+03 4.107124328613281250e+00 1.114262580871582031e+01 3.860736906062811613e-04 -4.705729588749818504e-05 1.017049216898158193e-04 -2.896851510740816593e-04
2.344000000000000000e+03 3.536635589599609375e+01 7.655869007110595703e+00 -1.895919267553836107e-04 -1.871594227850437164e-03 -6.183558143675327301e-04 -7.189535535871982574e-04
2.345000000000000000e+03 4.023726654052734375e+01 1.907839202880859375e+01 -8.982098102569580078e-02 5.360905453562736511e-02 -1.086357701569795609e-02 9.669460356235504150e-03
2.346000000000000000e+03 4.108624649047851562e+01 1.655053710937500000e+01 -8.773017674684524536e-02 3.181916847825050354e-02 -1.677330397069454193e-02 -9.017012082040309906e-03
2.347000000000000000e+03 7.483470153808593750e+01 -8.599842071533203125e+00 -2.253838181495666504e-01 -2.043301165103912354e-01 -1.289141774177551270e-01 -5.329569578170776367e-01
2.348000000000000000e+03 7.562492370605468750e+01 -7.198954105377197266e+00 -1.565541774034500122e-01 -3.646397292613983154e-01 -1.563581675291061401e-01 -5.791281461715698242e-01
2.349000000000000000e+03 7.542252349853515625e+01 6.417281150817871094e+00 1.285175532102584839e-01 -1.485511064529418945e+00 -4.070980548858642578e-01 -5.311416387557983398e-01
2.350000000000000000e+03 7.422150421142578125e+01 3.635984897613525391e+00 1.653389036655426025e-01 -8.217649459838867188e-01 -1.969278156757354736e-01 -7.425594329833984375e-01
2.351000000000000000e+03 5.156977081298828125e+01 -1.152088928222656250e+01 8.527286648750305176e-01 1.058928608894348145e+00 5.734971761703491211e-01 2.483169794082641602e+00
2.352000000000000000e+03 4.882937431335449219e+00 7.964965343475341797e+00 -1.180738036055117846e-04 -4.140444798395037651e-05 -4.784347402164712548e-05 -1.461923529859632254e-04
2.353000000000000000e+03 4.349465370178222656e+00 -1.275449752807617188e+01 -1.698440611362457275e-01 -1.005809977650642395e-01 -8.112751692533493042e-02 -2.732802927494049072e-01
2.354000000000000000e+03 6.905785083770751953e+00 -1.251236820220947266e+01 -3.588540852069854736e-01 -1.191168278455734253e-01 -1.433912813663482666e-01 -3.471387624740600586e-01
2.355000000000000000e+03 1.232128810882568359e+01 -1.209814357757568359e+01 -9.073169231414794922e-01 -3.451265990734100342e-01 -3.757330477237701416e-01 -4.090264141559600830e-01
2.356000000000000000e+03 1.150109100341796875e+01 -1.270993804931640625e+01 -8.229411840438842773e-01 -3.055974543094635010e-01 -3.385615944862365723e-01 -4.817650616168975830e-01
2.357000000000000000e+03 6.184860706329345703e+00 2.856115531921386719e+01 -2.725044498220086098e-03 -6.642079446464776993e-03 -2.810137113556265831e-03 8.595489896833896637e-03
2.358000000000000000e+03 4.855772495269775391e+00 2.907827949523925781e+01 -1.476046163588762283e-03 -7.362100295722484589e-03 -2.651443937793374062e-03 7.095186971127986908e-03
2.359000000000000000e+03 5.211449623107910156e+00 2.330206489562988281e+01 -2.040031598880887032e-03 -1.865775557234883308e-03 -1.171742100268602371e-03 2.757756039500236511e-03
2.360000000000000000e+03 2.028989219665527344e+01 -5.757839679718017578e+00 -5.890502333641052246e-01 -2.649803757667541504e-01 -2.562091946601867676e-01 -6.398178935050964355e-01
2.361000000000000000e+03 2.150639724731445312e+01 -7.565124988555908203e+00 -7.618612051010131836e-01 -2.893551290035247803e-01 -3.153648972511291504e-01 -7.272703051567077637e-01
2.362000000000000000e+03 3.732319259643554688e+01 1.250050830841064453e+01 -2.683545835316181183e-02 3.438695799559354782e-03 -7.019028533250093460e-03 3.030951134860515594e-03
2.363000000000000000e+03 3.813816452026367188e+01 1.382754135131835938e+01 -4.426145181059837341e-02 1.177631132304668427e-02 -9.745541960000991821e-03 3.896031994372606277e-03
2.364000000000000000e+03 3.825248336791992188e+01 1.444503593444824219e+01 -4.781488329172134399e-02 1.490903180092573166e-02 -9.871755726635456085e-03 6.611908785998821259e-03
2.365000000000000000e+03 6.088704681396484375e+01 9.846224188804626465e-01 6.798528432846069336e-01 3.173668146133422852e+00 1.156056284904479980e+00 1.164819359779357910e+00
2.366000000000000000e+03 6.112712097167968750e+01 -8.862694740295410156e+00 -9.552431106567382812e-01 8.749011158943176270e-01 -2.410258725285530090e-02 7.283047437667846680e-01
2.367000000000000000e+03 3.735099029541015625e+01 -9.554718971252441406e+00 3.589470684528350830e-01 4.736723005771636963e-01 2.497858107089996338e-01 -8.762698769569396973e-01
2.368000000000000000e+03 7.554969787597656250e+01 1.673715019226074219e+01 2.058019638061523438e-01 -1.757457017898559570e+00 -4.654965102672576904e-01 2.722563743591308594e-01
2.369000000000000000e+03 7.579115295410156250e+01 -2.488193702697753906e+01 -2.990493085235357285e-03 -1.428578631021082401e-03 -1.325721503235399723e-03 2.470333827659487724e-03
2.370000000000000000e+03 7.341506958007812500e+01 -2.584438896179199219e+01 -3.960793372243642807e-03 2.540802815929055214e-04 -1.112013938836753368e-03 3.885115729644894600e-03
2.371000000000000000e+03 3.870923995971679688e+01 -5.581599235534667969e+00 -2.092080593109130859e+00 5.736111402511596680e-01 -4.555408358573913574e-01 1.662336662411689758e-02
2.372000000000000000e+03 7.492178344726562500e+01 -2.114991760253906250e+01 -1.323181641055271029e-04 -8.841077797114849091e-04 -3.049277875106781721e-04 -1.054739579558372498e-03
2.373000000000000000e+03 7.386733245849609375e+01 -2.070512580871582031e+01 -1.569595420733094215e-03 -1.051989034749567509e-03 -7.864753133617341518e-04 -1.529819914139807224e-03
2.374000000000000000e+03 7.059664154052734375e+01 -1.052105617523193359e+01 -7.606348395347595215e-01 2.270325720310211182e-01 -1.600806862115859985e-01 -4.372414350509643555e-01
2.375000000000000000e+03 6.903046417236328125e+01 -1.064348125457763672e+01 -9.795856475830078125e-01 2.588627040386199951e-01 -2.162168771028518677e-01 -3.923373818397521973e-01
2.376000000000000000e+03 4.300861740112304688e+01 -7.517368793487548828e+00 -2.161864995956420898e+00 7.567273825407028198e-02 -6.258576512336730957e-01 -1.291059553623199463e-01
2.377000000000000000e+03 4.410919570922851562e+01 -7.682311534881591797e+00 -2.251823186874389648e+00 3.165785595774650574e-02 -6.660495996475219727e-01 7.292182743549346924e-02
2.378000000000000000e+03 4.139854431152343750e+01 -2.123039436340332031e+01 1.091753840446472168e+00 2.709298610687255859e+00 1.140315771102905273e+00 9.881122708320617676e-01
2.379000000000000000e+03 7.319167327880859375e+01 -2.454606819152832031e+01 -6.191669031977653503e-03 -8.084456785582005978e-04 -2.100034384056925774e-03 7.426166557706892490e-04
2.380000000000000000e+03 7.559177398681640625e+01 -3.026373386383056641e-01 3.434725105762481689e-02 -1.013145923614501953e+00 -2.936396002769470215e-01 -7.471904158592224121e-01
2.381000000000000000e+03 5.450406265258789062e+01 -1.095979499816894531e+01 -1.101524904370307922e-01 1.075137615203857422e+00 2.894955575466156006e-01 2.108276128768920898e+00
2.382000000000000000e+03 7.529691314697265625e+01 -2.406099319458007812e+01 -1.938578323461115360e-03 -2.181465970352292061e-03 -1.236013253219425678e-03 1.433667726814746857e-03
2.383000000000000000e+03 7.510156250000000000e+01 -2.314941215515136719e+01 -1.886041252873837948e-03 7.982599781826138496e-04 -3.263343824073672295e-04 8.985442109405994415e-04
2.384000000000000000e+03 3.703797912597656250e+01 5.861886501312255859e+00 -1.301489188335835934e-03 -1.067029079422354698e-03 -7.105554686859250069e-04 9.542783955112099648e-04
2.385000000000000000e+03 4.504742050170898438e+01 -8.132827758789062500e+00 -1.958811044692993164e+00 1.197133883833885193e-01 -5.517293214797973633e-01 2.073376774787902832e-01
2.386000000000000000e+03 3.187213897705078125e+01 -5.749914169311523438e+00 -6.275274753570556641e-01 8.231425881385803223e-01 5.868452042341232300e-02 -6.153644919395446777e-01
2.387000000000000000e+03 7.593998718261718750e+01 -3.262807464599609375e+01 -3.165494184941053391e-03 -1.015795301645994186e-02 -3.997034393250942230e-03 1.190795563161373138e-02
2.388000000000000000e+03 9.218141555786132812e+00 -1.904557609558105469e+01 3.044960461556911469e-02 -4.128419160842895508e-01 -1.147176921367645264e-01 -8.169927000999450684e-01
2.389000000000000000e+03 3.883819818496704102e+00 2.080498504638671875e+01 -1.355932443402707577e-03 -5.893671186640858650e-04 -5.835898336954414845e-04 5.292636924423277378e-04
2.390000000000000000e+03 4.927323818206787109e+00 2.080354881286621094e+01 -1.060153939761221409e-03 -9.465488838031888008e-04 -6.020108121447265148e-04 8.652057149447500706e-04
2.391000000000000000e+03 3.981958389282226562e+01 1.336798954010009766e+01 -4.412241652607917786e-02 9.804934263229370117e-03 -1.029524393379688263e-02 -7.102843839675188065e-03
2.392000000000000000e+03 6.542455291748046875e+01 1.172334289550781250e+01 7.171254754066467285e-01 4.534533023834228516e+00 1.575497508049011230e+00 1.168453171849250793e-01
2.393000000000000000e+03 4.700148773193359375e+01 -1.132519626617431641e+01 3.905205130577087402e-01 1.429886460304260254e+00 5.461220741271972656e-01 9.985873103141784668e-01
2.394000000000000000e+03 4.793988800048828125e+01 -1.115940093994140625e+01 2.859619557857513428e-01 1.511832237243652344e+00 5.393382310867309570e-01 1.562185049057006836e+00
2.395000000000000000e+03 6.703115081787109375e+01 -2.963344383239746094e+01 -4.003684222698211670e-02 1.165029499679803848e-02 -8.515964262187480927e-03 1.328957639634609222e-02
2.396000000000000000e+03 2.338438606262207031e+01 -7.139538288116455078e+00 -6.702874302864074707e-01 -2.439784705638885498e-01 -2.742797732353210449e-01 -7.373122572898864746e-01
2.397000000000000000e+03 5.790738677978515625e+01 -6.904727458953857422e+00 -8.414155244827270508e-01 1.877138614654541016e+00 3.107169270515441895e-01 1.280744075775146484e+00
2.398000000000000000e+03 5.594928741455078125e+01 -5.317123889923095703e+00 -8.081247210502624512e-01 2.318332910537719727e+00 4.530624449253082275e-01 1.387770056724548340e+00
2.399000000000000000e+03 7.495575714111328125e+01 -9.563834190368652344e+00 -2.320923209190368652e-01 -1.424911916255950928e-01 -1.123750507831573486e-01 -4.457995891571044922e-01
2.400000000000000000e+03 5.388625621795654297e+00 1.344404125213623047e+01 3.924024349544197321e-05 -3.773434145841747522e-04 -1.014309527818113565e-04 -2.635371056385338306e-04
2.401000000000000000e+03 5.163498687744140625e+01 2.806492614746093750e+01 2.545965313911437988e-01 3.731251955032348633e-01 1.883165091276168823e-01 -4.539240300655364990e-01
2.402000000000000000e+03 7.494842529296875000e+01 2.348413467407226562e+01 9.165964275598526001e-02 -1.035682678222656250e+00 -2.832069098949432373e-01 7.147755026817321777e-01
2.403000000000000000e+03 5.638631057739257812e+01 -8.341465950012207031e+00 -9.750233292579650879e-01 1.769435882568359375e+00 2.383237630128860474e-01 1.668284177780151367e+00
2.404000000000000000e+03 5.590737152099609375e+01 -1.081848335266113281e+01 -3.902823626995086670e-01 1.071482181549072266e+00 2.043599486351013184e-01 1.748533129692077637e+00
2.405000000000000000e+03 7.288936614990234375e+00 -1.985106086730957031e+01 5.996436998248100281e-02 -4.963011741638183594e-01 -1.309010386466979980e-01 -7.078024744987487793e-01
2.406000000000000000e+03 5.769578933715820312e+00 2.970295143127441406e+01 -1.514593488536775112e-03 -8.312888443470001221e-03 -2.948244335129857063e-03 8.736767806112766266e-03
2.407000000000000000e+03 5.603869438171386719e+00 -1.404604339599609375e+01 -2.281225323677062988e-01 -1.776378452777862549e-01 -1.217281147837638855e-01 -4.213977456092834473e-01
2.408000000000000000e+03 6.032607555389404297e+00 -1.319583797454833984e+01 -2.885214686393737793e-01 -1.394874453544616699e-01 -1.284026801586151123e-01 -3.743166923522949219e-01
2.409000000000000000e+03 4.902397537231445312e+01 -1.148980903625488281e+01 6.358964443206787109e-01 1.397691607475280762e+00 6.100764274597167969e-01 1.995986938476562500e+00
2.410000000000000000e+03 4.893171691894531250e+01 -9.550240516662597656e+00 -8.171194791793823242e-01 6.660512089729309082e-01 -4.532049596309661865e-02 1.798403739929199219e+00
2.411000000000000000e+03 3.951359558105468750e+01 -1.693697547912597656e+01 1.373491168022155762e+00 1.069946050643920898e+00 7.330311536788940430e-01 -4.478831887245178223e-01
2.412000000000000000e+03 4.021452331542968750e+01 -1.522250652313232422e+01 1.537489414215087891e+00 1.130282163619995117e+00 8.003314733505249023e-01 -8.455009460449218750e-01
2.413000000000000000e+03 4.393865203857421875e+01 2.121710968017578125e+01 -6.955283880233764648e-02 5.560002103447914124e-02 -4.185845144093036652e-03 -2.847546944394707680e-03
2.414000000000000000e+03 7.362261199951171875e+01 8.990515708923339844e+00 3.525442481040954590e-01 -6.763530969619750977e-01 -9.714265167713165283e-02 -4.198206365108489990e-01
2.415000000000000000e+03 7.420650482177734375e+01 4.940163135528564453e+00 1.736729741096496582e-01 -8.787128925323486328e-01 -2.115119695663452148e-01 -6.873735785484313965e-01
2.416000000000000000e+03 4.371239852905273438e+01 -1.440733432769775391e+01 1.947438359260559082e+00 2.395247697830200195e+00 1.302805781364440918e+00 -2.042892277240753174e-01
2.417000000000000000e+03 4.794727802276611328e+00 -2.819084930419921875e+01 1.242791116237640381e-01 -1.053641438484191895e+00 -2.788087129592895508e-01 -2.383422851562500000e-01
2.418000000000000000e+03 4.378858089447021484e+00 -2.928221130371093750e+01 1.063281148672103882e-01 -1.143772244453430176e+00 -3.112332522869110107e-01 -1.643917560577392578e-01
2.419000000000000000e+03 6.085869979858398438e+01 -3.665215969085693359e+00 -7.935540378093719482e-02 1.902794599533081055e+00 5.470317602157592773e-01 6.533035635948181152e-01
2.420000000000000000e+03 1.848199844360351562e+01 -8.569038391113281250e+00 -8.601974248886108398e-01 -5.390642881393432617e-01 -4.197785258293151855e-01 -6.587578058242797852e-01
2.421000000000000000e+03 7.486126708984375000e+01 2.848941040039062500e+01 -9.215870499610900879e-02 -6.882940530776977539e-01 -2.341358214616775513e-01 6.741904616355895996e-01
2.422000000000000000e+03 6.866890716552734375e+01 1.632730293273925781e+01 9.126060605049133301e-01 2.058349847793579102e+00 8.912867903709411621e-01 1.624916940927505493e-01
2.423000000000000000e+03 6.835240173339843750e+01 1.755393600463867188e+01 9.500200152397155762e-01 2.170355081558227539e+00 9.361125230789184570e-01 2.411025464534759521e-01
2.424000000000000000e+03 3.933825683593750000e+01 -2.145889472961425781e+01 8.699876070022583008e-01 1.484684824943542480e+00 7.064017057418823242e-01 9.527211189270019531e-01
2.425000000000000000e+03 1.529055881500244141e+01 -3.077632331848144531e+01 4.583368897438049316e-01 2.471619099378585815e-01 2.116496413946151733e-01 -2.753265500068664551e-01
2.426000000000000000e+03 6.836669921875000000e+01 1.359590244293212891e+01 8.964120745658874512e-01 2.408569812774658203e+00 9.914945960044860840e-01 -7.576559484004974365e-02
2.427000000000000000e+03 3.976119995117187500e+01 -7.731075763702392578e+00 -1.246673226356506348e+00 3.717559576034545898e-01 -2.624751925468444824e-01 -5.911501049995422363e-01
2.428000000000000000e+03 1.644596099853515625e+01 -9.015690803527832031e+00 -8.199100494384765625e-01 -6.500534415245056152e-01 -4.409890472888946533e-01 -4.774634838104248047e-01
2.429000000000000000e+03 1.126425933837890625e+01 -1.694519615173339844e+01 -3.380964696407318115e-01 -3.255940377712249756e-01 -1.991071552038192749e-01 -8.423567414283752441e-01
2.430000000000000000e+03 6.861161041259765625e+01 -3.332800674438476562e+01 -1.076582353562116623e-02 3.937580622732639313e-03 -2.048472873866558075e-03 3.250330314040184021e-02
2.431000000000000000e+03 6.840121459960937500e+01 -2.904504203796386719e+01 -2.376530878245830536e-02 8.493784815073013306e-03 -4.581457003951072693e-03 7.777791470289230347e-03
2.432000000000000000e+03 4.101214981079101562e+01 2.056680297851562500e+01 -8.352632075548171997e-02 6.449059396982192993e-02 -5.710719153285026550e-03 1.499109901487827301e-02
2.433000000000000000e+03 3.852340316772460938e+01 -3.011795425415039062e+01 3.857420980930328369e-01 1.459138631820678711e+00 5.534642338752746582e-01 7.596772313117980957e-01
2.434000000000000000e+03 7.159682464599609375e+01 9.062506675720214844e+00 5.092192292213439941e-01 3.788166642189025879e-01 2.664107680320739746e-01 -4.016363620758056641e-01
2.435000000000000000e+03 7.486145496368408203e+00 -1.733078575134277344e+01 -1.434656232595443726e-01 -3.497674167156219482e-01 -1.479699015617370605e-01 -7.143725752830505371e-01
2.436000000000000000e+03 7.402746582031250000e+01 7.611917495727539062e+00 2.258722633123397827e-01 -8.849871754646301270e-01 -1.977344751358032227e-01 -5.197163820266723633e-01
2.437000000000000000e+03 7.187820434570312500e+01 -2.463721656799316406e+01 -3.576030489057302475e-03 1.553062000311911106e-03 -6.068905349820852280e-04 2.118224510923027992e-03
2.438000000000000000e+03 7.012117767333984375e+01 -2.269495201110839844e+01 -4.522170405834913254e-03 -1.069930614903569221e-03 -1.677630236372351646e-03 -5.382900708355009556e-04
2.439000000000000000e+03 4.380020618438720703e+00 -1.513926696777343750e+01 -1.207355558872222900e-01 -2.469049841165542603e-01 -1.102921590209007263e-01 -4.169834256172180176e-01
2.440000000000000000e+03 5.112564563751220703e+00 -1.103509044647216797e+01 -2.064946889877319336e-01 -5.286214873194694519e-02 -7.780705392360687256e-02 -1.810773015022277832e-01
2.441000000000000000e+03 7.552910614013671875e+01 3.692602157592773438e+00 8.929265290498733521e-02 -1.355195760726928711e+00 -3.797709345817565918e-01 -6.583142280578613281e-01
2.442000000000000000e+03 7.407545471191406250e+01 -3.504146194458007812e+01 -2.098395721986889839e-03 -1.200409233570098877e-02 -4.230746533721685410e-03 1.680929586291313171e-02
2.443000000000000000e+03 6.048690414428710938e+01 2.950107192993164062e+01 -3.803550302982330322e-01 1.832949399948120117e+00 4.357783198356628418e-01 -4.959252774715423584e-01
2.444000000000000000e+03 7.546327972412109375e+01 1.402833652496337891e+01 2.359579801559448242e-01 -1.746958971023559570e+00 -4.533002972602844238e-01 3.386858105659484863e-02
2.445000000000000000e+03 7.401237487792968750e+01 1.285856723785400391e+01 3.576007187366485596e-01 -9.627359509468078613e-01 -1.815405637025833130e-01 -7.806243747472763062e-02
2.446000000000000000e+03 4.775389194488525391e+00 -2.037428283691406250e+01 4.211388528347015381e-02 -6.323301196098327637e-01 -1.770648658275604248e-01 -5.426833629608154297e-01
2.447000000000000000e+03 7.622889995574951172e+00 -2.099696540832519531e+01 1.580387353897094727e-01 -5.406255125999450684e-01 -1.147760450839996338e-01 -6.929450035095214844e-01
2.448000000000000000e+03 5.965828323364257812e+01 -5.213131904602050781e+00 -4.034834802150726318e-01 1.894235610961914062e+00 4.472256600856781006e-01 8.769676685333251953e-01
2.449000000000000000e+03 6.069311904907226562e+01 -4.783384323120117188e+00 -3.251175284385681152e-01 1.762409567832946777e+00 4.311875998973846436e-01 6.569815278053283691e-01
2.450000000000000000e+03 7.526808929443359375e+01 2.614984512329101562e+01 -4.554936289787292480e-02 -9.749717712402343750e-01 -3.061563372611999512e-01 6.759835481643676758e-01
2.451000000000000000e+03 6.654042816162109375e+01 2.041444015502929688e+01 8.478564023971557617e-01 2.832250595092773438e+00 1.104032039642333984e+00 3.883292973041534424e-01
2.452000000000000000e+03 4.987432956695556641e+00 -3.259565353393554688e+01 8.205684274435043335e-02 -1.130311131477355957e+00 -3.144763112068176270e-01 -9.431951493024826050e-02
2.453000000000000000e+03 6.530830383300781250e+00 -3.196093559265136719e+01 1.361053287982940674e-01 -8.756807446479797363e-01 -2.218726128339767456e-01 -1.269223541021347046e-01
2.454000000000000000e+03 5.838897323608398438e+01 -1.035991668701171875e+01 -8.820682764053344727e-01 1.025956630706787109e+00 4.316652938723564148e-02 1.148278117179870605e+00
2.455000000000000000e+03 4.762306976318359375e+01 -1.204734325408935547e+01 1.087211012840270996e+00 2.085080623626708984e+00 9.516874551773071289e-01 1.422232151031494141e+00
2.456000000000000000e+03 4.616245651245117188e+01 -1.201835918426513672e+01 8.908438682556152344e-01 1.959990739822387695e+00 8.552504181861877441e-01 6.830482482910156250e-01
2.457000000000000000e+03 7.302027130126953125e+01 -3.020714378356933594e+01 -8.326527662575244904e-03 -1.936276676133275032e-04 -2.556046703830361366e-03 1.375383231788873672e-02
2.458000000000000000e+03 4.122268676757812500e+01 1.936225318908691406e+01 -9.299485385417938232e-02 4.736574739217758179e-02 -1.368873193860054016e-02 1.507331803441047668e-02
2.459000000000000000e+03 7.299405670166015625e+01 -2.772479951381683350e-01 6.165812537074089050e-02 -2.468045949935913086e-01 -5.554394423961639404e-02 -9.010605216026306152e-01
2.460000000000000000e+03 1.182206058502197266e+01 -2.593044471740722656e+01 5.201135277748107910e-01 -1.032996401190757751e-01 1.250441670417785645e-01 -4.035990238189697266e-01
2.461000000000000000e+03 1.274979591369628906e+01 -2.486685371398925781e+01 5.818470120429992676e-01 3.858875110745429993e-02 1.861307322978973389e-01 -4.799613654613494873e-01
2.462000000000000000e+03 2.827554702758789062e+01 -2.959917545318603516e+00 -1.600471615791320801e+00 7.748657837510108948e-03 -4.778169095516204834e-01 -7.304041981697082520e-01
2.463000000000000000e+03 2.836423492431640625e+01 -2.374909400939941406e+00 -1.848131060600280762e+00 -1.033717114478349686e-02 -5.575404763221740723e-01 -6.134554743766784668e-01
2.464000000000000000e+03 2.947230529785156250e+01 -2.885432243347167969e+00 -1.872995138168334961e+00 1.982225626707077026e-01 -5.024317502975463867e-01 -6.457089781761169434e-01
2.465000000000000000e+03 3.004120826721191406e+01 -2.955683708190917969e+00 -1.929856538772583008e+00 2.419666349887847900e-01 -5.063669681549072266e-01 -6.046898365020751953e-01
2.466000000000000000e+03 2.672577476501464844e+01 -3.121203422546386719e+00 -1.239775657653808594e+00 -1.459299325942993164e-01 -4.157117009162902832e-01 -8.196813464164733887e-01
2.467000000000000000e+03 1.460368633270263672e+01 1.035107421875000000e+01 -1.099122673622332513e-04 1.888209808384999633e-04 2.367261367908213288e-05 1.796834840206429362e-05
2.468000000000000000e+03 1.766300392150878906e+01 7.305106163024902344e+00 2.941302682302193716e-06 3.585806189221329987e-05 1.163980959972832352e-05 2.824708280968479812e-05
2.469000000000000000e+03 3.069580078125000000e+01 -2.640696048736572266e+00 -2.166138410568237305e+00 2.713018059730529785e-01 -5.684509277343750000e-01 -5.271531939506530762e-01
2.470000000000000000e+03 1.564853286743164062e+01 8.918762207031250000e+00 -1.333910040557384491e-04 7.950442522997036576e-05 -1.616597182874102145e-05 2.556040499257505871e-06
2.471000000000000000e+03 1.573654556274414062e+01 8.476241111755371094e+00 9.091107494896277785e-05 1.248280022991821170e-04 6.472172390203922987e-05 3.074240157729946077e-05
2.472000000000000000e+03 1.929886817932128906e+01 2.431111907958984375e+01 -5.213641375303268433e-02 -5.197725724428892136e-03 -1.720024272799491882e-02 2.394374273717403412e-02
2.473000000000000000e+03 1.300845623016357422e+01 1.632483100891113281e+01 -4.987389911548234522e-05 5.636265850625932217e-04 1.541257952339947224e-04 8.999416022561490536e-04
2.474000000000000000e+03 3.416824722290039062e+01 1.157998752593994141e+01 -5.909341387450695038e-03 -1.333624823018908501e-03 -2.172889886423945427e-03 3.121197456493973732e-03
2.475000000000000000e+03 1.290056514739990234e+01 1.724119377136230469e+01 1.898534101201221347e-04 3.742561093531548977e-04 1.692328660283237696e-04 3.868097555823624134e-04
2.476000000000000000e+03 1.213052940368652344e+01 1.691252136230468750e+01 1.324036711594089866e-04 -3.745368449017405510e-04 -7.263995212269946933e-05 7.700517307966947556e-04
2.477000000000000000e+03 3.451979446411132812e+01 1.188304805755615234e+01 -1.015223562717437744e-02 -2.665567910298705101e-03 -3.845341037958860397e-03 6.671331822872161865e-03
2.478000000000000000e+03 1.274105548858642578e+01 1.694111442565917969e+01 -3.217678749933838844e-05 1.036980611388571560e-04 2.145638245565351099e-05 7.791036041453480721e-04
2.479000000000000000e+03 1.495058059692382812e+01 9.170081138610839844e+00 -1.252557849511504173e-04 1.198267855215817690e-04 -1.628699010325362906e-06 1.839137075876351446e-05
2.480000000000000000e+03 1.503474617004394531e+01 9.721920967102050781e+00 -1.067513949237763882e-04 1.084341201931238174e-04 5.048173079558182508e-07 2.077701537928078324e-05
2.481000000000000000e+03 1.516025257110595703e+01 8.802205085754394531e+00 8.439853991148993373e-05 1.768735237419605255e-04 7.838162127882242203e-05 6.154297443572431803e-05
2.482000000000000000e+03 3.441848373413085938e+01 1.023678684234619141e+01 -2.876720391213893890e-03 -2.099731704220175743e-03 -1.492935582064092159e-03 1.663606730289757252e-03
2.483000000000000000e+03 1.309568214416503906e+01 1.414800930023193359e+01 3.482020983938127756e-04 6.246152915991842747e-04 2.918452082667499781e-04 6.322010303847491741e-04
2.484000000000000000e+03 3.315594100952148438e+01 1.595763206481933594e+01 -3.689525648951530457e-02 -1.586762070655822754e-02 -1.582886278629302979e-02 3.586305305361747742e-02
2.485000000000000000e+03 3.443263244628906250e+01 9.610341072082519531e+00 -1.615066779777407646e-03 -1.362707815133035183e-03 -8.933323551900684834e-04 7.457899046130478382e-04
2.486000000000000000e+03 1.291116714477539062e+01 1.280658340454101562e+01 2.787554112728685141e-04 3.119886096101254225e-04 1.772232062648981810e-04 4.732927191071212292e-04
2.487000000000000000e+03 3.415069198608398438e+01 1.074529075622558594e+01 -3.981901332736015320e-03 -7.512069423682987690e-04 -1.419932465068995953e-03 1.312407082878053188e-03
2.488000000000000000e+03 1.254297447204589844e+01 1.521593093872070312e+01 3.344873402966186404e-05 2.030590840149670839e-04 7.095234468579292297e-05 4.980930825695395470e-04
2.489000000000000000e+03 3.245289230346679688e+01 1.706629562377929688e+01 -4.697909206151962280e-02 -2.878318540751934052e-02 -2.272868342697620392e-02 4.653056710958480835e-02
2.490000000000000000e+03 1.466500473022460938e+01 1.091525363922119141e+01 -1.577612565597519279e-04 2.701510675251483917e-04 3.371694765519350767e-05 1.515368876425782219e-05
2.491000000000000000e+03 2.770446014404296875e+01 2.217763710021972656e+01 -1.365017294883728027e-01 -5.854432284832000732e-02 -5.851381644606590271e-02 7.067707180976867676e-02
2.492000000000000000e+03 3.400884628295898438e+01 1.240199947357177734e+01 -9.406720288097858429e-03 -3.427460091188549995e-03 -3.850253997370600700e-03 7.862646132707595825e-03
2.493000000000000000e+03 3.362628173828125000e+01 1.381075191497802734e+01 -1.396512985229492188e-02 -7.324696984142065048e-03 -6.386947818100452423e-03 1.600510627031326294e-02
2.494000000000000000e+03 1.752902221679687500e+01 7.799489021301269531e+00 7.127338903956115246e-05 3.669047146104276180e-05 3.238915815018117428e-05 -9.333418347523547709e-06
2.495000000000000000e+03 3.400225830078125000e+01 1.315648269653320312e+01 -1.167517900466918945e-02 -3.952865954488515854e-03 -4.688413348048925400e-03 1.228475570678710938e-02
2.496000000000000000e+03 3.580876922607421875e+01 6.884098529815673828e+00 -9.897814597934484482e-04 -1.317796297371387482e-03 -6.922733155079185963e-04 -1.805900537874549627e-04
2.497000000000000000e+03 3.506057739257812500e+01 6.780314445495605469e+00 -8.508212049491703510e-04 -7.284929743036627769e-04 -4.737942654173821211e-04 -3.718160442076623440e-04
2.498000000000000000e+03 2.071934509277343750e+01 2.377827262878417969e+01 -7.105570286512374878e-02 -9.739066474139690399e-03 -2.423842996358871460e-02 2.531074918806552887e-02
2.499000000000000000e+03 2.025183868408203125e+01 2.432714462280273438e+01 -5.919842422008514404e-02 -9.542228654026985168e-03 -2.062219567596912384e-02 2.764942124485969543e-02
2.500000000000000000e+03 1.850281524658203125e+01 4.760233879089355469e+00 -5.516836972674354911e-05 -1.031170813803328201e-05 -1.964402326848357916e-05 -3.439509237068705261e-05
2.501000000000000000e+03 2.312682533264160156e+01 2.438664245605468750e+01 -7.700519263744354248e-02 -2.508924715220928192e-02 -3.062833286821842194e-02 3.953394293785095215e-02
2.502000000000000000e+03 1.852691459655761719e+01 5.412836551666259766e+00 -3.597480827011168003e-05 -4.256121974322013557e-05 -2.356080949539318681e-05 -1.058642010320909321e-05
2.503000000000000000e+03 1.327246284484863281e+01 1.381184959411621094e+01 2.829112418112345040e-05 5.046741571277379990e-04 1.598895760253071785e-04 3.932761028409004211e-04
2.504000000000000000e+03 3.289542770385742188e+01 1.699897384643554688e+01 -4.548102617263793945e-02 -2.215438708662986755e-02 -2.029062435030937195e-02 4.505788907408714294e-02
2.505000000000000000e+03 3.461101150512695312e+01 1.239807033538818359e+01 -9.799402207136154175e-03 -2.451903186738491058e-03 -3.675391664728522301e-03 8.157932199537754059e-03
2.506000000000000000e+03 1.525066661834716797e+01 8.400442123413085938e+00 -8.439030352747067809e-05 5.154364043846726418e-05 -9.853999472397845238e-06 3.191323776263743639e-05
2.507000000000000000e+03 1.627061080932617188e+01 2.330586242675781250e+01 -3.117151930928230286e-02 2.100355224683880806e-03 -8.721348829567432404e-03 8.557504042983055115e-03
2.508000000000000000e+03 3.207656097412109375e+01 1.872400093078613281e+01 -7.626205682754516602e-02 -3.299912437796592712e-02 -3.277835249900817871e-02 5.926807224750518799e-02
2.509000000000000000e+03 3.208661651611328125e+01 1.787875747680664062e+01 -5.703546479344367981e-02 -3.824714943766593933e-02 -2.858478389680385590e-02 5.463409051299095154e-02
2.510000000000000000e+03 3.582038116455078125e+01 8.464164733886718750e+00 2.813300525303930044e-04 -4.058507329318672419e-04 -3.735620339284650981e-05 2.116491959895938635e-04
2.511000000000000000e+03 1.516608428955078125e+01 2.171794891357421875e+01 -1.856833882629871368e-02 3.280385863035917282e-03 -4.586386028677225113e-03 6.691594608128070831e-04
2.512000000000000000e+03 1.441185474395751953e+01 2.141614151000976562e+01 -1.470420602709054947e-02 2.489878330379724503e-03 -3.664298215880990028e-03 -3.661169612314552069e-04
2.513000000000000000e+03 1.291920280456542969e+01 1.359537220001220703e+01 2.952265786007046700e-04 4.214744549244642258e-04 2.150103100575506687e-04 6.212566513568162918e-04
2.514000000000000000e+03 1.289610767364501953e+01 1.928721809387207031e+01 -2.187588950619101524e-03 1.413935970049351454e-04 -6.138586322776973248e-04 -8.205478079617023468e-04
2.515000000000000000e+03 1.265992736816406250e+01 1.897294998168945312e+01 -2.285114023834466934e-03 -1.203558203997090459e-04 -7.216409430839121342e-04 -6.092069816077128053e-05
2.516000000000000000e+03 2.703494644165039062e+01 -3.524282455444335938e+00 -1.161833643913269043e+00 -1.024138852953910828e-01 -3.792742490768432617e-01 -8.892999291419982910e-01
2.517000000000000000e+03 2.637169265747070312e+01 -3.396773099899291992e+00 -1.099758863449096680e+00 -1.352414190769195557e-01 -3.705000579357147217e-01 -8.837262988090515137e-01
2.518000000000000000e+03 2.165230751037597656e+01 2.379335021972656250e+01 -7.851114869117736816e-02 -1.650111749768257141e-02 -2.850368060171604156e-02 2.884417027235031128e-02
2.519000000000000000e+03 1.555016422271728516e+01 2.225122451782226562e+01 -2.445828914642333984e-02 2.750869607552886009e-03 -6.512225605547428131e-03 3.111101686954498291e-03
2.520000000000000000e+03 1.277656745910644531e+01 1.486381626129150391e+01 4.206740122754126787e-04 4.403625207487493753e-04 2.583109599072486162e-04 7.854899740777909756e-04
2.521000000000000000e+03 1.295599651336669922e+01 1.752704620361328125e+01 -4.681939026340842247e-04 1.641496928641572595e-04 -9.121326729655265808e-05 7.724149036221206188e-04
2.522000000000000000e+03 1.412487888336181641e+01 2.123185729980468750e+01 -1.310068927705287933e-02 2.552008489146828651e-03 -3.164604073390364647e-03 -5.780698120361194015e-05
2.523000000000000000e+03 1.432154369354248047e+01 1.011625289916992188e+01 4.551486199488863349e-05 2.529451739974319935e-04 8.953800715971738100e-05 1.611811749171465635e-04
2.524000000000000000e+03 3.497464370727539062e+01 5.076061248779296875e+00 -1.183334039524197578e-03 -3.902938624378293753e-04 -4.720883734989911318e-04 -4.498892812989652157e-04
2.525000000000000000e+03 3.096129989624023438e+01 2.102697753906250000e+01 -1.160606369376182556e-01 -3.763045370578765869e-02 -4.610732570290565491e-02 4.873181506991386414e-02
2.526000000000000000e+03 1.376683425903320312e+01 1.172835254669189453e+01 9.012763621285557747e-05 4.101002705283463001e-04 1.500683720223605633e-04 1.721178123261779547e-04
2.527000000000000000e+03 1.398746109008789062e+01 1.097461891174316406e+01 -1.104826078517362475e-04 2.776389010250568390e-04 5.014688576920889318e-05 1.279519347008317709e-04
2.528000000000000000e+03 2.119193649291992188e+01 2.380537605285644531e+01 -7.559187710285186768e-02 -1.371097099035978317e-02 -2.679085545241832733e-02 2.718665078282356262e-02
2.529000000000000000e+03 3.263669586181640625e+01 -6.089066982269287109e+00 -6.173269748687744141e-01 9.680078029632568359e-01 1.052042469382286072e-01 -4.180669486522674561e-01
2.530000000000000000e+03 1.591342926025390625e+01 2.299642372131347656e+01 -2.867892943322658539e-02 1.920606824569404125e-03 -8.027496747672557831e-03 7.336523849517107010e-03
2.531000000000000000e+03 1.479864311218261719e+01 2.239826011657714844e+01 -2.155989594757556915e-02 2.896222984418272972e-03 -5.599102005362510681e-03 3.889855463057756424e-03
2.532000000000000000e+03 2.174349594116210938e+01 2.438001441955566406e+01 -7.083370536565780640e-02 -1.877609454095363617e-02 -2.688294090330600739e-02 3.323311731219291687e-02
2.533000000000000000e+03 3.320126724243164062e+01 2.049926376342773438e+01 -8.862604200839996338e-02 1.899305614642798901e-03 -2.601801976561546326e-02 4.267396777868270874e-02
2.534000000000000000e+03 2.978514862060546875e+01 2.322251319885253906e+01 -8.468649536371231079e-02 -4.939517378807067871e-02 -4.022450000047683716e-02 3.804556652903556824e-02
2.535000000000000000e+03 2.651330947875976562e+01 2.418822860717773438e+01 -8.096212148666381836e-02 -4.288441315293312073e-02 -3.715395927429199219e-02 5.030880495905876160e-02
2.536000000000000000e+03 2.600851821899414062e+01 2.345923805236816406e+01 -1.056769788265228271e-01 -3.752468898892402649e-02 -4.296050220727920532e-02 5.349442362785339355e-02
2.537000000000000000e+03 3.205811691284179688e+01 1.828135299682617188e+01 -6.892208755016326904e-02 -3.503920882940292358e-02 -3.118838742375373840e-02 5.571000650525093079e-02
2.538000000000000000e+03 3.148418426513671875e+01 -2.926091432571411133e+00 -2.144113302230834961e+00 2.659619450569152832e-01 -5.634453892707824707e-01 -5.256486535072326660e-01
2.539000000000000000e+03 3.304938125610351562e+01 1.804389762878417969e+01 -6.611081957817077637e-02 -1.508584618568420410e-02 -2.435900084674358368e-02 5.232148990035057068e-02
2.540000000000000000e+03 3.274332046508789062e+01 1.917753219604492188e+01 -8.365534245967864990e-02 -1.410970557481050491e-02 -2.932951413094997406e-02 5.338089913129806519e-02
2.541000000000000000e+03 1.334838199615478516e+01 1.229733467102050781e+01 1.926396798808127642e-04 3.800922131631523371e-04 1.718195708235725760e-04 3.425649774726480246e-04
2.542000000000000000e+03 1.391988754272460938e+01 1.224620914459228516e+01 -1.819458411773666739e-04 5.383594543673098087e-04 1.069240897777490318e-04 2.631240349728614092e-04
2.543000000000000000e+03 2.985959243774414062e+01 2.182789230346679688e+01 -1.162174120545387268e-01 -6.159403175115585327e-02 -5.334343388676643372e-02 4.816430434584617615e-02
2.544000000000000000e+03 3.049998283386230469e+01 2.068889045715332031e+01 -1.259272098541259766e-01 -5.432792380452156067e-02 -5.407653748989105225e-02 5.983663350343704224e-02
2.545000000000000000e+03 1.500854492187500000e+01 2.374418067932128906e+01 -2.663618698716163635e-02 1.772209652699530125e-03 -7.459193468093872070e-03 1.037787739187479019e-02
2.546000000000000000e+03 1.749421310424804688e+01 6.312179088592529297e+00 -7.721349538769572973e-05 -9.912625500874128193e-06 -2.613783544802572578e-05 -4.202132913633249700e-05
2.547000000000000000e+03 3.031335830688476562e+01 2.311565399169921875e+01 -8.176314830780029297e-02 -4.031041264533996582e-02 -3.662206977605819702e-02 3.461291268467903137e-02
2.548000000000000000e+03 3.087339591979980469e+01 2.162473106384277344e+01 -1.109714731574058533e-01 -3.653957322239875793e-02 -4.425331577658653259e-02 4.179124161601066589e-02
2.549000000000000000e+03 1.399006557464599609e+01 2.094275665283203125e+01 -1.034838519990444183e-02 2.284490969032049179e-03 -2.419168362393975258e-03 -1.111619058065116405e-03
2.550000000000000000e+03 1.294910144805908203e+01 2.057728195190429688e+01 -8.187141269445419312e-03 1.069765421561896801e-03 -2.135212533175945282e-03 -5.921081174165010452e-04
2.551000000000000000e+03 3.159139060974121094e+01 -3.402962923049926758e+00 -1.868434548377990723e+00 3.510735332965850830e-01 -4.552083015441894531e-01 -5.010330677032470703e-01
2.552000000000000000e+03 1.878082466125488281e+01 4.388690948486328125e+00 4.688836997956968844e-05 8.876440915628336370e-06 1.672944381425622851e-05 1.890927342174109071e-05
2.553000000000000000e+03 1.759278678894042969e+01 4.838871479034423828e+00 -4.788984369952231646e-05 -8.080781299213413149e-06 -1.679118759057018906e-05 9.121744369622319937e-06
2.554000000000000000e+03 2.787382698059082031e+01 2.320348358154296875e+01 -9.932622313499450684e-02 -5.509004741907119751e-02 -4.632488265633583069e-02 5.739463493227958679e-02
2.555000000000000000e+03 3.584528350830078125e+01 -4.040260314941406250e+00 -1.950073838233947754e+00 6.978638768196105957e-01 -3.756629824638366699e-01 3.218333423137664795e-01
2.556000000000000000e+03 1.598114967346191406e+01 4.807448387145996094e+00 9.541758117848075926e-06 -1.503067869634833187e-05 -1.646675968913768884e-06 1.215373413288034499e-05
2.557000000000000000e+03 1.711870574951171875e+01 7.111160278320312500e+00 3.340683906571939588e-05 3.690459925564937294e-05 2.109343222400639206e-05 5.814790347358211875e-05
2.558000000000000000e+03 1.714925193786621094e+01 2.282569503784179688e+01 -3.691953793168067932e-02 1.021959353238344193e-03 -1.076927408576011658e-02 6.228956393897533417e-03
2.559000000000000000e+03 1.593166255950927734e+01 2.417082023620605469e+01 -2.828492969274520874e-02 7.908814004622399807e-04 -8.248214609920978546e-03 1.318201143294572830e-02
2.560000000000000000e+03 1.536995697021484375e+01 4.842584609985351562e+00 3.097475200775079429e-05 5.394904292188584805e-05 2.547713847889099270e-05 7.934108339213707950e-07
2.561000000000000000e+03 1.351596355438232422e+01 2.056022071838378906e+01 -7.036479655653238297e-03 1.336684217676520348e-03 -1.709938631393015385e-03 -1.296222908422350883e-03
2.562000000000000000e+03 1.704597091674804688e+01 4.695396423339843750e+00 2.567635783634614199e-05 5.830748705193400383e-05 2.519515328458510339e-05 -1.003736633720109239e-05
2.563000000000000000e+03 1.620758247375488281e+01 5.161123275756835938e+00 -8.376908954232931137e-05 -5.205095590099517722e-07 -2.528687946323771030e-05 6.045960390110849403e-07
2.564000000000000000e+03 3.525700759887695312e+01 -4.195451259613037109e+00 -1.834018468856811523e+00 6.580587029457092285e-01 -3.527879416942596436e-01 2.631600499153137207e-01
2.565000000000000000e+03 2.869376945495605469e+01 2.253819274902343750e+01 -1.092377156019210815e-01 -6.823141127824783325e-02 -5.324073880910873413e-02 5.634861439466476440e-02
2.566000000000000000e+03 2.907968711853027344e+01 2.229556274414062500e+01 -1.102066636085510254e-01 -6.760303676128387451e-02 -5.334290862083435059e-02 5.289117246866226196e-02
2.567000000000000000e+03 1.184637260437011719e+01 5.087746620178222656e+00 9.989766112994402647e-06 -2.135885915777180344e-05 -3.410727686059544794e-06 9.652769949752837420e-05
2.568000000000000000e+03 1.465726184844970703e+01 4.843986034393310547e+00 -1.237523792951833457e-05 -9.750743629410862923e-06 -6.637794285779818892e-06 4.529009311227127910e-05
2.569000000000000000e+03 2.376368141174316406e+01 -4.505443572998046875e+00 -7.079992890357971191e-01 -1.494923532009124756e-01 -2.572475075721740723e-01 -8.027832508087158203e-01
2.570000000000000000e+03 2.423459243774414062e+01 -3.935136318206787109e+00 -8.066320419311523438e-01 -1.083321943879127502e-01 -2.744892537593841553e-01 -7.990298271179199219e-01
2.571000000000000000e+03 2.179269599914550781e+01 -4.932752609252929688e+00 -6.122809052467346191e-01 -1.854052245616912842e-01 -2.393058389425277710e-01 -6.964017748832702637e-01
2.572000000000000000e+03 2.427159118652343750e+01 2.374848365783691406e+01 -9.740259498357772827e-02 -2.511363662779331207e-02 -3.675486892461776733e-02 4.317767545580863953e-02
2.573000000000000000e+03 1.255938148498535156e+01 5.000204086303710938e+00 5.835913179907947779e-05 3.837625627056695521e-05 2.902061532950028777e-05 5.687531483999919146e-06
2.574000000000000000e+03 3.073597717285156250e+01 -5.730019092559814453e+00 -6.437397599220275879e-01 7.718998193740844727e-01 3.844802454113960266e-02 -8.794836401939392090e-01
2.575000000000000000e+03 2.951130104064941406e+01 -4.961676597595214844e+00 -9.266965985298156738e-01 3.192345798015594482e-01 -1.822385936975479126e-01 -9.840829372406005859e-01
2.576000000000000000e+03 2.470393562316894531e+01 2.354524421691894531e+01 -1.020075157284736633e-01 -2.688014879822731018e-02 -3.866630047559738159e-02 4.626297950744628906e-02
2.577000000000000000e+03 2.450852966308593750e+01 2.317614364624023438e+01 -1.140227541327476501e-01 -2.185512520372867584e-02 -4.076336324214935303e-02 4.275782406330108643e-02
2.578000000000000000e+03 3.545688247680664062e+01 6.467347145080566406e+00 1.965708332136273384e-03 -2.342178631806746125e-04 5.194471450522542000e-04 -1.306829741224646568e-03
2.579000000000000000e+03 1.005409240722656250e+01 -5.750278472900390625e+00 -2.094847559928894043e-01 -8.426547795534133911e-02 -8.812507241964340210e-02 3.857666254043579102e-02
2.580000000000000000e+03 7.494842529296875000e+01 -1.041607189178466797e+01 -2.406320720911026001e-01 -1.200338304042816162e-01 -1.081997677683830261e-01 -3.827568888664245605e-01
2.581000000000000000e+03 1.032628536224365234e+01 5.306294918060302734e+00 9.950746061804238707e-06 -3.033386929018888623e-05 -6.114936695666983724e-06 9.469519864069297910e-05
2.582000000000000000e+03 8.883991241455078125e+00 5.164449214935302734e+00 -6.448661224567331374e-06 -5.692422564607113600e-05 -1.901186624309048057e-05 -2.194739181504701264e-06
2.583000000000000000e+03 2.574838256835937500e+01 -5.313508987426757812e+00 -6.148890852928161621e-01 -2.260174751281738281e-01 -2.522719800472259521e-01 -9.319874644279479980e-01
2.584000000000000000e+03 5.324014663696289062e+00 6.059875011444091797e+00 1.641628332436084747e-04 -6.775941074010916054e-06 4.721606819657608867e-05 -9.177042556984815747e-06
2.585000000000000000e+03 7.120964050292968750e+01 -1.117835998535156250e+01 -6.096705794334411621e-01 1.824354827404022217e-01 -1.281705200672149658e-01 -3.818535506725311279e-01
2.586000000000000000e+03 8.371323585510253906e+00 -5.547611713409423828e+00 -1.409693211317062378e-01 -3.843245655298233032e-02 -5.382053181529045105e-02 6.823798269033432007e-02
2.587000000000000000e+03 1.465867614746093750e+01 -5.357120990753173828e+00 -2.746472954750061035e-01 -2.488335371017456055e-01 -1.570442467927932739e-01 -1.677491664886474609e-01
2.588000000000000000e+03 1.505150413513183594e+01 -6.827684402465820312e+00 -4.677464365959167480e-01 -3.947166204452514648e-01 -2.587389051914215088e-01 -2.533622980117797852e-01
2.589000000000000000e+03 3.218858337402343750e+01 -5.287542343139648438e+00 -9.412943124771118164e-01 7.972495555877685547e-01 -4.321342706680297852e-02 -4.613905549049377441e-01
2.590000000000000000e+03 1.323451042175292969e+01 -5.315465450286865234e+00 -2.349381297826766968e-01 -1.882248222827911377e-01 -1.269488781690597534e-01 -7.862384617328643799e-02
2.591000000000000000e+03 2.285661125183105469e+01 -4.720326900482177734e+00 -6.542558670043945312e-01 -1.558534055948257446e-01 -2.430327832698822021e-01 -7.533702850341796875e-01
2.592000000000000000e+03 1.977742576599121094e+01 2.431940650939941406e+01 -5.732083693146705627e-02 -7.246845401823520660e-03 -1.937030442059040070e-02 2.517287991940975189e-02
2.593000000000000000e+03 1.796283149719238281e+01 -6.452426433563232422e+00 -5.303040146827697754e-01 -3.990862369537353516e-01 -2.788170576095581055e-01 -5.081395506858825684e-01
2.594000000000000000e+03 1.545142269134521484e+01 -4.753326416015625000e+00 -2.328080981969833374e-01 -2.377432733774185181e-01 -1.411654055118560791e-01 -2.087571173906326294e-01
2.595000000000000000e+03 1.936378288269042969e+01 -4.578227519989013672e+00 -4.256425201892852783e-01 -2.085112035274505615e-01 -1.902461200952529907e-01 -5.096789002418518066e-01
2.596000000000000000e+03 3.753315353393554688e+01 6.641897678375244141e+00 2.945649437606334686e-03 8.646217611385509372e-05 9.096334688365459442e-04 -3.488185757305473089e-04
2.597000000000000000e+03 3.606790161132812500e+01 7.445485115051269531e+00 1.859578769654035568e-03 -3.246171399950981140e-04 4.604884888976812363e-04 -3.408443590160459280e-04
2.598000000000000000e+03 7.307132720947265625e+01 -2.186919593811035156e+01 -4.027506336569786072e-03 -6.828259793110191822e-04 -1.413099700585007668e-03 -9.014450479298830032e-04
2.599000000000000000e+03 2.811604499816894531e+01 -6.275547027587890625e+00 -3.192044198513031006e-01 8.396317809820175171e-02 -7.057236880064010620e-02 -1.095840811729431152e+00
2.600000000000000000e+03 1.778940963745117188e+01 -4.638643741607666016e+00 -3.363942205905914307e-01 -2.377257645130157471e-01 -1.722359955310821533e-01 -4.019766151905059814e-01
2.601000000000000000e+03 1.885382461547851562e+01 -5.962632656097412109e+00 -5.335391163825988770e-01 -3.405270278453826904e-01 -2.622198462486267090e-01 -5.557021498680114746e-01
2.602000000000000000e+03 3.637239837646484375e+01 6.408445358276367188e+00 2.252559410408139229e-03 -1.144437919720076025e-04 6.414346862584352493e-04 -7.271401118487119675e-04
2.603000000000000000e+03 2.133209609985351562e+01 -4.160785198211669922e+00 -5.506300330162048340e-01 -1.363555490970611572e-01 -2.060956656932830811e-01 -5.975898504257202148e-01
2.604000000000000000e+03 3.127805709838867188e+01 -5.188860893249511719e+00 -9.164998531341552734e-01 6.890115737915039062e-01 -6.824649125337600708e-02 -6.505560874938964844e-01
2.605000000000000000e+03 7.396141052246093750e+01 -8.792482376098632812e+00 -3.051874041557312012e-01 -8.807615935802459717e-02 -1.179790645837783813e-01 -5.702989697456359863e-01
2.606000000000000000e+03 6.989691925048828125e+01 -9.832103729248046875e+00 -7.498923540115356445e-01 2.757225334644317627e-01 -1.422509551048278809e-01 -5.782034993171691895e-01
2.607000000000000000e+03 2.572707939147949219e+01 -5.999601840972900391e+00 -5.319455265998840332e-01 -2.764481008052825928e-01 -2.425180822610855103e-01 -8.972703218460083008e-01
2.608000000000000000e+03 2.757636260986328125e+01 -6.042501926422119141e+00 -2.884551286697387695e-01 -5.629966035485267639e-02 -1.034264415502548218e-01 -1.085755944252014160e+00
2.609000000000000000e+03 2.707617568969726562e+01 -5.731349945068359375e+00 -4.661801755428314209e-01 -1.853527128696441650e-01 -1.954598724842071533e-01 -1.029487967491149902e+00
2.610000000000000000e+03 3.625193786621093750e+01 -4.478742599487304688e+00 -1.877004504203796387e+00 7.285349369049072266e-01 -3.445408940315246582e-01 2.863038778305053711e-01
2.611000000000000000e+03 3.704943084716796875e+01 -3.892809867858886719e+00 -2.223678827285766602e+00 7.327051758766174316e-01 -4.472920894622802734e-01 3.997133672237396240e-01
2.612000000000000000e+03 7.302024078369140625e+01 -9.550044059753417969e+00 -3.985332846641540527e-01 4.108892008662223816e-02 -1.072333082556724548e-01 -5.399551391601562500e-01
2.613000000000000000e+03 9.231206893920898438e+00 -4.879061222076416016e+00 -1.038033515214920044e-01 -4.846017062664031982e-02 -4.567905515432357788e-02 7.295986264944076538e-02
2.614000000000000000e+03 6.106943607330322266e+00 1.687930679321289062e+01 -6.534794229082763195e-04 -8.919912506826221943e-04 -4.636412195395678282e-04 -2.613965771161019802e-04
2.615000000000000000e+03 4.867593288421630859e+00 1.850054931640625000e+01 -2.844661357812583447e-04 -5.882096011191606522e-04 -2.618027210701256990e-04 -5.083455835119821131e-05
2.616000000000000000e+03 7.310687255859375000e+01 -2.317963409423828125e+01 -9.307690197601914406e-04 3.418309497646987438e-04 -1.766814239090308547e-04 1.557530253194272518e-03
2.617000000000000000e+03 5.781366348266601562e+00 1.441825199127197266e+01 3.197559854015707970e-04 -6.185159436427056789e-04 -8.962798165157437325e-05 -4.524448595475405455e-04
2.618000000000000000e+03 1.609728240966796875e+01 -8.295627593994140625e+00 -6.885606646537780762e-01 -5.563929080963134766e-01 -3.734860718250274658e-01 -3.909907341003417969e-01
2.619000000000000000e+03 1.377632522583007812e+01 -8.698443412780761719e+00 -6.687070131301879883e-01 -4.397270679473876953e-01 -3.325302302837371826e-01 -2.114938646554946899e-01
2.620000000000000000e+03 1.529651165008544922e+01 -6.190165042877197266e+00 -3.956587016582489014e-01 -3.371520042419433594e-01 -2.198432087898254395e-01 -2.462617009878158569e-01
2.621000000000000000e+03 1.865758514404296875e+01 -7.574037075042724609e+00 -7.018746137619018555e-01 -4.658193290233612061e-01 -3.503081798553466797e-01 -6.185664534568786621e-01
2.622000000000000000e+03 3.963830566406250000e+01 1.754595947265625000e+01 -8.537384122610092163e-02 4.276181757450103760e-02 -1.278360653668642044e-02 7.280568592250347137e-03
2.623000000000000000e+03 6.143757629394531250e+01 -2.568557024002075195e+00 1.136304512619972229e-01 2.109249830245971680e+00 6.668640971183776855e-01 5.836884379386901855e-01
2.624000000000000000e+03 1.106762504577636719e+01 4.527317047119140625e+00 1.105774481402477250e-05 -2.562109148129820824e-05 -4.369004273030441254e-06 7.562710379716008902e-05
2.625000000000000000e+03 6.374129295349121094e+00 2.624561500549316406e+01 -3.514177165925502777e-03 -4.346902482211589813e-03 -2.358323894441127777e-03 6.659487728029489517e-03
2.626000000000000000e+03 3.719334411621093750e+01 9.387274742126464844e+00 -8.514136425219476223e-04 -3.304847050458192825e-03 -1.246878295205533504e-03 5.346925463527441025e-04
2.627000000000000000e+03 3.569756317138671875e+01 9.405792236328125000e+00 -5.920183612033724785e-04 -1.241539372131228447e-03 -5.500673432834446430e-04 -2.444818092044442892e-04
2.628000000000000000e+03 3.563672637939453125e+01 -5.943075656890869141e+00 -1.115503787994384766e+00 7.752366662025451660e-01 -1.020801588892936707e-01 -2.485060505568981171e-02
2.629000000000000000e+03 7.464984893798828125e+01 -2.241463279724121094e+01 -8.697306620888411999e-04 -8.766893879510462284e-04 -5.239259917289018631e-04 -5.873621557839214802e-04
2.630000000000000000e+03 3.479562759399414062e+01 -7.335475444793701172e+00 -2.436595559120178223e-01 8.988918662071228027e-01 1.965696960687637329e-01 -3.546691536903381348e-01
2.631000000000000000e+03 3.398381805419921875e+01 -5.472972869873046875e+00 -1.100096702575683594e+00 7.616864442825317383e-01 -1.015230715274810791e-01 -9.285699576139450073e-02
2.632000000000000000e+03 4.743291378021240234e+00 -6.624030113220214844e+00 -8.447846025228500366e-02 2.261010929942131042e-02 -1.856050454080104828e-02 6.027086451649665833e-02
2.633000000000000000e+03 5.923031330108642578e+00 -5.434656143188476562e+00 -6.740856170654296875e-02 1.477096462622284889e-03 -1.977943815290927887e-02 8.958855271339416504e-02
2.634000000000000000e+03 6.777079105377197266e+00 -6.968603610992431641e+00 -1.820233613252639771e-01 -2.462775260210037231e-02 -6.199533119797706604e-02 3.351481631398200989e-02
2.635000000000000000e+03 7.138256835937500000e+01 -2.928505706787109375e+01 -1.392328366637229919e-02 3.973061684519052505e-03 -2.985066501423716545e-03 1.341891847550868988e-02
2.636000000000000000e+03 3.634627151489257812e+01 1.164104843139648438e+01 -1.383319683372974396e-02 8.080747793428599834e-04 -3.907536622136831284e-03 2.630132017657160759e-03
2.637000000000000000e+03 3.729022979736328125e+01 1.110043525695800781e+01 -1.022937335073947906e-02 1.428852410754188895e-04 -3.025946440175175667e-03 -1.465442939661443233e-03
2.638000000000000000e+03 5.768105030059814453e+00 2.700446891784667969e+01 -3.174125216901302338e-03 -4.967152141034603119e-03 -2.442383207380771637e-03 6.809603422880172729e-03
2.639000000000000000e+03 7.443036651611328125e+01 -2.916470766067504883e+00 -6.769584864377975464e-02 -5.009893774986267090e-01 -1.706055700778961182e-01 -8.304090499877929688e-01
2.640000000000000000e+03 7.436127471923828125e+01 -1.603821396827697754e+00 1.013734377920627594e-03 -5.751832127571105957e-01 -1.722508370876312256e-01 -8.498461842536926270e-01
2.641000000000000000e+03 5.681876659393310547e+00 1.570900249481201172e+01 -1.691129291430115700e-04 -6.552561535499989986e-04 -2.473107306286692619e-04 -5.308178951963782310e-04
2.642000000000000000e+03 6.326963424682617188e+00 1.621864318847656250e+01 1.253956725122407079e-04 -8.390290895476937294e-04 -2.140900323865935206e-04 -1.680174464127048850e-04
2.643000000000000000e+03 6.688541889190673828e+00 -1.103854179382324219e+01 -3.257695436477661133e-01 -7.949535548686981201e-02 -1.215794757008552551e-01 -2.257743328809738159e-01
2.644000000000000000e+03 7.689988136291503906e+00 5.261629581451416016e+00 -6.971895800234051421e-06 -3.292848850833252072e-05 -1.197011533804470673e-05 5.898289145989110693e-06
2.645000000000000000e+03 3.994880294799804688e+01 1.640552330017089844e+01 -7.527222484350204468e-02 2.781856991350650787e-02 -1.423609629273414612e-02 4.524725023657083511e-03
2.646000000000000000e+03 5.501204967498779297e+00 9.275872230529785156e+00 -4.253516090102493763e-05 -1.522694510640576482e-04 -5.844138649990782142e-05 -1.139612577389925718e-04
2.647000000000000000e+03 4.460271835327148438e+00 8.855610847473144531e+00 3.442123124841600657e-04 -1.526392043160740286e-05 9.868451161310076714e-05 -1.552190369693562388e-04
2.648000000000000000e+03 5.564302825927734375e+01 -9.589197158813476562e+00 -7.467560768127441406e-01 1.480019569396972656e+00 2.199790626764297485e-01 1.867066740989685059e+00
2.649000000000000000e+03 5.284655761718750000e+01 -9.337391853332519531e+00 -9.085421562194824219e-01 1.223914146423339844e+00 9.461157768964767456e-02 2.518941164016723633e+00
2.650000000000000000e+03 3.763024139404296875e+01 1.422678852081298828e+01 -4.365463927388191223e-02 1.570899784564971924e-02 -8.383692242205142975e-03 9.047505445778369904e-03
2.651000000000000000e+03 5.023122787475585938e+01 -1.018182468414306641e+01 -1.541170328855514526e-01 9.703804254531860352e-01 2.448790222406387329e-01 2.300167322158813477e+00
2.652000000000000000e+03 1.822876930236816406e+01 -5.728740692138671875e+00 -4.740878641605377197e-01 -3.236602842807769775e-01 -2.393244504928588867e-01 -4.931405484676361084e-01
2.653000000000000000e+03 7.149568939208984375e+01 -2.239816665649414062e+01 -4.069696646183729172e-03 8.212206739699468017e-05 -1.196272438392043114e-03 1.036027679219841957e-03
2.654000000000000000e+03 6.338320255279541016e+00 2.314965248107910156e+01 -3.961402922868728638e-03 -2.013029530644416809e-03 -1.792329712770879269e-03 3.161898115649819374e-03
2.655000000000000000e+03 5.055961608886718750e+00 2.201822280883789062e+01 -2.422096207737922668e-03 -1.395048922859132290e-03 -1.145143527537584305e-03 1.597709255293011665e-03
2.656000000000000000e+03 6.788754272460937500e+01 1.025909996032714844e+01 7.398681640625000000e-01 2.502313375473022461e+00 9.726544618606567383e-01 -1.614782512187957764e-01
2.657000000000000000e+03 6.638430023193359375e+01 1.067950820922851562e+01 8.202119469642639160e-01 3.628204584121704102e+00 1.334524989128112793e+00 6.542682647705078125e-02
2.658000000000000000e+03 5.136828231811523438e+01 -8.935747146606445312e+00 -1.136588454246520996e+00 8.308367729187011719e-01 -9.172550588846206665e-02 2.465008974075317383e+00
2.659000000000000000e+03 1.435565853118896484e+01 -1.034284114837646484e+01 -9.587431550025939941e-01 -6.140232682228088379e-01 -4.718299210071563721e-01 -3.337152600288391113e-01
2.660000000000000000e+03 1.303859806060791016e+01 -6.950338363647460938e+00 -4.270048141479492188e-01 -2.777677774429321289e-01 -2.114317715167999268e-01 -1.125567406415939331e-01
2.661000000000000000e+03 9.429520606994628906e+00 -1.154279422760009766e+01 -5.724262595176696777e-01 -1.527343690395355225e-01 -2.175481766462326050e-01 -3.233814537525177002e-01
2.662000000000000000e+03 5.685189056396484375e+01 -9.301997184753417969e+00 -8.499425053596496582e-01 1.397027134895324707e+00 1.641253978013992310e-01 1.580164909362792969e+00
2.663000000000000000e+03 6.788134765625000000e+01 -2.766000747680664062e+01 -2.581541985273361206e-02 6.971091032028198242e-03 -5.653298459947109222e-03 4.418235272169113159e-03
2.664000000000000000e+03 5.272112846374511719e+00 1.021146297454833984e+01 3.953693085350096226e-04 -1.288746134378015995e-04 7.994841143954545259e-05 -2.118216798407956958e-04
2.665000000000000000e+03 4.218212890625000000e+01 -1.423626041412353516e+01 1.618474602699279785e+00 1.711272120475769043e+00 9.989240169525146484e-01 -6.873173117637634277e-01
2.666000000000000000e+03 3.982913589477539062e+01 -1.299073886871337891e+01 1.086401224136352539e+00 6.442967057228088379e-01 5.192093849182128906e-01 -1.218603014945983887e+00
2.667000000000000000e+03 6.855799102783203125e+01 -8.346849441528320312e+00 -7.226714491844177246e-01 3.250181376934051514e-01 -1.192959994077682495e-01 -6.572303771972656250e-01
2.668000000000000000e+03 6.831317138671875000e+01 -9.841082572937011719e+00 -9.807124137878417969e-01 3.005399405956268311e-01 -2.040517330169677734e-01 -5.610423088073730469e-01
2.669000000000000000e+03 9.096588134765625000e+00 -1.826615524291992188e+01 -6.920513510704040527e-02 -3.700450360774993896e-01 -1.317750513553619385e-01 -8.096871972084045410e-01
2.670000000000000000e+03 5.164509773254394531e+00 1.125178146362304688e+01 3.291997563792392612e-05 -2.175691624870523810e-04 -5.539475387195125222e-05 -1.971943856915459037e-04
2.671000000000000000e+03 6.339918136596679688e+00 1.322716808319091797e+01 4.293674428481608629e-04 -5.292657879181206226e-04 -2.996949842781759799e-05 -2.741268835961818695e-04
2.672000000000000000e+03 4.281433868408203125e+01 -1.515306282043457031e+01 2.245937108993530273e+00 2.092900991439819336e+00 1.301651477813720703e+00 -3.297528028488159180e-01
2.673000000000000000e+03 7.372183990478515625e+01 -2.715410995483398438e+01 -7.809719070792198181e-03 -5.811218870803713799e-04 -2.517252461984753609e-03 4.778433125466108322e-03
2.674000000000000000e+03 8.838637351989746094e+00 -1.555970382690429688e+01 -3.825618624687194824e-01 -2.520324289798736572e-01 -1.903782933950424194e-01 -6.959646344184875488e-01
2.675000000000000000e+03 7.446935272216796875e+01 -7.530174732208251953e+00 -2.295942753553390503e-01 -2.170907258987426758e-01 -1.340055018663406372e-01 -6.308363080024719238e-01
2.676000000000000000e+03 7.302217102050781250e+01 -1.045518207550048828e+01 -4.382353127002716064e-01 4.915746673941612244e-02 -1.167233511805534363e-01 -4.632066190242767334e-01
2.677000000000000000e+03 4.852189064025878906e+00 1.963364410400390625e+01 -1.419815700501203537e-03 -7.542856619693338871e-04 -6.522304611280560493e-04 2.256933657918125391e-04
2.678000000000000000e+03 5.714080047607421875e+01 -7.709312438964843750e+00 -9.003893136978149414e-01 1.707873582839965820e+00 2.422452718019485474e-01 1.478404164314270020e+00
2.679000000000000000e+03 1.955519485473632812e+01 -5.928446292877197266e+00 -5.472450852394104004e-01 -3.042548596858978271e-01 -2.554499804973602295e-01 -6.021199822425842285e-01
2.680000000000000000e+03 5.949526977539062500e+01 -8.633964538574218750e+00 -8.960901498794555664e-01 1.274201154708862305e+00 1.134333014488220215e-01 1.046479344367980957e+00
2.681000000000000000e+03 5.955338287353515625e+01 -6.992132186889648438e+00 -7.425357699394226074e-01 1.595724105834960938e+00 2.559565007686614990e-01 9.767258763313293457e-01
2.682000000000000000e+03 3.912667083740234375e+01 -2.009564971923828125e+01 7.885604500770568848e-01 1.258600115776062012e+00 6.141481995582580566e-01 5.719401836395263672e-01
2.683000000000000000e+03 7.441660308837890625e+01 -4.228371620178222656e+00 -9.479712694883346558e-02 -4.204502701759338379e-01 -1.545742154121398926e-01 -7.971683740615844727e-01
2.684000000000000000e+03 3.833359909057617188e+01 -6.557138919830322266e+00 -1.551163434982299805e+00 5.391421318054199219e-01 -3.036063909530639648e-01 -2.777845859527587891e-01
2.685000000000000000e+03 4.805818939208984375e+01 2.508262443542480469e+01 1.417697370052337646e-01 8.774536103010177612e-02 6.885452568531036377e-02 -1.262888312339782715e-01
2.686000000000000000e+03 4.596836853027343750e+01 2.273738670349121094e+01 -5.826142616569995880e-03 4.077310487627983093e-02 1.048408821225166321e-02 -2.226678468286991119e-02
2.687000000000000000e+03 6.109020996093750000e+01 -8.295886516571044922e-01 4.346244037151336670e-01 2.573083400726318359e+00 9.023123383522033691e-01 8.296369314193725586e-01
2.688000000000000000e+03 4.538662719726562500e+01 -1.002316474914550781e+01 -4.657275676727294922e-01 8.425782918930053711e-01 1.130552217364311218e-01 2.071931660175323486e-01
2.689000000000000000e+03 6.389550399780273438e+01 8.912961959838867188e+00 7.735006213188171387e-01 5.243343830108642578e+00 1.805053353309631348e+00 7.095347046852111816e-01
2.690000000000000000e+03 4.213994503021240234e+00 3.425558471679687500e+01 1.467264257371425629e-03 -1.404656656086444855e-02 -3.773790551349520683e-03 6.709208246320486069e-03
2.691000000000000000e+03 4.376738739013671875e+01 -1.278284549713134766e+01 1.108547925949096680e+00 1.697378396987915039e+00 8.417778611183166504e-01 -4.577881395816802979e-01
2.692000000000000000e+03 4.181085586547851562e+01 -1.584425258636474609e+01 2.046777725219726562e+00 1.952004671096801758e+00 1.199634671211242676e+00 -3.421429693698883057e-01
2.693000000000000000e+03 4.070385360717773438e+01 -1.645698165893554688e+01 1.692178726196289062e+00 1.422787904739379883e+00 9.344900250434875488e-01 -4.954824745655059814e-01
2.694000000000000000e+03 5.125252151489257812e+01 -1.011059951782226562e+01 -3.614553213119506836e-01 9.971631169319152832e-01 1.907123476266860962e-01 2.536067008972167969e+00
2.695000000000000000e+03 4.830973815917968750e+01 -8.726883888244628906e+00 -1.480641841888427734e+00 3.867423236370086670e-01 -3.281698524951934814e-01 1.544839024543762207e+00
2.696000000000000000e+03 4.354432678222656250e+01 -1.113561439514160156e+01 2.712331116199493408e-01 1.064702272415161133e+00 4.007805883884429932e-01 -5.247747302055358887e-01
2.697000000000000000e+03 7.413360595703125000e+01 -3.272160720825195312e+01 -4.558258224278688431e-03 -7.660593837499618530e-03 -3.665655618533492088e-03 1.564996503293514252e-02
2.698000000000000000e+03 1.877794647216796875e+01 -6.697068214416503906e+00 -5.970190167427062988e-01 -3.837741315364837646e-01 -2.942379415035247803e-01 -5.885993838310241699e-01
2.699000000000000000e+03 1.542943763732910156e+01 -5.495369434356689453e+00 -3.164346218109130859e-01 -2.879201471805572510e-01 -1.813064366579055786e-01 -2.300724387168884277e-01
2.700000000000000000e+03 6.477312088012695312e+00 -2.396759605407714844e+01 2.148712277412414551e-01 -7.266486287117004395e-01 -1.535332202911376953e-01 -4.980713427066802979e-01
2.701000000000000000e+03 7.254369735717773438e+00 -2.281834411621093750e+01 2.255457937717437744e-01 -6.378856897354125977e-01 -1.237019672989845276e-01 -5.768963694572448730e-01
2.702000000000000000e+03 7.422789764404296875e+01 1.554278278350830078e+01 3.442958593368530273e-01 -1.061855196952819824e+00 -2.152678072452545166e-01 1.806932538747787476e-01
2.703000000000000000e+03 4.166078186035156250e+01 -1.996457481384277344e+01 1.463936924934387207e+00 2.894080400466918945e+00 1.307405114173889160e+00 8.729121088981628418e-01
2.704000000000000000e+03 7.359940338134765625e+01 1.141033744812011719e+01 3.884250223636627197e-01 -6.914736032485961914e-01 -9.091456979513168335e-02 -2.191298454999923706e-01
2.705000000000000000e+03 5.919444084167480469e+00 -1.748626136779785156e+01 -9.625284373760223389e-02 -3.959656357765197754e-01 -1.476655453443527222e-01 -6.052888035774230957e-01
2.706000000000000000e+03 5.820879459381103516e+00 -1.628413200378417969e+01 -1.443478912115097046e-01 -3.154355287551879883e-01 -1.379350274801254272e-01 -5.681452155113220215e-01
2.707000000000000000e+03 4.640547180175781250e+01 -1.048387336730957031e+01 -2.576035857200622559e-01 1.230324268341064453e+00 2.918162047863006592e-01 7.585521340370178223e-01
2.708000000000000000e+03 7.375661468505859375e+01 2.174430274963378906e+01 1.854037791490554810e-01 -6.273685693740844727e-01 -1.325894445180892944e-01 7.126578688621520996e-01
2.709000000000000000e+03 7.535739135742187500e+01 2.069938278198242188e+01 1.544702053070068359e-01 -1.431385874748229980e+00 -3.830747008323669434e-01 5.766312479972839355e-01
2.710000000000000000e+03 5.873295593261718750e+01 -6.049045562744140625e+00 -6.351040005683898926e-01 1.818939328193664551e+00 3.551506102085113525e-01 1.015729188919067383e+00
2.711000000000000000e+03 7.424823760986328125e+01 2.338277101516723633e+00 1.076485589146614075e-01 -7.711614966392517090e-01 -1.990538835525512695e-01 -7.965964674949645996e-01
2.712000000000000000e+03 6.664109039306640625e+01 2.203626823425292969e+01 5.422869920730590820e-01 2.607137680053710938e+00 9.448273777961730957e-01 5.019862651824951172e-01
2.713000000000000000e+03 7.400521850585937500e+01 -2.849359893798828125e+01 -5.237055476754903793e-03 -1.011432381346821785e-03 -1.874546287581324577e-03 8.492506109178066254e-03
2.714000000000000000e+03 1.651142692565917969e+01 -3.200478363037109375e+01 4.297450780868530273e-01 3.365692496299743652e-01 2.298942953348159790e-01 -2.729019522666931152e-01
2.715000000000000000e+03 1.010333919525146484e+01 -2.394076728820800781e+01 4.174950420856475830e-01 -3.871168196201324463e-01 9.113469161093235016e-03 -5.486661195755004883e-01
2.716000000000000000e+03 1.093272304534912109e+01 -2.503199195861816406e+01 4.966321289539337158e-01 -2.403004169464111328e-01 7.689951360225677490e-02 -4.693400263786315918e-01
2.717000000000000000e+03 4.975380897521972656e+00 -2.678992843627929688e+01 1.200139522552490234e-01 -9.853637814521789551e-01 -2.596049606800079346e-01 -2.917099297046661377e-01
2.718000000000000000e+03 5.658163452148437500e+01 2.736330032348632812e+01 1.772022247314453125e-01 1.183696508407592773e+00 4.082696139812469482e-01 -8.909205794334411621e-01
2.719000000000000000e+03 5.508421707153320312e+01 2.902741241455078125e+01 8.389317244291305542e-02 8.925173282623291016e-01 2.929231524467468262e-01 -6.708909273147583008e-01
2.720000000000000000e+03 4.125092697143554688e+01 -2.599763107299804688e+01 5.072888731956481934e-01 2.397601842880249023e+00 8.714671730995178223e-01 1.027485609054565430e+00
2.721000000000000000e+03 3.894078826904296875e+01 -2.798536300659179688e+01 5.107066631317138672e-01 1.520762205123901367e+00 6.094406843185424805e-01 9.605336785316467285e-01
2.722000000000000000e+03 7.649143218994140625e+01 2.745573234558105469e+01 -4.482913389801979065e-02 -1.258362174034118652e+00 -3.909574151039123535e-01 5.544906258583068848e-01
2.723000000000000000e+03 7.284797668457031250e+01 2.913019943237304688e+01 -1.820055246353149414e-01 -5.061938986182212830e-02 -6.978747248649597168e-02 7.299433350563049316e-01
2.724000000000000000e+03 1.086621761322021484e+01 -1.185386657714843750e+01 -7.312015295028686523e-01 -2.212650179862976074e-01 -2.857399582862854004e-01 -3.700524270534515381e-01
2.725000000000000000e+03 6.527393341064453125e+01 4.103319644927978516e+00 5.885563492774963379e-01 2.893742084503173828e+00 1.044689536094665527e+00 -2.698444761335849762e-02
2.726000000000000000e+03 1.251416683197021484e+01 -2.698460960388183594e+01 4.794737994670867920e-01 -1.460911240428686142e-02 1.394594013690948486e-01 -3.777750134468078613e-01
2.727000000000000000e+03 6.006435871124267578e+00 -1.175818061828613281e+01 -2.905661463737487793e-01 -8.980537950992584229e-02 -1.141114607453346252e-01 -2.617366909980773926e-01
2.728000000000000000e+03 5.853209018707275391e+00 -8.970413208007812500e+00 -2.202063798904418945e-01 -2.256703749299049377e-02 -7.283202558755874634e-02 -5.666210129857063293e-02
2.729000000000000000e+03 5.828556060791015625e+00 1.865623092651367188e+01 -1.306919264607131481e-03 -9.286940912716090679e-04 -6.706840358674526215e-04 5.795236938865855336e-05
2.730000000000000000e+03 6.511931610107421875e+01 9.370591163635253906e+00 8.312495946884155273e-01 4.293112754821777344e+00 1.537308812141418457e+00 2.862851023674011230e-01
2.731000000000000000e+03 5.474075317382812500e+01 2.709564971923828125e+01 3.615453541278839111e-01 6.431089639663696289e-01 3.013962805271148682e-01 -7.468603849411010742e-01
2.732000000000000000e+03 5.303937530517578125e+01 2.672372245788574219e+01 3.332541882991790771e-01 3.806005120277404785e-01 2.141564190387725830e-01 -5.262807011604309082e-01
2.733000000000000000e+03 6.040601348876953125e+01 2.308175659179687500e+01 5.483328700065612793e-01 3.188910722732543945e+00 1.121173143386840820e+00 -1.240869998931884766e+00
2.734000000000000000e+03 7.314764404296875000e+01 -5.123478889465332031e+00 -1.820824742317199707e-01 -1.448187083005905151e-01 -9.807035326957702637e-02 -8.367874622344970703e-01
2.735000000000000000e+03 6.588252258300781250e+01 -5.957080841064453125e+00 -4.129521548748016357e-01 7.248471379280090332e-01 9.356850385665893555e-02 -4.067130982875823975e-01
2.736000000000000000e+03 7.427810668945312500e+01 1.030310034751892090e+00 9.396491944789886475e-02 -6.985138058662414551e-01 -1.813646703958511353e-01 -8.282790780067443848e-01
2.737000000000000000e+03 7.297953796386718750e+01 1.036904931068420410e+00 9.870117157697677612e-02 -2.760215103626251221e-01 -5.319609865546226501e-02 -8.813638091087341309e-01
2.738000000000000000e+03 1.422591114044189453e+01 -2.952700996398925781e+01 4.427407085895538330e-01 1.616043895483016968e-01 1.813035309314727783e-01 -3.064660131931304932e-01
2.739000000000000000e+03 7.665180206298828125e+00 3.242412948608398438e+01 5.780248902738094330e-04 -1.230381429195404053e-02 -3.517736680805683136e-03 1.251271925866603851e-02
2.740000000000000000e+03 3.982611846923828125e+01 -2.532316589355468750e+01 6.071709394454956055e-01 1.816083788871765137e+00 7.269764542579650879e-01 1.116473197937011719e+00
2.741000000000000000e+03 7.213043212890625000e+01 -3.217992019653320312e+01 -7.742455229163169861e-03 -1.540520112030208111e-03 -2.784892451018095016e-03 1.913626119494438171e-02
2.742000000000000000e+03 3.757940292358398438e+01 -2.568089485168457031e+01 6.774389147758483887e-01 1.075530767440795898e+00 5.258908867835998535e-01 1.028542995452880859e+00
2.743000000000000000e+03 6.933338928222656250e+01 -3.561841201782226562e+01 8.948859758675098419e-03 -8.502272889018058777e-03 1.339760201517492533e-04 2.642017789185047150e-02
2.744000000000000000e+03 5.215171813964843750e+00 2.793482398986816406e+01 -2.000837353989481926e-03 -6.209099199622869492e-03 -2.462981035932898521e-03 6.963568739593029022e-03
2.745000000000000000e+03 6.658848762512207031e+00 -1.394926357269287109e+01 -3.171259164810180664e-01 -1.748118549585342407e-01 -1.475813239812850952e-01 -4.687099456787109375e-01
2.746000000000000000e+03 3.918465805053710938e+01 -1.126405239105224609e+01 5.898940563201904297e-01 4.739990830421447754e-01 3.191679418087005615e-01 -1.254795789718627930e+00
2.747000000000000000e+03 2.864126968383789062e+01 -2.744102716445922852e+00 -1.742591142654418945e+00 4.343224316835403442e-02 -5.097476840019226074e-01 -6.765742301940917969e-01
2.748000000000000000e+03 2.772083282470703125e+01 -2.716538429260253906e+00 -1.576935648918151855e+00 -8.737605065107345581e-02 -4.992935061454772949e-01 -7.070944309234619141e-01
2.749000000000000000e+03 2.821475219726562500e+01 -3.309395551681518555e+00 -1.423788428306579590e+00 3.661513701081275940e-02 -4.161519706249237061e-01 -8.210318088531494141e-01
2.750000000000000000e+03 3.137831306457519531e+01 -4.132102489471435547e+00 -1.491711258888244629e+00 4.954096674919128418e-01 -2.988904714584350586e-01 -5.700532793998718262e-01
2.751000000000000000e+03 2.760431289672851562e+01 -3.079772949218750000e+00 -1.405162453651428223e+00 -6.424403190612792969e-02 -4.408219456672668457e-01 -7.844353318214416504e-01
2.752000000000000000e+03 1.718288230895996094e+01 6.568029403686523438e+00 5.124631570652127266e-05 3.546099469531327486e-05 2.601219421194400638e-05 6.626273534493520856e-05
2.753000000000000000e+03 1.222770977020263672e+01 1.555590438842773438e+01 3.238205681554973125e-04 -5.105309810460312292e-06 9.561457409290596843e-05 8.224597549997270107e-04
2.754000000000000000e+03 1.252553939819335938e+01 1.660296821594238281e+01 1.374356361338868737e-04 7.744916365481913090e-05 6.446544284699484706e-05 3.963025519624352455e-04
2.755000000000000000e+03 2.636609649658203125e+01 -4.168177127838134766e+00 -8.877048492431640625e-01 -1.478500515222549438e-01 -3.106664717197418213e-01 -9.499018192291259766e-01
2.756000000000000000e+03 3.332603073120117188e+01 1.645141792297363281e+01 -4.012439399957656860e-02 -1.466835197061300278e-02 -1.643782295286655426e-02 3.913073986768722534e-02
2.757000000000000000e+03 1.102297210693359375e+01 1.745350837707519531e+01 -5.040559335611760616e-04 -1.030591665767133236e-03 -4.603942797984927893e-04 -1.382330083288252354e-04
2.758000000000000000e+03 1.812729644775390625e+01 5.100854873657226562e+00 5.738010804634541273e-05 3.680854206322692335e-05 2.825659430527593940e-05 1.668087315920274705e-05
2.759000000000000000e+03 1.301344776153564453e+01 1.323517513275146484e+01 -1.237078395206481218e-04 4.133162437938153744e-04 8.688252273714169860e-05 3.797019307967275381e-04
2.760000000000000000e+03 1.629172706604003906e+01 6.229909896850585938e+00 -3.592876964830793440e-05 -9.837168363446835428e-06 -1.372978113067802042e-05 -3.823859515250660479e-05
2.761000000000000000e+03 1.985196495056152344e+01 2.500113105773925781e+01 -4.824209213256835938e-02 -9.622989222407341003e-03 -1.735952496528625488e-02 3.046317771077156067e-02
2.762000000000000000e+03 3.426481628417968750e+01 1.116547489166259766e+01 -3.002215176820755005e-03 -2.125733997672796249e-03 -1.538384705781936646e-03 3.338331356644630432e-03
2.763000000000000000e+03 3.335104751586914062e+01 1.541513824462890625e+01 -3.028886765241622925e-02 -1.383236888796091080e-02 -1.323637086898088455e-02 3.102804720401763916e-02
2.764000000000000000e+03 3.355605697631835938e+01 1.577010440826416016e+01 -3.488566726446151733e-02 -1.049762591719627380e-02 -1.361498795449733734e-02 3.232958167791366577e-02
2.765000000000000000e+03 1.471052169799804688e+01 8.644068717956542969e+00 -9.303473780164495111e-05 6.801263225497677922e-05 -7.506631391152041033e-06 2.720975317060947418e-05
2.766000000000000000e+03 1.740084838867187500e+01 5.286082744598388672e+00 6.058001235942356288e-05 3.765650762943550944e-05 2.947095708805136383e-05 7.080286195559892803e-06
2.767000000000000000e+03 1.789684104919433594e+01 5.532975196838378906e+00 -5.568213964579626918e-05 -2.241751644760370255e-05 -2.342989682801999152e-05 -1.209111360367387533e-05
2.768000000000000000e+03 3.461262130737304688e+01 1.063157176971435547e+01 -1.197609584778547287e-03 -1.202314742840826511e-03 -7.199773099273443222e-04 6.277392967604100704e-04
2.769000000000000000e+03 3.570322036743164062e+01 1.124144840240478516e+01 -1.065272931009531021e-02 -2.565633272752165794e-03 -3.965508658438920975e-03 4.829957615584135056e-03
2.770000000000000000e+03 3.327850723266601562e+01 1.500890159606933594e+01 -2.155876532196998596e-02 -1.405413355678319931e-02 -1.068386901170015335e-02 2.525872178375720978e-02
2.771000000000000000e+03 3.418477249145507812e+01 1.512364482879638672e+01 -3.277017921209335327e-02 -4.606380127370357513e-03 -1.121296733617782593e-02 2.812559902667999268e-02
2.772000000000000000e+03 3.638220596313476562e+01 9.331878662109375000e+00 -3.097143024206161499e-03 -1.621024450287222862e-03 -1.415450242348015308e-03 4.720283686765469611e-05
2.773000000000000000e+03 3.505443954467773438e+01 1.043553256988525391e+01 -5.363813135772943497e-03 -1.854207483120262623e-03 -2.165406243875622749e-03 3.122903872281312943e-03
2.774000000000000000e+03 3.423055267333984375e+01 1.365682792663574219e+01 -2.021275646984577179e-02 -3.994497936218976974e-03 -7.262176368385553360e-03 1.614140905439853668e-02
2.775000000000000000e+03 1.431780910491943359e+01 1.065755081176757812e+01 6.193033914314582944e-05 3.201798244845122099e-04 1.146330469055101275e-04 1.802981714718043804e-04
2.776000000000000000e+03 1.731759452819824219e+01 7.472075939178466797e+00 -2.368288187426514924e-05 1.623956086405087262e-05 -2.232996394013753161e-06 -2.699897777347359806e-05
2.777000000000000000e+03 1.638290596008300781e+01 8.251598358154296875e+00 9.156051964964717627e-05 9.991937258746474981e-05 5.744396912632510066e-05 1.138683091994607821e-05
2.778000000000000000e+03 3.473084259033203125e+01 1.295374679565429688e+01 -1.889978162944316864e-02 -1.634618151001632214e-03 -6.160319782793521881e-03 1.115067489445209503e-02
2.779000000000000000e+03 3.348864364624023438e+01 1.749419212341308594e+01 -5.671325698494911194e-02 -1.125381793826818466e-02 -2.039012312889099121e-02 4.706805199384689331e-02
2.780000000000000000e+03 3.299936676025390625e+01 1.750527000427246094e+01 -6.018642336130142212e-02 -1.546082552522420883e-02 -2.269417420029640198e-02 4.783590883016586304e-02
2.781000000000000000e+03 3.528998184204101562e+01 8.190063476562500000e+00 2.319418708793818951e-04 -1.285299891605973244e-03 -3.160074120387434959e-04 -8.519485709257423878e-04
2.782000000000000000e+03 3.527457809448242188e+01 7.161938667297363281e+00 2.096947049722075462e-03 -1.383872731821611524e-04 5.875679780729115009e-04 -3.686845011543482542e-04
2.783000000000000000e+03 3.331056213378906250e+01 1.338440227508544922e+01 -1.141362823545932770e-02 -7.383937016129493713e-03 -5.639269482344388962e-03 1.223556231707334518e-02
2.784000000000000000e+03 1.352382755279541016e+01 2.108962059020996094e+01 -1.143715623766183853e-02 1.745767192915081978e-03 -2.907416550442576408e-03 7.949359132908284664e-05
2.785000000000000000e+03 1.250297355651855469e+01 1.966651344299316406e+01 -3.155997255817055702e-03 -8.089718903647735715e-05 -9.710683370940387249e-04 -3.883538593072444201e-04
2.786000000000000000e+03 1.221693229675292969e+01 1.625528335571289062e+01 1.425456866854801774e-04 -6.389850750565528870e-05 2.359415520913898945e-05 8.441253448836505413e-04
2.787000000000000000e+03 1.183425903320312500e+01 1.589828777313232422e+01 1.517278287792578340e-04 -3.245109692215919495e-04 -5.183494431548751891e-05 3.477206337265670300e-04
2.788000000000000000e+03 3.116289710998535156e+01 2.138985443115234375e+01 -1.092849075794219971e-01 -3.255985677242279053e-02 -4.255342856049537659e-02 4.560148715972900391e-02
2.789000000000000000e+03 2.124151420593261719e+01 2.441641998291015625e+01 -6.624921411275863647e-02 -1.562836766242980957e-02 -2.456327341496944427e-02 3.269278630614280701e-02
2.790000000000000000e+03 2.074093437194824219e+01 2.493618965148925781e+01 -5.563284084200859070e-02 -1.427771151065826416e-02 -2.097316645085811615e-02 3.339420258998870850e-02
2.791000000000000000e+03 2.655035018920898438e+01 -4.880026817321777344e+00 -6.967105269432067871e-01 -1.609409153461456299e-01 -2.572954297065734863e-01 -9.754637479782104492e-01
2.792000000000000000e+03 1.294877433776855469e+01 1.450127315521240234e+01 -1.571846223669126630e-05 3.938764275517314672e-04 1.134473932324908674e-04 4.692844813689589500e-04
2.793000000000000000e+03 1.238070392608642578e+01 1.461264610290527344e+01 6.881121953483670950e-05 1.427522074664011598e-04 6.346902955556288362e-05 4.840876499656587839e-04
2.794000000000000000e+03 1.283626651763916016e+01 1.851644134521484375e+01 -1.191838062368333340e-03 -2.053389907814562321e-04 -4.191531043034046888e-04 1.632461353437975049e-04
2.795000000000000000e+03 1.247601032257080078e+01 1.789375877380371094e+01 -8.987550972960889339e-04 -4.589103045873343945e-04 -4.072996089234948158e-04 4.450803098734468222e-04
2.796000000000000000e+03 1.212583446502685547e+01 1.489449596405029297e+01 3.915778943337500095e-04 -1.024778794089797884e-05 1.143990302807651460e-04 7.191910990513861179e-04
2.797000000000000000e+03 1.778685951232910156e+01 2.394049072265625000e+01 -4.041175171732902527e-02 -9.713908657431602478e-04 -1.241494342684745789e-02 1.636721566319465637e-02
2.798000000000000000e+03 1.839183998107910156e+01 2.362074851989746094e+01 -4.656903073191642761e-02 -1.653075451031327248e-03 -1.446663215756416321e-02 1.399970520287752151e-02
2.799000000000000000e+03 2.669153022766113281e+01 -3.795903205871582031e+00 -1.027129888534545898e+00 -1.383464932441711426e-01 -3.496429324150085449e-01 -9.162925481796264648e-01
2.800000000000000000e+03 2.667623901367187500e+01 -6.210851669311523438e+00 -3.655734062194824219e-01 -2.610939145088195801e-01 -1.880002021789550781e-01 -9.444515705108642578e-01
2.801000000000000000e+03 1.415320491790771484e+01 9.830868721008300781e+00 -4.449713742360472679e-05 2.332862350158393383e-04 5.663673073286190629e-05 1.258096453966572881e-04
2.802000000000000000e+03 1.696796607971191406e+01 7.594873905181884766e+00 -4.782905307365581393e-05 2.317007965757511556e-05 -7.397691661026328802e-06 3.668745557661168277e-05
2.803000000000000000e+03 1.299864482879638672e+01 2.008778762817382812e+01 -4.544864874333143234e-03 4.322962777223438025e-04 -1.233770628459751606e-03 -9.137747692875564098e-04
2.804000000000000000e+03 1.419098949432373047e+01 2.175021171569824219e+01 -1.539981551468372345e-02 2.374419476836919785e-03 -3.907619044184684753e-03 1.546261366456747055e-03
2.805000000000000000e+03 2.284605789184570312e+01 2.507490348815917969e+01 -5.997680500149726868e-02 -2.624816633760929108e-02 -2.586749009788036346e-02 3.952305763959884644e-02
2.806000000000000000e+03 2.399354171752929688e+01 2.521542739868164062e+01 -5.985801294445991516e-02 -3.115858137607574463e-02 -2.730497904121875763e-02 4.300491884350776672e-02
2.807000000000000000e+03 2.622948265075683594e+01 2.552724647521972656e+01 -5.194893851876258850e-02 -3.868532925844192505e-02 -2.719028107821941376e-02 4.773154109716415405e-02
2.808000000000000000e+03 2.500754356384277344e+01 2.404284858703613281e+01 -9.077421575784683228e-02 -3.198807314038276672e-02 -3.682868555188179016e-02 4.785037785768508911e-02
2.809000000000000000e+03 3.251593780517578125e+01 2.065779685974121094e+01 -9.955039620399475098e-02 -7.090640719980001450e-03 -3.199231252074241638e-02 4.496736451983451843e-02
2.810000000000000000e+03 3.632287216186523438e+01 8.042808532714843750e+00 -1.289363484829664230e-03 -2.623821143060922623e-03 -1.173955388367176056e-03 -5.718582542613148689e-04
2.811000000000000000e+03 3.152707672119140625e+01 2.120708084106445312e+01 -1.089151129126548767e-01 -2.540155872702598572e-02 -4.029500111937522888e-02 4.427673667669296265e-02
2.812000000000000000e+03 3.124187660217285156e+01 2.079968070983886719e+01 -1.092938035726547241e-01 -3.422298282384872437e-02 -4.305503517389297485e-02 5.139747634530067444e-02
2.813000000000000000e+03 1.239447498321533203e+01 1.290248775482177734e+01 5.638874426949769258e-05 1.749970979290083051e-04 6.941574974916875362e-05 4.427188250701874495e-04
2.814000000000000000e+03 1.265767955780029297e+01 1.392208576202392578e+01 6.218518137757200748e-06 2.275913284393027425e-04 7.014295260887593031e-05 4.906229441985487938e-04
2.815000000000000000e+03 2.377683830261230469e+01 2.443558502197265625e+01 -7.893477380275726318e-02 -2.695093862712383270e-02 -3.176571428775787354e-02 4.210896790027618408e-02
2.816000000000000000e+03 2.345643806457519531e+01 2.353250503540039062e+01 -9.836576879024505615e-02 -1.983929798007011414e-02 -3.546151891350746155e-02 3.711073473095893860e-02
2.817000000000000000e+03 1.344733333587646484e+01 1.276561546325683594e+01 -1.727694616420194507e-04 4.857804742641746998e-04 9.390329796588048339e-05 3.201888175681233406e-04
2.818000000000000000e+03 3.537720489501953125e+01 5.740527629852294922e+00 6.471695378422737122e-04 5.351717700250446796e-04 3.547023807186633348e-04 -7.744632894173264503e-04
2.819000000000000000e+03 1.682311820983886719e+01 7.294521331787109375e+00 -4.844435898121446371e-05 2.255324034194927663e-05 -7.767335773678496480e-06 -6.530026439577341080e-05
2.820000000000000000e+03 2.744208526611328125e+01 2.352010726928710938e+01 -9.295159578323364258e-02 -5.138024315237998962e-02 -4.329955205321311951e-02 5.593192949891090393e-02
2.821000000000000000e+03 1.366764450073242188e+01 1.057221412658691406e+01 8.215554407797753811e-05 2.066290908260270953e-04 8.663539483677595854e-05 2.384191466262564063e-04
2.822000000000000000e+03 2.665341949462890625e+01 -5.338167190551757812e+00 -5.873155593872070312e-01 -1.965140849351882935e-01 -2.351488918066024780e-01 -9.908696413040161133e-01
2.823000000000000000e+03 1.516225051879882812e+01 2.319776344299316406e+01 -2.421448566019535065e-02 1.837390474975109100e-03 -6.713128648698329926e-03 8.132556453347206116e-03
2.824000000000000000e+03 1.439008903503417969e+01 2.230837631225585938e+01 -1.870329864323139191e-02 2.569566247984766960e-03 -4.840119741857051849e-03 3.236006246879696846e-03
2.825000000000000000e+03 1.800494766235351562e+01 2.346200180053710938e+01 -4.578727856278419495e-02 -1.815253344830125570e-04 -1.379064098000526428e-02 1.263321842998266220e-02
2.826000000000000000e+03 1.429201889038085938e+01 8.672593116760253906e+00 -5.535237869480624795e-05 1.259505079360678792e-04 2.117943949997425079e-05 8.732014975976198912e-05
2.827000000000000000e+03 1.935008621215820312e+01 2.503808212280273438e+01 -4.704357311129570007e-02 -8.636034093797206879e-03 -1.670388318598270416e-02 2.856702171266078949e-02
2.828000000000000000e+03 2.227290534973144531e+01 2.543202209472656250e+01 -5.640232935547828674e-02 -2.385518327355384827e-02 -2.407725341618061066e-02 3.922319784760475159e-02
2.829000000000000000e+03 2.218489837646484375e+01 2.424153709411621094e+01 -7.404562085866928101e-02 -2.105412073433399200e-02 -2.852992154657840729e-02 3.392746672034263611e-02
2.830000000000000000e+03 1.278553390502929688e+01 1.234099292755126953e+01 -5.318889452610164881e-05 2.456780930515378714e-04 5.774675446446053684e-05 3.478861472103744745e-04
2.831000000000000000e+03 3.679437637329101562e+01 -5.367795944213867188e+00 -1.664245724678039551e+00 7.386436462402343750e-01 -2.776806056499481201e-01 1.199390292167663574e-01
2.832000000000000000e+03 3.782499694824218750e+01 -4.634112358093261719e+00 -2.152173519134521484e+00 6.889688372611999512e-01 -4.389613866806030273e-01 2.592138946056365967e-01
2.833000000000000000e+03 1.377076435089111328e+01 2.151697921752929688e+01 -1.341802347451448441e-02 2.428814768791198730e-03 -3.296762704849243164e-03 6.834019586676731706e-05
2.834000000000000000e+03 2.714263916015625000e+01 2.477815246582031250e+01 -6.486784666776657104e-02 -4.686262086033821106e-02 -3.351914137601852417e-02 4.913367703557014465e-02
2.835000000000000000e+03 2.696381950378417969e+01 2.374884033203125000e+01 -9.281989932060241699e-02 -4.609445482492446899e-02 -4.167430475354194641e-02 5.361648276448249817e-02
2.836000000000000000e+03 1.550473022460937500e+01 2.342219543457031250e+01 -2.807385660707950592e-02 2.608722774311900139e-03 -7.639539893716573715e-03 9.277582168579101562e-03
2.837000000000000000e+03 3.177914619445800781e+01 -4.896910667419433594e+00 -1.178879141807556152e+00 6.345772147178649902e-01 -1.632905602455139160e-01 -5.731233954429626465e-01
2.838000000000000000e+03 2.931573867797851562e+01 2.324610328674316406e+01 -8.449681848287582397e-02 -5.415303632616996765e-02 -4.159495607018470764e-02 4.140970855951309204e-02
2.839000000000000000e+03 2.968923568725585938e+01 2.260655021667480469e+01 -9.709236025810241699e-02 -5.621061101555824280e-02 -4.599089175462722778e-02 4.276967421174049377e-02
2.840000000000000000e+03 1.879000282287597656e+01 2.428449440002441406e+01 -4.920373111963272095e-02 -4.007873591035604477e-03 -1.596348173916339874e-02 2.188361249864101410e-02
2.841000000000000000e+03 1.660413932800292969e+01 4.492136955261230469e+00 -2.006567774515133351e-05 -7.584442209918051958e-05 -2.877303086279425770e-05 6.839634352218126878e-06
2.842000000000000000e+03 3.276500701904296875e+01 -5.388669967651367188e+00 -9.337863922119140625e-01 7.577928304672241211e-01 -5.279807373881340027e-02 -3.020500540733337402e-01
2.843000000000000000e+03 3.238143539428710938e+01 -4.260602951049804688e+00 -1.464867472648620605e+00 4.158828556537628174e-01 -3.146953582763671875e-01 -3.429004848003387451e-01
2.844000000000000000e+03 2.462807655334472656e+01 -5.562282085418701172e+00 -6.371609568595886230e-01 -2.346023768186569214e-01 -2.615289986133575439e-01 -8.714299201965332031e-01
2.845000000000000000e+03 1.229451274871826172e+01 -6.508698463439941406e+00 -3.425573110580444336e-01 -2.039140611886978149e-01 -1.639414131641387939e-01 -5.717564001679420471e-02
2.846000000000000000e+03 3.110159111022949219e+01 2.241509437561035156e+01 -9.310849010944366455e-02 -2.917057275772094727e-02 -3.668371960520744324e-02 3.527692332863807678e-02
2.847000000000000000e+03 3.094820022583007812e+01 2.324613571166992188e+01 -7.694894075393676758e-02 -2.810462564229965210e-02 -3.151606768369674683e-02 2.980101853609085083e-02
2.848000000000000000e+03 3.016931724548339844e+01 2.241498565673828125e+01 -9.996902197599411011e-02 -4.732037708163261414e-02 -4.418681934475898743e-02 3.934967145323753357e-02
2.849000000000000000e+03 1.396852970123291016e+01 5.414842128753662109e+00 -7.922373697510920465e-06 -1.680171408224850893e-05 -7.417226242978358641e-06 7.028177060419693589e-05
2.850000000000000000e+03 1.262000179290771484e+01 5.584921360015869141e+00 1.836571937019471079e-05 -2.035861507465597242e-05 -5.978691319796780590e-07 1.099207438528537750e-04
2.851000000000000000e+03 1.119895648956298828e+01 5.808294773101806641e+00 2.556246181484311819e-05 -2.420786222501192242e-05 4.063797405251534656e-07 1.323263859376311302e-04
2.852000000000000000e+03 1.534404754638671875e+01 5.390960693359375000e+00 -4.468539918889291584e-05 -2.827657226589508355e-06 -1.425391656084684655e-05 2.778609632514417171e-05
2.853000000000000000e+03 7.627286434173583984e+00 -5.330996990203857422e+00 -1.061414927244186401e-01 -2.323780395090579987e-02 -3.881378844380378723e-02 7.921449840068817139e-02
2.854000000000000000e+03 9.143009185791015625e+00 -6.287360191345214844e+00 -2.240948826074600220e-01 -6.369970738887786865e-02 -8.633837848901748657e-02 3.855363652110099792e-02
2.855000000000000000e+03 9.551689147949218750e+00 5.304419994354248047e+00 2.096742682624608278e-04 -5.082100688014179468e-05 4.765597623190842569e-05 3.110240868409164250e-05
2.856000000000000000e+03 7.075004577636718750e+00 6.434709072113037109e+00 -7.452833960996940732e-05 -4.253170845913700759e-05 -3.511801332933828235e-05 -6.861367000965401530e-05
2.857000000000000000e+03 3.468091201782226562e+01 -4.023223876953125000e+00 -1.827764153480529785e+00 5.636420845985412598e-01 -3.792366087436676025e-01 2.151267975568771362e-01
2.858000000000000000e+03 2.900180053710937500e+01 2.374839019775390625e+01 -7.417231053113937378e-02 -5.118571594357490540e-02 -3.760740906000137329e-02 3.955032676458358765e-02
2.859000000000000000e+03 2.895670700073242188e+01 2.295847892761230469e+01 -9.524778276681900024e-02 -5.905790627002716064e-02 -4.629170522093772888e-02 4.809740930795669556e-02
2.860000000000000000e+03 3.249599456787109375e+01 -4.941214561462402344e+00 -1.260750770568847656e+00 6.324122548103332520e-01 -1.885015666484832764e-01 -3.592067062854766846e-01
2.861000000000000000e+03 1.731517410278320312e+01 2.429500198364257812e+01 -3.823263943195343018e-02 -1.699239946901798248e-03 -1.197956409305334091e-02 1.754615642130374908e-02
2.862000000000000000e+03 1.536038589477539062e+01 2.418086814880371094e+01 -2.650326304137706757e-02 1.103252987377345562e-03 -7.620003074407577515e-03 1.200208440423011780e-02
2.863000000000000000e+03 2.418986129760742188e+01 -4.966219425201416016e+00 -7.069044709205627441e-01 -1.813943833112716675e-01 -2.664896547794342041e-01 -8.437894582748413086e-01
2.864000000000000000e+03 2.784224319458007812e+01 -5.447972774505615234e+00 -6.270304322242736816e-01 9.751131758093833923e-03 -1.851837933063507080e-01 -1.061849236488342285e+00
2.865000000000000000e+03 2.884659767150878906e+01 -5.901057243347167969e+00 -4.923147857189178467e-01 2.468695640563964844e-01 -7.363357394933700562e-02 -1.107093214988708496e+00
2.866000000000000000e+03 1.961828231811523438e+01 -6.760761737823486328e+00 -6.510875225067138672e-01 -3.571809828281402588e-01 -3.024805486202239990e-01 -6.397126317024230957e-01
2.867000000000000000e+03 1.872731781005859375e+01 -5.328608512878417969e+00 -4.452306330204010010e-01 -2.853094339370727539e-01 -2.191620320081710815e-01 -5.149984955787658691e-01
2.868000000000000000e+03 2.968193054199218750e+01 -5.834470272064208984e+00 -5.145031809806823730e-01 4.698866903781890869e-01 -1.338494941592216492e-02 -1.067815899848937988e+00
2.869000000000000000e+03 2.841523933410644531e+01 2.377242469787597656e+01 -7.863754034042358398e-02 -5.123910307884216309e-02 -3.896299377083778381e-02 4.598978906869888306e-02
2.870000000000000000e+03 2.821481704711914062e+01 2.455782508850097656e+01 -6.196960806846618652e-02 -4.732333496212959290e-02 -3.278788179159164429e-02 4.456179216504096985e-02
2.871000000000000000e+03 1.668546867370605469e+01 5.421161651611328125e+00 7.210722105810418725e-05 6.197902257554233074e-05 4.022587017971090972e-05 1.680710556684061885e-05
2.872000000000000000e+03 9.299250602722167969e+00 6.008711814880371094e+00 -7.499583443859592080e-05 -3.775379082071594894e-05 -3.382489012437872589e-05 2.629112168506253511e-05
2.873000000000000000e+03 3.286573410034179688e+01 -4.505575656890869141e+00 -1.399784088134765625e+00 5.085745453834533691e-01 -2.673628628253936768e-01 -1.946901232004165649e-01
2.874000000000000000e+03 3.336137771606445312e+01 -4.975251674652099609e+00 -1.236991643905639648e+00 6.379326581954956055e-01 -1.797177046537399292e-01 -1.531638652086257935e-01
2.875000000000000000e+03 5.327883243560791016e+00 -5.812939167022705078e+00 -7.305504381656646729e-02 1.218024455010890961e-02 -1.826243847608566284e-02 8.315176516771316528e-02
2.876000000000000000e+03 9.160083770751953125e+00 -7.949665069580078125e+00 -3.636718690395355225e-01 -9.088069945573806763e-02 -1.363657712936401367e-01 -3.881483897566795349e-02
2.877000000000000000e+03 6.480196952819824219e+00 5.488090991973876953e+00 -3.324030785734066740e-06 -7.295046543731587008e-06 -3.185723244314431213e-06 5.273122383187001105e-07
2.878000000000000000e+03 1.995930862426757812e+01 -4.959260940551757812e+00 -4.852757751941680908e-01 -2.247923910617828369e-01 -2.130204439163208008e-01 -5.674937963485717773e-01
2.879000000000000000e+03 7.144428253173828125e+01 -9.876803398132324219e+00 -5.542388558387756348e-01 1.591479629278182983e-01 -1.185272783041000366e-01 -5.533536076545715332e-01
2.880000000000000000e+03 3.479145431518554688e+01 -5.734839439392089844e+00 -1.061588048934936523e+00 7.803254127502441406e-01 -8.437877148389816284e-02 -2.518665790557861328e-02
2.881000000000000000e+03 3.567151260375976562e+01 -7.839207172393798828e+00 -1.626409143209457397e-01 7.847927212715148926e-01 1.866455376148223877e-01 -4.301800429821014404e-01
2.882000000000000000e+03 8.300119400024414062e+00 -7.394376754760742188e+00 -2.740966677665710449e-01 -6.006035581231117249e-02 -1.002470999956130981e-01 3.657820634543895721e-03
2.883000000000000000e+03 2.136796951293945312e+01 -6.473536014556884766e+00 -6.825520396232604980e-01 -2.685873210430145264e-01 -2.853417992591857910e-01 -7.206760644912719727e-01
2.884000000000000000e+03 5.829207897186279297e+00 8.466204643249511719e+00 4.142832185607403517e-04 -1.236995740327984095e-04 8.717508899280801415e-05 -1.046261895680800080e-04
2.885000000000000000e+03 3.820609283447265625e+01 1.832050323486328125e+01 -7.972568273544311523e-02 4.357962682843208313e-02 -1.084381714463233948e-02 2.085662074387073517e-02
2.886000000000000000e+03 1.393289470672607422e+01 -5.292620658874511719e+00 -2.510778009891510010e-01 -2.105410397052764893e-01 -1.384856551885604858e-01 -1.155503690242767334e-01
2.887000000000000000e+03 1.604868507385253906e+01 -6.494250774383544922e+00 -4.615842401981353760e-01 -4.016567468643188477e-01 -2.589722871780395508e-01 -3.220260143280029297e-01
2.888000000000000000e+03 1.254368877410888672e+01 -5.469705104827880859e+00 -2.398789823055267334e-01 -1.737648099660873413e-01 -1.240931376814842224e-01 -4.321135953068733215e-02
2.889000000000000000e+03 6.282238006591796875e+00 1.520245075225830078e+01 -1.428796804248122498e-05 -6.490231025964021683e-04 -1.989933225559070706e-04 -4.687246109824627638e-05
2.890000000000000000e+03 6.920154571533203125e+01 -9.107119560241699219e+00 -7.476779222488403320e-01 2.607146203517913818e-01 -1.460889875888824463e-01 -6.071591973304748535e-01
2.891000000000000000e+03 2.442776107788085938e+01 2.430375862121582031e+01 -8.050312101840972900e-02 -2.923412993550300598e-02 -3.292117267847061157e-02 4.560480266809463501e-02
2.892000000000000000e+03 3.779051589965820312e+01 -3.823796510696411133e+00 -2.352030754089355469e+00 6.813170909881591797e-01 -5.012140870094299316e-01 4.235142767429351807e-01
2.893000000000000000e+03 3.436450195312500000e+01 1.417976474761962891e+01 -2.326631732285022736e-02 -4.357352852821350098e-03 -8.287101052701473236e-03 2.033595740795135498e-02
2.894000000000000000e+03 6.920665740966796875e+00 1.638436317443847656e+01 -5.768566625192761421e-04 -9.521570173092186451e-04 -4.587041039485484362e-04 1.405641432938864455e-05
2.895000000000000000e+03 5.944931030273437500e+00 1.771614646911621094e+01 -2.494506188668310642e-04 -8.241515606641769409e-04 -3.220806538593024015e-04 -1.797212607925757766e-04
2.896000000000000000e+03 6.702639579772949219e+00 1.963069152832031250e+01 -2.142876852303743362e-03 -1.192641910165548325e-03 -1.000655698589980602e-03 5.084830336272716522e-04
2.897000000000000000e+03 6.114390850067138672e+00 2.189074325561523438e+01 -2.282967325299978256e-03 -1.374736428260803223e-03 -1.097311149351298809e-03 1.779312151484191418e-03
2.898000000000000000e+03 5.306178092956542969e+00 -8.231854438781738281e+00 -1.625208854675292969e-01 3.044025506824254990e-03 -4.784305766224861145e-02 -5.567140877246856689e-03
2.899000000000000000e+03 7.646090984344482422e+00 -6.627282142639160156e+00 -1.946503371000289917e-01 -3.246800228953361511e-02 -6.813549995422363281e-02 4.145523533225059509e-02
2.900000000000000000e+03 7.400920867919921875e+01 -1.040127849578857422e+01 -3.244180679321289062e-01 -2.945045940577983856e-02 -1.061605587601661682e-01 -4.243850409984588623e-01
2.901000000000000000e+03 6.117492675781250000e+01 -7.209024429321289062e+00 -7.118556499481201172e-01 1.207586407661437988e+00 1.487192362546920776e-01 6.750595569610595703e-01
2.902000000000000000e+03 6.201665496826171875e+01 -8.120488166809082031e+00 -7.772763967514038086e-01 7.708133459091186523e-01 -1.938916044309735298e-03 4.739843606948852539e-01
2.903000000000000000e+03 5.595381736755371094e+00 -6.457131385803222656e+00 -1.122171208262443542e-01 3.972082864493131638e-03 -3.247351199388504028e-02 6.179083883762359619e-02
2.904000000000000000e+03 7.086650371551513672e+00 5.357140064239501953e+00 1.050829887390136719e-04 -5.863135447725653648e-05 1.393549064232502133e-05 -6.071405005059204996e-05
2.905000000000000000e+03 7.179215240478515625e+01 -1.388932019472122192e-01 6.639979779720306396e-02 8.551101386547088623e-02 4.557324200868606567e-02 -9.037290215492248535e-01
2.906000000000000000e+03 7.330068206787109375e+01 -2.883184909820556641e+00 -7.074585556983947754e-02 -2.584326863288879395e-01 -9.875356405973434448e-02 -8.851467370986938477e-01
2.907000000000000000e+03 9.931442260742187500e+00 -1.241629981994628906e+01 -6.582200527191162109e-01 -1.892145872116088867e-01 -2.542303800582885742e-01 -4.185752272605895996e-01
2.908000000000000000e+03 2.393657875061035156e+01 -6.011123657226562500e+00 -6.286167502403259277e-01 -2.359299063682556152e-01 -2.593639791011810303e-01 -8.115167021751403809e-01
2.909000000000000000e+03 2.504400444030761719e+01 -6.326032161712646484e+00 -5.411612987518310547e-01 -2.726324796676635742e-01 -2.441381216049194336e-01 -8.340263366699218750e-01
2.910000000000000000e+03 3.642855453491210938e+01 8.651602745056152344e+00 6.334974896162748337e-04 -2.470093080773949623e-03 -5.509786424227058887e-04 -2.647202345542609692e-04
2.911000000000000000e+03 8.195098876953125000e+00 6.221099853515625000e+00 -7.493482553400099277e-05 -3.343685239087790251e-05 -3.251150337746366858e-05 -2.659685560502111912e-05
2.912000000000000000e+03 6.652353286743164062e+00 7.086677551269531250e+00 3.486791974864900112e-04 -1.309305662289261818e-04 6.532458792207762599e-05 1.078340756066609174e-05
2.913000000000000000e+03 1.387725543975830078e+01 -6.510901451110839844e+00 -3.871741294860839844e-01 -2.966576218605041504e-01 -2.051495313644409180e-01 -1.536082476377487183e-01
2.914000000000000000e+03 6.587657451629638672e+00 -9.640742301940917969e+00 -2.844458818435668945e-01 -4.607474803924560547e-02 -9.915619343519210815e-02 -1.071126982569694519e-01
2.915000000000000000e+03 6.563500213623046875e+01 8.637940406799316406e+00 7.443909049034118652e-01 3.827042341232299805e+00 1.371429920196533203e+00 1.127083599567413330e-01
2.916000000000000000e+03 3.697487640380859375e+01 1.016295528411865234e+01 -5.608462728559970856e-03 -4.326681082602590322e-04 -1.812339178286492825e-03 -1.374018029309809208e-03
2.917000000000000000e+03 3.552983856201171875e+01 1.042446517944335938e+01 -4.012298304587602615e-03 -3.359992988407611847e-03 -2.211687387898564339e-03 1.688237185589969158e-03
2.918000000000000000e+03 3.788000106811523438e+01 -8.451052665710449219e+00 -3.491301536560058594e-01 5.087177753448486328e-01 4.787628725171089172e-02 -6.938854455947875977e-01
2.919000000000000000e+03 1.281637001037597656e+01 -6.055415630340576172e+00 -3.060550987720489502e-01 -2.105767577886581421e-01 -1.549895554780960083e-01 -7.000812888145446777e-02
2.920000000000000000e+03 1.379487991333007812e+01 -7.137657165527343750e+00 -4.653498530387878418e-01 -3.341667354106903076e-01 -2.398549765348434448e-01 -1.558409184217453003e-01
2.921000000000000000e+03 6.538610839843750000e+01 4.973651841282844543e-02 2.033407241106033325e-01 1.970488548278808594e+00 6.521487832069396973e-01 -2.257828712463378906e-01
2.922000000000000000e+03 6.274012374877929688e+01 1.055626392364501953e+00 5.111372470855712891e-01 2.856615066528320312e+00 1.010325670242309570e+00 5.846911072731018066e-01
2.923000000000000000e+03 5.405065536499023438e+00 2.600642204284667969e+01 -2.614408032968640327e-03 -3.842811100184917450e-03 -1.937165739946067333e-03 5.630414001643657684e-03
2.924000000000000000e+03 3.511525344848632812e+01 1.164088153839111328e+01 -7.038806099444627762e-03 -1.777961733750998974e-03 -2.645030384883284569e-03 4.410838708281517029e-03
2.925000000000000000e+03 3.481140899658203125e+01 1.110125160217285156e+01 -8.003031834959983826e-03 -1.352462568320333958e-03 -2.806648379191756248e-03 4.083966370671987534e-03
2.926000000000000000e+03 6.115032958984375000e+01 -5.701065540313720703e+00 -4.717434644699096680e-01 1.514608025550842285e+00 3.128593564033508301e-01 6.174502372741699219e-01
2.927000000000000000e+03 6.263026714324951172e+00 1.042403411865234375e+01 5.744969166698865592e-05 -2.881679683923721313e-04 -6.921548629179596901e-05 -9.581500489730387926e-05
2.928000000000000000e+03 6.167627811431884766e+00 1.133724689483642578e+01 4.236384120304137468e-04 -2.832188620232045650e-04 4.212586281937547028e-05 -2.021067775785923004e-04
2.929000000000000000e+03 6.723931789398193359e+00 1.581322860717773438e+01 9.419555135536938906e-05 -8.870252058841288090e-04 -2.378489007242023945e-04 -5.309983971528708935e-04
2.930000000000000000e+03 7.368251037597656250e+01 -6.650153160095214844e+00 -2.229946553707122803e-01 -1.733975857496261597e-01 -1.189176738262176514e-01 -7.376571893692016602e-01
2.931000000000000000e+03 2.200770568847656250e+01 -3.745546817779541016e+00 -6.103638410568237305e-01 -9.945375472307205200e-02 -2.129452824592590332e-01 -6.203436255455017090e-01
2.932000000000000000e+03 2.229169082641601562e+01 -6.355983257293701172e+00 -6.572463512420654297e-01 -2.459744811058044434e-01 -2.709662318229675293e-01 -7.491755485534667969e-01
2.933000000000000000e+03 3.640324020385742188e+01 -3.899218320846557617e+00 -2.118241071701049805e+00 6.998584866523742676e-01 -4.255147874355316162e-01 3.885152637958526611e-01
2.934000000000000000e+03 6.715410614013671875e+01 -7.990217685699462891e+00 -7.327380180358886719e-01 3.299843668937683105e-01 -1.208260953426361084e-01 -5.887181162834167480e-01
2.935000000000000000e+03 3.946361541748046875e+01 -2.681443977355957031e+01 5.497761964797973633e-01 1.611101508140563965e+00 6.482633352279663086e-01 1.067991256713867188e+00
2.936000000000000000e+03 6.998391723632812500e+01 1.656274986267089844e+01 8.032231926918029785e-01 1.288855075836181641e+00 6.276234984397888184e-01 2.319488674402236938e-01
2.937000000000000000e+03 6.812725830078125000e+01 1.888913917541503906e+01 8.929116129875183105e-01 2.139890909194946289e+00 9.098407030105590820e-01 4.126842617988586426e-01
2.938000000000000000e+03 1.171973991394042969e+01 -9.825417518615722656e+00 -6.765345931053161621e-01 -2.697838544845581055e-01 -2.838955223560333252e-01 -1.923851817846298218e-01
2.939000000000000000e+03 1.237737846374511719e+01 -1.054066276550292969e+01 -8.368697762489318848e-01 -3.623083233833312988e-01 -3.597534298896789551e-01 -2.795140743255615234e-01
2.940000000000000000e+03 6.187163352966308594e+00 1.228942012786865234e+01 1.063550298567861319e-04 -4.345247580204159021e-04 -9.845091699389740825e-05 -1.656713866395875812e-04
2.941000000000000000e+03 7.363626098632812500e+01 -8.097615242004394531e+00 -2.954967021942138672e-01 -8.335836231708526611e-02 -1.136565208435058594e-01 -6.514816284179687500e-01
2.942000000000000000e+03 1.747692298889160156e+01 -8.190130233764648438e+00 -7.403131127357482910e-01 -5.959109663963317871e-01 -4.008672237396240234e-01 -5.475617647171020508e-01
2.943000000000000000e+03 2.242780303955078125e+01 -5.429959297180175781e+00 -6.541819572448730469e-01 -2.061452120542526245e-01 -2.580981552600860596e-01 -7.430013418197631836e-01
2.944000000000000000e+03 5.372617721557617188e+00 2.466498947143554688e+01 -3.271247725933790207e-03 -2.833784325048327446e-03 -1.831509638577699661e-03 4.005581606179475784e-03
2.945000000000000000e+03 3.977106094360351562e+01 -1.197777652740478516e+01 7.739909291267395020e-01 4.556468129158020020e-01 3.688913285732269287e-01 -1.340717434883117676e+00
2.946000000000000000e+03 3.853085327148437500e+01 -9.899922370910644531e+00 2.374283373355865479e-01 4.013667702674865723e-01 1.916385293006896973e-01 -1.042404294013977051e+00
2.947000000000000000e+03 7.197810363769531250e+01 -2.332418060302734375e+01 -4.814190790057182312e-03 -1.125819864682853222e-03 -1.782003208063542843e-03 -8.211614913307130337e-04
2.948000000000000000e+03 3.904853439331054688e+01 -8.796016693115234375e+00 -3.881100714206695557e-01 3.946441411972045898e-01 1.960220513865351677e-03 -7.850317358970642090e-01
2.949000000000000000e+03 3.910175323486328125e+01 -6.998362541198730469e+00 -1.339090704917907715e+00 4.432976841926574707e-01 -2.687379121780395508e-01 -3.941486477851867676e-01
2.950000000000000000e+03 8.830493927001953125e+00 -1.289776039123535156e+01 -5.307328701019287109e-01 -1.578060537576675415e-01 -2.065616697072982788e-01 -4.391652941703796387e-01
2.951000000000000000e+03 8.275903701782226562e+00 -1.448909759521484375e+01 -4.317081272602081299e-01 -1.992707699537277222e-01 -1.892936676740646362e-01 -5.838854908943176270e-01
2.952000000000000000e+03 4.081437683105468750e+01 -1.293067932128906250e+01 1.043738722801208496e+00 8.759093880653381348e-01 5.758944153785705566e-01 -1.239591240882873535e+00
2.953000000000000000e+03 4.300180435180664062e+01 -1.356747531890869141e+01 1.639715671539306641e+00 1.684495329856872559e+00 9.972633123397827148e-01 -5.394152998924255371e-01
2.954000000000000000e+03 7.434786987304687500e+01 -2.436768341064453125e+01 -2.181701594963669777e-03 4.907557158730924129e-04 -5.072837811894714832e-04 2.172644948586821556e-03
2.955000000000000000e+03 6.903680419921875000e+01 1.242593002319335938e+01 7.638884186744689941e-01 1.994715452194213867e+00 8.275811672210693359e-01 -1.333718150854110718e-01
2.956000000000000000e+03 1.469306278228759766e+01 -8.603853225708007812e+00 -6.896711587905883789e-01 -5.187818408012390137e-01 -3.625358939170837402e-01 -2.815481126308441162e-01
2.957000000000000000e+03 1.572130489349365234e+01 -7.221222400665283203e+00 -5.323241949081420898e-01 -4.370692372322082520e-01 -2.908180356025695801e-01 -3.143268227577209473e-01
2.958000000000000000e+03 8.849486351013183594e+00 3.514093399047851562e+01 5.010016728192567825e-03 -1.663492061197757721e-02 -3.487471258267760277e-03 1.272915769368410110e-02
2.959000000000000000e+03 3.846915054321289062e+01 -1.746198463439941406e+01 8.491593599319458008e-01 6.764658093452453613e-01 4.576875567436218262e-01 -3.938538134098052979e-01
2.960000000000000000e+03 7.668980407714843750e+01 2.074122047424316406e+01 8.859152346849441528e-02 -2.086147069931030273e+00 -5.992666482925415039e-01 4.530667960643768311e-01
2.961000000000000000e+03 7.416603565216064453e+00 1.929434394836425781e+01 -1.845351769588887691e-03 -1.128163537941873074e-03 -8.920545806176960468e-04 3.468566574156284332e-04
2.962000000000000000e+03 7.135289764404296875e+01 -3.472033309936523438e+01 -6.707413122057914734e-04 -5.758238956332206726e-03 -1.928694080561399460e-03 2.426267601549625397e-02
2.963000000000000000e+03 4.298320007324218750e+01 -1.212777996063232422e+01 8.723437190055847168e-01 1.335915684700012207e+00 6.624777913093566895e-01 -5.902228951454162598e-01
2.964000000000000000e+03 4.548332977294921875e+01 -1.112313938140869141e+01 2.279733717441558838e-01 1.372882008552551270e+00 4.802566170692443848e-01 2.015232443809509277e-01
2.965000000000000000e+03 4.205754470825195312e+01 -1.188155937194824219e+01 7.108471393585205078e-01 9.088478684425354004e-01 4.859085083007812500e-01 -9.917685985565185547e-01
2.966000000000000000e+03 7.276886749267578125e+01 1.694146728515625000e+01 4.706336259841918945e-01 -2.633431553840637207e-01 6.218713894486427307e-02 3.398561179637908936e-01
2.967000000000000000e+03 7.290666961669921875e+01 1.564353942871093750e+01 4.838472604751586914e-01 -3.534263670444488525e-01 3.912626951932907104e-02 2.117795944213867188e-01
2.968000000000000000e+03 6.283559799194335938e+01 -7.279411792755126953e+00 -6.759873032569885254e-01 8.485825061798095703e-01 5.177856236696243286e-02 2.860500216484069824e-01
2.969000000000000000e+03 1.006829261779785156e+01 -1.724474716186523438e+01 -2.354231774806976318e-01 -3.168627619743347168e-01 -1.656857877969741821e-01 -8.450365662574768066e-01
2.970000000000000000e+03 3.812496566772460938e+01 -7.436133384704589844e+00 -9.587482810020446777e-01 5.433120727539062500e-01 -1.246308609843254089e-01 -4.588708281517028809e-01
2.971000000000000000e+03 3.770129013061523438e+01 -5.491128921508789062e+00 -1.813994288444519043e+00 6.645490527153015137e-01 -3.448335826396942139e-01 6.924504041671752930e-02
2.972000000000000000e+03 6.573655700683593750e+01 6.558230876922607422e+00 7.210375070571899414e-01 3.332698345184326172e+00 1.216120719909667969e+00 6.182621419429779053e-02
2.973000000000000000e+03 4.086540603637695312e+01 -1.384414863586425781e+01 1.371953487396240234e+00 1.130409836769104004e+00 7.507089972496032715e-01 -9.946398735046386719e-01
2.974000000000000000e+03 7.289319610595703125e+01 4.891645431518554688e+00 2.810589075088500977e-01 -3.130871057510375977e-01 -9.608458727598190308e-03 -7.233911752700805664e-01
2.975000000000000000e+03 6.209561157226562500e+01 -1.570793986320495605e+00 2.255128324031829834e-01 2.158702373504638672e+00 7.152645587921142578e-01 4.813738763332366943e-01
2.976000000000000000e+03 7.102963256835937500e+01 -2.320553588867187500e+01 -2.511749742552638054e-03 1.511259935796260834e-03 -3.001469303853809834e-04 -6.067872745916247368e-04
2.977000000000000000e+03 9.157232284545898438e+00 -2.482002830505371094e+01 3.802064657211303711e-01 -5.066999197006225586e-01 -3.794803097844123840e-02 -4.883539080619812012e-01
2.978000000000000000e+03 4.235399627685546875e+01 2.388632392883300781e+01 -1.740846084430813789e-03 7.906042784452438354e-02 2.319587394595146179e-02 -6.756793591193854809e-04
2.979000000000000000e+03 3.538270473480224609e+00 -2.506579017639160156e+01 8.203631639480590820e-02 -1.066689372062683105e+00 -2.953959405422210693e-01 -2.970320582389831543e-01
2.980000000000000000e+03 7.334197998046875000e+01 -4.055980682373046875e+00 -1.449941992759704590e-01 -2.278199195861816406e-01 -1.118442341685295105e-01 -8.516061305999755859e-01
2.981000000000000000e+03 7.175477600097656250e+01 1.449561405181884766e+01 5.967905521392822266e-01 2.895641028881072998e-01 2.659063935279846191e-01 8.764809370040893555e-02
2.982000000000000000e+03 7.282573699951171875e+01 1.321016120910644531e+01 4.804902076721191406e-01 -2.851181328296661377e-01 5.861162766814231873e-02 -3.576830402016639709e-02
2.983000000000000000e+03 6.525849342346191406e+00 2.446194076538085938e+01 -3.534100484102964401e-03 -2.635562792420387268e-03 -1.850898959673941135e-03 4.660506267100572586e-03
2.984000000000000000e+03 6.807742309570312500e+01 2.572489547729492188e+01 -1.141018792986869812e-01 1.608269214630126953e+00 4.482502043247222900e-01 6.863499879837036133e-01
2.985000000000000000e+03 6.815961456298828125e+01 2.190855598449707031e+01 5.135619640350341797e-01 1.923014283180236816e+00 7.309728860855102539e-01 6.630134582519531250e-01
2.986000000000000000e+03 3.980014801025390625e+01 2.041999816894531250e+01 -7.814139872789382935e-02 5.501170083880424500e-02 -6.938908249139785767e-03 2.651311457157135010e-02
2.987000000000000000e+03 5.840880966186523438e+01 2.829547119140625000e+01 -4.746992141008377075e-02 1.517099261283874512e+00 4.408888220787048340e-01 -8.118793368339538574e-01
2.988000000000000000e+03 5.550362396240234375e+01 -8.550636291503906250e+00 -1.025669693946838379e+00 1.625597238540649414e+00 1.799782514572143555e-01 1.910472512245178223e+00
2.989000000000000000e+03 7.050159454345703125e+01 -3.274378967285156250e+01 -7.381607778370380402e-03 -1.476181205362081528e-03 -2.657336648553609848e-03 2.102227136492729187e-02
2.990000000000000000e+03 6.912332153320312500e+01 -3.043982315063476562e+01 -2.479600906372070312e-02 7.302593905478715897e-03 -5.248024594038724899e-03 1.775763370096683502e-02
2.991000000000000000e+03 2.791040229797363281e+01 -3.209655523300170898e+00 -1.410310268402099609e+00 -4.666000604629516602e-02 -4.370910823345184326e-01 -7.979694008827209473e-01
2.992000000000000000e+03 2.738552284240722656e+01 -3.343756198883056641e+00 -1.286867856979370117e+00 -9.510664641857147217e-02 -4.145923554897308350e-01 -8.311905860900878906e-01
2.993000000000000000e+03 2.893645286560058594e+01 -2.870574474334716797e+00 -1.752818107604980469e+00 1.168022453784942627e-01 -4.908047616481781006e-01 -6.836938858032226562e-01
2.994000000000000000e+03 3.491012573242187500e+01 1.524489593505859375e+01 -3.777833282947540283e-02 1.149766379967331886e-03 -1.098857074975967407e-02 2.597901783883571625e-02
2.995000000000000000e+03 3.400760650634765625e+01 1.699508094787597656e+01 -5.305494368076324463e-02 -4.504860378801822662e-03 -1.726794056594371796e-02 4.210526496171951294e-02
2.996000000000000000e+03 1.601955604553222656e+01 5.895803928375244141e+00 -2.986996378240291961e-06 8.985716704046353698e-05 2.606105044833384454e-05 6.545763608301058412e-05
2.997000000000000000e+03 1.720045661926269531e+01 5.681257724761962891e+00 -6.847172335255891085e-05 -2.126757499354425818e-05 -2.692178895813412964e-05 -5.776092166343005374e-06
2.998000000000000000e+03 3.567934036254882812e+01 9.919002532958984375e+00 -4.419861827045679092e-03 -2.936182427220046520e-04 -1.414044061675667763e-03 2.182614844059571624e-04
2.999000000000000000e+03 3.454330062866210938e+01 1.563697624206542969e+01 -3.898048773407936096e-02 -1.878741430118680000e-03 -1.225776877254247665e-02 3.092782199382781982e-02
3.000000000000000000e+03 3.065371322631835938e+01 -3.095336914062500000e+00 -1.989973187446594238e+00 3.184538483619689941e-01 -5.014557838439941406e-01 -6.176515817642211914e-01
3.001000000000000000e+03 1.455994701385498047e+01 8.953783988952636719e+00 8.883349801180884242e-05 1.403435890097171068e-04 6.875312828924506903e-05 8.033892663661390543e-05
3.002000000000000000e+03 1.493639945983886719e+01 6.772205352783203125e+00 -6.689749716315418482e-05 1.945886288012843579e-05 -1.423159119440242648e-05 -7.600052413181401789e-06
3.003000000000000000e+03 2.836355209350585938e+01 -5.645544528961181641e+00 -4.918104112148284912e-01 1.156311631202697754e-01 -1.128537729382514954e-01 -1.048070669174194336e+00
3.004000000000000000e+03 3.473553085327148438e+01 1.488945102691650391e+01 -3.524595499038696289e-02 -9.644075762480497360e-04 -1.086310856044292450e-02 2.562469430267810822e-02
3.005000000000000000e+03 3.482153320312500000e+01 9.998273849487304688e+00 -1.002696808427572250e-03 -2.871154574677348137e-04 -3.869436914101243019e-04 -6.063036853447556496e-04
3.006000000000000000e+03 1.176441001892089844e+01 1.452989673614501953e+01 1.899579074233770370e-04 -1.743209140840917826e-04 4.691096819442464039e-06 5.222803447395563126e-04
3.007000000000000000e+03 1.389035320281982422e+01 8.935649871826171875e+00 1.152068871306255460e-04 1.288665516767650843e-04 7.322203600779175758e-05 8.989685011329129338e-05
3.008000000000000000e+03 3.582631683349609375e+01 1.409136962890625000e+01 -3.162809833884239197e-02 3.472789190709590912e-03 -8.446592837572097778e-03 1.687628775835037231e-02
3.009000000000000000e+03 1.180940246582031250e+01 1.519898319244384766e+01 1.747774804243817925e-04 -2.332370349904522300e-04 -1.753786818881053478e-05 4.348838119767606258e-04
3.010000000000000000e+03 1.877103233337402344e+01 2.494655418395996094e+01 -4.353334754705429077e-02 -5.882231984287500381e-03 -1.482467353343963623e-02 2.599619328975677490e-02
3.011000000000000000e+03 1.258777523040771484e+01 1.747810363769531250e+01 1.117039500968530774e-04 -1.705750764813274145e-04 -1.766134118952322751e-05 3.841550205834209919e-04
3.012000000000000000e+03 1.122425460815429688e+01 1.794969749450683594e+01 -1.449994975700974464e-03 -1.002937438897788525e-03 -7.358797010965645313e-04 1.986057905014604330e-04
3.013000000000000000e+03 1.595702552795410156e+01 5.499534606933593750e+00 7.135236228350549936e-05 6.463907629949972034e-05 4.079743303009308875e-05 -7.010058311607281212e-07
3.014000000000000000e+03 3.401845169067382812e+01 1.749790000915527344e+01 -6.573729962110519409e-02 1.881757401861250401e-03 -1.915666274726390839e-02 4.403116926550865173e-02
3.015000000000000000e+03 3.341921615600585938e+01 1.697080230712890625e+01 -5.422874540090560913e-02 -1.019032858312129974e-02 -1.932572200894355774e-02 4.359737411141395569e-02
3.016000000000000000e+03 1.705469322204589844e+01 6.025426864624023438e+00 9.801013948163017631e-05 2.593117824289947748e-05 3.718239531735889614e-05 2.688156928343232721e-05
3.017000000000000000e+03 3.009498596191406250e+01 -3.311233758926391602e+00 -1.775760769844055176e+00 2.818841636180877686e-01 -4.481629729270935059e-01 -6.751268506050109863e-01
3.018000000000000000e+03 1.402209758758544922e+01 1.034575462341308594e+01 -8.088600588962435722e-05 2.225970529252663255e-04 4.251331120030954480e-05 1.057744884747080505e-04
3.019000000000000000e+03 1.260169601440429688e+01 1.332281112670898438e+01 2.077298704534769058e-04 2.000953099923208356e-04 1.223475555889308453e-04 4.942103987559676170e-04
3.020000000000000000e+03 1.221970367431640625e+01 1.240972232818603516e+01 2.574131649453192949e-04 1.133754267357289791e-04 1.112365716835483909e-04 4.481534997466951609e-04
3.021000000000000000e+03 3.505361175537109375e+01 1.412619495391845703e+01 -2.988955751061439514e-02 8.895422797650098801e-04 -8.700004778802394867e-03 1.912491582334041595e-02
3.022000000000000000e+03 3.653085327148437500e+01 1.298493003845214844e+01 -2.482859231531620026e-02 5.816153250634670258e-03 -5.703731440007686615e-03 8.106469176709651947e-03
3.023000000000000000e+03 3.405006790161132812e+01 1.197299480438232422e+01 -6.588756572455167770e-03 -2.313619712367653847e-03 -2.670713001862168312e-03 6.701828446239233017e-03
3.024000000000000000e+03 3.530613327026367188e+01 1.221907234191894531e+01 -1.644983701407909393e-02 3.924303382518701255e-05 -4.923178348690271378e-03 7.086041849106550217e-03
3.025000000000000000e+03 1.356369495391845703e+01 1.122528743743896484e+01 1.392427202517865226e-05 2.639974409248679876e-04 8.337651524925604463e-05 2.951857750304043293e-04
3.026000000000000000e+03 3.423197555541992188e+01 1.838253021240234375e+01 -7.656216621398925781e-02 1.025336980819702148e-02 -1.989263854920864105e-02 4.460764676332473755e-02
3.027000000000000000e+03 1.222820663452148438e+01 1.357022380828857422e+01 2.340797946089878678e-04 1.318697759415954351e-04 1.097848726203665137e-04 5.660960450768470764e-04
3.028000000000000000e+03 3.331901931762695312e+01 1.897781944274902344e+01 -8.437301218509674072e-02 -2.024475717917084694e-03 -2.591924741864204407e-02 5.050477385520935059e-02
3.029000000000000000e+03 3.294800567626953125e+01 1.980090332031250000e+01 -9.235979616641998291e-02 -3.478510305285453796e-03 -2.875149250030517578e-02 4.841535165905952454e-02
3.030000000000000000e+03 1.142989063262939453e+01 1.552671051025390625e+01 2.135035319952294230e-04 -3.912418906111270189e-04 -5.332150612957775593e-05 6.839286652393639088e-04
3.031000000000000000e+03 2.465365791320800781e+01 2.497053337097167969e+01 -6.786998361349105835e-02 -3.350111097097396851e-02 -3.041132912039756775e-02 4.638152942061424255e-02
3.032000000000000000e+03 1.577385997772216797e+01 2.373092079162597656e+01 -3.054769895970821381e-02 2.194291446357965469e-03 -8.506022393703460693e-03 1.109837554395198822e-02
3.033000000000000000e+03 1.668688774108886719e+01 2.459534263610839844e+01 -3.245355933904647827e-02 -5.142780137248337269e-04 -9.890351444482803345e-03 1.739749498665332794e-02
3.034000000000000000e+03 1.322343254089355469e+01 1.181900215148925781e+01 -5.980647256365045905e-05 2.768007980193942785e-04 6.509829836431890726e-05 2.886647416744381189e-04
3.035000000000000000e+03 1.309110927581787109e+01 1.137057590484619141e+01 5.649322702083736658e-05 3.032596723642200232e-04 1.079258654499426484e-04 2.593662647996097803e-04
3.036000000000000000e+03 2.118978309631347656e+01 2.503526306152343750e+01 -5.562590062618255615e-02 -1.773547753691673279e-02 -2.200841344892978668e-02 3.579770028591156006e-02
3.037000000000000000e+03 1.245459842681884766e+01 1.926551818847656250e+01 -3.260388737544417381e-03 -4.008959222119301558e-04 -1.098385313525795937e-03 -7.567696156911551952e-04
3.038000000000000000e+03 1.210599517822265625e+01 1.428424549102783203e+01 2.434554917272180319e-04 -7.585223647765815258e-05 5.028097439208067954e-05 6.244511459954082966e-04
3.039000000000000000e+03 1.180616664886474609e+01 1.383755207061767578e+01 2.221035247202962637e-04 -7.955020555527880788e-05 4.276599429431371391e-05 4.897417384199798107e-04
3.040000000000000000e+03 1.142484855651855469e+01 1.482205104827880859e+01 2.793142630252987146e-04 -2.760091738309711218e-04 9.915318059938726947e-07 6.193997105583548546e-04
3.041000000000000000e+03 9.539494514465332031e+00 7.058810234069824219e+00 -5.478981256601400673e-05 -4.271944635547697544e-05 -2.925277840404305607e-05 3.239456418668851256e-05
3.042000000000000000e+03 1.191918563842773438e+01 5.695665359497070312e+00 8.370268915314227343e-05 1.901812720461748540e-05 3.081624527112580836e-05 4.447055061973514967e-07
3.043000000000000000e+03 3.678781890869140625e+01 7.064618587493896484e+00 -1.091171521693468094e-03 -1.925710821524262428e-03 -9.050646913237869740e-04 3.580512129701673985e-04
3.044000000000000000e+03 2.789655303955078125e+01 -4.911354541778564453e+00 -7.854058146476745605e-01 2.567433752119541168e-02 -2.279194444417953491e-01 -1.015785336494445801e+00
3.045000000000000000e+03 1.608141708374023438e+01 7.671203613281250000e+00 7.994249608600512147e-05 9.239269274985417724e-05 5.170055737835355103e-05 4.893431469099596143e-05
3.046000000000000000e+03 1.326364135742187500e+01 1.077984809875488281e+01 -4.192425694782286882e-05 2.405320119578391314e-04 5.958232577540911734e-05 1.435938465874642134e-04
3.047000000000000000e+03 3.107326316833496094e+01 -3.053995847702026367e+00 -2.004965066909790039e+00 3.183197975158691406e-01 -5.059936046600341797e-01 -5.589203834533691406e-01
3.048000000000000000e+03 3.174502372741699219e+01 -4.455296516418457031e+00 -1.325091242790222168e+00 5.046287775039672852e-01 -2.461387366056442261e-01 -5.407694578170776367e-01
3.049000000000000000e+03 2.169018363952636719e+01 2.532125282287597656e+01 -5.641033872961997986e-02 -2.074765600264072418e-02 -2.314739860594272614e-02 3.880608081817626953e-02
3.050000000000000000e+03 2.949028015136718750e+01 2.431410217285156250e+01 -6.437715142965316772e-02 -4.479361698031425476e-02 -3.275122866034507751e-02 3.605243563652038574e-02
3.051000000000000000e+03 2.748274612426757812e+01 2.416658401489257812e+01 -7.712139189243316650e-02 -5.003509670495986938e-02 -3.814694657921791077e-02 4.846191406250000000e-02
3.052000000000000000e+03 3.172960281372070312e+01 -3.832228183746337891e+00 -1.685740232467651367e+00 3.308980762958526611e-01 -4.064526557922363281e-01 -5.330405235290527344e-01
3.053000000000000000e+03 2.707313919067382812e+01 2.560600852966308594e+01 -5.191608518362045288e-02 -4.295383393764495850e-02 -2.846097573637962341e-02 4.195507615804672241e-02
3.054000000000000000e+03 1.817010498046875000e+01 2.490285873413085938e+01 -4.090451821684837341e-02 -4.767403472214937210e-03 -1.370157673954963684e-02 2.334499172866344452e-02
3.055000000000000000e+03 2.086096382141113281e+01 2.553317260742187500e+01 -4.888563603162765503e-02 -1.746024005115032196e-02 -1.990376226603984833e-02 3.651173785328865051e-02
3.056000000000000000e+03 2.199897384643554688e+01 2.490496253967285156e+01 -6.156483665108680725e-02 -2.235103026032447815e-02 -2.517476119101047516e-02 3.786960616707801819e-02
3.057000000000000000e+03 1.347835063934326172e+01 2.199226570129394531e+01 -1.380078308284282684e-02 2.012591343373060226e-03 -3.536457428708672523e-03 2.123073907569050789e-03
3.058000000000000000e+03 1.988880348205566406e+01 2.620077133178710938e+01 -3.654040396213531494e-02 -1.505392976105213165e-02 -1.547829993069171906e-02 3.535478189587593079e-02
3.059000000000000000e+03 1.874822807312011719e+01 2.556662368774414062e+01 -4.089712724089622498e-02 -7.208324037492275238e-03 -1.443163491785526276e-02 2.817275375127792358e-02
3.060000000000000000e+03 9.929892539978027344e+00 -6.534285068511962891e+00 -2.704758048057556152e-01 -9.689047187566757202e-02 -1.102098822593688965e-01 1.498333923518657684e-02
3.061000000000000000e+03 8.409073829650878906e+00 -6.275189876556396484e+00 -1.958489567041397095e-01 -5.003131553530693054e-02 -7.376407831907272339e-02 4.745813086628913879e-02
3.062000000000000000e+03 3.170709991455078125e+01 2.248650360107421875e+01 -8.905012160539627075e-02 -1.634702645242214203e-02 -3.161914646625518799e-02 3.007698804140090942e-02
3.063000000000000000e+03 3.123166847229003906e+01 2.181958198547363281e+01 -1.029629334807395935e-01 -2.923764102160930634e-02 -3.966017067432403564e-02 3.704064711928367615e-02
3.064000000000000000e+03 2.309590911865234375e+01 2.634803009033203125e+01 -4.271043092012405396e-02 -2.975150570273399353e-02 -2.173858135938644409e-02 4.211207851767539978e-02
3.065000000000000000e+03 2.141843986511230469e+01 2.600852966308593750e+01 -4.257370531558990479e-02 -2.119577676057815552e-02 -1.913084462285041809e-02 3.844889998435974121e-02
3.066000000000000000e+03 1.417044544219970703e+01 2.314343833923339844e+01 -2.197011373937129974e-02 2.421166282147169113e-03 -5.864684004336595535e-03 6.456900853663682938e-03
3.067000000000000000e+03 1.484225845336914062e+01 2.288138389587402344e+01 -2.232274413108825684e-02 3.144102171063423157e-03 -5.753592588007450104e-03 5.153880454599857330e-03
3.068000000000000000e+03 2.919009971618652344e+01 -5.449897766113281250e+00 -6.228466033935546875e-01 2.939632534980773926e-01 -9.866501390933990479e-02 -9.919392466545104980e-01
3.069000000000000000e+03 1.338954830169677734e+01 2.259767341613769531e+01 -1.743881963193416595e-02 2.112451009452342987e-03 -4.597910679876804352e-03 3.759239334613084793e-03
3.070000000000000000e+03 2.607296752929687500e+01 -4.686412334442138672e+00 -7.724348306655883789e-01 -1.929743438959121704e-01 -2.896227538585662842e-01 -9.619022607803344727e-01
3.071000000000000000e+03 1.329492282867431641e+01 5.473804473876953125e+00 3.526671207509934902e-05 6.659531936747953296e-05 3.055861088796518743e-05 6.513240350614069030e-06
3.072000000000000000e+03 1.395462894439697266e+01 4.872373580932617188e+00 3.777062011067755520e-05 5.838845027028582990e-05 2.884772038669325411e-05 8.986585271486546844e-06
3.073000000000000000e+03 1.528807067871093750e+01 7.100286483764648438e+00 6.493832916021347046e-05 1.036300309351645410e-04 5.057051021140068769e-05 7.255576201714575291e-05
3.074000000000000000e+03 1.594823837280273438e+01 6.480491161346435547e+00 5.132796650286763906e-05 8.239426097134128213e-05 4.011666896985843778e-05 6.439369462896138430e-05
3.075000000000000000e+03 3.440716552734375000e+01 -4.718123912811279297e+00 -1.489397883415222168e+00 6.074827909469604492e-01 -2.645745277404785156e-01 8.753224462270736694e-02
3.076000000000000000e+03 2.624577713012695312e+01 -5.681584358215332031e+00 -5.381243228912353516e-01 -2.371975183486938477e-01 -2.325965464115142822e-01 -9.616023898124694824e-01
3.077000000000000000e+03 1.272186183929443359e+01 6.173414230346679688e+00 3.146680683130398393e-05 5.036333459429442883e-05 2.454904279147740453e-05 -1.930568771513208048e-08
3.078000000000000000e+03 1.267251300811767578e+01 -8.627507209777832031e+00 -6.170583367347717285e-01 -3.393978178501129150e-01 -2.869368493556976318e-01 -1.526806205511093140e-01
3.079000000000000000e+03 1.281756401062011719e+01 -7.685693264007568359e+00 -4.938136637210845947e-01 -2.958181798458099365e-01 -2.368895560503005981e-01 -1.207227483391761780e-01
3.080000000000000000e+03 8.869650840759277344e+00 6.630058765411376953e+00 3.237962955608963966e-04 -1.289908395847305655e-04 5.844164115842431784e-05 4.816258660866878927e-05
3.081000000000000000e+03 2.912545776367187500e+01 2.515321540832519531e+01 -4.550832509994506836e-02 -3.847553580999374390e-02 -2.519515715539455414e-02 3.405107185244560242e-02
3.082000000000000000e+03 1.248092269897460938e+01 2.004030227661132812e+01 -5.917341448366641998e-03 3.476334386505186558e-04 -1.670912490226328373e-03 -6.570483092218637466e-04
3.083000000000000000e+03 2.779089164733886719e+01 2.534754371643066406e+01 -4.839836806058883667e-02 -4.500518366694450378e-02 -2.802106551826000214e-02 4.008666798472404480e-02
3.084000000000000000e+03 9.955644607543945312e+00 6.407179355621337891e+00 2.380609657848253846e-04 -3.437116538407281041e-05 6.110694084782153368e-05 6.700592348352074623e-05
3.085000000000000000e+03 1.460177516937255859e+01 -5.998637199401855469e+00 -3.469692468643188477e-01 -2.950745224952697754e-01 -1.926131248474121094e-01 -1.812267452478408813e-01
3.086000000000000000e+03 1.655690193176269531e+01 -7.693793773651123047e+00 -6.316452622413635254e-01 -5.487180948257446289e-01 -3.541090190410614014e-01 -4.116735756397247314e-01
3.087000000000000000e+03 2.367066955566406250e+01 -5.403628349304199219e+00 -6.673871278762817383e-01 -2.100145518779754639e-01 -2.632204890251159668e-01 -8.266400098800659180e-01
3.088000000000000000e+03 2.332762527465820312e+01 -5.013078689575195312e+00 -6.862694621086120605e-01 -1.742845922708511353e-01 -2.581662237644195557e-01 -7.873119711875915527e-01
3.089000000000000000e+03 2.310342216491699219e+01 -5.568082809448242188e+00 -6.427159309387207031e-01 -2.166011333465576172e-01 -2.577951252460479736e-01 -7.883992195129394531e-01
3.090000000000000000e+03 3.255646896362304688e+01 1.869893264770507812e+01 -8.038518577814102173e-02 -1.804312877357006073e-02 -2.952849306166172028e-02 5.320614948868751526e-02
3.091000000000000000e+03 3.292160034179687500e+01 1.849485397338867188e+01 -7.228135317564010620e-02 -1.306761149317026138e-02 -2.560468949377536774e-02 4.929857328534126282e-02
3.092000000000000000e+03 3.347620010375976562e+01 2.124570274353027344e+01 -9.188738465309143066e-02 1.158592104911804199e-02 -2.409043908119201660e-02 3.708632290363311768e-02
3.093000000000000000e+03 3.195004653930664062e+01 2.091215705871582031e+01 -1.000396311283111572e-01 -1.876136101782321930e-02 -3.564029932022094727e-02 4.546646028757095337e-02
3.094000000000000000e+03 3.005321121215820312e+01 2.375946235656738281e+01 -6.834450364112854004e-02 -4.133635386824607849e-02 -3.290425613522529602e-02 3.180503845214843750e-02
3.095000000000000000e+03 1.652898025512695312e+01 2.384856033325195312e+01 -3.390531986951828003e-02 3.634363820310682058e-04 -1.006256509572267532e-02 1.287271827459335327e-02
3.096000000000000000e+03 1.187058830261230469e+01 1.925732612609863281e+01 -2.487192861735820770e-03 -4.492170119192451239e-04 -8.809229475446045399e-04 -3.755735524464398623e-04
3.097000000000000000e+03 1.245704746246337891e+01 1.859435081481933594e+01 -8.764678495936095715e-04 -2.446192374918609858e-04 -3.363261348567903042e-04 -2.036424702964723110e-04
3.098000000000000000e+03 1.938843536376953125e+01 -5.222740173339843750e+00 -4.850334823131561279e-01 -2.619405984878540039e-01 -2.240922302007675171e-01 -5.474120378494262695e-01
3.099000000000000000e+03 7.957448482513427734e+00 1.223384380340576172e+01 1.622109848540276289e-04 -5.702731432393193245e-04 -1.224186562467366457e-04 2.837580905179493129e-05
3.100000000000000000e+03 6.622883796691894531e+00 1.409535312652587891e+01 2.816488813550677150e-05 -5.967800971120595932e-04 -1.705845643300563097e-04 -9.997878805734217167e-05
3.101000000000000000e+03 2.595796966552734375e+01 2.456505775451660156e+01 -7.640095800161361694e-02 -3.932781890034675598e-02 -3.471863269805908203e-02 4.850520193576812744e-02
3.102000000000000000e+03 7.073592376708984375e+01 -9.080927848815917969e+00 -6.144842505455017090e-01 1.946095973253250122e-01 -1.259623914957046509e-01 -6.225644350051879883e-01
3.103000000000000000e+03 1.714589500427246094e+01 -6.045645236968994141e+00 -4.513562619686126709e-01 -3.689684569835662842e-01 -2.460974305868148804e-01 -4.125572443008422852e-01
3.104000000000000000e+03 3.451006317138671875e+01 -6.588605880737304688e+00 -5.721120238304138184e-01 8.933115601539611816e-01 9.635986387729644775e-02 -2.352046072483062744e-01
3.105000000000000000e+03 3.705793380737304688e+01 1.370744705200195312e+01 -3.792596980929374695e-02 7.340700831264257431e-03 -9.175580926239490509e-03 9.909879416227340698e-03
3.106000000000000000e+03 6.094407558441162109e+00 -7.871132850646972656e+00 -1.839406341314315796e-01 -1.523918285965919495e-02 -5.975394695997238159e-02 2.609262242913246155e-03
3.107000000000000000e+03 2.550205612182617188e+01 2.550091743469238281e+01 -5.396858975291252136e-02 -3.756986558437347412e-02 -2.746153622865676880e-02 4.718426614999771118e-02
3.108000000000000000e+03 6.225165843963623047e+00 7.750002384185791016e+00 -9.110448445426300168e-05 -6.735278293490409851e-05 -4.753717803396284580e-05 -1.016372771118767560e-04
3.109000000000000000e+03 6.913139343261718750e+00 1.793764305114746094e+01 -1.228826236911118031e-03 -1.161066466011106968e-03 -7.169677992351353168e-04 3.740985994227230549e-05
3.110000000000000000e+03 4.406357574462890625e+01 -8.688241958618164062e+00 -1.380326986312866211e+00 3.398787081241607666e-01 -3.121344745159149170e-01 -1.348402202129364014e-01
3.111000000000000000e+03 8.755230903625488281e+00 1.043140411376953125e+01 1.994264021050184965e-04 -2.846058923751115799e-04 -2.555384890001732856e-05 8.282796625280752778e-05
3.112000000000000000e+03 1.465321063995361328e+01 5.374721527099609375e+00 1.908592639665585011e-05 7.988893048604950309e-05 2.969245724671054631e-05 1.233062084793346003e-05
3.113000000000000000e+03 1.400170040130615234e+01 6.299163341522216797e+00 3.053195905522443354e-05 5.242940824246034026e-05 2.488841164449695498e-05 1.103927861549891531e-04
3.114000000000000000e+03 7.836022377014160156e+00 2.657903289794921875e+01 -4.706241656094789505e-03 -4.355296492576599121e-03 -2.718461444601416588e-03 8.627117611467838287e-03
3.115000000000000000e+03 7.305718421936035156e+00 2.789701461791992188e+01 -3.830395638942718506e-03 -5.734546110033988953e-03 -2.869482384994626045e-03 9.693532250821590424e-03
3.116000000000000000e+03 1.824382591247558594e+01 2.421775627136230469e+01 -4.411046206951141357e-02 -2.186743775382637978e-03 -1.388916186988353729e-02 1.891329698264598846e-02
3.117000000000000000e+03 1.688341903686523438e+01 2.538467788696289062e+01 -3.167209401726722717e-02 -3.995206672698259354e-03 -1.070019043982028961e-02 2.240714803338050842e-02
3.118000000000000000e+03 3.666968154907226562e+01 1.089001178741455078e+01 -9.802506305277347565e-03 -1.385647105053067207e-03 -3.356446046382188797e-03 2.606074325740337372e-03
3.119000000000000000e+03 3.812188720703125000e+01 1.517042255401611328e+01 -5.828913673758506775e-02 2.302590757608413696e-02 -1.057896949350833893e-02 9.688720107078552246e-03
3.120000000000000000e+03 3.618446731567382812e+01 1.496051597595214844e+01 -4.671527445316314697e-02 8.903794921934604645e-03 -1.134344376623630524e-02 2.181320823729038239e-02
3.121000000000000000e+03 7.513411521911621094e+00 5.848346233367919922e+00 2.916001249104738235e-04 -9.969600068870931864e-05 5.757124017691239715e-05 3.316578658996149898e-05
3.122000000000000000e+03 7.772655963897705078e+00 6.834778785705566406e+00 3.461884916760027409e-04 -1.447786489734426141e-04 6.042294990038499236e-05 3.517531513352878392e-05
3.123000000000000000e+03 1.327444362640380859e+01 -6.387434959411621094e+00 -3.502586781978607178e-01 -2.531702816486358643e-01 -1.810286939144134521e-01 -1.047698408365249634e-01
3.124000000000000000e+03 8.435086250305175781e+00 7.211994171142578125e+00 -8.176670962711796165e-05 -3.871083390549756587e-05 -3.614326487877406180e-05 -1.035208879329729825e-05
3.125000000000000000e+03 7.371968269348144531e+00 7.463892459869384766e+00 -7.666969759156927466e-05 -6.489655788755044341e-05 -4.246987373335286975e-05 -5.582068479270674288e-05
3.126000000000000000e+03 4.126243591308593750e+01 -1.480221462249755859e+01 1.685278415679931641e+00 1.301883339881896973e+00 8.961485028266906738e-01 -8.594114184379577637e-01
3.127000000000000000e+03 4.231824493408203125e+01 -1.277835559844970703e+01 1.040071249008178711e+00 1.332203269004821777e+00 7.116823792457580566e-01 -8.300346732139587402e-01
3.128000000000000000e+03 7.269804382324218750e+01 -6.049901008605957031e+00 -2.760926485061645508e-01 -7.076820731163024902e-02 -1.040582582354545593e-01 -8.001871705055236816e-01
3.129000000000000000e+03 2.106945419311523438e+01 -5.455142498016357422e+00 -5.888775587081909180e-01 -2.313826978206634521e-01 -2.460780739784240723e-01 -6.720353364944458008e-01
3.130000000000000000e+03 6.705835819244384766e+00 8.826755523681640625e+00 -4.933792661176994443e-05 -1.673807419138029218e-04 -6.501559983007609844e-05 -4.217030800646170974e-05
3.131000000000000000e+03 7.337265968322753906e+00 9.807415008544921875e+00 3.235444455640390515e-05 -2.746758982539176941e-04 -7.269643538165837526e-05 1.275773320230655372e-05
3.132000000000000000e+03 1.261034584045410156e+01 -9.650139808654785156e+00 -7.315851449966430664e-01 -3.563166260719299316e-01 -3.263705372810363770e-01 -1.989499777555465698e-01
3.133000000000000000e+03 6.999839019775390625e+01 -8.359957695007324219e+00 -6.089215874671936035e-01 2.735409736633300781e-01 -1.006141901016235352e-01 -6.981462240219116211e-01
3.134000000000000000e+03 1.453235626220703125e+01 -7.154864788055419922e+00 -4.861018061637878418e-01 -3.853571116924285889e-01 -2.614376544952392578e-01 -2.209767699241638184e-01
3.135000000000000000e+03 6.926301574707031250e+01 -7.706034183502197266e+00 -5.820986032485961914e-01 2.952733933925628662e-01 -8.604757487773895264e-02 -7.234436869621276855e-01
3.136000000000000000e+03 3.614805603027343750e+01 -7.010422229766845703e+00 -7.466046214103698730e-01 7.404218316078186035e-01 -1.854846253991127014e-03 -2.577683031558990479e-01
3.137000000000000000e+03 4.060530471801757812e+01 -8.234411239624023438e+00 -9.898241162300109863e-01 3.404130935668945312e-01 -1.948233097791671753e-01 -6.629357933998107910e-01
3.138000000000000000e+03 7.345656871795654297e+00 -1.606985855102539062e+01 -2.493619769811630249e-01 -2.787806093692779541e-01 -1.584427654743194580e-01 -6.544308662414550781e-01
3.139000000000000000e+03 9.464460372924804688e+00 -1.392060279846191406e+01 -5.800940990447998047e-01 -2.027404904365539551e-01 -2.348503619432449341e-01 -5.653793215751647949e-01
3.140000000000000000e+03 1.462441825866699219e+01 -7.830793857574462891e+00 -5.796209573745727539e-01 -4.412285089492797852e-01 -3.062548339366912842e-01 -2.451882064342498779e-01
3.141000000000000000e+03 7.226289367675781250e+01 -2.990368127822875977e+00 -1.151761487126350403e-01 -5.827802047133445740e-02 -5.203624814748764038e-02 -9.055169820785522461e-01
3.142000000000000000e+03 7.416366577148437500e+01 1.815226554870605469e+01 2.977585792541503906e-01 -9.864944815635681152e-01 -2.066207677125930786e-01 4.372881650924682617e-01
3.143000000000000000e+03 6.193327713012695312e+01 -6.471575736999511719e+00 -5.592987537384033203e-01 1.182317733764648438e+00 1.869056671857833862e-01 4.551210701465606689e-01
3.144000000000000000e+03 6.799041748046875000e+01 6.464439392089843750e+00 6.140519976615905762e-01 2.076198577880859375e+00 8.070752024650573730e-01 -3.230432569980621338e-01
3.145000000000000000e+03 4.283147430419921875e+01 -8.622289657592773438e+00 -1.182165741920471191e+00 3.966109156608581543e-01 -2.356664389371871948e-01 -4.659764766693115234e-01
3.146000000000000000e+03 4.262906646728515625e+01 -9.726192474365234375e+00 -4.889185726642608643e-01 5.234688520431518555e-01 1.036508660763502121e-02 -6.855760812759399414e-01
3.147000000000000000e+03 8.473952293395996094e+00 -1.191402053833007812e+01 -5.027075409889221191e-01 -1.327711194753646851e-01 -1.906436085700988770e-01 -3.413984477519989014e-01
3.148000000000000000e+03 7.087540435791015625e+01 1.791459274291992188e+01 6.261650919914245605e-01 7.060379385948181152e-01 3.996609151363372803e-01 4.033040106296539307e-01
3.149000000000000000e+03 6.526926422119140625e+01 -4.716783046722412109e+00 -2.914960980415344238e-01 1.026968955993652344e+00 2.206418812274932861e-01 -2.842949926853179932e-01
3.150000000000000000e+03 6.693115234375000000e+01 -6.922749042510986328e+00 -5.622065067291259766e-01 4.994238317012786865e-01 -1.883479766547679901e-02 -5.821494460105895996e-01
3.151000000000000000e+03 6.806092071533203125e+01 -7.562813758850097656e+00 -6.210759878158569336e-01 3.834148347377777100e-01 -7.129834592342376709e-02 -6.776005029678344727e-01
3.152000000000000000e+03 4.088660049438476562e+01 -1.184732723236083984e+01 7.133600115776062012e-01 7.166559100151062012e-01 4.290047585964202881e-01 -1.085407257080078125e+00
3.153000000000000000e+03 6.349253845214843750e+01 -6.311509132385253906e+00 -4.814003407955169678e-01 9.144904613494873047e-01 1.299270242452621460e-01 1.111425757408142090e-01
3.154000000000000000e+03 7.246099090576171875e+01 -8.406186103820800781e+00 -3.820672035217285156e-01 5.193972215056419373e-02 -9.903824329376220703e-02 -6.812085509300231934e-01
3.155000000000000000e+03 6.167075347900390625e+01 -5.030667304992675781e+00 -3.189704120159149170e-01 1.546848654747009277e+00 3.683634698390960693e-01 4.802221357822418213e-01
3.156000000000000000e+03 6.555971527099609375e+01 5.377405166625976562e+00 7.548429965972900391e-01 3.008227586746215820e+00 1.128921151161193848e+00 9.267018176615238190e-03
3.157000000000000000e+03 6.806430053710937500e+01 1.188805961608886719e+01 8.077154159545898438e-01 2.552882909774780273e+00 1.008179545402526855e+00 -1.151297613978385925e-01
3.158000000000000000e+03 6.903944396972656250e+01 1.515961170196533203e+01 9.027237892150878906e-01 1.913891434669494629e+00 8.449845910072326660e-01 4.630687087774276733e-02
3.159000000000000000e+03 4.102650070190429688e+01 -1.065267372131347656e+01 1.348435729742050171e-01 5.403714179992675781e-01 2.025644928216934204e-01 -1.070611000061035156e+00
3.160000000000000000e+03 8.329755783081054688e+00 -2.200045776367187500e+01 2.644574344158172607e-01 -5.297728180885314941e-01 -7.959461212158203125e-02 -6.672518253326416016e-01
3.161000000000000000e+03 7.694207191467285156e+00 -1.342645168304443359e+01 -4.218859970569610596e-01 -1.600756645202636719e-01 -1.745885014533996582e-01 -4.583465456962585449e-01
3.162000000000000000e+03 4.130939865112304688e+01 -3.231608200073242188e+01 1.339157857000827789e-02 1.733424067497253418e+00 5.240446925163269043e-01 4.299297928810119629e-01
3.163000000000000000e+03 7.077484893798828125e+01 -1.839181631803512573e-01 9.267170727252960205e-02 4.055183529853820801e-01 1.494570225477218628e-01 -8.738679885864257812e-01
3.164000000000000000e+03 7.010818481445312500e+01 -2.438437700271606445e+00 -5.956684425473213196e-02 4.592810273170471191e-01 1.199142560362815857e-01 -8.597223758697509766e-01
3.165000000000000000e+03 7.195348358154296875e+01 -2.606467628479003906e+01 -1.012219302356243134e-02 1.024334691464900970e-03 -2.729357453063130379e-03 2.270804950967431068e-03
3.166000000000000000e+03 6.365903472900390625e+01 2.185193300247192383e-01 3.065048456192016602e-01 2.374632358551025391e+00 8.043411970138549805e-01 1.841425448656082153e-01
3.167000000000000000e+03 7.207831573486328125e+01 -6.905750274658203125e+00 -3.433416485786437988e-01 4.400221630930900574e-02 -8.980182558298110962e-02 -7.683781981468200684e-01
3.168000000000000000e+03 7.289812469482421875e+01 -7.533156871795654297e+00 -3.473145961761474609e-01 -3.891483321785926819e-02 -1.158688291907310486e-01 -6.924114823341369629e-01
3.169000000000000000e+03 7.864578723907470703e+00 2.360883331298828125e+01 -5.619692150503396988e-03 -1.818448072299361229e-03 -2.231442136690020561e-03 5.052899941802024841e-03
3.170000000000000000e+03 3.918345260620117188e+01 2.171902084350585938e+01 -6.267438083887100220e-02 6.048145145177841187e-02 -6.578773609362542629e-04 1.880778372287750244e-02
3.171000000000000000e+03 3.838447952270507812e+01 -2.468363380432128906e+01 6.725952029228210449e-01 1.257929205894470215e+00 5.791573524475097656e-01 1.161349177360534668e+00
3.172000000000000000e+03 6.282936859130859375e+01 -6.440919637680053711e-01 3.004073500633239746e-01 2.356749534606933594e+00 7.971470355987548828e-01 4.092571735382080078e-01
3.173000000000000000e+03 6.688309478759765625e+01 7.791872978210449219e+00 7.145733833312988281e-01 2.918318510055541992e+00 1.089867591857910156e+00 -1.181378960609436035e-01
3.174000000000000000e+03 6.817182159423828125e+01 7.812908172607421875e+00 7.162026762962341309e-01 2.099311590194702148e+00 8.446542620658874512e-01 -2.938017845153808594e-01
3.175000000000000000e+03 3.791527938842773438e+01 1.602156066894531250e+01 -6.341785192489624023e-02 2.320243604481220245e-02 -1.206462550908327103e-02 1.656586304306983948e-02
3.176000000000000000e+03 1.050007629394531250e+01 -2.906486511230468750e+01 3.291671574115753174e-01 -3.179303109645843506e-01 3.371053840965032578e-03 -2.763727605342864990e-01
3.177000000000000000e+03 3.860431671142578125e+01 1.725869178771972656e+01 -7.689686864614486694e-02 3.376394510269165039e-02 -1.293987687677145004e-02 1.853065192699432373e-02
3.178000000000000000e+03 1.031679439544677734e+01 -9.738622665405273438e+00 -5.655304193496704102e-01 -1.783985644578933716e-01 -2.231786996126174927e-01 -1.757360249757766724e-01
3.179000000000000000e+03 1.101688957214355469e+01 -1.045699882507324219e+01 -6.834431290626525879e-01 -2.063772529363632202e-01 -2.669461071491241455e-01 -2.320392429828643799e-01
3.180000000000000000e+03 8.069761276245117188e+00 3.070546722412109375e+01 -2.039491431787610054e-03 -1.016394142061471939e-02 -3.661029739305377007e-03 1.221492234617471695e-02
3.181000000000000000e+03 8.231944084167480469e+00 2.920240783691406250e+01 -3.229126799851655960e-03 -7.696859538555145264e-03 -3.277795854955911636e-03 1.237690448760986328e-02
3.182000000000000000e+03 7.096173858642578125e+01 -2.789893341064453125e+01 -1.414156705141067505e-02 3.124175826087594032e-03 -3.305217484012246132e-03 4.628905095160007477e-03
3.183000000000000000e+03 4.154156875610351562e+01 2.302032661437988281e+01 -3.855713084340095520e-02 7.490711659193038940e-02 1.090499572455883026e-02 1.392056606709957123e-02
3.184000000000000000e+03 4.112334823608398438e+01 2.188264274597167969e+01 -5.493372678756713867e-02 6.263927370309829712e-02 2.311662537977099419e-03 1.774369552731513977e-02
3.185000000000000000e+03 8.760969161987304688e+00 -2.677364158630371094e+01 3.272519707679748535e-01 -5.570750236511230469e-01 -6.894692033529281616e-02 -3.664107620716094971e-01
3.186000000000000000e+03 7.141682147979736328e+00 -2.798697471618652344e+01 2.119492590427398682e-01 -7.398467063903808594e-01 -1.583692431449890137e-01 -2.953986227512359619e-01
3.187000000000000000e+03 6.832579040527343750e+01 2.363992881774902344e+01 1.694245785474777222e-01 1.711155295372009277e+00 5.641739964485168457e-01 7.438501715660095215e-01
3.188000000000000000e+03 6.656171417236328125e+01 2.361719894409179688e+01 2.076347470283508301e-01 2.360619306564331055e+00 7.704762220382690430e-01 5.308325290679931641e-01
3.189000000000000000e+03 9.265683174133300781e+00 -2.118362045288085938e+01 2.490507662296295166e-01 -4.587579667568206787e-01 -6.291216611862182617e-02 -7.293263673782348633e-01
3.190000000000000000e+03 3.869603729248046875e+01 1.995066642761230469e+01 -7.860811054706573486e-02 5.311445146799087524e-02 -7.648098282516002655e-03 2.159671112895011902e-02
3.191000000000000000e+03 6.880184173583984375e+01 1.069030189514160156e+01 6.912109851837158203e-01 2.053826332092285156e+00 8.235111832618713379e-01 -1.845798343420028687e-01
3.192000000000000000e+03 8.295701026916503906e+00 -2.377511024475097656e+01 3.100996911525726318e-01 -5.637368559837341309e-01 -7.609115540981292725e-02 -5.443724989891052246e-01
3.193000000000000000e+03 7.448187828063964844e+00 -2.675662231445312500e+01 2.494360208511352539e-01 -6.714873313903808594e-01 -1.266154050827026367e-01 -3.457241058349609375e-01
3.194000000000000000e+03 7.180221557617187500e+01 6.243358612060546875e+00 4.008710384368896484e-01 2.335925847291946411e-01 1.903390884399414062e-01 -6.426522135734558105e-01
3.195000000000000000e+03 7.295593261718750000e+01 6.158983707427978516e+00 2.899713516235351562e-01 -3.432672619819641113e-01 -1.598877459764480591e-02 -6.466928124427795410e-01
3.196000000000000000e+03 4.698106765747070312e+01 2.377282524108886719e+01 3.723243251442909241e-02 4.673616960644721985e-02 2.519058063626289368e-02 -4.026678577065467834e-02
3.197000000000000000e+03 4.797415161132812500e+01 2.231988716125488281e+01 -6.604881491512060165e-03 2.279937453567981720e-02 4.858348052948713303e-03 -4.945739731192588806e-02
3.198000000000000000e+03 7.262480926513671875e+01 2.285808753967285156e+01 1.764916181564331055e-01 -1.487204283475875854e-01 8.331358432769775391e-03 7.873188257217407227e-01
3.199000000000000000e+03 2.729104423522949219e+01 -3.929514646530151367e+00 -1.053147673606872559e+00 -8.210359513759613037e-02 -3.405753970146179199e-01 -9.184820652008056641e-01
3.200000000000000000e+03 1.655905342102050781e+01 7.043650627136230469e+00 6.251886952668428421e-05 5.366497498471289873e-05 3.485515117063187063e-05 6.541941547766327858e-05
3.201000000000000000e+03 3.019832420349121094e+01 -2.675965547561645508e+00 -2.107177257537841797e+00 2.744317650794982910e-01 -5.498236417770385742e-01 -5.840283632278442383e-01
3.202000000000000000e+03 2.970973205566406250e+01 -3.345252752304077148e+00 -1.707027077674865723e+00 2.628558278083801270e-01 -4.332513809204101562e-01 -7.107067704200744629e-01
3.203000000000000000e+03 3.574430847167968750e+01 1.337722206115722656e+01 -2.790918014943599701e-02 1.921445364132523537e-03 -7.796320132911205292e-03 1.300515048205852509e-02
3.204000000000000000e+03 1.266895198822021484e+01 1.185059165954589844e+01 2.085848245769739151e-04 2.211169776273891330e-04 1.289105421165004373e-04 3.904990444425493479e-04
3.205000000000000000e+03 1.281108379364013672e+01 2.183506774902343750e+01 -1.297392044216394424e-02 1.601369585841894150e-03 -3.411765210330486298e-03 1.563873142004013062e-03
3.206000000000000000e+03 1.379666996002197266e+01 9.999897003173828125e+00 2.419389602437149733e-05 1.847121311584487557e-04 6.267181015573441982e-05 1.685192110016942024e-04
3.207000000000000000e+03 1.496843338012695312e+01 6.170386791229248047e+00 -7.086171535775065422e-05 4.043900844408199191e-05 -9.126811164605896920e-06 -1.221706952492240816e-05
3.208000000000000000e+03 3.493870544433593750e+01 1.352546501159667969e+01 -2.086236514151096344e-02 -1.121616107411682606e-03 -6.595194339752197266e-03 1.579220592975616455e-02
3.209000000000000000e+03 1.428136634826660156e+01 9.243957519531250000e+00 -1.103075701394118369e-04 1.340225571766495705e-04 7.114497748261783272e-06 1.216065647895447910e-04
3.210000000000000000e+03 3.657422637939453125e+01 1.441096496582031250e+01 -4.061601310968399048e-02 1.237926818430423737e-02 -8.471024222671985626e-03 1.581635139882564545e-02
3.211000000000000000e+03 1.163769817352294922e+01 1.253172492980957031e+01 1.379303575959056616e-04 -1.118755608331412077e-04 7.816438483132515103e-06 4.325044574216008186e-04
3.212000000000000000e+03 1.179494285583496094e+01 1.662228393554687500e+01 -5.365913966670632362e-05 -5.036377697251737118e-04 -1.671890786383301020e-04 2.229278470622375607e-04
3.213000000000000000e+03 1.103794765472412109e+01 1.513806915283203125e+01 2.543768496252596378e-04 -6.158563192002475262e-04 -1.084438408724963665e-04 3.219158097635954618e-04
3.214000000000000000e+03 1.630095481872558594e+01 7.329870700836181641e+00 -8.064992289291694760e-05 1.837432682805228978e-05 -1.868267827376257628e-05 -4.060403080075047910e-05
3.215000000000000000e+03 1.540071773529052734e+01 7.759697914123535156e+00 6.893245154060423374e-05 1.328577491221949458e-04 6.053705874364823103e-05 5.859342854819260538e-05
3.216000000000000000e+03 3.400486755371093750e+01 1.599525165557861328e+01 -4.070423543453216553e-02 -6.719311233609914780e-03 -1.422706432640552521e-02 3.575136512517929077e-02
3.217000000000000000e+03 3.448567581176757812e+01 1.804839134216308594e+01 -6.965396553277969360e-02 1.037800498306751251e-02 -1.778278872370719910e-02 3.958690911531448364e-02
3.218000000000000000e+03 2.750004577636718750e+01 -4.852117538452148438e+00 -7.676680088043212891e-01 -5.432666093111038208e-02 -2.465984076261520386e-01 -1.017217874526977539e+00
3.219000000000000000e+03 2.829316902160644531e+01 -4.706200122833251953e+00 -8.646181225776672363e-01 8.176859468221664429e-02 -2.348548620939254761e-01 -9.953250288963317871e-01
3.220000000000000000e+03 3.425892257690429688e+01 1.977452468872070312e+01 -8.398615568876266479e-02 1.590242981910705566e-02 -2.042511664330959320e-02 4.129722714424133301e-02
3.221000000000000000e+03 3.382822036743164062e+01 1.867795944213867188e+01 -7.375920563936233521e-02 3.207885893061757088e-03 -2.116539515554904938e-02 4.556259512901306152e-02
3.222000000000000000e+03 3.021678352355957031e+01 -3.811666250228881836e+00 -1.604460716247558594e+00 3.568529188632965088e-01 -3.742823302745819092e-01 -7.317150831222534180e-01
3.223000000000000000e+03 1.140586662292480469e+01 1.411673069000244141e+01 3.305967838969081640e-04 -1.857032184489071369e-04 4.346807691035792232e-05 5.108674522489309311e-04
3.224000000000000000e+03 1.595864105224609375e+01 7.074227809906005859e+00 6.065454363124445081e-05 8.537608664482831955e-05 4.380919199320487678e-05 6.336055957945063710e-05
3.225000000000000000e+03 1.656984710693359375e+01 6.520118713378906250e+00 5.739327752962708473e-05 4.361308310762979090e-05 3.030190782737918198e-05 5.563763625104911625e-05
3.226000000000000000e+03 1.187140655517578125e+01 1.791670799255371094e+01 -2.915730001404881477e-04 -5.960136768408119678e-04 -2.662760089151561260e-04 7.967265992192551494e-05
3.227000000000000000e+03 1.099636840820312500e+01 1.665933036804199219e+01 -2.337059995625168085e-04 -8.863254333846271038e-04 -3.360094269737601280e-04 9.761597175383940339e-05
3.228000000000000000e+03 1.188704586029052734e+01 1.307911491394042969e+01 2.458783274050801992e-04 -2.646138455020263791e-05 6.582507921848446131e-05 4.657118988689035177e-04
3.229000000000000000e+03 3.390328979492187500e+01 2.028888702392578125e+01 -9.095644205808639526e-02 1.340100914239883423e-02 -2.326662838459014893e-02 4.211321473121643066e-02
3.230000000000000000e+03 1.268327808380126953e+01 2.252929878234863281e+01 -1.338192820549011230e-02 1.499718986451625824e-03 -3.564662765711545944e-03 3.854693146422505379e-03
3.231000000000000000e+03 1.290731525421142578e+01 2.116364097595214844e+01 -9.197619743645191193e-03 1.282098703086376190e-03 -2.374656265601515770e-03 1.513539609732106328e-04
3.232000000000000000e+03 1.172534751892089844e+01 2.023105239868164062e+01 -5.734929349273443222e-03 -2.705075021367520094e-04 -1.801631064154207706e-03 -2.009433519560843706e-04
3.233000000000000000e+03 1.188030052185058594e+01 1.859801864624023438e+01 -2.220866037532687187e-03 -7.070902502164244652e-04 -8.783868397586047649e-04 -2.642453910084441304e-05
3.234000000000000000e+03 1.221785545349121094e+01 2.105706596374511719e+01 -9.000209160149097443e-03 5.982491420581936836e-04 -2.520587993785738945e-03 3.840600838884711266e-04
3.235000000000000000e+03 1.234579277038574219e+01 2.048568916320800781e+01 -6.041549611836671829e-03 2.912308846134692430e-04 -1.725095673464238644e-03 -1.895694294944405556e-04
3.236000000000000000e+03 2.902350425720214844e+01 -4.693713665008544922e+00 -9.624932408332824707e-01 2.206527292728424072e-01 -2.225521504878997803e-01 -9.478521347045898438e-01
3.237000000000000000e+03 1.208742904663085938e+01 1.186756134033203125e+01 2.645382301125209779e-05 1.756256824592128396e-05 1.320491719525307417e-05 3.694724291563034058e-04
3.238000000000000000e+03 3.579733276367187500e+01 1.564035034179687500e+01 -5.099429562687873840e-02 1.018390618264675140e-02 -1.224311627447605133e-02 2.928077615797519684e-02
3.239000000000000000e+03 3.066980171203613281e+01 2.418518257141113281e+01 -6.041078642010688782e-02 -2.903027832508087158e-02 -2.683231979608535767e-02 2.950137294828891754e-02
3.240000000000000000e+03 3.168270874023437500e+01 2.177953529357910156e+01 -9.754557907581329346e-02 -2.106411941349506378e-02 -3.558290749788284302e-02 3.815771266818046570e-02
3.241000000000000000e+03 2.436694908142089844e+01 2.598496246337890625e+01 -4.901782050728797913e-02 -3.419110924005508423e-02 -2.496267855167388916e-02 4.604359343647956848e-02
3.242000000000000000e+03 2.337194442749023438e+01 2.561169815063476562e+01 -5.660526826977729797e-02 -2.951588667929172516e-02 -2.583634667098522186e-02 4.372818768024444580e-02
3.243000000000000000e+03 1.925613403320312500e+01 2.572265052795410156e+01 -4.100157320499420166e-02 -1.108143292367458344e-02 -1.562490221112966537e-02 3.210850805044174194e-02
3.244000000000000000e+03 1.824303436279296875e+01 2.555873489379882812e+01 -3.724004328250885010e-02 -6.491822656244039536e-03 -1.311955973505973816e-02 2.824000082910060883e-02
3.245000000000000000e+03 2.218080139160156250e+01 2.723118972778320312e+01 -3.013552725315093994e-02 -2.698178403079509735e-02 -1.713519357144832611e-02 4.142979159951210022e-02
3.246000000000000000e+03 1.687019920349121094e+01 6.290772438049316406e+00 -7.763630128465592861e-05 4.049980634590610862e-05 -1.114094902732176706e-05 -5.153644451638683677e-05
3.247000000000000000e+03 1.330051040649414062e+01 7.157062053680419922e+00 -6.756153743481263518e-05 8.759677439229562879e-05 6.010572178638540208e-06 2.856490937119815499e-05
3.248000000000000000e+03 1.529019165039062500e+01 6.466251373291015625e+00 5.572760346694849432e-05 9.020515426527708769e-05 4.377982622827403247e-05 7.677121902815997601e-05
3.249000000000000000e+03 2.869170188903808594e+01 -5.122441291809082031e+00 -8.165364265441894531e-01 1.682406812906265259e-01 -1.944887191057205200e-01 -1.033068537712097168e+00
3.250000000000000000e+03 3.010687828063964844e+01 -5.250303745269775391e+00 -8.161347508430480957e-01 5.401421785354614258e-01 -8.279777318239212036e-02 -9.024655818939208984e-01
3.251000000000000000e+03 2.315654563903808594e+01 2.737755203247070312e+01 -2.713915519416332245e-02 -3.136665001511573792e-02 -1.755174249410629272e-02 4.337719455361366272e-02
3.252000000000000000e+03 2.324179077148437500e+01 2.866811752319335938e+01 -1.229065749794244766e-02 -3.003013320267200470e-02 -1.269623730331659317e-02 4.124728962779045105e-02
3.253000000000000000e+03 1.345619392395019531e+01 2.396693992614746094e+01 -1.946515962481498718e-02 8.625519112683832645e-04 -5.580781958997249603e-03 8.815324865281581879e-03
3.254000000000000000e+03 1.754615020751953125e+01 2.503933715820312500e+01 -3.597242385149002075e-02 -2.671915804967284203e-03 -1.159330178052186966e-02 2.220893464982509613e-02
3.255000000000000000e+03 1.596920585632324219e+01 2.487589645385742188e+01 -2.918340452015399933e-02 -1.174283795990049839e-03 -9.107306599617004395e-03 1.753293909132480621e-02
3.256000000000000000e+03 2.694796180725097656e+01 -5.036558628082275391e+00 -6.658830642700195312e-01 -1.630592048168182373e-01 -2.486826777458190918e-01 -1.024349808692932129e+00
3.257000000000000000e+03 1.562878036499023438e+01 6.132240295410156250e+00 -5.103733928990550339e-05 -9.923333891492802650e-06 -1.828820313676260412e-05 -2.875466270779725164e-05
3.258000000000000000e+03 3.698712921142578125e+01 -4.614390373229980469e+00 -1.958711504936218262e+00 7.218538522720336914e-01 -3.710573017597198486e-01 2.702475786209106445e-01
3.259000000000000000e+03 3.457001876831054688e+01 1.523596191406250000e+01 -3.681386634707450867e-02 -7.358326693065464497e-04 -1.126490999013185501e-02 2.754897624254226685e-02
3.260000000000000000e+03 3.629326248168945312e+01 1.001259899139404297e+01 -3.508793655782938004e-03 -3.223941195756196976e-03 -2.019820502027869225e-03 1.519602490589022636e-03
3.261000000000000000e+03 3.003399085998535156e+01 2.505771827697753906e+01 -4.229003190994262695e-02 -3.255604580044746399e-02 -2.245382405817508698e-02 2.782717160880565643e-02
3.262000000000000000e+03 2.530243110656738281e+01 2.475374031066894531e+01 -7.032571732997894287e-02 -3.418738022446632385e-02 -3.135392814874649048e-02 4.867831990122795105e-02
3.263000000000000000e+03 2.492133712768554688e+01 2.564899826049804688e+01 -5.144616216421127319e-02 -3.474725410342216492e-02 -2.585802599787712097e-02 4.452833160758018494e-02
3.264000000000000000e+03 3.726064682006835938e+01 1.788445281982421875e+01 -7.593863457441329956e-02 3.179763630032539368e-02 -1.324229966849088669e-02 2.899611368775367737e-02
3.265000000000000000e+03 3.396455001831054688e+01 1.647762298583984375e+01 -5.011633038520812988e-02 -4.143393598496913910e-03 -1.627791672945022583e-02 3.829480707645416260e-02
3.266000000000000000e+03 8.028853416442871094e+00 1.067244625091552734e+01 1.151299438788555562e-04 -3.581145720090717077e-04 -7.289538189070299268e-05 3.465009285719133914e-05
3.267000000000000000e+03 3.544892120361328125e+01 1.276425743103027344e+01 -1.706138253211975098e-02 3.882870441884733737e-05 -5.106766242533922195e-03 1.017739903181791306e-02
3.268000000000000000e+03 1.185271453857421875e+01 -7.257144927978515625e+00 -4.179981648921966553e-01 -2.227148115634918213e-01 -1.922138929367065430e-01 -6.109816581010818481e-02
3.269000000000000000e+03 1.374483680725097656e+01 -7.850547313690185547e+00 -5.473692417144775391e-01 -3.833361566066741943e-01 -2.792116105556488037e-01 -1.821305602788925171e-01
3.270000000000000000e+03 3.467469406127929688e+01 1.707198905944824219e+01 -6.205227226018905640e-02 7.901982404291629791e-03 -1.624508574604988098e-02 3.901510313153266907e-02
3.271000000000000000e+03 8.044083595275878906e+00 7.796784877777099609e+00 4.067113623023033142e-04 -1.970464800251647830e-04 6.289946759352460504e-05 3.845587707473896444e-05
3.272000000000000000e+03 7.011829853057861328e+00 8.126247406005859375e+00 4.197134694550186396e-04 -1.745245972415432334e-04 7.355666457442566752e-05 -3.272823960287496448e-05
3.273000000000000000e+03 1.721364402770996094e+01 2.616135215759277344e+01 -2.862960286438465118e-02 -5.530668888241052628e-03 -1.024808175861835480e-02 2.599082328379154205e-02
3.274000000000000000e+03 1.152982139587402344e+01 -8.206194877624511719e+00 -5.132975578308105469e-01 -2.190284729003906250e-01 -2.196978181600570679e-01 -9.084556996822357178e-02
3.275000000000000000e+03 3.729863739013671875e+01 1.489669513702392578e+01 -4.973284155130386353e-02 1.381839625537395477e-02 -1.077433302998542786e-02 1.425263192504644394e-02
3.276000000000000000e+03 7.536319732666015625e+00 9.092641830444335938e+00 4.306519986130297184e-04 -1.890428538899868727e-04 7.248274050652980804e-05 -5.948820034973323345e-05
3.277000000000000000e+03 8.382090568542480469e+00 9.282978057861328125e+00 5.204161425353959203e-05 -2.592138189356774092e-04 -6.215165922185406089e-05 8.418342622462660074e-05
3.278000000000000000e+03 3.435380172729492188e+01 1.913822555541992188e+01 -8.150812983512878418e-02 1.382099650800228119e-02 -2.030613832175731659e-02 4.612242430448532104e-02
3.279000000000000000e+03 7.317854881286621094e+00 1.557680225372314453e+01 -1.758816506480798125e-04 -9.170571574941277504e-04 -3.278816293459385633e-04 9.869072528090327978e-05
3.280000000000000000e+03 1.016624164581298828e+01 1.752327156066894531e+01 -8.709699613973498344e-04 -1.309997402131557465e-03 -6.542901974171400070e-04 -6.292262696661055088e-05
3.281000000000000000e+03 3.385381317138671875e+01 2.288278961181640625e+01 -7.479033619165420532e-02 1.831798069179058075e-02 -1.694170571863651276e-02 2.472999878227710724e-02
3.282000000000000000e+03 6.978015136718750000e+01 -7.108013153076171875e+00 -5.159088969230651855e-01 2.934285998344421387e-01 -6.674408167600631714e-02 -7.510478496551513672e-01
3.283000000000000000e+03 7.128245544433593750e+01 -6.206141948699951172e+00 -3.506389260292053223e-01 1.231037229299545288e-01 -6.826056540012359619e-02 -8.322613835334777832e-01
3.284000000000000000e+03 7.748930931091308594e+00 8.420585632324218750e+00 -4.337685095379129052e-05 -1.408622774761170149e-04 -5.527173925656825304e-05 -2.557140533099300228e-06
3.285000000000000000e+03 3.511778640747070312e+01 -4.940906524658203125e+00 -1.520846486091613770e+00 7.170231342315673828e-01 -2.411469817161560059e-01 1.471511870622634888e-01
3.286000000000000000e+03 6.980853080749511719e+00 1.487097740173339844e+01 3.274587797932326794e-04 -8.389583090320229530e-04 -1.534498587716370821e-04 -3.961648035328835249e-04
3.287000000000000000e+03 1.250209140777587891e+01 7.093751907348632812e+00 -1.133186742663383484e-04 5.952277570031583309e-05 -1.613877066120039672e-05 6.905406917212530971e-05
3.288000000000000000e+03 7.008499145507812500e+01 -6.460656642913818359e+00 -4.212596714496612549e-01 2.707737088203430176e-01 -4.514579474925994873e-02 -7.888910770416259766e-01
3.289000000000000000e+03 6.306820678710937500e+01 -2.244234561920166016e+00 7.645191252231597900e-02 1.921046257019042969e+00 5.992494225502014160e-01 2.445835471153259277e-01
3.290000000000000000e+03 8.697226524353027344e+00 1.779211997985839844e+01 -1.381686422973871231e-03 -1.321598305366933346e-03 -8.109853952191770077e-04 9.596902236808091402e-05
3.291000000000000000e+03 2.044494628906250000e+01 2.699699020385742188e+01 -3.263561055064201355e-02 -1.939546503126621246e-02 -1.560932211577892303e-02 3.899593278765678406e-02
3.292000000000000000e+03 7.251167774200439453e+00 -8.922496795654296875e+00 -2.995070219039916992e-01 -5.508197098970413208e-02 -1.063766926527023315e-01 -7.303829491138458252e-02
3.293000000000000000e+03 8.862764358520507812e+00 -6.845226764678955078e+00 -2.582309842109680176e-01 -6.567671895027160645e-02 -9.717231243848800659e-02 1.841159164905548096e-02
3.294000000000000000e+03 2.537131690979003906e+01 2.619229698181152344e+01 -4.090077802538871765e-02 -3.934107720851898193e-02 -2.407255582511425018e-02 4.639885574579238892e-02
3.295000000000000000e+03 1.776910209655761719e+01 2.572547531127929688e+01 -3.399333357810974121e-02 -6.856190506368875504e-03 -1.225485745817422867e-02 2.676968090236186981e-02
3.296000000000000000e+03 3.532659912109375000e+01 -6.703157901763916016e+00 -7.451852560043334961e-01 7.983419299125671387e-01 1.594700850546360016e-02 -1.955832690000534058e-01
3.297000000000000000e+03 6.351283264160156250e+01 -3.762048959732055664e+00 -1.665347516536712646e-01 1.493619680404663086e+00 3.981254696846008301e-01 9.047555923461914062e-02
3.298000000000000000e+03 6.398437500000000000e+01 -5.281569957733154297e+00 -3.532337546348571777e-01 1.057454466819763184e+00 2.112662345170974731e-01 -2.375812828540802002e-02
3.299000000000000000e+03 7.879415035247802734e+00 1.792621994018554688e+01 -7.328360807150602341e-04 -1.156515441834926605e-03 -5.668054800480604172e-04 -1.645046286284923553e-04
3.300000000000000000e+03 8.168102264404296875e+00 1.882775688171386719e+01 -2.010667230933904648e-03 -1.342851901426911354e-03 -1.006055739708244801e-03 3.424783935770392418e-04
3.301000000000000000e+03 6.688878631591796875e+01 -5.859633445739746094e+00 -4.076941907405853271e-01 5.635575652122497559e-01 4.675900936126708984e-02 -5.765757560729980469e-01
3.302000000000000000e+03 6.255355453491210938e+01 -5.637900829315185547e+00 -4.245517253875732422e-01 1.260530233383178711e+00 2.507935464382171631e-01 2.946847975254058838e-01
3.303000000000000000e+03 7.226557922363281250e+01 -4.747241973876953125e+00 -2.167606055736541748e-01 -1.846225932240486145e-02 -7.056685537099838257e-02 -8.696498870849609375e-01
3.304000000000000000e+03 7.242203521728515625e+01 -3.960754394531250000e+00 -1.352212280035018921e-01 -5.810346081852912903e-02 -5.799740552902221680e-02 -8.942219018936157227e-01
3.305000000000000000e+03 3.709236526489257812e+01 -7.273652553558349609e+00 -8.015176653861999512e-01 6.615061163902282715e-01 -4.200346022844314575e-02 -4.039881527423858643e-01
3.306000000000000000e+03 3.741759872436523438e+01 -6.377326965332031250e+00 -1.437141656875610352e+00 6.885412931442260742e-01 -2.245800942182540894e-01 -1.354034245014190674e-01
3.307000000000000000e+03 2.855758094787597656e+01 2.636536216735839844e+01 -3.041487745940685272e-02 -3.706708177924156189e-02 -2.024458721280097961e-02 3.426504135131835938e-02
3.308000000000000000e+03 7.600905418395996094e+00 2.462802886962890625e+01 -5.608908832073211670e-03 -2.769344951957464218e-03 -2.513476181775331497e-03 5.396232940256595612e-03
3.309000000000000000e+03 8.849984169006347656e+00 2.635984992980957031e+01 -7.947815582156181335e-03 -3.660751739516854286e-03 -3.482570173218846321e-03 9.027787484228610992e-03
3.310000000000000000e+03 7.109099388122558594e+00 1.224781513214111328e+01 4.507029079832136631e-04 -4.453700385056436062e-04 1.599864276613516267e-06 -1.354928681394085288e-04
3.311000000000000000e+03 3.537402725219726562e+01 1.648601913452148438e+01 -5.976649001240730286e-02 1.199513114988803864e-02 -1.433140784502029419e-02 3.363226354122161865e-02
3.312000000000000000e+03 6.685306549072265625e+01 6.520256996154785156e+00 7.357401847839355469e-01 2.584479331970214844e+00 9.960658550262451172e-01 -1.852818727493286133e-01
3.313000000000000000e+03 4.136854171752929688e+01 -9.532456398010253906e+00 -4.166561067104339600e-01 4.506326615810394287e-01 1.019296143203973770e-02 -8.162096738815307617e-01
3.314000000000000000e+03 1.051491928100585938e+01 -7.686250686645507812e+00 -4.096217751502990723e-01 -1.473984122276306152e-01 -1.671060621738433838e-01 -4.841956496238708496e-02
3.315000000000000000e+03 1.086157512664794922e+01 -6.823579788208007812e+00 -3.367705345153808594e-01 -1.436564326286315918e-01 -1.441280841827392578e-01 -1.407752279192209244e-02
3.316000000000000000e+03 7.762442111968994141e+00 -8.123035430908203125e+00 -2.930660545825958252e-01 -5.259810015559196472e-02 -1.036992445588111877e-01 -2.913823723793029785e-02
3.317000000000000000e+03 4.166930770874023438e+01 -8.453250885009765625e+00 -1.118729710578918457e+00 2.783461511135101318e-01 -2.521150708198547363e-01 -6.522020697593688965e-01
3.318000000000000000e+03 6.817532348632812500e+01 9.170197486877441406e+00 7.052205801010131836e-01 2.311611413955688477e+00 9.050496220588684082e-01 -1.879048794507980347e-01
3.319000000000000000e+03 6.939511871337890625e+01 9.388214111328125000e+00 6.840777993202209473e-01 1.531837105751037598e+00 6.647744774818420410e-01 -2.941077649593353271e-01
3.320000000000000000e+03 1.687101173400878906e+01 -6.887127399444580078e+00 -5.291016101837158203e-01 -4.628675878047943115e-01 -2.975907623767852783e-01 -4.240036606788635254e-01
3.321000000000000000e+03 7.080530548095703125e+01 -6.892179965972900391e+00 -4.030180275440216064e-01 2.031824290752410889e-01 -5.995067954063415527e-02 -8.122226595878601074e-01
3.322000000000000000e+03 7.425190448760986328e+00 -1.030924129486083984e+01 -3.787727355957031250e-01 -8.020135015249252319e-02 -1.376922279596328735e-01 -1.796515733003616333e-01
3.323000000000000000e+03 6.602359771728515625e+01 -5.029262065887451172e+00 -3.123478889465332031e-01 8.186181187629699707e-01 1.518810689449310303e-01 -4.410335421562194824e-01
3.324000000000000000e+03 6.304244613647460938e+01 -4.713549137115478516e+00 -2.668099701404571533e-01 1.330833673477172852e+00 3.192071318626403809e-01 1.851602047681808472e-01
3.325000000000000000e+03 1.099920463562011719e+01 -9.046614646911621094e+00 -5.651446580886840820e-01 -2.021262049674987793e-01 -2.301812618970870972e-01 -1.341106742620468140e-01
3.326000000000000000e+03 6.813313293457031250e+01 4.190476894378662109e+00 4.700768291950225830e-01 1.653250932693481445e+00 6.369983553886413574e-01 -5.238738059997558594e-01
3.327000000000000000e+03 6.788209533691406250e+01 5.344153881072998047e+00 6.227205395698547363e-01 1.926321983337402344e+00 7.647127509117126465e-01 -3.546330034732818604e-01
3.328000000000000000e+03 7.000277996063232422e+00 -1.494466114044189453e+01 -3.024744987487792969e-01 -2.206272482872009277e-01 -1.569305211305618286e-01 -5.579286813735961914e-01
3.329000000000000000e+03 5.680561065673828125e+00 -1.513462924957275391e+01 -1.982204765081405640e-01 -2.380284965038299561e-01 -1.308746933937072754e-01 -4.976253807544708252e-01
3.330000000000000000e+03 3.528328704833984375e+01 1.783117866516113281e+01 -7.039801776409149170e-02 1.895100064575672150e-02 -1.543410494923591614e-02 3.556703031063079834e-02
3.331000000000000000e+03 1.027224922180175781e+01 -1.105371284484863281e+01 -6.516931056976318359e-01 -1.899343281984329224e-01 -2.524882256984710693e-01 -2.856241166591644287e-01
3.332000000000000000e+03 9.506228446960449219e+00 -9.169717788696289062e+00 -4.711477160453796387e-01 -1.199651658535003662e-01 -1.773338615894317627e-01 -1.144539564847946167e-01
3.333000000000000000e+03 7.171099853515625000e+01 1.026937127113342285e+00 1.435562670230865479e-01 1.306513696908950806e-01 8.226229250431060791e-02 -8.729851841926574707e-01
3.334000000000000000e+03 6.979700469970703125e+01 -6.718878746032714844e-01 5.720695853233337402e-02 6.091490983963012695e-01 1.999068111181259155e-01 -8.410931825637817383e-01
3.335000000000000000e+03 6.566435241699218750e+01 1.893993139266967773e+00 3.889214694499969482e-01 2.293416976928710938e+00 8.047015666961669922e-01 -1.883878111839294434e-01
3.336000000000000000e+03 7.153860473632812500e+01 4.968819618225097656e+00 3.305784165859222412e-01 3.325121104717254639e-01 1.989271640777587891e-01 -7.170087695121765137e-01
3.337000000000000000e+03 7.016065216064453125e+01 -2.970316314697265625e+01 -1.774920150637626648e-02 5.129361525177955627e-03 -3.785952227190136909e-03 9.172046557068824768e-03
3.338000000000000000e+03 6.965965270996093750e+01 -2.842495346069335938e+01 -1.853737607598304749e-02 5.500763654708862305e-03 -3.910983446985483170e-03 9.921588003635406494e-03
3.339000000000000000e+03 6.918146514892578125e+01 -3.850385904312133789e+00 -1.851213425397872925e-01 5.239742398262023926e-01 1.016558632254600525e-01 -8.019675612449645996e-01
3.340000000000000000e+03 7.165859985351562500e+01 -4.164113044738769531e+00 -1.791108846664428711e-01 8.573660254478454590e-02 -2.801228314638137817e-02 -8.959997296333312988e-01
3.341000000000000000e+03 7.213732147216796875e+01 -9.207718849182128906e+00 -5.207581520080566406e-01 9.656730294227600098e-02 -1.272572576999664307e-01 -5.673707127571105957e-01
3.342000000000000000e+03 7.174232482910156250e+01 2.182394218444824219e+01 2.873807251453399658e-01 2.053905129432678223e-01 1.478313803672790527e-01 7.586418986320495605e-01
3.343000000000000000e+03 7.283014678955078125e+01 1.969331359863281250e+01 3.404440283775329590e-01 -2.666175067424774170e-01 2.214796096086502075e-02 6.020026206970214844e-01
3.344000000000000000e+03 3.697782516479492188e+01 2.054846763610839844e+01 -7.350766658782958984e-02 4.541354626417160034e-02 -8.428236469626426697e-03 2.866278029978275299e-02
3.345000000000000000e+03 6.931452941894531250e+01 -6.431234359741210938e+00 -4.529563784599304199e-01 3.645642399787902832e-01 -2.651763334870338440e-02 -7.713816761970520020e-01
3.346000000000000000e+03 7.267286682128906250e+01 -2.885865211486816406e+01 -1.011268142610788345e-02 2.657260483829304576e-05 -3.025832585990428925e-03 8.267399854958057404e-03
3.347000000000000000e+03 7.111919403076171875e+01 2.419505500793457031e+01 8.117578178644180298e-02 5.873932838439941406e-01 2.005707174539566040e-01 8.506984710693359375e-01
3.348000000000000000e+03 6.967698669433593750e+01 2.153333091735839844e+01 4.247574210166931152e-01 1.256975889205932617e+00 5.045199990272521973e-01 7.174880504608154297e-01
3.349000000000000000e+03 8.522718429565429688e+00 -2.049128341674804688e+01 1.514916419982910156e-01 -4.746166765689849854e-01 -9.693750739097595215e-02 -7.481579780578613281e-01
3.350000000000000000e+03 6.441023826599121094e+00 -2.157547378540039062e+01 1.452663987874984741e-01 -6.307588815689086914e-01 -1.456477493047714233e-01 -6.111773848533630371e-01
3.351000000000000000e+03 6.943046569824218750e+01 1.889669799804687500e+01 7.312471270561218262e-01 1.473162055015563965e+00 6.613227725028991699e-01 5.015206933021545410e-01
3.352000000000000000e+03 6.136672592163085938e+01 2.739081382751464844e+01 -3.014715313911437988e-01 2.260191202163696289e+00 5.876158475875854492e-01 -5.291775465011596680e-01
3.353000000000000000e+03 4.231800079345703125e+01 -1.082734489440917969e+01 1.198495924472808838e-01 7.806708216667175293e-01 2.701561152935028076e-01 -7.782369852066040039e-01
3.354000000000000000e+03 6.946815490722656250e+01 1.403314495086669922e+01 8.023174405097961426e-01 1.706392765045166016e+00 7.526130676269531250e-01 -2.204228751361370087e-02
3.355000000000000000e+03 4.650008773803710938e+01 2.887447929382324219e+01 1.220123842358589172e-01 1.968131810426712036e-01 9.564767032861709595e-02 -1.591955125331878662e-01
3.356000000000000000e+03 8.398921012878417969e+00 -1.880009269714355469e+01 -2.286854758858680725e-02 -3.983364999294281006e-01 -1.263615190982818604e-01 -7.716565132141113281e-01
3.357000000000000000e+03 6.699540710449218750e+01 2.549788713455200195e+00 4.089855849742889404e-01 1.890947580337524414e+00 6.899799704551696777e-01 -4.215608835220336914e-01
3.358000000000000000e+03 2.971752738952636719e+01 -3.843778848648071289e+00 -1.459666728973388672e+00 3.144831657409667969e-01 -3.435550630092620850e-01 -8.183960318565368652e-01
3.359000000000000000e+03 2.853579330444335938e+01 -3.361268520355224609e+00 -1.467375516891479492e+00 7.480695843696594238e-02 -4.177705645561218262e-01 -8.101434707641601562e-01
3.360000000000000000e+03 2.766071701049804688e+01 -3.771829843521118164e+00 -1.150422692298889160e+00 -4.289626330137252808e-02 -3.579956889152526855e-01 -9.018830060958862305e-01
3.361000000000000000e+03 2.831656455993652344e+01 -3.964530944824218750e+00 -1.170477271080017090e+00 6.301613897085189819e-02 -3.322383463382720947e-01 -8.991892337799072266e-01
3.362000000000000000e+03 3.515881729125976562e+01 1.468751144409179688e+01 -3.302311524748802185e-02 1.426376053132116795e-03 -9.479021653532981873e-03 2.220036834478378296e-02
3.363000000000000000e+03 1.398261642456054688e+01 9.506363868713378906e+00 3.625140016083605587e-05 2.125093305949121714e-04 7.462821668013930321e-05 7.353242835961282253e-05
3.364000000000000000e+03 3.028055763244628906e+01 -4.531996250152587891e+00 -1.172374486923217773e+00 4.683496057987213135e-01 -2.112074792385101318e-01 -8.402579426765441895e-01
3.365000000000000000e+03 1.482769489288330078e+01 8.309247970581054688e+00 4.686775355366989970e-05 1.828600798035040498e-04 6.891835073474794626e-05 9.265190601581707597e-05
3.366000000000000000e+03 1.296938896179199219e+01 6.708981990814208984e+00 1.113591351895593107e-04 -9.027788792081992142e-07 3.313690831419080496e-05 1.432891585864126682e-04
3.367000000000000000e+03 2.766645812988281250e+01 -4.509650707244873047e+00 -8.982244133949279785e-01 -1.629234850406646729e-02 -2.743550240993499756e-01 -9.945340156555175781e-01
3.368000000000000000e+03 2.881031417846679688e+01 -3.191966772079467773e+00 -1.604187488555908203e+00 1.012084037065505981e-01 -4.508937001228332520e-01 -7.584899067878723145e-01
3.369000000000000000e+03 1.106444549560546875e+01 1.443433189392089844e+01 2.846961142495274544e-04 -5.360452341847121716e-04 -7.540472870459780097e-05 4.090016009286046028e-04
3.370000000000000000e+03 1.261068916320800781e+01 1.135501194000244141e+01 -3.850994835374876857e-05 6.335720536299049854e-05 7.454176738974638283e-06 2.733959699980914593e-04
3.371000000000000000e+03 1.340821170806884766e+01 1.016557884216308594e+01 -2.207146098953671753e-05 1.927558914758265018e-04 5.120533023728057742e-05 1.119599837693385780e-04
3.372000000000000000e+03 3.456663894653320312e+01 1.606523323059082031e+01 -4.974468052387237549e-02 2.655579475685954094e-03 -1.412673015147447586e-02 3.340893611311912537e-02
3.373000000000000000e+03 1.567469692230224609e+01 7.407744407653808594e+00 -7.959248614497482777e-05 1.980277920665685087e-05 -1.793691080820281059e-05 -2.366462649661116302e-05
3.374000000000000000e+03 1.625790786743164062e+01 6.777622699737548828e+00 -6.329888856271281838e-05 9.764764399733394384e-06 -1.606023761269170791e-05 -4.305354741518385708e-05
3.375000000000000000e+03 1.068189907073974609e+01 1.474096870422363281e+01 1.943953102454543114e-04 -5.154086393304169178e-04 -9.630400018068030477e-05 5.355462199077010155e-04
3.376000000000000000e+03 1.298194885253906250e+01 1.035022544860839844e+01 9.785706788534298539e-05 1.015744055621325970e-04 5.982944276183843613e-05 3.063837939407676458e-04
3.377000000000000000e+03 1.362930488586425781e+01 9.275504112243652344e+00 -1.171184485428966582e-04 7.152889156714081764e-05 -1.367686581943416968e-05 1.829866669140756130e-04
3.378000000000000000e+03 3.463383865356445312e+01 1.873168754577636719e+01 -7.281012833118438721e-02 1.235783658921718597e-02 -1.813568919897079468e-02 4.103220626711845398e-02
3.379000000000000000e+03 1.199333858489990234e+01 1.063269233703613281e+01 -3.284473132225684822e-05 -2.598453102109488100e-05 -1.764877924870233983e-05 2.809477155096828938e-04
3.380000000000000000e+03 1.338497257232666016e+01 8.162945747375488281e+00 8.974582306109368801e-05 7.475097390852170065e-06 2.916627636295743287e-05 1.102788664866238832e-04
3.381000000000000000e+03 2.675021362304687500e+01 -4.448962211608886719e+00 -8.658407330513000488e-01 -1.450749635696411133e-01 -3.032746911048889160e-01 -9.826291203498840332e-01
3.382000000000000000e+03 1.141132450103759766e+01 1.626628684997558594e+01 8.198791329050436616e-05 -5.274565191939473152e-04 -1.336405839538201690e-04 6.465550395660102367e-04
3.383000000000000000e+03 1.190588951110839844e+01 1.732359886169433594e+01 -8.383452659472823143e-04 -5.655852146446704865e-04 -4.211791383568197489e-04 2.753298031166195869e-04
3.384000000000000000e+03 1.147013950347900391e+01 1.193107795715332031e+01 2.741540374699980021e-04 -1.673488804954104125e-05 7.722574810031801462e-05 3.356480447109788656e-04
3.385000000000000000e+03 1.094809722900390625e+01 1.368090915679931641e+01 1.813564012991264462e-04 -4.854920262005180120e-04 -9.124069038080051541e-05 4.386212676763534546e-04
3.386000000000000000e+03 1.189512443542480469e+01 2.244124984741210938e+01 -1.229339838027954102e-02 7.960584480315446854e-04 -3.449202049523591995e-03 3.147786948829889297e-03
3.387000000000000000e+03 1.265181446075439453e+01 2.322738075256347656e+01 -1.593989133834838867e-02 9.597220923751592636e-04 -4.494050983339548111e-03 5.691089667379856110e-03
3.388000000000000000e+03 1.136047077178955078e+01 1.331760787963867188e+01 2.848124131560325623e-04 -2.082015416817739606e-04 2.298326398886274546e-05 5.138887790963053703e-04
3.389000000000000000e+03 1.141392612457275391e+01 6.953273773193359375e+00 1.137206563726067543e-04 -7.723644375801086426e-05 1.094526487577240914e-05 1.404416834702715278e-04
3.390000000000000000e+03 1.172180747985839844e+01 7.394350051879882812e+00 -1.062097944668494165e-04 3.132593337795697153e-05 -2.246515759907197207e-05 6.085980567149817944e-05
3.391000000000000000e+03 1.561927700042724609e+01 6.779031276702880859e+00 -5.883675839868374169e-05 6.959949132578913122e-06 -1.556304232508409768e-05 -2.718757787079084665e-05
3.392000000000000000e+03 9.987350463867187500e+00 2.122010993957519531e+01 -6.635731086134910583e-03 -5.562959122471511364e-04 -2.157608047127723694e-03 1.567997853271663189e-03
3.393000000000000000e+03 1.102106189727783203e+01 1.998329162597656250e+01 -3.854868933558464050e-03 -5.852171452715992928e-04 -1.332025858573615551e-03 2.983931335620582104e-04
3.394000000000000000e+03 1.077429771423339844e+01 7.209508419036865234e+00 4.483831435209140182e-05 4.197513590042944998e-06 1.471074847358977422e-05 6.717745236528571695e-06
3.395000000000000000e+03 1.130067253112792969e+01 6.402299404144287109e+00 8.871863974491134286e-05 2.044762550212908536e-05 3.274987830081954598e-05 5.302186309563694522e-06
3.396000000000000000e+03 1.495096015930175781e+01 7.426522731781005859e+00 -9.976538422051817179e-05 3.830758578260429204e-05 -1.843734025896992534e-05 1.104270631913095713e-05
3.397000000000000000e+03 1.472895050048828125e+01 5.832216739654541016e+00 3.202901643817313015e-05 1.904028795252088457e-05 1.532079113530926406e-05 5.126485120854340494e-05
3.398000000000000000e+03 3.603257751464843750e+01 1.616748046875000000e+01 -5.505261570215225220e-02 1.726339384913444519e-02 -1.133676711469888687e-02 2.560298331081867218e-02
3.399000000000000000e+03 1.382653236389160156e+01 7.937849998474121094e+00 -7.384666969301179051e-05 1.375907013425603509e-04 1.912320840347092599e-05 7.739147986285388470e-05
3.400000000000000000e+03 1.428753376007080078e+01 2.392507362365722656e+01 -2.122062630951404572e-02 1.716851722449064255e-03 -5.851132795214653015e-03 1.001887861639261246e-02
3.401000000000000000e+03 1.336444091796875000e+01 5.990116596221923828e+00 2.432687688269652426e-05 -9.503873116045724601e-06 4.446901129995239899e-06 1.138141233241185546e-04
3.402000000000000000e+03 8.102252006530761719e+00 -9.502493858337402344e+00 -3.932959735393524170e-01 -7.633572071790695190e-02 -1.408895105123519897e-01 -1.232084184885025024e-01
3.403000000000000000e+03 9.619944572448730469e+00 -7.259414672851562500e+00 -3.219050467014312744e-01 -9.589186310768127441e-02 -1.253390759229660034e-01 -6.675979122519493103e-03
3.404000000000000000e+03 3.463669204711914062e+01 1.654183006286621094e+01 -5.169014260172843933e-02 3.137998515740036964e-03 -1.456564385443925858e-02 3.668905794620513916e-02
3.405000000000000000e+03 2.192723464965820312e+01 2.847010231018066406e+01 -1.417860295623540878e-02 -2.704847045242786407e-02 -1.236812211573123932e-02 4.298248887062072754e-02
3.406000000000000000e+03 1.205140686035156250e+01 1.978589630126953125e+01 -4.494596272706985474e-03 -2.610494266264140606e-04 -1.426693750545382500e-03 -7.311289664357900620e-05
3.407000000000000000e+03 1.339126205444335938e+01 2.480400657653808594e+01 -1.811928860843181610e-02 7.787321374053135514e-05 -5.412424448877573013e-03 1.216675247997045517e-02
3.408000000000000000e+03 1.137127494812011719e+01 2.153569221496582031e+01 -9.046045131981372833e-03 1.376653526676818728e-04 -2.672513946890830994e-03 1.474409131333231926e-03
3.409000000000000000e+03 3.357874298095703125e+01 1.964321899414062500e+01 -8.217821270227432251e-02 2.477731788530945778e-03 -2.391014434397220612e-02 4.499407857656478882e-02
3.410000000000000000e+03 3.703512954711914062e+01 1.573543548583984375e+01 -5.671040341258049011e-02 2.110939845442771912e-02 -1.068030204623937607e-02 1.934587582945823669e-02
3.411000000000000000e+03 3.671208572387695312e+01 1.659524154663085938e+01 -6.435216218233108521e-02 2.040097303688526154e-02 -1.318535767495632172e-02 2.804734185338020325e-02
3.412000000000000000e+03 1.115989112854003906e+01 1.857904434204101562e+01 -1.356976339593529701e-03 -8.339413325302302837e-04 -6.572753190994262695e-04 -9.894452523440122604e-05
3.413000000000000000e+03 1.038590621948242188e+01 1.844831466674804688e+01 -2.053246367722749710e-03 -1.243121572770178318e-03 -9.889103239402174950e-04 -8.365885878447443247e-05
3.414000000000000000e+03 3.499182510375976562e+01 1.835295486450195312e+01 -7.591634988784790039e-02 1.612849719822406769e-02 -1.793635636568069458e-02 4.309263080358505249e-02
3.415000000000000000e+03 3.496684265136718750e+01 1.920236778259277344e+01 -8.447312563657760620e-02 2.338351681828498840e-02 -1.832688227295875549e-02 4.008434712886810303e-02
3.416000000000000000e+03 1.047282505035400391e+01 5.963783264160156250e+00 8.891109609976410866e-05 -4.380565587780438364e-05 1.353163315798155963e-05 -4.406194784678518772e-05
3.417000000000000000e+03 9.967430114746093750e+00 8.741422653198242188e+00 2.793050953187048435e-04 -1.328998623648658395e-04 4.392156915855593979e-05 1.328260550508275628e-04
3.418000000000000000e+03 7.033193969726562500e+01 -5.558773994445800781e+00 -3.140380680561065674e-01 2.866304814815521240e-01 -8.222278207540512085e-03 -8.381880521774291992e-01
3.419000000000000000e+03 6.797089385986328125e+01 -5.544684886932373047e+00 -3.786342740058898926e-01 5.665280222892761230e-01 5.636812373995780945e-02 -7.023657560348510742e-01
3.420000000000000000e+03 3.151338768005371094e+01 2.456046485900878906e+01 -5.135000497102737427e-02 -1.399266161024570465e-02 -1.960279978811740875e-02 2.228766679763793945e-02
3.421000000000000000e+03 7.216085433959960938e+00 1.308172798156738281e+01 1.153317934949882329e-04 -5.993386148475110531e-04 -1.452020514989271760e-04 -5.302170757204294205e-05
3.422000000000000000e+03 1.101835823059082031e+01 1.270831966400146484e+01 3.038141876459121704e-04 -1.501634251326322556e-04 4.609522875398397446e-05 3.580330812837928534e-04
3.423000000000000000e+03 3.261458587646484375e+01 2.489320564270019531e+01 -4.481758177280426025e-02 9.326014551334083080e-04 -1.316549442708492279e-02 2.311351336538791656e-02
3.424000000000000000e+03 3.244548034667968750e+01 2.322781753540039062e+01 -7.277555018663406372e-02 -2.369381254538893700e-03 -2.254347875714302063e-02 2.656182833015918732e-02
3.425000000000000000e+03 6.676086425781250000e+01 -4.980306625366210938e+00 -3.125071823596954346e-01 7.382121086120605469e-01 1.277114748954772949e-01 -5.375060439109802246e-01
3.426000000000000000e+03 6.917629241943359375e+01 -5.300356864929199219e+00 -3.400612175464630127e-01 3.959741294384002686e-01 1.677387207746505737e-02 -8.026242256164550781e-01
3.427000000000000000e+03 3.297992706298828125e+01 2.220783233642578125e+01 -8.574435859918594360e-02 6.545980926603078842e-03 -2.375951223075389862e-02 2.990712039172649384e-02
3.428000000000000000e+03 3.279500961303710938e+01 2.143661308288574219e+01 -8.937021344900131226e-02 -1.445074682123959064e-03 -2.724458649754524231e-02 3.770088404417037964e-02
3.429000000000000000e+03 7.090329742431640625e+01 -4.711430549621582031e+00 -2.551897466182708740e-01 2.162743508815765381e-01 -1.167461834847927094e-02 -8.790881037712097168e-01
3.430000000000000000e+03 7.167057991027832031e+00 2.170121002197265625e+01 -3.835152368992567062e-03 -1.633108360692858696e-03 -1.640478265471756458e-03 1.986441900953650475e-03
3.431000000000000000e+03 8.208911895751953125e+00 2.172347450256347656e+01 -4.246539901942014694e-03 -1.141169806942343712e-03 -1.616313005797564983e-03 2.236947184428572655e-03
3.432000000000000000e+03 8.641323089599609375e+00 -8.675828933715820312e+00 -3.792681992053985596e-01 -8.596385270357131958e-02 -1.395696103572845459e-01 -7.122597098350524902e-02
3.433000000000000000e+03 1.060347747802734375e+01 6.566794395446777344e+00 6.079070226405747235e-05 -1.059273272403515875e-04 -1.354098731098929420e-05 1.726517075439915061e-04
3.434000000000000000e+03 1.119453907012939453e+01 7.807563304901123047e+00 2.023224660661071539e-04 -7.950987492222338915e-05 3.684377952595241368e-05 2.198557776864618063e-04
3.435000000000000000e+03 9.541436195373535156e+00 8.133108139038085938e+00 2.159369614673778415e-05 -7.087019184837117791e-05 -1.478294871049001813e-05 4.833981802221387625e-05
3.436000000000000000e+03 9.042603492736816406e+00 7.620262145996093750e+00 3.479394945316016674e-04 -1.772100949892774224e-04 5.121881622471846640e-05 8.797679038252681494e-05
3.437000000000000000e+03 1.779262351989746094e+01 2.685522270202636719e+01 -2.700906619429588318e-02 -1.027462258934974670e-02 -1.118510682135820389e-02 3.098181076347827911e-02
3.438000000000000000e+03 1.977830314636230469e+01 2.751062774658203125e+01 -2.383204922080039978e-02 -1.859714463353157043e-02 -1.272875815629959106e-02 3.752918168902397156e-02
3.439000000000000000e+03 1.851728630065917969e+01 2.753770828247070312e+01 -2.146615646779537201e-02 -1.413343567401170731e-02 -1.067987736314535141e-02 3.404794260859489441e-02
3.440000000000000000e+03 1.025161838531494141e+01 1.915704727172851562e+01 -2.212936524301767349e-03 -9.234753088094294071e-04 -9.409235790371894836e-04 2.176853449782356620e-04
3.441000000000000000e+03 7.047296905517578125e+01 -7.584100246429443359e+00 -5.237672328948974609e-01 2.108032703399658203e-01 -9.388919919729232788e-02 -7.141891121864318848e-01
3.442000000000000000e+03 7.129960632324218750e+01 -7.570439338684082031e+00 -4.421757161617279053e-01 1.422282010316848755e-01 -8.998426049947738647e-02 -7.442736029624938965e-01
3.443000000000000000e+03 2.376930427551269531e+01 2.630181503295898438e+01 -4.124993458390235901e-02 -3.315991535782814026e-02 -2.232295460999011993e-02 4.344457760453224182e-02
3.444000000000000000e+03 3.635318756103515625e+01 1.743972587585449219e+01 -6.995023041963577271e-02 2.737066335976123810e-02 -1.277387049049139023e-02 3.002203255891799927e-02
3.445000000000000000e+03 8.019682884216308594e+00 1.538162899017333984e+01 2.521241549402475357e-04 -9.487621719017624855e-04 -2.089914050884544849e-04 -2.657990262378007174e-04
3.446000000000000000e+03 7.708839416503906250e+00 1.463337135314941406e+01 1.984506525332108140e-05 -8.198913419619202614e-04 -2.400138764642179012e-04 8.023530972423031926e-05
3.447000000000000000e+03 7.175878524780273438e+00 2.899136543273925781e+01 -3.265752224251627922e-03 -7.574427872896194458e-03 -3.252054098993539810e-03 1.013601478189229965e-02
3.448000000000000000e+03 9.385192871093750000e+00 3.089584541320800781e+01 -1.269482076168060303e-03 -1.069401856511831284e-02 -3.589050145819783211e-03 1.512673776596784592e-02
3.449000000000000000e+03 1.030393218994140625e+01 1.281951713562011719e+01 1.822430640459060669e-04 -5.065165460109710693e-04 -9.728204167913645506e-05 3.599959891289472580e-04
3.450000000000000000e+03 7.999686717987060547e+00 1.144119358062744141e+01 4.418357275426387787e-04 -3.521217731758952141e-04 2.691418740141671151e-05 -4.835835625272011384e-06
3.451000000000000000e+03 8.177835464477539062e+00 1.610644721984863281e+01 -3.581283381208777428e-04 -1.159859704785048962e-03 -4.553963954094797373e-04 2.008149895118549466e-04
3.452000000000000000e+03 6.876193237304687500e+01 -1.147277474403381348e+00 4.945808276534080505e-02 8.575835824012756348e-01 2.721124887466430664e-01 -7.495532631874084473e-01
3.453000000000000000e+03 6.642453765869140625e+01 6.868648529052734375e-01 2.770982086658477783e-01 1.709183216094970703e+00 5.958844423294067383e-01 -3.979202508926391602e-01
3.454000000000000000e+03 9.407867431640625000e+00 2.365639877319335938e+01 -7.651031482964754105e-03 -1.222994877025485039e-03 -2.662207931280136108e-03 4.969637840986251831e-03
3.455000000000000000e+03 1.513978672027587891e+01 2.496695899963378906e+01 -2.399954386055469513e-02 -2.145455800928175449e-04 -7.264226675033569336e-03 1.553843822330236435e-02
3.456000000000000000e+03 8.981132507324218750e+00 -1.071266174316406250e+01 -5.131281614303588867e-01 -1.204499229788780212e-01 -1.900734305381774902e-01 -2.312730997800827026e-01
3.457000000000000000e+03 6.528047084808349609e+00 -8.421265602111816406e+00 -2.432647347450256348e-01 -2.580884285271167755e-02 -8.072207123041152954e-02 -3.250320255756378174e-02
3.458000000000000000e+03 5.030126571655273438e+00 -9.557306289672851562e+00 -1.810574233531951904e-01 -8.157037198543548584e-03 -5.676433816552162170e-02 -7.399257272481918335e-02
3.459000000000000000e+03 6.443426513671875000e+01 -4.276873111724853516e+00 -2.134491503238677979e-01 1.188669681549072266e+00 2.925661504268646240e-01 -1.462963968515396118e-01
3.460000000000000000e+03 6.494129180908203125e+01 -3.300530433654785156e+00 -1.182974055409431458e-01 1.351438641548156738e+00 3.699423670768737793e-01 -2.088653892278671265e-01
3.461000000000000000e+03 6.883146667480468750e+01 5.827429771423339844e+00 5.697078704833984375e-01 1.518911004066467285e+00 6.265856623649597168e-01 -5.160427093505859375e-01
3.462000000000000000e+03 8.359057426452636719e+00 1.675006484985351562e+01 -4.197589296381920576e-04 -1.114675658755004406e-03 -4.603303968906402588e-04 -2.776699839159846306e-04
3.463000000000000000e+03 6.911195373535156250e+01 -2.425420045852661133e+00 -7.451121509075164795e-02 6.288911104202270508e-01 1.663139611482620239e-01 -8.157253265380859375e-01
3.464000000000000000e+03 7.047335052490234375e+01 -1.554276347160339355e+00 -1.283039152622222900e-02 4.066309630870819092e-01 1.181401684880256653e-01 -8.693085312843322754e-01
3.465000000000000000e+03 9.169809341430664062e+00 2.776500892639160156e+01 -5.399931687861680984e-03 -5.795028991997241974e-03 -3.358488203957676888e-03 1.221560593694448471e-02
3.466000000000000000e+03 8.711218833923339844e+00 2.500081443786621094e+01 -6.577612832188606262e-03 -2.471453975886106491e-03 -2.714720088988542557e-03 7.329585961997509003e-03
3.467000000000000000e+03 7.416323852539062500e+01 1.944012641906738281e+01 2.543602883815765381e-01 -9.441570639610290527e-01 -2.069390416145324707e-01 5.433427095413208008e-01
3.468000000000000000e+03 7.276251220703125000e+01 1.829981613159179688e+01 4.331580996513366699e-01 -2.508896589279174805e-01 5.468053370714187622e-02 4.712562263011932373e-01
3.469000000000000000e+03 7.059262847900390625e+01 1.436460399627685547e+01 7.394441366195678711e-01 9.888643026351928711e-01 5.184925198554992676e-01 2.788975648581981659e-02
3.470000000000000000e+03 6.979077148437500000e+01 1.125922584533691406e+01 7.205333113670349121e-01 1.462980389595031738e+00 6.550540924072265625e-01 -1.900616437196731567e-01
3.471000000000000000e+03 7.179220581054687500e+01 1.348350238800048828e+01 5.985729098320007324e-01 2.881458699703216553e-01 2.660156488418579102e-01 -4.643008112907409668e-02
3.472000000000000000e+03 4.248591995239257812e+01 -1.687371635437011719e+01 2.441243886947631836e+00 2.531970739364624023e+00 1.491964340209960938e+00 1.429009884595870972e-01
3.473000000000000000e+03 7.141642761230468750e+01 3.610478878021240234e+00 2.930445969104766846e-01 3.205971717834472656e-01 1.840925365686416626e-01 -7.639672756195068359e-01
3.474000000000000000e+03 7.166197204589843750e+01 1.981473350524902344e+01 4.311341047286987305e-01 2.380591332912445068e-01 2.007579654455184937e-01 6.086472868919372559e-01
3.475000000000000000e+03 7.103359985351562500e+01 2.084495353698730469e+01 4.259182512760162354e-01 5.844271779060363770e-01 3.031036257743835449e-01 7.070367932319641113e-01
3.476000000000000000e+03 3.612283325195312500e+01 1.967473411560058594e+01 -8.276148885488510132e-02 3.386826440691947937e-02 -1.466796826571226120e-02 3.773089870810508728e-02
3.477000000000000000e+03 3.600972366333007812e+01 1.824599075317382812e+01 -7.543160766363143921e-02 2.422764897346496582e-02 -1.536118797957897186e-02 3.804546594619750977e-02
3.478000000000000000e+03 6.369788360595703125e+01 -1.371483683586120605e+00 1.444742977619171143e-01 1.956709027290344238e+00 6.303550004959106445e-01 8.366876095533370972e-02
3.479000000000000000e+03 6.603190612792968750e+01 -1.042336940765380859e+00 1.235396936535835266e-01 1.500132918357849121e+00 4.871017932891845703e-01 -3.814721405506134033e-01
3.480000000000000000e+03 3.895548248291015625e+01 2.479249954223632812e+01 -2.254310436546802521e-02 6.601760536432266235e-02 1.304235029965639114e-02 1.219781767576932907e-02
3.481000000000000000e+03 6.330265045166015625e+01 2.243690299987792969e+01 6.907680034637451172e-01 3.932048320770263672e+00 1.386844873428344727e+00 -4.035386443138122559e-01
3.482000000000000000e+03 4.924168395996093750e+01 2.846743965148925781e+01 1.849301904439926147e-01 2.826531529426574707e-01 1.402750015258789062e-01 -2.915303409099578857e-01
3.483000000000000000e+03 7.302181243896484375e+01 2.092584037780761719e+01 2.836649417877197266e-01 -2.891189754009246826e-01 -1.636203145608305931e-03 6.880878806114196777e-01
3.484000000000000000e+03 1.229392814636230469e+01 3.050142669677734375e+01 -2.639752812683582306e-03 -1.178708206862211227e-02 -4.328050650656223297e-03 1.968473754823207855e-02
3.485000000000000000e+03 1.277923774719238281e+01 3.234170913696289062e+01 4.809520905837416649e-04 -1.547944359481334686e-02 -4.499547649174928665e-03 2.044184692203998566e-02
3.486000000000000000e+03 6.758641815185546875e+01 1.261684060096740723e+00 2.848705053329467773e-01 1.505195856094360352e+00 5.370199084281921387e-01 -5.331801772117614746e-01
3.487000000000000000e+03 2.970092964172363281e+01 -4.414891719818115234e+00 -1.166332483291625977e+00 3.458686172962188721e-01 -2.461391687393188477e-01 -8.859581351280212402e-01
3.488000000000000000e+03 3.070905876159667969e+01 -3.715354204177856445e+00 -1.649302363395690918e+00 3.594229817390441895e-01 -3.869638144969940186e-01 -6.610983014106750488e-01
3.489000000000000000e+03 1.357581043243408203e+01 8.567267417907714844e+00 -4.954298856318928301e-05 1.286054466618224978e-04 2.371873597439844161e-05 1.133256373577751219e-04
3.490000000000000000e+03 1.282617092132568359e+01 1.099320411682128906e+01 1.500952203059569001e-04 1.515992189524695277e-04 9.050833614310249686e-05 3.372419159859418869e-04
3.491000000000000000e+03 1.363833236694335938e+01 9.642731666564941406e+00 5.474642603076063097e-05 1.325454504694789648e-04 5.618756404146552086e-05 1.161859909188933671e-04
3.492000000000000000e+03 1.321414375305175781e+01 9.733040809631347656e+00 1.136419905378716066e-05 1.112714016926474869e-04 3.679067958728410304e-05 2.610518713481724262e-04
3.493000000000000000e+03 1.202476692199707031e+01 1.126747512817382812e+01 2.445434220135211945e-04 9.691106970421969891e-05 1.024363446049392223e-04 3.128623066004365683e-04
3.494000000000000000e+03 1.010961246490478516e+01 7.617451667785644531e+00 2.396293712081387639e-04 -1.155428035417571664e-04 3.722597102751024067e-05 1.228654000442475080e-04
3.495000000000000000e+03 1.198401832580566406e+01 6.885390758514404297e+00 1.845743099693208933e-04 -1.448006742066354491e-06 5.493789285537786782e-05 6.316223152680322528e-05
3.496000000000000000e+03 1.110969352722167969e+01 1.926652336120605469e+01 -3.502569627016782761e-03 -9.096786379814147949e-04 -1.323674456216394901e-03 -1.532946043880656362e-04
3.497000000000000000e+03 2.924650955200195312e+01 -4.287052631378173828e+00 -1.179310798645019531e+00 2.277860045433044434e-01 -2.854574620723724365e-01 -9.105035066604614258e-01
3.498000000000000000e+03 1.446966457366943359e+01 8.066177368164062500e+00 -6.683903484372422099e-05 6.057636346668004990e-05 -1.878800617305387277e-06 2.553787271608598530e-05
3.499000000000000000e+03 1.406983852386474609e+01 8.315752029418945312e+00 5.081544441054575145e-05 1.024594603222794831e-04 4.598246960085816681e-05 8.270150283351540565e-05
3.500000000000000000e+03 1.069998264312744141e+01 1.408656692504882812e+01 3.412691876292228699e-04 -3.517132427077740431e-04 -3.133218115181080066e-06 4.794903215952217579e-04
3.501000000000000000e+03 8.728275299072265625e+00 1.512289619445800781e+01 8.885411079972982407e-05 -1.022599288262426853e-03 -2.801235532388091087e-04 2.078814432024955750e-04
3.502000000000000000e+03 1.135674381256103516e+01 1.127729225158691406e+01 8.035815699258819222e-05 -1.468370173824951053e-04 -1.994365629798267037e-05 3.661862865556031466e-04
3.503000000000000000e+03 9.712632179260253906e+00 1.806742668151855469e+01 -1.419275999069213867e-03 -1.092470833100378513e-03 -7.535240729339420795e-04 1.060825597960501909e-04
3.504000000000000000e+03 1.455105876922607422e+01 7.071807861328125000e+00 7.061359065119177103e-05 9.166563540929928422e-05 4.868377072853036225e-05 7.593556074425578117e-05
3.505000000000000000e+03 1.057018756866455078e+01 1.625596237182617188e+01 -1.414908638253109530e-05 -8.566928445361554623e-04 -2.612525713630020618e-04 4.884818918071687222e-04
3.506000000000000000e+03 3.529066848754882812e+01 1.517608737945556641e+01 -4.440486431121826172e-02 6.308672484010457993e-03 -1.142885815352201462e-02 2.605112828314304352e-02
3.507000000000000000e+03 3.571434783935546875e+01 1.467422199249267578e+01 -3.982911631464958191e-02 7.921856828033924103e-03 -9.572177194058895111e-03 1.891531981527805328e-02
3.508000000000000000e+03 1.083233737945556641e+01 1.203843688964843750e+01 1.808139495551586151e-04 -3.245280240662395954e-04 -4.311422162572853267e-05 4.080006328877061605e-04
3.509000000000000000e+03 3.553995513916015625e+01 1.886557197570800781e+01 -7.482837140560150146e-02 2.415558695793151855e-02 -1.520183589309453964e-02 3.569987043738365173e-02
3.510000000000000000e+03 9.712183952331542969e+00 1.402972221374511719e+01 4.321369924582540989e-04 -6.168112158775329590e-04 -5.540226993616670370e-05 1.434864243492484093e-04
3.511000000000000000e+03 1.038348484039306641e+01 1.435456657409667969e+01 3.980211040470749140e-04 -6.791474297642707825e-04 -8.433789480477571487e-05 2.457190130371600389e-04
3.512000000000000000e+03 8.908704757690429688e+00 1.356500530242919922e+01 4.326773923821747303e-04 -6.040272419340908527e-04 -5.140495341038331389e-05 2.898419188568368554e-05
3.513000000000000000e+03 8.419240951538085938e+00 8.618901252746582031e+00 4.019849002361297607e-04 -1.976310741156339645e-04 6.130614929134026170e-05 1.501099518463888671e-06
3.514000000000000000e+03 9.252003669738769531e+00 9.202817916870117188e+00 1.995451020775362849e-04 -1.263833255507051945e-04 2.194853550463449210e-05 1.929005884448997676e-05
3.515000000000000000e+03 1.470447349548339844e+01 7.761806011199951172e+00 8.038246596697717905e-05 1.462906511733308434e-04 6.800193659728392959e-05 9.782683628145605326e-05
3.516000000000000000e+03 1.424352645874023438e+01 6.679881095886230469e+00 -4.966509004589170218e-05 4.280894791008904576e-05 -2.056842504316591658e-06 1.402470024913782254e-05
3.517000000000000000e+03 3.546580123901367188e+01 1.716970062255859375e+01 -6.185016036033630371e-02 1.307078171521425247e-02 -1.463381387293338776e-02 3.573804721236228943e-02
3.518000000000000000e+03 1.352865028381347656e+01 6.468272209167480469e+00 -1.545397572044748813e-05 5.622090611723251641e-05 1.223007893713656813e-05 -9.937623872247058898e-06
3.519000000000000000e+03 1.207536315917968750e+01 2.171303939819335938e+01 -9.562706574797630310e-03 8.564894087612628937e-04 -2.611865056678652763e-03 1.761494087986648083e-03
3.520000000000000000e+03 1.252399349212646484e+01 9.403353691101074219e+00 6.479221337940543890e-05 2.880353804357582703e-06 2.030176983680576086e-05 2.645088534336537123e-04
3.521000000000000000e+03 1.427562522888183594e+01 7.728606700897216797e+00 3.124716022284701467e-05 3.098149682045914233e-05 1.866859747678972781e-05 8.187504863599315286e-05
3.522000000000000000e+03 2.096114540100097656e+01 2.787299346923828125e+01 -1.839583553373813629e-02 -2.356025576591491699e-02 -1.258682738989591599e-02 3.976367041468620300e-02
3.523000000000000000e+03 1.005154418945312500e+01 -8.448988914489746094e+00 -4.431996345520019531e-01 -1.370830684900283813e-01 -1.740848124027252197e-01 -7.486989349126815796e-02
3.524000000000000000e+03 8.989658355712890625e+00 -9.918008804321289062e+00 -4.690513014793395996e-01 -1.166564449667930603e-01 -1.757123172283172607e-01 -1.695282161235809326e-01
3.525000000000000000e+03 1.205967140197753906e+01 2.468013381958007812e+01 -1.370973419398069382e-02 -2.959871781058609486e-04 -4.201716277748346329e-03 9.123914875090122223e-03
3.526000000000000000e+03 1.341510009765625000e+01 2.323890686035156250e+01 -1.715932786464691162e-02 1.988551113754510880e-03 -4.551233258098363876e-03 6.645697634667158127e-03
3.527000000000000000e+03 1.462576961517333984e+01 6.428479671478271484e+00 6.949534144951030612e-05 7.204298890428617597e-05 4.246149910613894463e-05 5.433833575807511806e-05
3.528000000000000000e+03 8.758975982666015625e+00 1.624417686462402344e+01 -1.176214755105320364e-05 -1.088783843442797661e-03 -3.301638062112033367e-04 9.933828550856560469e-05
3.529000000000000000e+03 1.060338115692138672e+01 1.546987342834472656e+01 1.425456430297344923e-04 -6.925639463588595390e-04 -1.650054909987375140e-04 5.382527597248554230e-04
3.530000000000000000e+03 1.025182056427001953e+01 1.987390899658203125e+01 -4.321613814681768417e-03 -9.117921581491827965e-04 -1.570021733641624451e-03 2.952171198558062315e-04
3.531000000000000000e+03 1.153824043273925781e+01 2.087138557434082031e+01 -6.531218998134136200e-03 9.802639397094026208e-05 -1.929957768879830837e-03 8.311333949677646160e-04
3.532000000000000000e+03 9.171620368957519531e+00 1.573726081848144531e+01 -7.573348557343706489e-05 -1.001268043182790279e-03 -3.231004520785063505e-04 -6.159277836559340358e-05
3.533000000000000000e+03 8.186177253723144531e+00 1.370716476440429688e+01 1.402328052790835500e-04 -7.529953727498650551e-04 -1.838287571445107460e-04 1.071499864337965846e-04
3.534000000000000000e+03 1.253298568725585938e+01 1.058433628082275391e+01 -1.384263896397897042e-06 1.781527244020253420e-04 5.303053694660775363e-05 2.224635973107069731e-04
3.535000000000000000e+03 8.028368949890136719e+00 1.298325061798095703e+01 4.658252291847020388e-04 -5.652858526445925236e-04 -2.983818194479681551e-05 -6.038728315616026521e-05
3.536000000000000000e+03 8.727966308593750000e+00 1.224541473388671875e+01 4.423479840625077486e-04 -4.105558909941464663e-04 9.537630830891430378e-06 8.501014235662296414e-05
3.537000000000000000e+03 3.573171615600585938e+01 1.513134002685546875e+01 -4.367719963192939758e-02 8.256373926997184753e-03 -1.062624715268611908e-02 2.488603256642818451e-02
3.538000000000000000e+03 3.518155670166015625e+01 2.003260040283203125e+01 -7.785419374704360962e-02 2.531341090798377991e-02 -1.576223410665988922e-02 3.883604705333709717e-02
3.539000000000000000e+03 9.547995567321777344e+00 1.987872314453125000e+01 -2.973616356030106544e-03 -1.043488620780408382e-03 -1.205131527967751026e-03 4.396392614580690861e-04
3.540000000000000000e+03 8.624154090881347656e+00 8.105257034301757812e+00 -6.314738857327029109e-05 -6.092562398407608271e-05 -3.722190376720391214e-05 -3.429672688071150333e-07
3.541000000000000000e+03 1.267235660552978516e+01 2.464590644836425781e+01 -1.643856056034564972e-02 -4.931761650368571281e-04 -5.079520866274833679e-03 1.030724775046110153e-02
3.542000000000000000e+03 8.752803802490234375e+00 1.156323814392089844e+01 1.800998870749026537e-04 -5.436828359961509705e-04 -1.090748846763744950e-04 8.952634379966184497e-05
3.543000000000000000e+03 9.273128509521484375e+00 1.754772758483886719e+01 -9.831525385379791260e-04 -1.183876884169876575e-03 -6.501087918877601624e-04 6.164210935821756721e-05
3.544000000000000000e+03 8.421100616455078125e+00 1.441636943817138672e+01 3.563120844773948193e-04 -7.873990107327699661e-04 -1.293260720558464527e-04 -1.347517536487430334e-04
3.545000000000000000e+03 3.679133605957031250e+01 1.882081794738769531e+01 -7.678639143705368042e-02 3.850305080413818359e-02 -1.148500293493270874e-02 2.990988641977310181e-02
3.546000000000000000e+03 8.136530876159667969e+00 2.274750900268554688e+01 -6.009711418300867081e-03 -1.336479326710104942e-03 -2.203857060521841049e-03 2.932303119450807571e-03
3.547000000000000000e+03 7.850312709808349609e+00 2.014649009704589844e+01 -2.900937804952263832e-03 -1.393976737745106220e-03 -1.288474421016871929e-03 8.862142567522823811e-04
3.548000000000000000e+03 1.055205726623535156e+01 8.212286949157714844e+00 1.396554671373451129e-05 -4.451167842489667237e-05 -9.163839422399178147e-06 4.933068703394383192e-05
3.549000000000000000e+03 7.536011219024658203e+00 1.627490234375000000e+01 1.031407591653987765e-04 -9.883500169962644577e-04 -2.655627613421529531e-04 -4.495931207202374935e-04
3.550000000000000000e+03 1.927532386779785156e+01 2.817483711242675781e+01 -1.802558824419975281e-02 -1.793407090008258820e-02 -1.078789774328470230e-02 3.699288517236709595e-02
3.551000000000000000e+03 3.296447372436523438e+01 2.378872299194335938e+01 -6.000029668211936951e-02 4.889070056378841400e-03 -1.653336733579635620e-02 2.011956833302974701e-02
3.552000000000000000e+03 6.090713977813720703e+00 -2.011975669860839844e+01 4.976412281394004822e-02 -5.687851309776306152e-01 -1.557063013315200806e-01 -6.337892413139343262e-01
3.553000000000000000e+03 1.703735542297363281e+01 2.761490249633789062e+01 -1.879381388425827026e-02 -1.035248488187789917e-02 -8.743889629840850830e-03 2.936980128288269043e-02
3.554000000000000000e+03 3.084933662414550781e+01 2.584189033508300781e+01 -3.288391232490539551e-02 -2.111605741083621979e-02 -1.619999110698699951e-02 2.717580460011959076e-02
3.555000000000000000e+03 2.690699958801269531e+01 2.871539306640625000e+01 -4.372781259007751942e-04 -3.084992244839668274e-02 -9.386160410940647125e-03 3.288855031132698059e-02
3.556000000000000000e+03 6.528276062011718750e+01 -2.326555013656616211e+00 2.426261547952890396e-03 1.420863986015319824e+00 4.269870519638061523e-01 -3.024381101131439209e-01
3.557000000000000000e+03 2.409080886840820312e+01 2.724010467529296875e+01 -3.064454346895217896e-02 -3.381941094994544983e-02 -1.933918520808219910e-02 4.328812658786773682e-02
3.558000000000000000e+03 9.761596679687500000e+00 2.511663627624511719e+01 -9.807480499148368835e-03 -2.095915842801332474e-03 -3.571018809452652931e-03 7.927889004349708557e-03
3.559000000000000000e+03 7.337568759918212891e+00 -1.862754631042480469e+01 -3.595090657472610474e-02 -4.380669295787811279e-01 -1.422053426504135132e-01 -7.216734886169433594e-01
3.560000000000000000e+03 6.816239166259765625e+01 -2.504537582397460938e+00 -7.263980060815811157e-02 8.287470340728759766e-01 2.268321663141250610e-01 -7.085265517234802246e-01
3.561000000000000000e+03 3.742757034301757812e+01 2.268959236145019531e+01 -5.187928304076194763e-02 5.329077318310737610e-02 4.234469961374998093e-04 2.183254063129425049e-02
3.562000000000000000e+03 7.293668365478515625e+01 7.332481861114501953e+00 3.267604708671569824e-01 -3.339406847953796387e-01 -2.154067391529679298e-03 -5.611359477043151855e-01
3.563000000000000000e+03 7.198483276367187500e+01 7.397579669952392578e+00 3.895759880542755127e-01 1.425587981939315796e-01 1.596404463052749634e-01 -5.463396906852722168e-01
3.564000000000000000e+03 7.039886474609375000e+01 5.443105697631835938e+00 4.294975996017456055e-01 7.987104058265686035e-01 3.684624135494232178e-01 -6.280028223991394043e-01
3.565000000000000000e+03 9.940529823303222656e+00 2.631460189819335938e+01 -8.192126639187335968e-03 -3.432994009926915169e-03 -3.487536218017339706e-03 1.068731583654880524e-02
3.566000000000000000e+03 6.944309997558593750e+01 4.669363498687744141e+00 4.464599490165710449e-01 1.130957484245300293e+00 4.732252359390258789e-01 -6.011590361595153809e-01
3.567000000000000000e+03 7.019909667968750000e+01 2.079076528549194336e+00 2.549729049205780029e-01 6.844274997711181641e-01 2.818201184272766113e-01 -7.777780294418334961e-01
3.568000000000000000e+03 7.273178863525390625e+01 1.013417625427246094e+01 4.208226799964904785e-01 -2.467169761657714844e-01 5.223171040415763855e-02 -3.469061553478240967e-01
3.569000000000000000e+03 3.388896560668945312e+01 2.385774040222167969e+01 -5.344087257981300354e-02 1.588280126452445984e-02 -1.126742176711559296e-02 2.569774538278579712e-02
3.570000000000000000e+03 6.400319671630859375e+01 -2.836607217788696289e+00 -2.949003502726554871e-02 1.583044528961181641e+00 4.660663604736328125e-01 -4.262384399771690369e-02
3.571000000000000000e+03 6.728833770751953125e+01 -2.310215950012207031e+00 -4.182007536292076111e-02 1.033791303634643555e+00 2.975913584232330322e-01 -6.098345518112182617e-01
3.572000000000000000e+03 6.316470336914062500e+01 2.111970710754394531e+01 9.980731010437011719e-01 4.698935985565185547e+00 1.709102749824523926e+00 -5.815564393997192383e-01
3.573000000000000000e+03 7.295068359375000000e+01 1.441274833679199219e+01 4.726206362247467041e-01 -3.805937767028808594e-01 2.760806120932102203e-02 7.296340912580490112e-02
3.574000000000000000e+03 4.127510452270507812e+01 2.522541236877441406e+01 3.017657902091741562e-03 8.749884366989135742e-02 2.715495042502880096e-02 -1.579215866513550282e-03
3.575000000000000000e+03 2.527324295043945312e+01 3.003040313720703125e+01 6.485065910965204239e-03 -2.989162690937519073e-02 -7.021968718618154526e-03 3.622678667306900024e-02
3.576000000000000000e+03 1.059028053283691406e+01 2.911011886596679688e+01 -4.972929134964942932e-03 -8.062783628702163696e-03 -3.910713829100131989e-03 1.574475690722465515e-02
3.577000000000000000e+03 7.240134429931640625e+01 1.205702495574951172e+01 5.272409915924072266e-01 -1.652939803898334503e-02 1.532134860754013062e-01 -1.840507090091705322e-01
3.578000000000000000e+03 2.893234825134277344e+01 -4.061628818511962891e+00 -1.224238991737365723e+00 1.713634729385375977e-01 -3.158626854419708252e-01 -8.850824236869812012e-01
3.579000000000000000e+03 2.796579933166503906e+01 -4.234469890594482422e+00 -1.055386781692504883e+00 2.819397377606946975e-05 -3.166075646877288818e-01 -9.416894316673278809e-01
3.580000000000000000e+03 2.927206230163574219e+01 -3.873940944671630859e+00 -1.379307270050048828e+00 2.153878957033157349e-01 -3.491758108139038086e-01 -8.364081382751464844e-01
3.581000000000000000e+03 1.191210556030273438e+01 9.654541015625000000e+00 4.172998524154536426e-05 8.819223148748278618e-05 3.897666465491056442e-05 1.369193196296691895e-04
3.582000000000000000e+03 1.226344394683837891e+01 8.230132102966308594e+00 -1.105262344935908914e-05 1.016044961943407543e-06 -3.010973614436807111e-06 2.212030085502192378e-04
3.583000000000000000e+03 1.273006916046142578e+01 9.896244049072265625e+00 -6.130310339358402416e-07 1.483830565121024847e-04 4.433100548340007663e-05 1.110672455979511142e-04
3.584000000000000000e+03 9.530046463012695312e+00 1.000796508789062500e+01 2.138354757335036993e-04 -2.759129565674811602e-04 -1.862324279500171542e-05 2.018290979322046041e-04
3.585000000000000000e+03 1.282618618011474609e+01 7.476314544677734375e+00 1.282055018236860633e-04 -9.710459380585234612e-06 3.554851355147548020e-05 1.207860623253509402e-04
3.586000000000000000e+03 1.358390998840332031e+01 7.556045532226562500e+00 1.041632131091319025e-04 3.101472975686192513e-05 4.055338285979814827e-05 1.183611166197806597e-04
3.587000000000000000e+03 1.408401584625244141e+01 7.327197074890136719e+00 -4.634693323168903589e-05 7.533960888395085931e-05 8.697801604284904897e-06 2.329087692487519234e-05
3.588000000000000000e+03 1.032347106933593750e+01 1.344101524353027344e+01 4.913718439638614655e-04 -3.577392781153321266e-04 4.008976611657999456e-05 2.821650414261966944e-04
3.589000000000000000e+03 9.612646102905273438e+00 1.346030807495117188e+01 1.959999208338558674e-04 -7.249931222759187222e-04 -1.586979487910866737e-04 3.166225797031074762e-04
3.590000000000000000e+03 1.311339569091796875e+01 9.254749298095703125e+00 6.381883576977998018e-05 1.688095653662458062e-04 6.978851888561621308e-05 7.463599467882886529e-05
3.591000000000000000e+03 1.300872898101806641e+01 8.744308471679687500e+00 -4.317867023928556591e-06 4.818282832275144756e-05 1.315948793489951640e-05 1.925854885485023260e-04
3.592000000000000000e+03 9.379603385925292969e+00 1.923000717163085938e+01 -2.905366476625204086e-03 -1.243930310010910034e-03 -1.244788989424705505e-03 2.807020209729671478e-04
3.593000000000000000e+03 8.585620880126953125e+00 1.959068679809570312e+01 -2.543633570894598961e-03 -1.105412724427878857e-03 -1.094713923521339893e-03 4.662955470848828554e-04
3.594000000000000000e+03 1.173386478424072266e+01 9.028506278991699219e+00 1.361250324407592416e-04 -1.034853557939641178e-04 9.791901902644895017e-06 2.784410316962748766e-04
3.595000000000000000e+03 1.227804183959960938e+01 7.616882801055908203e+00 2.140603901352733374e-04 -1.506738385614880826e-06 6.376609962899237871e-05 5.524949665414169431e-05
3.596000000000000000e+03 9.356952667236328125e+00 1.481047248840332031e+01 2.958189870696514845e-04 -8.419100777246057987e-04 -1.638273388380184770e-04 4.549850928015075624e-05
3.597000000000000000e+03 8.791982650756835938e+00 1.291346359252929688e+01 1.944974792422726750e-04 -6.761649274267256260e-04 -1.445002417312934995e-04 1.546457206131890416e-04
3.598000000000000000e+03 9.454128265380859375e+00 1.222382259368896484e+01 2.401954261586070061e-04 -5.591647350229322910e-04 -9.569078974891453981e-05 2.280947228427976370e-04
3.599000000000000000e+03 9.003464698791503906e+00 8.534337997436523438e+00 2.496960805729031563e-04 -2.271676203235983849e-04 6.758537892892491072e-06 1.554994669277220964e-04
3.600000000000000000e+03 1.120855712890625000e+01 9.852452278137207031e+00 8.548163896193727851e-05 -1.297508861171081662e-04 -1.328077360085444525e-05 2.792631275951862335e-04
3.601000000000000000e+03 1.129569244384765625e+01 1.056952095031738281e+01 2.553525846451520920e-04 -1.032216187013546005e-05 7.350912346737459302e-05 2.055626973742619157e-04
3.602000000000000000e+03 9.090291976928710938e+00 1.420250606536865234e+01 1.792027469491586089e-04 -8.488276507705450058e-04 -2.008874726016074419e-04 2.567557385191321373e-04
3.603000000000000000e+03 1.068059635162353516e+01 1.134924602508544922e+01 2.999954158440232277e-04 -1.283473247895017266e-04 5.149442949914373457e-05 1.995153434108942747e-04
3.604000000000000000e+03 1.001008510589599609e+01 1.146621227264404297e+01 2.303835935890674591e-04 -3.968228993471711874e-04 -4.993179391021840274e-05 3.209678397979587317e-04
3.605000000000000000e+03 1.804815673828125000e+01 3.045344734191894531e+01 -2.434331458061933517e-03 -2.084045298397541046e-02 -6.982435472309589386e-03 3.304788470268249512e-02
3.606000000000000000e+03 1.782415199279785156e+01 2.845957183837890625e+01 -1.512458827346563339e-02 -1.540308166295289993e-02 -9.158301167190074921e-03 3.280983865261077881e-02
3.607000000000000000e+03 9.916953086853027344e+00 1.455790328979492188e+01 1.502055383753031492e-04 -7.280683494172990322e-04 -1.733588433125987649e-04 4.157563671469688416e-04
3.608000000000000000e+03 1.066212463378906250e+01 1.785842132568359375e+01 -8.912720950320363045e-04 -9.077769936993718147e-04 -5.397147033363580704e-04 2.292967983521521091e-04
3.609000000000000000e+03 9.711091995239257812e+00 1.710091590881347656e+01 -4.976692143827676773e-04 -1.198557787574827671e-03 -5.088681355118751526e-04 1.755627308739349246e-04
3.610000000000000000e+03 8.817908287048339844e+00 1.717477607727050781e+01 -2.776600595097988844e-04 -1.349089783616364002e-03 -4.880249616689980030e-04 1.378740853397175670e-04
3.611000000000000000e+03 9.371467590332031250e+00 1.160190486907958984e+01 2.925319131463766098e-04 -2.501646522432565689e-04 1.271017754334025085e-05 1.145923815784044564e-04
3.612000000000000000e+03 1.022941112518310547e+01 1.503337287902832031e+01 2.845739363692700863e-04 -8.167502237483859062e-04 -1.596529036760330200e-04 1.731588563416153193e-04
3.613000000000000000e+03 9.718428611755371094e+00 1.535320186614990234e+01 1.166618894785642624e-04 -9.019448771141469479e-04 -2.355848992010578513e-04 3.832952934317290783e-04
3.614000000000000000e+03 9.679240226745605469e+00 1.622270011901855469e+01 -3.547183587215840816e-05 -1.101876609027385712e-03 -3.412045480217784643e-04 2.954774245154112577e-04
3.615000000000000000e+03 1.013887596130371094e+01 1.665902900695800781e+01 -3.289087035227566957e-04 -1.111757592298090458e-03 -4.321998858358711004e-04 3.193246084265410900e-05
3.616000000000000000e+03 1.194086074829101562e+01 2.397979927062988281e+01 -1.431109290570020676e-02 -2.220248279627412558e-04 -4.359935410320758820e-03 7.880401797592639923e-03
3.617000000000000000e+03 3.533950042724609375e+01 1.565611648559570312e+01 -4.545024782419204712e-02 4.775080829858779907e-03 -1.220255065709352493e-02 2.922270633280277252e-02
3.618000000000000000e+03 1.058256530761718750e+01 1.706459426879882812e+01 -3.786515444517135620e-04 -9.336337097920477390e-04 -3.936855646315962076e-04 4.272197547834366560e-04
3.619000000000000000e+03 9.119984626770019531e+00 1.104657173156738281e+01 3.636383044067770243e-04 -3.635149914771318436e-04 3.699523176692309789e-08 1.896435715025290847e-04
3.620000000000000000e+03 6.574815368652343750e+01 -3.820381879806518555e+00 -1.757630407810211182e-01 1.095816254615783691e+00 2.760159671306610107e-01 -4.025376439094543457e-01
3.621000000000000000e+03 1.085379219055175781e+01 2.068441390991210938e+01 -6.475192494690418243e-03 -3.941983450204133987e-04 -2.060817321762442589e-03 6.430958746932446957e-04
3.622000000000000000e+03 8.978475570678710938e+00 2.016314506530761719e+01 -3.428288735449314117e-03 -1.199896098114550114e-03 -1.388455508276820183e-03 8.424953557550907135e-04
3.623000000000000000e+03 1.309183025360107422e+01 2.571331596374511719e+01 -1.700221188366413116e-02 -1.594023429788649082e-03 -5.578870885074138641e-03 1.385802216827869415e-02
3.624000000000000000e+03 9.358774185180664062e+00 2.923623657226562500e+01 -5.561416968703269958e-03 -7.852210663259029388e-03 -4.024088382720947266e-03 1.337174884974956512e-02
3.625000000000000000e+03 9.257592201232910156e+00 2.106508827209472656e+01 -4.452322609722614288e-03 -1.101812231354415417e-03 -1.666240510530769825e-03 1.485827029682695866e-03
3.626000000000000000e+03 1.502313899993896484e+01 2.923702239990234375e+01 -8.887037634849548340e-03 -1.119207870215177536e-02 -6.023735273629426956e-03 2.509551122784614563e-02
3.627000000000000000e+03 1.542923831939697266e+01 2.727562332153320312e+01 -1.753083430230617523e-02 -6.480162963271141052e-03 -7.203299086540937424e-03 2.354320138692855835e-02
3.628000000000000000e+03 9.106873512268066406e+00 2.181214523315429688e+01 -6.274620536714792252e-03 -1.025085803121328354e-03 -2.189911901950836182e-03 2.432842971757054329e-03
3.629000000000000000e+03 8.894629478454589844e+00 2.306446647644042969e+01 -6.430197507143020630e-03 -1.260983292013406754e-03 -2.307354239746928215e-03 4.345954861491918564e-03
3.630000000000000000e+03 1.068979644775390625e+01 2.269646263122558594e+01 -8.704647421836853027e-03 -2.784795069601386786e-04 -2.694938099011778831e-03 3.321770345792174339e-03
3.631000000000000000e+03 1.068627166748046875e+01 2.136553573608398438e+01 -6.561131216585636139e-03 -3.033884568139910698e-04 -2.059355843812227249e-03 1.633659703657031059e-03
3.632000000000000000e+03 1.268118858337402344e+01 2.394190597534179688e+01 -1.549528446048498154e-02 8.456974173896014690e-04 -4.394876305013895035e-03 8.357045240700244904e-03
3.633000000000000000e+03 1.184390926361083984e+01 2.321944046020507812e+01 -1.195638999342918396e-02 5.636434070765972137e-04 -3.417823929339647293e-03 5.341727752238512039e-03
3.634000000000000000e+03 6.756240844726562500e+01 -4.521164417266845703e+00 -2.577778995037078857e-01 6.766979694366455078e-01 1.256760209798812866e-01 -6.521294116973876953e-01
3.635000000000000000e+03 1.105360984802246094e+01 2.337403297424316406e+01 -1.169590279459953308e-02 -2.269205433549359441e-04 -3.576847026124596596e-03 5.729490891098976135e-03
3.636000000000000000e+03 1.056973457336425781e+01 2.430236053466796875e+01 -1.140627171844244003e-02 -1.031642430461943150e-03 -3.731374163180589676e-03 7.682826835662126541e-03
3.637000000000000000e+03 1.696507644653320312e+01 2.947754669189453125e+01 -7.934853434562683105e-03 -1.523558702319860458e-02 -6.951132323592901230e-03 3.022711910307407379e-02
3.638000000000000000e+03 6.992867279052734375e+01 3.398567438125610352e+00 3.327030241489410400e-01 8.485334515571594238e-01 3.543709516525268555e-01 -7.222393751144409180e-01
3.639000000000000000e+03 3.371002960205078125e+01 2.202971839904785156e+01 -7.604655623435974121e-02 1.164598297327756882e-02 -1.932017132639884949e-02 3.189144283533096313e-02
3.640000000000000000e+03 3.513864517211914062e+01 2.112062454223632812e+01 -7.950077950954437256e-02 3.066564165055751801e-02 -1.465054135769605637e-02 3.145357593894004822e-02
3.641000000000000000e+03 6.690663146972656250e+01 -3.892184019088745117e+00 -2.025827020406723022e-01 9.132300019264221191e-01 2.131941914558410645e-01 -5.554236173629760742e-01
3.642000000000000000e+03 1.510672473907470703e+01 2.608760643005371094e+01 -2.263749018311500549e-02 -3.261923789978027344e-03 -7.769824471324682236e-03 1.987072452902793884e-02
3.643000000000000000e+03 2.005401420593261719e+01 2.967688751220703125e+01 -4.931712057441473007e-03 -2.403735183179378510e-02 -8.690719492733478546e-03 3.829313069581985474e-02
3.644000000000000000e+03 6.629032897949218750e+01 -2.231668949127197266e+00 -3.364694863557815552e-02 1.295654892921447754e+00 3.786023557186126709e-01 -4.356732368469238281e-01
3.645000000000000000e+03 6.809005737304687500e+01 -3.626881361007690430e+00 -1.725809872150421143e-01 7.032855153083801270e-01 1.592113524675369263e-01 -7.375031709671020508e-01
3.646000000000000000e+03 2.016723632812500000e+01 2.838662338256835938e+01 -1.751403883099555969e-02 -2.211663126945495605e-02 -1.188920065760612488e-02 3.885851055383682251e-02
3.647000000000000000e+03 9.915617942810058594e+00 2.419852256774902344e+01 -8.739804849028587341e-03 -1.462920918129384518e-03 -3.060817718505859375e-03 6.772249005734920502e-03
3.648000000000000000e+03 1.192989063262939453e+01 2.879602241516113281e+01 -9.266979061067104340e-03 -7.636059541255235672e-03 -5.070911720395088196e-03 1.806068979203701019e-02
3.649000000000000000e+03 7.091864013671875000e+01 7.806105136871337891e+00 5.024127960205078125e-01 6.513947844505310059e-01 3.461422920227050781e-01 -4.908967018127441406e-01
3.650000000000000000e+03 6.959851074218750000e+01 7.880703449249267578e+00 5.701305270195007324e-01 1.357488989830017090e+00 5.782858729362487793e-01 -4.105851054191589355e-01
3.651000000000000000e+03 3.221237564086914062e+01 2.636260795593261719e+01 -2.234321273863315582e-02 1.060094567947089672e-03 -6.384935230016708374e-03 1.705458201467990875e-02
3.652000000000000000e+03 3.167535591125488281e+01 2.805324363708496094e+01 1.227082335390150547e-03 -3.603437915444374084e-03 -7.129067089408636093e-04 1.996507681906223297e-02
3.653000000000000000e+03 6.847156524658203125e+01 2.966847658157348633e+00 4.006432592868804932e-01 1.423385620117187500e+00 5.472086668014526367e-01 -5.915522575378417969e-01
3.654000000000000000e+03 6.300879001617431641e+00 -2.678639602661132812e+01 1.839382797479629517e-01 -8.398348689079284668e-01 -1.967689841985702515e-01 -3.386752903461456299e-01
3.655000000000000000e+03 6.929351043701171875e+01 5.075145959854125977e-01 1.756739467382431030e-01 8.864353299140930176e-01 3.186327815055847168e-01 -7.617996335029602051e-01
3.656000000000000000e+03 3.563061141967773438e+01 2.297796440124511719e+01 -5.869920924305915833e-02 3.552342578768730164e-02 -6.952735595405101776e-03 2.288735099136829376e-02
3.657000000000000000e+03 7.089450836181640625e+01 1.339412689208984375e+01 6.792749166488647461e-01 8.398089408874511719e-01 4.557251632213592529e-01 -3.726255893707275391e-02
3.658000000000000000e+03 1.222435855865478516e+01 1.015579319000244141e+01 2.450395259074866772e-04 -1.519631314295111224e-05 6.895296246511861682e-05 2.940296835731714964e-04
3.659000000000000000e+03 1.237174224853515625e+01 8.852408409118652344e+00 7.807477231835946441e-05 8.569530473323538899e-05 4.913102020509541035e-05 7.560686935903504491e-05
3.660000000000000000e+03 1.154360771179199219e+01 8.399874687194824219e+00 4.452800931176170707e-05 3.494713018881157041e-05 2.384254185017198324e-05 2.679245335457380861e-05
3.661000000000000000e+03 9.251985549926757812e+00 1.667351341247558594e+01 -4.902190412394702435e-04 -1.142763649113476276e-03 -4.898947663605213165e-04 -5.247430817689746618e-05
3.662000000000000000e+03 1.016240596771240234e+01 1.214596748352050781e+01 3.536653821356594563e-04 -2.436824142932891846e-04 3.299488889751955867e-05 2.128992055077105761e-04
3.663000000000000000e+03 1.290587997436523438e+01 8.239929199218750000e+00 1.225232554133981466e-04 1.027119433274492621e-04 6.757055962225422263e-05 8.077738311840221286e-05
3.664000000000000000e+03 1.325920867919921875e+01 2.850292968750000000e+01 -9.240736253559589386e-03 -7.965713739395141602e-03 -5.161934997886419296e-03 2.028134092688560486e-02
3.665000000000000000e+03 1.403123950958251953e+01 2.607164573669433594e+01 -1.806414127349853516e-02 -2.716372255235910416e-03 -6.234153639525175095e-03 1.750117540359497070e-02
3.666000000000000000e+03 1.117768287658691406e+01 2.221852111816406250e+01 -9.411201812326908112e-03 2.560856810305267572e-04 -2.746534999459981918e-03 3.080820897594094276e-03
3.667000000000000000e+03 9.495263099670410156e+00 2.044352531433105469e+01 -4.764832556247711182e-03 -8.542682044208049774e-04 -1.685730298049747944e-03 8.829054422676563263e-04
3.668000000000000000e+03 1.015547275543212891e+01 2.055045509338378906e+01 -4.408495035022497177e-03 -8.442873950116336346e-04 -1.575834699906408787e-03 9.019251447170972824e-04
3.669000000000000000e+03 9.039859771728515625e+00 1.850767135620117188e+01 -1.423122128471732140e-03 -1.254394883289933205e-03 -8.032551268115639687e-04 4.946141416439786553e-05
3.670000000000000000e+03 9.802689552307128906e+00 1.077187156677246094e+01 2.641635946929454803e-04 -2.021527325268834829e-04 1.860325573943555355e-05 9.319859964307397604e-05
3.671000000000000000e+03 1.053622436523437500e+01 1.063114547729492188e+01 1.236326497746631503e-04 -2.323953813174739480e-04 -3.262882455601356924e-05 3.003183519467711449e-04
3.672000000000000000e+03 1.179575729370117188e+01 2.576783752441406250e+01 -1.279595214873552322e-02 -1.805331325158476830e-03 -4.380384925752878189e-03 1.135591138154268265e-02
3.673000000000000000e+03 1.141981697082519531e+01 2.492575263977050781e+01 -1.319216843694448471e-02 -1.381905865855515003e-03 -4.372222349047660828e-03 9.992115199565887451e-03
3.674000000000000000e+03 1.092742729187011719e+01 8.704386711120605469e+00 2.388187276665121317e-04 -1.157217338914051652e-04 3.692909740493632853e-05 2.535948005970567465e-04
3.675000000000000000e+03 1.065793514251708984e+01 2.512226676940917969e+01 -1.023728586733341217e-02 -1.630080980248749256e-03 -3.560210112482309341e-03 8.643092587590217590e-03
3.676000000000000000e+03 9.422082901000976562e+00 2.248410797119140625e+01 -6.702230311930179596e-03 -8.749543339945375919e-04 -2.273155376315116882e-03 2.622472587972879410e-03
3.677000000000000000e+03 9.989288330078125000e+00 2.308360099792480469e+01 -9.126353077590465546e-03 -7.260762504301965237e-04 -2.955728909000754356e-03 4.889270756393671036e-03
3.678000000000000000e+03 6.886215972900390625e+01 1.724621653556823730e+00 2.661347985267639160e-01 1.124464154243469238e+00 4.171796739101409912e-01 -7.114630937576293945e-01
3.679000000000000000e+03 8.239065170288085938e+00 -1.970757102966308594e+01 6.056021153926849365e-02 -4.639374613761901855e-01 -1.210131794214248657e-01 -7.532599568367004395e-01
3.680000000000000000e+03 2.154313278198242188e+01 3.005006408691406250e+01 4.449709085747599602e-04 -2.787985652685165405e-02 -8.230465464293956757e-03 3.789422288537025452e-02
3.681000000000000000e+03 3.454204940795898438e+01 2.180792045593261719e+01 -8.244726061820983887e-02 2.706529572606086731e-02 -1.661458797752857208e-02 3.164609894156455994e-02
3.682000000000000000e+03 3.624713516235351562e+01 2.179801559448242188e+01 -7.171100378036499023e-02 3.869393467903137207e-02 -9.905121289193630219e-03 3.253386914730072021e-02
3.683000000000000000e+03 1.424495887756347656e+01 2.491102600097656250e+01 -2.268808521330356598e-02 1.753126525727566332e-05 -6.801166106015443802e-03 1.349592674523591995e-02
3.684000000000000000e+03 1.611324691772460938e+01 2.841220855712890625e+01 -1.428992021828889847e-02 -1.173263136297464371e-02 -7.806765381246805191e-03 2.815357409417629242e-02
3.685000000000000000e+03 1.348626518249511719e+01 2.724846076965332031e+01 -1.515949238091707230e-02 -4.573849961161613464e-03 -5.920002702623605728e-03 1.811010576784610748e-02
3.686000000000000000e+03 1.584675407409667969e+01 3.055053329467773438e+01 -3.876095172017812729e-03 -1.656555756926536560e-02 -6.132495589554309845e-03 2.791001833975315094e-02
3.687000000000000000e+03 6.777420043945312500e+01 -1.553300976753234863e+00 3.551613539457321167e-02 1.011365532875061035e+00 3.140645027160644531e-01 -6.534227132797241211e-01
3.688000000000000000e+03 6.446432495117187500e+01 -6.113513112068176270e-01 2.224539369344711304e-01 1.991057634353637695e+00 6.640534996986389160e-01 -4.540985450148582458e-03
3.689000000000000000e+03 3.387516784667968750e+01 2.504654312133789062e+01 -3.936697915196418762e-02 2.032422460615634918e-02 -5.712826736271381378e-03 1.552750356495380402e-02
3.690000000000000000e+03 3.552669906616210938e+01 2.635386276245117188e+01 -1.641885191202163696e-02 4.085613042116165161e-02 7.331183180212974548e-03 8.477613329887390137e-03
3.691000000000000000e+03 1.146232223510742188e+01 2.732762527465820312e+01 -9.712632745504379272e-03 -4.832363221794366837e-03 -4.363498650491237640e-03 1.461827103048563004e-02
3.692000000000000000e+03 1.311675167083740234e+01 7.836338520050048828e+00 -1.153755656559951603e-04 9.147103264695033431e-05 -7.171359357016626745e-06 8.880299719749018550e-05
3.693000000000000000e+03 1.049706935882568359e+01 9.174307823181152344e+00 -2.619068436615634710e-05 -1.502899831393733621e-04 -5.294420043355785310e-05 1.846720260800793767e-04
3.694000000000000000e+03 1.240681552886962891e+01 2.525750160217285156e+01 -1.503343973308801651e-02 -1.530544948764145374e-03 -4.969195462763309479e-03 1.215295214205980301e-02
3.695000000000000000e+03 1.111668682098388672e+01 9.214624404907226562e+00 1.269935746677219868e-04 4.720091965282335877e-05 5.225835047895088792e-05 6.061272506485693157e-05
3.696000000000000000e+03 1.040331363677978516e+01 9.876169204711914062e+00 2.979190903715789318e-04 -8.870800957083702087e-05 6.276332715060561895e-05 1.396775187458842993e-04
3.697000000000000000e+03 1.123626708984375000e+01 2.413233184814453125e+01 -1.123557239770889282e-02 -4.378501034807413816e-04 -3.502026665955781937e-03 6.779731716960668564e-03
3.698000000000000000e+03 1.052257442474365234e+01 2.204988479614257812e+01 -8.644343353807926178e-03 -2.120733552146703005e-04 -2.656925003975629807e-03 2.586643211543560028e-03
3.699000000000000000e+03 1.438030147552490234e+01 2.799182891845703125e+01 -1.428381912410259247e-02 -7.985824719071388245e-03 -6.680893246084451675e-03 2.281327545642852783e-02
3.700000000000000000e+03 3.473890686035156250e+01 2.268862152099609375e+01 -6.575831770896911621e-02 2.364720590412616730e-02 -1.263333298265933990e-02 2.982278726994991302e-02
3.701000000000000000e+03 7.253376770019531250e+01 8.279525756835937500e+00 3.806284666061401367e-01 -1.123040765523910522e-01 8.049731701612472534e-02 -5.019840002059936523e-01
3.702000000000000000e+03 3.726684951782226562e+01 2.564126396179199219e+01 -1.232226379215717316e-02 5.182404071092605591e-02 1.185053307563066483e-02 1.076005678623914719e-02
3.703000000000000000e+03 3.521427536010742188e+01 2.477765655517578125e+01 -3.346950188279151917e-02 3.191031143069267273e-02 -4.677571414504200220e-04 1.924021169543266296e-02
3.704000000000000000e+03 1.692607498168945312e+01 3.183454895019531250e+01 4.934019409120082855e-03 -2.061568945646286011e-02 -4.704501014202833176e-03 2.823935635387897491e-02
3.705000000000000000e+03 2.301486968994140625e+01 3.233815383911132812e+01 2.039431780576705933e-02 -2.918418310582637787e-02 -2.636959543451666832e-03 3.204265609383583069e-02
3.706000000000000000e+03 2.100124549865722656e+01 3.192606544494628906e+01 1.312978565692901611e-02 -2.803288027644157410e-02 -4.470928572118282318e-03 3.485029935836791992e-02
3.707000000000000000e+03 3.485742568969726562e+01 2.364859008789062500e+01 -6.010664626955986023e-02 3.181383758783340454e-02 -8.487842045724391937e-03 2.143408916890621185e-02
3.708000000000000000e+03 1.880600357055664062e+01 2.919890785217285156e+01 -9.417024441063404083e-03 -1.913219876587390900e-02 -8.564766496419906616e-03 3.510472923517227173e-02
3.709000000000000000e+03 1.667883110046386719e+01 3.488684463500976562e+01 1.761216297745704651e-02 -2.497706003487110138e-02 -2.209469443187117577e-03 2.154374681413173676e-02
3.710000000000000000e+03 2.457875061035156250e+01 2.843648719787597656e+01 -1.086965855211019516e-02 -3.538418188691139221e-02 -1.387615222483873367e-02 4.048119857907295227e-02
3.711000000000000000e+03 4.947528839111328125e+00 -2.521100997924804688e+01 1.454379558563232422e-01 -9.237116575241088867e-01 -2.334821075201034546e-01 -3.639631569385528564e-01
3.712000000000000000e+03 5.464032363891601562e+01 -3.264284515380859375e+01 -7.058189809322357178e-02 3.596600890159606934e-02 -1.038476638495922089e-02 -2.117349579930305481e-02
3.713000000000000000e+03 7.273210144042968750e+01 2.713866043090820312e+01 -1.170651614665985107e-01 -4.774708673357963562e-02 -4.944367334246635437e-02 7.902479767799377441e-01
3.714000000000000000e+03 8.972826004028320312e+00 -3.039051055908203125e+01 2.508365213871002197e-01 -5.252338647842407227e-01 -8.231920003890991211e-02 -2.029608637094497681e-01
3.715000000000000000e+03 2.169020175933837891e+00 -3.698408508300781250e+01 5.990414414554834366e-03 -1.651750683784484863e+00 -4.937280714511871338e-01 8.845723234117031097e-03
3.716000000000000000e+03 7.784061431884765625e+01 3.713065338134765625e+01 -2.540795318782329559e-02 -7.159134149551391602e-01 -2.223964184522628784e-01 1.552034169435501099e-01
3.717000000000000000e+03 3.112336540222167969e+01 2.997724914550781250e+01 1.757358759641647339e-02 -1.234362483955919743e-03 4.901767242699861526e-03 1.366470474749803543e-02
3.718000000000000000e+03 8.285503387451171875e+00 -2.544245910644531250e+01 3.386836349964141846e-01 -5.647825598716735840e-01 -6.782967597246170044e-02 -4.405109882354736328e-01
3.719000000000000000e+03 3.214806365966796875e+01 -3.385758972167968750e+01 5.550996065139770508e-01 8.717567920684814453e-01 4.280569255352020264e-01 3.235887289047241211e-01
3.720000000000000000e+03 4.352979660034179688e+01 2.918753242492675781e+01 7.665669918060302734e-02 1.582105159759521484e-01 7.046016305685043335e-02 -8.358205854892730713e-02
3.721000000000000000e+03 4.418827056884765625e+01 2.679037475585937500e+01 7.119988650083541870e-02 1.106306388974189758e-01 5.454915761947631836e-02 -6.236491352319717407e-02
3.722000000000000000e+03 4.248418426513671875e+01 2.627177619934082031e+01 4.637590050697326660e-02 1.045667231082916260e-01 4.528278857469558716e-02 -3.234307467937469482e-02
3.723000000000000000e+03 4.117821121215820312e+01 2.831489562988281250e+01 4.203014448285102844e-02 1.152193918824195862e-01 4.717485979199409485e-02 -3.301698714494705200e-02
3.724000000000000000e+03 7.636309051513671875e+01 3.586514663696289062e+01 -5.967723205685615540e-02 -6.315445303916931152e-01 -2.073665261268615723e-01 2.537105083465576172e-01
3.725000000000000000e+03 6.593395233154296875e+00 -3.798028182983398438e+01 4.217325896024703979e-02 -9.045500755310058594e-01 -2.587130367755889893e-01 -4.264831915497779846e-02
3.726000000000000000e+03 4.761146068572998047e+00 -3.740163421630859375e+01 4.317451268434524536e-02 -1.271131515502929688e+00 -3.683871030807495117e-01 -7.024348527193069458e-02
3.727000000000000000e+03 6.657174682617187500e+01 3.139002227783203125e+01 -5.360831022262573242e-01 1.345118045806884766e+00 2.427104860544204712e-01 3.303742110729217529e-01
3.728000000000000000e+03 6.976884460449218750e+01 2.747725105285644531e+01 -2.199830412864685059e-01 1.003994345664978027e+00 2.352033704519271851e-01 7.820562124252319336e-01
3.729000000000000000e+03 7.100807952880859375e+01 2.675127220153808594e+01 -1.425502151250839233e-01 5.362968444824218750e-01 1.181239858269691467e-01 8.327457904815673828e-01
3.730000000000000000e+03 7.624735260009765625e+01 2.883465385437011719e+01 -7.294579595327377319e-02 -1.053632378578186035e+00 -3.379734456539154053e-01 5.380030274391174316e-01
3.731000000000000000e+03 7.048770904541015625e+01 2.902849769592285156e+01 -3.009275794029235840e-01 7.321254014968872070e-01 1.293593496084213257e-01 7.493041753768920898e-01
3.732000000000000000e+03 6.995320892333984375e+01 2.583213233947753906e+01 -9.107389301061630249e-02 9.448697566986083984e-01 2.561387717723846436e-01 8.051537871360778809e-01
3.733000000000000000e+03 7.015575408935546875e+01 2.297165870666503906e+01 2.388604581356048584e-01 9.959250092506408691e-01 3.704356253147125244e-01 8.020803332328796387e-01
3.734000000000000000e+03 4.002355194091796875e+01 -6.330302357673645020e-01 -8.214004635810852051e-01 -3.573253452777862549e-01 -3.536177277565002441e-01 6.836259961128234863e-01
3.735000000000000000e+03 2.366461753845214844e+01 3.233338594436645508e+00 -4.833379080082522705e-06 -6.541602942888857797e-06 -3.412494606891414151e-06 -1.573961890244390815e-05
3.736000000000000000e+03 2.360032844543457031e+01 -4.134983420372009277e-01 -5.510213971138000488e-01 8.734029531478881836e-02 -1.391043215990066528e-01 -8.658874779939651489e-02
3.737000000000000000e+03 2.282800102233886719e+01 4.060547351837158203e+00 2.408090949757024646e-05 5.662469447997864336e-06 8.923013410822022706e-06 1.509099547547521070e-05
3.738000000000000000e+03 3.166381645202636719e+01 -1.694835186004638672e+00 -3.067223072052001953e+00 3.364695310592651367e-01 -8.192260861396789551e-01 -5.532285571098327637e-01
3.739000000000000000e+03 3.059565353393554688e+01 -1.677109360694885254e+00 -2.629493236541748047e+00 2.663299739360809326e-01 -7.089490294456481934e-01 -3.126644194126129150e-01
3.740000000000000000e+03 3.041218376159667969e+01 -1.733596563339233398e+00 -2.557333946228027344e+00 2.486205995082855225e-01 -6.926140189170837402e-01 -3.472929894924163818e-01
3.741000000000000000e+03 3.053742218017578125e+01 -2.013431072235107422e+00 -2.491121530532836914e+00 2.672280669212341309e-01 -6.671680212020874023e-01 -3.996760249137878418e-01
3.742000000000000000e+03 3.006192779541015625e+01 -2.136236190795898438e+00 -2.297763347625732422e+00 2.195264250040054321e-01 -6.234710812568664551e-01 -4.684301018714904785e-01
3.743000000000000000e+03 2.959846305847167969e+01 -1.842089056968688965e+00 -2.332376718521118164e+00 1.354397535324096680e-01 -6.590811014175415039e-01 -4.272683858871459961e-01
3.744000000000000000e+03 2.965313911437988281e+01 -2.177811145782470703e+00 -2.214132070541381836e+00 1.574818193912506104e-01 -6.169950366020202637e-01 -4.759559631347656250e-01
3.745000000000000000e+03 2.922037124633789062e+01 -2.541739463806152344e+00 -1.965547442436218262e+00 1.388996541500091553e-01 -5.479943156242370605e-01 -5.954764485359191895e-01
3.746000000000000000e+03 2.921627426147460938e+01 -2.206122398376464844e+00 -2.102324485778808594e+00 1.022916659712791443e-01 -6.000098586082458496e-01 -5.264561772346496582e-01
3.747000000000000000e+03 2.879078865051269531e+01 -1.890923380851745605e+00 -2.162352561950683594e+00 3.680904582142829895e-02 -6.376630663871765137e-01 -4.928649663925170898e-01
3.748000000000000000e+03 2.821630096435546875e+01 -1.945517182350158691e+00 -2.023892402648925781e+00 -3.946542367339134216e-02 -6.190072894096374512e-01 -5.305486917495727539e-01
3.749000000000000000e+03 2.806991958618164062e+01 -2.508313894271850586e+00 -1.748350381851196289e+00 -4.859367758035659790e-02 -5.390832424163818359e-01 -6.407077312469482422e-01
3.750000000000000000e+03 2.782318115234375000e+01 -2.382356166839599609e+00 -1.744988799095153809e+00 -6.762512028217315674e-02 -5.437842011451721191e-01 -6.312551498413085938e-01
3.751000000000000000e+03 3.311753845214843750e+01 2.037254333496093750e+00 4.572019315673969686e-05 9.551824769005179405e-04 3.002707962878048420e-04 -1.512297545559704304e-03
3.752000000000000000e+03 3.379039382934570312e+01 1.975598573684692383e+00 4.198039823677390814e-04 -6.767722661606967449e-04 -7.709048077231273055e-05 4.117684511584229767e-05
3.753000000000000000e+03 3.481049728393554688e+01 2.051791429519653320e+00 -4.638790560420602560e-04 -1.842745696194469929e-04 -1.944460818776860833e-04 3.029585350304841995e-04
3.754000000000000000e+03 3.483105087280273438e+01 -1.337619304656982422e+00 -2.787352800369262695e+00 4.663682579994201660e-01 -6.962953805923461914e-01 3.162357583642005920e-02
3.755000000000000000e+03 3.408486557006835938e+01 -2.265518188476562500e+00 -2.633337736129760742e+00 1.366396695375442505e-01 -7.490094304084777832e-01 3.525749742984771729e-01
3.756000000000000000e+03 3.473516464233398438e+01 -1.629807829856872559e+00 -2.679344654083251953e+00 4.021404087543487549e-01 -6.831612586975097656e-01 1.363819688558578491e-01
3.757000000000000000e+03 2.019375228881835938e+01 5.750685691833496094e+00 -3.022235796379391104e-05 -3.149439362459816039e-05 -1.851502565841656178e-05 -3.172719516442157328e-05
3.758000000000000000e+03 1.930768013000488281e+01 6.502732753753662109e+00 1.509965386503608897e-05 3.823739461950026453e-05 1.600111500010825694e-05 2.912109630415216088e-05
3.759000000000000000e+03 1.416590595245361328e+01 1.575905418395996094e+01 5.530776688829064369e-04 1.819769036956131458e-03 7.118540233932435513e-04 4.175369103904813528e-04
3.760000000000000000e+03 1.419304275512695312e+01 1.659534645080566406e+01 5.418033106252551079e-04 2.146914135664701462e-03 8.066152222454547882e-04 4.977390053682029247e-04
3.761000000000000000e+03 2.156324195861816406e+01 2.273257446289062500e+01 -1.028993874788284302e-01 -1.153634581714868546e-02 -3.433072194457054138e-02 1.661861129105091095e-02
3.762000000000000000e+03 2.569945144653320312e+01 2.202527999877929688e+01 -1.549883186817169189e-01 -2.200546674430370331e-02 -5.309813842177391052e-02 5.115750804543495178e-02
3.763000000000000000e+03 2.600290679931640625e+01 2.185974502563476562e+01 -1.635192930698394775e-01 -2.292035892605781555e-02 -5.593189597129821777e-02 5.486148968338966370e-02
3.764000000000000000e+03 3.142630195617675781e+01 1.692659187316894531e+01 -2.685730904340744019e-02 -5.545801296830177307e-02 -2.469459734857082367e-02 4.088702797889709473e-02
3.765000000000000000e+03 3.202380752563476562e+01 1.587658882141113281e+01 -2.014259248971939087e-02 -3.282904624938964844e-02 -1.589149050414562225e-02 2.804707363247871399e-02
3.766000000000000000e+03 3.252798843383789062e+01 1.418884468078613281e+01 -1.108470931649208069e-02 -1.359464041888713837e-02 -7.403804920613765717e-03 1.403920724987983704e-02
3.767000000000000000e+03 3.369117355346679688e+01 8.146096229553222656e+00 1.558123505674302578e-03 1.751308795064687729e-03 9.928296785801649094e-04 -9.897248819470405579e-04
3.768000000000000000e+03 3.367361450195312500e+01 7.742894649505615234e+00 -7.914076559245586395e-04 1.671437406912446022e-03 2.640089369378983974e-04 -8.856078493408858776e-04
3.769000000000000000e+03 1.242401027679443359e+01 -2.079953002929687500e+01 4.204674959182739258e-01 -1.630431562662124634e-01 7.722730934619903564e-02 -6.882812380790710449e-01
3.770000000000000000e+03 7.534666442871093750e+01 3.762676239013671875e+01 -1.150796487927436829e-01 -3.843586742877960205e-01 -1.498315036296844482e-01 2.017131745815277100e-01
3.771000000000000000e+03 2.264562225341796875e+01 -2.320855379104614258e+00 -6.355075836181640625e-01 1.457381062209606171e-02 -1.862801164388656616e-01 -4.446895122528076172e-01
3.772000000000000000e+03 3.492844772338867188e+01 -2.008447408676147461e+00 -2.550300836563110352e+00 4.396723806858062744e-01 -6.331885457038879395e-01 3.136109113693237305e-01
3.773000000000000000e+03 3.447921371459960938e+01 -1.737601399421691895e+00 -2.748932838439941406e+00 2.946405112743377686e-01 -7.362877130508422852e-01 2.490039169788360596e-01
3.774000000000000000e+03 2.526475524902343750e+01 2.308949279785156250e+01 -1.188380867242813110e-01 -2.832872234284877777e-02 -4.415004327893257141e-02 4.964481294155120850e-02
3.775000000000000000e+03 3.372835922241210938e+01 8.573318481445312500e+00 -9.924423648044466972e-04 1.799243385903537273e-03 2.420402888674288988e-04 -8.939002291299402714e-04
3.776000000000000000e+03 3.418494033813476562e+01 6.640427112579345703e+00 8.761692879488691688e-05 2.535766980145126581e-04 1.023580844048410654e-04 -1.522059086710214615e-03
3.777000000000000000e+03 3.367003250122070312e+01 -3.098664093017578125e+01 6.298288702964782715e-01 8.592053055763244629e-01 4.467102587223052979e-01 4.931421875953674316e-01
3.778000000000000000e+03 3.215181732177734375e+01 -3.178413963317871094e+01 6.627731919288635254e-01 7.570217251777648926e-01 4.259384870529174805e-01 3.871095478534698486e-01
3.779000000000000000e+03 2.365871810913085938e+01 -3.233161544799804688e+01 8.188986778259277344e-01 5.173131227493286133e-01 4.008635282516479492e-01 -2.713521718978881836e-01
3.780000000000000000e+03 6.705815124511718750e+01 -3.866650390625000000e+01 3.546514734625816345e-02 -1.563587971031665802e-02 5.948780570179224014e-03 2.240831777453422546e-02
3.781000000000000000e+03 3.334962463378906250e+01 2.006182670593261719e+00 2.528851327951997519e-04 5.228593945503234863e-04 2.327233669348061085e-04 -4.992674803361296654e-04
3.782000000000000000e+03 7.747520446777343750e+01 -1.311570167541503906e+01 -6.657119840383529663e-02 -6.489689648151397705e-02 -3.944042697548866272e-02 -9.563797712326049805e-02
3.783000000000000000e+03 3.521455764770507812e+01 -2.507756233215332031e+00 -2.369107246398925781e+00 5.204020142555236816e-01 -5.546115636825561523e-01 3.285526037216186523e-01
3.784000000000000000e+03 2.674155616760253906e+01 2.181596755981445312e+01 -1.668746918439865112e-01 -3.025106899440288544e-02 -5.913772433996200562e-02 6.506704539060592651e-02
3.785000000000000000e+03 3.362064743041992188e+01 2.276771545410156250e+00 1.166882109828293324e-03 8.350315620191395283e-04 6.005740724503993988e-04 -9.141488699242472649e-04
3.786000000000000000e+03 2.725938415527343750e+01 -2.321665048599243164e+00 -1.657256484031677246e+00 -1.483286768198013306e-01 -5.416755080223083496e-01 -6.295122504234313965e-01
3.787000000000000000e+03 2.751765441894531250e+01 -2.527944803237915039e+00 -1.596258759498596191e+00 -9.790610522031784058e-02 -5.082494616508483887e-01 -6.745334267616271973e-01
3.788000000000000000e+03 2.676416206359863281e+01 2.225899887084960938e+01 -1.430171132087707520e-01 -3.937061503529548645e-02 -5.471631884574890137e-02 6.332948058843612671e-02
3.789000000000000000e+03 1.332043743133544922e+01 -1.099482536315917969e+01 -9.343010187149047852e-01 -4.742492735385894775e-01 -4.225650727748870850e-01 -3.263483643531799316e-01
3.790000000000000000e+03 2.360191726684570312e+01 -3.439010238647460938e+01 5.719310045242309570e-01 6.290302872657775879e-01 3.602883815765380859e-01 -1.971375048160552979e-01
3.791000000000000000e+03 2.834601783752441406e+01 -2.636430501937866211e+00 -1.740905284881591797e+00 8.747989311814308167e-03 -5.196471810340881348e-01 -6.561298966407775879e-01
3.792000000000000000e+03 2.854082870483398438e+01 -2.305989503860473633e+00 -1.917283654212951660e+00 1.440244819968938828e-02 -5.708643794059753418e-01 -5.923430323600769043e-01
3.793000000000000000e+03 2.860894584655761719e+01 -2.119278192520141602e+00 -2.022427082061767578e+00 3.163907676935195923e-02 -5.972363948822021484e-01 -5.512828230857849121e-01
3.794000000000000000e+03 2.946816825866699219e+01 -2.541036367416381836e+00 -1.999574661254882812e+00 1.644962131977081299e-01 -5.505235195159912109e-01 -5.777098536491394043e-01
3.795000000000000000e+03 2.997407150268554688e+01 -2.406659603118896484e+00 -2.176811456680297852e+00 2.128873467445373535e-01 -5.891772508621215820e-01 -5.179580450057983398e-01
3.796000000000000000e+03 3.067370033264160156e+01 -2.309955358505249023e+00 -2.413638114929199219e+00 2.876856625080108643e-01 -6.377857327461242676e-01 -4.922215342521667480e-01
3.797000000000000000e+03 7.673391723632812500e+01 -1.317221355438232422e+01 -8.269157260656356812e-02 -6.158420816063880920e-02 -4.328273236751556396e-02 -1.179683580994606018e-01
3.798000000000000000e+03 3.453327941894531250e+01 2.202881336212158203e+00 -4.269168857717886567e-05 1.536023570224642754e-03 4.479995695874094963e-04 -2.883783599827438593e-04
3.799000000000000000e+03 5.388219070434570312e+01 -1.317276954650878906e+01 1.332660794258117676e+00 4.881895780563354492e-01 5.462551116943359375e-01 1.555190205574035645e+00
3.800000000000000000e+03 5.067444610595703125e+01 -3.151232719421386719e+01 -9.909963235259056091e-03 3.697018623352050781e-01 1.079375669360160828e-01 -2.856928706169128418e-01
3.801000000000000000e+03 4.904265975952148438e+01 -3.262459564208984375e+01 -2.986305393278598785e-02 8.221039772033691406e-01 2.376722693443298340e-01 -4.305848777294158936e-01
3.802000000000000000e+03 2.436566352844238281e+01 2.231342887878417969e+01 -1.401158720254898071e-01 -1.335542928427457809e-02 -4.604139178991317749e-02 3.943073377013206482e-02
3.803000000000000000e+03 2.368263053894042969e+01 2.291704559326171875e+01 -1.179332733154296875e-01 -1.538570504635572433e-02 -3.999569267034530640e-02 3.622454777359962463e-02
3.804000000000000000e+03 1.510611915588378906e+01 2.045434188842773438e+01 -7.632452528923749924e-03 1.723505672998726368e-03 -1.772684045135974884e-03 -1.720254542306065559e-03
3.805000000000000000e+03 1.357773780822753906e+01 1.618343734741210938e+01 6.195962196215987206e-04 1.180945546366274357e-03 5.401624948717653751e-04 5.914811044931411743e-04
3.806000000000000000e+03 1.761997985839843750e+01 8.272591590881347656e+00 4.717458068626001477e-05 6.819750706199556589e-05 3.461162486928515136e-05 -1.613656058907508850e-05
3.807000000000000000e+03 1.914128684997558594e+01 6.096305370330810547e+00 2.555649371061008424e-05 -5.991163561702705920e-06 5.869598680874332786e-06 -6.693991053907666355e-06
3.808000000000000000e+03 1.967979049682617188e+01 5.786316394805908203e+00 -5.852265167050063610e-05 -6.345177553157554939e-06 -1.946034899447113276e-05 -5.817937108076876029e-06
3.809000000000000000e+03 2.174277877807617188e+01 4.199851036071777344e+00 -7.749704309389926493e-06 -3.628023841883987188e-05 -1.320898263656999916e-05 2.109484921675175428e-05
3.810000000000000000e+03 3.380953979492187500e+01 1.095247650146484375e+01 -2.053970936685800552e-03 8.977412653621286154e-05 -5.892590270377695560e-04 1.573602901771664619e-03
3.811000000000000000e+03 3.300480651855468750e+01 1.250928592681884766e+01 -5.430604331195354462e-03 -2.415340393781661987e-03 -2.353783464059233665e-03 5.013827700167894363e-03
3.812000000000000000e+03 3.278456497192382812e+01 1.358999919891357422e+01 -6.859969813376665115e-03 -8.745554834604263306e-03 -4.681657534092664719e-03 1.105726044625043869e-02
3.813000000000000000e+03 3.129653167724609375e+01 1.728956031799316406e+01 -3.464599698781967163e-02 -6.298806518316268921e-02 -2.929021976888179779e-02 4.543322697281837463e-02
3.814000000000000000e+03 3.177407836914062500e+01 1.709049415588378906e+01 -3.713114559650421143e-02 -4.721435904502868652e-02 -2.530365064740180969e-02 4.452964290976524353e-02
3.815000000000000000e+03 5.304345607757568359e+00 -3.398681259155273438e+01 5.439592525362968445e-02 -1.124603509902954102e+00 -3.210622668266296387e-01 -7.548890262842178345e-02
3.816000000000000000e+03 4.610371589660644531e+00 -3.138339042663574219e+01 7.708664238452911377e-02 -1.166167736053466797e+00 -3.267243504524230957e-01 -1.272049546241760254e-01
3.817000000000000000e+03 3.147506713867187500e+00 -3.036828231811523438e+01 4.357122257351875305e-02 -1.359065890312194824e+00 -3.946484029293060303e-01 -1.042179390788078308e-01
3.818000000000000000e+03 5.462503051757812500e+01 -1.286509323120117188e+01 8.098611235618591309e-01 5.839605927467346191e-01 4.181465208530426025e-01 1.465907216072082520e+00
3.819000000000000000e+03 3.817612075805664062e+01 -2.193875312805175781e+00 -2.375782489776611328e+00 5.510430335998535156e-01 -5.474218130111694336e-01 6.919896602630615234e-01
3.820000000000000000e+03 2.308056831359863281e+00 4.299916744232177734e+00 6.368329195538535714e-05 8.504610013915225863e-05 4.461881690076552331e-05 -3.738216400961391628e-05
3.821000000000000000e+03 7.303479766845703125e+01 3.374057769775390625e+01 -2.561566531658172607e-01 6.369842682033777237e-03 -7.493604719638824463e-02 4.794667661190032959e-01
3.822000000000000000e+03 6.186991500854492188e+01 2.280645179748535156e+01 6.606695652008056641e-01 3.558298587799072266e+00 1.265690445899963379e+00 -7.593508362770080566e-01
3.823000000000000000e+03 2.121250343322753906e+01 3.562939167022705078e+00 -2.017657243413850665e-05 -5.671548569807782769e-05 -2.306761780346278101e-05 2.670629146450664848e-05
3.824000000000000000e+03 3.451749038696289062e+01 4.041324615478515625e+00 -1.333029125817120075e-03 2.591529300843831152e-05 -3.921341267414391041e-04 -7.546118577010929585e-04
3.825000000000000000e+03 3.434894561767578125e+01 5.030274868011474609e+00 -2.003268018597736955e-04 -1.948084245668724179e-04 -1.185405708383768797e-04 -1.316478883381932974e-04
3.826000000000000000e+03 3.388233566284179688e+01 5.743583202362060547e+00 1.354490872472524643e-03 4.843251081183552742e-04 5.516447708941996098e-04 -7.540224760305136442e-05
3.827000000000000000e+03 3.451694107055664062e+01 8.898616790771484375e+00 -1.454742741771042347e-03 -9.160185582004487514e-04 -7.112284074537456036e-04 -2.272521305712871253e-05
3.828000000000000000e+03 2.707446670532226562e+01 -2.569128990173339844e+00 -1.511576652526855469e+00 -1.526251435279846191e-01 -4.992605447769165039e-01 -7.002089619636535645e-01
3.829000000000000000e+03 5.156031036376953125e+01 -3.365055084228515625e+01 1.410183031111955643e-02 4.038307666778564453e-01 1.253797858953475952e-01 -1.964921355247497559e-01
3.830000000000000000e+03 3.877783584594726562e+01 -1.972787261009216309e+00 -2.414460420608520508e+00 3.368465900421142578e-01 -6.232841610908508301e-01 1.001399397850036621e+00
3.831000000000000000e+03 3.796538925170898438e+01 -2.873115730285644531e+01 5.147132873535156250e-01 1.375242948532104492e+00 5.669868588447570801e-01 9.127103090286254883e-01
3.832000000000000000e+03 5.010424423217773438e+01 -3.468431472778320312e+01 1.140136644244194031e-02 6.555683016777038574e-01 2.000909000635147095e-01 -2.882765829563140869e-01
3.833000000000000000e+03 6.734564208984375000e+01 1.604538726806640625e+01 1.064583301544189453e+00 2.956064701080322266e+00 1.206194400787353516e+00 -1.427751965820789337e-02
3.834000000000000000e+03 6.535507965087890625e+01 2.276728439331054688e+01 4.236249327659606934e-01 3.057835817337036133e+00 1.044438242912292480e+00 2.849421799182891846e-01
3.835000000000000000e+03 1.251844978332519531e+01 -2.224710655212402344e+01 5.689675211906433105e-01 9.173644706606864929e-03 1.734423488378524780e-01 -6.072090864181518555e-01
3.836000000000000000e+03 2.486576080322265625e+01 2.315783309936523438e+01 -1.145525723695755005e-01 -2.542214654386043549e-02 -4.199241846799850464e-02 4.634462669491767883e-02
3.837000000000000000e+03 1.188968944549560547e+01 -2.408620834350585938e+01 5.381520390510559082e-01 -1.072297245264053345e-01 1.292766928672790527e-01 -4.870832860469818115e-01
3.838000000000000000e+03 3.407122421264648438e+01 7.713160037994384766e+00 1.523044076748192310e-03 9.440780850127339363e-04 7.401366601698100567e-04 -1.178753795102238655e-03
3.839000000000000000e+03 3.445556259155273438e+01 7.646263122558593750e+00 -4.542519163805991411e-04 1.317532442044466734e-04 -9.674960165284574032e-05 -2.852038596756756306e-04
3.840000000000000000e+03 3.442970657348632812e+01 7.336214542388916016e+00 7.401417242363095284e-04 1.159634790383279324e-03 5.699329776689410210e-04 -1.077555003575980663e-03
3.841000000000000000e+03 3.483419036865234375e+01 7.645640373229980469e+00 4.677642136812210083e-04 -2.010246971622109413e-04 8.002186223166063428e-05 -1.586141879670321941e-03
3.842000000000000000e+03 2.476571083068847656e+01 2.270107078552246094e+01 -1.273435056209564209e-01 -2.123199217021465302e-02 -4.457264766097068787e-02 4.415673390030860901e-02
3.843000000000000000e+03 2.405832290649414062e+01 2.282814407348632812e+01 -1.224654763936996460e-01 -1.669307053089141846e-02 -4.174756631255149841e-02 3.936065360903739929e-02
3.844000000000000000e+03 1.723629570007324219e+01 -9.104522705078125000e+00 -8.681911826133728027e-01 -7.102835178375244141e-01 -4.735423922538757324e-01 -5.345170497894287109e-01
3.845000000000000000e+03 2.728651046752929688e+01 -2.967955589294433594e+00 -1.388397812843322754e+00 -1.255598068237304688e-01 -4.541872739791870117e-01 -7.717450857162475586e-01
3.846000000000000000e+03 2.799295425415039062e+01 -2.848453998565673828e+00 -1.572203636169433594e+00 -2.362497150897979736e-02 -4.787485897541046143e-01 -7.249094843864440918e-01
3.847000000000000000e+03 3.776729202270507812e+01 1.147021865844726562e+01 -1.782573573291301727e-02 1.279107527807354927e-04 -5.309347528964281082e-03 3.940163296647369862e-04
3.848000000000000000e+03 3.335104751586914062e+01 1.179060554504394531e+01 -1.578687108121812344e-03 -1.226707012392580509e-03 -8.416182245127856731e-04 2.870695665478706360e-03
3.849000000000000000e+03 7.073345184326171875e+01 -1.264228534698486328e+01 -6.455878615379333496e-01 1.505586951971054077e-01 -1.485087424516677856e-01 -1.598684489727020264e-01
3.850000000000000000e+03 2.962301015853881836e+00 4.834153652191162109e+00 -1.058676716638728976e-04 -3.402347283554263413e-05 -4.196734153083525598e-05 3.529450623318552971e-05
3.851000000000000000e+03 7.519027709960937500e+01 -2.048915672302246094e+01 -1.609639730304479599e-03 -8.795583853498101234e-04 -7.467594696208834648e-04 -8.837578207021579146e-05
3.852000000000000000e+03 1.818980216979980469e+01 6.166863441467285156e+00 -5.920867261011153460e-05 -3.053195177926681936e-05 -2.692218731681350619e-05 2.180076080549042672e-05
3.853000000000000000e+03 1.746175765991210938e+01 6.922278881072998047e+00 -2.241242509626317769e-05 -1.195732420455897227e-05 -1.031092506309505552e-05 -3.921106326743029058e-05
3.854000000000000000e+03 1.504230785369873047e+01 2.147963523864746094e+01 -1.763616316020488739e-02 2.488008234649896622e-03 -4.544446710497140884e-03 2.310828276677057147e-04
3.855000000000000000e+03 1.337138652801513672e+01 1.859382820129394531e+01 -7.560627418570220470e-04 3.097825974691659212e-04 -1.338840374955907464e-04 1.216595846926793456e-04
3.856000000000000000e+03 1.388605022430419922e+01 1.851707267761230469e+01 4.545889969449490309e-04 1.549637061543762684e-03 6.012677913531661034e-04 4.787272773683071136e-04
3.857000000000000000e+03 1.650665855407714844e+01 7.868081092834472656e+00 -9.720715024741366506e-05 2.357307312195189297e-05 -2.209022386523429304e-05 -1.253615573659772053e-05
3.858000000000000000e+03 1.774034118652343750e+01 -7.284884929656982422e+00 -6.230422854423522949e-01 -4.734440147876739502e-01 -3.289458751678466797e-01 -5.272221565246582031e-01
3.859000000000000000e+03 6.229002952575683594e+00 -2.537544059753417969e+01 1.919406056404113770e-01 -8.102542757987976074e-01 -1.854940950870513916e-01 -4.038699865341186523e-01
3.860000000000000000e+03 5.297176361083984375e+00 -2.987835884094238281e+01 9.365738183259963989e-02 -1.042901873588562012e+00 -2.847733199596405029e-01 -1.719477474689483643e-01
3.861000000000000000e+03 3.093616867065429688e+01 2.019176483154296875e+01 -1.148286312818527222e-01 -4.859633743762969971e-02 -4.902748763561248779e-02 6.425684690475463867e-02
3.862000000000000000e+03 4.725610733032226562e+01 -9.489831924438476562e+00 -8.859320878982543945e-01 7.555784583091735840e-01 -3.910608217120170593e-02 1.080053567886352539e+00
3.863000000000000000e+03 3.606542205810546875e+01 1.065098667144775391e+01 -7.052782457321882248e-03 -5.345765966922044754e-04 -2.276207786053419113e-03 7.105688564479351044e-04
3.864000000000000000e+03 3.585010147094726562e+01 6.011769771575927734e+00 7.536167977377772331e-04 -1.431054202839732170e-03 -2.032312477240338922e-04 8.696506265550851822e-04
3.865000000000000000e+03 3.198771095275878906e+01 -4.091515064239501953e+00 -1.583594441413879395e+00 4.565473198890686035e-01 -3.381141424179077148e-01 -3.989306390285491943e-01
3.866000000000000000e+03 3.378127288818359375e+01 1.420314884185791016e+01 -2.181177027523517609e-02 -6.786430254578590393e-03 -8.579459972679615021e-03 2.055399864912033081e-02
3.867000000000000000e+03 2.855733680725097656e+01 -3.050000667572021484e+00 -1.617526292800903320e+00 5.576596036553382874e-02 -4.685280919075012207e-01 -7.246360778808593750e-01
3.868000000000000000e+03 6.048055648803710938e+01 2.482405471801757812e+01 2.112874090671539307e-01 2.584199905395507812e+00 8.386461734771728516e-01 -9.721088409423828125e-01
3.869000000000000000e+03 7.004523468017578125e+01 3.177002716064453125e+01 -3.997550606727600098e-01 6.993321180343627930e-01 8.987312018871307373e-02 5.656964778900146484e-01
3.870000000000000000e+03 1.524139499664306641e+01 2.197723197937011719e+01 -2.104136906564235687e-02 2.423310186713933945e-03 -5.585417617112398148e-03 2.480429597198963165e-03
3.871000000000000000e+03 2.801815986633300781e+01 -3.574222564697265625e+00 -1.299764990806579590e+00 -1.768501289188861847e-02 -3.952350020408630371e-01 -8.512824177742004395e-01
3.872000000000000000e+03 1.021889972686767578e+01 -1.816461372375488281e+01 -1.169472262263298035e-01 -3.369166851043701172e-01 -1.361591666936874390e-01 -8.412795662879943848e-01
3.873000000000000000e+03 3.445690155029296875e+01 2.969133853912353516e+00 6.901109009049832821e-04 -1.196682685986161232e-03 -1.519715442555025220e-04 1.149416202679276466e-03
3.874000000000000000e+03 7.581378936767578125e+01 -2.034968376159667969e+01 1.634235959500074387e-04 9.442000737180933356e-05 7.735307735856622458e-05 2.271246339660137892e-04
3.875000000000000000e+03 2.935951042175292969e+01 -3.205447435379028320e+00 -1.700593233108520508e+00 1.946125775575637817e-01 -4.517941772937774658e-01 -7.280475497245788574e-01
3.876000000000000000e+03 2.442157554626464844e+01 2.275154495239257812e+01 -1.240132153034210205e-01 -1.980218850076198578e-02 -4.314462095499038696e-02 4.305840656161308289e-02
3.877000000000000000e+03 3.528032302856445312e+01 1.083879089355468750e+01 -4.392021801322698593e-03 -1.288790255784988403e-03 -1.704243593849241734e-03 8.397432393394410610e-04
3.878000000000000000e+03 9.706812858581542969e+00 -1.035210132598876953e+01 -5.619913339614868164e-01 -1.441900134086608887e-01 -2.118543982505798340e-01 -2.077537029981613159e-01
3.879000000000000000e+03 7.553049468994140625e+01 -2.955429458618164062e+01 -1.549061737023293972e-03 -4.533817991614341736e-03 -1.824863953515887260e-03 7.964811287820339203e-03
3.880000000000000000e+03 3.089547920227050781e+01 -4.451972961425781250e+00 -1.329669117927551270e+00 5.261561870574951172e-01 -2.410538792610168457e-01 -7.375059127807617188e-01
3.881000000000000000e+03 6.474851989746093750e+01 7.715467929840087891e+00 7.680455446243286133e-01 4.288242816925048828e+00 1.516886591911315918e+00 3.529913425445556641e-01
3.882000000000000000e+03 6.481447601318359375e+01 8.632616043090820312e+00 8.119843006134033203e-01 4.329014778137207031e+00 1.542299747467041016e+00 3.000426888465881348e-01
3.883000000000000000e+03 5.866743087768554688e+01 -9.394435882568359375e+00 -8.668271899223327637e-01 1.182454347610473633e+00 9.468813240528106689e-02 1.138950467109680176e+00
3.884000000000000000e+03 2.260491943359375000e+01 2.424327850341796875e+01 -7.665079832077026367e-02 -2.145141549408435822e-02 -2.943066507577896118e-02 3.551327437162399292e-02
3.885000000000000000e+03 1.557902050018310547e+01 2.277331924438476562e+01 -2.632176317274570465e-02 2.862653927877545357e-03 -7.037732750177383423e-03 4.921911284327507019e-03
3.886000000000000000e+03 5.786552047729492188e+01 -8.632436752319335938e+00 -8.875206708908081055e-01 1.509747266769409180e+00 1.866679638624191284e-01 1.350520014762878418e+00
3.887000000000000000e+03 5.871869659423828125e+01 -7.778661727905273438e+00 -8.393633365631103516e-01 1.493149638175964355e+00 1.961359083652496338e-01 1.119292140007019043e+00
3.888000000000000000e+03 3.374104690551757812e+01 1.503394412994384766e+01 -2.918062545359134674e-02 -7.873204536736011505e-03 -1.111614890396595001e-02 2.653093636035919189e-02
3.889000000000000000e+03 2.712658882141113281e+01 -4.663468837738037109e+00 -7.740969061851501465e-01 -8.401830494403839111e-02 -2.574345767498016357e-01 -1.011853218078613281e+00
3.890000000000000000e+03 2.698641967773437500e+01 -4.116388320922851562e+00 -9.561159014701843262e-01 -1.015431582927703857e-01 -3.172977268695831299e-01 -9.543405771255493164e-01
3.891000000000000000e+03 7.427868652343750000e+01 -2.978750228881835938e+01 -6.447885185480117798e-03 -3.522629849612712860e-03 -2.991154557093977928e-03 9.687445126473903656e-03
3.892000000000000000e+03 1.543655490875244141e+01 -7.886220455169677734e+00 -6.071464419364929199e-01 -4.950038194656372070e-01 -3.306450843811035156e-01 -3.171323537826538086e-01
3.893000000000000000e+03 2.863633537292480469e+01 -4.366282939910888672e+00 -1.082195997238159180e+00 1.175264492630958557e-01 -2.894008457660675049e-01 -9.457093477249145508e-01
3.894000000000000000e+03 1.685999870300292969e+01 6.801363945007324219e+00 -6.290224700933322310e-05 2.402961945335846394e-05 -1.166178753919666633e-05 -5.904273348278366029e-05
3.895000000000000000e+03 7.337857818603515625e+01 2.618995285034179688e+01 -5.238038301467895508e-02 -3.554270267486572266e-01 -1.223422214388847351e-01 7.957950234413146973e-01
3.896000000000000000e+03 6.612875366210937500e+01 2.547924995422363281e+01 -1.337673366069793701e-01 2.260093450546264648e+00 6.378978490829467773e-01 4.621624052524566650e-01
3.897000000000000000e+03 6.500180816650390625e+01 2.702236747741699219e+01 -3.694069981575012207e-01 2.186944246292114258e+00 5.452611446380615234e-01 2.067151367664337158e-01
3.898000000000000000e+03 6.307925033569335938e+01 2.770403861999511719e+01 -4.349615573883056641e-01 2.291996955871582031e+00 5.571106076240539551e-01 -1.609777063131332397e-01
3.899000000000000000e+03 4.042155838012695312e+01 -2.113591575622558594e+01 9.541440010070800781e-01 2.199174642562866211e+00 9.459956288337707520e-01 9.662250876426696777e-01
3.900000000000000000e+03 7.583972454071044922e+00 -2.459564781188964844e+01 2.806138992309570312e-01 -6.423401236534118652e-01 -1.085178777575492859e-01 -4.978123009204864502e-01
3.901000000000000000e+03 2.730947303771972656e+01 -4.304183959960937500e+00 -9.722745418548583984e-01 -7.195584475994110107e-02 -3.132691085338592529e-01 -9.771522879600524902e-01
3.902000000000000000e+03 3.888811492919921875e+01 -1.875584220886230469e+01 9.027692675590515137e-01 1.028842568397521973e+00 5.794835686683654785e-01 1.673193871974945068e-01
3.903000000000000000e+03 2.907064628601074219e+01 -3.479831457138061523e+00 -1.519173622131347656e+00 1.853430271148681641e-01 -4.001491665840148926e-01 -7.970691919326782227e-01
3.904000000000000000e+03 2.868745040893554688e+01 -3.714791774749755859e+00 -1.331456422805786133e+00 9.634086489677429199e-02 -3.705346882343292236e-01 -8.488906621932983398e-01
3.905000000000000000e+03 3.116408920288085938e+01 -3.579833507537841797e+00 -1.787299990653991699e+00 3.814577460289001465e-01 -4.217526912689208984e-01 -6.251524686813354492e-01
3.906000000000000000e+03 3.253949356079101562e+01 1.750827789306640625e+01 -5.303593724966049194e-02 -2.776763401925563812e-02 -2.424107119441032410e-02 5.023173242807388306e-02
3.907000000000000000e+03 3.650986480712890625e+01 -6.175469398498535156e+00 -1.261399507522583008e+00 7.397210001945495605e-01 -1.565035581588745117e-01 -8.996126055717468262e-02
3.908000000000000000e+03 4.159628295898437500e+01 -1.336315250396728516e+01 1.368491172790527344e+00 1.123539328575134277e+00 7.476091384887695312e-01 -9.450938701629638672e-01
3.909000000000000000e+03 4.318838882446289062e+01 2.256808280944824219e+01 -4.399746656417846680e-02 6.061040610074996948e-02 4.983881954103708267e-03 6.728667765855789185e-03
3.910000000000000000e+03 3.250558853149414062e+01 1.832525634765625000e+01 -6.809903681278228760e-02 -2.615660987794399261e-02 -2.827669307589530945e-02 5.626915767788887024e-02
3.911000000000000000e+03 1.526891136169433594e+01 9.418582916259765625e+00 2.681569458218291402e-05 1.978829823201522231e-04 6.740960088791325688e-05 4.317374259699136019e-05
3.912000000000000000e+03 3.370718765258789062e+01 1.543530273437500000e+01 -3.271802514791488647e-02 -8.722527883946895599e-03 -1.243216544389724731e-02 3.076501190662384033e-02
3.913000000000000000e+03 7.562015533447265625e+01 -3.080760002136230469e+01 -5.504720378667116165e-03 -6.632614880800247192e-03 -3.641200484707951546e-03 1.013757940381765366e-02
3.914000000000000000e+03 7.113367557525634766e+00 -5.814291954040527344e+00 -1.220306456089019775e-01 -2.012180350720882416e-02 -4.264573380351066589e-02 7.283184677362442017e-02
3.915000000000000000e+03 3.030482292175292969e+01 -3.043095588684082031e+00 -1.921771883964538574e+00 2.876018285751342773e-01 -4.902510046958923340e-01 -6.178559064865112305e-01
3.916000000000000000e+03 1.665340995788574219e+01 6.017974376678466797e+00 2.040928302449174225e-05 5.138186315889470279e-05 2.153734385501593351e-05 3.568624742911197245e-05
3.917000000000000000e+03 1.400140857696533203e+01 2.214441871643066406e+01 -1.753839477896690369e-02 2.865111920982599258e-03 -4.401985090225934982e-03 2.490415237843990326e-03
3.918000000000000000e+03 7.420316314697265625e+01 -2.324451828002929688e+01 -3.796970937401056290e-03 -1.595226000063121319e-03 -1.617658999748528004e-03 4.808883531950414181e-04
3.919000000000000000e+03 7.071731567382812500e+01 1.194240283966064453e+01 6.504957079887390137e-01 9.144748449325561523e-01 4.694911539554595947e-01 -1.733625829219818115e-01
3.920000000000000000e+03 7.146047973632812500e+01 1.265360832214355469e+01 6.260694861412048340e-01 4.762686192989349365e-01 3.307014107704162598e-01 -1.129756122827529907e-01
3.921000000000000000e+03 4.451195144653320312e+01 2.510108566284179688e+01 6.133266538381576538e-02 8.424623310565948486e-02 4.367366805672645569e-02 -4.000007733702659607e-02
3.922000000000000000e+03 3.410887908935546875e+01 1.555766105651855469e+01 -3.733282163739204407e-02 -4.476609174162149429e-03 -1.254282891750335693e-02 2.991696074604988098e-02
3.923000000000000000e+03 3.232115173339843750e+01 2.238329887390136719e+01 -8.307322859764099121e-02 -7.723159622400999069e-03 -2.723891660571098328e-02 3.167518600821495056e-02
3.924000000000000000e+03 2.485690879821777344e+01 2.679919433593750000e+01 -3.110791370272636414e-02 -3.616610914468765259e-02 -2.018220722675323486e-02 4.252351447939872742e-02
3.925000000000000000e+03 3.598565292358398438e+01 1.234591770172119141e+01 -1.942235790193080902e-02 -2.491241903044283390e-04 -5.901444703340530396e-03 7.936701178550720215e-03
3.926000000000000000e+03 3.422753143310546875e+01 2.101331138610839844e+01 -8.108780533075332642e-02 1.504625473171472549e-02 -1.981246471405029297e-02 3.626805171370506287e-02
3.927000000000000000e+03 7.456884765625000000e+01 -3.095719146728515625e+01 -4.572700709104537964e-03 -4.457073751837015152e-03 -2.708932384848594666e-03 1.216111052781343460e-02
3.928000000000000000e+03 3.633830261230468750e+01 1.556744289398193359e+01 -5.100113898515701294e-02 1.385265775024890900e-02 -1.114454492926597595e-02 2.218548581004142761e-02
3.929000000000000000e+03 7.614665985107421875e+01 -2.390281105041503906e+01 -1.602506672497838736e-04 9.131235287895833608e-07 -4.780126255354844034e-05 5.650729872286319733e-04
3.930000000000000000e+03 4.962651824951171875e+01 2.599762725830078125e+01 2.122732847929000854e-01 1.239137351512908936e-01 1.008561030030250549e-01 -2.144733220338821411e-01
3.931000000000000000e+03 2.029377174377441406e+01 2.492937660217285156e+01 -5.466069281101226807e-02 -1.316909119486808777e-02 -2.034893445670604706e-02 3.184034675359725952e-02
3.932000000000000000e+03 7.321796417236328125e+01 -8.738438606262207031e+00 -3.849606513977050781e-01 -2.060728892683982849e-02 -1.216703876852989197e-01 -6.060810089111328125e-01
3.933000000000000000e+03 7.399095153808593750e+01 -9.592180252075195312e+00 -3.159322440624237061e-01 -8.194673806428909302e-02 -1.193636879324913025e-01 -4.997505545616149902e-01
3.934000000000000000e+03 1.458312797546386719e+01 2.188418579101562500e+01 -1.835749670863151550e-02 2.952435752376914024e-03 -4.621518775820732117e-03 1.489995862357318401e-03
3.935000000000000000e+03 3.992684602737426758e+00 2.881331825256347656e+01 -1.400824869051575661e-03 -6.921004503965377808e-03 -2.496548695489764214e-03 5.897247698158025742e-03
3.936000000000000000e+03 1.689230346679687500e+01 5.069135189056396484e+00 -4.457779868971556425e-05 -2.564943497418425977e-05 -2.106817009916994721e-05 -6.967842637095600367e-06
3.937000000000000000e+03 1.449929809570312500e+01 9.836760520935058594e+00 -1.012962384265847504e-04 1.064199459506198764e-04 1.537112325422640424e-06 4.567551150103099644e-05
3.938000000000000000e+03 1.640642356872558594e+01 5.712214946746826172e+00 -4.145937055000104010e-05 -2.842514368239790201e-05 -2.096535536111332476e-05 -1.189983504445990548e-05
3.939000000000000000e+03 3.356491470336914062e+01 1.806509780883789062e+01 -7.338239252567291260e-02 -2.400153549388051033e-03 -2.273476496338844299e-02 4.853975772857666016e-02
3.940000000000000000e+03 1.234772300720214844e+01 1.721907806396484375e+01 -2.269489777972921729e-04 4.349269602244021371e-06 -6.677991041215136647e-05 3.231613663956522942e-04
3.941000000000000000e+03 6.394035816192626953e+00 6.088270187377929688e+00 2.957533870358020067e-04 -8.096361852949485183e-05 6.443692836910486221e-05 -1.831283952924422920e-05
3.942000000000000000e+03 7.057032012939453125e+01 1.888038253784179688e+01 6.242107152938842773e-01 9.190917015075683594e-01 4.629907310009002686e-01 5.101118683815002441e-01
3.943000000000000000e+03 7.157222747802734375e+01 1.862843322753906250e+01 5.066289901733398438e-01 3.188627958297729492e-01 2.476475387811660767e-01 5.106077790260314941e-01
3.944000000000000000e+03 6.965351867675781250e+01 1.769765090942382812e+01 7.627151608467102051e-01 1.391593575477600098e+00 6.462926268577575684e-01 3.730807304382324219e-01
3.945000000000000000e+03 1.449491310119628906e+01 -6.585041046142578125e+00 -4.108741879463195801e-01 -3.161431252956390381e-01 -2.181051969528198242e-01 -1.883172541856765747e-01
3.946000000000000000e+03 6.384909152984619141e+00 -6.174704074859619141e+00 -1.243891865015029907e-01 -6.373492069542407990e-03 -3.922880440950393677e-02 6.915879249572753906e-02
3.947000000000000000e+03 1.294624423980712891e+01 1.783783721923828125e+01 -3.471640957286581397e-05 5.335963796824216843e-04 1.496639888500794768e-04 1.503799139754846692e-04
3.948000000000000000e+03 1.298560810089111328e+01 1.812379264831542969e+01 -7.788161165080964565e-04 5.058895476395264268e-05 -2.184681507060304284e-04 5.623452598229050636e-04
3.949000000000000000e+03 2.864568328857421875e+01 2.328498268127441406e+01 -9.335310757160186768e-02 -5.969659984111785889e-02 -4.591491073369979858e-02 4.910410940647125244e-02
3.950000000000000000e+03 2.240996170043945312e+01 2.464701271057128906e+01 -7.171680778264999390e-02 -2.247455902397632599e-02 -2.825741097331047058e-02 3.741429373621940613e-02
3.951000000000000000e+03 7.159386444091796875e+01 1.561640739440917969e+01 6.150260567665100098e-01 3.574084341526031494e-01 2.917303442955017090e-01 1.847663223743438721e-01
3.952000000000000000e+03 2.928181457519531250e+01 2.274662590026855469e+01 -9.927606582641601562e-02 -6.008924543857574463e-02 -4.780959337949752808e-02 4.549982771277427673e-02
3.953000000000000000e+03 1.262495422363281250e+01 1.826080513000488281e+01 -9.374122018925845623e-04 4.526220891420962289e-06 -2.798658097162842751e-04 -2.701022312976419926e-04
3.954000000000000000e+03 3.494882583618164062e+01 1.562378215789794922e+01 -4.620905593037605286e-02 4.630096256732940674e-03 -1.247368752956390381e-02 3.081135824322700500e-02
3.955000000000000000e+03 1.100617027282714844e+01 1.588004398345947266e+01 8.976589015219360590e-05 -7.410375401377677917e-04 -1.953814935404807329e-04 2.346453838981688023e-04
3.956000000000000000e+03 1.509560585021972656e+01 8.043572425842285156e+00 -5.811058144900016487e-05 3.916307468898594379e-05 -5.684251846105325967e-06 -3.054198532481677830e-05
3.957000000000000000e+03 4.413341522216796875e+01 2.323369216918945312e+01 -3.315571695566177368e-03 6.341808289289474487e-02 1.803075335919857025e-02 -8.819108828902244568e-03
3.958000000000000000e+03 4.507803344726562500e+01 2.389071464538574219e+01 7.233841810375452042e-03 5.964097008109092712e-02 2.006244473159313202e-02 -1.841620355844497681e-02
3.959000000000000000e+03 7.075474548339843750e+01 6.508589267730712891e+00 4.774896204471588135e-01 7.038836479187011719e-01 3.544119894504547119e-01 -5.735437273979187012e-01
3.960000000000000000e+03 1.027997303009033203e+01 2.762841987609863281e+01 -9.113900363445281982e-03 -5.210523027926683426e-03 -4.297327250242233276e-03 1.328258216381072998e-02
3.961000000000000000e+03 3.509051895141601562e+01 1.598741245269775391e+01 -4.564581811428070068e-02 5.793930962681770325e-03 -1.195556670427322388e-02 2.916019037365913391e-02
3.962000000000000000e+03 6.643064117431640625e+01 -3.242788076400756836e+00 -1.028160527348518372e-01 1.053957343101501465e+00 2.853423655033111572e-01 -4.752924144268035889e-01
3.963000000000000000e+03 6.446836853027343750e+01 -2.003146171569824219e+00 5.232984945178031921e-02 1.715274572372436523e+00 5.302813053131103516e-01 -4.912548512220382690e-02
3.964000000000000000e+03 6.509237670898437500e+01 -1.431430339813232422e+00 6.941252201795578003e-02 1.711673378944396973e+00 5.343257784843444824e-01 -2.214025259017944336e-01
3.965000000000000000e+03 3.403451156616210938e+01 1.797332191467285156e+01 -6.644339859485626221e-02 1.758077414706349373e-03 -1.940559595823287964e-02 4.523534700274467468e-02
3.966000000000000000e+03 1.251263523101806641e+01 1.428478527069091797e+01 4.073802556376904249e-04 3.482789034023880959e-04 2.266977535327896476e-04 6.982604390941560268e-04
3.967000000000000000e+03 7.129528045654296875e+01 -3.276887893676757812e+00 -1.303884536027908325e-01 1.675130724906921387e-01 1.113738212734460831e-02 -9.136223196983337402e-01
3.968000000000000000e+03 1.393899440765380859e+01 -5.909641742706298828e+00 -3.138915300369262695e-01 -2.469425201416015625e-01 -1.682502180337905884e-01 -1.342136710882186890e-01
3.969000000000000000e+03 1.522125530242919922e+01 5.851605415344238281e+00 8.430530579062178731e-05 5.441190296551212668e-05 4.161516335443593562e-05 4.214464570395648479e-05
3.970000000000000000e+03 7.195556640625000000e+01 -1.883392572402954102e+00 -2.901947498321533203e-02 3.385967761278152466e-02 1.452060532756149769e-03 -9.167194962501525879e-01
3.971000000000000000e+03 7.100984191894531250e+01 -2.317883968353271484e+00 -6.692277640104293823e-02 2.125087082386016846e-01 4.367578029632568359e-02 -9.027543067932128906e-01
3.972000000000000000e+03 7.155737304687500000e+01 2.267436265945434570e+00 2.004352062940597534e-01 2.076740413904190063e-01 1.224327757954597473e-01 -8.399009108543395996e-01
3.973000000000000000e+03 1.038847637176513672e+01 2.368607139587402344e+01 -9.095869958400726318e-03 -7.474049343727529049e-04 -2.952982671558856964e-03 5.026553291827440262e-03
3.974000000000000000e+03 7.134492492675781250e+01 -9.818528890609741211e-01 3.154126554727554321e-02 1.808916330337524414e-01 6.372986733913421631e-02 -9.114409089088439941e-01
3.975000000000000000e+03 1.013929176330566406e+01 1.582712078094482422e+01 2.825178853527177125e-05 -9.554918506182730198e-04 -2.781720249913632870e-04 9.518282604403793812e-05
3.976000000000000000e+03 1.142747783660888672e+01 1.706219291687011719e+01 -1.343361800536513329e-04 -6.693995674140751362e-04 -2.411207242403179407e-04 5.410993471741676331e-04
3.977000000000000000e+03 1.881490516662597656e+01 2.616708183288574219e+01 -3.284988924860954285e-02 -1.094921305775642395e-02 -1.313973125070333481e-02 3.270543366670608521e-02
3.978000000000000000e+03 1.333512020111083984e+01 -5.882866859436035156e+00 -2.990852594375610352e-01 -2.242699414491653442e-01 -1.570065617561340332e-01 -9.551243484020233154e-02
3.979000000000000000e+03 7.106363773345947266e+00 1.140024566650390625e+01 1.332281681243330240e-04 -4.422178608365356922e-04 -9.269690781366080046e-05 -5.836677519255317748e-05
3.980000000000000000e+03 9.832028388977050781e+00 2.191380310058593750e+01 -6.598181556910276413e-03 -5.781320505775511265e-04 -2.152894157916307449e-03 2.492431551218032837e-03
3.981000000000000000e+03 1.434569931030273438e+01 6.065400600433349609e+00 -5.669171514455229044e-05 -9.324731991000589915e-07 -1.728725692373700440e-05 5.202616011956706643e-05
3.982000000000000000e+03 1.379068851470947266e+01 6.908035278320312500e+00 7.425581861753016710e-05 3.580504562705755234e-05 3.301825927337631583e-05 1.279870630241930485e-04
3.983000000000000000e+03 6.753627777099609375e+00 1.880314636230468750e+01 -8.538691326975822449e-04 -1.167313894256949425e-03 -6.063549080863595009e-04 1.209417823702096939e-04
3.984000000000000000e+03 5.820713996887207031e+00 1.966793823242187500e+01 -1.040625269524753094e-03 -1.024576020427048206e-03 -6.195603637024760246e-04 4.045645182486623526e-04
3.985000000000000000e+03 1.026119232177734375e+01 1.394553565979003906e+01 9.911761299008503556e-05 -6.264229305088520050e-04 -1.581915857968851924e-04 4.118283977732062340e-04
3.986000000000000000e+03 1.393892192840576172e+01 5.896551132202148438e+00 5.605984915746375918e-05 8.183275349438190460e-05 4.136778079555369914e-05 -1.656854692555498332e-05
3.987000000000000000e+03 8.184427261352539062e+00 9.985457420349121094e+00 4.631577467080205679e-04 -2.626723144203424454e-04 6.014562677592039108e-05 -1.909314050863031298e-05
3.988000000000000000e+03 7.305916309356689453e+00 2.285348320007324219e+01 -4.185258410871028900e-03 -1.625445554964244366e-03 -1.743211178109049797e-03 3.175552701577544212e-03
3.989000000000000000e+03 2.026099586486816406e+01 2.554647445678710938e+01 -4.630103334784507751e-02 -1.463436055928468704e-02 -1.828061789274215698e-02 3.597548604011535645e-02
3.990000000000000000e+03 3.482025527954101562e+01 2.317851334810256958e-01 -2.108939647674560547e+00 -5.036961520090699196e-04 -6.328330039978027344e-01 -3.000859618186950684e-01
3.991000000000000000e+03 3.502776718139648438e+01 -3.995346128940582275e-01 -2.239804983139038086e+00 1.244917213916778564e-01 -6.345939636230468750e-01 -3.402054011821746826e-01
3.992000000000000000e+03 3.520851898193359375e+01 -9.952967762947082520e-01 -2.478808164596557617e+00 3.371340930461883545e-01 -6.425021886825561523e-01 -2.354822494089603424e-02
3.993000000000000000e+03 3.487051010131835938e+01 -9.423822760581970215e-01 -2.531169652938842773e+00 3.120373189449310303e-01 -6.657397150993347168e-01 -1.947820633649826050e-01
3.994000000000000000e+03 3.501298904418945312e+01 2.663194239139556885e-01 -2.256897926330566406e+00 -1.136354655027389526e-01 -7.111600041389465332e-01 -3.246889412403106689e-01
3.995000000000000000e+03 3.488112640380859375e+01 -1.439139619469642639e-02 -2.115262031555175781e+00 -8.463463932275772095e-02 -6.599690318107604980e-01 -3.716316521167755127e-01
3.996000000000000000e+03 3.504684829711914062e+01 -1.377833038568496704e-01 -2.105272293090820312e+00 1.357035245746374130e-02 -6.275106072425842285e-01 -2.971793115139007568e-01
3.997000000000000000e+03 3.448436355590820312e+01 -4.451995790004730225e-01 -2.344206094741821289e+00 2.121986150741577148e-01 -6.396022439002990723e-01 -6.195084452629089355e-01
3.998000000000000000e+03 3.444835281372070312e+01 1.789149492979049683e-01 -1.947814583778381348e+00 2.068858034908771515e-02 -5.781378149986267090e-01 -2.652797698974609375e-01
3.999000000000000000e+03 3.445236587524414062e+01 -9.279549121856689453e-01 -2.926765918731689453e+00 3.495865762233734131e-01 -7.731537818908691406e-01 -2.495221346616744995e-01
4.000000000000000000e+03 3.472159957885742188e+01 -4.574835002422332764e-01 -2.316221952438354492e+00 1.293835937976837158e-01 -6.560514569282531738e-01 -4.426405429840087891e-01
4.001000000000000000e+03 3.504224777221679688e+01 -9.963615536689758301e-01 -2.517357110977172852e+00 3.351709842681884766e-01 -6.546558141708374023e-01 -8.162569999694824219e-02
4.002000000000000000e+03 3.508397293090820312e+01 -6.545739173889160156e-01 -2.364088773727416992e+00 1.952461004257202148e-01 -6.506527662277221680e-01 -2.084717005491256714e-01
4.003000000000000000e+03 3.463124084472656250e+01 1.983687281608581543e-01 -2.025724887847900391e+00 -9.598816186189651489e-02 -6.365139484405517578e-01 -2.507210075855255127e-01
4.004000000000000000e+03 3.448096847534179688e+01 -8.303236216306686401e-02 -1.767436146736145020e+00 -5.584954842925071716e-02 -5.469857454299926758e-01 -5.287705659866333008e-01
4.005000000000000000e+03 3.466226196289062500e+01 -9.147076010704040527e-01 -2.702498674392700195e+00 3.502706289291381836e-01 -7.056684494018554688e-01 -2.478708326816558838e-01
4.006000000000000000e+03 3.429238891601562500e+01 1.145092993974685669e-01 -1.733582377433776855e+00 2.848247997462749481e-02 -5.115299820899963379e-01 -3.512816429138183594e-01
4.007000000000000000e+03 3.505037689208984375e+01 5.978215858340263367e-02 -2.054272651672363281e+00 -5.070969089865684509e-02 -6.314947009086608887e-01 -3.261736035346984863e-01
4.008000000000000000e+03 3.517032241821289062e+01 -8.236765265464782715e-01 -2.378391265869140625e+00 2.907432317733764648e-01 -6.262944340705871582e-01 -9.561553597450256348e-02
4.009000000000000000e+03 3.469303894042968750e+01 -8.869820088148117065e-02 -1.988956093788146973e+00 -3.879689611494541168e-04 -5.968031883239746094e-01 -4.736321866512298584e-01
4.010000000000000000e+03 3.400199890136718750e+01 -1.481593251228332520e-01 -1.727917194366455078e+00 1.008980646729469299e-01 -4.881057441234588623e-01 -7.405681014060974121e-01
4.011000000000000000e+03 3.396210098266601562e+01 -1.021292924880981445e+00 -3.516732692718505859e+00 2.890272438526153564e-01 -9.683116674423217773e-01 -6.022648140788078308e-02
4.012000000000000000e+03 3.408905029296875000e+01 9.776008874177932739e-02 -1.437322139739990234e+00 1.120475232601165771e-01 -3.975823819637298584e-01 -4.940248429775238037e-01
4.013000000000000000e+03 3.364619064331054688e+01 1.042624264955520630e-01 -4.689634442329406738e-01 -1.314364671707153320e-01 -1.801199764013290405e-01 -3.419325351715087891e-01
4.014000000000000000e+03 3.314983367919921875e+01 -7.385936975479125977e-01 -7.328745365142822266e+00 -1.710593342781066895e+00 -2.711801767349243164e+00 -6.353567242622375488e-01
4.015000000000000000e+03 3.311226272583007812e+01 4.197925329208374023e-02 9.125375151634216309e-01 9.646873921155929565e-02 3.027018904685974121e-01 -2.340600341558456421e-01
4.016000000000000000e+03 3.293719100952148438e+01 -1.020196080207824707e-02 2.540286779403686523e-01 -5.913949012756347656e-01 -1.012098640203475952e-01 5.597249865531921387e-01
4.017000000000000000e+03 3.265475845336914062e+01 -1.659001111984252930e-01 2.041857838630676270e-01 8.065040111541748047e-01 3.032069504261016846e-01 -4.170062243938446045e-01
4.018000000000000000e+03 3.276617813110351562e+01 -5.367523804306983948e-02 -4.352206289768218994e-01 -4.184579104185104370e-02 -1.431199312210083008e-01 6.256985068321228027e-01
4.019000000000000000e+03 3.156710624694824219e+01 -1.139999270439147949e+00 -3.237589120864868164e+00 4.367370307445526123e-01 -8.402556180953979492e-01 -1.219971328973770142e-01
4.020000000000000000e+03 3.131309318542480469e+01 -1.084291040897369385e-01 -1.756458401679992676e+00 -4.331433027982711792e-02 -5.399318337440490723e-01 -2.050954997539520264e-01
4.021000000000000000e+03 3.112607002258300781e+01 -1.395439654588699341e-01 -2.313138246536254883e+00 -2.031580656766891479e-01 -7.548888325691223145e-01 1.312561035156250000e-01
4.022000000000000000e+03 3.097275543212890625e+01 -1.923964768648147583e-01 -2.337935447692871094e+00 2.127662152051925659e-01 -6.375507116317749023e-01 -2.310524284839630127e-01
4.023000000000000000e+03 3.189393234252929688e+01 -1.208927392959594727e+00 -3.263042688369750977e+00 4.794076681137084961e-01 -8.350905179977416992e-01 -2.570515871047973633e-01
4.024000000000000000e+03 3.421673583984375000e+01 -9.602398872375488281e-01 -3.080957412719726562e+00 4.537954926490783691e-01 -7.881485819816589355e-01 -4.139938950538635254e-01
4.025000000000000000e+03 3.332613754272460938e+01 -1.090211391448974609e+00 -3.332717657089233398e+00 -5.549723505973815918e-01 -1.166307091712951660e+00 6.621321439743041992e-01
4.026000000000000000e+03 3.293823623657226562e+01 -8.090336322784423828e-01 -7.039793014526367188e+00 -2.825886487960815430e+00 -2.959703683853149414e+00 1.582852900028228760e-01
4.027000000000000000e+03 3.271237182617187500e+01 -1.201809287071228027e+00 -3.739752292633056641e+00 -6.200943589210510254e-01 -1.307954072952270508e+00 -6.522986888885498047e-01
4.028000000000000000e+03 3.169081687927246094e+01 -5.910111069679260254e-01 -2.940958261489868164e+00 5.309929847717285156e-01 -7.229895591735839844e-01 1.735255569219589233e-01
4.029000000000000000e+03 3.331299209594726562e+01 -2.003788948059082031e-01 -1.598218679428100586e+00 -2.811027467250823975e-01 -5.637964606285095215e-01 -1.005491375923156738e+00
4.030000000000000000e+03 3.383176803588867188e+01 -6.687225103378295898e-01 -3.044188022613525391e+00 3.284023404121398926e-01 -8.147357106208801270e-01 -9.921838045120239258e-01
4.031000000000000000e+03 3.385493087768554688e+01 1.196751296520233154e-01 -8.820229172706604004e-01 -1.354565918445587158e-01 -3.052438497543334961e-01 -4.641764461994171143e-01
4.032000000000000000e+03 3.342586898803710938e+01 -5.869226902723312378e-02 -6.281407475471496582e-01 -2.662644386291503906e-01 -2.683215439319610596e-01 -6.989929676055908203e-01
4.033000000000000000e+03 3.086922454833984375e+01 -3.279412388801574707e-01 -2.782806634902954102e+00 -1.249940320849418640e-01 -8.723402023315429688e-01 4.028051719069480896e-02
4.034000000000000000e+03 3.162461662292480469e+01 -1.862830966711044312e-01 -1.296814084053039551e+00 1.774104833602905273e-01 -3.358210921287536621e-01 3.429286777973175049e-01
4.035000000000000000e+03 3.416860198974609375e+01 -5.028523802757263184e-01 -2.595686197280883789e+00 1.787785142660140991e-01 -7.250723242759704590e-01 -6.354378461837768555e-01
4.036000000000000000e+03 3.360907745361328125e+01 -8.425797224044799805e-01 -4.700606346130371094e+00 1.035800352692604065e-01 -1.379107832908630371e+00 -4.174045920372009277e-01
4.037000000000000000e+03 3.276919937133789062e+01 -8.749681711196899414e-01 -4.368111133575439453e+00 -7.764155268669128418e-01 -1.543358087539672852e+00 -2.177318930625915527e-01
4.038000000000000000e+03 3.195477485656738281e+01 -3.696976304054260254e-01 -2.897273302078247070e+00 3.016276657581329346e-01 -7.786936759948730469e-01 9.211045503616333008e-01
4.039000000000000000e+03 3.252721786499023438e+01 -1.251863598823547363e+00 -3.675153970718383789e+00 -6.447673439979553223e-01 -1.295976400375366211e+00 -4.394423663616180420e-01
4.040000000000000000e+03 3.239929962158203125e+01 -9.122696518898010254e-01 -4.014621257781982422e+00 1.423107236623764038e-01 -1.161693096160888672e+00 -3.707529008388519287e-01
4.041000000000000000e+03 3.327270507812500000e+01 9.752890467643737793e-02 4.231765568256378174e-01 -1.289732903242111206e-01 8.826097846031188965e-02 -8.791575580835342407e-02
4.042000000000000000e+03 3.181629562377929688e+01 -2.469906955957412720e-02 -1.029659748077392578e+00 1.793107688426971436e-01 -2.551046907901763916e-01 7.632888853549957275e-02
4.043000000000000000e+03 3.197904205322265625e+01 -2.844978496432304382e-02 -7.721653580665588379e-01 -2.091311216354370117e-01 -2.943889498710632324e-01 -5.765858665108680725e-02
4.044000000000000000e+03 3.235213851928710938e+01 -1.281953215599060059e+00 -3.524585008621215820e+00 -1.080784723162651062e-01 -1.089799046516418457e+00 -5.898908376693725586e-01
4.045000000000000000e+03 3.244567871093750000e+01 -7.290428280830383301e-01 -4.007931709289550781e+00 -2.911353707313537598e-01 -1.289720177650451660e+00 3.670277073979377747e-02
4.046000000000000000e+03 3.355311584472656250e+01 -1.092567682266235352e+00 -4.203283309936523438e+00 -2.390936762094497681e-01 -1.332713127136230469e+00 3.443753123283386230e-01
4.047000000000000000e+03 3.296784591674804688e+01 -4.096782803535461426e-01 -4.554418027400970459e-01 -1.586306333541870117e+00 -6.125244498252868652e-01 -7.151353359222412109e-01
4.048000000000000000e+03 3.131776237487792969e+01 -6.395704746246337891e-01 -2.675235509872436523e+00 3.705224096775054932e-01 -6.914139389991760254e-01 1.274563521146774292e-01
4.049000000000000000e+03 3.368114471435546875e+01 -1.669717580080032349e-01 -1.517416000366210938e+00 -1.101838573813438416e-01 -4.882799386978149414e-01 -9.356927871704101562e-01
4.050000000000000000e+03 3.358239364624023438e+01 -4.102739095687866211e-01 -2.586512565612792969e+00 -1.365741342306137085e-01 -8.169260025024414062e-01 -8.127475976943969727e-01
4.051000000000000000e+03 3.337776565551757812e+01 -6.060455441474914551e-01 -3.263823270797729492e+00 -1.106472536921501160e-01 -1.012341141700744629e+00 -1.284293174743652344e+00
4.052000000000000000e+03 3.123846626281738281e+01 -3.502001464366912842e-01 -2.766614913940429688e+00 9.841916710138320923e-02 -8.004587292671203613e-01 5.267532542347908020e-02
4.053000000000000000e+03 3.214323425292968750e+01 -7.637282460927963257e-02 -2.530814893543720245e-02 5.644534826278686523e-01 1.617436110973358154e-01 5.657078623771667480e-01
4.054000000000000000e+03 3.233746719360351562e+01 -2.876764535903930664e-01 -1.901895046234130859e+00 -2.045351713895797729e-01 -6.319290995597839355e-01 9.522212147712707520e-01
4.055000000000000000e+03 3.215012741088867188e+01 -8.154843449592590332e-01 -3.922286033630371094e+00 1.845797151327133179e-01 -1.121311902999877930e+00 1.635052412748336792e-01
4.056000000000000000e+03 3.147759437561035156e+01 -6.211524456739425659e-02 -1.807039260864257812e+00 2.218499928712844849e-01 -4.755567908287048340e-01 -1.768222153186798096e-01
4.057000000000000000e+03 3.163834381103515625e+01 -3.776077926158905029e-02 -1.495078086853027344e+00 -1.569229513406753540e-01 -4.956003427505493164e-01 7.007684558629989624e-02
4.058000000000000000e+03 3.183118247985839844e+01 -1.824834942817687988e-01 -1.188001871109008789e+00 -1.032187864184379578e-01 -3.873661756515502930e-01 3.385215103626251221e-01
4.059000000000000000e+03 3.344159317016601562e+01 1.166179478168487549e-01 -4.376141820102930069e-03 -3.374777734279632568e-02 -1.143717579543590546e-02 -2.713517844676971436e-01
4.060000000000000000e+03 3.375662612915039062e+01 -1.085907697677612305e+00 -3.409864664077758789e+00 2.084194868803024292e-01 -9.604335427284240723e-01 1.203869059681892395e-01
4.061000000000000000e+03 3.311204147338867188e+01 -1.131238102912902832e+00 -3.354565143585205078e+00 -1.813615560531616211e+00 -1.550454258918762207e+00 4.675494134426116943e-02
4.062000000000000000e+03 3.291574096679687500e+01 -1.168885946273803711e+00 -4.445362091064453125e+00 -2.057565450668334961e+00 -1.950878262519836426e+00 -5.877568721771240234e-01
4.063000000000000000e+03 3.215005874633789062e+01 -1.031110167503356934e+00 -3.525168657302856445e+00 2.436534613370895386e-01 -9.844545722007751465e-01 -2.323620021343231201e-01
4.064000000000000000e+03 3.214545440673828125e+01 -1.263760447502136230e+00 -3.531989097595214844e+00 -1.665880680084228516e-01 -1.109573125839233398e+00 -3.893613815307617188e-01
4.065000000000000000e+03 3.192040824890136719e+01 -8.839121460914611816e-01 -3.552724838256835938e+00 3.605334758758544922e-01 -9.576573967933654785e-01 4.067504312843084335e-03
4.066000000000000000e+03 3.315047454833984375e+01 -3.186087310314178467e-01 -1.840067505836486816e+00 -1.109585165977478027e+00 -8.848958015441894531e-01 -8.160991668701171875e-01
4.067000000000000000e+03 3.148613548278808594e+01 -3.122936487197875977e-01 -2.605594873428344727e+00 3.599869906902313232e-01 -6.736823320388793945e-01 4.771367013454437256e-01
4.068000000000000000e+03 3.237022781372070312e+01 -1.101313352584838867e+00 -3.804919958114624023e+00 -3.441069424152374268e-01 -1.244708061218261719e+00 -4.763172268867492676e-01
4.069000000000000000e+03 3.256470108032226562e+01 -6.016697287559509277e-01 -4.772130012512207031e+00 -7.950149774551391602e-01 -1.670143485069274902e+00 2.813883125782012939e-01
4.070000000000000000e+03 3.260083007812500000e+01 -9.403727054595947266e-01 -4.421651363372802734e+00 -1.005651950836181641e+00 -1.628190875053405762e+00 -2.483663409948348999e-01
4.071000000000000000e+03 3.262161254882812500e+01 -4.030735492706298828e-01 -2.866111993789672852e+00 -1.206275820732116699e+00 -1.221716284751892090e+00 1.103740453720092773e+00
4.072000000000000000e+03 3.219610214233398438e+01 -5.578918457031250000e-01 -3.472952127456665039e+00 5.054074525833129883e-01 -8.902634382247924805e-01 1.193350031971931458e-01
4.073000000000000000e+03 3.048606872558593750e+01 2.310402989387512207e-01 9.025290637509897351e-06 2.137063347618095577e-05 9.118776688410434872e-06 -1.031334340950706974e-05
4.074000000000000000e+03 3.067443084716796875e+01 8.053497970104217529e-02 -1.884150719888566528e-06 -1.198807012769975699e-06 -9.248873311662464403e-07 -1.068501296686008573e-05
4.075000000000000000e+03 3.083256912231445312e+01 7.534402608871459961e-02 1.066033019014867023e-05 -1.994394369830843061e-05 -2.785084006973193027e-06 -3.076539314861292951e-06
4.076000000000000000e+03 3.146447753906250000e+01 1.434350162744522095e-01 -2.307787781319348142e-06 -4.488684339776227716e-07 -8.269968816421169322e-07 1.852824539128050674e-06
4.077000000000000000e+03 3.169309043884277344e+01 2.968901693820953369e-01 3.017113385794800706e-06 -5.443673671834403649e-07 7.418238396894594189e-07 -1.244108261744258925e-06
4.078000000000000000e+03 3.156153106689453125e+01 5.812429189682006836e-01 -1.151221340478514321e-06 -3.141385377603000961e-06 -1.287781969949719496e-06 1.818492933125526179e-06
4.079000000000000000e+03 3.117042160034179688e+01 1.019975543022155762e-01 2.181638819820364006e-06 -6.386125733115477487e-06 -1.261346142200636677e-06 -1.114608835450781044e-06
4.080000000000000000e+03 3.075090408325195312e+01 3.309426605701446533e-01 -1.647613203203945886e-06 -1.745172085065860301e-05 -5.729800250264815986e-06 7.927863407530821860e-06
4.081000000000000000e+03 3.095979499816894531e+01 2.792930305004119873e-01 -1.718619023449718952e-05 -1.058276211551856250e-06 -5.473340024764183909e-06 1.474747023166855797e-06
4.082000000000000000e+03 3.131006622314453125e+01 2.190151810646057129e-01 -9.667667654866818339e-06 -7.865142492846644018e-07 -3.136254690616624430e-06 1.398963945575815160e-06
4.083000000000000000e+03 3.163131332397460938e+01 1.642359793186187744e-01 2.276335067108448129e-07 3.295126589364372194e-06 1.056828068612958305e-06 -2.359806103413575329e-06
4.084000000000000000e+03 3.180051803588867188e+01 1.577325165271759033e-01 5.345584099814004730e-07 -1.242895336872607004e-06 -2.125010780673619593e-07 -3.203488745384674985e-07
4.085000000000000000e+03 3.122459983825683594e+01 4.408085644245147705e-01 3.930795628548366949e-06 5.096971563034458086e-06 2.708330157474847510e-06 -3.815762738668126985e-06
4.086000000000000000e+03 3.100239944458007812e+01 9.454712271690368652e-02 1.122020512411836535e-05 1.470595088903792202e-05 7.777846803946886212e-06 9.687738383945543319e-06
4.087000000000000000e+03 3.131899452209472656e+01 9.043892472982406616e-02 4.272832484275568277e-06 3.259392315158038400e-06 2.259667326143244281e-06 1.806306727303308435e-06
4.088000000000000000e+03 3.191551780700683594e+01 2.150069624185562134e-01 -1.980116337563231355e-07 -1.780577122190152295e-06 -5.935766580478230026e-07 1.348910586784768384e-06
4.089000000000000000e+03 3.196529197692871094e+01 3.894459009170532227e-01 2.128196143758032122e-07 1.974342694666120224e-06 6.561486429745855276e-07 -8.208053259295411408e-07
4.090000000000000000e+03 3.252656173706054688e+01 1.474916934967041016e+00 4.362800100352615118e-04 -3.611502761486917734e-04 2.253892489534337074e-05 -9.904549369821324944e-05
4.091000000000000000e+03 3.277453613281250000e+01 3.826866447925567627e-01 3.712537363753654063e-05 -2.033634518738836050e-05 5.036708898842334747e-06 1.470350252930074930e-05
4.092000000000000000e+03 3.231996536254882812e+01 1.288083195686340332e+00 1.862047938629984856e-04 2.568984928075224161e-04 1.329309889115393162e-04 -1.480762584833428264e-04
4.093000000000000000e+03 3.247399902343750000e+01 7.846297025680541992e-01 1.101550151361152530e-04 2.312414726475253701e-04 1.024189477902837098e-04 -1.184964930871501565e-04
4.094000000000000000e+03 3.306614303588867188e+01 1.100092530250549316e+00 -5.987751646898686886e-04 -2.290987758897244930e-04 -2.483621938154101372e-04 -4.861733395955525339e-05
4.095000000000000000e+03 3.320626068115234375e+01 3.682013154029846191e-01 3.000178185175172985e-05 6.230876897461712360e-05 2.769316415651701391e-05 -8.035756036406382918e-05
4.096000000000000000e+03 3.299676895141601562e+01 7.458893656730651855e-01 3.710677265189588070e-04 2.111861977027729154e-05 1.176559017039835453e-04 -8.847579010762274265e-05
4.097000000000000000e+03 3.355887222290039062e+01 3.570089340209960938e-01 -2.193587715737521648e-04 3.934022679459303617e-04 5.221304672886617482e-05 -1.141535813076188788e-05
4.098000000000000000e+03 3.384705734252929688e+01 4.833906590938568115e-01 -1.963295944733545184e-04 -2.520859416108578444e-04 -1.345246564596891403e-04 1.395267026964575052e-04
4.099000000000000000e+03 3.371740341186523438e+01 4.005685746669769287e-01 -1.325442426605150104e-04 1.003631405183114111e-05 -3.675237894640304148e-05 -1.587203441886231303e-04
4.100000000000000000e+03 3.209313583374023438e+01 9.748304486274719238e-01 -1.699599961284548044e-04 -9.723163384478539228e-05 -8.015748608158901334e-05 1.113449470722116530e-04
4.101000000000000000e+03 3.339539337158203125e+01 3.439426422119140625e-01 -1.486933324486017227e-04 -3.793112118728458881e-04 -1.584013662068173289e-04 1.953411992872133851e-04
4.102000000000000000e+03 3.342350387573242188e+01 8.909338712692260742e-01 2.992594672832638025e-04 2.535026287660002708e-04 1.658286346355453134e-04 -2.202060568379238248e-04
4.103000000000000000e+03 3.273265075683593750e+01 7.511296272277832031e-01 1.387001884722849354e-05 -1.717934646876528859e-04 -4.737703056889586151e-05 -9.766461880644783378e-05
4.104000000000000000e+03 3.299393081665039062e+01 3.836881220340728760e-01 -8.098725811578333378e-05 5.406115451478399336e-05 -8.077829988906159997e-06 3.769532486330717802e-05
4.105000000000000000e+03 3.326683044433593750e+01 6.439960002899169922e-01 6.909087460371665657e-06 -3.120984474662691355e-04 -9.155680891126394272e-05 2.486865851096808910e-04
4.106000000000000000e+03 3.272225189208984375e+01 1.501854300498962402e+00 -2.506125892978161573e-04 -3.708333679242059588e-05 -8.630878437543287873e-05 3.816417593043297529e-04
4.107000000000000000e+03 3.258716964721679688e+01 1.023952603340148926e+00 -3.396065148990601301e-04 -4.671805436373688281e-05 -1.158973755082115531e-04 1.163905835710465908e-04
4.108000000000000000e+03 3.220250701904296875e+01 4.758601486682891846e-01 9.324149868916720152e-05 3.164021109114401042e-05 3.746451329789124429e-05 -5.327684993972070515e-05
4.109000000000000000e+03 3.345799636840820312e+01 5.111693739891052246e-01 9.105707431444898248e-05 1.748615613905712962e-04 7.977559289429336786e-05 -1.542135760246310383e-05
4.110000000000000000e+03 3.253543472290039062e+01 3.972842991352081299e-01 -3.908723738277330995e-05 -4.421401172294281423e-05 -2.499037509551271796e-05 3.693957842187955976e-05
4.111000000000000000e+03 3.273504638671875000e+01 1.226690053939819336e+00 3.892752865795046091e-04 3.046924248337745667e-04 2.081903076032176614e-04 -1.211545823025517166e-04
4.112000000000000000e+03 3.299623489379882812e+01 1.477275013923645020e+00 2.182145835831761360e-04 -1.708529744064435363e-04 1.420848457200918347e-05 1.948183053173124790e-04
4.113000000000000000e+03 3.361579895019531250e+01 6.195395588874816895e-01 3.116124426014721394e-04 2.712339919526129961e-04 1.748539361869916320e-04 1.816989679355174303e-04
4.114000000000000000e+03 2.781990051269531250e+01 -2.360724806785583496e-01 -1.895067747682332993e-03 8.367708069272339344e-04 -3.174890589434653521e-04 -4.068883135914802551e-04
4.115000000000000000e+03 2.646029090881347656e+01 7.749882936477661133e-01 -2.214444428682327271e-02 4.924830421805381775e-02 8.131157606840133667e-03 -6.330259144306182861e-02
4.116000000000000000e+03 2.671755599975585938e+01 8.129853606224060059e-01 1.338387373834848404e-03 5.931120738387107849e-02 1.819487847387790680e-02 -5.572703480720520020e-02
4.117000000000000000e+03 2.685140991210937500e+01 5.993382930755615234e-01 -3.796671330928802490e-02 6.560781598091125488e-02 8.292329497635364532e-03 -3.194503113627433777e-02
4.118000000000000000e+03 2.615445137023925781e+01 6.092628836631774902e-01 -8.216004818677902222e-02 -7.454829756170511246e-03 -2.688446268439292908e-02 -4.910933598875999451e-02
4.119000000000000000e+03 2.578784370422363281e+01 5.081817507743835449e-01 -1.357956230640411377e-01 -1.021068170666694641e-01 -7.137072831392288208e-02 5.203248467296361923e-03
4.120000000000000000e+03 2.515849876403808594e+01 3.271711468696594238e-01 -2.642207741737365723e-01 -1.169143915176391602e-01 -1.143405511975288391e-01 1.128669008612632751e-01
4.121000000000000000e+03 2.528490638732910156e+01 -1.167485713958740234e+00 -1.384780764579772949e+00 6.646142899990081787e-02 -3.954958021640777588e-01 -2.689437866210937500e-01
4.122000000000000000e+03 2.597053718566894531e+01 -1.693393230438232422e+00 -1.513881683349609375e+00 -1.763510406017303467e-01 -5.070698261260986328e-01 -5.289375185966491699e-01
4.123000000000000000e+03 2.837369155883789062e+01 -1.667419314384460449e+00 -2.187244415283203125e+00 -3.283538669347763062e-02 -6.660239696502685547e-01 -4.706734418869018555e-01
4.124000000000000000e+03 2.616794013977050781e+01 -1.584699869155883789e+00 -1.629757761955261230e+00 -1.966561675071716309e-01 -5.479241609573364258e-01 -4.895839393138885498e-01
4.125000000000000000e+03 2.545707130432128906e+01 -1.382107138633728027e+00 -1.436622381210327148e+00 4.025366157293319702e-02 -4.189106225967407227e-01 -3.836980462074279785e-01
4.126000000000000000e+03 2.507384490966796875e+01 -2.928588986396789551e-01 -7.686071395874023438e-01 -1.244734600186347961e-02 -2.343163490295410156e-01 1.353733092546463013e-01
4.127000000000000000e+03 2.553544807434082031e+01 3.138064444065093994e-01 -2.166743129491806030e-01 -1.504159867763519287e-01 -1.101270914077758789e-01 7.370322197675704956e-02
4.128000000000000000e+03 2.596484184265136719e+01 5.645281076431274414e-01 -9.705204516649246216e-02 -5.606247484683990479e-02 -4.593435674905776978e-02 -3.151166439056396484e-02
4.129000000000000000e+03 2.878841018676757812e+01 -7.704266905784606934e-02 -2.177328133257105947e-05 2.709617838263511658e-04 7.475655002053827047e-05 5.711170160793699324e-06
4.130000000000000000e+03 2.790844726562500000e+01 2.747163772583007812e-01 1.028371858410537243e-03 2.473450265824794769e-03 1.050546648912131786e-03 5.910689651500433683e-05
4.131000000000000000e+03 2.716904640197753906e+01 -9.880415350198745728e-02 7.658275775611400604e-03 2.388909645378589630e-02 9.464211761951446533e-03 2.636297978460788727e-02
4.132000000000000000e+03 2.750106239318847656e+01 6.892876625061035156e-01 2.397800795733928680e-03 7.476844359189271927e-03 2.962393453344702721e-03 -5.463932175189256668e-03
4.133000000000000000e+03 2.659551811218261719e+01 9.028003811836242676e-01 2.564561367034912109e-02 6.111972779035568237e-02 2.602960169315338135e-02 -6.373148411512374878e-02
4.134000000000000000e+03 2.561998748779296875e+01 4.662799537181854248e-01 -1.653029918670654297e-01 -1.128268092870712280e-01 -8.343894034624099731e-02 2.991971001029014587e-02
4.135000000000000000e+03 2.546137046813964844e+01 4.314995408058166504e-01 -1.992287486791610718e-01 -1.265676319599151611e-01 -9.773891419172286987e-02 6.071424856781959534e-02
4.136000000000000000e+03 2.541918945312500000e+01 2.043535113334655762e-01 -3.429643511772155762e-01 -1.326585710048675537e-01 -1.426868736743927002e-01 1.073762625455856323e-01
4.137000000000000000e+03 2.514461708068847656e+01 1.484151929616928101e-01 -3.714349865913391113e-01 -8.749132603406906128e-02 -1.376778930425643921e-01 7.159649580717086792e-02
4.138000000000000000e+03 3.124060249328613281e+01 -1.303454041481018066e+00 -2.993192195892333984e+00 3.495496213436126709e-01 -7.930927872657775879e-01 -2.233418375253677368e-01
4.139000000000000000e+03 3.089070892333984375e+01 -1.371482610702514648e+00 -2.794186353683471680e+00 2.864493727684020996e-01 -7.523210644721984863e-01 -2.269734442234039307e-01
4.140000000000000000e+03 3.008119964599609375e+01 -2.816029489040374756e-01 -2.901280879974365234e+00 9.766017086803913116e-03 -8.674544692039489746e-01 -2.698422968387603760e-01
4.141000000000000000e+03 2.892089462280273438e+01 -1.029202699661254883e+00 -2.585826635360717773e+00 -6.020252476446330547e-04 -7.759286165237426758e-01 -3.522551357746124268e-01
4.142000000000000000e+03 2.867807006835937500e+01 -7.479233145713806152e-01 -2.690309047698974609e+00 -1.603099890053272247e-02 -8.119019865989685059e-01 -3.400425016880035400e-01
4.143000000000000000e+03 2.775576591491699219e+01 -1.722179293632507324e+00 -2.053734540939331055e+00 -8.277779817581176758e-02 -6.409536600112915039e-01 -4.882088005542755127e-01
4.144000000000000000e+03 2.707432937622070312e+01 -1.548220634460449219e+00 -1.956307053565979004e+00 -1.798874437808990479e-01 -6.408583521842956543e-01 -4.227263331413269043e-01
4.145000000000000000e+03 3.027514839172363281e+01 -2.667401432991027832e-01 -2.857146501541137695e+00 -2.242725901305675507e-02 -8.638721108436584473e-01 -2.369586378335952759e-01
4.146000000000000000e+03 2.954090499877929688e+01 -1.550057530403137207e+00 -2.439754486083984375e+00 9.554953128099441528e-02 -7.032614946365356445e-01 -3.723500370979309082e-01
4.147000000000000000e+03 2.804059028625488281e+01 -4.530044198036193848e-01 -2.796233654022216797e+00 -1.938498951494693756e-02 -8.446856141090393066e-01 -3.032204210758209229e-01
4.148000000000000000e+03 2.824248123168945312e+01 -4.449058473110198975e-01 -2.826914548873901367e+00 -4.878336936235427856e-02 -8.627093434333801270e-01 -3.072828650474548340e-01
4.149000000000000000e+03 2.719761276245117188e+01 -9.446302652359008789e-01 -2.421839237213134766e+00 -7.262849062681198120e-02 -7.483403086662292480e-01 -2.920317351818084717e-01
4.150000000000000000e+03 2.722833442687988281e+01 -7.250214219093322754e-01 -2.589560747146606445e+00 -6.939424574375152588e-02 -7.976865172386169434e-01 -2.768523991107940674e-01
4.151000000000000000e+03 2.723756790161132812e+01 -5.151501893997192383e-01 -2.698914527893066406e+00 -2.015804313123226166e-02 -8.157218098640441895e-01 -2.774372398853302002e-01
4.152000000000000000e+03 2.515667152404785156e+01 -8.476480245590209961e-01 -1.132713794708251953e+00 9.433960914611816406e-02 -3.115122616291046143e-01 -1.721264868974685669e-01
4.153000000000000000e+03 2.675755500793457031e+01 -1.431399822235107422e+00 -1.903801679611206055e+00 -2.358965128660202026e-01 -6.419094800949096680e-01 -3.765609860420227051e-01
4.154000000000000000e+03 2.721723747253417969e+01 -3.033818006515502930e-01 1.869832910597324371e-02 5.238488316535949707e-03 7.181045599281787872e-03 1.238184515386819839e-02
4.155000000000000000e+03 2.635912895202636719e+01 5.831415057182312012e-01 -7.375748455524444580e-02 4.020005464553833008e-02 -1.006722915917634964e-02 -5.638362094759941101e-02
4.156000000000000000e+03 2.528482055664062500e+01 2.188069820404052734e-01 -3.452329337596893311e-01 -1.238001212477684021e-01 -1.407099068164825439e-01 1.051011756062507629e-01
4.157000000000000000e+03 2.822923660278320312e+01 -1.914909631013870239e-01 -6.761071272194385529e-04 2.695154762477613986e-05 -1.947466662386432290e-04 -3.072844701819121838e-04
4.158000000000000000e+03 2.966212654113769531e+01 4.668440297245979309e-02 -1.503150997450575233e-05 1.396641710016410798e-05 -3.195279134615702787e-07 -5.475469606608385220e-06
4.159000000000000000e+03 3.001603126525878906e+01 2.810606360435485840e-01 -1.183497533929767087e-05 -1.567593426443636417e-05 -8.253273335867561400e-06 1.305112527916207910e-05
4.160000000000000000e+03 3.014229011535644531e+01 3.720963746309280396e-02 1.509719095338368788e-05 6.125381787569494918e-06 6.366771685861749575e-06 -1.182890173367923126e-05
4.161000000000000000e+03 2.529310226440429688e+01 8.253997564315795898e-02 -4.003790616989135742e-01 -1.211579889059066772e-01 -1.564611047506332397e-01 1.149783059954643250e-01
4.162000000000000000e+03 2.677220344543457031e+01 4.099597036838531494e-01 -6.764274835586547852e-02 8.178610354661941528e-02 4.243006929755210876e-03 -1.892661489546298981e-02
4.163000000000000000e+03 2.790239715576171875e+01 5.528707504272460938e-01 -8.125415770336985588e-04 1.677460037171840668e-03 2.594755205791443586e-04 -1.426433009328320622e-04
4.164000000000000000e+03 2.709368515014648438e+01 9.841948002576828003e-02 -1.832305826246738434e-02 5.094346404075622559e-02 9.786121547222137451e-03 2.242175117135047913e-02
4.165000000000000000e+03 2.739620018005371094e+01 -4.905321821570396423e-02 2.660421421751379967e-03 1.371193211525678635e-02 4.911705851554870605e-03 1.256910711526870728e-02
4.166000000000000000e+03 2.778038978576660156e+01 -2.680426090955734253e-02 1.862270990386605263e-03 2.815781917888671160e-04 6.431547808460891247e-04 1.810808753361925483e-04
4.167000000000000000e+03 2.504582786560058594e+01 -6.777805089950561523e-01 -9.529156684875488281e-01 6.518606841564178467e-02 -2.663188874721527100e-01 -1.162292063236236572e-02
4.168000000000000000e+03 2.517080116271972656e+01 -5.117816478013992310e-02 -5.991720557212829590e-01 -4.182864353060722351e-02 -1.923002153635025024e-01 1.053538620471954346e-01
4.169000000000000000e+03 2.726543045043945312e+01 4.595450162887573242e-01 -1.224256586283445358e-02 3.564251214265823364e-02 7.019984070211648941e-03 -9.574744850397109985e-03
4.170000000000000000e+03 2.696632385253906250e+01 2.802588045597076416e-01 -4.585911706089973450e-02 7.110491394996643066e-02 7.573739159852266312e-03 6.673368625342845917e-03
4.171000000000000000e+03 2.656919479370117188e+01 -1.512916088104248047e+00 -1.786584258079528809e+00 -2.489612698554992676e-01 -6.106636524200439453e-01 -4.047550559043884277e-01
4.172000000000000000e+03 2.524217987060546875e+01 -1.495204806327819824e+00 -1.327243804931640625e+00 4.524538293480873108e-02 -3.845995366573333740e-01 -4.287490844726562500e-01
4.173000000000000000e+03 2.580084037780761719e+01 -1.548887729644775391e+00 -1.524071931838989258e+00 -1.241561323404312134e-01 -4.944684207439422607e-01 -4.904918372631072998e-01
4.174000000000000000e+03 2.591897010803222656e+01 -1.845341563224792480e+00 -1.400608301162719727e+00 -1.489825099706649780e-01 -4.648772478103637695e-01 -5.971934795379638672e-01
4.175000000000000000e+03 2.644226455688476562e+01 -1.709385395050048828e+00 -1.639214396476745605e+00 -2.320176213979721069e-01 -5.613695979118347168e-01 -4.887238442897796631e-01
4.176000000000000000e+03 2.816950225830078125e+01 -1.683254241943359375e+00 -2.138484477996826172e+00 -4.624829068779945374e-02 -6.554198265075683594e-01 -4.798077940940856934e-01
4.177000000000000000e+03 2.744405555725097656e+01 -7.266522645950317383e-01 -2.590398073196411133e+00 -3.506962582468986511e-02 -7.876403331756591797e-01 -2.971195280551910400e-01
4.178000000000000000e+03 2.512719154357910156e+01 -7.094663977622985840e-01 -1.061527848243713379e+00 6.622247397899627686e-02 -2.985916137695312500e-01 7.337819552049040794e-04
4.179000000000000000e+03 2.637152290344238281e+01 -1.564704656600952148e+00 -1.660537242889404297e+00 -2.210009992122650146e-01 -5.644614696502685547e-01 -4.516614973545074463e-01
4.180000000000000000e+03 2.559491157531738281e+01 -1.626361131668090820e+00 -1.368270397186279297e+00 -5.543844401836395264e-02 -4.271126687526702881e-01 -4.804356098175048828e-01
4.181000000000000000e+03 2.519227409362792969e+01 -9.742129445075988770e-01 -1.325628042221069336e+00 9.629285335540771484e-02 -3.688005506992340088e-01 -2.060307115316390991e-01
4.182000000000000000e+03 2.694959831237792969e+01 -1.828551173210144043e+00 -1.758578658103942871e+00 -2.004518061876296997e-01 -5.877091288566589355e-01 -5.155778527259826660e-01
4.183000000000000000e+03 3.071470832824707031e+01 -7.099655270576477051e-01 -2.803324222564697266e+00 1.621220409870147705e-01 -7.923606634140014648e-01 -7.979336380958557129e-02
4.184000000000000000e+03 2.735287666320800781e+01 -1.777114272117614746e+00 -1.901093482971191406e+00 -1.478059142827987671e-01 -6.146698594093322754e-01 -5.005129575729370117e-01
4.185000000000000000e+03 2.755428123474121094e+01 -1.753542184829711914e+00 -1.988707900047302246e+00 -1.189565956592559814e-01 -6.322993636131286621e-01 -4.814652204513549805e-01
4.186000000000000000e+03 3.135067749023437500e+01 -1.199893712997436523e+00 -3.007716655731201172e+00 3.025316894054412842e-01 -8.115555047988891602e-01 -5.843313038349151611e-02
4.187000000000000000e+03 3.106115722656250000e+01 -9.513271450996398926e-01 -2.829847812652587891e+00 2.240417301654815674e-01 -7.817417979240417480e-01 2.899356558918952942e-02
4.188000000000000000e+03 3.107223701477050781e+01 -1.337526679039001465e+00 -2.876051425933837891e+00 2.977465093135833740e-01 -7.734914422035217285e-01 -1.788973957300186157e-01
4.189000000000000000e+03 2.715109252929687500e+01 -1.798541426658630371e+00 -1.844992637634277344e+00 -1.650205105543136597e-01 -6.030039191246032715e-01 -4.987765848636627197e-01
4.190000000000000000e+03 2.674503326416015625e+01 -1.859190106391906738e+00 -1.685256719589233398e+00 -1.988164037466049194e-01 -5.652219653129577637e-01 -5.217167735099792480e-01
4.191000000000000000e+03 2.906841278076171875e+01 -3.854454159736633301e-01 -2.927837610244750977e+00 -4.661338776350021362e-02 -8.923352956771850586e-01 -3.080436885356903076e-01
4.192000000000000000e+03 2.910834693908691406e+01 -1.358438611030578613e+00 -2.447982788085937500e+00 3.669085726141929626e-02 -7.233875989913940430e-01 -3.864049613475799561e-01
4.193000000000000000e+03 2.915472984313964844e+01 -1.597915291786193848e+00 -2.350237846374511719e+00 4.091850295662879944e-02 -6.927958130836486816e-01 -4.180086553096771240e-01
4.194000000000000000e+03 2.968448257446289062e+01 -3.178385496139526367e-01 -2.943999052047729492e+00 -1.158042694441974163e-03 -8.835471272468566895e-01 -2.975798547267913818e-01
4.195000000000000000e+03 2.865559959411621094e+01 -4.283179044723510742e-01 -2.884895086288452148e+00 -4.469359666109085083e-02 -8.788766264915466309e-01 -3.132023513317108154e-01
4.196000000000000000e+03 2.826641464233398438e+01 2.519997358322143555e-01 7.523676613345742226e-04 -1.108736032620072365e-03 -1.069105055648833513e-04 -5.302239060256397352e-06
4.197000000000000000e+03 2.842575073242187500e+01 -1.913074105978012085e-01 -7.624518184456974268e-05 -1.938265631906688213e-05 -2.868835144909098744e-05 -3.886041231453418732e-04
4.198000000000000000e+03 2.944804954528808594e+01 -8.972559869289398193e-02 4.398786131787346676e-06 -2.467815193085698411e-06 5.792913384539133403e-07 7.876852947674706229e-08
4.199000000000000000e+03 3.029812240600585938e+01 1.053279787302017212e-01 -1.745990448398515582e-05 -2.070027949230279773e-05 -1.144805537478532642e-05 1.969443837879225612e-05
4.200000000000000000e+03 2.950048637390136719e+01 3.034934401512145996e-01 -5.024397978559136391e-06 2.852660145435947925e-05 7.050660769891692325e-06 -7.770068805257324129e-06
4.201000000000000000e+03 2.944606971740722656e+01 7.450585067272186279e-02 -1.070315738616045564e-05 1.364357467537047341e-05 8.821251640256377868e-07 3.650803409982472658e-05
4.202000000000000000e+03 2.802137947082519531e+01 -2.082492411136627197e-01 -1.260535325855016708e-03 -5.099088302813470364e-04 -5.311332643032073975e-04 -6.001692381687462330e-04
4.203000000000000000e+03 2.904725456237792969e+01 -2.856845781207084656e-02 1.400096607540035620e-06 -6.827737524872645736e-05 -2.006318391067907214e-05 -3.540453326422721148e-05
4.204000000000000000e+03 3.051279258728027344e+01 -1.431428551673889160e+00 -2.673450469970703125e+00 2.494989484548568726e-01 -7.271854877471923828e-01 -2.665659487247467041e-01
4.205000000000000000e+03 2.844971275329589844e+01 -7.393308877944946289e-01 -2.679826736450195312e+00 -5.063426494598388672e-02 -8.191382884979248047e-01 -3.406149148941040039e-01
4.206000000000000000e+03 2.844795036315917969e+01 -4.390898346900939941e-01 -2.857290506362915039e+00 -2.151549048721790314e-02 -8.636417984962463379e-01 -3.136894702911376953e-01
4.207000000000000000e+03 2.784181976318359375e+01 -6.897981166839599609e-01 -2.644549369812011719e+00 -2.512673847377300262e-02 -8.009028434753417969e-01 -3.260639309883117676e-01
4.208000000000000000e+03 2.784101295471191406e+01 -4.653589725494384766e-01 -2.766554594039916992e+00 -4.818852245807647705e-02 -8.444229960441589355e-01 -2.966429889202117920e-01
4.209000000000000000e+03 2.764116668701171875e+01 -4.829903542995452881e-01 -2.738042831420898438e+00 -1.610772497951984406e-02 -8.262451887130737305e-01 -2.941382527351379395e-01
4.210000000000000000e+03 2.927213668823242188e+01 -3.567369878292083740e-01 -2.941446065902709961e+00 -8.385986089706420898e-03 -8.849495649337768555e-01 -3.104103803634643555e-01
4.211000000000000000e+03 2.882881164550781250e+01 -1.215668559074401855e+00 -2.464587926864624023e+00 -3.074945125263184309e-04 -7.394685745239257812e-01 -3.856455087661743164e-01
4.212000000000000000e+03 2.858909034729003906e+01 1.528998911380767822e-01 -1.816455333027988672e-04 -2.898773527704179287e-04 -1.414568687323480844e-04 2.270871045766398311e-04
4.213000000000000000e+03 2.688063049316406250e+01 7.684969902038574219e-01 -6.775065325200557709e-03 5.673845112323760986e-02 1.498901564627885818e-02 -4.993406683206558228e-02
4.214000000000000000e+03 2.871318817138671875e+01 3.976906836032867432e-01 4.768046710523776710e-05 2.314088196726515889e-04 8.372678712476044893e-05 -8.173661626642569900e-05
4.215000000000000000e+03 2.493860626220703125e+01 -9.964184761047363281e-01 -1.121207118034362793e+00 1.176982074975967407e-01 -3.010526597499847412e-01 -1.683907806873321533e-01
4.216000000000000000e+03 2.857298660278320312e+01 -1.650406837463378906e+00 -2.228485345840454102e+00 2.233467064797878265e-03 -6.678755879402160645e-01 -4.664241075515747070e-01
4.217000000000000000e+03 2.875557708740234375e+01 -1.394296050071716309e+00 -2.378797054290771484e+00 1.048371195793151855e-02 -7.104939818382263184e-01 -4.134657680988311768e-01
4.218000000000000000e+03 2.694132995605468750e+01 -1.321903228759765625e+00 -2.064599514007568359e+00 -1.734002679586410522e-01 -6.713999509811401367e-01 -3.371069729328155518e-01
4.219000000000000000e+03 2.973933601379394531e+01 -1.530803084373474121e+00 -2.490157604217529297e+00 1.375180482864379883e-01 -7.057918906211853027e-01 -3.533603250980377197e-01
4.220000000000000000e+03 3.013170623779296875e+01 -1.486040472984313965e+00 -2.574597835540771484e+00 1.949260830879211426e-01 -7.139015197753906250e-01 -3.057778477668762207e-01
4.221000000000000000e+03 2.962875556945800781e+01 -1.063020944595336914e+00 -2.618749856948852539e+00 6.998841464519500732e-02 -7.646284103393554688e-01 -2.951922118663787842e-01
4.222000000000000000e+03 3.039701271057128906e+01 -1.152016401290893555e+00 -2.722485542297363281e+00 1.843196451663970947e-01 -7.614497542381286621e-01 -1.910999715328216553e-01
4.223000000000000000e+03 2.796207809448242188e+01 -1.698634266853332520e+00 -2.090311765670776367e+00 -7.356957346200942993e-02 -6.491644382476806641e-01 -4.767368733882904053e-01
4.224000000000000000e+03 3.057217597961425781e+01 -1.112314343452453613e+00 -2.757225513458251953e+00 2.249837368726730347e-01 -7.596725225448608398e-01 -1.942856162786483765e-01
4.225000000000000000e+03 2.993740844726562500e+01 -1.510368824005126953e+00 -2.522752761840820312e+00 1.414986699819564819e-01 -7.143762111663818359e-01 -3.171631395816802979e-01
4.226000000000000000e+03 2.947127151489257812e+01 -1.292900323867797852e+00 -2.525562047958374023e+00 7.798292487859725952e-02 -7.342737317085266113e-01 -3.444768786430358887e-01
4.227000000000000000e+03 2.892973709106445312e+01 -1.382635354995727539e+00 -2.406758785247802734e+00 1.166859176009893417e-02 -7.185270786285400391e-01 -3.991867303848266602e-01
4.228000000000000000e+03 2.927618789672851562e+01 -6.425587832927703857e-02 2.949471127067226917e-05 2.076956116070505232e-05 1.507928209321107715e-05 2.462945121806114912e-05
4.229000000000000000e+03 2.765856552124023438e+01 1.621758788824081421e-01 3.355410299263894558e-04 7.716458756476640701e-03 2.415599999949336052e-03 1.359283924102783203e-03
4.230000000000000000e+03 2.976152038574218750e+01 -6.182944774627685547e-01 -2.796846628189086914e+00 -3.748544026166200638e-03 -8.401785492897033691e-01 -2.565062344074249268e-01
4.231000000000000000e+03 2.947806930541992188e+01 -3.339114189147949219e-01 -2.949248313903808594e+00 -4.440370202064514160e-02 -8.980956077575683594e-01 -2.956077456474304199e-01
4.232000000000000000e+03 3.009435653686523438e+01 -9.150875210762023926e-01 -2.720084905624389648e+00 8.372683078050613403e-02 -7.909074425697326660e-01 -1.994096189737319946e-01
4.233000000000000000e+03 2.856544685363769531e+01 -1.390156388282775879e+00 -2.357970952987670898e+00 -2.673376537859439850e-02 -7.154114246368408203e-01 -4.189063310623168945e-01
4.234000000000000000e+03 3.034239959716796875e+01 -5.648652315139770508e-01 -2.748515844345092773e+00 8.846190571784973145e-02 -7.980161905288696289e-01 -1.622072905302047729e-01
4.235000000000000000e+03 2.734449577331542969e+01 -1.325474739074707031e+00 -2.168854713439941406e+00 -1.124437674880027771e-01 -6.843895316123962402e-01 -3.720534145832061768e-01
4.236000000000000000e+03 2.710558700561523438e+01 -1.159500002861022949e+00 -2.248825073242187500e+00 -1.487667113542556763e-01 -7.192775607109069824e-01 -3.122438490390777588e-01
4.237000000000000000e+03 2.664535522460937500e+01 6.655923128128051758e-01 -4.821100458502769470e-02 7.118382304906845093e-02 6.891845259815454483e-03 -5.061257258057594299e-02
4.238000000000000000e+03 2.739227104187011719e+01 2.043175101280212402e-01 -5.134867504239082336e-03 2.231545373797416687e-02 5.154176149517297745e-03 5.683160386979579926e-03
4.239000000000000000e+03 2.934688377380371094e+01 -1.574162364006042480e+00 -2.398708343505859375e+00 8.440858870744705200e-02 -6.942899227142333984e-01 -3.967410624027252197e-01
4.240000000000000000e+03 3.032261085510253906e+01 -1.459050178527832031e+00 -2.628047466278076172e+00 2.017933428287506104e-01 -7.278762459754943848e-01 -2.685532867908477783e-01
4.241000000000000000e+03 2.978258132934570312e+01 -8.587885499000549316e-01 -2.718834877014160156e+00 5.526905879378318787e-02 -7.990697026252746582e-01 -2.603834271430969238e-01
4.242000000000000000e+03 2.852941322326660156e+01 -1.134404420852661133e+00 -2.487302064895629883e+00 -1.872534118592739105e-02 -7.518081665039062500e-01 -3.905496299266815186e-01
4.243000000000000000e+03 2.913703918457031250e+01 -1.132955670356750488e+00 -2.554993867874145508e+00 1.429516822099685669e-02 -7.622095942497253418e-01 -3.570817112922668457e-01
4.244000000000000000e+03 2.891152954101562500e+01 -7.358937859535217285e-01 -2.716825962066650391e+00 -3.786069154739379883e-02 -8.264060020446777344e-01 -3.327920436859130859e-01
4.245000000000000000e+03 2.925645446777343750e+01 -9.566388726234436035e-01 -2.641347408294677734e+00 2.635253767948597670e-04 -7.923251986503601074e-01 -3.184663653373718262e-01
4.246000000000000000e+03 2.933537292480468750e+01 -6.373291015625000000e-01 -2.794732332229614258e+00 -2.883844822645187378e-02 -8.470712304115295410e-01 -2.998252809047698975e-01
4.247000000000000000e+03 2.800453186035156250e+01 -9.263651967048645020e-01 -2.536483287811279297e+00 -3.714712709188461304e-02 -7.720891237258911133e-01 -3.600028455257415771e-01
4.248000000000000000e+03 2.729001426696777344e+01 -1.531453728675842285e+00 -2.047047853469848633e+00 -1.503828167915344238e-01 -6.592292189598083496e-01 -4.081367850303649902e-01
4.249000000000000000e+03 2.997507095336914062e+01 -6.148938536643981934e-01 -2.782824039459228516e+00 4.823641106486320496e-02 -8.203762769699096680e-01 -2.387132793664932251e-01
4.250000000000000000e+03 2.745512580871582031e+01 -9.636750221252441406e-01 -2.440673112869262695e+00 -8.873701095581054688e-02 -7.588230967521667480e-01 -3.196944296360015869e-01
4.251000000000000000e+03 2.823396110534667969e+01 -7.079256176948547363e-01 -2.678754568099975586e+00 -2.733820118010044098e-02 -8.118277788162231445e-01 -3.364784419536590576e-01
4.252000000000000000e+03 2.755640602111816406e+01 -1.198829770088195801e+00 -2.306669473648071289e+00 -9.075047075748443604e-02 -7.192260026931762695e-01 -3.668603003025054932e-01
4.253000000000000000e+03 2.944159126281738281e+01 -1.064152121543884277e+00 -2.600052595138549805e+00 2.910686843097209930e-02 -7.712836861610412598e-01 -3.175852298736572266e-01
4.254000000000000000e+03 2.815221786499023438e+01 -1.422696471214294434e+00 -2.278062582015991211e+00 -5.503873527050018311e-02 -6.999303698539733887e-01 -4.263290464878082275e-01
4.255000000000000000e+03 3.059735870361328125e+01 -7.972539067268371582e-01 -2.799161911010742188e+00 1.914491653442382812e-01 -7.823137640953063965e-01 -1.452323645353317261e-01
4.256000000000000000e+03 2.995605850219726562e+01 -5.597616545855998993e-03 -6.989480880292830989e-06 -7.626548267580801621e-06 -4.384809017210500315e-06 -1.660871248532203026e-06
4.257000000000000000e+03 2.979190826416015625e+01 -6.038608029484748840e-02 -8.332802281074691564e-06 1.381330639560474083e-05 1.644151211621647235e-06 -9.944903467840049416e-06
4.258000000000000000e+03 2.962926292419433594e+01 -8.498704433441162109e-02 -1.425554364686831832e-05 -5.279452125250827521e-06 -5.860498731635743752e-06 1.163558681582799181e-05
4.259000000000000000e+03 2.978279876708984375e+01 1.970997005701065063e-01 2.687561391212511808e-05 7.920476491563022137e-06 1.043882730300538242e-05 -1.027884172799531370e-05
4.260000000000000000e+03 3.070292282104492188e+01 -1.402674555778503418e+00 -2.729493618011474609e+00 2.490455061197280884e-01 -7.441344261169433594e-01 -2.117943167686462402e-01
4.261000000000000000e+03 3.090387916564941406e+01 -1.005632758140563965e+00 -2.826771974563598633e+00 2.541121840476989746e-01 -7.717979550361633301e-01 -1.084878742694854736e-01
4.262000000000000000e+03 3.022185134887695312e+01 -1.190913677215576172e+00 -2.666199445724487305e+00 1.832363754510879517e-01 -7.448889613151550293e-01 -2.383311092853546143e-01
4.263000000000000000e+03 2.859870910644531250e+01 -1.620338261127471924e-01 6.094468335504643619e-05 -3.719654923770576715e-04 -9.330624016001820564e-05 1.949248107848688960e-04
4.264000000000000000e+03 2.798626136779785156e+01 2.405132167041301727e-02 1.005913130939006805e-03 5.303287180140614510e-04 4.608725430443882942e-04 1.822088524932041764e-04
4.265000000000000000e+03 2.760408020019531250e+01 -4.810364171862602234e-02 1.133460085839033127e-03 8.290378376841545105e-03 2.827151445671916008e-03 3.263471182435750961e-03
4.266000000000000000e+03 2.762227249145507812e+01 -2.580721676349639893e-01 -6.284661940298974514e-04 1.554092625156044960e-03 2.776879409793764353e-04 1.707860617898404598e-03
4.267000000000000000e+03 2.742092132568359375e+01 -2.755425572395324707e-01 5.349190905690193176e-03 4.046937450766563416e-03 2.818838460370898247e-03 5.827157292515039444e-03
4.268000000000000000e+03 3.004961967468261719e+01 -1.233764171600341797e+00 -2.631006956100463867e+00 1.246143952012062073e-01 -7.519177198410034180e-01 -2.511116266250610352e-01
4.269000000000000000e+03 2.987006568908691406e+01 -1.269569873809814453e+00 -2.594252824783325195e+00 1.271463781595230103e-01 -7.401319146156311035e-01 -2.986893653869628906e-01
4.270000000000000000e+03 2.967793273925781250e+01 -1.289007782936096191e+00 -2.552974462509155273e+00 8.269584923982620239e-02 -7.410836219787597656e-01 -3.133558630943298340e-01
4.271000000000000000e+03 2.928291893005371094e+01 -1.328910589218139648e+00 -2.491068124771118164e+00 2.968434989452362061e-02 -7.384151220321655273e-01 -3.591527342796325684e-01
4.272000000000000000e+03 2.896192741394042969e+01 -1.619267821311950684e+00 -2.322684526443481445e+00 4.577260091900825500e-02 -6.830735802650451660e-01 -4.359499216079711914e-01
4.273000000000000000e+03 2.876846885681152344e+01 -1.636580586433410645e+00 -2.275887012481689453e+00 8.112498559057712555e-03 -6.803323626518249512e-01 -4.481599926948547363e-01
4.274000000000000000e+03 2.836238670349121094e+01 -1.414757847785949707e+00 -2.316716432571411133e+00 -2.464358136057853699e-02 -7.024080157279968262e-01 -4.325598776340484619e-01
4.275000000000000000e+03 2.792315673828125000e+01 -1.418533086776733398e+00 -2.234050512313842773e+00 -6.531917303800582886e-02 -6.898109316825866699e-01 -4.290785193443298340e-01
4.276000000000000000e+03 2.775188255310058594e+01 -1.074229359626770020e+00 -2.404692173004150391e+00 -5.738456919789314270e-02 -7.386230230331420898e-01 -3.647021055221557617e-01
4.277000000000000000e+03 2.768674468994140625e+01 -1.447214603424072266e+00 -2.168112993240356445e+00 -9.831643104553222656e-02 -6.799288392066955566e-01 -4.258992671966552734e-01
4.278000000000000000e+03 2.744003677368164062e+01 -5.022587180137634277e-01 -2.713056325912475586e+00 -4.900693148374557495e-02 -8.286190032958984375e-01 -2.873297929763793945e-01
4.279000000000000000e+03 2.764735794067382812e+01 -7.030430436134338379e-01 -2.611110925674438477e+00 -5.870922282338142395e-02 -8.009460568428039551e-01 -3.133849799633026123e-01
4.280000000000000000e+03 2.803458213806152344e+01 -6.944524645805358887e-01 -2.668184757232666016e+00 -5.535495281219482422e-02 -8.170619010925292969e-01 -3.308938741683959961e-01
4.281000000000000000e+03 2.716103935241699219e+01 8.718845844268798828e-01 2.451950311660766602e-02 2.254006266593933105e-02 1.411786954849958420e-02 -2.558140829205513000e-02
4.282000000000000000e+03 2.656223297119140625e+01 4.945255815982818604e-01 -8.075429499149322510e-02 7.246293127536773682e-02 -2.487407764419913292e-03 -4.216760396957397461e-02
4.283000000000000000e+03 2.686352920532226562e+01 -1.615345478057861328e+00 -1.852416276931762695e+00 -2.005319446325302124e-01 -6.158844828605651855e-01 -4.274133443832397461e-01
4.284000000000000000e+03 2.653672027587890625e+01 -1.884754896163940430e+00 -1.597752571105957031e+00 -2.321505397558212280e-01 -5.489709377288818359e-01 -5.570443272590637207e-01
4.285000000000000000e+03 2.632029342651367188e+01 -1.903447628021240234e+00 -1.524594902992248535e+00 -1.808468252420425415e-01 -5.116325616836547852e-01 -5.766595005989074707e-01
4.286000000000000000e+03 2.542119216918945312e+01 2.913774251937866211e-01 -2.705770730972290039e-01 -1.267220079898834229e-01 -1.191897243261337280e-01 9.008285403251647949e-02
4.287000000000000000e+03 2.530577659606933594e+01 3.775547146797180176e-01 -2.365564554929733276e-01 -1.114323064684867859e-01 -1.043966263532638550e-01 8.047999441623687744e-02
4.288000000000000000e+03 2.673913955688476562e+01 9.652376174926757812e-01 5.570883303880691528e-02 5.940908566117286682e-02 3.453537449240684509e-02 -6.875836104154586792e-02
4.289000000000000000e+03 2.691065597534179688e+01 9.572267532348632812e-01 5.457280948758125305e-02 3.802690282464027405e-02 2.777991443872451782e-02 -5.282450094819068909e-02
4.290000000000000000e+03 2.502824020385742188e+01 2.314311861991882324e-01 -3.244633376598358154e-01 -8.071771264076232910e-02 -1.215543076395988464e-01 7.111766189336776733e-02
4.291000000000000000e+03 2.507358169555664062e+01 -5.470762252807617188e-01 -8.953634500503540039e-01 3.412174433469772339e-02 -2.583725154399871826e-01 2.927860058844089508e-02
4.292000000000000000e+03 2.704986381530761719e+01 6.634962558746337891e-01 -1.459094602614641190e-02 5.053079873323440552e-02 1.078195497393608093e-02 -3.245646134018898010e-02
4.293000000000000000e+03 2.487689590454101562e+01 -1.669925600290298462e-01 -6.072302460670471191e-01 -3.932921215891838074e-03 -1.833489388227462769e-01 7.970480620861053467e-02
4.294000000000000000e+03 2.913160896301269531e+01 -6.978766322135925293e-01 -2.753823280334472656e+00 1.698634820058941841e-03 -8.256374001502990723e-01 -3.260629773139953613e-01
4.295000000000000000e+03 2.886347579956054688e+01 -4.104328453540802002e-01 -2.908810377120971680e+00 -1.504691131412982941e-02 -8.771571516990661621e-01 -3.146189153194427490e-01
4.296000000000000000e+03 2.954154586791992188e+01 -6.111316680908203125e-01 -2.808087348937988281e+00 1.065410207957029343e-02 -8.392299413681030273e-01 -2.911418080329895020e-01
4.297000000000000000e+03 2.988592720031738281e+01 -3.011800348758697510e-01 -2.933327913284301758e+00 -3.823301568627357483e-02 -8.914682269096374512e-01 -2.739970982074737549e-01
4.298000000000000000e+03 3.047628402709960938e+01 -2.706106901168823242e-01 -2.778205394744873047e+00 6.888563185930252075e-02 -8.127959370613098145e-01 -1.978421956300735474e-01
4.299000000000000000e+03 2.831880378723144531e+01 4.833793938159942627e-01 -4.597214574459940195e-04 -9.285159758292138577e-04 -4.164712445344775915e-04 5.803498788736760616e-04
4.300000000000000000e+03 2.911303520202636719e+01 3.305088281631469727e-01 -5.824769573337107431e-07 -7.098990317899733782e-05 -2.147171471733599901e-05 1.157598489953670651e-05
4.301000000000000000e+03 2.596808815002441406e+01 -1.566657185554504395e+00 -1.554087758064270020e+00 -1.626009345054626465e-01 -5.150066018104553223e-01 -5.190749168395996094e-01
4.302000000000000000e+03 2.621855926513671875e+01 -1.727860927581787109e+00 -1.513844966888427734e+00 -1.687119752168655396e-01 -5.047671198844909668e-01 -5.290119051933288574e-01
4.303000000000000000e+03 2.665574264526367188e+01 -1.670958757400512695e+00 -1.728029847145080566e+00 -2.374415993690490723e-01 -5.896414518356323242e-01 -4.783666133880615234e-01
4.304000000000000000e+03 2.846273994445800781e+01 -2.514259889721870422e-02 3.315123321954160929e-04 -6.089198286645114422e-04 -8.322225039592012763e-05 -2.245707000838592649e-04
4.305000000000000000e+03 2.823483848571777344e+01 2.807835116982460022e-02 4.869083932135254145e-04 -1.090890655177645385e-04 1.133457990363240242e-04 -7.979852380231022835e-04
4.306000000000000000e+03 2.766182136535644531e+01 -9.075917005538940430e-01 -2.496981620788574219e+00 -4.282945394515991211e-02 -7.619433403015136719e-01 -3.441610336303710938e-01
4.307000000000000000e+03 3.074271583557128906e+01 -1.065460920333862305e+00 -2.793993234634399414e+00 2.211529016494750977e-01 -7.718520760536193848e-01 -1.222664639353752136e-01
4.308000000000000000e+03 3.027247810363769531e+01 -8.734555840492248535e-01 -2.732585668563842773e+00 1.443678289651870728e-01 -7.764653563499450684e-01 -1.813775151968002319e-01
4.309000000000000000e+03 2.492745590209960938e+01 -6.808144450187683105e-01 -9.355612993240356445e-01 1.068348810076713562e-01 -2.486179322004318237e-01 -8.449805527925491333e-02
4.310000000000000000e+03 2.994399070739746094e+01 -9.906327724456787109e-01 -2.677837610244750977e+00 1.009681224822998047e-01 -7.730608582496643066e-01 -2.518945634365081787e-01
4.311000000000000000e+03 2.980185317993164062e+01 -1.050683498382568359e+00 -2.643562316894531250e+00 7.049706578254699707e-02 -7.719196081161499023e-01 -2.610105574131011963e-01
4.312000000000000000e+03 2.816070175170898438e+01 -1.180420279502868652e+00 -2.393848896026611328e+00 -3.765131905674934387e-02 -7.294500470161437988e-01 -3.983402550220489502e-01
4.313000000000000000e+03 2.835287284851074219e+01 -1.187522649765014648e+00 -2.418869018554687500e+00 -4.261020943522453308e-02 -7.384437322616577148e-01 -3.919818699359893799e-01
4.314000000000000000e+03 2.819769477844238281e+01 -9.494147300720214844e-01 -2.551346302032470703e+00 -5.253022536635398865e-02 -7.811629772186279297e-01 -3.666485548019409180e-01
4.315000000000000000e+03 2.871496963500976562e+01 -1.038137078285217285e+00 -2.554822206497192383e+00 -3.411293402314186096e-02 -7.766805887222290039e-01 -3.686530590057373047e-01
4.316000000000000000e+03 3.079138374328613281e+01 -5.324212312698364258e-01 -2.716514348983764648e+00 1.600049138069152832e-01 -7.669528126716613770e-01 -1.325305998325347900e-01
4.317000000000000000e+03 2.940887069702148438e+01 -8.685036301612854004e-01 -2.698258638381958008e+00 1.903983950614929199e-02 -8.037656545639038086e-01 -3.099775910377502441e-01
4.318000000000000000e+03 3.016384696960449219e+01 -5.854021906852722168e-01 -2.778263807296752930e+00 2.499603293836116791e-02 -8.259803652763366699e-01 -1.896211653947830200e-01
4.319000000000000000e+03 3.051674270629882812e+01 -5.657013654708862305e-01 -2.720756292343139648e+00 1.207469999790191650e-01 -7.800027728080749512e-01 -9.072429686784744263e-02
4.320000000000000000e+03 2.748492050170898438e+01 -1.515446901321411133e+00 -2.108906507492065430e+00 -1.111908629536628723e-01 -6.660292148590087891e-01 -4.418876171112060547e-01
4.321000000000000000e+03 3.044175529479980469e+01 -8.363916277885437012e-01 -2.774046182632446289e+00 1.537812501192092896e-01 -7.860794663429260254e-01 -1.226804107427597046e-01
4.322000000000000000e+03 2.958901405334472656e+01 -8.487625122070312500e-01 -2.716909170150756836e+00 1.004927698522806168e-02 -8.120579719543457031e-01 -2.821478247642517090e-01
4.323000000000000000e+03 2.782859802246093750e+01 -8.955772519111633301e-01 -2.530562162399291992e+00 -6.406501680612564087e-02 -7.783881425857543945e-01 -3.477307558059692383e-01
4.324000000000000000e+03 2.839513969421386719e+01 -9.859659671783447266e-01 -2.545229911804199219e+00 -2.595785073935985565e-02 -7.713563442230224609e-01 -3.693837821483612061e-01
4.325000000000000000e+03 2.794436264038085938e+01 -1.159523010253906250e+00 -2.388600349426269531e+00 -7.149242609739303589e-02 -7.380278110504150391e-01 -3.858314752578735352e-01
4.326000000000000000e+03 2.647685241699218750e+01 9.727759361267089844e-01 4.442028328776359558e-02 4.740416258573532104e-02 2.754733525216579437e-02 -7.641033828258514404e-02
4.327000000000000000e+03 2.610982894897460938e+01 9.217603206634521484e-01 -1.118862070143222809e-03 7.827344350516796112e-03 2.012544544413685799e-03 -5.424386635422706604e-02
4.328000000000000000e+03 2.501363372802734375e+01 4.009114503860473633e-01 -2.303970754146575928e-01 -1.274369955062866211e-01 -1.073502227663993835e-01 8.563818037509918213e-02
4.329000000000000000e+03 2.524869537353515625e+01 6.084479093551635742e-01 -1.447625458240509033e-01 -9.429547190666198730e-02 -7.171740382909774780e-02 5.357612669467926025e-02
4.330000000000000000e+03 2.596435928344726562e+01 7.445604801177978516e-01 -6.530623137950897217e-02 -3.465621173381805420e-02 -2.998873405158519745e-02 -3.350049629807472229e-02
4.331000000000000000e+03 2.529867744445800781e+01 5.080273151397705078e-01 -1.917558312416076660e-01 -1.084203124046325684e-01 -9.005284309387207031e-02 8.021432161331176758e-02
4.332000000000000000e+03 2.514510345458984375e+01 4.417403340339660645e-01 -2.395481318235397339e-01 -9.642298519611358643e-02 -1.007913351058959961e-01 8.113190531730651855e-02
4.333000000000000000e+03 2.574004173278808594e+01 8.379517197608947754e-01 -5.660694092512130737e-02 -6.560196727514266968e-02 -3.666267171502113342e-02 -2.671288140118122101e-02
4.334000000000000000e+03 2.540418624877929688e+01 6.995720267295837402e-01 -1.014740020036697388e-01 -8.844490349292755127e-02 -5.697567015886306763e-02 5.561881512403488159e-02
4.335000000000000000e+03 2.562668418884277344e+01 6.353848576545715332e-01 -1.084063202142715454e-01 -1.040083765983581543e-01 -6.372440606355667114e-02 1.843014732003211975e-02
4.336000000000000000e+03 2.546116828918457031e+01 5.738193392753601074e-01 -1.488754898309707642e-01 -9.563636779785156250e-02 -7.335355877876281738e-02 3.588298335671424866e-02
4.337000000000000000e+03 2.579438400268554688e+01 6.921237111091613770e-01 -6.584376096725463867e-02 -6.459031254053115845e-02 -3.913022205233573914e-02 -1.820995472371578217e-02
4.338000000000000000e+03 2.630865478515625000e+01 9.588830471038818359e-01 2.678574621677398682e-02 4.095102101564407349e-02 2.032103016972541809e-02 -7.396733015775680542e-02
4.339000000000000000e+03 2.633842658996582031e+01 8.784570097923278809e-01 -7.776962127536535263e-03 4.114744812250137329e-02 1.001114491373300552e-02 -6.741686165332794189e-02
4.340000000000000000e+03 2.510928726196289062e+01 5.076749920845031738e-01 -2.200601845979690552e-01 -9.959173947572708130e-02 -9.589558094739913940e-02 9.173028916120529175e-02
4.341000000000000000e+03 2.614974594116210938e+01 8.036559820175170898e-01 -1.683633029460906982e-02 6.122034508734941483e-03 -3.214288735762238503e-03 -5.821901932358741760e-02
4.342000000000000000e+03 2.591700744628906250e+01 8.839657902717590332e-01 -5.615735426545143127e-04 -3.099855780601501465e-02 -9.468039497733116150e-03 -4.392745345830917358e-02
4.343000000000000000e+03 2.556867980957031250e+01 7.764952182769775391e-01 -8.062119036912918091e-02 -6.032336503267288208e-02 -4.228336736559867859e-02 5.915250629186630249e-03
4.344000000000000000e+03 3.925119400024414062e+01 3.659583628177642822e-01 -3.193679153919219971e-01 -5.695807933807373047e-02 -1.128977984189987183e-01 2.132072746753692627e-01
4.345000000000000000e+03 3.926422500610351562e+01 -6.637467443943023682e-02 -7.535632252693176270e-01 -1.033669933676719666e-01 -2.570790648460388184e-01 4.894784390926361084e-01
4.346000000000000000e+03 3.853815841674804688e+01 8.006714582443237305e-01 -3.097302615642547607e-01 -5.310417618602514267e-03 -9.451220929622650146e-02 5.356368422508239746e-02
4.347000000000000000e+03 3.856700515747070312e+01 2.940661311149597168e-01 -7.219779491424560547e-01 3.485018759965896606e-02 -2.061383277177810669e-01 2.737433016300201416e-01
4.348000000000000000e+03 3.863258743286132812e+01 -1.873374730348587036e-01 -1.053075194358825684e+00 7.856783270835876465e-02 -2.923521995544433594e-01 4.668471217155456543e-01
4.349000000000000000e+03 3.940476989746093750e+01 9.400728940963745117e-01 -3.132197633385658264e-02 9.232426993548870087e-03 -6.626865360885858536e-03 2.931228280067443848e-02
4.350000000000000000e+03 4.009798812866210938e+01 4.773842692375183105e-01 8.941885083913803101e-02 2.750339917838573456e-02 3.507667407393455505e-02 -7.327021658420562744e-02
4.351000000000000000e+03 3.978098297119140625e+01 1.255261451005935669e-01 -2.239880263805389404e-01 -2.678398787975311279e-01 -1.475483775138854980e-01 2.750084102153778076e-01
4.352000000000000000e+03 2.643321990966796875e+01 -4.614933729171752930e-01 6.244354248046875000e-01 3.605099394917488098e-02 1.981459259986877441e-01 1.695419698953628540e-01
4.353000000000000000e+03 2.662815284729003906e+01 -4.212739467620849609e-01 2.372174710035324097e-01 2.610910497605800629e-02 7.899796962738037109e-02 7.790391147136688232e-02
4.354000000000000000e+03 2.682308387756347656e+01 -3.810544908046722412e-01 1.036033406853675842e-01 1.021633390337228775e-02 3.414590284228324890e-02 3.983977809548377991e-02
4.355000000000000000e+03 2.701801681518554688e+01 -3.408350646495819092e-01 4.612393677234649658e-02 9.521124884486198425e-03 1.669351942837238312e-02 2.295846864581108093e-02
4.356000000000000000e+03 2.641584777832031250e+01 -4.056465029716491699e-01 3.619263768196105957e-01 9.975736588239669800e-02 1.385051310062408447e-01 2.587213516235351562e-01
4.357000000000000000e+03 2.659919929504394531e+01 -3.281958401203155518e-01 1.485181301832199097e-01 9.282296895980834961e-02 7.240232825279235840e-02 1.419933289289474487e-01
4.358000000000000000e+03 2.678255081176757812e+01 -2.507451474666595459e-01 6.049679964780807495e-02 4.612202197313308716e-02 3.198564797639846802e-02 8.388468623161315918e-02
4.359000000000000000e+03 2.696590232849121094e+01 -1.732944548130035400e-01 2.089733444154262543e-02 3.834476694464683533e-02 1.777262985706329346e-02 4.804674908518791199e-02
4.360000000000000000e+03 2.638792037963867188e+01 -3.542579412460327148e-01 1.568281501531600952e-01 1.697786748409271240e-01 9.798204898834228516e-02 2.712990343570709229e-01
4.361000000000000000e+03 2.655265426635742188e+01 -2.425482273101806641e-01 3.110330179333686829e-02 1.350477188825607300e-01 4.984530434012413025e-02 1.411660164594650269e-01
4.362000000000000000e+03 2.671738815307617188e+01 -1.308384984731674194e-01 -9.476227685809135437e-03 9.717760235071182251e-02 2.631041407585144043e-02 9.287881106138229370e-02
4.363000000000000000e+03 2.688212394714355469e+01 -1.912877708673477173e-02 -2.337951771914958954e-02 7.008897513151168823e-02 1.401283685117959976e-02 5.245422944426536560e-02
4.364000000000000000e+03 2.635051155090332031e+01 -3.092997670173645020e-01 -1.972943358123302460e-02 2.111106365919113159e-01 5.741436034440994263e-02 2.238055020570755005e-01
4.365000000000000000e+03 2.649030685424804688e+01 -1.676179021596908569e-01 -6.293198466300964355e-02 1.546164155006408691e-01 2.750533074140548706e-02 1.104808375239372253e-01
4.366000000000000000e+03 2.663010215759277344e+01 -2.593605220317840576e-02 -7.836091518402099609e-02 1.196235865354537964e-01 1.237879972904920578e-02 6.662876904010772705e-02
4.367000000000000000e+03 2.676989746093750000e+01 1.157457977533340454e-01 -7.011266797780990601e-02 9.868894517421722412e-02 8.572884835302829742e-03 3.467772528529167175e-02
4.368000000000000000e+03 2.630505752563476562e+01 -2.724972069263458252e-01 -1.392771750688552856e-01 2.050341069698333740e-01 1.972708106040954590e-02 1.374413371086120605e-01
4.369000000000000000e+03 2.641454887390136719e+01 -1.062803491950035095e-01 -1.353589296340942383e-01 1.343205422163009644e-01 -3.115141589660197496e-04 6.520895659923553467e-02
4.370000000000000000e+03 2.652403831481933594e+01 5.993652343750000000e-02 -1.258650124073028564e-01 1.191012188792228699e-01 -2.029135823249816895e-03 2.758736535906791687e-02
4.371000000000000000e+03 2.663352775573730469e+01 2.261533886194229126e-01 -1.039179041981697083e-01 9.785143285989761353e-02 -1.819939934648573399e-03 3.967568278312683105e-03
4.372000000000000000e+03 2.625329971313476562e+01 -2.452626526355743408e-01 -2.050490677356719971e-01 1.214613690972328186e-01 -2.507631108164787292e-02 5.578861758112907410e-02
4.373000000000000000e+03 2.632828330993652344e+01 -6.088940799236297607e-02 -1.735674440860748291e-01 9.151601791381835938e-02 -2.461542561650276184e-02 1.787215471267700195e-02
4.374000000000000000e+03 2.640326881408691406e+01 1.234838366508483887e-01 -1.582849174737930298e-01 7.792610675096511841e-02 -2.410764247179031372e-02 -5.772795528173446655e-03
4.375000000000000000e+03 2.647825241088867188e+01 3.078570663928985596e-01 -1.188667640089988708e-01 7.865053415298461914e-02 -1.206486858427524567e-02 -2.886041626334190369e-02
4.376000000000000000e+03 2.619722366333007812e+01 -2.286412119865417480e-01 -2.084259688854217529e-01 -1.521598082035779953e-03 -6.298426538705825806e-02 2.981359371915459633e-03
4.377000000000000000e+03 2.623482513427734375e+01 -3.318699449300765991e-02 -2.041146904230117798e-01 9.208671748638153076e-03 -5.847180634737014771e-02 -3.681345377117395401e-03
4.378000000000000000e+03 2.627242660522460938e+01 1.622672230005264282e-01 -1.632569134235382080e-01 2.521993778645992279e-02 -4.141109064221382141e-02 -3.107623569667339325e-02
4.379000000000000000e+03 2.631002807617187500e+01 3.577214479446411133e-01 -1.357035040855407715e-01 2.602626942098140717e-02 -3.290316835045814514e-02 -4.247932508587837219e-02
4.380000000000000000e+03 2.613898468017578125e+01 -2.232707291841506958e-01 -2.147421538829803467e-01 -1.572690755128860474e-01 -1.116033643484115601e-01 1.700496673583984375e-02
4.381000000000000000e+03 2.613776016235351562e+01 -2.423619106411933899e-02 -2.069146186113357544e-01 -7.466316223144531250e-02 -8.447333425283432007e-02 -3.772168187424540520e-03
4.382000000000000000e+03 2.613653564453125000e+01 1.747983545064926147e-01 -1.840388774871826172e-01 -5.061171576380729675e-02 -7.039517909288406372e-02 -2.528581023216247559e-02
4.383000000000000000e+03 2.613531112670898438e+01 3.738328814506530762e-01 -1.312478929758071899e-01 -2.475904114544391632e-02 -4.680208116769790649e-02 -4.071738198399543762e-02
4.384000000000000000e+03 2.608081626892089844e+01 -2.293573021888732910e-01 -2.142623513936996460e-01 -2.842339873313903809e-01 -1.495489031076431274e-01 8.515053987503051758e-02
4.385000000000000000e+03 2.604081344604492188e+01 -3.438049182295799255e-02 -2.440334558486938477e-01 -1.629822850227355957e-01 -1.221047192811965942e-01 3.391761705279350281e-02
4.386000000000000000e+03 2.600080871582031250e+01 1.605963259935379028e-01 -1.923483461141586304e-01 -1.146617159247398376e-01 -9.210301935672760010e-02 -7.823638152331113815e-04
4.387000000000000000e+03 2.596080589294433594e+01 3.555731475353240967e-01 -1.543575078248977661e-01 -8.911559730768203735e-02 -7.304193079471588135e-02 -1.016052346676588058e-02
4.388000000000000000e+03 2.602495002746582031e+01 -2.466673702001571655e-01 -2.894167602062225342e-01 -3.691376447677612305e-01 -1.975663155317306519e-01 1.970485150814056396e-01
4.389000000000000000e+03 2.594770240783691406e+01 -6.323059648275375366e-02 -2.806561589241027832e-01 -2.228091061115264893e-01 -1.510395854711532593e-01 9.174735099077224731e-02
4.390000000000000000e+03 2.587045478820800781e+01 1.202061772346496582e-01 -2.479890137910842896e-01 -1.690486967563629150e-01 -1.251113116741180420e-01 5.046942085027694702e-02
4.391000000000000000e+03 2.579320716857910156e+01 3.036429584026336670e-01 -1.799397915601730347e-01 -1.352816522121429443e-01 -9.456643462181091309e-02 2.525120973587036133e-02
4.392000000000000000e+03 2.597352981567382812e+01 -2.745366394519805908e-01 -4.003423452377319336e-01 -3.834937214851379395e-01 -2.351508289575576782e-01 3.166966140270233154e-01
4.393000000000000000e+03 2.586200332641601562e+01 -1.096793785691261292e-01 -3.795036077499389648e-01 -2.530709207057952881e-01 -1.897723525762557983e-01 1.614349782466888428e-01
4.394000000000000000e+03 2.575047492980957031e+01 5.517788231372833252e-02 -3.081401884555816650e-01 -1.984629929065704346e-01 -1.519809514284133911e-01 1.073506549000740051e-01
4.395000000000000000e+03 2.563894844055175781e+01 2.200351357460021973e-01 -2.661074399948120117e-01 -1.560885608196258545e-01 -1.266587972640991211e-01 7.799171656370162964e-02
4.396000000000000000e+03 2.592853164672851562e+01 -3.118956089019775391e-01 -5.816987156867980957e-01 -3.457152545452117920e-01 -2.782241702079772949e-01 4.061235785484313965e-01
4.397000000000000000e+03 2.578700256347656250e+01 -1.719443351030349731e-01 -4.961825311183929443e-01 -2.482856661081314087e-01 -2.233404517173767090e-01 2.333895713090896606e-01
4.398000000000000000e+03 2.564547729492187500e+01 -3.199306875467300415e-02 -4.323541224002838135e-01 -1.898295134305953979e-01 -1.866550892591476440e-01 1.555734425783157349e-01
4.399000000000000000e+03 2.550395011901855469e+01 1.079582050442695618e-01 -3.504530191421508789e-01 -1.623060256242752075e-01 -1.538277119398117065e-01 1.232855245471000671e-01
4.400000000000000000e+03 2.589167785644531250e+01 -3.573106229305267334e-01 -7.915431261062622070e-01 -2.719738483428955078e-01 -3.190550804138183594e-01 4.500428736209869385e-01
4.401000000000000000e+03 2.572558212280273438e+01 -2.476360350847244263e-01 -6.464211344718933105e-01 -2.135929018259048462e-01 -2.580041885375976562e-01 2.820362448692321777e-01
4.402000000000000000e+03 2.555948638916015625e+01 -1.379614472389221191e-01 -5.837845206260681152e-01 -1.577327847480773926e-01 -2.224551886320114136e-01 2.040100991725921631e-01
4.403000000000000000e+03 2.539339256286621094e+01 -2.828685194253921509e-02 -5.035495758056640625e-01 -1.181089133024215698e-01 -1.864975392818450928e-01 1.336435228586196899e-01
4.404000000000000000e+03 2.586438560485839844e+01 -4.090388715267181396e-01 -9.958571791648864746e-01 -1.885204464197158813e-01 -3.553132712841033936e-01 4.464982450008392334e-01
4.405000000000000000e+03 2.568009567260742188e+01 -3.338497877120971680e-01 -8.266419172286987305e-01 -1.639911085367202759e-01 -2.971899211406707764e-01 2.999443709850311279e-01
4.406000000000000000e+03 2.549580574035644531e+01 -2.586606740951538086e-01 -7.377214431762695312e-01 -1.040078178048133850e-01 -2.525187730789184570e-01 2.259623855352401733e-01
4.407000000000000000e+03 2.531151580810546875e+01 -1.834715753793716431e-01 -7.093870639801025391e-01 -6.346976011991500854e-02 -2.318570464849472046e-01 1.638878434896469116e-01
4.408000000000000000e+03 2.584770202636718750e+01 -4.650952517986297607e-01 -1.191476583480834961e+00 -1.324175298213958740e-01 -3.971682190895080566e-01 3.991259038448333740e-01
4.409000000000000000e+03 2.565229034423828125e+01 -4.272770583629608154e-01 -1.005318284034729004e+00 -9.625750035047531128e-02 -3.304727375507354736e-01 2.888126671314239502e-01
4.410000000000000000e+03 2.545687675476074219e+01 -3.894588649272918701e-01 -9.115721583366394043e-01 -5.415317043662071228e-02 -2.897176146507263184e-01 2.086549401283264160e-01
4.411000000000000000e+03 2.526146507263183594e+01 -3.516406714916229248e-01 -8.461690545082092285e-01 -2.024790458381175995e-02 -2.599250972270965576e-01 1.755619794130325317e-01
4.412000000000000000e+03 2.584226799011230469e+01 -5.233285427093505859e-01 -1.352609872817993164e+00 -8.987166732549667358e-02 -4.327444732189178467e-01 3.397368788719177246e-01
4.413000000000000000e+03 2.564323234558105469e+01 -5.243325233459472656e-01 -1.189843416213989258e+00 -4.242116957902908325e-02 -3.696793913841247559e-01 2.364383339881896973e-01
4.414000000000000000e+03 2.544419670104980469e+01 -5.253365635871887207e-01 -1.072346806526184082e+00 -2.875208156183362007e-03 -3.225665986537933350e-01 1.608636975288391113e-01
4.415000000000000000e+03 2.524516105651855469e+01 -5.263405442237854004e-01 -9.613113999366760254e-01 1.289006043225526810e-02 -2.845264077186584473e-01 1.063891500234603882e-01
4.416000000000000000e+03 2.584828948974609375e+01 -5.815040469169616699e-01 -1.496611475944519043e+00 -7.896219938993453979e-02 -4.726721048355102539e-01 2.730650901794433594e-01
4.417000000000000000e+03 2.565326881408691406e+01 -6.212916970252990723e-01 -1.358841896057128906e+00 8.633056655526161194e-03 -4.050626456737518311e-01 1.623392254114151001e-01
4.418000000000000000e+03 2.545824813842773438e+01 -6.610794067382812500e-01 -1.227516651153564453e+00 2.625191211700439453e-02 -3.603794276714324951e-01 6.732966750860214233e-02
4.419000000000000000e+03 2.526322746276855469e+01 -7.008671164512634277e-01 -1.099521756172180176e+00 5.667558312416076660e-02 -3.128538429737091064e-01 -5.129104480147361755e-03
4.420000000000000000e+03 2.586553764343261719e+01 -6.373892426490783691e-01 -1.633265972137451172e+00 -7.747972011566162109e-02 -5.132237076759338379e-01 2.104449272155761719e-01
4.421000000000000000e+03 2.568201637268066406e+01 -7.144337892532348633e-01 -1.500848412513732910e+00 3.267372399568557739e-02 -4.404524266719818115e-01 6.555156409740447998e-02
4.422000000000000000e+03 2.549849319458007812e+01 -7.914782762527465820e-01 -1.373710274696350098e+00 5.001256242394447327e-02 -3.971092998981475830e-01 -3.946277871727943420e-02
4.423000000000000000e+03 2.531497192382812500e+01 -8.685227036476135254e-01 -1.279949426651000977e+00 7.583861798048019409e-02 -3.612332344055175781e-01 -1.318485885858535767e-01
4.424000000000000000e+03 2.589335060119628906e+01 -6.888395547866821289e-01 -1.754751920700073242e+00 -6.027575954794883728e-02 -5.445082783699035645e-01 1.403625011444091797e-01
4.425000000000000000e+03 2.572836875915527344e+01 -8.001842498779296875e-01 -1.626613020896911621e+00 1.128702890127897263e-02 -4.845978021621704102e-01 -3.188535943627357483e-02
4.426000000000000000e+03 2.556338882446289062e+01 -9.115288853645324707e-01 -1.490424871444702148e+00 6.480848789215087891e-02 -4.276849031448364258e-01 -1.541716903448104858e-01
4.427000000000000000e+03 2.539840888977050781e+01 -1.022873520851135254e+00 -1.434373974800109863e+00 6.603857874870300293e-02 -4.105006456375122070e-01 -2.182421833276748657e-01
4.428000000000000000e+03 2.593066024780273438e+01 -7.338804602622985840e-01 -1.900041103363037109e+00 -9.284928441047668457e-02 -5.978671312332153320e-01 7.593073695898056030e-02
4.429000000000000000e+03 2.579055213928222656e+01 -8.752524256706237793e-01 -1.692723631858825684e+00 -3.084910102188587189e-03 -5.087425708770751953e-01 -1.429574191570281982e-01
4.430000000000000000e+03 2.565044403076171875e+01 -1.016624450683593750e+00 -1.603024601936340332e+00 1.602190919220447540e-02 -4.761008322238922119e-01 -2.274704426527023315e-01
4.431000000000000000e+03 2.551033592224121094e+01 -1.157996416091918945e+00 -1.494088053703308105e+00 5.912345275282859802e-02 -4.304893910884857178e-01 -3.142177164554595947e-01
4.432000000000000000e+03 2.597603416442871094e+01 -7.707836031913757324e-01 -1.965822100639343262e+00 -9.699551016092300415e-02 -6.188452839851379395e-01 -2.260354347527027130e-02
4.433000000000000000e+03 2.586617469787597656e+01 -9.367576241493225098e-01 -1.791449189186096191e+00 -8.472815901041030884e-02 -5.628532171249389648e-01 -2.057965993881225586e-01
4.434000000000000000e+03 2.575631713867187500e+01 -1.102731585502624512e+00 -1.622056126594543457e+00 -3.038244694471359253e-02 -4.957315623760223389e-01 -3.150177896022796631e-01
4.435000000000000000e+03 2.564645767211914062e+01 -1.268705606460571289e+00 -1.565268516540527344e+00 -8.933282457292079926e-03 -4.722605347633361816e-01 -3.543244004249572754e-01
4.436000000000000000e+03 2.602773094177246094e+01 -7.981326580047607422e-01 -2.084948301315307617e+00 -1.802871674299240112e-01 -6.795706152915954590e-01 -9.418377280235290527e-02
4.437000000000000000e+03 2.595233917236328125e+01 -9.823395013809204102e-01 -1.787167906761169434e+00 -1.460309326648712158e-01 -5.799596905708312988e-01 -2.658688724040985107e-01
4.438000000000000000e+03 2.587694549560546875e+01 -1.166546225547790527e+00 -1.706784844398498535e+00 -1.201779916882514954e-01 -5.480888485908508301e-01 -3.501821756362915039e-01
4.439000000000000000e+03 2.580155181884765625e+01 -1.350752949714660645e+00 -1.531240344047546387e+00 -9.556042402982711792e-02 -4.880402386188507080e-01 -4.186934530735015869e-01
4.440000000000000000e+03 2.608376884460449219e+01 -8.148782849311828613e-01 -2.070786952972412109e+00 -2.565945684909820557e-01 -6.982144117355346680e-01 -1.525557637214660645e-01
4.441000000000000000e+03 2.604573440551757812e+01 -1.010248780250549316e+00 -1.875906586647033691e+00 -2.431934028863906860e-01 -6.357299685478210449e-01 -2.774218022823333740e-01
4.442000000000000000e+03 2.600769996643066406e+01 -1.205619215965270996e+00 -1.690880417823791504e+00 -1.880072355270385742e-01 -5.636662840843200684e-01 -3.705759644508361816e-01
4.443000000000000000e+03 2.596966552734375000e+01 -1.400989651679992676e+00 -1.626516819000244141e+00 -1.865485459566116333e-01 -5.439196228981018066e-01 -4.614481329917907715e-01
4.444000000000000000e+03 2.614199638366699219e+01 -8.203776478767395020e-01 -2.134978771209716797e+00 -3.833850324153900146e-01 -7.555091381072998047e-01 -1.641291081905364990e-01
4.445000000000000000e+03 2.614278030395507812e+01 -1.019414424896240234e+00 -1.880005359649658203e+00 -3.000872433185577393e-01 -6.540277600288391113e-01 -2.545482516288757324e-01
4.446000000000000000e+03 2.614356422424316406e+01 -1.218451261520385742e+00 -1.782173275947570801e+00 -2.658218145370483398e-01 -6.143985390663146973e-01 -3.643284142017364502e-01
4.447000000000000000e+03 2.614434814453125000e+01 -1.417487978935241699e+00 -1.660626530647277832e+00 -2.137257009744644165e-01 -5.623056888580322266e-01 -4.489094913005828857e-01
4.448000000000000000e+03 2.620017814636230469e+01 -8.144198656082153320e-01 -2.135680198669433594e+00 -4.638283550739288330e-01 -7.798525691032409668e-01 -1.063406094908714294e-01
4.449000000000000000e+03 2.623974990844726562e+01 -1.009484767913818359e+00 -1.979653358459472656e+00 -3.585192859172821045e-01 -7.014517784118652344e-01 -2.160734534263610840e-01
4.450000000000000000e+03 2.627932167053222656e+01 -1.204549789428710938e+00 -1.833881139755249023e+00 -2.892794609069824219e-01 -6.369481682777404785e-01 -3.214932680130004883e-01
4.451000000000000000e+03 2.631889343261718750e+01 -1.399614572525024414e+00 -1.760353446006774902e+00 -2.548486292362213135e-01 -6.045606136322021484e-01 -4.043639302253723145e-01
4.452000000000000000e+03 2.625608253479003906e+01 -7.972335815429687500e-01 -2.224272727966308594e+00 -5.203107595443725586e-01 -8.233750462532043457e-01 -2.135876007378101349e-02
4.453000000000000000e+03 2.633292388916015625e+01 -9.808409214019775391e-01 -2.067600965499877930e+00 -3.580273091793060303e-01 -7.276884913444519043e-01 -1.508316248655319214e-01
4.454000000000000000e+03 2.640976524353027344e+01 -1.164448261260986328e+00 -1.956663370132446289e+00 -3.023820519447326660e-01 -6.777136325836181641e-01 -2.688054740428924561e-01
4.455000000000000000e+03 2.648660659790039062e+01 -1.348055601119995117e+00 -1.845977067947387695e+00 -2.590211331844329834e-01 -6.314994692802429199e-01 -3.516346812248229980e-01
4.456000000000000000e+03 2.630756378173828125e+01 -7.694782018661499023e-01 -2.366836547851562500e+00 -4.875085055828094482e-01 -8.563035130500793457e-01 8.427155017852783203e-02
4.457000000000000000e+03 2.641872596740722656e+01 -9.345819354057312012e-01 -2.199434757232666016e+00 -3.327639997005462646e-01 -7.596596479415893555e-01 -9.682402014732360840e-02
4.458000000000000000e+03 2.652988815307617188e+01 -1.099685668945312500e+00 -2.090174198150634766e+00 -2.755677402019500732e-01 -7.097226381301879883e-01 -2.117260694503784180e-01
4.459000000000000000e+03 2.664105033874511719e+01 -1.264789462089538574e+00 -1.991376519203186035e+00 -2.466331869363784790e-01 -6.714028716087341309e-01 -3.003744184970855713e-01
4.460000000000000000e+03 2.635264587402343750e+01 -7.322189211845397949e-01 -2.549692153930664062e+00 -3.819594681262969971e-01 -8.794955015182495117e-01 1.584258973598480225e-01
4.461000000000000000e+03 2.649386215209960938e+01 -8.724831342697143555e-01 -2.370798110961914062e+00 -2.766497135162353516e-01 -7.942343354225158691e-01 -6.837329268455505371e-02
4.462000000000000000e+03 2.663508033752441406e+01 -1.012747406959533691e+00 -2.228825807571411133e+00 -2.228854596614837646e-01 -7.355133891105651855e-01 -1.642194837331771851e-01
4.463000000000000000e+03 2.677629661560058594e+01 -1.153011679649353027e+00 -2.168014049530029297e+00 -2.137611508369445801e-01 -7.145325541496276855e-01 -2.648517489433288574e-01
4.464000000000000000e+03 2.638959884643554688e+01 -6.868855953216552734e-01 -2.797549247741699219e+00 -2.558481395244598389e-01 -9.160192012786865234e-01 1.486272215843200684e-01
4.465000000000000000e+03 2.655545234680175781e+01 -7.969276309013366699e-01 -2.517950296401977539e+00 -1.770457327365875244e-01 -8.084987998008728027e-01 -5.640741437673568726e-02
4.466000000000000000e+03 2.672130393981933594e+01 -9.069696068763732910e-01 -2.399133920669555664e+00 -1.845444291830062866e-01 -7.751035094261169434e-01 -1.659102290868759155e-01
4.467000000000000000e+03 2.688715744018554688e+01 -1.017011642456054688e+00 -2.315349340438842773e+00 -1.344411075115203857e-01 -7.349371314048767090e-01 -2.202033102512359619e-01
4.468000000000000000e+03 2.641700553894042969e+01 -6.352178454399108887e-01 -2.987339735031127930e+00 -7.462989538908004761e-02 -9.185909032821655273e-01 7.270920276641845703e-02
4.469000000000000000e+03 2.660112953186035156e+01 -7.108147740364074707e-01 -2.679479837417602539e+00 -1.352760344743728638e-01 -8.444267511367797852e-01 -1.038786098361015320e-01
4.470000000000000000e+03 2.678525352478027344e+01 -7.864116430282592773e-01 -2.537299156188964844e+00 -8.869368582963943481e-02 -7.877978682518005371e-01 -1.696657240390777588e-01
4.471000000000000000e+03 2.696937561035156250e+01 -8.620085120201110840e-01 -2.466125488281250000e+00 -1.179701909422874451e-01 -7.752286791801452637e-01 -2.306864112615585327e-01
4.472000000000000000e+03 2.643381309509277344e+01 -5.791985392570495605e-01 -3.142747640609741211e+00 -1.028093695640563965e-02 -9.459085464477539062e-01 -9.287657588720321655e-02
4.473000000000000000e+03 2.662914276123046875e+01 -6.174492239952087402e-01 -2.771464347839355469e+00 -4.963525012135505676e-02 -8.463299274444580078e-01 -1.627579629421234131e-01
4.474000000000000000e+03 2.682447052001953125e+01 -6.556999087333679199e-01 -2.671992063522338867e+00 -7.692379504442214966e-02 -8.246747255325317383e-01 -2.036123126745223999e-01
4.475000000000000000e+03 2.701979827880859375e+01 -6.939505934715270996e-01 -2.601179361343383789e+00 -2.775935083627700806e-02 -7.886815667152404785e-01 -2.533065974712371826e-01
4.476000000000000000e+03 2.643937683105468750e+01 -5.209773778915405273e-01 -3.140348672866821289e+00 3.603103756904602051e-02 -9.312952756881713867e-01 -2.757422327995300293e-01
4.477000000000000000e+03 2.663841629028320312e+01 -5.204139947891235352e-01 -2.869409322738647461e+00 -6.756249815225601196e-02 -8.810915350914001465e-01 -2.265329062938690186e-01
4.478000000000000000e+03 2.683745193481445312e+01 -5.198506116867065430e-01 -2.737820386886596680e+00 -4.312689881771802902e-03 -8.226399421691894531e-01 -2.641576528549194336e-01
4.479000000000000000e+03 2.703648948669433594e+01 -5.192871689796447754e-01 -2.706624031066894531e+00 -4.856305569410324097e-02 -8.265561461448669434e-01 -2.632028162479400635e-01
4.480000000000000000e+03 3.784771728515625000e+01 1.573838591575622559e-01 -1.111901402473449707e+00 1.372916847467422485e-01 -2.923829257488250732e-01 2.177504450082778931e-01
4.481000000000000000e+03 3.725452804565429688e+01 -4.614862799644470215e-01 -1.704339265823364258e+00 2.763736546039581299e-01 -4.283896684646606445e-01 3.175450563430786133e-01
4.482000000000000000e+03 3.576796340942382812e+01 -2.034789621829986572e-01 -1.935351371765136719e+00 4.550231248140335083e-02 -5.669547319412231445e-01 -1.303639858961105347e-01
4.483000000000000000e+03 3.773318862915039062e+01 6.399024128913879395e-01 -7.921198606491088867e-01 4.949859157204627991e-02 -2.227863818407058716e-01 4.249506630003452301e-03
4.484000000000000000e+03 3.793711853027343750e+01 -3.290801048278808594e-01 -1.424550890922546387e+00 1.998452693223953247e-01 -3.674116730690002441e-01 4.468343853950500488e-01
4.485000000000000000e+03 3.579476928710937500e+01 1.557014137506484985e-01 -1.979350924491882324e+00 3.754030913114547729e-02 -5.825431942939758301e-01 -2.430934309959411621e-01
4.486000000000000000e+03 3.544619369506835938e+01 -5.567274093627929688e-01 -2.222938299179077148e+00 2.141180038452148438e-01 -6.026461124420166016e-01 -1.078686118125915527e-01
4.487000000000000000e+03 3.542301177978515625e+01 -3.483869433403015137e-01 -2.081857442855834961e+00 7.486124336719512939e-02 -6.020988225936889648e-01 -1.067499890923500061e-01
4.488000000000000000e+03 3.557382965087890625e+01 -9.237620830535888672e-01 -2.299935579299926758e+00 3.014726340770721436e-01 -5.995388627052307129e-01 1.570875989273190498e-03
4.489000000000000000e+03 3.620565032958984375e+01 -5.708550214767456055e-01 -2.032982587814331055e+00 2.278308123350143433e-01 -5.415455102920532227e-01 1.480954587459564209e-01
4.490000000000000000e+03 3.543449020385742188e+01 -7.468969821929931641e-01 -2.354356288909912109e+00 2.746405899524688721e-01 -6.239146590232849121e-01 -8.702378720045089722e-02
4.491000000000000000e+03 3.575466537475585938e+01 -7.140525579452514648e-01 -2.227373838424682617e+00 2.868609726428985596e-01 -5.821538567543029785e-01 -1.163267623633146286e-02
4.492000000000000000e+03 3.536248397827148438e+01 8.274657279253005981e-02 -2.103866577148437500e+00 -1.175776124000549316e-02 -6.346873044967651367e-01 -2.407590001821517944e-01
4.493000000000000000e+03 3.537422180175781250e+01 -1.330137997865676880e-01 -2.104567527770996094e+00 2.290383726358413696e-02 -6.244990825653076172e-01 -2.668566703796386719e-01
4.494000000000000000e+03 3.720196914672851562e+01 2.339655533432960510e-02 -1.427531719207763672e+00 1.185003891587257385e-01 -3.927094042301177979e-01 1.816787123680114746e-01
4.495000000000000000e+03 3.633927154541015625e+01 3.176230490207672119e-01 -1.737753272056579590e+00 4.906430840492248535e-03 -5.198540687561035156e-01 -1.594967991113662720e-01
4.496000000000000000e+03 3.702178573608398438e+01 4.951345026493072510e-01 -1.267176628112792969e+00 -6.617050385102629662e-04 -3.803514838218688965e-01 -8.258911967277526855e-02
4.497000000000000000e+03 3.670540237426757812e+01 -2.419523298740386963e-01 -1.712173819541931152e+00 1.522755771875381470e-01 -4.679694771766662598e-01 1.505964100360870361e-01
4.498000000000000000e+03 3.540359497070312500e+01 3.248628079891204834e-01 -2.076139688491821289e+00 -3.753636032342910767e-02 -6.341028213500976562e-01 -3.251303434371948242e-01
4.499000000000000000e+03 2.680468750000000000e+01 1.088164567947387695e+00 8.938070386648178101e-02 4.133780300617218018e-02 3.921554982662200928e-02 -5.694285407662391663e-02
4.500000000000000000e+03 3.282873153686523438e+01 1.759412050247192383e+00 -2.536858373787254095e-04 5.622683675028383732e-04 9.257475903723388910e-05 7.365537749137729406e-05
4.501000000000000000e+03 3.256165695190429688e+01 1.791955471038818359e+00 -6.131866830401122570e-04 -5.870319437235593796e-04 -3.600655763875693083e-04 2.582771412562578917e-04
4.502000000000000000e+03 3.268337631225585938e+01 1.737726449966430664e+00 4.237052344251424074e-04 -4.155964415986090899e-04 2.432637984384200536e-06 -8.874001650838181376e-05
4.503000000000000000e+03 3.273002243041992188e+01 1.890288829803466797e+00 -1.823573722504079342e-03 -2.791149017866700888e-04 -6.308066076599061489e-04 6.395922391675412655e-04
4.504000000000000000e+03 3.914461517333984375e+01 2.359752893447875977e+00 -1.090431120246648788e-03 5.763095105066895485e-04 -1.542365062050521374e-04 3.133699065074324608e-04
4.505000000000000000e+03 3.842591857910156250e+01 1.450954198837280273e+00 -2.197136927861720324e-04 -2.569777716416865587e-04 -1.430074335075914860e-04 2.695332514122128487e-04
4.506000000000000000e+03 3.827068328857421875e+01 2.174587726593017578e+00 4.153617192059755325e-04 -9.959330054698511958e-05 9.473052341490983963e-05 -2.889967872761189938e-04
4.507000000000000000e+03 3.930421447753906250e+01 1.637129545211791992e+00 1.289918785914778709e-03 7.006238447502255440e-04 5.971628124825656414e-04 -8.706048247404396534e-04
4.508000000000000000e+03 3.970756530761718750e+01 2.307757139205932617e+00 -1.451046671718358994e-03 -1.729529933072626591e-03 -9.541729814372956753e-04 5.683979252353310585e-04
4.509000000000000000e+03 3.532656478881835938e+01 1.218266010284423828e+00 -1.172233023680746555e-03 3.372828359715640545e-05 -3.415514074731618166e-04 4.506084951572120190e-05
4.510000000000000000e+03 3.516021347045898438e+01 1.843163371086120605e+00 -8.075360674411058426e-04 -1.895041350508108735e-04 -2.991120563820004463e-04 -2.612750358821358532e-05
4.511000000000000000e+03 3.509786987304687500e+01 1.261741042137145996e+00 4.755330446641892195e-04 2.654278068803250790e-04 2.222882467322051525e-04 4.669536720030009747e-04
4.512000000000000000e+03 3.551464080810546875e+01 1.057103157043457031e+00 2.576459664851427078e-04 5.759819177910685539e-04 2.500883711036294699e-04 -5.231344839558005333e-04
4.513000000000000000e+03 3.518862915039062500e+01 9.300561547279357910e-01 2.375559124629944563e-04 -2.203827752964571118e-04 5.151941422809613869e-06 1.709361240500584245e-04
4.514000000000000000e+03 3.561892700195312500e+01 7.942531704902648926e-01 5.882916739210486412e-04 3.947068762499839067e-04 2.948995679616928101e-04 -2.442419354338198900e-04
4.515000000000000000e+03 3.683752059936523438e+01 1.132660150527954102e+00 3.814448791672475636e-05 1.267211482627317309e-04 4.945968976244330406e-05 7.707980694249272346e-05
4.516000000000000000e+03 3.744252777099609375e+01 2.003676176071166992e+00 -2.184457407565787435e-04 5.814079850097186863e-05 -4.809148231288418174e-05 2.152196248061954975e-04
4.517000000000000000e+03 3.758993148803710938e+01 1.278456091880798340e+00 8.585042087361216545e-05 7.697275577811524272e-05 4.884695226792246103e-05 -1.184199863928370178e-04
4.518000000000000000e+03 3.510199737548828125e+01 1.635613560676574707e+00 4.034786252304911613e-04 5.669509482686407864e-05 1.380521134706214070e-04 -9.060956654138863087e-05
4.519000000000000000e+03 3.585155868530273438e+01 1.316713333129882812e+00 -1.304558129049837589e-03 -4.656685632653534412e-04 -5.310680135153234005e-04 7.154527702368795872e-05
4.520000000000000000e+03 3.670141983032226562e+01 1.860043287277221680e+00 -1.277457922697067261e-04 -9.540783503325656056e-05 -6.694608600810170174e-05 -2.012353652389720082e-04
4.521000000000000000e+03 3.535565185546875000e+01 5.763555169105529785e-01 -3.864908067043870687e-04 -4.301570515963248909e-05 -1.288519561057910323e-04 9.140510519500821829e-05
4.522000000000000000e+03 3.511064147949218750e+01 1.445441007614135742e+00 -2.931270573753863573e-04 -6.991627742536365986e-04 -2.976869582198560238e-04 2.516349195502698421e-05
4.523000000000000000e+03 3.613363647460937500e+01 9.247913360595703125e-01 1.109958466258831322e-04 -2.344298554817214608e-04 -3.703020411194302142e-05 5.942787538515403867e-05
4.524000000000000000e+03 3.546948623657226562e+01 1.730145692825317383e+00 -1.436834427295252681e-04 5.880358366994187236e-05 -2.546395808167289943e-05 2.452786138746887445e-04
4.525000000000000000e+03 3.545494842529296875e+01 1.439249277114868164e+00 5.341963842511177063e-04 8.876194478943943977e-04 4.265447496436536312e-04 4.537452477961778641e-04
4.526000000000000000e+03 3.598669815063476562e+01 1.795895457267761230e+00 7.841854821890592575e-04 9.022599988384172320e-05 2.623234468046575785e-04 -2.998072523041628301e-05
4.527000000000000000e+03 3.523711776733398438e+01 7.485983967781066895e-01 7.233722863020375371e-05 -2.621563617140054703e-04 -5.694574065273627639e-05 1.839719188865274191e-04
4.528000000000000000e+03 3.512268447875976562e+01 1.098272919654846191e+00 -1.408388052368536592e-04 8.719452307559549809e-05 -1.609328683116473258e-05 -6.688833236694335938e-04
4.529000000000000000e+03 7.138031005859375000e+01 -1.674990081787109375e+01 5.762336077168583870e-04 5.257915745460195467e-06 1.744474575389176607e-04 1.239280973095446825e-04
4.530000000000000000e+03 7.211955261230468750e+01 -1.671120262145996094e+01 9.614815935492515564e-04 -6.868885247968137264e-05 2.678378077689558268e-04 7.549984002253040671e-05
4.531000000000000000e+03 7.071197509765625000e+01 -1.752739334106445312e+01 1.063238887581974268e-04 -1.705604809103533626e-04 -1.927097946463618428e-05 2.408660075161606073e-04
4.532000000000000000e+03 7.287363433837890625e+01 -1.741421890258789062e+01 1.165062654763460159e-03 -1.530311565147712827e-04 3.036094421986490488e-04 1.698664127616211772e-04
4.533000000000000000e+03 7.215311431884765625e+01 -1.745045852661132812e+01 9.281160600949078798e-05 -1.167696979109678068e-07 2.780845170491375029e-05 2.261134068248793483e-04
4.534000000000000000e+03 7.143251037597656250e+01 -1.748818206787109375e+01 7.602460100315511227e-04 -8.249920028902124614e-06 2.255988365504890680e-04 1.744704641168937087e-04
4.535000000000000000e+03 7.285870361328125000e+01 -1.667398834228515625e+01 7.184486021287739277e-04 5.348828926798887551e-05 2.315810706932097673e-04 2.740699892456177622e-05
4.536000000000000000e+03 7.064115142822265625e+01 -1.679008674621582031e+01 5.755263846367597580e-04 -2.844849768735002726e-05 1.641233538975939155e-04 1.900216739159077406e-04
4.537000000000000000e+03 7.509190368652343750e+01 -1.672233772277832031e+01 9.772395715117454529e-04 3.127144009340554476e-04 3.869861830025911331e-04 3.086118522332981229e-05
4.538000000000000000e+03 7.507875823974609375e+01 -1.746236038208007812e+01 2.697791787795722485e-04 -3.531260299496352673e-04 -2.500405389582738280e-05 -4.177066148258745670e-04
4.539000000000000000e+03 7.583750152587890625e+01 -1.675157546997070312e+01 6.449386710301041603e-04 -4.570578457787632942e-04 5.636424612021073699e-05 -1.627779565751552582e-04
4.540000000000000000e+03 7.360292816162109375e+01 -1.740974807739257812e+01 1.272898080060258508e-04 -1.113121470552869141e-04 4.793296739080687985e-06 -1.999516389332711697e-04
4.541000000000000000e+03 7.434651947021484375e+01 -1.669533538818359375e+01 7.837109733372926712e-04 -1.506185799371451139e-04 1.899277121992781758e-04 -1.593041379237547517e-04
4.542000000000000000e+03 7.581685638427734375e+01 -1.749131965637207031e+01 7.257229299284517765e-04 3.370243357494473457e-04 3.188241971656680107e-04 -6.941075844224542379e-05
4.543000000000000000e+03 7.434088134765625000e+01 -1.743563652038574219e+01 1.035089022479951382e-03 8.820772200124338269e-05 3.369890328031033278e-04 2.416744246147572994e-04
4.544000000000000000e+03 7.360105895996093750e+01 -1.666916847229003906e+01 1.067831180989742279e-03 -4.179863026365637779e-05 3.078097652178257704e-04 6.402024155249819160e-05
4.545000000000000000e+03 7.968632507324218750e+01 -1.742419242858886719e+01 5.749632255174219608e-04 4.244878364261239767e-04 2.998353156726807356e-04 1.484002714278176427e-04
4.546000000000000000e+03 7.850669860839843750e+01 -1.755505180358886719e+01 4.310770600568503141e-04 2.135581453330814838e-04 1.933905587065964937e-04 -2.866410068236291409e-04
4.547000000000000000e+03 7.652082824707031250e+01 -1.751028823852539062e+01 1.595125504536554217e-04 -4.083803796675056219e-04 -7.466034730896353722e-05 -2.229677193099632859e-04
4.548000000000000000e+03 7.873721313476562500e+01 -1.681438636779785156e+01 -1.396981679135933518e-05 -2.707779822230804712e-05 -1.231428450410021469e-05 1.125912967836484313e-05
4.549000000000000000e+03 7.785486602783203125e+01 -1.753419113159179688e+01 -1.439364714315161109e-04 -1.297467679250985384e-04 -8.210496889660134912e-05 -1.030042039928957820e-04
4.550000000000000000e+03 7.802648925781250000e+01 -1.679383087158203125e+01 3.169515111949294806e-04 2.287250536028295755e-04 1.637029636185616255e-04 -1.114548213081434369e-04
4.551000000000000000e+03 7.718931579589843750e+01 -1.751985740661621094e+01 6.287581636570394039e-04 3.025684563908725977e-04 2.793979947455227375e-04 -3.950268728658556938e-04
4.552000000000000000e+03 7.657466888427734375e+01 -1.677053260803222656e+01 6.769034662283957005e-04 4.831326077692210674e-04 3.480108280200511217e-04 -8.901452383724972606e-05
4.553000000000000000e+03 7.909966278076171875e+01 -1.758989524841308594e+01 1.445771049475297332e-04 -2.919574035331606865e-04 -4.421408812049776316e-05 5.183195025892928243e-05
4.554000000000000000e+03 7.938906860351562500e+01 -1.684892654418945312e+01 -3.606864484027028084e-04 -2.742875658441334963e-04 -1.904922100948169827e-04 -4.087385314051061869e-04
4.555000000000000000e+03 7.730204772949218750e+01 -1.677979850769042969e+01 2.605325134936720133e-04 -3.713461046572774649e-04 -3.324408316984772682e-05 -8.877703658072277904e-05
4.556000000000000000e+03 7.943219757080078125e+01 -1.525699043273925781e+01 9.322701022028923035e-03 1.938692480325698853e-02 8.612887933850288391e-03 6.541748531162738800e-03
4.557000000000000000e+03 7.838642120361328125e+01 -1.516350746154785156e+01 -1.396588142961263657e-02 -1.470503583550453186e-02 -8.601275272667407990e-03 -3.421840025112032890e-03
4.558000000000000000e+03 7.780564117431640625e+01 -1.512424659729003906e+01 -2.277072891592979431e-02 -1.038745325058698654e-02 -9.947454556822776794e-03 -1.970056258141994476e-02
4.559000000000000000e+03 7.662574768066406250e+01 -1.525570678710937500e+01 -5.186567455530166626e-02 1.593681168742477894e-03 -1.508159842342138290e-02 -3.426028788089752197e-02
4.560000000000000000e+03 7.725820159912109375e+01 -1.518011665344238281e+01 -4.095473513007164001e-02 -2.913030050694942474e-02 -2.102551050484180450e-02 -3.136034309864044189e-02
4.561000000000000000e+03 7.888636779785156250e+01 -1.611222648620605469e+01 6.689965724945068359e-03 2.956390613690018654e-03 2.893907018005847931e-03 4.952646791934967041e-03
4.562000000000000000e+03 7.888313293457031250e+01 -1.558502388000488281e+01 -4.600202664732933044e-03 -1.245024520903825760e-02 -5.115134175866842270e-03 7.573507260531187057e-03
4.563000000000000000e+03 7.663484954833984375e+01 -1.599727630615234375e+01 -1.838625222444534302e-02 -1.132047362625598907e-02 -8.912017568945884705e-03 -1.374805811792612076e-02
4.564000000000000000e+03 7.962244415283203125e+01 -1.590537452697753906e+01 3.107511438429355621e-04 1.476613222621381283e-03 5.362093215808272362e-04 8.111865608952939510e-04
4.565000000000000000e+03 7.827157592773437500e+01 -1.562149429321289062e+01 -1.355002401396632195e-03 -2.831998979672789574e-03 -1.256100367754697800e-03 -2.180752810090780258e-03
4.566000000000000000e+03 7.741748809814453125e+01 -1.606798362731933594e+01 2.150635700672864914e-03 4.227938596159219742e-03 1.913572312332689762e-03 -4.324966575950384140e-03
4.567000000000000000e+03 7.816462707519531250e+01 -1.613920974731445312e+01 9.786893613636493683e-03 -7.530303206294775009e-03 6.769772153347730637e-04 -1.869030762463808060e-03
4.568000000000000000e+03 7.763186645507812500e+01 -1.553283691406250000e+01 -1.216357853263616562e-02 -6.483091041445732117e-03 -5.594000685960054398e-03 -9.128695353865623474e-03
4.569000000000000000e+03 7.896445465087890625e+01 -1.517584800720214844e+01 5.331818945705890656e-03 -1.051394082605838776e-02 -1.554636517539620399e-03 -1.278967247344553471e-03
4.570000000000000000e+03 7.435244750976562500e+01 -1.591604232788085938e+01 -1.266735941171646118e-01 1.627325825393199921e-02 -3.312010318040847778e-02 -1.805981248617172241e-02
4.571000000000000000e+03 7.588006591796875000e+01 -1.523305606842041016e+01 -8.550583571195602417e-02 -1.609878800809383392e-02 -3.048138879239559174e-02 -4.905111342668533325e-02
4.572000000000000000e+03 7.359722137451171875e+01 -1.514822292327880859e+01 -1.952875554561614990e-01 1.132553629577159882e-02 -5.518860369920730591e-02 -5.791040509939193726e-02
4.573000000000000000e+03 7.510590362548828125e+01 -1.594404602050781250e+01 -8.462768048048019409e-02 -1.507569942623376846e-02 -2.991101332008838654e-02 -1.779430918395519257e-02
4.574000000000000000e+03 7.359909057617187500e+01 -1.588880252838134766e+01 -1.733747720718383789e-01 -1.545010507106781006e-02 -5.664746463298797607e-02 -1.769368350505828857e-02
4.575000000000000000e+03 7.435808563232421875e+01 -1.517574119567871094e+01 -1.616742312908172607e-01 -7.992567494511604309e-03 -5.090003833174705505e-02 -5.671531334519386292e-02
4.576000000000000000e+03 7.585942077636718750e+01 -1.597279930114746094e+01 -4.769400507211685181e-02 1.205065101385116577e-02 -1.069300621747970581e-02 -1.374367158859968185e-02
4.577000000000000000e+03 7.511904144287109375e+01 -1.520402336120605469e+01 -1.229822561144828796e-01 7.608693558722734451e-03 -3.461207076907157898e-02 -5.397919192910194397e-02
4.578000000000000000e+03 7.132652282714843750e+01 -1.597409629821777344e+01 -1.991466134786605835e-01 2.243587933480739594e-02 -5.301322042942047119e-02 -1.503996900282800198e-03
4.579000000000000000e+03 7.056670379638671875e+01 -1.601350212097167969e+01 -1.659283488988876343e-01 -6.761088036000728607e-03 -5.180683359503746033e-02 1.677074842154979706e-02
4.580000000000000000e+03 7.208541107177734375e+01 -1.593443489074707031e+01 -2.110906690359115601e-01 -1.075637154281139374e-02 -6.655411422252655029e-02 -1.146563328802585602e-02
4.581000000000000000e+03 7.284317016601562500e+01 -1.589438438415527344e+01 -2.029016762971878052e-01 1.476634107530117035e-02 -5.644059926271438599e-02 -1.890324428677558899e-02
4.582000000000000000e+03 7.282823944091796875e+01 -1.515415287017822266e+01 -2.319849431514739990e-01 2.057050820440053940e-03 -6.897836923599243164e-02 -4.157904163002967834e-02
4.583000000000000000e+03 7.049587249755859375e+01 -1.527619743347167969e+01 -2.677653729915618896e-01 3.270223736763000488e-02 -7.051894068717956543e-02 2.987416274845600128e-02
4.584000000000000000e+03 7.127433013916015625e+01 -1.523581504821777344e+01 -2.670550644397735596e-01 2.337683923542499542e-02 -7.310346513986587524e-02 6.850321777164936066e-03
4.585000000000000000e+03 7.205184173583984375e+01 -1.519517898559570312e+01 -2.528414726257324219e-01 2.664055116474628448e-02 -6.786028295755386353e-02 -2.268640324473381042e-02
4.586000000000000000e+03 6.809269714355468750e+01 -1.561150836944580078e+01 1.406498551368713379e-01 -2.158869430422782898e-02 3.571834787726402283e-02 -1.959616504609584808e-02
4.587000000000000000e+03 6.902137756347656250e+01 -1.593779945373535156e+01 4.622283577919006348e-02 3.650747984647750854e-02 2.481909468770027161e-02 2.490925602614879608e-02
4.588000000000000000e+03 6.852732849121093750e+01 -1.547273349761962891e+01 -1.062733978033065796e-01 -9.384229779243469238e-02 -6.003470718860626221e-02 8.635692298412322998e-02
4.589000000000000000e+03 6.853373718261718750e+01 -1.628846549987792969e+01 -5.954992026090621948e-02 -1.318191736936569214e-02 -2.181955054402351379e-02 2.774568088352680206e-02
4.590000000000000000e+03 6.976448822021484375e+01 -1.608898162841796875e+01 -1.083352565765380859e-01 -4.334597848355770111e-03 -3.380095586180686951e-02 1.744390465319156647e-03
4.591000000000000000e+03 6.975740051269531250e+01 -1.534004783630371094e+01 -2.151571959257125854e-01 1.150095555931329727e-02 -6.109686940908432007e-02 9.632681310176849365e-02
4.592000000000000000e+03 6.909480285644531250e+01 -1.537976169586181641e+01 -2.715732455253601074e-01 5.507759377360343933e-02 -6.494869291782379150e-02 1.127449050545692444e-01
4.593000000000000000e+03 6.846734619140625000e+01 -1.765766716003417969e+01 3.554784925654530525e-04 5.916306981816887856e-04 2.841327514033764601e-04 -7.309365901164710522e-05
4.594000000000000000e+03 6.902794647216796875e+01 -1.774423980712890625e+01 -1.380171015625819564e-04 -2.367558590776752681e-05 -4.850780533161014318e-05 3.450306758168153465e-05
4.595000000000000000e+03 6.989218139648437500e+01 -1.761616897583007812e+01 5.250810063444077969e-04 2.349130809307098389e-04 2.279982145410031080e-04 4.601572290994226933e-04
4.596000000000000000e+03 6.980416870117187500e+01 -1.688065528869628906e+01 1.631389750400558114e-04 1.245323801413178444e-04 8.630140655441209674e-05 3.249327710364013910e-05
4.597000000000000000e+03 6.892420196533203125e+01 -1.701133537292480469e+01 -5.502449857885949314e-05 -1.834436843637377024e-04 -7.154045306378975511e-05 2.846335119102150202e-04
4.598000000000000000e+03 1.639982223510742188e+01 -2.317397296428680420e-01 4.240207374095916748e-01 6.123387720435857773e-04 1.273899227380752563e-01 6.526976940222084522e-04
4.599000000000000000e+03 1.798723983764648438e+01 -8.314419388771057129e-01 1.395729929208755493e-01 -3.079395554959774017e-02 3.263371437788009644e-02 -1.051014885306358337e-01
4.600000000000000000e+03 1.645354080200195312e+01 -9.699125885963439941e-01 2.591225504875183105e-01 -2.090119943022727966e-02 7.146640866994857788e-02 -7.108940929174423218e-02
4.601000000000000000e+03 1.875374794006347656e+01 -7.599936723709106445e-01 6.099812686443328857e-02 -2.805896475911140442e-02 9.881748817861080170e-03 -1.235317364335060120e-01
4.602000000000000000e+03 1.790756225585937500e+01 -9.563824534416198730e-02 2.685395777225494385e-01 -3.892244072631001472e-03 7.939419895410537720e-02 -1.724789477884769440e-02
4.603000000000000000e+03 1.866109085083007812e+01 -2.537456899881362915e-02 1.838290989398956299e-01 -1.009101606905460358e-02 5.212142318487167358e-02 -2.659930475056171417e-02
4.604000000000000000e+03 1.715376663208007812e+01 -1.644264459609985352e-01 3.480620384216308594e-01 -8.714024908840656281e-03 1.018044054508209229e-01 -6.251937709748744965e-03
4.605000000000000000e+03 1.722046470642089844e+01 -9.014146924018859863e-01 2.062229067087173462e-01 -2.466427721083164215e-02 5.446758866310119629e-02 -8.789189904928207397e-02
4.606000000000000000e+03 1.941230964660644531e+01 7.625918835401535034e-02 8.942389488220214844e-02 -6.052262149751186371e-03 2.501148916780948639e-02 -3.476134687662124634e-02
4.607000000000000000e+03 2.090952491760253906e+01 3.449267148971557617e-01 -7.017026096582412720e-02 -5.504567641764879227e-03 -2.270244807004928589e-02 -4.341080412268638611e-02
4.608000000000000000e+03 1.952174568176269531e+01 -6.559218764305114746e-01 -1.292859483510255814e-02 -3.149243071675300598e-02 -1.332630869001150131e-02 -1.329415887594223022e-01
4.609000000000000000e+03 2.106011390686035156e+01 -3.798714280128479004e-01 -1.632376313209533691e-01 -1.295522134751081467e-02 -5.285785719752311707e-02 -1.209639236330986023e-01
4.610000000000000000e+03 2.183077621459960938e+01 -2.417316585779190063e-01 -2.351113855838775635e-01 1.200691517442464828e-02 -6.693134456872940063e-02 -1.035851165652275085e-01
4.611000000000000000e+03 2.165959548950195312e+01 4.794237911701202393e-01 -1.177418902516365051e-01 1.811927504604682326e-04 -3.526820987462997437e-02 -3.564951941370964050e-02
4.612000000000000000e+03 2.016033744812011719e+01 2.105962187051773071e-01 9.096498251892626286e-05 -1.238005701452493668e-02 -3.686727723106741905e-03 -3.894693776965141296e-02
4.613000000000000000e+03 2.029035186767578125e+01 -5.178933739662170410e-01 -8.704651892185211182e-02 -2.523796819150447845e-02 -3.368534520268440247e-02 -1.327240765094757080e-01
4.614000000000000000e+03 2.655191993713378906e+01 1.211927890777587891e+00 1.304637044668197632e-01 5.289893969893455505e-02 5.500879511237144470e-02 -8.685290813446044922e-02
4.615000000000000000e+03 2.642835426330566406e+01 1.133576512336730957e+00 7.195990532636642456e-02 4.798170924186706543e-02 3.598248213529586792e-02 -7.580000162124633789e-02
4.616000000000000000e+03 2.606766891479492188e+01 1.098246335983276367e+00 5.872541293501853943e-02 2.855097688734531403e-02 2.618291787803173065e-02 -6.204426661133766174e-02
4.617000000000000000e+03 2.582571220397949219e+01 1.493316173553466797e+00 1.450004577636718750e-01 2.856455184519290924e-02 5.206950381398200989e-02 -7.056864351034164429e-02
4.618000000000000000e+03 2.501582145690917969e+01 5.861303806304931641e-01 -1.923671960830688477e-01 -1.124064996838569641e-01 -9.143210947513580322e-02 8.391678333282470703e-02
4.619000000000000000e+03 2.419348907470703125e+01 1.309267878532409668e+00 5.790190026164054871e-02 1.808632723987102509e-02 2.279646880924701691e-02 5.651804804801940918e-02
4.620000000000000000e+03 2.509922599792480469e+01 7.193784713745117188e-01 -1.761101782321929932e-01 -8.180958032608032227e-02 -7.737592607736587524e-02 5.397962778806686401e-02
4.621000000000000000e+03 2.335133743286132812e+01 9.742200970649719238e-01 -3.164733573794364929e-02 2.685248292982578278e-02 -1.438456354662775993e-03 3.538808226585388184e-02
4.622000000000000000e+03 2.246587944030761719e+01 6.890802979469299316e-01 -1.065509393811225891e-01 2.033650502562522888e-02 -2.586433105170726776e-02 -7.179417647421360016e-03
4.623000000000000000e+03 2.265129470825195312e+01 -3.019443526864051819e-02 -3.013905286788940430e-01 5.373515933752059937e-02 -7.429660856723785400e-02 -6.025316938757896423e-02
4.624000000000000000e+03 2.354462623596191406e+01 2.551128566265106201e-01 -3.165009617805480957e-01 5.458290502429008484e-02 -7.857541739940643311e-02 5.991644226014614105e-03
4.625000000000000000e+03 2.584380340576171875e+01 1.124831318855285645e+00 4.496732726693153381e-02 -1.738808862864971161e-02 8.273771964013576508e-03 -3.036129288375377655e-02
4.626000000000000000e+03 2.487414550781250000e+01 4.951079189777374268e-01 -2.291200906038284302e-01 -9.530114382505416870e-02 -9.732636809349060059e-02 9.678396582603454590e-02
4.627000000000000000e+03 2.494935035705566406e+01 1.589968442916870117e+00 1.075312197208404541e-01 -2.349452860653400421e-02 2.521100826561450958e-02 2.043831348419189453e-02
4.628000000000000000e+03 2.549102401733398438e+01 1.621851563453674316e+00 1.050236374139785767e-01 -1.596709154546260834e-02 2.671696245670318604e-02 -3.372370451688766479e-02
4.629000000000000000e+03 2.559309387207031250e+01 1.118039727210998535e+00 5.218366906046867371e-02 -4.842446744441986084e-02 1.127760624513030052e-03 -9.437002241611480713e-03
4.630000000000000000e+03 2.540032577514648438e+01 1.009757041931152344e+00 2.322353795170783997e-02 -6.852116435766220093e-02 -1.358928810805082321e-02 -3.007889259606599808e-03
4.631000000000000000e+03 2.625621414184570312e+01 1.101973772048950195e+00 7.038128376007080078e-02 3.384714201092720032e-02 3.126852586865425110e-02 -7.359296083450317383e-02
4.632000000000000000e+03 2.504071807861328125e+01 1.115116357803344727e+00 3.420737013220787048e-02 -6.992092728614807129e-02 -1.071406621485948563e-02 1.083114463835954666e-02
4.633000000000000000e+03 2.523330116271972656e+01 8.552555441856384277e-01 -8.031934499740600586e-02 -8.361311256885528564e-02 -4.917973652482032776e-02 9.890081360936164856e-03
4.634000000000000000e+03 2.457161521911621094e+01 8.719542026519775391e-01 -1.138356328010559082e-01 -2.478134818375110626e-02 -4.158509522676467896e-02 3.479528427124023438e-02
4.635000000000000000e+03 2.627415084838867188e+01 1.360334515571594238e+00 1.741050928831100464e-01 4.766987636685371399e-02 6.653249263763427734e-02 -9.407015144824981689e-02
4.636000000000000000e+03 2.609403038024902344e+01 1.311385989189147949e+00 1.381479054689407349e-01 3.977279365062713623e-02 5.337621271610260010e-02 -8.012980222702026367e-02
4.637000000000000000e+03 2.439571952819824219e+01 4.309497177600860596e-01 -2.702910304069519043e-01 5.441382527351379395e-03 -7.945489138364791870e-02 4.730408266186714172e-02
4.638000000000000000e+03 2.488675880432128906e+01 6.897756457328796387e-01 -1.973063945770263672e-01 -8.989996463060379028e-02 -8.616191148757934570e-02 7.953538745641708374e-02
4.639000000000000000e+03 2.337566375732421875e+01 2.629750251770019531e+00 -1.132733086706139147e-05 -2.184031109209172428e-05 -9.950292223948054016e-06 2.879577778003294952e-06
4.640000000000000000e+03 2.201377296447753906e+01 2.125266075134277344e+00 -7.017160442046588287e-06 -1.477051591791678220e-05 -6.536302862514276057e-06 6.812708306824788451e-06
4.641000000000000000e+03 2.225197982788085938e+01 1.423350930213928223e+00 1.655532628319633659e-06 1.509995490778237581e-05 5.026646249461919069e-06 -4.528579211182659492e-06
4.642000000000000000e+03 2.309097290039062500e+01 1.672813296318054199e+00 -7.701890467615157831e-07 -1.220838294102577493e-05 -3.893571374646853656e-06 2.940929789474466816e-06
4.643000000000000000e+03 2.428779029846191406e+01 2.625434398651123047e+00 -1.415276165062095970e-05 3.577116331143770367e-06 -3.172693595843156800e-06 3.495887767712702043e-06
4.644000000000000000e+03 2.478089141845703125e+01 2.056442260742187500e+00 -4.090001766599016264e-06 -4.423646259965607896e-06 -2.554094407969387248e-06 -3.009176452906103805e-06
4.645000000000000000e+03 2.395736885070800781e+01 2.308834791183471680e+00 1.811212678148876876e-05 7.880047633079811931e-06 7.797652870067395270e-06 1.565059847052907571e-06
4.646000000000000000e+03 2.392651367187500000e+01 2.926619052886962891e+00 -4.087884462933288887e-06 7.267834917001891881e-06 9.539850225337431766e-07 -4.051776613778201863e-06
4.647000000000000000e+03 2.456351280212402344e+01 2.352871417999267578e+00 1.428346695320215076e-05 -1.173242026197840460e-06 3.933067546313395724e-06 6.478189789049793035e-06
4.648000000000000000e+03 2.273927497863769531e+01 2.339991807937622070e+00 6.098522590036736801e-06 1.539028380648232996e-05 6.446641691582044587e-06 -9.302778380515519530e-06
4.649000000000000000e+03 2.395885276794433594e+01 1.871361255645751953e+00 -3.330884055685601197e-06 8.747299943934194744e-06 1.624924720999842975e-06 -2.295409018415739411e-07
4.650000000000000000e+03 2.075237083435058594e+01 1.106616377830505371e+00 1.274199917133955751e-06 1.971969322767108679e-05 6.298167591012315825e-06 -4.683781298808753490e-06
4.651000000000000000e+03 2.060178184509277344e+01 1.831414580345153809e+00 -5.696123025700217113e-06 -2.081762977468315512e-05 -7.954125976539216936e-06 4.659089825054252287e-07
4.652000000000000000e+03 2.130817413330078125e+01 1.960395336151123047e+00 6.235969976842170581e-06 1.446691567252855748e-05 6.210865649336483330e-06 -4.421003723109606653e-06
4.653000000000000000e+03 1.918785858154296875e+01 1.579434752464294434e+00 -6.387633220583666116e-06 -2.520918133086524904e-05 -9.479043910687323660e-06 8.238107511715497822e-07
4.654000000000000000e+03 1.989505195617675781e+01 1.704050064086914062e+00 2.644049573063966818e-06 2.301962013007141650e-05 7.699100933677982539e-06 -4.110413101443555206e-06
4.655000000000000000e+03 1.929729461669921875e+01 8.472537398338317871e-01 -1.600986252014990896e-06 2.523266266507562250e-05 7.089503014867659658e-06 -4.162282948527717963e-06
4.656000000000000000e+03 2.147934150695800781e+01 1.239288687705993652e+00 -3.197260639353771694e-06 -1.902185067592654377e-05 -6.665733508270932361e-06 4.606716174748726189e-06
4.657000000000000000e+03 2.002506446838378906e+01 9.755603671073913574e-01 -4.291160621505696326e-06 -2.274397047585807741e-05 -8.110539965855423361e-06 2.280945409438572824e-06
4.658000000000000000e+03 1.701650238037109375e+01 1.350294589996337891e+00 3.347248821228276938e-06 2.786961704259738326e-05 9.365059668198227882e-06 -3.797961198870325461e-06
4.659000000000000000e+03 1.708320045471191406e+01 6.133062839508056641e-01 -7.922062650322914124e-06 -2.961210157081950456e-05 -1.126024926634272560e-05 2.903418589994544163e-06
4.660000000000000000e+03 1.634315681457519531e+01 5.465459823608398438e-01 -3.026078275070176460e-06 3.062741598114371300e-05 8.280401743832044303e-06 -2.745468918874394149e-06
4.661000000000000000e+03 1.782329559326171875e+01 6.808430552482604980e-01 -3.800359991146251559e-06 2.919865073636174202e-05 7.619486950716236606e-06 -4.341516614658758044e-06
4.662000000000000000e+03 1.847070503234863281e+01 1.483781576156616211e+00 1.447616000405105297e-06 2.545180541346780956e-05 8.069826435530558228e-06 -4.545810043055098504e-06
4.663000000000000000e+03 1.856336212158203125e+01 7.491624951362609863e-01 -6.145757197373313829e-06 -2.771232357190456241e-05 -1.015742418530862778e-05 2.205785904152435251e-06
4.664000000000000000e+03 1.628943824768066406e+01 1.284718871116638184e+00 -7.187987648649141192e-06 -2.552906335040461272e-05 -9.815115845412947237e-06 5.710417553927982226e-06
4.665000000000000000e+03 1.774361801147460938e+01 1.416646718978881836e+00 -6.507600573968375102e-06 -2.518898872949648649e-05 -9.508977200312074274e-06 2.965944304378353991e-06
4.666000000000000000e+03 1.408120155334472656e+01 1.187072157859802246e+00 1.410940876667154953e-05 2.709386535570956767e-05 1.236098160006804392e-05 1.570280460327921901e-06
4.667000000000000000e+03 1.410851097106933594e+01 4.475762248039245605e-01 4.249783671639306704e-07 -2.876572034438140690e-05 -8.502222044626250863e-06 5.236432116362266243e-06
4.668000000000000000e+03 1.336430931091308594e+01 4.183164834976196289e-01 1.027442885970231146e-05 2.816800952132325619e-05 1.153273206000449136e-05 4.766037022818636615e-07
4.669000000000000000e+03 1.485382461547851562e+01 4.748390913009643555e-01 7.688435630370804574e-07 3.062354517169296741e-05 9.417716682946775109e-06 -1.286593942495528609e-06
4.670000000000000000e+03 1.555697250366210938e+01 1.239178419113159180e+00 5.995590072416234761e-06 2.822020906023681164e-05 1.026474001264432445e-05 -1.245636894964263774e-06
4.671000000000000000e+03 1.560021686553955078e+01 5.002670884132385254e-01 -5.641603365802438930e-06 -3.011524313478730619e-05 -1.072705435944953933e-05 3.484710759948939085e-06
4.672000000000000000e+03 1.334496879577636719e+01 1.158104777336120605e+00 4.782704309036489576e-06 -2.314126504643354565e-05 -5.507567948370706290e-06 1.394859100400935858e-05
4.673000000000000000e+03 1.481854820251464844e+01 1.214042663574218750e+00 -1.759732754180731717e-06 -2.375098847551271319e-05 -7.653216016478836536e-06 1.017932117974851280e-05
4.674000000000000000e+03 1.111325168609619141e+01 1.138490676879882812e+00 3.820579877356067300e-05 1.917531699291430414e-05 1.721433545753825456e-05 2.680196530491230078e-06
4.675000000000000000e+03 1.186833381652832031e+01 4.020517766475677490e-01 2.269217475259210914e-05 2.428632433293387294e-05 1.409354990755673498e-05 6.387740540958475322e-07
4.676000000000000000e+03 1.037295722961425781e+01 3.924405574798583984e-01 3.548941094777546823e-05 2.064384170807898045e-05 1.683997652435209602e-05 1.033791818372264970e-06
4.677000000000000000e+03 1.260390949249267578e+01 1.143149375915527344e+00 2.403604048595298082e-05 2.339711136301048100e-05 1.422994591848691925e-05 3.028591208931175061e-06
4.678000000000000000e+03 1.261756992340087891e+01 4.032067656517028809e-01 1.136558148573385552e-05 -2.618771941342856735e-05 -4.446641014510532841e-06 5.718350621464196593e-06
4.679000000000000000e+03 1.036947441101074219e+01 1.132432341575622559e+00 2.326922549400478601e-05 -1.963580871233716607e-05 1.090025307348696515e-06 1.274480382562614977e-05
4.680000000000000000e+03 1.185806560516357422e+01 1.142010807991027832e+00 1.543504185974597931e-05 -2.138718446076381952e-05 -1.785642666618514340e-06 1.605949364602565765e-05
4.681000000000000000e+03 1.112012767791748047e+01 3.985152244567871094e-01 2.336108263989444822e-05 -2.239732566522434354e-05 2.891270867166895187e-07 5.581057394010713324e-06
4.682000000000000000e+03 8.771651268005371094e+00 3.881228864192962646e-01 4.389480091049335897e-05 1.869507468654774129e-05 1.877696195151656866e-05 9.015867590278503485e-07
4.683000000000000000e+03 8.818146705627441406e+00 1.128122925758361816e+00 2.811532613122835755e-05 -1.721337866911198944e-05 3.270584329584380612e-06 5.065934146841755137e-06
4.684000000000000000e+03 7.953170776367187500e+00 3.921383917331695557e-01 3.619573180912993848e-05 -2.046457302640192211e-05 4.719347543868934736e-06 -1.541876258670527022e-06
4.685000000000000000e+03 6.319846630096435547e+00 3.892590403556823730e-01 2.821284579113125801e-05 -2.112748734361957759e-05 2.125607807101914659e-06 -4.927186182612786070e-06
4.686000000000000000e+03 5.502897262573242188e+00 3.910058438777923584e-01 2.909232352976687253e-05 1.879239061963744462e-05 1.436541424482129514e-05 -2.166482772736344486e-06
4.687000000000000000e+03 4.685476779937744141e+00 3.909447193145751953e-01 1.312251151830423623e-05 -1.553353104100096971e-05 -7.233057885969174094e-07 -4.007627012470038608e-06
4.688000000000000000e+03 3.050973415374755859e+00 3.907458484172821045e-01 1.296025061492400710e-06 -4.729231932287802920e-06 -1.029962049869936891e-06 1.301990096180816181e-06
4.689000000000000000e+03 2.234469175338745117e+00 3.876248300075531006e-01 -1.221395723405294120e-05 -7.149982593546155840e-06 -5.809181857330258936e-06 -1.711863478703889996e-05
4.690000000000000000e+03 2.538473606109619141e+00 1.127624869346618652e+00 1.773306757968384773e-05 6.787423899368150160e-06 7.356147307291394100e-06 1.621276896912604570e-05
4.691000000000000000e+03 1.768125653266906738e+00 1.127171397209167480e+00 -1.431746750313322991e-05 4.923746473650680855e-06 -2.818116172420559451e-06 -3.623358861659653485e-05
4.692000000000000000e+03 1.067988038063049316e+00 1.148616075515747070e+00 6.169715925352647901e-05 -4.104699110030196607e-05 6.195050445967353880e-06 2.783855416055303067e-05
4.693000000000000000e+03 6.996063590049743652e-01 4.086160361766815186e-01 -1.063810705090872943e-04 -7.974030449986457825e-05 -5.583641177508980036e-05 -8.976564276963472366e-05
4.694000000000000000e+03 3.732481598854064941e-01 9.636608362197875977e-01 1.034237357089295983e-04 6.262071110541000962e-05 4.981333404430188239e-05 5.052339838584885001e-05
4.695000000000000000e+03 3.322789192199707031e+00 1.130745887756347656e+00 1.347164743492612615e-05 -5.082371444586897269e-06 2.516782615202828310e-06 -2.786591176118236035e-05
4.696000000000000000e+03 3.868146419525146484e+00 3.889868557453155518e-01 1.317840633419109508e-05 1.126460119849070907e-05 7.332902441703481600e-06 -4.390274170873453841e-06
4.697000000000000000e+03 5.678146839141845703e+00 1.131005883216857910e+00 2.340686478419229388e-05 -1.137026811193209141e-05 3.610978865253855474e-06 -3.115653953500441276e-06
4.698000000000000000e+03 7.247090816497802734e+00 1.132560849189758301e+00 2.728029176068957895e-05 -1.536321724415756762e-05 3.575122264010133222e-06 -2.462790689605753869e-06
4.699000000000000000e+03 7.136218547821044922e+00 3.925608992576599121e-01 4.200757030048407614e-05 2.012146433116868138e-05 1.863871148088946939e-05 2.078127323557055206e-07
4.700000000000000000e+03 8.031854629516601562e+00 1.132138371467590332e+00 5.184970359550788999e-05 1.093530227080918849e-05 1.883550248749088496e-05 -2.811646481859497726e-06
4.701000000000000000e+03 9.590107917785644531e+00 3.879971206188201904e-01 3.335196379339322448e-05 -1.935517502715811133e-05 4.199036538921063766e-06 2.699699052755022421e-06
4.702000000000000000e+03 9.604414939880371094e+00 1.127997159957885742e+00 4.823341805604286492e-05 1.365476873615989462e-05 1.856645576481241733e-05 1.621563683329441119e-06
4.703000000000000000e+03 6.462907791137695312e+00 1.129258990287780762e+00 4.585055648931302130e-05 9.455319741391576827e-06 1.659176268731243908e-05 -1.032155887514818460e-05
4.704000000000000000e+03 4.892915248870849609e+00 1.130944728851318359e+00 3.290546374046243727e-05 5.945308203081367537e-06 1.165523190138628706e-05 -2.078289799101185054e-05
4.705000000000000000e+03 4.107773303985595703e+00 1.128986835479736328e+00 1.187394445878453553e-05 5.138721803632506635e-07 3.716344963322626427e-06 4.291469849704299122e-06
4.706000000000000000e+03 1.431932568550109863e+00 3.871713578701019287e-01 1.227527718583587557e-05 3.078133522649295628e-05 1.291698299610288814e-05 3.118491440545767546e-05
4.707000000000000000e+03 1.338494110107421875e+01 -3.624081611633300781e-01 5.400846600532531738e-01 5.745865637436509132e-04 1.621977686882019043e-01 1.478952355682849884e-02
4.708000000000000000e+03 1.492772197723388672e+01 -1.047161340713500977e+00 3.436575233936309814e-01 -1.549491658806800842e-02 9.844878315925598145e-02 -2.674783021211624146e-02
4.709000000000000000e+03 1.340428161621093750e+01 -1.102196455001831055e+00 3.750889003276824951e-01 -7.980545051395893097e-03 1.101325079798698425e-01 4.296975210309028625e-03
4.710000000000000000e+03 1.489244556427001953e+01 -3.079577088356018066e-01 5.068186521530151367e-01 -2.233419101685285568e-03 1.513755768537521362e-01 6.316610146313905716e-03
4.711000000000000000e+03 1.568929195404052734e+01 -1.018365263938903809e+00 3.035039007663726807e-01 -1.433026231825351715e-02 8.675209432840347290e-02 -4.577938839793205261e-02
4.712000000000000000e+03 1.564604759216308594e+01 -2.794539332389831543e-01 4.786797165870666504e-01 -1.673688180744647980e-03 1.431018114089965820e-01 1.981656532734632492e-03
4.713000000000000000e+03 1.413872909545898438e+01 -3.356079757213592529e-01 5.271378755569458008e-01 -2.574403537437319756e-03 1.573690474033355713e-01 1.182330958545207977e-02
4.714000000000000000e+03 1.416603755950927734e+01 -1.075103878974914551e+00 3.664886355400085449e-01 -1.267788559198379517e-02 1.061432287096977234e-01 -1.038498431444168091e-02
4.715000000000000000e+03 1.037684440612792969e+01 -3.884835243225097656e-01 4.536210000514984131e-01 -1.322411815635859966e-03 1.356895864009857178e-01 1.899888738989830017e-02
4.716000000000000000e+03 1.189073276519775391e+01 -1.121461629867553711e+00 3.739727735519409180e-01 -5.978458561003208160e-03 1.103982999920845032e-01 3.126955777406692505e-02
4.717000000000000000e+03 1.038032817840576172e+01 -1.128475308418273926e+00 3.394864201545715332e-01 -3.999621141701936722e-03 1.006460338830947876e-01 4.584096744656562805e-02
4.718000000000000000e+03 1.264584636688232422e+01 -1.117530822753906250e+00 3.768134117126464844e-01 -5.821211729198694229e-03 1.112976595759391785e-01 2.083769813179969788e-02
4.719000000000000000e+03 1.188046455383300781e+01 -3.815026283264160156e-01 5.114586353302001953e-01 -1.765470835380256176e-03 1.529079526662826538e-01 1.470084954053163528e-02
4.720000000000000000e+03 1.263218593597412109e+01 -3.775882422924041748e-01 5.345922112464904785e-01 1.047717873007059097e-03 1.606919765472412109e-01 1.372302882373332977e-02
4.721000000000000000e+03 1.112868118286132812e+01 -3.851337432861328125e-01 4.849238395690917969e-01 -3.983679634984582663e-04 1.453576385974884033e-01 1.700634323060512543e-02
4.722000000000000000e+03 1.113555717468261719e+01 -1.125109195709228516e+00 3.592507243156433105e-01 -5.997558590024709702e-03 1.059759482741355896e-01 3.924763575196266174e-02
4.723000000000000000e+03 9.624593734741210938e+00 -1.131355285644531250e+00 3.153205811977386475e-01 -3.245718777179718018e-03 9.362245351076126099e-02 5.129784345626831055e-02
4.724000000000000000e+03 9.636611938476562500e+00 -3.913553059101104736e-01 4.177690148353576660e-01 2.341373765375465155e-04 1.254009455442428589e-01 2.018934302031993866e-02
4.725000000000000000e+03 8.908035278320312500e+00 -3.932945430278778076e-01 3.787178695201873779e-01 -1.186710782349109650e-03 1.132593452930450439e-01 2.112243138253688812e-02
4.726000000000000000e+03 8.179648399353027344e+00 -3.947979807853698730e-01 3.380408287048339844e-01 2.171820669900625944e-04 1.014773994684219360e-01 2.214737050235271454e-02
4.727000000000000000e+03 7.451354026794433594e+00 -3.965992927551269531e-01 2.959811687469482422e-01 -7.303254096768796444e-04 8.857525885105133057e-02 2.259944193065166473e-02
4.728000000000000000e+03 6.723036766052246094e+00 -3.981454968452453613e-01 2.534099519252777100e-01 5.588021595031023026e-04 7.619062066078186035e-02 2.295366488397121429e-02
4.729000000000000000e+03 5.994731426239013672e+00 -3.993945717811584473e-01 2.107533216476440430e-01 -2.106366300722584128e-04 6.316280364990234375e-02 2.254946343600749969e-02
4.730000000000000000e+03 5.266466140747070312e+00 -4.014726877212524414e-01 1.691067665815353394e-01 1.087743905372917652e-03 5.105835199356079102e-02 2.201583236455917358e-02
4.731000000000000000e+03 4.538172721862792969e+00 -4.045463800430297852e-01 1.291260123252868652e-01 1.099005239666439593e-04 3.877077251672744751e-02 2.070894092321395874e-02
4.732000000000000000e+03 3.810027122497558594e+00 -4.076895117759704590e-01 9.195291250944137573e-02 2.018101979047060013e-03 2.819130383431911469e-02 1.929716393351554871e-02
4.733000000000000000e+03 3.082192897796630859e+00 -4.105251729488372803e-01 5.854360759258270264e-02 1.304647652432322502e-03 1.795447617769241333e-02 1.606647670269012451e-02
4.734000000000000000e+03 2.355662584304809570e+00 -4.111475944519042969e-01 3.146629780530929565e-02 3.700989065691828728e-03 1.055018603801727295e-02 1.235066633671522141e-02
4.735000000000000000e+03 1.642585277557373047e+00 -4.047921001911163330e-01 1.206335239112377167e-02 2.390532754361629486e-03 4.336165264248847961e-03 6.308752577751874924e-03
4.736000000000000000e+03 6.508445143699645996e-01 -1.120625138282775879e+00 3.352100262418389320e-03 5.067822523415088654e-03 2.525976859033107758e-03 4.800392314791679382e-03
4.737000000000000000e+03 8.868407249450683594e+00 -1.133294582366943359e+00 2.880793213844299316e-01 -2.240815199911594391e-03 8.575154840946197510e-02 5.523405969142913818e-02
4.738000000000000000e+03 8.112410545349121094e+00 -1.134797930717468262e+00 2.580804824829101562e-01 -1.871988177299499512e-03 7.686255127191543579e-02 5.791838839650154114e-02
4.739000000000000000e+03 7.356505870819091797e+00 -1.136599302291870117e+00 2.268012017011642456e-01 -3.394801751710474491e-04 6.793851405382156372e-02 5.959150940179824829e-02
4.740000000000000000e+03 6.600578308105468750e+00 -1.138145565986633301e+00 1.946920156478881836e-01 1.136374703492037952e-04 5.844169482588768005e-02 5.998241901397705078e-02
4.741000000000000000e+03 5.844663143157958984e+00 -1.139394640922546387e+00 1.631627678871154785e-01 1.848934916779398918e-03 4.950351268053054810e-02 5.917467921972274780e-02
4.742000000000000000e+03 5.088787555694580078e+00 -1.141472697257995605e+00 1.317315846681594849e-01 2.165871672332286835e-03 4.016923904418945312e-02 5.740874633193016052e-02
4.743000000000000000e+03 4.332883834838867188e+00 -1.144546389579772949e+00 1.015600562095642090e-01 4.732607398182153702e-03 3.188779950141906738e-02 5.388480424880981445e-02
4.744000000000000000e+03 3.577128171920776367e+00 -1.147689461708068848e+00 7.402946799993515015e-02 5.262624938040971756e-03 2.378762699663639069e-02 4.860279336571693420e-02
4.745000000000000000e+03 2.821683883666992188e+00 -1.150525212287902832e+00 4.953590780496597290e-02 9.863900952041149139e-03 1.781994290649890900e-02 4.149780794978141785e-02
4.746000000000000000e+03 2.067543268203735352e+00 -1.151147603988647461e+00 2.837240509688854218e-02 1.218045409768819809e-02 1.216585747897624969e-02 2.966651506721973419e-02
4.747000000000000000e+03 1.326855897903442383e+00 -1.144792079925537109e+00 1.344567164778709412e-02 1.230830792337656021e-02 7.726193871349096298e-03 1.680111326277256012e-02
4.748000000000000000e+03 9.941840171813964844e-01 -3.806251585483551025e-01 2.656058408319950104e-03 1.711686491034924984e-03 1.310323481447994709e-03 2.192473271861672401e-03
4.749000000000000000e+03 3.480942845344543457e-01 -5.610816478729248047e-01 4.462592187337577343e-05 2.338105696253478527e-04 8.353094744961708784e-05 1.162529952125623822e-04
4.750000000000000000e+03 2.623828697204589844e+01 -5.017127990722656250e-01 1.332894802093505859e+00 -9.218268678523600101e-04 3.995918929576873779e-01 1.725217550992965698e-01
4.751000000000000000e+03 2.623249626159667969e+01 -4.830971956253051758e-01 1.231466889381408691e+00 -9.887785650789737701e-03 3.664737343788146973e-01 2.787491381168365479e-01
4.752000000000000000e+03 2.622318840026855469e+01 -4.659676551818847656e-01 1.021694421768188477e+00 -1.454980857670307159e-02 3.021433949470520020e-01 3.965372741222381592e-01
4.753000000000000000e+03 2.621071815490722656e+01 -4.509815871715545654e-01 7.684004306793212891e-01 -3.057965077459812164e-02 2.213462442159652710e-01 4.733933508396148682e-01
4.754000000000000000e+03 2.619556617736816406e+01 -4.387140870094299316e-01 5.002173781394958496e-01 -8.655744791030883789e-02 1.240979731082916260e-01 5.172185301780700684e-01
4.755000000000000000e+03 2.617831420898437500e+01 -4.296358823776245117e-01 2.491242587566375732e-01 -1.666094660758972168e-01 2.475443482398986816e-02 5.389006733894348145e-01
4.756000000000000000e+03 2.615962219238281250e+01 -4.240954220294952393e-01 -2.041696337983012199e-03 -2.846655845642089844e-01 -8.601218461990356445e-02 5.720254182815551758e-01
4.757000000000000000e+03 2.614020919799804688e+01 -4.223052561283111572e-01 -2.256223410367965698e-01 -3.899685442447662354e-01 -1.846772730350494385e-01 6.135633587837219238e-01
4.758000000000000000e+03 2.612081909179687500e+01 -4.243341088294982910e-01 -4.815008938312530518e-01 -4.789931774139404297e-01 -2.881482243537902832e-01 6.751077771186828613e-01
4.759000000000000000e+03 2.610219764709472656e+01 -4.301041364669799805e-01 -7.236214876174926758e-01 -5.107839107513427734e-01 -3.703216016292572021e-01 7.318629026412963867e-01
4.760000000000000000e+03 2.608505821228027344e+01 -4.393938779830932617e-01 -9.995516538619995117e-01 -4.965037703514099121e-01 -4.488166272640228271e-01 7.641382217407226562e-01
4.761000000000000000e+03 2.607005882263183594e+01 -4.518468976020812988e-01 -1.248820304870605469e+00 -4.318585395812988281e-01 -5.042036771774291992e-01 7.561148405075073242e-01
4.762000000000000000e+03 2.605777359008789062e+01 -4.669852256774902344e-01 -1.461894035339355469e+00 -3.525846898555755615e-01 -5.443435907363891602e-01 6.981573104858398438e-01
4.763000000000000000e+03 2.604867744445800781e+01 -4.842279851436614990e-01 -1.621391177177429199e+00 -2.863681614398956299e-01 -5.723277926445007324e-01 5.985190272331237793e-01
4.764000000000000000e+03 2.604311561584472656e+01 -5.029134154319763184e-01 -1.698724746704101562e+00 -2.374286651611328125e-01 -5.808460116386413574e-01 4.916064143180847168e-01
4.765000000000000000e+03 2.604130363464355469e+01 -5.223245024681091309e-01 -1.722992658615112305e+00 -2.328525483608245850e-01 -5.867535471916198730e-01 3.940005302429199219e-01
4.766000000000000000e+03 2.604331207275390625e+01 -5.417163372039794922e-01 -1.708846330642700195e+00 -2.402730584144592285e-01 -5.847358107566833496e-01 3.357983231544494629e-01
4.767000000000000000e+03 2.604906082153320312e+01 -5.603447556495666504e-01 -1.696249723434448242e+00 -2.549659609794616699e-01 -5.853646993637084961e-01 3.165312111377716064e-01
4.768000000000000000e+03 2.605833053588867188e+01 -5.774948596954345703e-01 -1.725719213485717773e+00 -2.896052002906799316e-01 -6.045973300933837891e-01 3.301655054092407227e-01
4.769000000000000000e+03 2.607076835632324219e+01 -5.925084948539733887e-01 -1.769860863685607910e+00 -2.789156734943389893e-01 -6.146329641342163086e-01 3.421760201454162598e-01
4.770000000000000000e+03 2.608589172363281250e+01 -6.048095226287841797e-01 -1.919218182563781738e+00 -3.328329622745513916e-01 -6.756153702735900879e-01 3.737829327583312988e-01
4.771000000000000000e+03 2.610312461853027344e+01 -6.139258742332458496e-01 -2.016740560531616211e+00 -3.588790893554687500e-01 -7.126858830451965332e-01 3.793663978576660156e-01
4.772000000000000000e+03 2.612180519104003906e+01 -6.195077300071716309e-01 -2.241025447845458984e+00 -4.572894573211669922e-01 -8.094944357872009277e-01 4.011096060276031494e-01
4.773000000000000000e+03 2.614121246337890625e+01 -6.213409304618835449e-01 -2.393826723098754883e+00 -5.325360894203186035e-01 -8.779088258743286133e-01 4.411397874355316162e-01
4.774000000000000000e+03 2.616060638427734375e+01 -6.193549633026123047e-01 -2.657676696777343750e+00 -6.300989389419555664e-01 -9.863327145576477051e-01 4.864831566810607910e-01
4.775000000000000000e+03 2.617924118041992188e+01 -6.136261820793151855e-01 -2.921173334121704102e+00 -6.579503417015075684e-01 -1.073737144470214844e+00 5.564979314804077148e-01
4.776000000000000000e+03 2.619640159606933594e+01 -6.043744087219238281e-01 -3.236230134963989258e+00 -6.417552232742309570e-01 -1.163395643234252930e+00 5.941120982170104980e-01
4.777000000000000000e+03 2.621142959594726562e+01 -5.919546484947204590e-01 -3.597505092620849609e+00 -5.615022182464599609e-01 -1.247702240943908691e+00 5.794465541839599609e-01
4.778000000000000000e+03 2.622374725341796875e+01 -5.768435597419738770e-01 -3.909060955047607422e+00 -4.109655916690826416e-01 -1.296007990837097168e+00 4.992535710334777832e-01
4.779000000000000000e+03 2.623288345336914062e+01 -5.596209764480590820e-01 -4.208515167236328125e+00 -3.012397885322570801e-01 -1.352926492691040039e+00 3.150827586650848389e-01
4.780000000000000000e+03 2.623848533630371094e+01 -5.409478545188903809e-01 -4.368765830993652344e+00 -1.410342305898666382e-01 -1.352940082550048828e+00 7.234856486320495605e-02
4.781000000000000000e+03 2.624034118652343750e+01 -5.215408205986022949e-01 -4.434612751007080078e+00 -9.577690064907073975e-02 -1.359116911888122559e+00 -2.371240109205245972e-01
