# el_label, x, y, sXX, sYY, sZZ, sXY
1.000000000000000000e+00 7.293046569824218750e+01 -1.631255340576171875e+01 -9.096780419349670410e-01 -2.519215822219848633e+00 -1.028668165206909180e+00 -2.085515022277832031e+00
2.000000000000000000e+00 7.273387145996093750e+01 -1.634365653991699219e+01 1.521531939506530762e+00 9.913651347160339355e-01 7.538691163063049316e-01 9.643316864967346191e-01
3.000000000000000000e+00 7.253727722167968750e+01 -1.637475967407226562e+01 -2.760391123592853546e-02 -2.928894162178039551e-01 -9.614799171686172485e-02 1.369242072105407715e-01
4.000000000000000000e+00 7.234068298339843750e+01 -1.640586090087890625e+01 -5.187112092971801758e-01 2.032104581594467163e-01 -9.465021640062332153e-02 1.937541812658309937e-01
5.000000000000000000e+00 7.294519042968750000e+01 -1.636907005310058594e+01 1.200459289550781250e+01 -1.837946057319641113e+00 3.049993991851806641e+00 3.288837432861328125e+00
6.000000000000000000e+00 7.275840759277343750e+01 -1.643785285949707031e+01 4.751717567443847656e+00 7.774818539619445801e-01 1.658759832382202148e+00 1.931814074516296387e+00
7.000000000000000000e+00 7.257163238525390625e+01 -1.650663566589355469e+01 4.174756526947021484e+00 1.089584708213806152e+00 1.579302310943603516e+00 2.453232288360595703e+00
8.000000000000000000e+00 7.238485717773437500e+01 -1.657541656494140625e+01 2.863633632659912109e+00 5.451858639717102051e-01 1.022645831108093262e+00 1.598733305931091309e+00
9.000000000000000000e+00 7.297063446044921875e+01 -1.642164230346679688e+01 1.539397621154785156e+01 3.827967643737792969e+00 5.766582965850830078e+00 9.878306388854980469e+00
1.000000000000000000e+01 7.280081939697265625e+01 -1.652546882629394531e+01 9.359406471252441406e+00 2.399356126785278320e+00 3.527628898620605469e+00 5.751612186431884766e+00
1.100000000000000000e+01 7.263101196289062500e+01 -1.662929916381835938e+01 6.267250061035156250e+00 2.645744085311889648e+00 2.673898220062255859e+00 4.421288967132568359e+00
1.200000000000000000e+01 7.246119689941406250e+01 -1.673312759399414062e+01 5.358986854553222656e+00 2.430496454238891602e+00 2.336844921112060547e+00 4.087109088897705078e+00
1.300000000000000000e+01 7.300583648681640625e+01 -1.646825218200683594e+01 1.576415348052978516e+01 1.097864437103271484e+01 8.022839546203613281e+00 1.447747802734375000e+01
1.400000000000000000e+01 7.285948181152343750e+01 -1.660315322875976562e+01 1.007499980926513672e+01 6.977518081665039062e+00 5.115755558013916016e+00 9.371719360351562500e+00
1.500000000000000000e+01 7.271312713623046875e+01 -1.673805618286132812e+01 7.839692115783691406e+00 5.649047374725341797e+00 4.046621799468994141e+00 7.294353485107421875e+00
1.600000000000000000e+01 7.256678009033203125e+01 -1.687295722961425781e+01 6.024266242980957031e+00 4.943413734436035156e+00 3.290303945541381836e+00 6.038022041320800781e+00
1.700000000000000000e+01 7.304943084716796875e+01 -1.650711822509765625e+01 1.325917816162109375e+01 1.940657424926757812e+01 9.799725532531738281e+00 1.673387908935546875e+01
1.800000000000000000e+01 7.293213653564453125e+01 -1.666793060302734375e+01 9.484734535217285156e+00 1.270385169982910156e+01 6.656575679779052734e+00 1.174726772308349609e+01
1.900000000000000000e+01 7.281484985351562500e+01 -1.682874298095703125e+01 7.174527168273925781e+00 1.016968059539794922e+01 5.203262329101562500e+00 9.210507392883300781e+00
2.000000000000000000e+01 7.269756317138671875e+01 -1.698955726623535156e+01 5.873521804809570312e+00 8.722285270690917969e+00 4.378742218017578125e+00 7.912326812744140625e+00
2.100000000000000000e+01 7.309975433349609375e+01 -1.653675270080566406e+01 1.032763767242431641e+01 2.754509353637695312e+01 1.136181926727294922e+01 1.649373626708984375e+01
2.200000000000000000e+01 7.301602172851562500e+01 -1.671732330322265625e+01 7.510439395904541016e+00 1.895956230163574219e+01 7.941000938415527344e+00 1.219929027557373047e+01
2.300000000000000000e+01 7.293228149414062500e+01 -1.689789390563964844e+01 5.868494033813476562e+00 1.528385066986083984e+01 6.345703601837158203e+00 1.006821441650390625e+01
2.400000000000000000e+01 7.284854888916015625e+01 -1.707846450805664062e+01 4.679934024810791016e+00 1.316465759277343750e+01 5.353377342224121094e+00 8.506363868713378906e+00
2.500000000000000000e+01 7.315489196777343750e+01 -1.655602455139160156e+01 7.573072910308837891e+00 3.455806350708007812e+01 1.263934135437011719e+01 1.386183357238769531e+01
2.600000000000000000e+01 7.310791015625000000e+01 -1.674944114685058594e+01 5.662947177886962891e+00 2.473937606811523438e+01 9.120697021484375000e+00 1.106504058837890625e+01
2.700000000000000000e+01 7.306092834472656250e+01 -1.694285964965820312e+01 4.181702136993408203e+00 2.020185661315917969e+01 7.315067768096923828e+00 9.264258384704589844e+00
2.800000000000000000e+01 7.301395416259765625e+01 -1.713627624511718750e+01 3.301629543304443359e+00 1.761439514160156250e+01 6.274807453155517578e+00 8.099507331848144531e+00
2.900000000000000000e+01 7.321272277832031250e+01 -1.656419181823730469e+01 6.300782680511474609e+00 3.962504196166992188e+01 1.377774715423583984e+01 9.758475303649902344e+00
3.000000000000000000e+01 7.320429229736328125e+01 -1.676305389404296875e+01 4.299221992492675781e+00 2.932173347473144531e+01 1.008628654479980469e+01 8.434933662414550781e+00
3.100000000000000000e+01 7.319586944580078125e+01 -1.696191787719726562e+01 3.050279855728149414e+00 2.439188385009765625e+01 8.232648849487304688e+00 7.323061466217041016e+00
3.200000000000000000e+01 7.318744659423828125e+01 -1.716077995300292969e+01 2.154249668121337891e+00 2.120943641662597656e+01 7.009106159210205078e+00 6.389053344726562500e+00
3.300000000000000000e+01 7.327103424072265625e+01 -1.656094551086425781e+01 6.623236179351806641e+00 4.231245803833007812e+01 1.468070793151855469e+01 4.958314418792724609e+00
3.400000000000000000e+01 7.330149078369140625e+01 -1.675764274597167969e+01 4.174568176269531250e+00 3.239874267578125000e+01 1.097199249267578125e+01 5.073721885681152344e+00
3.500000000000000000e+01 7.333193969726562500e+01 -1.695433998107910156e+01 2.704170703887939453e+00 2.717978477478027344e+01 8.965187072753906250e+00 4.489010810852050781e+00
3.600000000000000000e+01 7.336238861083984375e+01 -1.715103912353515625e+01 1.807080984115600586e+00 2.395928955078125000e+01 7.729910850524902344e+00 3.982585191726684570e+00
3.700000000000000000e+01 7.332760620117187500e+01 -1.654640769958496094e+01 8.724205017089843750e+00 4.286142349243164062e+01 1.547568893432617188e+01 5.523550510406494141e-01
3.800000000000000000e+01 7.339576721191406250e+01 -1.673341369628906250e+01 5.243004322052001953e+00 3.366638183593750000e+01 1.167281627655029297e+01 1.506409049034118652e+00
3.900000000000000000e+01 7.346392822265625000e+01 -1.692041969299316406e+01 3.517021417617797852e+00 2.861707878112792969e+01 9.640230178833007812e+00 1.476266741752624512e+00
4.000000000000000000e+01 7.353208923339843750e+01 -1.710742568969726562e+01 2.400825977325439453e+00 2.526914215087890625e+01 8.300990104675292969e+00 1.322462081909179688e+00
4.100000000000000000e+01 7.338025665283203125e+01 -1.652113533020019531e+01 1.203325366973876953e+01 4.161958312988281250e+01 1.609585189819335938e+01 -2.838610172271728516e+00
4.200000000000000000e+01 7.348352813720703125e+01 -1.669129180908203125e+01 7.492917537689208984e+00 3.343056869506835938e+01 1.227704620361328125e+01 -1.528955698013305664e+00
4.300000000000000000e+01 7.358678436279296875e+01 -1.686145019531250000e+01 5.334996223449707031e+00 2.858794403076171875e+01 1.017688179016113281e+01 -1.188470244407653809e+00
4.400000000000000000e+01 7.369004821777343750e+01 -1.703160858154296875e+01 3.957175254821777344e+00 2.541857337951660156e+01 8.812725067138671875e+00 -1.096822857856750488e+00
4.500000000000000000e+01 7.342698669433593750e+01 -1.648609352111816406e+01 1.589429378509521484e+01 3.936761856079101562e+01 1.657857322692871094e+01 -4.759902954101562500e+00
4.600000000000000000e+01 7.356140136718750000e+01 -1.663289260864257812e+01 1.054271221160888672e+01 3.199379348754882812e+01 1.276095199584960938e+01 -3.563761949539184570e+00
4.700000000000000000e+01 7.369581604003906250e+01 -1.677968978881835938e+01 7.875750541687011719e+00 2.750193405151367188e+01 1.061330509185791016e+01 -3.046827316284179688e+00
4.800000000000000000e+01 7.383023071289062500e+01 -1.692648887634277344e+01 6.185217380523681641e+00 2.455368614196777344e+01 9.221671104431152344e+00 -2.744442462921142578e+00
4.900000000000000000e+01 7.346599578857421875e+01 -1.644262886047363281e+01 1.972171974182128906e+01 3.681768035888671875e+01 1.696182060241699219e+01 -5.139352798461914062e+00
5.000000000000000000e+01 7.362641906738281250e+01 -1.656044769287109375e+01 1.377507400512695312e+01 2.991198539733886719e+01 1.310611820220947266e+01 -4.359064102172851562e+00
5.100000000000000000e+01 7.378684234619140625e+01 -1.667826843261718750e+01 1.073697948455810547e+01 2.583450126647949219e+01 1.097144412994384766e+01 -3.766272306442260742e+00
5.200000000000000000e+01 7.394726562500000000e+01 -1.679608917236328125e+01 8.687626838684082031e+00 2.302862739562988281e+01 9.514876365661621094e+00 -3.447882652282714844e+00
5.300000000000000000e+01 7.349579620361328125e+01 -1.639239883422851562e+01 2.283600044250488281e+01 3.446346664428710938e+01 1.718984031677246094e+01 -4.237236022949218750e+00
5.400000000000000000e+01 7.367608642578125000e+01 -1.647673225402832031e+01 1.670392990112304688e+01 2.788180351257324219e+01 1.337572002410888672e+01 -3.825998544692993164e+00
5.500000000000000000e+01 7.385637664794921875e+01 -1.656106758117675781e+01 1.329321002960205078e+01 2.400201034545898438e+01 1.118856620788574219e+01 -3.393052339553833008e+00
5.600000000000000000e+01 7.403666687011718750e+01 -1.664540100097656250e+01 1.106045150756835938e+01 2.153285408020019531e+01 9.777991294860839844e+00 -3.104904174804687500e+00
5.700000000000000000e+01 7.351525115966796875e+01 -1.633732795715332031e+01 2.491944694519042969e+01 3.285955810546875000e+01 1.733370208740234375e+01 -2.376235961914062500e+00
5.800000000000000000e+01 7.370851135253906250e+01 -1.638494873046875000e+01 1.874924659729003906e+01 2.629025268554687500e+01 1.351185035705566406e+01 -2.251972675323486328e+00
5.900000000000000000e+01 7.390177154541015625e+01 -1.643256950378417969e+01 1.511456871032714844e+01 2.266296386718750000e+01 1.133325958251953125e+01 -2.055551528930664062e+00
6.000000000000000000e+01 7.409503173828125000e+01 -1.648019027709960938e+01 1.269221973419189453e+01 2.029346656799316406e+01 9.895705223083496094e+00 -1.884081125259399414e+00
6.100000000000000000e+01 7.352361297607421875e+01 -1.627952575683593750e+01 2.572079277038574219e+01 3.215734481811523438e+01 1.736344146728515625e+01 1.909822039306163788e-02
6.200000000000000000e+01 7.372244262695312500e+01 -1.628860855102539062e+01 1.957117843627929688e+01 2.559062576293945312e+01 1.354854106903076172e+01 -6.030362471938133240e-02
6.300000000000000000e+01 7.392127990722656250e+01 -1.629769325256347656e+01 1.583192253112792969e+01 2.209493446350097656e+01 1.137805747985839844e+01 -1.229281648993492126e-01
6.400000000000000000e+01 7.412010955810546875e+01 -1.630677795410156250e+01 1.332449913024902344e+01 1.967647171020507812e+01 9.900290489196777344e+00 -1.278181821107864380e-01
6.500000000000000000e+01 7.352055358886718750e+01 -1.622119903564453125e+01 2.514898872375488281e+01 3.245115280151367188e+01 1.728004264831542969e+01 2.493528842926025391e+00
6.600000000000000000e+01 7.371735382080078125e+01 -1.619140052795410156e+01 1.900671386718750000e+01 2.595219230651855469e+01 1.348767185211181641e+01 2.218092441558837891e+00
6.700000000000000000e+01 7.391415405273437500e+01 -1.616160202026367188e+01 1.531998920440673828e+01 2.239716339111328125e+01 1.131514549255371094e+01 1.915246248245239258e+00
6.800000000000000000e+01 7.411094665527343750e+01 -1.613180160522460938e+01 1.288828182220458984e+01 1.997349739074707031e+01 9.858533859252929688e+00 1.669313430786132812e+00
6.900000000000000000e+01 7.350621032714843750e+01 -1.616458511352539062e+01 2.325353622436523438e+01 3.376817703247070312e+01 1.710651397705078125e+01 4.604443550109863281e+00
7.000000000000000000e+01 7.369343566894531250e+01 -1.609704208374023438e+01 1.711704826354980469e+01 2.723579025268554688e+01 1.330585193634033203e+01 4.032135009765625000e+00
7.100000000000000000e+01 7.388066864013671875e+01 -1.602949905395507812e+01 1.368694782257080078e+01 2.353580474853515625e+01 1.116682529449462891e+01 3.509847164154052734e+00
7.200000000000000000e+01 7.406789398193359375e+01 -1.596195793151855469e+01 1.141082763671875000e+01 2.107444763183593750e+01 9.745582580566406250e+00 3.102561950683593750e+00
7.300000000000000000e+01 7.348110961914062500e+01 -1.611184692382812500e+01 2.016521453857421875e+01 3.584825515747070312e+01 1.680404090881347656e+01 5.904354572296142578e+00
7.400000000000000000e+01 7.365160369873046875e+01 -1.600914573669433594e+01 1.424037265777587891e+01 2.921266174316406250e+01 1.303591060638427734e+01 4.906548976898193359e+00
7.500000000000000000e+01 7.382210540771484375e+01 -1.590644550323486328e+01 1.116027259826660156e+01 2.516968536376953125e+01 1.089898681640625000e+01 4.222337722778320312e+00
7.600000000000000000e+01 7.399259948730468750e+01 -1.580374431610107422e+01 9.191356658935546875e+00 2.261861228942871094e+01 9.542990684509277344e+00 3.770890235900878906e+00
7.700000000000000000e+01 7.344622039794921875e+01 -1.606500434875488281e+01 1.625618553161621094e+01 3.841934585571289062e+01 1.640266036987304688e+01 5.971117019653320312e+00
7.800000000000000000e+01 7.359346008300781250e+01 -1.593107509613037109e+01 1.082609272003173828e+01 3.130819702148437500e+01 1.264028739929199219e+01 4.545481681823730469e+00
7.900000000000000000e+01 7.374070739746093750e+01 -1.579714584350585938e+01 8.210099220275878906e+00 2.695722961425781250e+01 1.055019855499267578e+01 3.810391426086425781e+00
8.000000000000000000e+01 7.388794708251953125e+01 -1.566321659088134766e+01 6.504794120788574219e+00 2.407178497314453125e+01 9.172973632812500000e+00 3.373497962951660156e+00
8.100000000000000000e+01 7.340288543701171875e+01 -1.602585029602050781e+01 1.203647708892822266e+01 4.084824371337890625e+01 1.586541652679443359e+01 4.532729625701904297e+00
8.200000000000000000e+01 7.352123260498046875e+01 -1.586581707000732422e+01 7.473539829254150391e+00 3.301304244995117188e+01 1.214597511291503906e+01 2.878270149230957031e+00
8.300000000000000000e+01 7.363958740234375000e+01 -1.570578479766845703e+01 5.333200931549072266e+00 2.830227279663085938e+01 1.009064197540283203e+01 2.262325048446655273e+00
8.400000000000000000e+01 7.375793457031250000e+01 -1.554575252532958984e+01 3.862838268280029297e+00 2.517752647399902344e+01 8.712109565734863281e+00 1.947589516639709473e+00
8.500000000000000000e+01 7.335275268554687500e+01 -1.599588108062744141e+01 8.197479248046875000e+00 4.253479385375976562e+01 1.521968269348144531e+01 1.533608794212341309e+00
8.600000000000000000e+01 7.343768310546875000e+01 -1.581586933135986328e+01 4.731501579284667969e+00 3.365959167480468750e+01 1.151732730865478516e+01 1.035453304648399353e-01
8.700000000000000000e+01 7.352261352539062500e+01 -1.563585758209228516e+01 3.034155130386352539e+00 2.875581550598144531e+01 9.536991119384765625e+00 -2.021284252405166626e-01
8.800000000000000000e+01 7.360755157470703125e+01 -1.545584678649902344e+01 1.904286026954650879e+00 2.550472068786621094e+01 8.222702026367187500e+00 -2.155954688787460327e-01
8.900000000000000000e+01 7.329774475097656250e+01 -1.597624588012695312e+01 5.344802856445312500e+00 4.257987976074218750e+01 1.437740516662597656e+01 -2.645701169967651367e+00
9.000000000000000000e+01 7.334600830078125000e+01 -1.578314399719238281e+01 3.119249582290649414e+00 3.296082687377929688e+01 1.082402324676513672e+01 -3.402359247207641602e+00
9.100000000000000000e+01 7.339427185058593750e+01 -1.559004211425781250e+01 1.642583250999450684e+00 2.782571029663085938e+01 8.840488433837890625e+00 -3.120902538299560547e+00
9.200000000000000000e+01 7.344252777099609375e+01 -1.539694023132324219e+01 9.309743642807006836e-01 2.462554359436035156e+01 7.666955471038818359e+00 -2.870106458663940430e+00
9.300000000000000000e+01 7.323997497558593750e+01 -1.596769428253173828e+01 4.316038608551025391e+00 4.065837478637695312e+01 1.349232387542724609e+01 -7.486324787139892578e+00
9.400000000000000000e+01 7.324971771240234375e+01 -1.576889228820800781e+01 2.541046380996704102e+00 3.049186706542968750e+01 9.909873962402343750e+00 -6.899227142333984375e+00
9.500000000000000000e+01 7.325945281982421875e+01 -1.557008934020996094e+01 1.598546743392944336e+00 2.552385711669921875e+01 8.136721611022949219e+00 -6.114997863769531250e+00
9.600000000000000000e+01 7.326919555664062500e+01 -1.537128734588623047e+01 6.739345788955688477e-01 2.231944465637207031e+01 6.898013591766357422e+00 -5.431419849395751953e+00
9.700000000000000000e+01 7.318164062500000000e+01 -1.597055435180664062e+01 4.747209072113037109e+00 3.631822967529296875e+01 1.231963253021240234e+01 -1.197657871246337891e+01
9.800000000000000000e+01 7.315248870849609375e+01 -1.577365970611572266e+01 3.479084014892578125e+00 2.648260498046875000e+01 8.988506317138671875e+00 -9.844419479370117188e+00
9.900000000000000000e+01 7.312334442138671875e+01 -1.557676410675048828e+01 2.192275762557983398e+00 2.181648063659667969e+01 7.202627182006835938e+00 -8.484933853149414062e+00
1.000000000000000000e+02 7.309419250488281250e+01 -1.537986946105957031e+01 1.604365229606628418e+00 1.900993919372558594e+01 6.184290885925292969e+00 -7.468903541564941406e+00
1.010000000000000000e+02 7.312497711181640625e+01 -1.598471832275390625e+01 6.959081649780273438e+00 3.004696464538574219e+01 1.110181427001953125e+01 -1.515803146362304688e+01
1.020000000000000000e+02 7.305805206298828125e+01 -1.579726505279541016e+01 4.936732292175292969e+00 2.111500167846679688e+01 7.815520286560058594e+00 -1.165998458862304688e+01
1.030000000000000000e+02 7.299113464355468750e+01 -1.560981178283691406e+01 3.709878921508789062e+00 1.715752983093261719e+01 6.260222434997558594e+00 -9.728467941284179688e+00
1.040000000000000000e+02 7.292420959472656250e+01 -1.542235851287841797e+01 2.709242582321166992e+00 1.488287544250488281e+01 5.277635574340820312e+00 -8.464725494384765625e+00
1.050000000000000000e+02 7.307215118408203125e+01 -1.600964164733886719e+01 9.661863327026367188e+00 2.228568840026855469e+01 9.584265708923339844e+00 -1.637111854553222656e+01
1.060000000000000000e+02 7.297001647949218750e+01 -1.583880329132080078e+01 6.818339347839355469e+00 1.515445327758789062e+01 6.591837882995605469e+00 -1.183092880249023438e+01
1.070000000000000000e+02 7.286788940429687500e+01 -1.566796588897705078e+01 5.060744285583496094e+00 1.206059360504150391e+01 5.136401653289794922e+00 -9.671281814575195312e+00
1.080000000000000000e+02 7.276574707031250000e+01 -1.549712753295898438e+01 4.039915561676025391e+00 1.029893207550048828e+01 4.301654338836669922e+00 -8.182956695556640625e+00
1.090000000000000000e+02 7.302519226074218750e+01 -1.604437065124511719e+01 1.214307403564453125e+01 1.434967708587646484e+01 7.947824954986572266e+00 -1.507682037353515625e+01
1.100000000000000000e+02 7.289175415039062500e+01 -1.589668655395507812e+01 7.936498641967773438e+00 9.135952949523925781e+00 5.121735572814941406e+00 -1.044997787475585938e+01
1.110000000000000000e+02 7.275831604003906250e+01 -1.574900150299072266e+01 5.975002765655517578e+00 7.273562908172607422e+00 3.974569559097290039e+00 -8.075850486755371094e+00
1.120000000000000000e+02 7.262487792968750000e+01 -1.560131645202636719e+01 4.529667854309082031e+00 6.244009494781494141e+00 3.232103109359741211e+00 -6.984801769256591797e+00
1.130000000000000000e+02 7.298590087890625000e+01 -1.608757781982421875e+01 1.300681400299072266e+01 6.834089756011962891e+00 5.952270984649658203e+00 -1.164738845825195312e+01
1.140000000000000000e+02 7.282625579833984375e+01 -1.596869850158691406e+01 7.599142551422119141e+00 4.219871997833251953e+00 3.545704364776611328e+00 -7.399052143096923828e+00
1.150000000000000000e+02 7.266661834716796875e+01 -1.584981822967529297e+01 5.482985019683837891e+00 3.398691892623901367e+00 2.664503097534179688e+00 -5.771851539611816406e+00
1.160000000000000000e+02 7.250698089599609375e+01 -1.573093795776367188e+01 4.104828834533691406e+00 3.242582082748413086e+00 2.204223394393920898e+00 -4.688788890838623047e+00
1.170000000000000000e+02 7.295576477050781250e+01 -1.613760948181152344e+01 1.067787456512451172e+01 1.302970886230468750e+00 3.594253540039062500e+00 -6.589254379272460938e+00
1.180000000000000000e+02 7.277603912353515625e+01 -1.605208396911621094e+01 5.387021064758300781e+00 6.729614138603210449e-01 1.817994713783264160e+00 -3.698812484741210938e+00
1.190000000000000000e+02 7.259630584716796875e+01 -1.596655750274658203e+01 2.910803794860839844e+00 1.338505029678344727e+00 1.274792671203613281e+00 -2.896409988403320312e+00
1.200000000000000000e+02 7.241658020019531250e+01 -1.588103199005126953e+01 2.339564323425292969e+00 1.307231068611145020e+00 1.094038605690002441e+00 -2.744311332702636719e+00
1.210000000000000000e+02 7.293595123291015625e+01 -1.619254875183105469e+01 4.927903175354003906e+00 -2.387682199478149414e+00 7.620662450790405273e-01 -5.084004402160644531e-01
1.220000000000000000e+02 7.274300384521484375e+01 -1.614365005493164062e+01 -5.601667165756225586e-01 -3.372319415211677551e-02 -1.781669706106185913e-01 -6.139563918113708496e-01
1.230000000000000000e+02 7.255006408691406250e+01 -1.609475135803222656e+01 -1.098746731877326965e-01 6.136581301689147949e-01 1.511350423097610474e-01 -1.383260965347290039e+00
1.240000000000000000e+02 7.235712432861328125e+01 -1.604585266113281250e+01 -8.388325572013854980e-01 -8.487289398908615112e-02 -2.771116495132446289e-01 -7.305184006690979004e-01
1.250000000000000000e+02 7.292720031738281250e+01 -1.625029754638671875e+01 -9.979974746704101562e+00 -2.274252176284790039e+00 -3.676268100738525391e+00 2.546539545059204102e+00
1.260000000000000000e+02 7.272843170166015625e+01 -1.623989677429199219e+01 -4.398921012878417969e+00 9.682927131652832031e-01 -1.029188513755798340e+00 -6.534787416458129883e-01
1.270000000000000000e+02 7.252966308593750000e+01 -1.622949600219726562e+01 -4.904812812805175781e+00 -5.276926755905151367e-01 -1.629751563072204590e+00 2.602983638644218445e-02
1.280000000000000000e+02 7.233089447021484375e+01 -1.621909523010253906e+01 -4.710228443145751953e+00 3.068409860134124756e-01 -1.321016192436218262e+00 -1.929261833429336548e-01
1.290000000000000000e+02 7.024084472656250000e+01 -1.717649650573730469e+01 1.867802888154983521e-01 1.134445592761039734e-01 9.006745368242263794e-02 -1.373062431812286377e-01
1.300000000000000000e+02 7.009503173828125000e+01 -1.742148399353027344e+01 4.411303102970123291e-01 2.549353539943695068e-01 2.088196873664855957e-01 1.454788744449615479e-01
1.310000000000000000e+02 6.875246429443359375e+01 -1.695598983764648438e+01 -1.391857862472534180e-01 -2.637285180389881134e-02 -4.966758936643600464e-02 -1.586184948682785034e-01
1.320000000000000000e+02 6.914515686035156250e+01 -1.725556755065917969e+01 -2.296600677073001862e-02 -2.143664807081222534e-01 -7.119974493980407715e-02 -4.244571626186370850e-01
1.330000000000000000e+02 6.960796356201171875e+01 -1.731763839721679688e+01 -4.961309488862752914e-03 -2.035260200500488281e-02 -7.594173308461904526e-03 -3.040288090705871582e-01
1.340000000000000000e+02 7.020742034912109375e+01 -1.700976943969726562e+01 -2.662589848041534424e-01 2.074986696243286133e-01 -1.762808859348297119e-02 -1.898442804813385010e-01
1.350000000000000000e+02 6.999126434326171875e+01 -1.662286376953125000e+01 -1.115067481994628906e+00 3.913396969437599182e-03 -3.333462178707122803e-01 -2.846680879592895508e-01
1.360000000000000000e+02 6.901701354980468750e+01 -1.780079269409179688e+01 6.230446323752403259e-02 -2.433341592550277710e-01 -5.430890619754791260e-02 -2.953750491142272949e-01
1.370000000000000000e+02 7.002378082275390625e+01 -1.785645484924316406e+01 8.219385743141174316e-01 5.338256359100341797e-01 4.067292511463165283e-01 3.437066376209259033e-01
1.380000000000000000e+02 7.012570953369140625e+01 -1.683950996398925781e+01 -5.908139348030090332e-01 1.099310889840126038e-01 -1.442648619413375854e-01 -2.983025312423706055e-01
1.390000000000000000e+02 7.011923980712890625e+01 -1.760471343994140625e+01 7.317343354225158691e-01 1.939484328031539917e-01 2.777048349380493164e-01 2.135819643735885620e-01
1.400000000000000000e+02 6.967095184326171875e+01 -1.691174507141113281e+01 -5.960938930511474609e-01 -1.556213200092315674e-01 -2.255145609378814697e-01 -3.402042090892791748e-01
1.410000000000000000e+02 6.847284698486328125e+01 -1.765516662597656250e+01 1.591869629919528961e-02 -5.679734945297241211e-01 -1.656164377927780151e-01 -1.433137208223342896e-01
1.420000000000000000e+02 6.924289703369140625e+01 -1.683280944824218750e+01 -5.605627894401550293e-01 -7.570560276508331299e-02 -1.908805221319198608e-01 -2.122151404619216919e-01
1.430000000000000000e+02 6.993386840820312500e+01 -1.704734992980957031e+01 -3.714703619480133057e-01 1.581472605466842651e-01 -6.399692595005035400e-02 -2.739734649658203125e-01
1.440000000000000000e+02 6.964028930664062500e+01 -1.770572280883789062e+01 4.082611799240112305e-01 4.799165427684783936e-01 2.664533257484436035e-01 -3.125969693064689636e-02
1.450000000000000000e+02 6.991024017333984375e+01 -1.729599189758300781e+01 6.105651706457138062e-02 3.738590478897094727e-01 1.304746717214584351e-01 -6.187868118286132812e-02
1.460000000000000000e+02 7.009969329833984375e+01 -1.713289451599121094e+01 -1.350614987313747406e-02 2.132354229688644409e-01 5.991878360509872437e-02 -9.734134376049041748e-02
1.470000000000000000e+02 7.007657623291015625e+01 -1.728349494934082031e+01 1.335225850343704224e-01 4.545023664832115173e-02 5.369184538722038269e-02 -8.105621486902236938e-02
1.480000000000000000e+02 7.024686431884765625e+01 -1.734426116943359375e+01 4.655956625938415527e-01 3.264176845550537109e-01 2.376040071249008179e-01 1.206026300787925720e-01
1.490000000000000000e+02 7.161571502685546875e+01 -1.520842838287353516e+01 1.299966216087341309e+00 1.889307379722595215e+00 9.567820429801940918e-01 -2.058495759963989258e+00
1.500000000000000000e+02 7.345298767089843750e+01 -1.516969776153564453e+01 1.834961771965026855e-01 2.181180381774902344e+01 6.598590373992919922e+00 -2.958243131637573242e+00
1.510000000000000000e+02 7.395935821533203125e+01 -1.506764316558837891e+01 1.126118898391723633e+00 2.050997161865234375e+01 6.490827560424804688e+00 9.494376778602600098e-01
1.520000000000000000e+02 7.398181915283203125e+01 -1.707634162902832031e+01 5.112319469451904297e+00 2.228019332885742188e+01 8.217753410339355469e+00 -2.571384191513061523e+00
1.530000000000000000e+02 7.034503173828125000e+01 -1.654462814331054688e+01 -1.464634418487548828e+00 -4.488027095794677734e-02 -4.528544247150421143e-01 -1.509650647640228271e-01
1.540000000000000000e+02 7.031353759765625000e+01 -1.629448509216308594e+01 -3.551558732986450195e+00 -1.853341162204742432e-01 -1.121067881584167480e+00 -2.410100251436233521e-01
1.550000000000000000e+02 7.153045654296875000e+01 -1.621281242370605469e+01 -4.257871150970458984e+00 8.095194399356842041e-02 -1.253075838088989258e+00 -3.694950789213180542e-02
1.560000000000000000e+02 7.173228454589843750e+01 -1.621109008789062500e+01 -4.440300464630126953e+00 -3.950784727931022644e-02 -1.343942523002624512e+00 -8.001232892274856567e-02
1.570000000000000000e+02 7.215908050537109375e+01 -1.599803352355957031e+01 -1.048709869384765625e+00 3.508117198944091797e-01 -2.093694359064102173e-01 -7.944528460502624512e-01
1.580000000000000000e+02 7.213182830810546875e+01 -1.620990562438964844e+01 -4.647060394287109375e+00 -1.830150485038757324e-01 -1.449022650718688965e+00 -8.747218549251556396e-02
1.590000000000000000e+02 7.361476898193359375e+01 -1.516340446472167969e+01 5.157923102378845215e-01 2.231696891784667969e+01 6.849828243255615234e+00 -1.370740890502929688e+00
1.600000000000000000e+02 7.288630676269531250e+01 -1.511770534515380859e+01 1.563580036163330078e+00 1.399482727050781250e+01 4.667521953582763672e+00 -7.022265911102294922e+00
1.610000000000000000e+02 7.307454681396484375e+01 -1.514977264404296875e+01 8.631268739700317383e-01 1.708623695373535156e+01 5.384809017181396484e+00 -6.496600627899169922e+00
1.620000000000000000e+02 7.214376068115234375e+01 -1.643606185913085938e+01 -8.994430303573608398e-01 -4.099671915173530579e-02 -2.821319401264190674e-01 9.193029254674911499e-02
1.630000000000000000e+02 7.386275482177734375e+01 -1.747394561767578125e+01 1.655385255813598633e+00 2.088811492919921875e+01 6.763050079345703125e+00 -4.559316039085388184e-01
1.640000000000000000e+02 7.134643554687500000e+01 -1.650917625427246094e+01 -1.592525243759155273e+00 2.888554148375988007e-02 -4.690919220447540283e-01 -5.211962759494781494e-02
1.650000000000000000e+02 7.143806457519531250e+01 -1.773024368286132812e+01 2.490607976913452148e+00 2.431063175201416016e+00 1.476501345634460449e+00 2.513542890548706055e+00
1.660000000000000000e+02 7.063928222656250000e+01 -1.742495918273925781e+01 1.014565110206604004e+00 7.100760340690612793e-01 5.173923373222351074e-01 5.457010865211486816e-01
1.670000000000000000e+02 7.054686737060546875e+01 -1.653723335266113281e+01 -1.553959131240844727e+00 3.189821168780326843e-02 -4.566182792186737061e-01 -1.528859585523605347e-01
1.680000000000000000e+02 7.047609710693359375e+01 -1.780726814270019531e+01 1.189910292625427246e+00 1.147343277931213379e+00 7.011760473251342773e-01 8.942446112632751465e-01
1.690000000000000000e+02 7.324631500244140625e+01 -1.750509643554687500e+01 1.057541370391845703e+00 1.872605133056640625e+01 5.935077667236328125e+00 4.705749988555908203e+00
1.700000000000000000e+02 7.302059173583984375e+01 -1.771059417724609375e+01 1.283274412155151367e+00 1.486954402923583984e+01 4.845845699310302734e+00 5.536955356597900391e+00
1.710000000000000000e+02 7.066752624511718750e+01 -1.779694747924804688e+01 1.409608483314514160e+00 1.137796759605407715e+00 7.642215490341186523e-01 9.857695102691650391e-01
1.720000000000000000e+02 7.433744812011718750e+01 -1.630389595031738281e+01 1.145252799987792969e+01 1.798938560485839844e+01 8.832573890686035156e+00 -1.238469928503036499e-01
1.730000000000000000e+02 7.422036743164062500e+01 -1.678248786926269531e+01 9.027510643005371094e+00 1.967886924743652344e+01 8.611913681030273438e+00 -2.998821496963500977e+00
1.740000000000000000e+02 7.018327331542968750e+01 -1.503210639953613281e+01 -7.388905882835388184e-01 8.998917937278747559e-01 4.830037429928779602e-02 1.077775061130523682e-01
1.750000000000000000e+02 7.022875213623046875e+01 -1.546128845214843750e+01 -1.145180940628051758e+00 3.436708152294158936e-01 -2.404530495405197144e-01 4.229565560817718506e-01
1.760000000000000000e+02 7.059922027587890625e+01 -1.502328014373779297e+01 -1.868580281734466553e-01 9.719474315643310547e-01 2.355268299579620361e-01 -3.197492063045501709e-01
1.770000000000000000e+02 7.100932312011718750e+01 -1.500967407226562500e+01 5.397058725357055664e-01 1.221501469612121582e+00 5.283622145652770996e-01 -1.039361715316772461e+00
1.780000000000000000e+02 7.141107940673828125e+01 -1.498531055450439453e+01 1.054360747337341309e+00 2.046822309494018555e+00 9.303549528121948242e-01 -1.917888641357421875e+00
1.790000000000000000e+02 7.265948486328125000e+01 -1.490177726745605469e+01 1.734942674636840820e+00 1.033875274658203125e+01 3.622108459472656250e+00 -6.267042636871337891e+00
1.800000000000000000e+02 7.354454040527343750e+01 -1.738397979736328125e+01 1.244466423988342285e+00 2.199914550781250000e+01 6.973083972930908203e+00 1.975344181060791016e+00
1.810000000000000000e+02 7.267827606201171875e+01 -1.745273399353027344e+01 3.260987997055053711e+00 1.065563964843750000e+01 4.174988269805908203e+00 6.694478988647460938e+00
1.820000000000000000e+02 7.227526092529296875e+01 -1.685354423522949219e+01 4.248914241790771484e+00 1.935870170593261719e+00 1.855435252189636230e+00 3.311495542526245117e+00
1.830000000000000000e+02 7.240922546386718750e+01 -1.703045272827148438e+01 5.075591087341308594e+00 4.589040279388427734e+00 2.899389266967773438e+00 5.352428913116455078e+00
1.840000000000000000e+02 7.224906158447265625e+01 -1.772196388244628906e+01 2.900773048400878906e+00 6.576661109924316406e+00 2.843230247497558594e+00 4.963446140289306641e+00
1.850000000000000000e+02 7.078904724121093750e+01 -1.755213356018066406e+01 1.335259914398193359e+00 8.608813881874084473e-01 6.588423848152160645e-01 8.646431565284729004e-01
1.860000000000000000e+02 7.283750152587890625e+01 -1.769230079650878906e+01 1.905283689498901367e+00 1.285183620452880859e+01 4.427135944366455078e+00 5.942983150482177734e+00
1.870000000000000000e+02 7.366751861572265625e+01 -1.728847122192382812e+01 1.926398515701293945e+00 2.308376693725585938e+01 7.503049850463867188e+00 5.794076323509216309e-01
1.880000000000000000e+02 7.411347961425781250e+01 -1.693526077270507812e+01 7.157021999359130859e+00 2.106811904907226562e+01 8.467542648315429688e+00 -3.168065786361694336e+00
1.890000000000000000e+02 7.318564605712890625e+01 -1.734402847290039062e+01 1.602782368659973145e+00 1.942298507690429688e+01 6.307730197906494141e+00 5.717894077301025391e+00
1.900000000000000000e+02 7.174516296386718750e+01 -1.648360824584960938e+01 -1.352401018142700195e+00 2.462472952902317047e-02 -3.983328938484191895e-01 1.080841664224863052e-02
1.910000000000000000e+02 7.206071472167968750e+01 -1.769569778442382812e+01 2.970253705978393555e+00 5.129136085510253906e+00 2.429816961288452148e+00 4.338787555694580078e+00
1.920000000000000000e+02 7.416796875000000000e+01 -1.724544906616210938e+01 4.148458957672119141e+00 2.015114212036132812e+01 7.289880275726318359e+00 -2.501888990402221680e+00
1.930000000000000000e+02 7.297119903564453125e+01 -1.732479095458984375e+01 2.583476066589355469e+00 1.585127353668212891e+01 5.530424594879150391e+00 7.073064327239990234e+00
1.940000000000000000e+02 7.276500701904296875e+01 -1.725770759582519531e+01 3.985540866851806641e+00 1.166278553009033203e+01 4.694498062133789062e+00 7.556629657745361328e+00
1.950000000000000000e+02 7.441279602050781250e+01 -1.695433235168457031e+01 6.791294097900390625e+00 1.821728515625000000e+01 7.502573490142822266e+00 -2.922729730606079102e+00
1.960000000000000000e+02 7.337531280517578125e+01 -1.731994819641113281e+01 1.265040397644042969e+00 2.210070037841796875e+01 7.009721755981445312e+00 3.589465141296386719e+00
1.970000000000000000e+02 7.432766723632812500e+01 -1.611214828491210938e+01 1.106581306457519531e+01 1.824643325805664062e+01 8.793674468994140625e+00 1.434760451316833496e+00
1.980000000000000000e+02 7.361912536621093750e+01 -1.493871784210205078e+01 -3.788776695728302002e-01 2.027010154724121094e+01 5.967367172241210938e+00 -1.816704869270324707e+00
1.990000000000000000e+02 7.232543945312500000e+01 -1.559453582763671875e+01 3.155910730361938477e+00 2.820190668106079102e+00 1.792830348014831543e+00 -4.244961738586425781e+00
2.000000000000000000e+02 7.247158050537109375e+01 -1.543505859375000000e+01 3.764325380325317383e+00 5.538141727447509766e+00 2.790740251541137695e+00 -5.785326957702636719e+00
2.010000000000000000e+02 7.271121215820312500e+01 -1.509836959838867188e+01 2.107379436492919922e+00 1.069728660583496094e+01 3.841399908065795898e+00 -6.721847057342529297e+00
2.020000000000000000e+02 7.326583862304687500e+01 -1.514922714233398438e+01 3.208521604537963867e-01 2.001224708557128906e+01 6.099929809570312500e+00 -5.019867420196533203e+00
2.030000000000000000e+02 7.432849884033203125e+01 -1.544713592529296875e+01 4.868479728698730469e+00 1.916874504089355469e+01 7.211167812347412109e+00 3.019318819046020508e+00
2.040000000000000000e+02 7.193225097656250000e+01 -1.620571327209472656e+01 -4.543464183807373047e+00 1.050179824233055115e-01 -1.331533908843994141e+00 -1.315433233976364136e-01
2.050000000000000000e+02 7.264800262451171875e+01 -1.533168792724609375e+01 3.251786947250366211e+00 9.186308860778808594e+00 3.731428623199462891e+00 -7.234530448913574219e+00
2.060000000000000000e+02 7.390713500976562500e+01 -1.524093914031982422e+01 1.964626550674438477e+00 2.197726821899414062e+01 7.182568550109863281e+00 1.234075188636779785e+00
2.070000000000000000e+02 7.379256439208984375e+01 -1.498875141143798828e+01 3.223694562911987305e-01 2.072394371032714844e+01 6.313893795013427734e+00 -2.623495459556579590e-01
2.080000000000000000e+02 7.370470428466796875e+01 -1.755992889404296875e+01 8.885703086853027344e-01 2.088552856445312500e+01 6.532229423522949219e+00 7.934232950210571289e-01
2.090000000000000000e+02 7.382986450195312500e+01 -1.719563865661621094e+01 3.227797269821166992e+00 2.312133979797363281e+01 7.904740810394287109e+00 -1.240887880325317383e+00
2.100000000000000000e+02 7.451177215576171875e+01 -1.680877685546875000e+01 7.869498252868652344e+00 1.747169113159179688e+01 7.602356910705566406e+00 -2.648082256317138672e+00
2.110000000000000000e+02 7.458073425292968750e+01 -1.647826576232910156e+01 9.305366516113281250e+00 1.633971023559570312e+01 7.693522930145263672e+00 -1.056032896041870117e+00
2.120000000000000000e+02 7.458869171142578125e+01 -1.629101943969726562e+01 9.684055328369140625e+00 1.629262733459472656e+01 7.793004512786865234e+00 -3.421480301767587662e-03
2.130000000000000000e+02 7.444601440429687500e+01 -1.558980178833007812e+01 6.554611206054687500e+00 1.863370895385742188e+01 7.556496143341064453e+00 3.095592260360717773e+00
2.140000000000000000e+02 7.430012512207031250e+01 -1.710406494140625000e+01 5.608210563659667969e+00 1.924380302429199219e+01 7.455604076385498047e+00 -2.963241815567016602e+00
2.150000000000000000e+02 7.457888793945312500e+01 -1.609871864318847656e+01 9.395462036132812500e+00 1.649280357360839844e+01 7.766479969024658203e+00 1.074606657028198242e+00
2.160000000000000000e+02 7.432324218750000000e+01 -1.648989105224609375e+01 1.096596145629882812e+01 1.826698493957519531e+01 8.769884109497070312e+00 -1.585083246231079102e+00
2.170000000000000000e+02 7.451789093017578125e+01 -1.573944759368896484e+01 7.905020713806152344e+00 1.771948242187500000e+01 7.687351226806640625e+00 2.664773464202880859e+00
2.180000000000000000e+02 7.385169982910156250e+01 -1.539595699310302734e+01 2.902138710021972656e+00 2.332236480712890625e+01 7.867351055145263672e+00 1.728687882423400879e+00
2.190000000000000000e+02 7.369776916503906250e+01 -1.530985260009765625e+01 1.373025894165039062e+00 2.353364562988281250e+01 7.472001552581787109e+00 -1.395997256040573120e-01
2.200000000000000000e+02 7.325131988525390625e+01 -1.489790344238281250e+01 -2.014394104480743408e-01 1.762028312683105469e+01 5.225653171539306641e+00 -4.535750865936279297e+00
2.210000000000000000e+02 7.335289001464843750e+01 -1.766733360290527344e+01 6.173322796821594238e-01 1.825936698913574219e+01 5.663009643554687500e+00 3.509855747222900391e+00
2.220000000000000000e+02 7.305686950683593750e+01 -1.489572525024414062e+01 3.624581098556518555e-01 1.563475131988525391e+01 4.799162864685058594e+00 -5.630407333374023438e+00
2.230000000000000000e+02 7.137520599365234375e+01 -1.677654647827148438e+01 1.248389109969139099e-01 1.879443228244781494e-01 9.383496642112731934e-02 3.705194592475891113e-01
2.240000000000000000e+02 7.114665985107421875e+01 -1.651545524597167969e+01 -1.663082957267761230e+00 -4.429775755852460861e-03 -5.002537965774536133e-01 -7.489918172359466553e-02
2.250000000000000000e+02 7.039910125732421875e+01 -1.697756958007812500e+01 -1.530546545982360840e-01 8.952943980693817139e-02 -1.905756630003452301e-02 -1.738956272602081299e-01
2.260000000000000000e+02 7.121071624755859375e+01 -1.499825096130371094e+01 7.006576657295227051e-01 1.412267088890075684e+00 6.338773965835571289e-01 -1.328445315361022949e+00
2.270000000000000000e+02 7.110761260986328125e+01 -1.619304275512695312e+01 -3.934673309326171875e+00 7.767868787050247192e-02 -1.157098412513732910e+00 -4.672991484403610229e-02
2.280000000000000000e+02 7.028698730468750000e+01 -1.608701896667480469e+01 -2.391809940338134766e+00 -1.375917196273803711e-01 -7.588205337524414062e-01 3.281241953372955322e-01
2.290000000000000000e+02 7.070347595214843750e+01 -1.626834106445312500e+01 -3.696047782897949219e+00 1.161179542541503906e-01 -1.073978900909423828e+00 -1.368476748466491699e-01
2.300000000000000000e+02 7.222469329833984375e+01 -1.579356479644775391e+01 1.536945700645446777e+00 8.200790286064147949e-01 7.071074247360229492e-01 -2.064176321029663086e+00
2.310000000000000000e+02 7.194641876220703125e+01 -1.595552253723144531e+01 -1.404095172882080078e+00 6.899595260620117188e-02 -4.005297720432281494e-01 -4.587422907352447510e-01
2.320000000000000000e+02 7.104802703857421875e+01 -1.527199745178222656e+01 5.736000090837478638e-02 7.507253289222717285e-01 2.424255907535552979e-01 -5.946292281150817871e-01
2.330000000000000000e+02 7.204096984863281250e+01 -1.498175621032714844e+01 2.072151422500610352e+00 4.356271266937255859e+00 1.928526759147644043e+00 -4.055380344390869141e+00
2.340000000000000000e+02 7.161257934570312500e+01 -1.497569656372070312e+01 1.433559298515319824e+00 2.424507856369018555e+00 1.157420158386230469e+00 -2.531268596649169922e+00
2.350000000000000000e+02 7.225523376464843750e+01 -1.495196819305419922e+01 2.194660425186157227e+00 6.263959407806396484e+00 2.537585973739624023e+00 -5.077854156494140625e+00
2.360000000000000000e+02 7.194652557373046875e+01 -1.537325668334960938e+01 1.941349029541015625e+00 2.195518016815185547e+00 1.241060137748718262e+00 -2.807774305343627930e+00
2.370000000000000000e+02 7.245864105224609375e+01 -1.492361164093017578e+01 1.969002723693847656e+00 7.952904701232910156e+00 2.976572275161743164e+00 -5.825329780578613281e+00
2.380000000000000000e+02 7.285951995849609375e+01 -1.489522266387939453e+01 9.399001002311706543e-01 1.339180469512939453e+01 4.299511432647705078e+00 -6.137562274932861328e+00
2.390000000000000000e+02 7.084398651123046875e+01 -1.527328300476074219e+01 -2.207348197698593140e-01 7.025686502456665039e-01 1.445501446723937988e-01 -3.636646270751953125e-01
2.400000000000000000e+02 7.253515625000000000e+01 -1.514665699005126953e+01 2.783376216888427734e+00 8.285160064697265625e+00 3.320560932159423828e+00 -6.369340419769287109e+00
2.410000000000000000e+02 7.042233276367187500e+01 -1.719210433959960938e+01 2.994531989097595215e-01 3.108128905296325684e-01 1.830798238515853882e-01 4.253778979182243347e-02
2.420000000000000000e+02 7.074672698974609375e+01 -1.652924346923828125e+01 -1.626674771308898926e+00 -4.716976359486579895e-02 -5.021533370018005371e-01 -1.399850547313690186e-01
2.430000000000000000e+02 7.061550140380859375e+01 -1.699282836914062500e+01 -4.912609700113534927e-03 1.746596246957778931e-01 5.092410743236541748e-02 2.814011462032794952e-02
2.440000000000000000e+02 7.044725799560546875e+01 -1.568894481658935547e+01 -1.469717860221862793e+00 1.613436192274093628e-01 -3.925122618675231934e-01 3.332082927227020264e-01
2.450000000000000000e+02 7.089862823486328125e+01 -1.622324562072753906e+01 -3.817482948303222656e+00 -1.559554785490036011e-01 -1.192031502723693848e+00 -4.878982156515121460e-02
2.460000000000000000e+02 7.039172363281250000e+01 -1.502743148803710938e+01 -3.223329484462738037e-01 6.902359127998352051e-01 1.103708967566490173e-01 3.698672354221343994e-02
2.470000000000000000e+02 7.065435791015625000e+01 -1.572531700134277344e+01 -1.566071271896362305e+00 1.834248155355453491e-01 -4.147939085960388184e-01 2.605105042457580566e-01
2.480000000000000000e+02 7.262878417968750000e+01 -1.767911338806152344e+01 2.504169702529907227e+00 1.048881435394287109e+01 3.897895097732543945e+00 5.980785369873046875e+00
2.490000000000000000e+02 7.290422821044921875e+01 -1.750597190856933594e+01 2.206400632858276367e+00 1.438461685180664062e+01 4.977305412292480469e+00 6.485856056213378906e+00
2.500000000000000000e+02 7.227542877197265625e+01 -1.723757553100585938e+01 4.283590793609619141e+00 4.447927951812744141e+00 2.619455575942993164e+00 4.942109107971191406e+00
2.510000000000000000e+02 7.242753601074218750e+01 -1.770352554321289062e+01 2.933467626571655273e+00 8.182001113891601562e+00 3.334640502929687500e+00 5.705492496490478516e+00
2.520000000000000000e+02 7.125269317626953125e+01 -1.774675941467285156e+01 2.184005260467529297e+00 1.981043100357055664e+00 1.249514460563659668e+00 2.088495492935180664e+00
2.530000000000000000e+02 7.163381195068359375e+01 -1.769370841979980469e+01 2.787442445755004883e+00 2.965609788894653320e+00 1.725915670394897461e+00 3.059813022613525391e+00
2.540000000000000000e+02 7.097000885009765625e+01 -1.747730636596679688e+01 1.583073019981384277e+00 9.217650890350341797e-01 7.514514327049255371e-01 1.062865018844604492e+00
2.550000000000000000e+02 7.117321014404296875e+01 -1.676526069641113281e+01 -2.349535673856735229e-01 1.912230849266052246e-01 -1.311914622783660889e-02 1.385957896709442139e-01
2.560000000000000000e+02 7.138063812255859375e+01 -1.705966377258300781e+01 1.428206205368041992e+00 6.558008790016174316e-01 6.252021193504333496e-01 9.960058927536010742e-01
2.570000000000000000e+02 7.155061340332031250e+01 -1.596873092651367188e+01 -2.373650550842285156e+00 9.110509417951107025e-04 -7.118218541145324707e-01 -1.674283742904663086e-01
2.580000000000000000e+02 7.050874328613281250e+01 -1.628591728210449219e+01 -3.605834007263183594e+00 -5.484767258167266846e-02 -1.098204493522644043e+00 -3.530016914010047913e-02
2.590000000000000000e+02 7.064847564697265625e+01 -1.607265472412109375e+01 -3.083043575286865234e+00 -3.105858713388442993e-02 -9.342306256294250488e-01 2.952787578105926514e-01
2.600000000000000000e+02 7.020806121826171875e+01 -1.524778461456298828e+01 -8.240482211112976074e-01 4.702835679054260254e-01 -1.061294004321098328e-01 5.171072483062744141e-01
2.610000000000000000e+02 7.109607696533203125e+01 -1.555117416381835938e+01 -5.794980525970458984e-01 4.526038467884063721e-01 -3.806825354695320129e-02 -3.374651074409484863e-01
2.620000000000000000e+02 7.166139984130859375e+01 -1.540739727020263672e+01 8.566963076591491699e-01 1.154328227043151855e+00 6.033073663711547852e-01 -1.601813435554504395e+00
2.630000000000000000e+02 7.063175201416015625e+01 -1.760000991821289062e+01 1.154102325439453125e+00 9.001154303550720215e-01 6.162653565406799316e-01 8.190708160400390625e-01
2.640000000000000000e+02 7.024649047851562500e+01 -1.567171192169189453e+01 -1.396242260932922363e+00 2.137973457574844360e-01 -3.547334671020507812e-01 6.258313655853271484e-01
2.650000000000000000e+02 7.219276428222656250e+01 -1.664504051208496094e+01 2.211342334747314453e+00 5.966483950614929199e-01 8.423972129821777344e-01 1.460375547409057617e+00
2.660000000000000000e+02 7.246691894531250000e+01 -1.736170387268066406e+01 4.025750637054443359e+00 7.499466419219970703e+00 3.457565069198608398e+00 6.173469543457031250e+00
2.670000000000000000e+02 7.201133728027343750e+01 -1.570978832244873047e+01 9.196417331695556641e-01 9.536160230636596680e-01 5.619773268699645996e-01 -1.822321772575378418e+00
2.680000000000000000e+02 7.205908203125000000e+01 -1.694692230224609375e+01 3.490914106369018555e+00 1.692123055458068848e+00 1.554911136627197266e+00 2.754737138748168945e+00
2.690000000000000000e+02 7.162022399902343750e+01 -1.738196182250976562e+01 2.681795358657836914e+00 1.880099654197692871e+00 1.368568539619445801e+00 2.374848842620849609e+00
2.700000000000000000e+02 7.138459014892578125e+01 -1.734784317016601562e+01 2.065588474273681641e+00 1.242295980453491211e+00 9.923653602600097656e-01 1.670653223991394043e+00
2.710000000000000000e+02 7.183380889892578125e+01 -1.702102470397949219e+01 2.625792026519775391e+00 1.192022919654846191e+00 1.145344495773315430e+00 2.036823511123657227e+00
2.720000000000000000e+02 7.157881927490234375e+01 -1.677310562133789062e+01 5.777779221534729004e-01 2.514481544494628906e-01 2.487678229808807373e-01 5.773510336875915527e-01
2.730000000000000000e+02 7.099720001220703125e+01 -1.697787284851074219e+01 2.515814602375030518e-01 2.707949876785278320e-01 1.567129343748092651e-01 2.511933743953704834e-01
2.740000000000000000e+02 7.147936248779296875e+01 -1.546149826049804688e+01 4.870518147945404053e-01 9.212448596954345703e-01 4.224890172481536865e-01 -1.200359225273132324e+00
2.750000000000000000e+02 7.143869781494140625e+01 -1.566761493682861328e+01 -3.084127604961395264e-01 3.985694050788879395e-01 2.704700082540512085e-02 -5.109395980834960938e-01
2.760000000000000000e+02 7.057961273193359375e+01 -1.676271629333496094e+01 -7.756705880165100098e-01 2.494658343493938446e-02 -2.252172082662582397e-01 -1.581059396266937256e-01
2.770000000000000000e+02 7.129517364501953125e+01 -1.550642108917236328e+01 -3.057238757610321045e-01 4.288668632507324219e-01 3.694289550185203552e-02 -5.818421244621276855e-01
2.780000000000000000e+02 7.208753204345703125e+01 -1.717168235778808594e+01 3.706681013107299805e+00 3.015230417251586914e+00 2.016573429107666016e+00 3.729608058929443359e+00
2.790000000000000000e+02 7.065470123291015625e+01 -1.550225925445556641e+01 -1.027370572090148926e+00 3.623534440994262695e-01 -1.995051205158233643e-01 1.419575512409210205e-01
2.800000000000000000e+02 7.042034912109375000e+01 -1.525486087799072266e+01 -7.352711558341979980e-01 6.245237588882446289e-01 -3.322421014308929443e-02 1.293399631977081299e-01
2.810000000000000000e+02 7.087400054931640625e+01 -1.553267860412597656e+01 -8.153147101402282715e-01 2.610411643981933594e-01 -1.662820726633071899e-01 2.572990255430340767e-03
2.820000000000000000e+02 7.080570220947265625e+01 -1.501823425292968750e+01 1.639280468225479126e-01 1.026174187660217285e+00 3.570306897163391113e-01 -6.018755435943603516e-01
2.830000000000000000e+02 7.063272094726562500e+01 -1.526484394073486328e+01 -4.220045208930969238e-01 5.357686281204223633e-01 3.412923589348793030e-02 1.136253774166107178e-02
2.840000000000000000e+02 7.124395751953125000e+01 -1.525420188903808594e+01 5.514073967933654785e-01 1.004322528839111328e+00 4.667190015316009521e-01 -1.049388051033020020e+00
2.850000000000000000e+02 7.178878021240234375e+01 -1.524123001098632812e+01 1.741394400596618652e+00 2.051233530044555664e+00 1.137788414955139160e+00 -2.627845287322998047e+00
2.860000000000000000e+02 7.182191467285156250e+01 -1.498495388031005859e+01 1.970000624656677246e+00 3.135031938552856445e+00 1.531509757041931152e+00 -3.309518337249755859e+00
2.870000000000000000e+02 7.233625793457031250e+01 -1.521512603759765625e+01 2.786767721176147461e+00 5.526639461517333984e+00 2.494022130966186523e+00 -5.288377285003662109e+00
2.880000000000000000e+02 7.343975830078125000e+01 -1.491180801391601562e+01 -3.908373415470123291e-01 1.918284797668457031e+01 5.637603282928466797e+00 -3.198733568191528320e+00
2.890000000000000000e+02 7.375718688964843750e+01 -1.517033767700195312e+01 9.937935471534729004e-01 2.184738731384277344e+01 6.852354049682617188e+00 -3.393682837486267090e-02
2.900000000000000000e+02 7.406822967529296875e+01 -1.531813907623291016e+01 3.254371404647827148e+00 2.112696075439453125e+01 7.314399719238281250e+00 2.369988203048706055e+00
2.910000000000000000e+02 7.411084747314453125e+01 -1.515869712829589844e+01 1.981333017349243164e+00 2.021355819702148438e+01 6.658467769622802734e+00 1.828200578689575195e+00
2.920000000000000000e+02 7.422411346435546875e+01 -1.528749942779541016e+01 3.541216135025024414e+00 1.987736701965332031e+01 7.025575160980224609e+00 2.711276769638061523e+00
2.930000000000000000e+02 7.401419830322265625e+01 -1.550281333923339844e+01 4.940727233886718750e+00 2.213336181640625000e+01 8.122226715087890625e+00 2.939004182815551758e+00
2.940000000000000000e+02 7.026444244384765625e+01 -1.587975406646728516e+01 -1.908797025680541992e+00 1.009793579578399658e-01 -5.423452854156494141e-01 4.109875559806823730e-01
2.950000000000000000e+02 7.047302246093750000e+01 -1.608461952209472656e+01 -2.822495222091674805e+00 -1.713754422962665558e-02 -8.518897891044616699e-01 1.011096965521574020e-02
2.960000000000000000e+02 7.045205688476562500e+01 -1.588911247253417969e+01 -1.960541725158691406e+00 1.352319866418838501e-02 -5.841055512428283691e-01 4.693075716495513916e-01
2.970000000000000000e+02 7.037197113037109375e+01 -1.676041793823242188e+01 -8.041396737098693848e-01 -2.735388465225696564e-03 -2.420625239610671997e-01 -1.727666407823562622e-01
2.980000000000000000e+02 7.043554687500000000e+01 -1.739740943908691406e+01 7.237775325775146484e-01 3.028928935527801514e-01 3.080011308193206787e-01 1.336983591318130493e-01
2.990000000000000000e+02 7.045128631591796875e+01 -1.760037994384765625e+01 9.174231290817260742e-01 8.966006040573120117e-01 5.442070960998535156e-01 4.767038226127624512e-01
3.000000000000000000e+02 7.065079498291015625e+01 -1.722626686096191406e+01 6.527736186981201172e-01 3.264394402503967285e-01 2.937639057636260986e-01 2.429291903972625732e-01
3.010000000000000000e+02 7.094669342041015625e+01 -1.652163124084472656e+01 -1.669066190719604492e+00 5.288952589035034180e-02 -4.848529994487762451e-01 -1.320185661315917969e-01
3.020000000000000000e+02 7.077923583984375000e+01 -1.676076698303222656e+01 -6.981176137924194336e-01 8.096082508563995361e-02 -1.851470321416854858e-01 -6.039760634303092957e-02
3.030000000000000000e+02 7.097549438476562500e+01 -1.675790405273437500e+01 -5.073786377906799316e-01 6.012392044067382812e-02 -1.341764181852340698e-01 2.694286219775676727e-02
3.040000000000000000e+02 7.085659027099609375e+01 -1.777502822875976562e+01 1.634913086891174316e+00 1.212689399719238281e+00 8.542807698249816895e-01 1.324685096740722656e+00
3.050000000000000000e+02 7.105272674560546875e+01 -1.774465751647949219e+01 1.908727526664733887e+00 1.609658002853393555e+00 1.055515646934509277e+00 1.640037655830383301e+00
3.060000000000000000e+02 7.131723785400390625e+01 -1.755591964721679688e+01 2.361394166946411133e+00 1.739460945129394531e+00 1.230256557464599609e+00 1.986005187034606934e+00
3.070000000000000000e+02 7.154568481445312500e+01 -1.649913978576660156e+01 -1.491905331611633301e+00 1.219801418483257294e-02 -4.439122080802917480e-01 -1.736113987863063812e-02
3.080000000000000000e+02 7.178379058837890625e+01 -1.674699592590332031e+01 1.069390058517456055e+00 3.919506669044494629e-01 4.384022355079650879e-01 8.434932827949523926e-01
3.090000000000000000e+02 7.199089050292968750e+01 -1.670397186279296875e+01 1.624685049057006836e+00 4.360960423946380615e-01 6.182343363761901855e-01 1.117758393287658691e+00
3.100000000000000000e+02 7.194517517089843750e+01 -1.646250152587890625e+01 -1.161460638046264648e+00 5.976373329758644104e-02 -3.305090665817260742e-01 6.631217151880264282e-02
3.110000000000000000e+02 7.184996795654296875e+01 -1.768595504760742188e+01 2.992981910705566406e+00 3.740696668624877930e+00 2.020103693008422852e+00 3.715304613113403320e+00
3.120000000000000000e+02 7.429415130615234375e+01 -1.592835330963134766e+01 9.920525550842285156e+00 1.897870826721191406e+01 8.669770240783691406e+00 2.684024810791015625e+00
3.130000000000000000e+02 7.455145263671875000e+01 -1.591302490234375000e+01 8.508712768554687500e+00 1.690049743652343750e+01 7.622763156890869141e+00 2.010963439941406250e+00
3.140000000000000000e+02 7.431638336181640625e+01 -1.574256324768066406e+01 8.086075782775878906e+00 1.912096023559570312e+01 8.162110328674316406e+00 3.077145576477050781e+00
3.150000000000000000e+02 7.436683654785156250e+01 -1.667021942138671875e+01 9.455047607421875000e+00 1.834683609008789062e+01 8.340564727783203125e+00 -2.307594537734985352e+00
3.160000000000000000e+02 7.456620788574218750e+01 -1.665388679504394531e+01 8.952032089233398438e+00 1.666826057434082031e+01 7.686087608337402344e+00 -1.871016502380371094e+00
3.170000000000000000e+02 7.401944732666015625e+01 -1.736992073059082031e+01 2.806771755218505859e+00 2.073084068298339844e+01 7.061284065246582031e+00 -1.605448365211486816e+00
3.180000000000000000e+02 7.353575134277343750e+01 -1.762465667724609375e+01 5.472032427787780762e-01 1.977115058898925781e+01 6.095506191253662109e+00 2.374138355255126953e+00
3.190000000000000000e+02 7.308699035644531250e+01 -1.758459854125976562e+01 1.342303752899169922e+00 1.648267173767089844e+01 5.347492694854736328e+00 5.520565032958984375e+00
3.200000000000000000e+02 7.318189239501953125e+01 -1.770302772521972656e+01 6.973671317100524902e-01 1.719159889221191406e+01 5.366689682006835938e+00 4.536987781524658203e+00
3.210000000000000000e+02 7.110603332519531250e+01 -1.586055564880371094e+01 -1.924138426780700684e+00 7.575691491365432739e-02 -5.545144677162170410e-01 6.518777459859848022e-02
3.220000000000000000e+02 7.134384155273437500e+01 -1.590629196166992188e+01 -2.198167324066162109e+00 1.089625507593154907e-01 -6.267614364624023438e-01 -6.473582983016967773e-02
3.230000000000000000e+02 7.132367706298828125e+01 -1.620232963562011719e+01 -4.081801414489746094e+00 -8.197101950645446777e-02 -1.249131679534912109e+00 -3.796232864260673523e-02
3.240000000000000000e+02 7.212099456787109375e+01 -1.548962688446044922e+01 2.582899570465087891e+00 2.420378684997558594e+00 1.500983595848083496e+00 -3.315097808837890625e+00
3.250000000000000000e+02 7.200842285156250000e+01 -1.735180854797363281e+01 3.763403654098510742e+00 3.605518102645874023e+00 2.210676431655883789e+00 4.032322883605957031e+00
3.260000000000000000e+02 7.184067535400390625e+01 -1.740684127807617188e+01 3.333106517791748047e+00 2.730088233947753906e+00 1.818958401679992676e+00 3.320473909378051758e+00
3.270000000000000000e+02 7.258057403564453125e+01 -1.716035842895507812e+01 4.891995429992675781e+00 7.966583251953125000e+00 3.857573509216308594e+00 6.870030879974365234e+00
3.280000000000000000e+02 7.233681488037109375e+01 -1.754841804504394531e+01 3.356980562210083008e+00 6.901186943054199219e+00 3.077450275421142578e+00 5.419373989105224609e+00
3.290000000000000000e+02 7.215274047851562500e+01 -1.745806884765625000e+01 3.678434610366821289e+00 4.820055961608886719e+00 2.549547195434570312e+00 4.633233070373535156e+00
3.300000000000000000e+02 7.281390380859375000e+01 -1.525831985473632812e+01 2.470690965652465820e+00 1.273315429687500000e+01 4.561153411865234375e+00 -7.542597770690917969e+00
3.310000000000000000e+02 7.342539978027343750e+01 -1.746158599853515625e+01 9.370083808898925781e-01 2.055149650573730469e+01 6.446551322937011719e+00 3.137423753738403320e+00
3.320000000000000000e+02 7.415506744384765625e+01 -1.563813591003417969e+01 7.107062816619873047e+00 2.074836730957031250e+01 8.356629371643066406e+00 3.371338605880737305e+00
3.330000000000000000e+02 7.081690979003906250e+01 -1.699421310424804688e+01 1.736866235733032227e-01 1.621180027723312378e-01 1.007413864135742188e-01 1.144412755966186523e-01
3.340000000000000000e+02 7.043920135498046875e+01 -1.547713756561279297e+01 -1.031788945198059082e+00 3.416849672794342041e-01 -2.070311903953552246e-01 4.130458235740661621e-01
3.350000000000000000e+02 7.180476379394531250e+01 -1.558573341369628906e+01 9.177250266075134277e-01 9.254183769226074219e-01 5.529430508613586426e-01 -1.547787308692932129e+00
3.360000000000000000e+02 7.117285156250000000e+01 -1.700784492492675781e+01 7.818746566772460938e-01 4.060740768909454346e-01 3.563846349716186523e-01 6.090265512466430664e-01
3.370000000000000000e+02 7.161074829101562500e+01 -1.707034683227539062e+01 2.067931652069091797e+00 9.736693501472473145e-01 9.124802947044372559e-01 1.581000208854675293e+00
3.380000000000000000e+02 7.211925506591796875e+01 -1.526050567626953125e+01 2.720544576644897461e+00 3.576808214187622070e+00 1.889205813407897949e+00 -4.127126693725585938e+00
3.390000000000000000e+02 7.143448638916015625e+01 -1.522984313964843750e+01 8.745414614677429199e-01 1.279310941696166992e+00 6.461557149887084961e-01 -1.514268636703491211e+00
3.400000000000000000e+02 7.173919677734375000e+01 -1.596561241149902344e+01 -1.864215493202209473e+00 2.658301591873168945e-01 -4.795155823230743408e-01 -3.290113806724548340e-01
3.410000000000000000e+02 7.164514923095703125e+01 -1.577391910552978516e+01 -8.804389834403991699e-01 2.648833394050598145e-01 -1.846666932106018066e-01 -6.145910024642944336e-01
3.420000000000000000e+02 7.087210845947265625e+01 -1.722914695739746094e+01 8.981557488441467285e-01 5.335842370986938477e-01 4.295219779014587402e-01 5.193834900856018066e-01
3.430000000000000000e+02 7.106927490234375000e+01 -1.716849708557128906e+01 1.139166116714477539e+00 5.697016716003417969e-01 5.126603245735168457e-01 7.308596372604370117e-01
3.440000000000000000e+02 7.079436492919921875e+01 -1.600024414062500000e+01 -2.518013715744018555e+00 1.727148145437240601e-01 -7.035896778106689453e-01 2.118672132492065430e-01
3.450000000000000000e+02 7.087128448486328125e+01 -1.580061244964599609e+01 -1.907224774360656738e+00 1.138299629092216492e-01 -5.380184054374694824e-01 1.407197713851928711e-01
3.460000000000000000e+02 7.117486572265625000e+01 -1.738344573974609375e+01 1.692634105682373047e+00 9.438021779060363770e-01 7.909308671951293945e-01 1.183450818061828613e+00
3.470000000000000000e+02 7.191114807128906250e+01 -1.722393798828125000e+01 3.220382213592529297e+00 2.093372821807861328e+00 1.594126582145690918e+00 2.957612276077270508e+00
3.480000000000000000e+02 7.063188171386718750e+01 -1.591016387939453125e+01 -2.091159105300903320e+00 -3.408485278487205505e-02 -6.375731825828552246e-01 1.416622549295425415e-01
3.490000000000000000e+02 1.118751811981201172e+01 -1.850180983543395996e+00 -1.146821618080139160e+00 5.320751294493675232e-02 -3.280842602252960205e-01 -2.225617319345474243e-01
3.500000000000000000e+02 1.194691181182861328e+01 -1.843955039978027344e+00 -1.193683862686157227e+00 5.352542176842689514e-02 -3.420475423336029053e-01 -1.716001182794570923e-01
3.510000000000000000e+02 1.155019092559814453e+01 -5.446177482604980469e+00 -3.267245888710021973e-01 4.567806422710418701e-01 3.901681303977966309e-02 -3.018939495086669922e-01
3.520000000000000000e+02 1.938369369506835938e+01 -1.141178321838378906e+01 2.091897964477539062e+00 4.828024506568908691e-01 7.724100947380065918e-01 8.343894481658935547e-01
3.530000000000000000e+02 1.932180976867675781e+01 -1.001926422119140625e+01 1.228093266487121582e+00 8.349608182907104492e-01 6.189162135124206543e-01 1.185887813568115234e+00
3.540000000000000000e+02 2.338595390319824219e+01 -1.059344673156738281e+01 5.773152709007263184e-01 1.409740895032882690e-01 2.154868096113204956e-01 3.622562885284423828e-01
3.550000000000000000e+02 2.411476325988769531e+01 -9.102419853210449219e+00 4.116182774305343628e-02 3.506600856781005859e-01 1.175465732812881470e-01 5.450415611267089844e-01
3.560000000000000000e+02 2.571465110778808594e+01 -9.459531784057617188e+00 -9.294936805963516235e-02 1.830850988626480103e-01 2.704072184860706329e-02 1.242003887891769409e-01
3.570000000000000000e+02 2.740225028991699219e+01 -6.784002780914306641e+00 -1.818397283554077148e+00 2.827124297618865967e-01 -4.607054591178894043e-01 1.653545022010803223e+00
3.580000000000000000e+02 2.854891014099121094e+01 -6.841872692108154297e+00 -1.926412105560302734e+00 -4.187552928924560547e-01 -7.035502195358276367e-01 1.773525476455688477e+00
3.590000000000000000e+02 3.157952880859375000e+01 -4.112710475921630859e+00 7.072882354259490967e-02 4.073264598846435547e+00 1.243198037147521973e+00 4.915139377117156982e-01
3.600000000000000000e+02 3.125726318359375000e+01 -5.892145037651062012e-01 4.703916072845458984e+00 3.944368839263916016e+00 2.594485521316528320e+00 2.553419113159179688e+00
3.610000000000000000e+02 3.199506187438964844e+01 4.394998550415039062e-01 5.877280235290527344e+00 5.500052928924560547e+00 3.413199901580810547e+00 4.477593421936035156e+00
3.620000000000000000e+02 3.005288124084472656e+01 -2.102787643671035767e-01 5.205402851104736328e+00 1.097135543823242188e+00 1.890761613845825195e+00 1.334553599357604980e+00
3.630000000000000000e+02 2.690374565124511719e+01 6.272974610328674316e-01 1.563995361328125000e+00 9.108357876539230347e-02 4.965236783027648926e-01 -2.139939963817596436e-01
3.640000000000000000e+02 2.511089897155761719e+01 -5.486897751688957214e-02 9.617424011230468750e-01 -1.470393538475036621e-01 2.444109171628952026e-01 3.331995010375976562e-01
3.650000000000000000e+02 2.305391311645507812e+01 -1.532476902008056641e+00 4.168367981910705566e-01 4.580499976873397827e-02 1.387925446033477783e-01 7.580590248107910156e-01
3.660000000000000000e+02 2.270672798156738281e+01 -8.372219085693359375e+00 2.098073512315750122e-01 4.511442482471466064e-01 1.982854753732681274e-01 9.316985011100769043e-01
3.670000000000000000e+02 2.373871040344238281e+01 -8.071036338806152344e+00 -2.002982050180435181e-01 5.096457004547119141e-01 9.280426055192947388e-02 9.345452785491943359e-01
3.680000000000000000e+02 2.733505630493164062e+01 -7.901739597320556641e+00 -2.297755479812622070e+00 1.642637848854064941e-01 -6.400474905967712402e-01 5.616818666458129883e-01
3.690000000000000000e+02 1.884181141853332520e+00 -2.895594835281372070e+00 -8.020183444023132324e-02 -1.582394242286682129e-01 -7.153237611055374146e-02 -1.922510862350463867e-01
3.700000000000000000e+02 1.806261062622070312e+00 -1.984797835350036621e+00 -7.882275432348251343e-02 -9.980349242687225342e-02 -5.358787253499031067e-02 -1.276662498712539673e-01
3.710000000000000000e+02 3.959960460662841797e+00 -1.899828433990478516e+00 -2.730754017829895020e-01 -5.805471912026405334e-02 -9.933903813362121582e-02 -2.607349157333374023e-01
3.720000000000000000e+02 6.817362785339355469e+00 -1.853469371795654297e+00 -6.382630467414855957e-01 -5.256790202111005783e-03 -1.930559426546096802e-01 -3.358142971992492676e-01
3.730000000000000000e+02 2.523126125335693359e+00 -1.950766205787658691e+00 -1.378164142370223999e-01 -7.862423360347747803e-02 -6.493219733238220215e-02 -1.737062186002731323e-01
3.740000000000000000e+02 4.676468849182128906e+00 -1.878499031066894531e+00 -3.586662709712982178e-01 -4.400392249226570129e-02 -1.208010539412498474e-01 -2.922905683517456055e-01
3.750000000000000000e+02 7.532273292541503906e+00 -1.855768203735351562e+00 -7.354626655578613281e-01 2.701298799365758896e-03 -2.198284119367599487e-01 -3.362169861793518066e-01
3.760000000000000000e+02 1.272182106971740723e+00 -4.009611129760742188e+01 4.850359633564949036e-03 1.555479466915130615e-01 4.811949282884597778e-02 2.956613712012767792e-02
3.770000000000000000e+02 1.998592495918273926e+00 -4.164126205444335938e+01 -3.233603015542030334e-02 1.698792278766632080e-01 4.126295819878578186e-02 9.200274944305419922e-03
3.780000000000000000e+02 6.337205767631530762e-01 -3.605694198608398438e+01 -1.934353844262659550e-03 2.203810960054397583e-02 6.031126715242862701e-03 1.982899196445941925e-02
3.790000000000000000e+02 7.868392467498779297e-01 -3.735893249511718750e+01 8.079389110207557678e-03 7.092518359422683716e-02 2.370137162506580353e-02 2.808712795376777649e-02
3.800000000000000000e+02 6.020419597625732422e+00 -3.798052597045898438e+01 -1.135628670454025269e-01 3.040087521076202393e-01 5.713376775383949280e-02 1.038703396916389465e-01
3.810000000000000000e+02 8.957202911376953125e+00 -3.830589294433593750e+01 -1.728766411542892456e-01 4.340654313564300537e-01 7.835663855075836182e-02 8.136701583862304688e-02
3.820000000000000000e+02 1.252687931060791016e+01 -3.864679336547851562e+01 -2.078731805086135864e-01 5.684315562248229980e-01 1.081675142049789429e-01 -1.914051920175552368e-02
3.830000000000000000e+02 1.606243896484375000e+01 -3.861804199218750000e+01 -1.676911562681198120e-01 5.925207734107971191e-01 1.274488866329193115e-01 -1.138388141989707947e-01
3.840000000000000000e+02 1.918855667114257812e+01 -3.968209457397460938e+01 -4.870591685175895691e-02 5.852226018905639648e-01 1.609549969434738159e-01 -9.082187712192535400e-02
3.850000000000000000e+02 2.332152938842773438e+01 -3.826828384399414062e+01 2.360053732991218567e-02 7.311838865280151367e-01 2.264353334903717041e-01 -1.496356166899204254e-02
3.860000000000000000e+02 2.644536972045898438e+01 -3.855607604980468750e+01 -6.963405758142471313e-03 1.176097273826599121e+00 3.507401645183563232e-01 2.921712100505828857e-01
3.870000000000000000e+02 2.935608863830566406e+01 -3.961810302734375000e+01 -2.365184426307678223e-01 2.019523382186889648e+00 5.349014997482299805e-01 2.676957249641418457e-01
3.880000000000000000e+02 3.350696182250976562e+01 -3.791125869750976562e+01 -7.528566718101501465e-01 3.563119173049926758e+00 8.430787324905395508e-01 6.773097515106201172e-01
3.890000000000000000e+02 3.660531997680664062e+01 -3.843587112426757812e+01 -1.100073814392089844e+00 4.472940921783447266e+00 1.011860132217407227e+00 4.106898903846740723e-01
3.900000000000000000e+02 4.338710403442382812e+01 -3.743468475341796875e+01 -1.321107745170593262e+00 5.459624290466308594e+00 1.241554975509643555e+00 -2.867389023303985596e-01
3.910000000000000000e+02 4.690264511108398438e+01 -3.749129104614257812e+01 -8.823033571243286133e-01 4.430947303771972656e+00 1.064593195915222168e+00 -9.312157630920410156e-01
3.920000000000000000e+02 5.050704956054687500e+01 -3.689098358154296875e+01 -1.848541647195816040e-01 2.743379354476928711e+00 7.675575613975524902e-01 -1.337180852890014648e+00
3.930000000000000000e+02 5.522283172607421875e+01 -3.908161163330078125e+01 8.045540452003479004e-01 8.609951734542846680e-01 4.996647834777832031e-01 -5.317793488502502441e-01
3.940000000000000000e+02 5.992269515991210938e+01 -3.797238922119140625e+01 1.069538712501525879e+00 3.314308524131774902e-01 4.202908873558044434e-01 -2.179815471172332764e-01
3.950000000000000000e+02 6.324534606933593750e+01 -3.859894561767578125e+01 1.115030050277709961e+00 1.191739082336425781e+00 6.920307278633117676e-01 1.449551880359649658e-01
3.960000000000000000e+02 6.701670074462890625e+01 -3.846181488037109375e+01 8.957312703132629395e-01 2.923316717147827148e+00 1.145714402198791504e+00 3.753749132156372070e-01
3.970000000000000000e+02 7.077153778076171875e+01 -3.807933425903320312e+01 5.284774899482727051e-01 5.195925235748291016e+00 1.717320919036865234e+00 4.527035355567932129e-01
3.980000000000000000e+02 7.361782836914062500e+01 -3.793326187133789062e+01 2.699892818927764893e-01 6.860381603240966797e+00 2.139111280441284180e+00 3.745110929012298584e-01
3.990000000000000000e+02 7.747339630126953125e+01 -3.804307937622070312e+01 -4.309253767132759094e-02 9.455703735351562500e+00 2.823783397674560547e+00 3.820981383323669434e-01
4.000000000000000000e+02 7.943062591552734375e+01 -3.340871429443359375e+01 -1.247973833233118057e-02 1.124836444854736328e+01 3.370765209197998047e+00 6.220528855919837952e-02
4.010000000000000000e+02 7.715704345703125000e+01 -3.332775115966796875e+01 -1.072251517325639725e-02 9.639053344726562500e+00 2.888499259948730469e+00 3.689444959163665771e-01
4.020000000000000000e+02 7.942885589599609375e+01 -3.205157470703125000e+01 1.498675625771284103e-02 1.145297718048095703e+01 3.440389156341552734e+00 6.534236669540405273e-02
4.030000000000000000e+02 7.825195312500000000e+01 -3.207276535034179688e+01 -2.879402833059430122e-03 1.062217235565185547e+01 3.185787916183471680e+00 2.142470180988311768e-01
4.040000000000000000e+02 7.520224761962890625e+01 -2.599085044860839844e+01 -7.320202589035034180e-01 9.003664016723632812e+00 2.481493234634399414e+00 3.008350357413291931e-02
4.050000000000000000e+02 7.002452087402343750e+01 -2.381625747680664062e+01 -5.714674592018127441e-01 4.212788581848144531e+00 1.092396378517150879e+00 9.151598811149597168e-01
4.060000000000000000e+02 6.860366821289062500e+01 -2.078319549560546875e+01 1.040213778614997864e-01 7.967137694358825684e-01 2.702205479145050049e-01 4.642120897769927979e-01
4.070000000000000000e+02 6.851767730712890625e+01 -1.882880401611328125e+01 2.445174939930438995e-02 -7.823805809020996094e-01 -2.273786514997482300e-01 1.010318771004676819e-01
4.080000000000000000e+02 7.502939701080322266e-01 -3.479987716674804688e+01 -1.558771356940269470e-02 -5.844759941101074219e-02 -2.221059426665306091e-02 4.244808852672576904e-02
4.090000000000000000e+02 3.215291738510131836e+00 -3.487589263916015625e+01 -6.027597188949584961e-02 8.874155580997467041e-02 8.539673872292041779e-03 1.533222794532775879e-01
4.100000000000000000e+02 4.408608436584472656e+00 -3.303760147094726562e+01 -1.052100360393524170e-01 1.340467333793640137e-01 8.651006966829299927e-03 2.593939006328582764e-01
4.110000000000000000e+02 9.736651420593261719e+00 -3.553996658325195312e+01 -2.527318000793457031e-01 5.572950243949890137e-01 9.136896580457687378e-02 1.197778657078742981e-01
4.120000000000000000e+02 1.269787693023681641e+01 -3.592511367797851562e+01 -2.897034287452697754e-01 6.597291231155395508e-01 1.110077053308486938e-01 -1.130607165396213531e-02
4.130000000000000000e+02 1.579223918914794922e+01 -3.589604187011718750e+01 -2.829597592353820801e-01 6.746520996093750000e-01 1.175077036023139954e-01 -1.449194550514221191e-01
4.140000000000000000e+02 2.038222885131835938e+01 -3.711141204833984375e+01 -7.818617671728134155e-02 5.720327496528625488e-01 1.481539756059646606e-01 -1.841533631086349487e-01
4.150000000000000000e+02 2.404520034790039062e+01 -3.408055114746093750e+01 -1.259221732616424561e-01 3.984017670154571533e-01 8.174387365579605103e-02 -7.537066005170345306e-03
4.160000000000000000e+02 2.693726158142089844e+01 -3.332531738281250000e+01 -2.109921164810657501e-02 5.022414922714233398e-01 1.443426907062530518e-01 4.242441952228546143e-01
4.170000000000000000e+02 3.051142692565917969e+01 -3.682039260864257812e+01 -3.128040730953216553e-01 2.302783250808715820e+00 5.969937443733215332e-01 6.843460202217102051e-01
4.180000000000000000e+02 3.706845855712890625e+01 -3.564622116088867188e+01 -1.053525924682617188e+00 4.942039012908935547e+00 1.166553974151611328e+00 6.843314170837402344e-01
4.190000000000000000e+02 4.019510269165039062e+01 -3.645646286010742188e+01 -1.311504364013671875e+00 5.559000015258789062e+00 1.274248719215393066e+00 1.942503601312637329e-01
4.200000000000000000e+02 4.373041534423828125e+01 -3.478475952148437500e+01 -1.151463747024536133e+00 5.857743740081787109e+00 1.411883950233459473e+00 -5.580814480781555176e-01
4.210000000000000000e+02 4.611450195312500000e+01 -3.489763259887695312e+01 -9.828481078147888184e-01 5.081042289733886719e+00 1.229458212852478027e+00 -1.196563005447387695e+00
4.220000000000000000e+02 4.987852478027343750e+01 -3.391678237915039062e+01 -3.145756721496582031e-01 3.118754625320434570e+00 8.412536382675170898e-01 -1.886169075965881348e+00
4.230000000000000000e+02 5.358344268798828125e+01 -3.608062362670898438e+01 2.792699635028839111e-01 1.113182306289672852e+00 4.177356660366058350e-01 -1.177067637443542480e+00
4.240000000000000000e+02 5.739645004272460938e+01 -3.663185119628906250e+01 7.836322784423828125e-01 6.523058563470840454e-02 2.546588480472564697e-01 -5.686008334159851074e-01
4.250000000000000000e+02 6.093370819091796875e+01 -3.561985397338867188e+01 6.249944567680358887e-01 1.998517215251922607e-01 2.474538534879684448e-01 -1.167989373207092285e-01
4.260000000000000000e+02 7.523291015625000000e+01 -3.478624725341796875e+01 1.720129884779453278e-02 8.164157867431640625e+00 2.454407691955566406e+00 4.676120877265930176e-01
4.270000000000000000e+02 7.617339324951171875e+01 -3.374206542968750000e+01 -2.024017088115215302e-02 9.053519248962402344e+00 2.709983587265014648e+00 4.716763198375701904e-01
4.280000000000000000e+02 7.560511779785156250e+01 -3.257691192626953125e+01 -4.721570014953613281e-02 8.658528327941894531e+00 2.583393812179565430e+00 4.473239779472351074e-01
4.290000000000000000e+02 7.695701599121093750e+01 -3.213331985473632812e+01 -5.172896012663841248e-02 9.675634384155273438e+00 2.887171506881713867e+00 4.078483581542968750e-01
4.300000000000000000e+02 8.200650215148925781e-01 -3.042345046997070312e+01 -4.889339208602905273e-03 -4.118650853633880615e-01 -1.250263303518295288e-01 9.328407049179077148e-02
4.310000000000000000e+02 2.465985536575317383e+00 -3.023602294921875000e+01 -3.185252100229263306e-02 -2.403422296047210693e-01 -8.165842294692993164e-02 2.453271001577377319e-01
4.320000000000000000e+02 3.680129766464233398e+00 -2.842709350585937500e+01 -5.816043168306350708e-02 -1.676419377326965332e-01 -6.774070858955383301e-02 3.864992856979370117e-01
4.330000000000000000e+02 4.351137638092041016e+00 -2.254391098022460938e+01 9.372410923242568970e-02 -4.002779722213745117e-01 -9.196615964174270630e-02 4.609600901603698730e-01
4.340000000000000000e+02 4.669283866882324219e+00 -1.830971527099609375e+01 2.569162547588348389e-01 -5.043616294860839844e-01 -7.423360645771026611e-02 1.893464028835296631e-01
4.350000000000000000e+02 4.617249011993408203e+00 -1.686527252197265625e+01 2.699809670448303223e-01 -5.530932545661926270e-01 -8.493368327617645264e-02 6.235151365399360657e-02
4.360000000000000000e+02 4.375372409820556641e+00 -1.152693176269531250e+01 1.783718913793563843e-01 -5.816987156867980957e-01 -1.209980398416519165e-01 -4.347386360168457031e-01
4.370000000000000000e+02 4.454709053039550781e+00 -1.035188388824462891e+01 1.481491625308990479e-01 -5.076287984848022461e-01 -1.078438907861709595e-01 -5.174861550331115723e-01
4.380000000000000000e+02 4.211059570312500000e+00 -4.972238540649414062e+00 -1.433058828115463257e-01 -2.282826900482177734e-01 -1.114765703678131104e-01 -5.156227946281433105e-01
4.390000000000000000e+02 4.329885482788085938e+00 -4.244869232177734375e+00 -1.983982026576995850e-01 -1.671096384525299072e-01 -1.096523553133010864e-01 -4.864864349365234375e-01
4.400000000000000000e+02 2.211965084075927734e+00 -8.310267448425292969e+00 1.638459786772727966e-02 -7.886473536491394043e-01 -2.316788136959075928e-01 -3.758934736251831055e-01
4.410000000000000000e+02 1.715754747390747070e+00 -4.820986747741699219e+00 -3.915427625179290771e-02 -4.021881818771362305e-01 -1.324027329683303833e-01 -2.625612020492553711e-01
4.420000000000000000e+02 6.816095113754272461e-01 -2.759763908386230469e+01 -7.282889448106288910e-03 -7.773185372352600098e-01 -2.353804260492324829e-01 1.012077108025550842e-01
4.430000000000000000e+02 2.245152711868286133e+00 -2.878812026977539062e+01 -2.878010272979736328e-02 -3.928291797637939453e-01 -1.264827847480773926e-01 2.670087814331054688e-01
4.440000000000000000e+02 4.941605091094970703e+00 -2.795981025695800781e+01 -1.115886643528938293e-01 1.137167029082775116e-02 -3.006509691476821899e-02 4.289306104183197021e-01
4.450000000000000000e+02 4.862855911254882812e+00 -4.035444259643554688e+01 -6.531587243080139160e-02 2.390248477458953857e-01 5.211269110441207886e-02 3.728521242737770081e-02
4.460000000000000000e+02 8.071425437927246094e+00 -4.113543701171875000e+01 -1.242920607328414917e-01 3.676699399948120117e-01 7.301336526870727539e-02 2.178571373224258423e-02
4.470000000000000000e+02 1.246663856506347656e+01 -4.125723266601562500e+01 -1.623135209083557129e-01 5.150120258331298828e-01 1.058095544576644897e-01 -4.895091988146305084e-03
4.480000000000000000e+02 1.672943687438964844e+01 -4.120736694335937500e+01 -7.946495711803436279e-02 5.757072567939758301e-01 1.488726884126663208e-01 -3.276526182889938354e-02
4.490000000000000000e+02 2.276101875305175781e+01 -4.100678253173828125e+01 7.097485661506652832e-02 7.545005679130554199e-01 2.476426213979721069e-01 -1.534806098788976669e-02
4.500000000000000000e+02 2.687065505981445312e+01 -4.115744781494140625e+01 -8.670561015605926514e-02 1.528120040893554688e+00 4.324243366718292236e-01 9.377124905586242676e-02
4.510000000000000000e+02 3.282704925537109375e+01 -4.091356277465820312e+01 -6.841761469841003418e-01 3.213941812515258789e+00 7.589297294616699219e-01 2.099081277847290039e-01
4.520000000000000000e+02 4.288056564331054688e+01 -4.072596359252929688e+01 -1.430962562561035156e+00 5.165430545806884766e+00 1.120340347290039062e+00 -7.144714146852493286e-02
4.530000000000000000e+02 4.732624053955078125e+01 -4.081426239013671875e+01 -8.353965282440185547e-01 4.030548572540283203e+00 9.585455656051635742e-01 -3.217792809009552002e-01
4.540000000000000000e+02 5.840283584594726562e+01 -4.088516998291015625e+01 1.173948049545288086e+00 5.800487399101257324e-01 5.261990427970886230e-01 -1.324871927499771118e-01
4.550000000000000000e+02 6.277172851562500000e+01 -4.120012664794921875e+01 1.367407917976379395e+00 1.040932059288024902e+00 7.225019931793212891e-01 6.567984074354171753e-02
4.560000000000000000e+02 6.735785675048828125e+01 -4.121357727050781250e+01 1.019223809242248535e+00 3.201102495193481445e+00 1.266097903251647949e+00 1.068335995078086853e-01
4.570000000000000000e+02 7.497640991210937500e+01 -4.029501342773437500e+01 2.886742651462554932e-01 7.948707580566406250e+00 2.471214532852172852e+00 4.250624030828475952e-02
4.580000000000000000e+02 7.797025299072265625e+01 -4.163943481445312500e+01 2.927631735801696777e-01 9.621460914611816406e+00 2.974267244338989258e+00 8.223995566368103027e-02
4.590000000000000000e+02 7.906476593017578125e+01 -3.875131988525390625e+01 1.117796450853347778e-02 1.005566120147705078e+01 3.020051717758178711e+00 1.840714812278747559e-01
4.600000000000000000e+02 7.938611602783203125e+01 -2.931803512573242188e+01 -1.482874620705842972e-03 1.179432106018066406e+01 3.537851572036743164e+00 2.048206515610218048e-02
4.610000000000000000e+02 7.796372985839843750e+01 -2.809114074707031250e+01 -1.055361926555633545e-01 1.071006488800048828e+01 3.181358575820922852e+00 3.330535069108009338e-02
4.620000000000000000e+02 7.608811187744140625e+01 -2.378282546997070312e+01 -9.030556678771972656e-01 1.010121154785156250e+01 2.759446859359741211e+00 -6.560235619544982910e-01
4.630000000000000000e+02 6.908036041259765625e+01 -2.284386253356933594e+01 -2.484200447797775269e-01 2.622328281402587891e+00 7.121724486351013184e-01 6.942019462585449219e-01
4.640000000000000000e+02 7.936350250244140625e+01 -2.513775634765625000e+01 -8.098687231540679932e-02 1.157414722442626953e+01 3.447947978973388672e+00 -1.858325898647308350e-01
4.650000000000000000e+02 7.810172271728515625e+01 -2.519983100891113281e+01 -2.213095426559448242e-01 1.073511409759521484e+01 3.154141187667846680e+00 -3.897296786308288574e-01
4.660000000000000000e+02 7.662895965576171875e+01 -2.069721984863281250e+01 -7.901937961578369141e-01 1.109941959381103516e+01 3.092767715454101562e+00 -1.850004434585571289e+00
4.670000000000000000e+02 7.143517303466796875e+01 -1.805113410949707031e+01 2.276370286941528320e+00 3.194303512573242188e+00 1.641202211380004883e+00 2.858378887176513672e+00
4.680000000000000000e+02 6.994081878662109375e+01 -1.825922203063964844e+01 8.919887542724609375e-01 8.890910744667053223e-01 5.343239307403564453e-01 5.641882419586181641e-01
4.690000000000000000e+02 7.940373992919921875e+01 -2.236185073852539062e+01 -1.212365254759788513e-01 1.024885272979736328e+01 3.038284778594970703e+00 -4.902102649211883545e-01
4.700000000000000000e+02 7.389183044433593750e+01 -1.783467864990234375e+01 4.843993186950683594e-01 1.879427528381347656e+01 5.783602714538574219e+00 1.928394138813018799e-01
4.710000000000000000e+02 7.938912200927734375e+01 -1.945682716369628906e+01 5.833404883742332458e-02 7.307707309722900391e+00 2.209812402725219727e+00 -8.540890216827392578e-01
4.720000000000000000e+02 7.852862548828125000e+01 -1.663944625854492188e+01 8.310400247573852539e-01 6.938752651214599609e+00 2.330937862396240234e+00 -2.771701216697692871e-01
4.730000000000000000e+02 7.486959838867187500e+01 -1.672949790954589844e+01 7.373719215393066406e+00 1.523217487335205078e+01 6.781767845153808594e+00 -1.803751468658447266e+00
4.740000000000000000e+02 7.468978118896484375e+01 -1.712543869018554688e+01 5.475173473358154297e+00 1.662815093994140625e+01 6.630997657775878906e+00 -2.752070665359497070e+00
4.750000000000000000e+02 7.946161651611328125e+01 -1.517673492431640625e+01 1.470776498317718506e-01 4.897605895996093750e+00 1.513404965400695801e+00 3.799942135810852051e-01
4.760000000000000000e+02 7.839031219482421875e+01 -1.216267490386962891e+01 -2.822662591934204102e-01 9.112191200256347656e+00 2.648977518081665039e+00 1.454656362533569336e+00
4.770000000000000000e+02 7.407765960693359375e+01 -1.483558654785156250e+01 4.569691121578216553e-01 1.903410339355468750e+01 5.847321987152099609e+00 7.939338684082031250e-01
4.780000000000000000e+02 7.947183990478515625e+01 -1.240937995910644531e+01 -3.508597984910011292e-02 7.880286693572998047e+00 2.353560209274291992e+00 5.908962488174438477e-01
4.790000000000000000e+02 7.834539031982421875e+01 -1.078641033172607422e+01 -3.982624411582946777e-01 9.673248291015625000e+00 2.782495737075805664e+00 1.005416512489318848e+00
4.800000000000000000e+02 7.630649566650390625e+01 -8.896491050720214844e+00 -1.036217808723449707e+00 9.706885337829589844e+00 2.601200342178344727e+00 -2.342184260487556458e-02
4.810000000000000000e+02 7.266079711914062500e+01 -3.500324964523315430e+00 -2.065405100584030151e-01 6.259623050689697266e+00 1.815924763679504395e+00 -1.787446379661560059e+00
4.820000000000000000e+02 6.702544403076171875e+01 1.384578943252563477e+00 8.281559348106384277e-01 4.482625484466552734e+00 1.593234419822692871e+00 -7.742587924003601074e-01
4.830000000000000000e+02 6.355469894409179688e+01 2.942024946212768555e+00 1.047571301460266113e+00 4.417000770568847656e+00 1.639371514320373535e+00 5.336555838584899902e-01
4.840000000000000000e+02 6.053034210205078125e+01 5.439981937408447266e+00 1.466225862503051758e+00 5.224584102630615234e+00 2.007242918014526367e+00 2.335220575332641602e+00
4.850000000000000000e+02 5.905781173706054688e+01 3.064782381057739258e+00 1.515831708908081055e+00 3.242230653762817383e+00 1.427418708801269531e+00 2.125367879867553711e+00
4.860000000000000000e+02 6.044430923461914062e+01 2.588092088699340820e+00 1.314884781837463379e+00 3.716388702392578125e+00 1.509382128715515137e+00 1.782785892486572266e+00
4.870000000000000000e+02 5.834539794921875000e+01 1.841482400894165039e+00 1.514398455619812012e+00 2.981290817260742188e+00 1.348706841468811035e+00 2.081475734710693359e+00
4.880000000000000000e+02 5.751020812988281250e+01 -1.194919824600219727e+00 1.917623043060302734e+00 2.620045423507690430e+00 1.361300587654113770e+00 1.982611060142517090e+00
4.890000000000000000e+02 5.961299133300781250e+01 -4.237553119659423828e+00 7.060211896896362305e-01 1.577188491821289062e+00 6.849629282951354980e-01 1.119345307350158691e+00
4.900000000000000000e+02 6.512725067138671875e+01 -7.753828048706054688e+00 -9.564505815505981445e-01 4.498989284038543701e-01 -1.519654989242553711e-01 -9.274191260337829590e-01
4.910000000000000000e+02 6.930773162841796875e+01 -1.037675666809082031e+01 -1.852620959281921387e+00 3.378282308578491211e+00 4.576983451843261719e-01 -2.129669666290283203e+00
4.920000000000000000e+02 7.011074066162109375e+01 -1.117155170440673828e+01 -1.940016865730285645e+00 4.418111324310302734e+00 7.434283494949340820e-01 -2.166440963745117188e+00
4.930000000000000000e+02 7.281557464599609375e+01 -9.237496376037597656e+00 -1.719821810722351074e+00 7.927741050720214844e+00 1.862375736236572266e+00 -1.903833389282226562e+00
4.940000000000000000e+02 7.680768585205078125e+01 -1.119607543945312500e+01 -1.064687490463256836e+00 1.045536994934082031e+01 2.817204475402832031e+00 1.154769539833068848e+00
4.950000000000000000e+02 7.528987121582031250e+01 -9.525925636291503906e+00 -1.501283168792724609e+00 9.813871383666992188e+00 2.493776559829711914e+00 -3.755653202533721924e-01
4.960000000000000000e+02 7.947196197509765625e+01 -9.657450675964355469e+00 -8.817985653877258301e-02 1.013884735107421875e+01 3.015200138092041016e+00 2.463322728872299194e-01
4.970000000000000000e+02 7.832993316650390625e+01 -5.469503879547119141e+00 -1.149225309491157532e-01 9.559193611145019531e+00 2.833281278610229492e+00 -3.993133008480072021e-01
4.980000000000000000e+02 7.591459655761718750e+01 -4.113815784454345703e+00 -2.433608025312423706e-01 8.043041229248046875e+00 2.339904069900512695e+00 -1.129704356193542480e+00
4.990000000000000000e+02 7.240007019042968750e+01 -6.204167604446411133e-01 2.018184512853622437e-01 5.919268608093261719e+00 1.836326122283935547e+00 -1.643186450004577637e+00
5.000000000000000000e+02 6.849838256835937500e+01 3.301589012145996094e+00 7.216994762420654297e-01 5.187702178955078125e+00 1.772820591926574707e+00 -9.092726707458496094e-01
5.010000000000000000e+02 6.348896408081054688e+01 5.579742908477783203e+00 9.532567262649536133e-01 5.528475284576416016e+00 1.944519639015197754e+00 6.266595125198364258e-01
5.020000000000000000e+02 6.178793334960937500e+01 8.089197158813476562e+00 6.920323371887207031e-01 6.883375167846679688e+00 2.272622108459472656e+00 1.567046761512756348e+00
5.030000000000000000e+02 6.117530441284179688e+01 6.716906547546386719e+00 9.968454241752624512e-01 6.162763595581054688e+00 2.147882699966430664e+00 1.997184634208679199e+00
5.040000000000000000e+02 7.944676208496093750e+01 -5.537647247314453125e+00 -2.565938793122768402e-02 1.028044128417968750e+01 3.076434612274169922e+00 -1.340906322002410889e-01
5.050000000000000000e+02 7.827965545654296875e+01 -4.129889965057373047e+00 -6.492265313863754272e-02 9.201659202575683594e+00 2.741021156311035156e+00 -5.314602851867675781e-01
5.060000000000000000e+02 7.579737091064453125e+01 -1.475457787513732910e+00 -9.730931371450424194e-03 7.388893127441406250e+00 2.213748693466186523e+00 -1.257859349250793457e+00
5.070000000000000000e+02 7.293013000488281250e+01 2.512281179428100586e+00 3.456641733646392822e-01 6.016148090362548828e+00 1.908543586730957031e+00 -1.349222302436828613e+00
5.080000000000000000e+02 6.722143554687500000e+01 7.476694107055664062e+00 8.269730806350708008e-01 5.881767272949218750e+00 2.012622117996215820e+00 -4.317315518856048584e-01
5.090000000000000000e+02 6.432553863525390625e+01 8.464634895324707031e+00 7.883704304695129395e-01 6.559504508972167969e+00 2.204362392425537109e+00 3.621113300323486328e-01
5.100000000000000000e+02 6.237023162841796875e+01 1.242233753204345703e+01 2.051904648542404175e-01 8.729268074035644531e+00 2.680337667465209961e+00 4.991642534732818604e-01
5.110000000000000000e+02 6.227793121337890625e+01 1.101042366027832031e+01 2.212944775819778442e-01 8.316247940063476562e+00 2.561262845993041992e+00 8.075885772705078125e-01
5.120000000000000000e+02 7.941388702392578125e+01 -2.783576250076293945e+00 -8.027075789868831635e-03 9.379691123962402344e+00 2.811499118804931641e+00 -2.173313051462173462e-01
5.130000000000000000e+02 7.814309692382812500e+01 1.342363119125366211e+00 2.877112478017807007e-02 7.517922401428222656e+00 2.264008045196533203e+00 -6.322567462921142578e-01
5.140000000000000000e+02 7.556613922119140625e+01 4.026335239410400391e+00 1.803956329822540283e-01 6.446933746337890625e+00 1.988198757171630859e+00 -1.031999707221984863e+00
5.150000000000000000e+02 7.037574005126953125e+01 5.022294521331787109e+00 6.231353282928466797e-01 5.633140563964843750e+00 1.876882791519165039e+00 -1.033942937850952148e+00
5.160000000000000000e+02 6.664434814453125000e+01 1.047685337066650391e+01 7.966233491897583008e-01 6.510731697082519531e+00 2.192206382751464844e+00 -3.249629735946655273e-01
5.170000000000000000e+02 6.369188308715820312e+01 1.248256492614746094e+01 4.622049033641815186e-01 8.048716545104980469e+00 2.553276300430297852e+00 9.363680332899093628e-02
5.180000000000000000e+02 6.256204986572265625e+01 1.685067939758300781e+01 7.893670201301574707e-01 9.723968505859375000e+00 3.154000520706176758e+00 -9.885826706886291504e-01
5.190000000000000000e+02 6.244953155517578125e+01 1.383438777923583984e+01 2.138267010450363159e-01 9.088314056396484375e+00 2.790642261505126953e+00 9.681553393602371216e-02
5.200000000000000000e+02 7.938062286376953125e+01 1.376348257064819336e+00 4.277826752513647079e-03 7.795639038085937500e+00 2.339975118637084961e+00 -2.277954369783401489e-01
5.210000000000000000e+02 7.812669372558593750e+01 2.730474472045898438e+00 3.705456852912902832e-02 7.129621982574462891e+00 2.150002956390380859e+00 -5.907544493675231934e-01
5.220000000000000000e+02 7.553699493408203125e+01 5.433726787567138672e+00 1.932084411382675171e-01 6.266119003295898438e+00 1.937798261642456055e+00 -9.306552410125732422e-01
5.230000000000000000e+02 7.147721099853515625e+01 9.686418533325195312e+00 5.854107737541198730e-01 5.918088436126708984e+00 1.951049804687500000e+00 -7.428815364837646484e-01
5.240000000000000000e+02 6.646755981445312500e+01 1.163170433044433594e+01 7.905997037887573242e-01 6.774454116821289062e+00 2.269516229629516602e+00 -2.907898128032684326e-01
5.250000000000000000e+02 6.413522338867187500e+01 1.689209556579589844e+01 1.181708812713623047e+00 7.894974231719970703e+00 2.723004817962646484e+00 -9.031821489334106445e-01
5.260000000000000000e+02 6.227262115478515625e+01 1.844947242736816406e+01 1.417875409126281738e+00 9.387392997741699219e+00 3.241580486297607422e+00 -2.011984586715698242e+00
5.270000000000000000e+02 7.937239074707031250e+01 4.159461498260498047e+00 9.433599188923835754e-03 6.856747150421142578e+00 2.059854269027709961e+00 -1.961691379547119141e-01
5.280000000000000000e+02 7.811044311523437500e+01 5.509013652801513672e+00 4.447972774505615234e-02 6.446602344512939453e+00 1.947324514389038086e+00 -4.915780425071716309e-01
5.290000000000000000e+02 7.561193847656250000e+01 1.097394180297851562e+01 2.184598296880722046e-01 5.739734172821044922e+00 1.787458181381225586e+00 -4.849580526351928711e-01
5.300000000000000000e+02 7.180009460449218750e+01 1.073131561279296875e+01 5.583365559577941895e-01 5.911824703216552734e+00 1.941048383712768555e+00 -6.569421291351318359e-01
5.310000000000000000e+02 6.821928405761718750e+01 1.431416988372802734e+01 8.827952742576599121e-01 6.367015838623046875e+00 2.174943447113037109e+00 -3.852066099643707275e-01
5.320000000000000000e+02 6.254862976074218750e+01 2.130244064331054688e+01 1.519107818603515625e-01 6.402426242828369141e+00 1.966301083564758301e+00 -9.726495742797851562e-01
5.330000000000000000e+02 6.038692474365234375e+01 2.104593086242675781e+01 1.232667803764343262e+00 3.565842628479003906e+00 1.439553141593933105e+00 -2.190221309661865234e+00
5.340000000000000000e+02 5.898966598510742188e+01 2.170890045166015625e+01 -2.939050495624542236e-01 1.018488287925720215e+00 2.173749655485153198e-01 -1.093684077262878418e+00
5.350000000000000000e+02 7.937530517578125000e+01 8.337088584899902344e+00 9.147488512098789215e-03 5.772194862365722656e+00 1.734402775764465332e+00 -1.335066407918930054e-01
5.360000000000000000e+02 7.812938690185546875e+01 1.108094978332519531e+01 5.088501796126365662e-02 5.496685504913330078e+00 1.664271235466003418e+00 -2.445747703313827515e-01
5.370000000000000000e+02 7.555210113525390625e+01 1.234220409393310547e+01 2.128610759973526001e-01 5.655514717102050781e+00 1.760512709617614746e+00 -3.755575120449066162e-01
5.380000000000000000e+02 7.115579223632812500e+01 1.605674552917480469e+01 6.186563372611999512e-01 5.917675971984863281e+00 1.960899710655212402e+00 -1.590003967285156250e-01
5.390000000000000000e+02 6.700325775146484375e+01 2.053614997863769531e+01 4.484151303768157959e-01 6.240527153015136719e+00 2.006682634353637695e+00 9.129697829484939575e-02
5.400000000000000000e+02 6.500584411621093750e+01 2.512267684936523438e+01 -4.403059184551239014e-01 5.600521087646484375e+00 1.548064589500427246e+00 -4.581727087497711182e-01
5.410000000000000000e+02 5.867066192626953125e+01 2.535049819946289062e+01 9.490785747766494751e-02 2.199478149414062500e+00 6.883158087730407715e-01 -1.298936367034912109e+00
5.420000000000000000e+02 5.509524917602539062e+01 3.056834793090820312e+01 5.314149260520935059e-01 2.173801183700561523e+00 8.115648031234741211e-01 -8.688404411077499390e-02
5.430000000000000000e+02 5.298644256591796875e+01 3.356694412231445312e+01 4.719880223274230957e-01 2.494743585586547852e+00 8.900194764137268066e-01 2.070359587669372559e-01
5.440000000000000000e+02 5.315649032592773438e+01 3.670930099487304688e+01 4.193686246871948242e-01 2.784824609756469727e+00 9.612579941749572754e-01 1.001352295279502869e-01
5.450000000000000000e+02 4.787031173706054688e+01 4.039751434326171875e+01 1.369588077068328857e-01 2.956222295761108398e+00 9.279543161392211914e-01 1.470245569944381714e-01
5.460000000000000000e+02 4.281814193725585938e+01 4.035823059082031250e+01 -2.134636938571929932e-01 3.220653772354125977e+00 9.021570682525634766e-01 1.692793667316436768e-01
5.470000000000000000e+02 4.286176300048828125e+01 3.642759704589843750e+01 -2.198826074600219727e-01 3.247765541076660156e+00 9.083648920059204102e-01 4.372435212135314941e-01
5.480000000000000000e+02 3.990348815917968750e+01 3.301420211791992188e+01 -4.702978432178497314e-01 3.655133247375488281e+00 9.554505944252014160e-01 5.601303577423095703e-01
5.490000000000000000e+02 3.891831588745117188e+01 2.984430313110351562e+01 -5.606849193572998047e-01 4.053904533386230469e+00 1.047965884208679199e+00 6.810722351074218750e-01
5.500000000000000000e+02 3.926588058471679688e+01 2.783515357971191406e+01 -5.270944833755493164e-01 4.327960968017578125e+00 1.140259861946105957e+00 8.555008769035339355e-01
5.510000000000000000e+02 4.015272521972656250e+01 2.106552505493164062e+01 -3.553220257163047791e-02 5.151293754577636719e+00 1.534728407859802246e+00 1.287560224533081055e+00
5.520000000000000000e+02 4.114780807495117188e+01 1.631236839294433594e+01 8.893036842346191406e-01 5.666632175445556641e+00 1.966780781745910645e+00 2.002926826477050781e+00
5.530000000000000000e+02 4.174742507934570312e+01 1.257875347137451172e+01 2.544945240020751953e+00 5.851726055145263672e+00 2.519001483917236328e+00 3.616931676864624023e+00
5.540000000000000000e+02 3.958844757080078125e+01 9.145565032958984375e+00 2.069436550140380859e+00 1.487831211090087891e+01 5.084324359893798828e+00 4.028195381164550781e+00
5.550000000000000000e+02 3.383488464355468750e+01 5.909032821655273438e+00 2.669784128665924072e-01 1.536174774169921875e+01 4.688617706298828125e+00 -3.915081918239593506e-01
5.560000000000000000e+02 3.378502655029296875e+01 7.379088878631591797e+00 3.392142057418823242e-01 1.425597095489501953e+01 4.378555774688720703e+00 -9.459041357040405273e-01
5.570000000000000000e+02 3.374721908569335938e+01 3.115809202194213867e+00 2.813130617141723633e+00 1.768848991394042969e+01 6.150485992431640625e+00 3.724662065505981445e+00
5.580000000000000000e+02 3.391506958007812500e+01 1.977710843086242676e+00 3.513927221298217773e+00 1.480692958831787109e+01 5.496257305145263672e+00 3.504036426544189453e+00
5.590000000000000000e+02 3.292977142333984375e+01 1.309765338897705078e+00 4.683238983154296875e+00 1.098583793640136719e+01 4.700723171234130859e+00 5.641635894775390625e+00
5.600000000000000000e+02 3.378815841674804688e+01 2.457354515790939331e-01 2.456240177154541016e+00 1.054238319396972656e+01 3.899586915969848633e+00 1.662028312683105469e+00
5.610000000000000000e+02 3.552576065063476562e+01 -1.646227985620498657e-01 1.587089657783508301e+00 1.114908885955810547e+01 3.820853471755981445e+00 3.974641487002372742e-02
5.620000000000000000e+02 3.521523284912109375e+01 -1.929829359054565430e+00 1.650149524211883545e-01 9.931812286376953125e+00 3.029048204421997070e+00 -1.100181341171264648e-01
5.630000000000000000e+02 3.286585235595703125e+01 -1.956947803497314453e+00 9.727827906608581543e-01 7.263696670532226562e+00 2.470943927764892578e+00 1.360141158103942871e+00
5.640000000000000000e+02 3.393552017211914062e+01 -6.987315654754638672e+00 -3.054261445999145508e+00 7.227470874786376953e+00 1.251962780952453613e+00 -1.122467756271362305e+00
5.650000000000000000e+02 3.781535339355468750e+01 -1.133946895599365234e+01 -6.142364144325256348e-01 8.873499870300292969e+00 2.477779150009155273e+00 -1.166639804840087891e+00
5.660000000000000000e+02 4.013245773315429688e+01 -1.406529712677001953e+01 6.839900612831115723e-01 8.081942558288574219e+00 2.629779815673828125e+00 -1.188305020332336426e+00
5.670000000000000000e+02 4.409780120849609375e+01 -1.679191207885742188e+01 1.608338832855224609e+00 7.863834857940673828e+00 2.841652154922485352e+00 7.206298410892486572e-02
5.680000000000000000e+02 4.610704421997070312e+01 -1.721334075927734375e+01 2.587617874145507812e+00 7.918080329895019531e+00 3.151709556579589844e+00 3.131847143173217773e+00
5.690000000000000000e+02 4.506682968139648438e+01 -1.602747917175292969e+01 1.091200947761535645e+00 7.259978294372558594e+00 2.505353689193725586e+00 6.934928297996520996e-01
5.700000000000000000e+02 4.672575378417968750e+01 -1.408466053009033203e+01 6.005369424819946289e-01 4.097974300384521484e+00 1.409553408622741699e+00 1.712088108062744141e+00
5.710000000000000000e+02 4.894734954833984375e+01 -1.427359294891357422e+01 1.109713435173034668e+00 1.498153328895568848e+00 7.823600769042968750e-01 1.627950429916381836e+00
5.720000000000000000e+02 5.185082244873046875e+01 -1.343647003173828125e+01 -3.111871778964996338e-01 4.291899800300598145e-01 3.540084511041641235e-02 1.322978138923645020e+00
5.730000000000000000e+02 5.013777923583984375e+01 -1.163504600524902344e+01 -2.076826542615890503e-01 1.160090088844299316e+00 2.857222259044647217e-01 2.186351537704467773e+00
5.740000000000000000e+02 4.564493560791015625e+01 -7.067470073699951172e+00 -1.787820339202880859e+00 1.302844882011413574e+00 -1.454926282167434692e-01 2.101565152406692505e-01
5.750000000000000000e+02 4.393236923217773438e+01 -3.969931364059448242e+00 -3.773588418960571289e+00 3.001520633697509766e-01 -1.042030930519104004e+00 4.803578555583953857e-01
5.760000000000000000e+02 4.001576995849609375e+01 -2.451520919799804688e+00 6.366506218910217285e-01 9.513401031494140625e+00 3.045015573501586914e+00 -2.743454456329345703e+00
5.770000000000000000e+02 3.847190856933593750e+01 -2.350404977798461914e+00 -3.513073921203613281e-01 1.064280033111572266e+01 3.087447881698608398e+00 -1.562077641487121582e+00
5.780000000000000000e+02 4.025285339355468750e+01 -6.805588245391845703e+00 -2.916837215423583984e+00 7.854096889495849609e+00 1.481177926063537598e+00 -1.841282606124877930e+00
5.790000000000000000e+02 4.178669357299804688e+01 -1.099843883514404297e+01 -7.452678084373474121e-01 6.710922718048095703e+00 1.789696455001831055e+00 -9.102249145507812500e-01
5.800000000000000000e+02 3.933376312255859375e+01 -1.038401889801025391e+01 -1.272751808166503906e+00 8.212656974792480469e+00 2.081971645355224609e+00 -1.171357035636901855e+00
5.810000000000000000e+02 4.323464965820312500e+01 -1.027984046936035156e+01 -8.393959999084472656e-01 5.413614749908447266e+00 1.372265577316284180e+00 -6.031048297882080078e-01
5.820000000000000000e+02 4.198379135131835938e+01 -1.375598907470703125e+01 2.553776502609252930e-01 7.351229190826416016e+00 2.281982183456420898e+00 -7.780311107635498047e-01
5.830000000000000000e+02 4.401280975341796875e+01 -1.270568084716796875e+01 -2.162978425621986389e-02 5.611168384552001953e+00 1.676861524581909180e+00 -9.223640710115432739e-02
5.840000000000000000e+02 7.937737274169921875e+01 1.112544345855712891e+01 9.031691588461399078e-03 5.288269042968750000e+00 1.589190244674682617e+00 -8.707375079393386841e-02
5.850000000000000000e+02 7.812117004394531250e+01 1.246719169616699219e+01 4.767410457134246826e-02 5.357168197631835938e+00 1.621452689170837402e+00 -1.833341717720031738e-01
5.860000000000000000e+02 7.552767181396484375e+01 1.508263874053955078e+01 2.210098057985305786e-01 5.538451194763183594e+00 1.727838277816772461e+00 -1.508503258228302002e-01
5.870000000000000000e+02 7.185629272460937500e+01 2.109074211120605469e+01 1.945914775133132935e-01 5.770561218261718750e+00 1.789545893669128418e+00 2.459660768508911133e-01
5.880000000000000000e+02 6.795656585693359375e+01 2.270013618469238281e+01 3.050043887924402952e-04 5.968295097351074219e+00 1.790580034255981445e+00 1.108040660619735718e-01
5.890000000000000000e+02 6.271813964843750000e+01 2.603540229797363281e+01 -3.655189871788024902e-01 4.544689655303955078e+00 1.253751158714294434e+00 -9.825619459152221680e-01
5.900000000000000000e+02 6.034613418579101562e+01 3.024842262268066406e+01 1.321185380220413208e-01 3.406982660293579102e+00 1.061730384826660156e+00 -7.763116955757141113e-01
5.910000000000000000e+02 5.895981597900390625e+01 3.277017211914062500e+01 3.245870471000671387e-01 3.176483869552612305e+00 1.050321340560913086e+00 -4.049349725246429443e-01
5.920000000000000000e+02 5.668663787841796875e+01 3.524644088745117188e+01 4.359157383441925049e-01 2.939995765686035156e+00 1.012773513793945312e+00 -1.355140656232833862e-01
5.930000000000000000e+02 5.291030883789062500e+01 4.047200012207031250e+01 3.914929926395416260e-01 2.908764123916625977e+00 9.900771379470825195e-01 3.278553858399391174e-02
5.940000000000000000e+02 7.937145233154296875e+01 1.529583358764648438e+01 1.290281582623720169e-02 4.945028305053710938e+00 1.487379312515258789e+00 -1.766674779355525970e-02
5.950000000000000000e+02 7.936859893798828125e+01 1.668445396423339844e+01 7.379430811852216721e-03 4.930731773376464844e+00 1.481433391571044922e+00 4.534335341304540634e-03
5.960000000000000000e+02 7.336920166015625000e+01 2.127758789062500000e+01 1.377861052751541138e-01 5.669709682464599609e+00 1.742248654365539551e+00 2.602765560150146484e-01
5.970000000000000000e+02 7.007428741455078125e+01 2.194804000854492188e+01 1.493693292140960693e-01 5.877684116363525391e+00 1.808115959167480469e+00 2.318425029516220093e-01
5.980000000000000000e+02 6.676818847656250000e+01 2.600439262390136719e+01 -3.537640869617462158e-01 5.542862892150878906e+00 1.556729555130004883e+00 -2.193946391344070435e-01
5.990000000000000000e+02 6.322917938232421875e+01 2.884447860717773438e+01 -1.944706290960311890e-01 4.405190467834472656e+00 1.263216018676757812e+00 -7.042649388313293457e-01
6.000000000000000000e+02 6.096186828613281250e+01 3.392853927612304688e+01 2.152525782585144043e-01 3.596596002578735352e+00 1.143554568290710449e+00 -4.341309964656829834e-01
6.010000000000000000e+02 7.810700988769531250e+01 1.522858047485351562e+01 4.614072293043136597e-02 5.196677684783935547e+00 1.572845458984375000e+00 -5.875045433640480042e-02
6.020000000000000000e+02 7.799310302734375000e+01 2.072447776794433594e+01 2.076187543570995331e-02 5.286774158477783203e+00 1.592260718345642090e+00 1.399383544921875000e-01
6.030000000000000000e+02 7.473573303222656250e+01 2.448244094848632812e+01 -2.731446363031864166e-02 5.617035865783691406e+00 1.676916360855102539e+00 2.767092883586883545e-01
6.040000000000000000e+02 6.672101593017578125e+01 3.038954925537109375e+01 -2.454266995191574097e-01 4.989256858825683594e+00 1.423149108886718750e+00 -2.944982647895812988e-01
6.050000000000000000e+02 6.357732391357421875e+01 3.458707427978515625e+01 4.953526705503463745e-02 4.172486305236816406e+00 1.266606450080871582e+00 -3.386544585227966309e-01
6.060000000000000000e+02 6.306580734252929688e+01 3.768190002441406250e+01 1.690335571765899658e-01 4.006393909454345703e+00 1.252628207206726074e+00 -1.975458860397338867e-01
6.070000000000000000e+02 5.787372970581054688e+01 4.061430740356445312e+01 3.869781494140625000e-01 3.247529029846191406e+00 1.090352177619934082e+00 -5.200541019439697266e-02
6.080000000000000000e+02 7.933789825439453125e+01 2.084898567199707031e+01 7.021293509751558304e-03 5.136528491973876953e+00 1.543064951896667480e+00 5.593643337488174438e-02
6.090000000000000000e+02 7.930290985107421875e+01 2.362287712097167969e+01 3.751537296921014786e-03 5.381437778472900391e+00 1.615556836128234863e+00 6.639571487903594971e-02
6.100000000000000000e+02 7.293217468261718750e+01 2.576761436462402344e+01 -9.634844213724136353e-02 5.648804664611816406e+00 1.665736913681030273e+00 2.515990138053894043e-01
6.110000000000000000e+02 6.945613098144531250e+01 3.046215820312500000e+01 -2.237843126058578491e-01 5.317924976348876953e+00 1.528242230415344238e+00 -4.460294917225837708e-02
6.120000000000000000e+02 6.634844970703125000e+01 3.454392242431640625e+01 -6.497922539710998535e-02 4.655529975891113281e+00 1.377165317535400391e+00 -2.471146434545516968e-01
6.130000000000000000e+02 6.696982574462890625e+01 3.750815963745117188e+01 7.904904894530773163e-03 4.682073593139648438e+00 1.406993508338928223e+00 -1.295044273138046265e-01
6.140000000000000000e+02 6.266505432128906250e+01 4.089904403686523438e+01 2.165792137384414673e-01 3.938793897628784180e+00 1.246611952781677246e+00 -6.128019466996192932e-02
6.150000000000000000e+02 7.793392944335937500e+01 2.209401893615722656e+01 1.315584313124418259e-02 5.365654945373535156e+00 1.613643288612365723e+00 1.637949645519256592e-01
6.160000000000000000e+02 7.927329254150390625e+01 2.779892158508300781e+01 -6.235068663954734802e-03 5.728725433349609375e+00 1.716747045516967773e+00 5.509318783879280090e-02
6.170000000000000000e+02 6.868668365478515625e+01 3.373045349121093750e+01 -1.325443834066390991e-01 5.033272266387939453e+00 1.470218420028686523e+00 -1.136869639158248901e-01
6.180000000000000000e+02 7.781314849853515625e+01 2.625649261474609375e+01 -1.377132534980773926e-02 5.608420372009277344e+00 1.678394794464111328e+00 1.605109572410583496e-01
6.190000000000000000e+02 7.926290893554687500e+01 3.197246170043945312e+01 -4.217515233904123306e-03 5.957579612731933594e+00 1.786008596420288086e+00 3.185410052537918091e-02
6.200000000000000000e+02 7.439023590087890625e+01 3.380227279663085938e+01 -6.671614944934844971e-02 5.579503536224365234e+00 1.653836250305175781e+00 5.323769897222518921e-02
6.210000000000000000e+02 6.996372222900390625e+01 3.616251754760742188e+01 -6.476172804832458496e-02 5.106585979461669922e+00 1.512547254562377930e+00 -4.988234117627143860e-02
6.220000000000000000e+02 7.927226257324218750e+01 3.058280372619628906e+01 -3.113793674856424332e-03 5.895166397094726562e+00 1.767615795135498047e+00 3.908546268939971924e-02
6.230000000000000000e+02 7.349808502197265625e+01 3.555319976806640625e+01 -7.189796864986419678e-02 5.485919952392578125e+00 1.624206542968750000e+00 9.499507956206798553e-03
6.240000000000000000e+02 7.218744659423828125e+01 4.082851409912109375e+01 -9.945495054125785828e-03 5.282629966735839844e+00 1.581805348396301270e+00 -3.813039278611540794e-03
6.250000000000000000e+02 6.746311950683593750e+01 4.080984878540039062e+01 5.051647871732711792e-02 4.687101364135742188e+00 1.421285390853881836e+00 -4.210609197616577148e-02
6.260000000000000000e+02 7.772243499755859375e+01 3.322397613525390625e+01 -1.614209823310375214e-02 5.844903945922851562e+00 1.748628616333007812e+00 6.418141722679138184e-02
6.270000000000000000e+02 7.917925262451171875e+01 3.755007553100585938e+01 -7.798497244948521256e-05 6.057206630706787109e+00 1.817138552665710449e+00 -5.962894298136234283e-03
6.280000000000000000e+02 7.860756683349609375e+01 4.018191909790039062e+01 -1.821953617036342621e-02 5.985216140747070312e+00 1.790099024772644043e+00 -4.393673688173294067e-02
6.290000000000000000e+02 3.771791076660156250e+01 4.034254074096679688e+01 -5.081593990325927734e-01 3.349418640136718750e+00 8.523777723312377930e-01 7.705047726631164551e-02
6.300000000000000000e+02 3.867973709106445312e+01 3.635608673095703125e+01 -5.070088505744934082e-01 3.477539539337158203e+00 8.911591768264770508e-01 2.617873549461364746e-01
6.310000000000000000e+02 3.764790725708007812e+01 3.208772277832031250e+01 -6.194440126419067383e-01 3.903810739517211914e+00 9.853100180625915527e-01 4.022445976734161377e-01
6.320000000000000000e+02 3.604782485961914062e+01 3.056626510620117188e+01 -6.759646534919738770e-01 4.090675354003906250e+00 1.024413228034973145e+00 2.127065956592559814e-01
6.330000000000000000e+02 3.670092010498046875e+01 2.750212287902832031e+01 -6.278852224349975586e-01 4.575796127319335938e+00 1.184373140335083008e+00 3.761079311370849609e-01
6.340000000000000000e+02 3.574224090576171875e+01 2.258228683471679688e+01 -1.873832195997238159e-01 5.827446460723876953e+00 1.692018985748291016e+00 1.720234900712966919e-01
6.350000000000000000e+02 3.714454269409179688e+01 2.002666473388671875e+01 1.407870799303054810e-01 6.443478107452392578e+00 1.975279569625854492e+00 4.624708592891693115e-01
6.360000000000000000e+02 3.798548507690429688e+01 1.586881256103515625e+01 5.385530591011047363e-01 8.033898353576660156e+00 2.571735382080078125e+00 6.129925251007080078e-01
6.370000000000000000e+02 3.729026031494140625e+01 1.285311603546142578e+01 8.459697961807250977e-01 1.031249809265136719e+01 3.347540378570556641e+00 2.387441098690032959e-01
6.380000000000000000e+02 3.696640777587890625e+01 1.023460388183593750e+01 1.223391532897949219e+00 1.237228202819824219e+01 4.078701972961425781e+00 2.027424871921539307e-01
6.390000000000000000e+02 3.602344131469726562e+01 1.107196426391601562e+01 1.019365072250366211e+00 1.173498725891113281e+01 3.826305627822875977e+00 -5.573567152023315430e-01
6.400000000000000000e+02 3.559437179565429688e+01 3.474060821533203125e+01 -6.256653666496276855e-01 3.576330900192260742e+00 8.851996064186096191e-01 9.212707728147506714e-02
6.410000000000000000e+02 3.394404220581054688e+01 3.226969909667968750e+01 -6.847321987152099609e-01 3.746024370193481445e+00 9.183876514434814453e-01 -8.969492465257644653e-02
6.420000000000000000e+02 3.054216575622558594e+01 3.094786453247070312e+01 -5.314230918884277344e-01 3.362519741058349609e+00 8.493289351463317871e-01 -6.193845272064208984e-01
6.430000000000000000e+02 3.154963874816894531e+01 2.639136123657226562e+01 -4.707589447498321533e-01 4.419088363647460938e+00 1.184498906135559082e+00 -7.520486116409301758e-01
6.440000000000000000e+02 3.229673767089843750e+01 2.384133720397949219e+01 -1.652437746524810791e-01 5.256140232086181641e+00 1.527268886566162109e+00 -7.544317841529846191e-01
6.450000000000000000e+02 3.404748535156250000e+01 1.959821510314941406e+01 7.223623991012573242e-01 6.905912399291992188e+00 2.288482427597045898e+00 -7.813784480094909668e-01
6.460000000000000000e+02 3.229111862182617188e+01 1.448152351379394531e+01 9.960479140281677246e-01 1.012157154083251953e+01 3.335285902023315430e+00 -2.853019952774047852e+00
6.470000000000000000e+02 3.328088378906250000e+01 1.627162933349609375e+01 1.058088421821594238e+00 8.962472915649414062e+00 3.006168365478515625e+00 -2.140458345413208008e+00
6.480000000000000000e+02 3.267538070678710938e+01 1.309050750732421875e+01 8.751979470252990723e-01 1.107822227478027344e+01 3.586025953292846680e+00 -2.702313423156738281e+00
6.490000000000000000e+02 3.298582839965820312e+01 1.168543148040771484e+01 7.097420096397399902e-01 1.163718128204345703e+01 3.704077005386352539e+00 -2.360819578170776367e+00
6.500000000000000000e+02 3.323832321166992188e+01 1.028733348846435547e+01 4.210301637649536133e-01 1.201628494262695312e+01 3.731194734573364258e+00 -2.199065446853637695e+00
6.510000000000000000e+02 3.258732986450195312e+01 4.039328765869140625e+01 -5.463693737983703613e-01 3.085136651992797852e+00 7.616301774978637695e-01 -3.383904695510864258e-02
6.520000000000000000e+02 3.213720321655273438e+01 3.658638381958007812e+01 -5.671378374099731445e-01 3.166911125183105469e+00 7.799319624900817871e-01 -1.281746625900268555e-01
6.530000000000000000e+02 3.124827384948730469e+01 3.349273300170898438e+01 -5.516675710678100586e-01 3.202523708343505859e+00 7.952568531036376953e-01 -3.438744843006134033e-01
6.540000000000000000e+02 2.804283714294433594e+01 3.148484420776367188e+01 -3.025257587432861328e-01 2.651831388473510742e+00 7.047917246818542480e-01 -7.207108139991760254e-01
6.550000000000000000e+02 2.984389114379882812e+01 2.665603065490722656e+01 -3.311724364757537842e-01 3.756414651870727539e+00 1.027572631835937500e+00 -1.159461140632629395e+00
6.560000000000000000e+02 2.964472770690917969e+01 2.373554992675781250e+01 2.094805389642715454e-01 3.993225336074829102e+00 1.260811805725097656e+00 -1.587663173675537109e+00
6.570000000000000000e+02 2.836506843566894531e+01 2.108948516845703125e+01 2.829533576965332031e+00 2.789413928985595703e+00 1.685684323310852051e+00 -2.504081487655639648e+00
6.580000000000000000e+02 2.962470817565917969e+01 2.129371833801269531e+01 2.009447336196899414e+00 4.672967433929443359e+00 2.004724264144897461e+00 -2.203229665756225586e+00
6.590000000000000000e+02 3.020032310485839844e+01 1.993290710449218750e+01 2.449990034103393555e+00 6.103921413421630859e+00 2.566173315048217773e+00 -3.105831384658813477e+00
6.600000000000000000e+02 3.196739959716796875e+01 2.084103012084960938e+01 8.625842332839965820e-01 6.151398181915283203e+00 2.104194641113281250e+00 -1.233882665634155273e+00
6.610000000000000000e+02 3.086327362060546875e+01 1.861524200439453125e+01 1.815647840499877930e+00 7.675275325775146484e+00 2.847276926040649414e+00 -3.290420055389404297e+00
6.620000000000000000e+02 2.740003776550292969e+01 4.051026535034179688e+01 -3.409878611564636230e-01 2.337304115295410156e+00 5.988948345184326172e-01 -1.229682266712188721e-01
6.630000000000000000e+02 2.772768020629882812e+01 3.682713317871093750e+01 -3.386614918708801270e-01 2.423039436340332031e+00 6.253134012222290039e-01 -3.174338340759277344e-01
6.640000000000000000e+02 2.833428764343261719e+01 3.385968017578125000e+01 -3.737564086914062500e-01 2.671427249908447266e+00 6.893012523651123047e-01 -4.997916519641876221e-01
6.650000000000000000e+02 2.414974594116210938e+01 3.129368019104003906e+01 5.368519574403762817e-03 1.609863638877868652e+00 4.845696687698364258e-01 -6.250895261764526367e-01
6.660000000000000000e+02 2.523596763610839844e+01 2.893512153625488281e+01 4.802105948328971863e-02 1.794245004653930664e+00 5.526798367500305176e-01 -9.087772369384765625e-01
6.670000000000000000e+02 2.318830871582031250e+01 2.288349151611328125e+01 -3.499288558959960938e-01 1.487714350223541260e-01 -6.034722551703453064e-02 -2.307522296905517578e-01
6.680000000000000000e+02 2.527677536010742188e+01 2.441874694824218750e+01 3.326889276504516602e-01 1.084126472473144531e+00 4.250446259975433350e-01 -1.102346420288085938e+00
6.690000000000000000e+02 2.717343330383300781e+01 2.160545349121093750e+01 1.481400370597839355e+00 8.109999895095825195e-01 6.877201199531555176e-01 -1.200654149055480957e+00
6.700000000000000000e+02 2.426831817626953125e+01 3.542875671386718750e+01 -1.040721014142036438e-01 1.749145269393920898e+00 4.935219287872314453e-01 -3.769979476928710938e-01
6.710000000000000000e+02 2.223033714294433594e+01 3.321918869018554688e+01 6.014904007315635681e-02 1.226945042610168457e+00 3.861282169818878174e-01 -3.933615088462829590e-01
6.720000000000000000e+02 2.077137565612792969e+01 2.977957725524902344e+01 1.963719576597213745e-01 6.805471777915954590e-01 2.630757391452789307e-01 -3.877525627613067627e-01
6.730000000000000000e+02 2.188265419006347656e+01 2.382795906066894531e+01 -2.966580092906951904e-01 8.147063106298446655e-02 -6.455621123313903809e-02 -2.208107411861419678e-01
6.740000000000000000e+02 2.229051017761230469e+01 4.069924163818359375e+01 -8.479300141334533691e-02 1.537191748619079590e+00 4.357196390628814697e-01 -8.680128306150436401e-02
6.750000000000000000e+02 2.115135383605957031e+01 3.736672973632812500e+01 -1.250114198774099350e-02 1.302489876747131348e+00 3.869966268539428711e-01 -2.042288333177566528e-01
6.760000000000000000e+02 1.962579154968261719e+01 3.451730728149414062e+01 1.078642010688781738e-01 9.201720356941223145e-01 3.084108531475067139e-01 -2.522237598896026611e-01
6.770000000000000000e+02 1.868948745727539062e+01 2.975514793395996094e+01 1.841879785060882568e-01 4.435482919216156006e-01 1.883208900690078735e-01 -1.924827545881271362e-01
6.780000000000000000e+02 1.895596504211425781e+01 2.572377777099609375e+01 -3.663928061723709106e-02 1.300308704376220703e-01 2.801747620105743408e-02 -1.063669696450233459e-01
6.790000000000000000e+02 1.967835807800292969e+01 2.248322105407714844e+01 -7.304286956787109375e-01 -1.774474605917930603e-02 -2.244520187377929688e-01 -1.504783332347869873e-01
6.800000000000000000e+02 1.711001586914062500e+01 2.165226554870605469e+01 -6.291887760162353516e-01 -7.781150937080383301e-02 -2.121000885963439941e-01 -1.803119629621505737e-01
6.810000000000000000e+02 2.088482475280761719e+01 2.283682441711425781e+01 -6.654270291328430176e-01 -3.610895946621894836e-02 -2.104607969522476196e-01 -1.256998181343078613e-01
6.820000000000000000e+02 1.739269447326660156e+01 4.106830596923828125e+01 8.621717989444732666e-02 7.960909605026245117e-01 2.646924257278442383e-01 -1.125176250934600830e-02
6.830000000000000000e+02 1.699130439758300781e+01 3.815608215332031250e+01 1.032707244157791138e-01 7.369227409362792969e-01 2.520580589771270752e-01 -4.947201907634735107e-02
6.840000000000000000e+02 1.641531753540039062e+01 3.520220565795898438e+01 1.246643885970115662e-01 6.037719845771789551e-01 2.185309082269668579e-01 -7.004629075527191162e-02
6.850000000000000000e+02 1.611180877685546875e+01 2.545477104187011719e+01 -8.357642590999603271e-02 7.336599379777908325e-02 -3.063128562644124031e-03 6.321436166763305664e-02
6.860000000000000000e+02 1.645217323303222656e+01 2.283852005004882812e+01 -3.920856714248657227e-01 -2.840971574187278748e-02 -1.261486113071441650e-01 8.002157323062419891e-03
6.870000000000000000e+02 1.588964080810546875e+01 2.102485466003417969e+01 -4.269515573978424072e-01 -1.221058815717697144e-01 -1.647172272205352783e-01 -1.665189564228057861e-01
6.880000000000000000e+02 1.267008209228515625e+01 4.117226028442382812e+01 1.104526594281196594e-01 3.387714326381683350e-01 1.347672343254089355e-01 -1.569760614074766636e-03
6.890000000000000000e+02 1.292640399932861328e+01 3.839199829101562500e+01 1.155073642730712891e-01 3.401471078395843506e-01 1.366963386535644531e-01 1.590039022266864777e-02
6.900000000000000000e+02 1.303753185272216797e+01 3.547117614746093750e+01 1.301885098218917847e-01 3.045901358127593994e-01 1.304336041212081909e-01 2.962621673941612244e-02
6.910000000000000000e+02 1.298707389831542969e+01 3.257532501220703125e+01 1.085464358329772949e-01 2.355287820100784302e-01 1.032225713133811951e-01 6.666707247495651245e-02
6.920000000000000000e+02 1.250635623931884766e+01 2.708903312683105469e+01 -4.180664196610450745e-02 1.036086007952690125e-01 1.854058727622032166e-02 1.422036141157150269e-01
6.930000000000000000e+02 1.316472053527832031e+01 2.302989006042480469e+01 -2.171674519777297974e-01 9.287095069885253906e-02 -3.728894889354705811e-02 7.601951062679290771e-02
6.940000000000000000e+02 1.363949680328369141e+01 1.937061500549316406e+01 -1.216219887137413025e-01 -2.013554982841014862e-02 -4.252726212143898010e-02 -5.332429707050323486e-02
6.950000000000000000e+02 1.295484828948974609e+01 1.623629570007324219e+01 -1.269292645156383514e-02 -1.592395454645156860e-02 -8.585064671933650970e-03 -1.430028397589921951e-02
6.960000000000000000e+02 1.350559806823730469e+01 1.213554000854492188e+01 6.008815951645374298e-03 6.161398254334926605e-03 3.651064354926347733e-03 3.355350811034440994e-03
6.970000000000000000e+02 1.336832046508789062e+01 1.074313640594482422e+01 -6.388423964381217957e-03 2.005384070798754692e-03 -1.314912107773125172e-03 3.152630059048533440e-03
6.980000000000000000e+02 1.366002368927001953e+01 5.399228096008300781e+00 2.708504907786846161e-03 -1.375462976284325123e-03 3.999125910922884941e-04 1.854085014201700687e-03
6.990000000000000000e+02 1.109187984466552734e+01 1.865630507469177246e+00 4.417941090650856495e-04 -6.042178138159215450e-04 -4.872710633208043873e-05 5.494623328559100628e-04
7.000000000000000000e+02 1.404594707489013672e+01 1.914184093475341797e+00 -8.065710062510333955e-06 -6.704396801069378853e-04 -2.035516226897016168e-04 7.663532160222530365e-04
7.010000000000000000e+02 1.183472061157226562e+01 1.870236635208129883e+00 1.640177681110799313e-03 4.755918926093727350e-04 6.347308517433702946e-04 2.516025269869714975e-04
7.020000000000000000e+02 8.167913436889648438e+00 4.110854339599609375e+01 6.689467281103134155e-02 7.653367239981889725e-03 2.236441336572170258e-02 2.133004739880561829e-02
7.030000000000000000e+02 9.158529281616210938e+00 3.825125122070312500e+01 8.352236449718475342e-02 6.352008134126663208e-02 4.411273449659347534e-02 5.007429793477058411e-02
7.040000000000000000e+02 6.698991775512695312e+00 2.807000541687011719e+01 8.428418659605085850e-04 -3.145758807659149170e-02 -9.184423834085464478e-03 1.457086354494094849e-01
7.050000000000000000e+02 9.889209747314453125e+00 2.248986244201660156e+01 -1.359631419181823730e-01 5.657090619206428528e-02 -2.381767146289348602e-02 8.372684568166732788e-02
7.060000000000000000e+02 1.075316143035888672e+01 2.130293273925781250e+01 -1.488402485847473145e-01 6.581099331378936768e-02 -2.490877546370029449e-02 3.029515035450458527e-02
7.070000000000000000e+02 9.170597076416015625e+00 1.599351024627685547e+01 -3.207943588495254517e-02 3.146300790831446648e-03 -8.679941296577453613e-03 -1.351839047856628895e-03
7.080000000000000000e+02 9.486840248107910156e+00 1.496461391448974609e+01 -1.566441543400287628e-02 -4.575122147798538208e-03 -6.071861367672681808e-03 -4.215249326080083847e-03
7.090000000000000000e+02 9.841649055480957031e+00 1.172294998168945312e+01 -4.051030613481998444e-03 -7.990772835910320282e-03 -3.612541127949953079e-03 1.482310704886913300e-03
7.100000000000000000e+02 8.902433395385742188e+00 5.445837020874023438e+00 2.206027711508795619e-04 -2.541617257520556450e-03 -6.963043124414980412e-04 1.098861801438033581e-03
7.110000000000000000e+02 8.058808326721191406e+00 1.866067886352539062e+00 8.962423889897763729e-04 -6.959735765121877193e-04 6.008064156048931181e-05 1.310745574301108718e-04
7.120000000000000000e+02 7.290095806121826172e+00 1.874061226844787598e+00 1.808132859878242016e-03 2.544291201047599316e-04 6.187686230987310410e-04 -5.112407961860299110e-04
7.130000000000000000e+02 5.026136398315429688e+00 4.034729385375976562e+01 2.706335112452507019e-02 -2.149410694837570190e-01 -5.636331439018249512e-02 4.244729131460189819e-02
7.140000000000000000e+02 6.372923374176025391e+00 3.808964157104492188e+01 5.832256749272346497e-02 -8.452652394771575928e-02 -7.861187681555747986e-03 6.916177272796630859e-02
7.150000000000000000e+02 5.995575428009033203e+00 3.638984680175781250e+01 4.687217995524406433e-02 -1.033710762858390808e-01 -1.694966852664947510e-02 8.541388064622879028e-02
7.160000000000000000e+02 8.328839302062988281e+00 3.064394760131835938e+01 3.434980288147926331e-02 9.171683341264724731e-03 1.305644586682319641e-02 1.339469552040100098e-01
7.170000000000000000e+02 8.524494171142578125e+00 2.924482154846191406e+01 1.631926372647285461e-02 3.286471217870712280e-02 1.475519314408302307e-02 1.501905918121337891e-01
7.180000000000000000e+02 5.037705421447753906e+00 2.344386100769042969e+01 -4.001029580831527710e-02 -2.545461244881153107e-02 -1.963947340846061707e-02 9.068817645311355591e-02
7.190000000000000000e+02 5.833418846130371094e+00 2.096494674682617188e+01 -4.772534593939781189e-02 -4.189064726233482361e-03 -1.557432394474744797e-02 5.659146606922149658e-02
7.200000000000000000e+02 5.230483055114746094e+00 1.341061782836914062e+01 -9.238719008862972260e-03 -4.407570231705904007e-03 -4.093886818736791611e-03 3.703687572851777077e-03
7.210000000000000000e+02 5.214539527893066406e+00 1.205793380737304688e+01 7.717852131463587284e-04 -2.115547191351652145e-03 -4.031285934615880251e-04 -3.588814288377761841e-03
7.220000000000000000e+02 4.156026363372802734e+00 8.034612655639648438e+00 3.220669925212860107e-03 -4.647580208256840706e-04 8.267735829576849937e-04 -2.722665900364518166e-03
7.230000000000000000e+02 4.221594333648681641e+00 1.944698333740234375e+00 1.417963299900293350e-03 1.789448288036510348e-04 4.790724196936935186e-04 -7.415261934511363506e-04
7.240000000000000000e+02 3.450886726379394531e+00 1.985516190528869629e+00 1.418632109562167898e-05 -9.041150042321532965e-05 -2.286755443492438644e-05 -5.168906063772737980e-04
7.250000000000000000e+02 4.980308055877685547e+00 2.765670537948608398e+00 1.831423141993582249e-03 1.516594638815149665e-04 5.949247861281037331e-04 -1.060113194398581982e-03
7.260000000000000000e+02 2.033885478973388672e+00 4.163711166381835938e+01 -1.877388544380664825e-02 -4.158610105514526367e-01 -1.303904652595520020e-01 -5.432195961475372314e-03
7.270000000000000000e+02 2.604953289031982422e+00 3.800426483154296875e+01 2.414878644049167633e-02 -3.483573198318481445e-01 -9.726256132125854492e-02 1.197710353881120682e-02
7.280000000000000000e+02 2.092974662780761719e+00 3.323260116577148438e+01 1.085092313587665558e-02 -3.026844859123229980e-01 -8.755007386207580566e-02 4.701624065637588501e-02
7.290000000000000000e+02 2.222567319869995117e+00 3.181321907043457031e+01 4.507559817284345627e-03 -2.636321485042572021e-01 -7.773737609386444092e-02 6.406272947788238525e-02
7.300000000000000000e+02 2.124761104583740234e+00 2.745355224609375000e+01 1.369053148664534092e-03 -1.562440097332000732e-01 -4.646248742938041687e-02 6.778474897146224976e-02
7.310000000000000000e+02 1.897876501083374023e+00 2.464756584167480469e+01 -1.567777246236801147e-03 -9.382315725088119507e-02 -2.861727960407733917e-02 5.170581117272377014e-02
7.320000000000000000e+02 1.869341015815734863e+00 2.047313308715820312e+01 -1.205475814640522003e-02 -2.368183620274066925e-02 -1.072097849100828171e-02 2.171628735959529877e-02
7.330000000000000000e+02 1.871421933174133301e+00 1.767041397094726562e+01 -9.221875108778476715e-03 -3.644777229055762291e-03 -3.859995864331722260e-03 9.207758121192455292e-03
7.340000000000000000e+02 1.788413882255554199e+00 1.485100269317626953e+01 -5.897745024412870407e-03 3.975782077759504318e-03 -5.765889654867351055e-04 1.665127347223460674e-03
7.350000000000000000e+02 1.727594614028930664e+00 1.065380954742431641e+01 2.758377231657505035e-03 4.227118100970983505e-03 2.095648553222417831e-03 -2.517452929168939590e-03
7.360000000000000000e+02 1.773134708404541016e+00 7.851463317871093750e+00 2.177562797442078590e-03 2.431333297863602638e-03 1.382668735459446907e-03 -1.980883302167057991e-03
7.370000000000000000e+02 3.471688270568847656e+00 2.904469013214111328e+00 1.530024339444935322e-03 3.306116850581020117e-04 5.581908044405281544e-04 -8.997386321425437927e-04
7.380000000000000000e+02 5.155479311943054199e-01 3.508516311645507812e+00 8.175774710252881050e-04 6.617003818973898888e-04 4.437833558768033981e-04 -3.758045786526054144e-04
7.390000000000000000e+02 1.685424232482910156e+01 3.533578634262084961e+00 -1.085176714695990086e-03 -8.100699778879061341e-05 -3.498551086522638798e-04 4.891593125648796558e-04
7.400000000000000000e+02 1.626704788208007812e+01 1.005080318450927734e+01 -2.280128188431262970e-03 2.216311695519834757e-04 -6.175491143949329853e-04 -3.348107216879725456e-03
7.410000000000000000e+02 1.712055397033691406e+01 9.002958297729492188e+00 2.946668537333607674e-03 2.974285045638680458e-03 1.776286051608622074e-03 1.314448076300323009e-03
7.420000000000000000e+02 1.541671085357666016e+01 1.117245864868164062e+01 3.962805029004812241e-03 7.354902103543281555e-03 3.395312000066041946e-03 1.597131136804819107e-03
7.430000000000000000e+02 1.219776248931884766e+01 1.201497364044189453e+01 -4.238707944750785828e-03 -3.563366830348968506e-03 -2.340622479096055031e-03 2.739049727097153664e-03
7.440000000000000000e+02 2.193867492675781250e+01 3.971047878265380859e+00 1.587134465808048844e-04 2.396206255070865154e-04 1.195002259919419885e-04 -3.134699072688817978e-04
7.450000000000000000e+02 1.971372985839843750e+01 2.440417051315307617e+00 -4.550920275505632162e-04 -5.229084054008126259e-04 -2.934001386165618896e-04 5.277899617794901133e-05
7.460000000000000000e+02 1.694294166564941406e+01 2.070774555206298828e+00 -3.669106517918407917e-04 -6.467646453529596329e-04 -3.041026066057384014e-04 3.169960691593587399e-04
7.470000000000000000e+02 2.136814117431640625e+01 5.186571121215820312e+00 2.880209358409047127e-04 6.412126822397112846e-04 2.787700796034187078e-04 5.715790903195738792e-04
7.480000000000000000e+02 2.036316299438476562e+01 5.926758289337158203e+00 -3.603709046728909016e-04 -3.880539225065149367e-05 -1.197528908960521221e-04 -4.990130546502768993e-04
7.490000000000000000e+02 1.800116539001464844e+01 8.019579887390136719e+00 -2.542718313634395599e-03 -7.617305382154881954e-04 -9.913346730172634125e-04 -1.861902419477701187e-03
7.500000000000000000e+02 1.482382106781005859e+01 1.248631763458251953e+01 -4.009386058896780014e-03 9.260914288461208344e-03 1.575458329170942307e-03 -3.135254140943288803e-03
7.510000000000000000e+02 1.334613704681396484e+01 1.356496238708496094e+01 -5.969112738966941833e-03 3.404536284506320953e-03 -7.693729712627828121e-04 3.702909161802381277e-04
7.520000000000000000e+02 1.213427448272705078e+01 1.328947734832763672e+01 2.509772311896085739e-03 -3.380077832844108343e-04 6.515293498523533344e-04 2.430109307169914246e-03
7.530000000000000000e+02 1.436705207824707031e+01 1.529238700866699219e+01 -7.665059994906187057e-03 1.755217649042606354e-02 2.966134808957576752e-03 -3.719814820215106010e-03
7.540000000000000000e+02 1.427428150177001953e+01 1.665231132507324219e+01 8.440394885838031769e-03 1.645334810018539429e-02 7.468122988939285278e-03 1.249141991138458252e-03
7.550000000000000000e+02 1.139478015899658203e+01 1.697909927368164062e+01 -4.568353667855262756e-02 5.167349241673946381e-03 -1.215485576540231705e-02 -1.517324894666671753e-02
7.560000000000000000e+02 1.415344619750976562e+01 1.798383140563964844e+01 -3.413597494363784790e-02 -2.250768244266510010e-02 -1.699309796094894409e-02 -3.335944935679435730e-02
7.570000000000000000e+02 1.486171817779541016e+01 2.015868949890136719e+01 -1.938010603189468384e-01 -6.121306121349334717e-02 -7.650423794984817505e-02 -1.201334819197654724e-01
7.580000000000000000e+02 1.398045158386230469e+01 2.156922149658203125e+01 -3.022390007972717285e-01 5.705314502120018005e-02 -7.355576008558273315e-02 -1.691913348622620106e-03
7.590000000000000000e+02 2.594344139099121094e+01 1.991197317838668823e-01 1.355906844139099121e+00 -2.417692989110946655e-01 3.342412710189819336e-01 2.315626442432403564e-01
7.600000000000000000e+02 2.460243225097656250e+01 -1.047886252403259277e+00 8.893927335739135742e-01 -1.467629522085189819e-01 2.227889448404312134e-01 6.830761432647705078e-01
7.610000000000000000e+02 2.067186546325683594e+01 -2.025820970535278320e+00 -1.801986247301101685e-01 2.389364093542098999e-01 1.762133836746215820e-02 7.554454207420349121e-01
7.620000000000000000e+02 1.968031883239746094e+01 -1.389522790908813477e+00 -4.445053040981292725e-01 1.658599823713302612e-01 -8.359359204769134521e-02 5.289673209190368652e-01
7.630000000000000000e+02 2.046097564697265625e+01 -7.498135566711425781e+00 2.783150970935821533e-01 6.798715591430664062e-01 2.874560058116912842e-01 1.156933665275573730e+00
7.640000000000000000e+02 1.514251708984375000e+01 -1.144676494598388672e+01 1.396407604217529297e+00 2.009264707565307617e+00 1.021701693534851074e+00 7.632337808609008789e-01
7.650000000000000000e+02 2.124546813964843750e+01 -1.117897868156433105e+00 -7.308669388294219971e-02 1.681992560625076294e-01 2.853376977145671844e-02 5.784781575202941895e-01
7.660000000000000000e+02 1.812219619750976562e+01 -1.569721341133117676e+00 -7.688070535659790039e-01 1.425712853670120239e-01 -1.878707259893417358e-01 4.131593108177185059e-01
7.670000000000000000e+02 1.539324855804443359e+01 -8.478828430175781250e+00 3.477054238319396973e-01 1.270783424377441406e+00 4.855466485023498535e-01 4.699105918407440186e-01
7.680000000000000000e+02 1.622296524047851562e+01 -4.720170497894287109e+00 -3.772516846656799316e-01 5.800291299819946289e-01 6.083324179053306580e-02 5.129711627960205078e-01
7.690000000000000000e+02 1.513801860809326172e+01 -2.501064300537109375e+00 -9.354508519172668457e-01 1.850284039974212646e-01 -2.251267433166503906e-01 1.745773404836654663e-01
7.700000000000000000e+02 1.347208118438720703e+01 -1.824611186981201172e+00 -1.231086134910583496e+00 6.945869326591491699e-02 -3.484882414340972900e-01 -4.473778605461120605e-02
7.710000000000000000e+02 1.501182460784912109e+01 -1.775350213050842285e+00 -1.174162268638610840e+00 8.611323684453964233e-02 -3.264147043228149414e-01 1.019284725189208984e-01
7.720000000000000000e+02 1.204543209075927734e+01 -2.552906036376953125e+00 -9.817184805870056152e-01 1.213177144527435303e-01 -2.581202387809753418e-01 -1.902385950088500977e-01
7.730000000000000000e+02 3.321807861328125000e+01 -8.244481086730957031e+00 -3.143733501434326172e+00 6.173396110534667969e+00 9.088988900184631348e-01 -1.395822882652282715e+00
7.740000000000000000e+02 3.483277130126953125e+01 -1.094224643707275391e+01 1.476745456457138062e-01 8.869816780090332031e+00 2.705247402191162109e+00 -2.110904455184936523e+00
7.750000000000000000e+02 3.467282867431640625e+01 -1.237038612365722656e+01 1.385210275650024414e+00 1.034621715545654297e+01 3.519428253173828125e+00 -3.303468465805053711e+00
7.760000000000000000e+02 3.524497222900390625e+01 -1.501559734344482422e+01 9.849526882171630859e-01 1.290428161621093750e+01 4.166770458221435547e+00 -2.648924827575683594e+00
7.770000000000000000e+02 3.674615859985351562e+01 -9.828299522399902344e+00 -1.665698528289794922e+00 9.177183151245117188e+00 2.253445386886596680e+00 -1.115754127502441406e+00
7.780000000000000000e+02 3.431726074218750000e+01 -8.914748191833496094e+00 -2.887957811355590820e+00 7.949248790740966797e+00 1.518387317657470703e+00 -9.928260445594787598e-01
7.790000000000000000e+02 3.131932640075683594e+01 -8.636397361755371094e+00 -3.537943840026855469e+00 5.126301050186157227e-01 -9.075941443443298340e-01 6.504111289978027344e-01
7.800000000000000000e+02 3.657403945922851562e+01 -1.640607070922851562e+01 1.071154117584228516e+00 1.086784648895263672e+01 3.581700086593627930e+00 -1.963252305984497070e+00
7.810000000000000000e+02 4.378238296508789062e+01 -2.232271766662597656e+01 1.616718053817749023e+00 1.131586837768554688e+01 3.879776000976562500e+00 -1.462697267532348633e+00
7.820000000000000000e+02 4.569508361816406250e+01 -2.477493095397949219e+01 1.968479752540588379e+00 1.410799407958984375e+01 4.822942256927490234e+00 -3.858087778091430664e+00
7.830000000000000000e+02 4.231415176391601562e+01 -2.278805923461914062e+01 2.101607799530029297e+00 9.615264892578125000e+00 3.515061855316162109e+00 -1.115288019180297852e+00
7.840000000000000000e+02 4.242884826660156250e+01 -2.031226539611816406e+01 1.856329560279846191e+00 9.658772468566894531e+00 3.454530715942382812e+00 -9.660607576370239258e-01
7.850000000000000000e+02 3.896856307983398438e+01 -1.521619796752929688e+01 1.214654684066772461e+00 8.826580047607421875e+00 3.012370586395263672e+00 -1.513492465019226074e+00
7.860000000000000000e+02 3.781007385253906250e+01 -1.648866844177246094e+01 1.330537557601928711e+00 9.698184967041015625e+00 3.308616638183593750e+00 -1.764051198959350586e+00
7.870000000000000000e+02 3.433732986450195312e+01 -3.041866111755371094e+01 -2.386592328548431396e-01 4.188479900360107422e+00 1.184946179389953613e+00 1.347259640693664551e+00
7.880000000000000000e+02 3.329779815673828125e+01 -2.616690826416015625e+01 1.311760306358337402e+00 2.964269876480102539e+00 1.282809019088745117e+00 1.985336184501647949e+00
7.890000000000000000e+02 3.424905776977539062e+01 -2.529846000671386719e+01 1.622262001037597656e+00 5.085620403289794922e+00 2.012364625930786133e+00 2.384860515594482422e+00
7.900000000000000000e+02 3.411023712158203125e+01 -2.742032051086425781e+01 6.535784006118774414e-01 4.468029499053955078e+00 1.536482453346252441e+00 1.844871520996093750e+00
7.910000000000000000e+02 3.235306930541992188e+01 -2.713391685485839844e+01 1.032243251800537109e+00 2.144618272781372070e+00 9.530584812164306641e-01 1.406211614608764648e+00
7.920000000000000000e+02 2.938245391845703125e+01 -3.312968826293945312e+01 -1.778242737054824829e-01 1.371592521667480469e+00 3.581304848194122314e-01 8.611285686492919922e-01
7.930000000000000000e+02 2.629132080078125000e+01 -3.184085655212402344e+01 -5.155727267265319824e-01 1.192831248044967651e-01 -1.188868731260299683e-01 1.946292817592620850e-01
7.940000000000000000e+02 2.457422065734863281e+01 -3.006807899475097656e+01 -1.261239767074584961e+00 -5.315355956554412842e-02 -3.943179845809936523e-01 1.034195348620414734e-01
7.950000000000000000e+02 2.312107467651367188e+01 -3.075735855102539062e+01 -8.581936955451965332e-01 3.330269828438758850e-02 -2.474672943353652954e-01 -3.543411567807197571e-02
7.960000000000000000e+02 1.916533851623535156e+01 -3.202309417724609375e+01 -4.175676405429840088e-01 5.909904241561889648e-01 5.202683806419372559e-02 -3.038160204887390137e-01
7.970000000000000000e+02 1.526008701324462891e+01 -3.314258575439453125e+01 -4.066687822341918945e-01 8.266360759735107422e-01 1.259901970624923706e-01 -1.413120478391647339e-01
7.980000000000000000e+02 1.041491222381591797e+01 -3.309013366699218750e+01 -3.305701315402984619e-01 7.033120989799499512e-01 1.118225827813148499e-01 1.685831844806671143e-01
7.990000000000000000e+02 6.679857730865478516e+00 -2.990100669860839844e+01 -1.863670498132705688e-01 3.682776987552642822e-01 5.457319691777229309e-02 4.083393216133117676e-01
8.000000000000000000e+02 5.509354114532470703e+00 -2.917858123779296875e+01 -1.220969185233116150e-01 1.471997946500778198e-01 7.530863396823406219e-03 4.153370857238769531e-01
8.010000000000000000e+02 4.439021587371826172e+00 -3.150735855102539062e+01 -9.384118765592575073e-02 6.872264295816421509e-02 -7.535563781857490540e-03 3.160554766654968262e-01
8.020000000000000000e+02 2.223888015747070312e+01 -2.934868812561035156e+01 -9.239270091056823730e-01 -3.310688957571983337e-02 -2.871101796627044678e-01 8.319707214832305908e-02
8.030000000000000000e+02 2.119430541992187500e+01 -2.845628929138183594e+01 -4.260033965110778809e-01 9.809600561857223511e-02 -9.837221354246139526e-02 8.089330047369003296e-02
8.040000000000000000e+02 2.018839073181152344e+01 -2.749446487426757812e+01 -1.661602258682250977e-01 1.973716914653778076e-01 9.363441728055477142e-03 -7.835220545530319214e-02
8.050000000000000000e+02 1.719305801391601562e+01 -2.458579635620117188e+01 3.772790431976318359e-01 9.124219417572021484e-01 3.869102895259857178e-01 -5.684440732002258301e-01
8.060000000000000000e+02 1.532077026367187500e+01 -2.242926406860351562e+01 6.167193651199340820e-01 2.158147811889648438e+00 8.324601650238037109e-01 -1.025975346565246582e+00
8.070000000000000000e+02 1.450200557708740234e+01 -2.116356468200683594e+01 6.817400455474853516e-01 3.740946292877197266e+00 1.326805830001831055e+00 -7.941092848777770996e-01
8.080000000000000000e+02 1.417794418334960938e+01 -1.965555953979492188e+01 4.499838352203369141e-01 4.285684585571289062e+00 1.420700550079345703e+00 -1.957649737596511841e-01
8.090000000000000000e+02 1.297956275939941406e+01 -1.660576629638671875e+01 8.570781350135803223e-01 3.205767393112182617e+00 1.218853712081909180e+00 7.031515240669250488e-01
8.100000000000000000e+02 9.793201446533203125e+00 -1.443149566650390625e+01 8.692342042922973633e-01 1.079457402229309082e+00 5.846074819564819336e-01 -4.117546603083610535e-03
8.110000000000000000e+02 8.833522796630859375e+00 -1.674546241760253906e+01 7.260560393333435059e-01 8.446839451789855957e-01 4.712219834327697754e-01 1.790930926799774170e-01
8.120000000000000000e+02 6.620695114135742188e+00 -1.666772270202636719e+01 5.128839612007141113e-01 1.076126173138618469e-01 1.861489713191986084e-01 8.662012219429016113e-02
8.130000000000000000e+02 9.889541625976562500e+00 -1.920175933837890625e+01 6.497898697853088379e-01 1.383867383003234863e+00 6.100971698760986328e-01 4.179089367389678955e-01
8.140000000000000000e+02 1.418019104003906250e+01 -2.348504257202148438e+01 1.974762603640556335e-02 2.330323696136474609e+00 7.050213813781738281e-01 -2.654724419116973877e-01
8.150000000000000000e+02 1.817656707763671875e+01 -2.558535766601562500e+01 2.317128926515579224e-01 5.978343486785888672e-01 2.488641738891601562e-01 -3.964736461639404297e-01
8.160000000000000000e+02 1.424458980560302734e+01 -1.810652923583984375e+01 9.745199978351593018e-02 4.417513370513916016e+00 1.354489564895629883e+00 2.797652781009674072e-01
8.170000000000000000e+02 1.467486381530761719e+01 -1.527607917785644531e+01 1.042834162712097168e+00 4.741713047027587891e+00 1.735364079475402832e+00 1.623814821243286133e+00
8.180000000000000000e+02 1.677660560607910156e+01 -1.244574737548828125e+01 2.743716001510620117e+00 2.410206794738769531e+00 1.546176791191101074e+00 2.078556299209594727e+00
8.190000000000000000e+02 1.539128971099853516e+01 -1.275250434875488281e+01 1.962045550346374512e+00 2.806020498275756836e+00 1.430419802665710449e+00 1.558497905731201172e+00
8.200000000000000000e+02 1.001343250274658203e+01 -6.291307449340820312e+00 -1.805338859558105469e-01 3.616181015968322754e-01 5.432526022195816040e-02 -4.910973310470581055e-01
8.210000000000000000e+02 8.198973655700683594e+00 -6.335524559020996094e+00 -1.332572549581527710e-01 1.429786980152130127e-01 2.916432684287428856e-03 -6.213319301605224609e-01
8.220000000000000000e+02 9.389231681823730469e+00 -9.489789009094238281e+00 3.260331451892852783e-01 5.335853695869445801e-01 2.578855454921722412e-01 -4.921017885208129883e-01
8.230000000000000000e+02 7.303691864013671875e+00 -1.110553550720214844e+01 3.847900629043579102e-01 1.782079041004180908e-01 1.688993871212005615e-01 -4.913065433502197266e-01
8.240000000000000000e+02 1.029988384246826172e+01 -1.290216445922851562e+01 8.325496912002563477e-01 1.084448456764221191e+00 5.750994086265563965e-01 -1.304471045732498169e-01
8.250000000000000000e+02 5.856724166870117188e+01 -3.077886998653411865e-01 1.798529148101806641e+00 2.591364622116088867e+00 1.316968083381652832e+00 1.954680085182189941e+00
8.260000000000000000e+02 5.582757949829101562e+01 -2.902724266052246094e+00 1.732845067977905273e+00 2.691619634628295898e+00 1.327339410781860352e+00 2.149888753890991211e+00
8.270000000000000000e+02 5.697894668579101562e+01 -5.214178085327148438e+00 4.840644598007202148e-01 1.931059122085571289e+00 7.245370745658874512e-01 1.423914074897766113e+00
8.280000000000000000e+02 5.833975601196289062e+01 -1.168141174316406250e+01 -2.727534294128417969e+00 7.058109641075134277e-01 -6.065170168876647949e-01 2.184758931398391724e-01
8.290000000000000000e+02 5.437790298461914062e+01 -1.470957946777343750e+01 -2.003507137298583984e+00 1.470094174146652222e-01 -5.569493174552917480e-01 5.566917732357978821e-02
8.300000000000000000e+02 5.834455490112304688e+01 -1.428953838348388672e+01 -2.973976373672485352e+00 -4.683889448642730713e-02 -9.062445759773254395e-01 -4.002175331115722656e-01
8.310000000000000000e+02 6.085182952880859375e+01 -1.339938545227050781e+01 -3.639355659484863281e+00 -4.150449037551879883e-01 -1.216320157051086426e+00 -1.148529529571533203e+00
8.320000000000000000e+02 6.053059387207031250e+01 -1.068040561676025391e+01 -3.004578828811645508e+00 4.488723874092102051e-01 -7.667118906974792480e-01 6.049252748489379883e-01
8.330000000000000000e+02 5.909985351562500000e+01 -6.930268764495849609e+00 -5.164617896080017090e-01 1.211555719375610352e+00 2.085281610488891602e-01 1.095777034759521484e+00
8.340000000000000000e+02 5.324879074096679688e+01 -6.350697040557861328e+00 -7.254548668861389160e-01 2.428395271301269531e+00 5.108821392059326172e-01 2.080776214599609375e+00
8.350000000000000000e+02 5.453407669067382812e+01 -7.592263221740722656e+00 -9.682804346084594727e-01 2.004900932312011719e+00 3.109861612319946289e-01 1.986659646034240723e+00
8.360000000000000000e+02 4.913226318359375000e+01 -5.548070907592773438e+00 -3.476677656173706055e+00 -1.415806561708450317e-01 -1.085477471351623535e+00 1.347091078758239746e+00
8.370000000000000000e+02 5.018254089355468750e+01 -6.320599079132080078e+00 -1.779899001121520996e+00 2.406878024339675903e-01 -4.617633819580078125e-01 1.911562681198120117e+00
8.380000000000000000e+02 5.070599746704101562e+01 -9.223388671875000000e+00 -6.842188835144042969e-01 1.111567139625549316e+00 1.282044798135757446e-01 2.670477867126464844e+00
8.390000000000000000e+02 5.314703750610351562e+01 -1.223785686492919922e+01 -9.652564525604248047e-01 6.839744448661804199e-01 -8.438459038734436035e-02 1.545589089393615723e+00
8.400000000000000000e+02 5.573467254638671875e+01 -1.297495937347412109e+01 -1.997346997261047363e+00 3.157892227172851562e-01 -5.044673085212707520e-01 5.977424383163452148e-01
8.410000000000000000e+02 4.834368896484375000e+01 -6.854326725006103516e+00 -1.655692577362060547e+00 -1.358024477958679199e-01 -5.374485254287719727e-01 1.857995748519897461e+00
8.420000000000000000e+02 4.728489685058593750e+01 -6.355176925659179688e+00 -2.424864053726196289e+00 -2.862311154603958130e-02 -7.360461354255676270e-01 1.100589513778686523e+00
8.430000000000000000e+02 3.958691024780273438e+01 -3.923348426818847656e+00 -2.116687774658203125e+00 9.007543563842773438e+00 2.067256689071655273e+00 -1.616028666496276855e+00
8.440000000000000000e+02 3.674377441406250000e+01 -3.401294946670532227e+00 -1.259293794631958008e+00 9.978015899658203125e+00 2.615616798400878906e+00 -8.779661059379577637e-01
8.450000000000000000e+02 3.578314208984375000e+01 -6.263188838958740234e+00 -3.011471271514892578e+00 9.024984359741210938e+00 1.804053783416748047e+00 -1.169940471649169922e+00
8.460000000000000000e+02 3.501885604858398438e+01 -7.570647239685058594e+00 -3.139758110046386719e+00 8.345789909362792969e+00 1.561809420585632324e+00 -1.244239091873168945e+00
8.470000000000000000e+02 3.905815505981445312e+01 4.403965950012207031e+00 4.040681123733520508e-01 1.538966655731201172e+01 4.738120555877685547e+00 -1.041427254676818848e-01
8.480000000000000000e+02 3.885203170776367188e+01 8.349268913269042969e+00 1.774591803550720215e+00 1.582054138183593750e+01 5.278540134429931641e+00 2.511517524719238281e+00
8.490000000000000000e+02 3.858819580078125000e+01 1.017381000518798828e+01 1.508826613426208496e+00 1.230313873291015625e+01 4.143589496612548828e+00 1.523395895957946777e+00
8.500000000000000000e+02 4.156965637207031250e+01 1.444152259826660156e+01 1.535694956779479980e+00 5.699494838714599609e+00 2.170557022094726562e+00 2.620831489562988281e+00
8.510000000000000000e+02 4.558622741699218750e+01 1.678479385375976562e+01 1.390544891357421875e+00 1.838551282882690430e+00 9.687288403511047363e-01 1.574932932853698730e+00
8.520000000000000000e+02 4.568978500366210938e+01 1.892227172851562500e+01 6.621541976928710938e-01 2.282017707824707031e+00 8.832515478134155273e-01 1.459034919738769531e+00
8.530000000000000000e+02 4.546037673950195312e+01 2.555111503601074219e+01 -6.576275825500488281e-02 2.945980072021484375e+00 8.640652298927307129e-01 1.424849152565002441e+00
8.540000000000000000e+02 4.807225036621093750e+01 2.931959342956542969e+01 1.861893832683563232e-01 2.482026815414428711e+00 8.004648685455322266e-01 1.005470752716064453e+00
8.550000000000000000e+02 4.819525146484375000e+01 3.241878509521484375e+01 2.552116513252258301e-01 2.618244647979736328e+00 8.620368838310241699e-01 7.128835916519165039e-01
8.560000000000000000e+02 5.032096862792968750e+01 3.341007614135742188e+01 3.638682961463928223e-01 2.547411203384399414e+00 8.733838200569152832e-01 4.982404410839080811e-01
8.570000000000000000e+02 4.905756378173828125e+01 3.654920959472656250e+01 2.333530485630035400e-01 2.824645996093750000e+00 9.173997044563293457e-01 3.662267625331878662e-01
8.580000000000000000e+02 4.624711608886718750e+01 3.487787628173828125e+01 3.294738009572029114e-02 2.974075317382812500e+00 9.021068215370178223e-01 5.731064677238464355e-01
8.590000000000000000e+02 4.504047775268554688e+01 3.247071075439453125e+01 -9.473451972007751465e-02 3.116852760314941406e+00 9.066354632377624512e-01 8.066786527633666992e-01
8.600000000000000000e+02 4.072257232666015625e+01 3.022393608093261719e+01 -4.674714803695678711e-01 3.829211950302124023e+00 1.008522152900695801e+00 8.282470703125000000e-01
8.610000000000000000e+02 4.322137069702148438e+01 2.793816757202148438e+01 -2.575348317623138428e-01 3.518326520919799805e+00 9.782375097274780273e-01 1.212470173835754395e+00
8.620000000000000000e+02 4.318122482299804688e+01 2.443512916564941406e+01 -1.730206459760665894e-01 3.779467821121215820e+00 1.081934094429016113e+00 1.450460076332092285e+00
8.630000000000000000e+02 4.356177902221679688e+01 2.080434226989746094e+01 1.886080801486968994e-01 3.706105947494506836e+00 1.168414235115051270e+00 1.653578281402587891e+00
8.640000000000000000e+02 4.037701034545898438e+01 1.935908317565917969e+01 2.329689115285873413e-01 5.464618206024169922e+00 1.709276080131530762e+00 1.470937371253967285e+00
8.650000000000000000e+02 4.326127624511718750e+01 1.689851570129394531e+01 1.099334001541137695e+00 3.772683382034301758e+00 1.461605191230773926e+00 2.037431716918945312e+00
8.660000000000000000e+02 4.672032165527343750e+01 1.770228576660156250e+01 1.067231655120849609e+00 1.377916693687438965e+00 7.335445284843444824e-01 1.216387391090393066e+00
8.670000000000000000e+02 4.905347442626953125e+01 1.938497352600097656e+01 2.257293164730072021e-01 6.380457878112792969e-01 2.591325342655181885e-01 5.589138865470886230e-01
8.680000000000000000e+02 5.166503143310546875e+01 2.060124778747558594e+01 -8.865056633949279785e-01 1.518624126911163330e-01 -2.203929722309112549e-01 5.537759140133857727e-02
8.690000000000000000e+02 5.448781967163085938e+01 2.139188766479492188e+01 -1.625466346740722656e+00 -1.721257902681827545e-02 -4.928036630153656006e-01 -1.935973465442657471e-01
8.700000000000000000e+02 5.723950195312500000e+01 2.339412689208984375e+01 -7.894052565097808838e-02 4.588633775711059570e-01 1.139768585562705994e-01 -7.547191977500915527e-01
8.710000000000000000e+02 5.689952468872070312e+01 2.501726341247558594e+01 2.421915829181671143e-01 1.100376963615417480e+00 4.027705490589141846e-01 -8.016296029090881348e-01
8.720000000000000000e+02 5.910452270507812500e+01 2.341384887695312500e+01 -7.375633716583251953e-02 2.011658668518066406e+00 5.813706517219543457e-01 -1.679910778999328613e+00
8.730000000000000000e+02 6.820248413085937500e+01 -1.401458835601806641e+01 -1.879107356071472168e+00 -3.790209069848060608e-03 -5.648692846298217773e-01 8.082563281059265137e-01
8.740000000000000000e+02 6.885984802246093750e+01 -1.417638969421386719e+01 -1.296355485916137695e+00 4.694281518459320068e-01 -2.480781823396682739e-01 5.437729954719543457e-01
8.750000000000000000e+02 6.895097351074218750e+01 -1.479436206817626953e+01 -1.218723535537719727e+00 1.920595318078994751e-01 -3.079992234706878662e-01 8.646452426910400391e-01
8.760000000000000000e+02 7.442504882812500000e+01 -1.507396125793457031e+01 2.545446872711181641e+00 1.821176719665527344e+01 6.227164268493652344e+00 2.529272079467773438e+00
8.770000000000000000e+02 7.488916015625000000e+01 -1.560520267486572266e+01 5.890068054199218750e+00 1.556775188446044922e+01 6.437345981597900391e+00 2.425705909729003906e+00
8.780000000000000000e+02 6.644106292724609375e+01 -2.434373664855957031e+01 -6.160953044891357422e-01 3.475921461358666420e-03 -1.837858259677886963e-01 -3.499566912651062012e-01
8.790000000000000000e+02 6.545626831054687500e+01 -2.533901023864746094e+01 -9.611701965332031250e-01 -4.480097293853759766e-01 -4.227539896965026855e-01 -7.146260738372802734e-01
8.800000000000000000e+02 6.355515670776367188e+01 -2.738615798950195312e+01 -1.753371596336364746e+00 -1.098889112472534180e+00 -8.556782007217407227e-01 -1.285988450050354004e+00
8.810000000000000000e+02 6.740850830078125000e+01 -3.157615470886230469e+01 -2.305542230606079102e-01 2.806473255157470703e+00 7.727757096290588379e-01 5.856331586837768555e-01
8.820000000000000000e+02 7.269873809814453125e+01 -3.453575515747070312e+01 1.386904865503311157e-01 6.473745822906494141e+00 1.983730912208557129e+00 5.650228857994079590e-01
8.830000000000000000e+02 7.219390869140625000e+01 -3.256156539916992188e+01 -6.945624947547912598e-02 6.003668308258056641e+00 1.780263662338256836e+00 6.836324930191040039e-01
8.840000000000000000e+02 7.079180908203125000e+01 -3.095830726623535156e+01 -2.593767344951629639e-01 5.168496608734130859e+00 1.472735881805419922e+00 7.688728570938110352e-01
8.850000000000000000e+02 6.822810363769531250e+01 -2.410350418090820312e+01 -5.260885357856750488e-01 2.019304752349853516e+00 4.479648768901824951e-01 2.674381434917449951e-01
8.860000000000000000e+02 6.544802093505859375e+01 -2.704925727844238281e+01 -1.109321832656860352e+00 3.066150546073913574e-01 -2.408120334148406982e-01 -4.505062997341156006e-01
8.870000000000000000e+02 6.667405700683593750e+01 -2.715359306335449219e+01 -9.332561492919921875e-01 1.433452010154724121e+00 1.500587612390518188e-01 5.466443672776222229e-02
8.880000000000000000e+02 6.461767578125000000e+01 -2.819824790954589844e+01 -1.391926527023315430e+00 1.584267169237136841e-01 -3.700499236583709717e-01 -4.524073898792266846e-01
8.890000000000000000e+02 6.377873229980468750e+01 -3.156482124328613281e+01 -5.613099336624145508e-01 5.159876942634582520e-01 -1.359667442739009857e-02 1.618209183216094971e-01
8.900000000000000000e+02 6.346930313110351562e+01 -3.619189453125000000e+01 8.159737586975097656e-01 1.135301947593688965e+00 5.853826999664306641e-01 2.116371840238571167e-01
8.910000000000000000e+02 3.620473098754882812e+01 -3.041946601867675781e+01 -3.518385291099548340e-01 5.354574203491210938e+00 1.500820755958557129e+00 1.097342133522033691e+00
8.920000000000000000e+02 3.696376037597656250e+01 -2.802925872802734375e+01 2.280645370483398438e-01 6.154392719268798828e+00 1.914737224578857422e+00 9.322739839553833008e-01
8.930000000000000000e+02 3.811272048950195312e+01 -2.264990234375000000e+01 1.560873985290527344e+00 8.348079681396484375e+00 2.972686290740966797e+00 -1.841257512569427490e-01
8.940000000000000000e+02 3.566001510620117188e+01 -2.058577919006347656e+01 5.081318616867065430e-01 1.064166259765625000e+01 3.344938278198242188e+00 3.796908855438232422e-01
8.950000000000000000e+02 3.561954116821289062e+01 -1.917928695678710938e+01 2.344367802143096924e-01 1.088560676574707031e+01 3.336012840270996094e+00 -4.408434033393859863e-01
8.960000000000000000e+02 4.035296630859375000e+01 -3.022047805786132812e+01 -1.595961898565292358e-01 6.862821102142333984e+00 2.010967493057250977e+00 2.368534803390502930e-01
8.970000000000000000e+02 3.910375213623046875e+01 -2.875226402282714844e+01 2.287369221448898315e-01 6.799539089202880859e+00 2.108482837677001953e+00 4.578050076961517334e-01
8.980000000000000000e+02 4.025666046142578125e+01 -2.264679336547851562e+01 1.947250604629516602e+00 8.588363647460937500e+00 3.160684108734130859e+00 -7.958101630210876465e-01
8.990000000000000000e+02 3.787460327148437500e+01 -1.891975593566894531e+01 1.303173661231994629e+00 9.741345405578613281e+00 3.313355684280395508e+00 -1.053504347801208496e+00
9.000000000000000000e+02 4.260930252075195312e+01 -2.924495315551757812e+01 3.115522861480712891e-01 7.762132644653320312e+00 2.422105312347412109e+00 -4.022030234336853027e-01
9.010000000000000000e+02 4.312431335449218750e+01 -2.602388191223144531e+01 1.812709093093872070e+00 9.099082946777343750e+00 3.273537635803222656e+00 -1.012785077095031738e+00
9.020000000000000000e+02 4.452540206909179688e+01 -2.490161514282226562e+01 2.523770332336425781e+00 1.099259090423583984e+01 4.054908275604248047e+00 -2.163512945175170898e+00
9.030000000000000000e+02 4.450614166259765625e+01 -2.619476699829101562e+01 2.179421424865722656e+00 9.966339111328125000e+00 3.643728017807006836e+00 -1.736756682395935059e+00
9.040000000000000000e+02 4.605577087402343750e+01 -2.608535194396972656e+01 2.788300275802612305e+00 1.106113624572753906e+01 4.154830932617187500e+00 -4.495443820953369141e+00
9.050000000000000000e+02 4.534367752075195312e+01 -1.924039077758789062e+01 1.394422769546508789e+00 1.252176856994628906e+01 4.174857139587402344e+00 1.682474493980407715e+00
9.060000000000000000e+02 5.902510452270507812e+01 -1.277135753631591797e+01 -3.337852239608764648e+00 3.499955534934997559e-01 -8.963569998741149902e-01 -3.345002233982086182e-01
9.070000000000000000e+02 6.323769760131835938e+01 -1.217570018768310547e+01 -8.276274681091308594e+00 -1.159778833389282227e+00 -2.830816268920898438e+00 -1.143756985664367676e+00
9.080000000000000000e+02 6.605676269531250000e+01 -1.130665683746337891e+01 -4.246104240417480469e+00 -4.879438281059265137e-01 -1.420214414596557617e+00 -8.520492315292358398e-01
9.090000000000000000e+02 6.535945892333984375e+01 -1.235007762908935547e+01 -7.847569942474365234e+00 -1.684382796287536621e+00 -2.859585762023925781e+00 1.799195408821105957e+00
9.100000000000000000e+02 6.363289642333984375e+01 -7.984701633453369141e+00 -1.163116097450256348e+00 -2.295098006725311279e-01 -4.177877604961395264e-01 3.567743115127086639e-03
9.110000000000000000e+02 6.648989868164062500e+01 -1.315765857696533203e+01 -3.828974723815917969e+00 -1.484915852546691895e+00 -1.594167113304138184e+00 2.454731702804565430e+00
9.120000000000000000e+02 6.690467071533203125e+01 -1.047131156921386719e+01 -2.565344810485839844e+00 5.477716922760009766e-01 -6.052719354629516602e-01 -1.278697609901428223e+00
9.130000000000000000e+02 5.019583511352539062e+01 -3.187680435180664062e+01 2.208686470985412598e-01 2.874964714050292969e+00 9.287499785423278809e-01 -2.163747549057006836e+00
9.140000000000000000e+02 5.088991546630859375e+01 -3.024661445617675781e+01 8.428484201431274414e-01 9.339457154273986816e-01 5.330382585525512695e-01 -1.203188896179199219e+00
9.150000000000000000e+02 4.735209274291992188e+01 -2.802668190002441406e+01 3.356371641159057617e+00 6.937539577484130859e+00 3.088173389434814453e+00 -4.120460033416748047e+00
9.160000000000000000e+02 4.683833694458007812e+01 -2.975318336486816406e+01 4.956141412258148193e-01 6.600218296051025391e+00 2.128749847412109375e+00 -2.194983243942260742e+00
9.170000000000000000e+02 4.412231445312500000e+01 -2.945136070251464844e+01 5.578207969665527344e-01 7.885179042816162109e+00 2.532899856567382812e+00 -1.042970299720764160e+00
9.180000000000000000e+02 4.752336025238037109e+00 -2.630077838897705078e+00 -3.265096843242645264e-01 -7.264422625303268433e-02 -1.197461709380149841e-01 -3.798695802688598633e-01
9.190000000000000000e+02 1.830820083618164062e+01 -2.317571878433227539e+00 -5.901345610618591309e-01 2.411271184682846069e-01 -1.047022342681884766e-01 5.771495103836059570e-01
9.200000000000000000e+02 2.330884552001953125e+01 -2.332459926605224609e+00 4.055065214633941650e-01 1.276386231184005737e-01 1.599435508251190186e-01 9.950525164604187012e-01
9.210000000000000000e+02 3.090134048461914062e+01 -1.791414499282836914e+00 2.350266933441162109e+00 3.312593221664428711e+00 1.698858022689819336e+00 1.699698925018310547e+00
9.220000000000000000e+02 3.069994926452636719e+01 -2.925217628479003906e+00 1.453887820243835449e+00 2.992176294326782227e+00 1.333819270133972168e+00 1.523089528083801270e+00
9.230000000000000000e+02 2.645548629760742188e+01 -2.361903905868530273e+00 1.440631389617919922e+00 -8.402232825756072998e-02 4.069827198982238770e-01 1.234084486961364746e+00
9.240000000000000000e+02 2.634709548950195312e+01 -7.550191402435302734e+00 -1.185839653015136719e+00 5.299149155616760254e-01 -1.967774182558059692e-01 1.149890780448913574e+00
9.250000000000000000e+02 3.622859191894531250e+01 -1.347275018692016602e+00 4.747984707355499268e-01 1.048068237304687500e+01 3.286644220352172852e+00 -5.135335922241210938e-01
9.260000000000000000e+02 3.515692901611328125e+01 4.535467147827148438e+00 2.123166561126708984e+00 1.503998088836669922e+01 5.148944377899169922e+00 1.644934892654418945e+00
9.270000000000000000e+02 3.810720062255859375e+01 7.661359310150146484e+00 1.729284763336181641e+00 1.456774520874023438e+01 4.889109134674072266e+00 1.410650730133056641e+00
9.280000000000000000e+02 3.561120223999023438e+01 1.628916144371032715e+00 2.911338090896606445e+00 1.269739055633544922e+01 4.682618618011474609e+00 5.600898265838623047e-01
9.290000000000000000e+02 4.005674743652343750e+01 -1.064872503280639648e+00 2.099211692810058594e+00 1.137221431732177734e+01 4.041427612304687500e+00 -4.081021785736083984e+00
9.300000000000000000e+02 3.857651519775390625e+01 -1.102095246315002441e+00 9.334948658943176270e-01 1.105214118957519531e+01 3.595690727233886719e+00 -1.719187498092651367e+00
9.310000000000000000e+02 3.938517379760742188e+01 1.577921509742736816e+00 1.278232812881469727e+00 1.515336418151855469e+01 4.929479122161865234e+00 -2.707763195037841797e+00
9.320000000000000000e+02 3.575333404541015625e+01 3.448234081268310547e+00 2.715591907501220703e+00 1.399203109741210938e+01 5.012286663055419922e+00 1.010133624076843262e+00
9.330000000000000000e+02 1.944270896911621094e+01 -7.530437469482421875e+00 2.818807363510131836e-01 8.187139630317687988e-01 3.301784098148345947e-01 1.127163767814636230e+00
9.340000000000000000e+02 3.874064254760742188e+01 -7.723514080047607422e+00 -2.943867683410644531e+00 8.812873840332031250e+00 1.760701894760131836e+00 -1.456880450248718262e+00
9.350000000000000000e+02 4.609426879882812500e+01 -5.926277160644531250e+00 -3.053583145141601562e+00 2.974243164062500000e-01 -8.268476724624633789e-01 5.511940717697143555e-01
9.360000000000000000e+02 5.375913619995117188e+01 -4.053787231445312500e+00 1.945548653602600098e+00 2.673270940780639648e+00 1.385645866394042969e+00 2.336556673049926758e+00
9.370000000000000000e+02 5.477841567993164062e+01 -2.378385305404663086e+00 2.403130769729614258e+00 2.873151063919067383e+00 1.582884550094604492e+00 2.591372251510620117e+00
9.380000000000000000e+02 5.561856460571289062e+01 -1.470445871353149414e+00 2.420744180679321289e+00 3.178967237472534180e+00 1.679913401603698730e+00 2.694610357284545898e+00
9.390000000000000000e+02 6.132446670532226562e+01 -8.656368255615234375e+00 -1.668225288391113281e+00 2.314476519823074341e-01 -4.310332834720611572e-01 7.353927493095397949e-01
9.400000000000000000e+02 6.237143707275390625e+01 -3.666682243347167969e+00 7.588267922401428223e-01 1.657305002212524414e+00 7.248395085334777832e-01 3.857984840869903564e-01
9.410000000000000000e+02 6.355604553222656250e+01 -4.066537380218505859e+00 6.839236021041870117e-01 1.713698506355285645e+00 7.192866206169128418e-01 -8.182588964700698853e-02
9.420000000000000000e+02 6.391614151000976562e+01 1.297852516174316406e+00 1.084567666053771973e+00 3.805145502090454102e+00 1.466913938522338867e+00 2.671137154102325439e-01
9.430000000000000000e+02 6.283608627319335938e+01 -1.004034131765365601e-01 1.204088807106018066e+00 3.156360626220703125e+00 1.308134913444519043e+00 5.585125684738159180e-01
9.440000000000000000e+02 6.153210067749023438e+01 1.150280833244323730e+00 1.316533207893371582e+00 3.374853134155273438e+00 1.407415866851806641e+00 1.165768384933471680e+00
9.450000000000000000e+02 6.139440917968750000e+01 -1.104660868644714355e+00 1.374960064888000488e+00 2.496844053268432617e+00 1.161541223526000977e+00 9.834808707237243652e-01
9.460000000000000000e+02 6.661297607421875000e+01 -2.610839128494262695e+00 6.167487502098083496e-01 3.092507839202880859e+00 1.112776994705200195e+00 -1.053807735443115234e+00
9.470000000000000000e+02 6.597661590576171875e+01 -8.247773170471191406e+00 -1.041955351829528809e+00 7.984170317649841309e-01 -7.306150346994400024e-02 -1.298490643501281738e+00
9.480000000000000000e+02 7.099058532714843750e+01 -8.628000259399414062e+00 -1.366333723068237305e+00 5.622588634490966797e+00 1.276876449584960938e+00 -2.349546432495117188e+00
9.490000000000000000e+02 7.621619415283203125e+01 -6.618648052215576172e+00 -5.861527919769287109e-01 8.859781265258789062e+00 2.482088565826416016e+00 -7.116152048110961914e-01
9.500000000000000000e+02 7.583270263671875000e+01 -2.809951066970825195e+00 -1.317621916532516479e-01 7.714832305908203125e+00 2.274921178817749023e+00 -1.224138259887695312e+00
9.510000000000000000e+02 7.184679412841796875e+01 -2.407911539077758789e+00 3.443685546517372131e-02 5.717589378356933594e+00 1.725607872009277344e+00 -1.781911492347717285e+00
9.520000000000000000e+02 3.249163818359375000e+01 -9.533643722534179688e+00 -1.000125646591186523e+00 2.816754579544067383e+00 5.449886918067932129e-01 -7.722823619842529297e-01
9.530000000000000000e+02 4.297315216064453125e+01 -1.134849643707275391e+01 -5.955805182456970215e-01 5.926483154296875000e+00 1.599270820617675781e+00 -5.602577924728393555e-01
9.540000000000000000e+02 4.709250640869140625e+01 -8.731842994689941406e+00 -8.054924607276916504e-01 1.295961141586303711e+00 1.471405923366546631e-01 1.262505769729614258e+00
9.550000000000000000e+02 4.772713088989257812e+01 -9.427350044250488281e+00 -5.858776569366455078e-01 1.526201605796813965e+00 2.820971906185150146e-01 1.723758339881896973e+00
9.560000000000000000e+02 5.350749588012695312e+01 -1.042777729034423828e+01 -1.122664809226989746e+00 1.182697653770446777e+00 1.800985820591449738e-02 1.906669735908508301e+00
9.570000000000000000e+02 6.232149505615234375e+01 -1.109299564361572266e+01 -4.212871551513671875e+00 -3.273832798004150391e-01 -1.362076401710510254e+00 7.065141201019287109e-01
9.580000000000000000e+02 5.990572357177734375e+01 -9.724666595458984375e+00 -2.608471632003784180e+00 7.487527132034301758e-01 -5.579156875610351562e-01 7.552964091300964355e-01
9.590000000000000000e+02 5.263092803955078125e+01 -4.923130989074707031e+00 1.646169662475585938e+00 2.370131731033325195e+00 1.204890370368957520e+00 1.985475778579711914e+00
9.600000000000000000e+02 4.656839847564697266e+00 -9.274122238159179688e+00 9.401487559080123901e-02 -4.191206693649291992e-01 -9.753174334764480591e-02 -5.649124383926391602e-01
9.610000000000000000e+02 3.267843723297119141e+00 -1.003523635864257812e+01 7.375267893075942993e-02 -7.469117641448974609e-01 -2.019477337598800659e-01 -4.489161968231201172e-01
9.620000000000000000e+02 6.379424929618835449e-01 -1.361510848999023438e+01 1.678580418229103088e-02 -1.921540379524230957e+00 -5.714263916015625000e-01 -5.417870357632637024e-02
9.630000000000000000e+02 1.918148398399353027e+00 -1.380252838134765625e+01 5.932475998997688293e-02 -1.430938482284545898e+00 -4.114840924739837646e-01 -1.497522890567779541e-01
9.640000000000000000e+02 6.517918705940246582e-01 -1.642926597595214844e+01 1.647596620023250580e-02 -2.056656837463378906e+00 -6.120542883872985840e-01 1.098750741221010685e-03
9.650000000000000000e+02 1.966438889503479004e+00 -1.799602699279785156e+01 5.829057469964027405e-02 -1.465801596641540527e+00 -4.222532808780670166e-01 8.122130483388900757e-02
9.660000000000000000e+02 4.566751003265380859e+00 -1.543837547302246094e+01 2.721217572689056396e-01 -5.966325402259826660e-01 -9.735323488712310791e-02 -9.003037959337234497e-02
9.670000000000000000e+02 1.386587810516357422e+01 -1.039601325988769531e+01 7.742423415184020996e-01 1.650020599365234375e+00 7.272788882255554199e-01 2.473553419113159180e-01
9.680000000000000000e+02 1.519697761535644531e+01 -1.403694152832031250e+01 1.793609023094177246e+00 3.808889389038085938e+00 1.680749535560607910e+00 2.018716812133789062e+00
9.690000000000000000e+02 4.507811069488525391e+00 -1.406004238128662109e+01 2.718270421028137207e-01 -5.908815264701843262e-01 -9.571634978055953979e-02 -2.194931209087371826e-01
9.700000000000000000e+02 1.312265777587890625e+01 -1.512502288818359375e+01 1.280591011047363281e+00 2.881531715393066406e+00 1.248636841773986816e+00 6.721115112304687500e-01
9.710000000000000000e+02 1.211637687683105469e+01 -2.124851417541503906e+01 5.300869345664978027e-01 2.216881990432739258e+00 8.240906596183776855e-01 2.829719483852386475e-01
9.720000000000000000e+02 1.122487926483154297e+01 -1.940932655334472656e+01 6.813083291053771973e-01 2.003286600112915039e+00 8.053784966468811035e-01 4.456473588943481445e-01
9.730000000000000000e+02 5.896912097930908203e+00 -1.994565773010253906e+01 2.947726845741271973e-01 -5.927007272839546204e-02 7.065078616142272949e-02 3.773548901081085205e-01
9.740000000000000000e+02 1.903454661369323730e+00 -2.078696060180664062e+01 3.561959043145179749e-02 -1.319286704063415527e+00 -3.851001560688018799e-01 1.980473995208740234e-01
9.750000000000000000e+02 5.965154767036437988e-01 -2.344170379638671875e+01 5.219589918851852417e-03 -1.450465321540832520e+00 -4.335737228393554688e-01 9.178490191698074341e-02
9.760000000000000000e+02 1.786139726638793945e+00 -2.350326347351074219e+01 7.877469994127750397e-03 -1.080533862113952637e+00 -3.217968940734863281e-01 2.515124380588531494e-01
9.770000000000000000e+02 3.094962835311889648e+00 -2.231108474731445312e+01 4.968214407563209534e-02 -7.867191433906555176e-01 -2.211111038923263550e-01 3.458166122436523438e-01
9.780000000000000000e+02 8.389408111572265625e+00 -2.024201202392578125e+01 4.565181732177734375e-01 8.281558156013488770e-01 3.854022026062011719e-01 4.704243838787078857e-01
9.790000000000000000e+02 1.017856121063232422e+01 -2.322994232177734375e+01 7.883469015359878540e-02 1.329878211021423340e+00 4.226138591766357422e-01 5.282852053642272949e-01
9.800000000000000000e+02 1.174727916717529297e+01 -2.607715988159179688e+01 -2.770136892795562744e-01 1.393973827362060547e+00 3.350880444049835205e-01 3.052335381507873535e-01
9.810000000000000000e+02 1.701601791381835938e+01 -2.859432411193847656e+01 -3.711535930633544922e-01 9.352100491523742676e-01 1.692169457674026489e-01 -2.374361306428909302e-01
9.820000000000000000e+02 1.522637939453125000e+01 -2.684776878356933594e+01 -2.727498114109039307e-01 1.302560091018676758e+00 3.089430630207061768e-01 -2.097535431385040283e-01
9.830000000000000000e+02 9.351343154907226562e+00 -2.562202835083007812e+01 -1.361587643623352051e-01 9.864526987075805664e-01 2.550881803035736084e-01 5.109714269638061523e-01
9.840000000000000000e+02 9.313050270080566406e+00 -2.918246841430664062e+01 -3.031862676143646240e-01 8.255891203880310059e-01 1.567208468914031982e-01 3.844485878944396973e-01
9.850000000000000000e+02 1.077283000946044922e+01 -2.898526000976562500e+01 -3.761641979217529297e-01 1.028530240058898926e+00 1.957097947597503662e-01 2.949965000152587891e-01
9.860000000000000000e+02 1.300946617126464844e+01 -2.473460960388183594e+01 -1.291532367467880249e-01 1.789070963859558105e+00 4.979753196239471436e-01 1.660001128911972046e-01
9.870000000000000000e+02 1.032624149322509766e+01 -2.712043571472167969e+01 -2.664485275745391846e-01 1.092351198196411133e+00 2.477708011865615845e-01 4.021291732788085938e-01
9.880000000000000000e+02 1.918608665466308594e+01 -2.654116630554199219e+01 6.686086952686309814e-02 3.622424900531768799e-01 1.287310123443603516e-01 -2.143992632627487183e-01
9.890000000000000000e+02 1.278670310974121094e+01 -3.323004531860351562e+01 -3.845392167568206787e-01 8.147203326225280762e-01 1.290543228387832642e-01 1.201315317302942276e-02
9.900000000000000000e+02 1.835767173767089844e+01 -3.508425521850585938e+01 -2.530687749385833740e-01 6.204670071601867676e-01 1.102194637060165405e-01 -2.457013875246047974e-01
9.910000000000000000e+02 2.168212318420410156e+01 -3.507555389404296875e+01 -1.521869897842407227e-01 4.820501208305358887e-01 9.895893931388854980e-02 -2.209813296794891357e-01
9.920000000000000000e+02 1.777965164184570312e+01 -2.958736991882324219e+01 -5.215601325035095215e-01 8.450257778167724609e-01 9.703969210386276245e-02 -2.514589428901672363e-01
9.930000000000000000e+02 2.559549331665039062e+01 -3.394660949707031250e+01 -1.070054173469543457e-01 4.782342910766601562e-01 1.113686636090278625e-01 2.145787924528121948e-01
9.940000000000000000e+02 3.028392028808593750e+01 -2.903890991210937500e+01 7.450619339942932129e-02 9.062190055847167969e-01 2.942175567150115967e-01 6.688538193702697754e-01
9.950000000000000000e+02 3.152787017822265625e+01 -3.442173004150390625e+01 -4.127771854400634766e-01 2.663522720336914062e+00 6.752236485481262207e-01 1.067689538002014160e+00
9.960000000000000000e+02 3.900369644165039062e+01 -3.189243507385253906e+01 -6.573112010955810547e-01 6.114204406738281250e+00 1.637067914009094238e+00 5.940359830856323242e-01
9.970000000000000000e+02 4.114542388916015625e+01 -3.365389633178710938e+01 -1.026082396507263184e+00 6.184064865112304688e+00 1.547394633293151855e+00 9.860458970069885254e-02
9.980000000000000000e+02 4.122608947753906250e+01 -2.870225906372070312e+01 4.545002877712249756e-01 7.523492336273193359e+00 2.393397808074951172e+00 -8.119548112154006958e-02
9.990000000000000000e+02 4.843937301635742188e+01 -2.880703735351562500e+01 3.053955793380737305e+00 3.824136018753051758e+00 2.063427448272705078e+00 -3.286757707595825195e+00
1.000000000000000000e+03 4.765352630615234375e+01 -3.342171478271484375e+01 -5.078033804893493652e-01 4.796993255615234375e+00 1.286756873130798340e+00 -1.744793891906738281e+00
1.001000000000000000e+03 5.530933761596679688e+01 -3.102459716796875000e+01 -1.641454935073852539e+00 3.145271912217140198e-02 -4.830006659030914307e-01 -4.349994063377380371e-01
1.002000000000000000e+03 5.875410461425781250e+01 -3.438049316406250000e+01 1.790062338113784790e-01 -2.537158727645874023e-01 -2.241289429366588593e-02 -4.523641169071197510e-01
1.003000000000000000e+03 5.576094436645507812e+01 -3.498244094848632812e+01 4.192613959312438965e-01 6.036420166492462158e-02 1.438876837491989136e-01 -7.981144189834594727e-01
1.004000000000000000e+03 5.696823501586914062e+01 -3.102258491516113281e+01 -2.026647806167602539e+00 -4.086451828479766846e-01 -7.305878996849060059e-01 -5.728190541267395020e-01
1.005000000000000000e+03 5.993224334716796875e+01 -3.259754943847656250e+01 -5.774599909782409668e-01 -3.451429009437561035e-01 -2.767808735370635986e-01 -3.664830923080444336e-01
1.006000000000000000e+03 6.128159332275390625e+01 -2.917825698852539062e+01 -2.550936698913574219e+00 -7.915616631507873535e-01 -1.002749443054199219e+00 -1.246331095695495605e+00
1.007000000000000000e+03 5.159744262695312500e+01 -3.276974868774414062e+01 3.027250245213508606e-02 1.531745076179504395e+00 4.686052799224853516e-01 -1.630696535110473633e+00
1.008000000000000000e+03 6.264525222778320312e+01 -3.268749237060546875e+01 -2.613157331943511963e-01 3.488357365131378174e-01 2.625599689781665802e-02 1.065041646361351013e-01
1.009000000000000000e+03 6.664620208740234375e+01 -3.308855056762695312e+01 1.015188395977020264e-01 2.339386224746704102e+00 7.322714924812316895e-01 5.983144640922546387e-01
1.010000000000000000e+03 5.782972335815429688e+00 -3.586298751831054688e+01 -1.309342533349990845e-01 2.781251966953277588e-01 4.415728524327278137e-02 1.667844504117965698e-01
1.011000000000000000e+03 3.691375350952148438e+01 -4.111975860595703125e+01 -1.242711544036865234e+00 4.570895671844482422e+00 9.984552860260009766e-01 1.059158071875572205e-01
1.012000000000000000e+03 3.941248321533203125e+01 -3.958712387084960938e+01 -1.402157187461853027e+00 5.137240409851074219e+00 1.120525002479553223e+00 1.392475217580795288e-01
1.013000000000000000e+03 5.175174713134765625e+01 -4.057863998413085938e+01 1.892176270484924316e-01 2.118987798690795898e+00 6.924616694450378418e-01 -3.850338459014892578e-01
1.014000000000000000e+03 7.182910156250000000e+01 -4.107494735717773438e+01 5.637361407279968262e-01 5.864796161651611328e+00 1.928559780120849609e+00 1.344127207994461060e-01
1.015000000000000000e+03 7.355999755859375000e+01 -2.740562629699707031e+01 -6.487548947334289551e-01 7.649241447448730469e+00 2.100145816802978516e+00 4.166709780693054199e-01
1.016000000000000000e+03 6.247528457641601562e+01 -2.835560798645019531e+01 -2.360062599182128906e+00 -1.042312502861022949e+00 -1.020712494850158691e+00 -1.405309319496154785e+00
1.017000000000000000e+03 6.813265991210937500e+01 -2.205597877502441406e+01 6.498613208532333374e-02 1.173552274703979492e+00 3.715615272521972656e-01 3.835483193397521973e-01
1.018000000000000000e+03 7.012717437744140625e+01 -1.873928833007812500e+01 9.728720188140869141e-01 1.568894267082214355e+00 7.625298500061035156e-01 1.080254197120666504e+00
1.019000000000000000e+03 6.421929931640625000e+01 -1.142559242248535156e+01 -7.061471462249755859e+00 -2.136266231536865234e+00 -2.759321212768554688e+00 1.377031207084655762e-01
1.020000000000000000e+03 4.758886337280273438e+01 -1.305846118927001953e+01 5.969064831733703613e-01 3.112910509109497070e+00 1.112945079803466797e+00 1.835879921913146973e+00
1.021000000000000000e+03 3.635072708129882812e+01 -1.369470500946044922e+01 1.268142938613891602e+00 1.009830665588378906e+01 3.409934759140014648e+00 -2.105406045913696289e+00
1.022000000000000000e+03 5.071408462524414062e+01 -1.328549671173095703e+01 7.943331263959407806e-03 9.372732639312744141e-01 2.835649847984313965e-01 1.764742970466613770e+00
1.023000000000000000e+03 7.567195129394531250e+01 1.262657046318054199e+00 1.210742741823196411e-01 6.880239963531494141e+00 2.100394248962402344e+00 -1.176560640335083008e+00
1.024000000000000000e+03 7.149702453613281250e+01 2.233918190002441406e+00 4.640920162200927734e-01 5.654021739959716797e+00 1.835434079170227051e+00 -1.359368205070495605e+00
1.025000000000000000e+03 7.298117065429687500e+01 3.904662370681762695e+00 3.728368580341339111e-01 5.991408348083496094e+00 1.909273505210876465e+00 -1.240519165992736816e+00
1.026000000000000000e+03 6.588565063476562500e+01 2.563693523406982422e+00 9.093887805938720703e-01 4.577548980712890625e+00 1.646081328392028809e+00 -3.792589306831359863e-01
1.027000000000000000e+03 6.397441482543945312e+01 3.987183570861816406e+00 1.004411935806274414e+00 4.865022659301757812e+00 1.760830283164978027e+00 3.641453385353088379e-01
1.028000000000000000e+03 7.561672973632812500e+01 8.233234405517578125e+00 2.116790860891342163e-01 5.965835571289062500e+00 1.853254437446594238e+00 -7.078491449356079102e-01
1.029000000000000000e+03 7.179810333251953125e+01 7.128332614898681641e+00 5.328232645988464355e-01 5.859035015106201172e+00 1.917557477951049805e+00 -9.529712200164794922e-01
1.030000000000000000e+03 7.564318084716796875e+01 9.608081817626953125e+00 2.061127722263336182e-01 5.845238685607910156e+00 1.815405488014221191e+00 -5.954273939132690430e-01
1.031000000000000000e+03 6.379301452636718750e+01 9.720438003540039062e+00 7.120173573493957520e-01 7.040684700012207031e+00 2.325810670852661133e+00 5.035309195518493652e-01
1.032000000000000000e+03 7.151524353027343750e+01 1.432381629943847656e+01 6.034490466117858887e-01 5.913678169250488281e+00 1.955138206481933594e+00 -3.223970234394073486e-01
1.033000000000000000e+03 6.626267242431640625e+01 1.270295143127441406e+01 8.026980757713317871e-01 6.934647560119628906e+00 2.321203708648681641e+00 -3.844653964042663574e-01
1.034000000000000000e+03 6.390954208374023438e+01 1.529816627502441406e+01 6.259771585464477539e-01 8.554140090942382812e+00 2.754034996032714844e+00 -6.013995409011840820e-01
1.035000000000000000e+03 7.548574829101562500e+01 1.772861480712890625e+01 1.855348348617553711e-01 5.495979309082031250e+00 1.704454302787780762e+00 5.183516442775726318e-02
1.036000000000000000e+03 7.025562286376953125e+01 1.883984184265136719e+01 5.517811179161071777e-01 5.933347225189208984e+00 1.945538520812988281e+00 7.046593725681304932e-02
1.037000000000000000e+03 6.688932800292968750e+01 1.920431518554687500e+01 8.629532456398010254e-01 6.343600749969482422e+00 2.161966085433959961e+00 -4.699118807911872864e-02
1.038000000000000000e+03 6.479467010498046875e+01 1.851013565063476562e+01 1.208703517913818359e+00 7.033810615539550781e+00 2.472754240036010742e+00 -4.995792508125305176e-01
1.039000000000000000e+03 7.497801971435546875e+01 2.164017486572265625e+01 7.348368316888809204e-02 5.563214778900146484e+00 1.691009521484375000e+00 2.531254887580871582e-01
1.040000000000000000e+03 6.335741424560546875e+01 2.437262916564941406e+01 -5.593363642692565918e-01 5.403679370880126953e+00 1.453302979469299316e+00 -9.406444430351257324e-01
1.041000000000000000e+03 5.234774398803710938e+01 2.262090682983398438e+01 -4.678051471710205078e-01 4.888455271720886230e-01 6.312115117907524109e-03 4.843088686466217041e-01
1.042000000000000000e+03 4.978526687622070312e+01 2.860958480834960938e+01 3.437544405460357666e-01 2.057747602462768555e+00 7.204506397247314453e-01 8.792705535888671875e-01
1.043000000000000000e+03 5.083365249633789062e+01 2.594310569763183594e+01 2.328519970178604126e-01 1.426978230476379395e+00 4.979490637779235840e-01 8.784427046775817871e-01
1.044000000000000000e+03 4.999214172363281250e+01 2.375778770446777344e+01 -2.418536320328712463e-02 1.343306064605712891e+00 3.957362174987792969e-01 1.052281618118286133e+00
1.045000000000000000e+03 4.933924865722656250e+01 2.154454231262207031e+01 -1.216406300663948059e-01 1.152886152267456055e+00 3.093736469745635986e-01 9.668860435485839844e-01
1.046000000000000000e+03 4.787269210815429688e+01 1.858004570007324219e+01 6.918575763702392578e-01 9.756628870964050293e-01 5.002561211585998535e-01 8.695853948593139648e-01
1.047000000000000000e+03 4.473080444335937500e+01 2.007088851928710938e+01 4.153525233268737793e-01 2.925511837005615234e+00 1.002259254455566406e+00 1.661316275596618652e+00
1.048000000000000000e+03 4.181037902832031250e+01 2.566235160827636719e+01 -3.148226141929626465e-01 4.061525344848632812e+00 1.124010801315307617e+00 1.248944997787475586e+00
1.049000000000000000e+03 4.503041458129882812e+01 2.365456771850585938e+01 -6.864823866635560989e-03 3.078262090682983398e+00 9.214191436767578125e-01 1.528876662254333496e+00
1.050000000000000000e+03 3.378977203369140625e+01 2.125667190551757812e+01 2.506158053874969482e-01 6.303490161895751953e+00 1.966231822967529297e+00 -5.784578323364257812e-01
1.051000000000000000e+03 8.813044548034667969e+00 2.157883453369140625e+01 -1.020019501447677612e-01 4.438867419958114624e-02 -1.728398352861404419e-02 5.450468137860298157e-02
1.052000000000000000e+03 4.087626457214355469e+00 2.312970542907714844e+01 -3.229958936572074890e-02 -3.691864386200904846e-02 -2.076546847820281982e-02 6.771675497293472290e-02
1.053000000000000000e+03 8.725778579711914062e+00 1.699202919006347656e+01 -3.761757165193557739e-02 -1.271810033358633518e-03 -1.166681479662656784e-02 5.318567156791687012e-03
1.054000000000000000e+03 3.186809921264648438e+01 1.586272716522216797e+01 1.029572367668151855e+00 9.386464118957519531e+00 3.124810934066772461e+00 -2.935198068618774414e+00
1.055000000000000000e+03 3.653823852539062500e+01 1.546172046661376953e+01 6.253485679626464844e-01 8.699991226196289062e+00 2.797601938247680664e+00 -2.544217705726623535e-01
1.056000000000000000e+03 6.183757781982421875e-01 2.054222679138183594e+01 4.807113669812679291e-03 -1.960102282464504242e-02 -4.438172560185194016e-03 7.424998097121715546e-03
1.057000000000000000e+03 6.363297653198242188e+01 1.966010665893554688e+01 1.079902410507202148e+00 7.072473049163818359e+00 2.445712566375732422e+00 -5.779525637626647949e-01
1.058000000000000000e+03 7.163866424560546875e+01 2.245960807800292969e+01 7.620278000831604004e-02 5.762183189392089844e+00 1.751515746116638184e+00 2.728343904018402100e-01
1.059000000000000000e+03 6.596202087402343750e+01 2.777206230163574219e+01 -3.652478158473968506e-01 5.217929840087890625e+00 1.455804586410522461e+00 -3.862187266349792480e-01
1.060000000000000000e+03 5.389054870605468750e+01 2.302593612670898438e+01 -4.780112206935882568e-01 3.212448656558990479e-01 -4.702990874648094177e-02 2.222990244626998901e-01
1.061000000000000000e+03 4.934335327148437500e+01 3.038180541992187500e+01 3.126396238803863525e-01 2.357380867004394531e+00 8.010061383247375488e-01 7.569592595100402832e-01
1.062000000000000000e+03 5.154106521606445312e+01 2.868929672241210938e+01 4.498746097087860107e-01 1.830484390258789062e+00 6.841077208518981934e-01 6.338853836059570312e-01
1.063000000000000000e+03 5.776387405395507812e+01 2.692028999328613281e+01 3.385395109653472900e-01 2.098620414733886719e+00 7.311479449272155762e-01 -8.258601427078247070e-01
1.064000000000000000e+03 5.314953994750976562e+01 2.901293754577636719e+01 5.466412305831909180e-01 1.740047335624694824e+00 6.860065460205078125e-01 3.299229145050048828e-01
1.065000000000000000e+03 5.303338241577148438e+01 3.101862335205078125e+01 5.330354571342468262e-01 2.106637954711914062e+00 7.919020652770996094e-01 2.882733643054962158e-01
1.066000000000000000e+03 5.105631637573242188e+01 3.088348007202148438e+01 4.362761676311492920e-01 2.234019517898559570e+00 8.010887503623962402e-01 5.662305951118469238e-01
1.067000000000000000e+03 4.117517852783203125e+01 2.774008941650390625e+01 -4.027009308338165283e-01 4.032770633697509766e+00 1.089020848274230957e+00 1.074394702911376953e+00
1.068000000000000000e+03 4.537363433837890625e+01 2.787350845336914062e+01 -6.712038069963455200e-02 2.990422010421752930e+00 8.769904971122741699e-01 1.220129489898681641e+00
1.069000000000000000e+03 3.853379821777343750e+01 2.605113029479980469e+01 -5.008389353752136230e-01 4.733462333679199219e+00 1.269787073135375977e+00 8.024617433547973633e-01
1.070000000000000000e+03 3.769943237304687500e+01 2.350530815124511719e+01 -3.244063258171081543e-01 5.289969444274902344e+00 1.489668846130371094e+00 6.917535066604614258e-01
1.071000000000000000e+03 1.450550270080566406e+01 2.384403038024902344e+01 -2.324397116899490356e-01 7.292500138282775879e-02 -4.785441607236862183e-02 9.795009344816207886e-02
1.072000000000000000e+03 1.364120101928710938e+01 2.553051948547363281e+01 -1.001008898019790649e-01 1.068070754408836365e-01 2.011855132877826691e-03 1.231376454234123230e-01
1.073000000000000000e+03 8.791694641113281250e+00 2.581889343261718750e+01 -5.464896932244300842e-02 3.835356608033180237e-02 -4.888621158897876740e-03 1.373083889484405518e-01
1.074000000000000000e+03 4.318567752838134766e+00 2.422534751892089844e+01 -1.888002641499042511e-02 -4.855883121490478516e-02 -2.023165673017501831e-02 8.910932391881942749e-02
1.075000000000000000e+03 6.161772012710571289e-01 2.335802459716796875e+01 3.343901364132761955e-03 -7.108996063470840454e-02 -2.032381668686866760e-02 1.476147957146167755e-02
1.076000000000000000e+03 7.466555023193359375e+01 2.592610549926757812e+01 -6.170824542641639709e-02 5.639180183410644531e+00 1.673241615295410156e+00 2.596237361431121826e-01
1.077000000000000000e+03 7.140173339843750000e+01 2.952804756164550781e+01 -1.913767009973526001e-01 5.510747432708740234e+00 1.595811247825622559e+00 9.009610861539840698e-02
1.078000000000000000e+03 6.877430725097656250e+01 2.695961380004882812e+01 -2.736508548259735107e-01 5.565294265747070312e+00 1.587493062019348145e+00 -7.364441640675067902e-03
1.079000000000000000e+03 4.284047698974609375e+01 3.033195877075195312e+01 -2.872340679168701172e-01 3.499568223953247070e+00 9.637002348899841309e-01 9.871455430984497070e-01
1.080000000000000000e+03 3.287206268310546875e+01 3.007246208190917969e+01 -6.519913673400878906e-01 3.914825201034545898e+00 9.788501858711242676e-01 -3.160188496112823486e-01
1.081000000000000000e+03 2.761391639709472656e+01 2.908311080932617188e+01 -2.060062587261199951e-01 2.584481477737426758e+00 7.135425209999084473e-01 -9.474469423294067383e-01
1.082000000000000000e+03 2.315752983093261719e+01 2.829571723937988281e+01 2.044765353202819824e-01 9.725538492202758789e-01 3.531091213226318359e-01 -6.549213528633117676e-01
1.083000000000000000e+03 1.998999977111816406e+01 2.627544021606445312e+01 6.174825504422187805e-02 2.580182552337646484e-01 9.592995047569274902e-02 -2.027256637811660767e-01
1.084000000000000000e+03 1.798967361450195312e+01 2.510014915466308594e+01 -9.195297956466674805e-02 5.634009093046188354e-02 -1.068386714905500412e-02 -1.474594511091709137e-02
1.085000000000000000e+03 1.021618652343750000e+01 3.073073387145996094e+01 5.454374477267265320e-02 9.321758151054382324e-02 4.432839900255203247e-02 1.311567574739456177e-01
1.086000000000000000e+03 5.004255771636962891e+00 2.695675659179687500e+01 -1.034764293581247330e-02 -6.670577079057693481e-02 -2.311602234840393066e-02 1.200421601533889771e-01
1.087000000000000000e+03 7.051498293876647949e-01 2.759639930725097656e+01 -1.772346324287354946e-03 -1.990461647510528564e-01 -6.024555489420890808e-02 2.300926670432090759e-02
1.088000000000000000e+03 7.517121887207031250e+01 3.238278579711914062e+01 -6.652970612049102783e-02 5.653743267059326172e+00 1.676164150238037109e+00 8.824500441551208496e-02
1.089000000000000000e+03 7.049887847900390625e+01 3.249387359619140625e+01 -1.498355716466903687e-01 5.307186603546142578e+00 1.547205328941345215e+00 8.889956370694562793e-05
1.090000000000000000e+03 6.619086456298828125e+01 3.216493225097656250e+01 -1.640758514404296875e-01 4.760785102844238281e+00 1.379012823104858398e+00 -3.210175633430480957e-01
1.091000000000000000e+03 6.419538116455078125e+01 3.186148643493652344e+01 -8.711254596710205078e-02 4.399741172790527344e+00 1.293788552284240723e+00 -4.698186218738555908e-01
1.092000000000000000e+03 6.217629241943359375e+01 3.118105888366699219e+01 -2.395149692893028259e-02 4.023558616638183594e+00 1.199882149696350098e+00 -6.188485622406005859e-01
1.093000000000000000e+03 5.559150314331054688e+01 3.280122375488281250e+01 4.931587576866149902e-01 2.554414033889770508e+00 9.142718911170959473e-01 -9.947755932807922363e-02
1.094000000000000000e+03 1.878360939025878906e+01 3.202582168579101562e+01 1.595805138349533081e-01 6.468296647071838379e-01 2.419230490922927856e-01 -2.167184054851531982e-01
1.095000000000000000e+03 1.618539619445800781e+01 2.954966354370117188e+01 1.010800749063491821e-01 2.670896947383880615e-01 1.104509308934211731e-01 -4.095305688679218292e-03
1.096000000000000000e+03 7.837629795074462891e+00 3.245587539672851562e+01 5.045397579669952393e-02 -2.402583835646510124e-03 1.441541779786348343e-02 1.276562362909317017e-01
1.097000000000000000e+03 5.642403125762939453e+00 3.015832138061523438e+01 1.938118785619735718e-02 -8.241363614797592163e-02 -1.890973374247550964e-02 1.298671215772628784e-01
1.098000000000000000e+03 7.412176132202148438e-01 3.043737030029296875e+01 -5.156859988346695900e-04 -2.927384376525878906e-01 -8.797623217105865479e-02 2.454183436930179596e-02
1.099000000000000000e+03 4.260196685791015625e+01 3.312177658081054688e+01 -2.923968434333801270e-01 3.376828670501708984e+00 9.253295660018920898e-01 7.152618765830993652e-01
1.100000000000000000e+03 4.421379566192626953e+00 3.548387145996093750e+01 4.100778698921203613e-02 -2.060480266809463501e-01 -4.951207339763641357e-02 8.124706149101257324e-02
1.101000000000000000e+03 6.441169381141662598e-01 3.464978027343750000e+01 1.110921800136566162e-02 -4.089758694171905518e-01 -1.193599924445152283e-01 1.366304699331521988e-02
1.102000000000000000e+03 7.547080230712890625e+01 3.818058395385742188e+01 -3.962204977869987488e-02 5.671705245971679688e+00 1.689625024795532227e+00 3.154436498880386353e-02
1.103000000000000000e+03 7.244511413574218750e+01 3.784470748901367188e+01 -3.233828023076057434e-02 5.329902648925781250e+00 1.589269280433654785e+00 -3.120601642876863480e-03
1.104000000000000000e+03 5.925976943969726562e+01 3.705624771118164062e+01 3.423572182655334473e-01 3.363372564315795898e+00 1.111718893051147461e+00 -1.794117391109466553e-01
1.105000000000000000e+03 7.756184339523315430e-01 3.734410858154296875e+01 1.447365526109933853e-02 -4.383733272552490234e-01 -1.271698921918869019e-01 -3.144676098600029945e-03
1.106000000000000000e+03 4.107347488403320312e+00 1.471108627319335938e+01 -1.170519273728132248e-02 -1.925623160786926746e-03 -4.089245107024908066e-03 5.106363911181688309e-03
1.107000000000000000e+03 6.097447276115417480e-01 1.631745719909667969e+01 -5.426942370831966400e-03 9.000331163406372070e-03 1.072016661055386066e-03 1.695919316262006760e-03
1.108000000000000000e+03 4.003324508666992188e+00 1.070688629150390625e+01 2.459819428622722626e-03 -1.242588041350245476e-04 7.006681989878416061e-04 -3.242225619032979012e-03
1.109000000000000000e+03 5.861914753913879395e-01 1.349168395996093750e+01 -3.792105941101908684e-03 1.027771364897489548e-02 1.945682335644960403e-03 -4.076237746630795300e-05
1.110000000000000000e+03 3.298855304718017578e+00 5.466899871826171875e+00 -9.125181240960955620e-04 7.958160713315010071e-04 -3.501061291899532080e-05 -1.840885961428284645e-03
1.111000000000000000e+03 1.080617713928222656e+01 6.631668567657470703e+00 -2.626221161335706711e-03 -1.075692125596106052e-03 -1.110573997721076012e-03 1.548496424220502377e-03
1.112000000000000000e+03 1.651875877380371094e+01 6.082400798797607422e+00 1.692604739218950272e-03 2.138403709977865219e-03 1.149302581325173378e-03 4.565328126773238182e-04
1.113000000000000000e+03 1.253607940673828125e+01 5.828956127166748047e+00 3.714947728440165520e-03 -1.955009793164208531e-04 1.055833999998867512e-03 -1.231006608577445149e-04
1.114000000000000000e+03 5.818368196487426758e-01 9.263584136962890625e+00 2.022687578573822975e-03 5.345240700989961624e-03 2.210378414019942284e-03 -9.634668240323662758e-04
1.115000000000000000e+03 5.753416538238525391e+00 1.901363492012023926e+00 1.691194251179695129e-03 1.890971616376191378e-04 5.640874151140451431e-04 -7.877697935327887535e-04
1.116000000000000000e+03 8.801038742065429688e+00 2.587698221206665039e+00 6.125892396084964275e-04 -1.008747261948883533e-03 -1.188474125228822231e-04 2.692081034183502197e-04
1.117000000000000000e+03 6.076980233192443848e-01 6.423948287963867188e+00 1.115916180424392223e-03 2.494886983186006546e-03 1.083240960724651814e-03 -6.720512174069881439e-04
1.118000000000000000e+03 1.978876304626464844e+01 4.059117317199707031e+00 5.654763081111013889e-04 8.612505043856799603e-04 4.280180437490344048e-04 7.857513264752924442e-05
1.119000000000000000e+03 3.972538375854492188e+01 1.405065822601318359e+01 1.017977118492126465e+00 7.951112270355224609e+00 2.690726757049560547e+00 1.898930788040161133e+00
1.120000000000000000e+03 4.542198944091796875e+01 -2.341732788085937500e+01 1.120254158973693848e+00 1.471545886993408203e+01 4.750713825225830078e+00 -1.954104304313659668e+00
1.121000000000000000e+03 3.530465698242187500e+01 -2.330275726318359375e+01 1.285194039344787598e+00 8.209172248840332031e+00 2.848309755325317383e+00 2.152722358703613281e+00
1.122000000000000000e+03 3.917145156860351562e+01 -2.385058975219726562e+01 1.678919672966003418e+00 8.098216056823730469e+00 2.933140516281127930e+00 -3.208937346935272217e-01
1.123000000000000000e+03 3.262850189208984375e+01 -2.953835487365722656e+01 1.225119270384311676e-02 2.924581766128540039e+00 8.810498714447021484e-01 1.347617030143737793e+00
1.124000000000000000e+03 3.571918106079101562e+01 -2.853719711303710938e+01 1.845541149377822876e-01 5.197360992431640625e+00 1.614574551582336426e+00 1.194375753402709961e+00
1.125000000000000000e+03 4.026326751708984375e+01 -2.762505722045898438e+01 7.720874547958374023e-01 7.425593376159667969e+00 2.459304332733154297e+00 -1.040364522486925125e-02
1.126000000000000000e+03 4.291649246215820312e+01 -2.752942848205566406e+01 1.301249384880065918e+00 8.505048751831054688e+00 2.941889524459838867e+00 -7.574821114540100098e-01
1.127000000000000000e+03 2.551299095153808594e+01 -2.252350330352783203e+00 1.240226984024047852e+00 -1.157230958342552185e-01 3.373511731624603271e-01 1.171674132347106934e+00
1.128000000000000000e+03 2.004806041717529297e+00 -9.683505058288574219e+00 3.321971744298934937e-02 -1.010108113288879395e+00 -2.930665016174316406e-01 -3.264634013175964355e-01
1.129000000000000000e+03 9.038908958435058594e+00 -2.581754684448242188e+00 -7.754166722297668457e-01 4.613240435719490051e-02 -2.187852859497070312e-01 -3.882680237293243408e-01
1.130000000000000000e+03 6.872201919555664062e+00 -2.562623739242553711e+00 -5.589483380317687988e-01 -8.007539436221122742e-03 -1.700867563486099243e-01 -4.218433201313018799e-01
1.131000000000000000e+03 5.390691280364990234e+00 -1.863980770111083984e+00 -4.481901228427886963e-01 -2.812394313514232635e-02 -1.428942233324050903e-01 -3.149120509624481201e-01
1.132000000000000000e+03 1.090679168701171875e+00 -2.064657926559448242e+00 -2.971650287508964539e-02 -9.382926672697067261e-02 -3.706373274326324463e-02 -6.577628105878829956e-02
1.133000000000000000e+03 3.670583367347717285e-01 -2.164394140243530273e+00 -7.106261793524026871e-03 -4.549749940633773804e-02 -1.578112877905368805e-02 -1.876548118889331818e-02
1.134000000000000000e+03 9.501284956932067871e-01 -3.872426223754882812e+01 -5.047984421253204346e-03 1.166800260543823242e-01 3.348961099982261658e-02 2.730960398912429810e-02
1.135000000000000000e+03 9.272655844688415527e-01 -3.338110733032226562e+01 -1.809924654662609100e-02 -1.441560089588165283e-01 -4.867657646536827087e-02 6.788814812898635864e-02
1.136000000000000000e+03 8.777461647987365723e-01 -3.186734390258789062e+01 -4.410968627780675888e-03 -2.644297182559967041e-01 -8.065219968557357788e-02 8.555926382541656494e-02
1.137000000000000000e+03 7.500681877136230469e-01 -2.900044822692871094e+01 1.743667176924645901e-03 -5.823146104812622070e-01 -1.741712838411331177e-01 9.658928960561752319e-02
1.138000000000000000e+03 6.237414479255676270e-01 -2.621657943725585938e+01 8.244660682976245880e-03 -9.973794817924499512e-01 -2.967404425144195557e-01 1.011418849229812622e-01
1.139000000000000000e+03 6.134187579154968262e-01 -2.204796600341796875e+01 2.539587207138538361e-03 -1.651968717575073242e+00 -4.948287606239318848e-01 8.280073106288909912e-02
1.140000000000000000e+03 1.946596503257751465e+00 -1.939674568176269531e+01 4.664357379078865051e-02 -1.405939340591430664e+00 -4.077887535095214844e-01 1.509936600923538208e-01
1.141000000000000000e+03 6.352441310882568359e-01 -1.221191310882568359e+01 9.532663039863109589e-03 -1.757556080818176270e+00 -5.244070291519165039e-01 -8.205015957355499268e-02
1.142000000000000000e+03 6.775733232498168945e-01 -9.391085624694824219e+00 1.500313822180032730e-02 -1.269466042518615723e+00 -3.763388395309448242e-01 -1.332332193851470947e-01
1.143000000000000000e+03 7.585142517089843750e+01 4.046628570556640625e+01 -8.436887525022029877e-03 5.786379337310791016e+00 1.733382701873779297e+00 5.333094671368598938e-02
1.144000000000000000e+03 7.890635681152343750e+01 3.880734634399414062e+01 -1.868987083435058594e-02 6.024148941040039062e+00 1.801637768745422363e+00 -2.559426426887512207e-02
1.145000000000000000e+03 7.760406494140625000e+01 3.779969787597656250e+01 -4.105942696332931519e-02 5.915420055389404297e+00 1.762308239936828613e+00 1.434055157005786896e-02
1.146000000000000000e+03 7.918008422851562500e+01 3.479352569580078125e+01 -2.356704790145158768e-03 6.041741371154785156e+00 1.811815381050109863e+00 1.976817101240158081e-02
1.147000000000000000e+03 7.927337646484375000e+01 2.919313430786132812e+01 -3.767760470509529114e-03 5.819055557250976562e+00 1.744586348533630371e+00 4.561302438378334045e-02
1.148000000000000000e+03 7.779851531982421875e+01 2.765363883972167969e+01 -1.795087382197380066e-02 5.676506042480468750e+00 1.697566509246826172e+00 1.424010694026947021e-01
1.149000000000000000e+03 7.784322357177734375e+01 2.486294364929199219e+01 -5.717947613447904587e-03 5.530247688293457031e+00 1.657358884811401367e+00 1.693104356527328491e-01
1.150000000000000000e+03 7.935330200195312500e+01 1.946167755126953125e+01 5.328196566551923752e-03 5.034341335296630859e+00 1.511900782585144043e+00 4.264762625098228455e-02
1.151000000000000000e+03 7.808060455322265625e+01 1.797993659973144531e+01 3.970698267221450806e-02 5.181160926818847656e+00 1.566260457038879395e+00 5.846173688769340515e-02
1.152000000000000000e+03 7.811286163330078125e+01 1.384836673736572266e+01 5.143865570425987244e-02 5.257374763488769531e+00 1.592643976211547852e+00 -1.191566064953804016e-01
1.153000000000000000e+03 7.937740325927734375e+01 9.731535911560058594e+00 1.167675200849771500e-02 5.504948139190673828e+00 1.654987454414367676e+00 -1.101351380348205566e-01
1.154000000000000000e+03 7.812404632568359375e+01 8.292681694030761719e+00 4.970461130142211914e-02 5.897181987762451172e+00 1.784065961837768555e+00 -3.721613883972167969e-01
1.155000000000000000e+03 7.811464691162109375e+01 4.118748188018798828e+00 4.065417870879173279e-02 6.773262023925781250e+00 2.044174909591674805e+00 -5.460606217384338379e-01
1.156000000000000000e+03 7.938847351074218750e+01 -1.385116577148437500e-02 2.862979192286729813e-03 8.314096450805664062e+00 2.495087862014770508e+00 -2.357847541570663452e-01
1.157000000000000000e+03 7.816625976562500000e+01 -4.272024333477020264e-02 1.105245295912027359e-02 7.933682918548583984e+00 2.383420467376708984e+00 -6.507686376571655273e-01
1.158000000000000000e+03 7.946276092529296875e+01 -6.911364555358886719e+00 -3.802831843495368958e-02 1.053217124938964844e+01 3.148242950439453125e+00 -5.138670653104782104e-02
1.159000000000000000e+03 7.841539764404296875e+01 -8.121186256408691406e+00 -2.284154146909713745e-01 9.955471992492675781e+00 2.918117046356201172e+00 9.181009232997894287e-02
1.160000000000000000e+03 7.947204589843750000e+01 -1.661714172363281250e+01 1.766151040792465210e-01 4.546983242034912109e+00 1.417079567909240723e+00 -1.778538338840007782e-02
1.161000000000000000e+03 7.776474761962890625e+01 -1.684856033325195312e+01 1.642192482948303223e+00 8.577721595764160156e+00 3.065974235534667969e+00 -5.717018246650695801e-01
1.162000000000000000e+03 7.809785461425781250e+01 -2.119004058837890625e+01 -3.803850710391998291e-01 9.872457504272460938e+00 2.847621679306030273e+00 -1.585720539093017578e+00
1.163000000000000000e+03 7.824497222900390625e+01 -2.252929306030273438e+01 -3.271464109420776367e-01 1.020431327819824219e+01 2.963150024414062500e+00 -1.088549256324768066e+00
1.164000000000000000e+03 7.932421875000000000e+01 -2.653402519226074219e+01 -4.971371497958898544e-03 1.178447151184082031e+01 3.533850193023681641e+00 -8.682578802108764648e-02
1.165000000000000000e+03 7.817226409912109375e+01 -2.947537803649902344e+01 -9.017881751060485840e-02 1.076503467559814453e+01 3.202456712722778320e+00 1.288913935422897339e-01
1.166000000000000000e+03 7.828073120117187500e+01 -3.334480667114257812e+01 -3.896846249699592590e-02 1.043104267120361328e+01 3.117622375488281250e+00 2.674766480922698975e-01
1.167000000000000000e+03 7.934833526611328125e+01 -3.610848999023437500e+01 3.518838062882423401e-02 1.068588352203369141e+01 3.216321706771850586e+00 1.134716048836708069e-01
1.168000000000000000e+03 7.658975219726562500e+01 -3.688285446166992188e+01 -1.101029198616743088e-02 9.153826713562011719e+00 2.742844820022583008e+00 4.168592989444732666e-01
1.169000000000000000e+03 7.868161010742187500e+01 -4.008796310424804688e+01 -8.028654009103775024e-02 9.744011878967285156e+00 2.899117469787597656e+00 2.557004690170288086e-01
1.170000000000000000e+03 3.976908624172210693e-01 2.163468360900878906e+00 -5.723289796151220798e-04 1.173892524093389511e-04 -1.364819181617349386e-04 9.486232011113315821e-05
1.171000000000000000e+03 6.170545816421508789e-01 4.948059082031250000e+00 -7.269243942573666573e-04 1.405561692081391811e-03 2.035911893472075462e-04 -2.764505334198474884e-04
1.172000000000000000e+03 1.824273347854614258e+00 6.405172348022460938e+00 -1.347885234281420708e-03 1.559204654768109322e-03 6.339579704217612743e-05 -9.029160719364881516e-04
1.173000000000000000e+03 1.740231871604919434e+00 9.258764266967773438e+00 -2.156355185434222221e-03 3.247853368520736694e-03 3.274494374636560678e-04 -1.198352896608412266e-03
1.174000000000000000e+03 5.790278911590576172e-01 1.208048915863037109e+01 3.026257501915097237e-03 8.894572965800762177e-03 3.576249117031693459e-03 -1.066632336005568504e-03
1.175000000000000000e+03 1.733889698982238770e+00 1.204525852203369141e+01 -3.523363266140222549e-03 4.715363495051860809e-03 3.576001035980880260e-04 -7.866427185945212841e-04
1.176000000000000000e+03 1.833424091339111328e+00 1.626150703430175781e+01 2.008200855925679207e-03 1.081651542335748672e-03 9.269557194784283638e-04 3.010523039847612381e-03
1.177000000000000000e+03 1.885457038879394531e+00 1.907910156250000000e+01 2.664678031578660011e-04 -1.288502011448144913e-02 -3.785565728321671486e-03 1.429955940693616867e-02
1.178000000000000000e+03 6.127203106880187988e-01 2.194737625122070312e+01 -7.218658458441495895e-03 -4.085068777203559875e-02 -1.442080363631248474e-02 1.090846583247184753e-02
1.179000000000000000e+03 6.361461281776428223e-01 2.477068328857421875e+01 -5.535687785595655441e-03 -1.082604750990867615e-01 -3.413885086774826050e-02 1.775652542710304260e-02
1.180000000000000000e+03 6.695287227630615234e-01 2.618299865722656250e+01 1.082760398276150227e-03 -1.524417847394943237e-01 -4.540770873427391052e-02 2.234428375959396362e-02
1.181000000000000000e+03 7.323206067085266113e-01 2.901542472839355469e+01 3.190080169588327408e-04 -2.460161745548248291e-01 -7.370915263891220093e-02 2.457377314567565918e-02
1.182000000000000000e+03 2.220123767852783203e+00 2.889800453186035156e+01 -1.271979883313179016e-03 -1.913374215364456177e-01 -5.778281763195991516e-02 6.756693124771118164e-02
1.183000000000000000e+03 6.814860701560974121e-01 3.326222991943359375e+01 -6.502761505544185638e-03 -3.731146454811096191e-01 -1.138852164149284363e-01 1.971025206148624420e-02
1.184000000000000000e+03 6.789544224739074707e-01 3.600134658813476562e+01 -5.841927602887153625e-03 -4.345740973949432373e-01 -1.321248114109039307e-01 9.870200417935848236e-03
1.185000000000000000e+03 1.329770684242248535e+00 4.006857681274414062e+01 1.699915342032909393e-02 -4.231232106685638428e-01 -1.218372210860252380e-01 -1.294253114610910416e-02
1.186000000000000000e+03 9.592707633972167969e+00 1.860239863395690918e+00 7.750924560241401196e-04 -6.726373103447258472e-04 3.073653715546242893e-05 3.075621207244694233e-04
1.187000000000000000e+03 8.826669692993164062e+00 1.861598610877990723e+00 1.848719897679984570e-03 2.963154111057519913e-04 6.435106042772531509e-04 -7.560905942227691412e-05
1.188000000000000000e+03 6.521381855010986328e+00 1.886506319046020508e+00 7.150787278078496456e-04 -5.692575941793620586e-04 4.374634954729117453e-05 -5.775883619207888842e-05
1.189000000000000000e+03 4.987032890319824219e+00 1.919716954231262207e+00 3.370226477272808552e-04 -3.190124989487230778e-04 5.403049271990312263e-06 -3.220868529751896858e-04
1.190000000000000000e+03 2.641309022903442383e+00 2.083249568939208984e+00 1.016760594211518764e-03 3.058751462958753109e-04 3.967907396145164967e-04 -5.069881444796919823e-04
1.191000000000000000e+03 1.157273292541503906e+00 2.038422346115112305e+00 1.108638753066770732e-04 5.520446575246751308e-04 1.988725707633420825e-04 -4.294219834264367819e-04
1.192000000000000000e+03 1.034760475158691406e+01 1.862091660499572754e+00 1.826694700866937637e-03 3.617753391154110432e-04 6.565410294570028782e-04 2.288904652232304215e-04
1.193000000000000000e+03 1.105640411376953125e+01 2.591581583023071289e+00 1.949419267475605011e-03 3.918867150787264109e-04 7.023917860351502895e-04 3.603324585128575563e-04
1.194000000000000000e+03 1.331250000000000000e+01 1.890948295593261719e+00 1.249601249583065510e-03 7.167893927544355392e-04 5.899171810597181320e-04 1.550150918774306774e-04
1.195000000000000000e+03 1.550948429107666016e+01 1.971118092536926270e+00 -1.918957568705081940e-04 -6.572044803760945797e-04 -2.547300828155130148e-04 5.125472089275717735e-04
1.196000000000000000e+03 1.623166656494140625e+01 2.015579938888549805e+00 6.832865765318274498e-04 9.006623295135796070e-04 4.751846718136221170e-04 9.430403588339686394e-05
1.197000000000000000e+03 1.764948844909667969e+01 2.130051136016845703e+00 5.167440394870936871e-04 8.478569216094911098e-04 4.093802999705076218e-04 2.658058519955375232e-06
1.198000000000000000e+03 1.903565788269042969e+01 2.309381484985351562e+00 5.403546965681016445e-04 6.559659959748387337e-04 3.588962135836482048e-04 -1.602517659193836153e-05
1.199000000000000000e+03 2.073914527893066406e+01 3.535003662109375000e+00 9.136266307905316353e-04 2.854652993846684694e-04 3.597275936044752598e-04 5.838012657477520406e-05
1.200000000000000000e+03 2.106761360168457031e+01 2.727896451950073242e+00 -5.812763702124357224e-04 -2.813821774907410145e-04 -2.587975468486547470e-04 1.380933827022090554e-04
1.201000000000000000e+03 2.324020004272460938e+01 3.529797554016113281e+00 4.036984755657613277e-04 4.753081302624195814e-04 2.637019788380712271e-04 2.348490088479593396e-04
1.202000000000000000e+03 2.237158584594726562e+01 4.415657997131347656e+00 -4.488402628339827061e-04 -8.303240174427628517e-04 -3.837492840830236673e-04 -3.455246915109455585e-04
1.203000000000000000e+03 1.977403640747070312e+01 5.172128677368164062e+00 1.833484275266528130e-03 -1.093931859941221774e-04 5.172273376956582069e-04 1.166138448752462864e-03
1.204000000000000000e+03 1.927930259704589844e+01 6.043709754943847656e+00 -2.814424224197864532e-03 -5.667438381351530552e-04 -1.014350447803735733e-03 -9.347404120489954948e-04
1.205000000000000000e+03 1.840429687500000000e+01 2.209378051757812500e+01 -7.185978293418884277e-01 -5.885215848684310913e-02 -2.332349866628646851e-01 -1.429728716611862183e-01
1.206000000000000000e+03 2.587721824645996094e+01 2.208788681030273438e+01 5.858604907989501953e-01 4.799151122570037842e-01 3.197326660156250000e-01 -5.430365204811096191e-01
1.207000000000000000e+03 3.140954971313476562e+01 1.724575233459472656e+01 1.533264040946960449e+00 8.831830024719238281e+00 3.109528303146362305e+00 -3.114871740341186523e+00
1.208000000000000000e+03 3.426642227172851562e+01 1.191822528839111328e+01 7.670688033103942871e-01 1.126625633239746094e+01 3.609997510910034180e+00 -1.853648304939270020e+00
1.209000000000000000e+03 3.356703567504882812e+01 8.865289688110351562e+00 7.220302820205688477e-01 1.331893348693847656e+01 4.212289333343505859e+00 -1.585458993911743164e+00
1.210000000000000000e+03 3.391934585571289062e+01 4.456422328948974609e+00 9.893649220466613770e-01 1.751313591003417969e+01 5.550750255584716797e+00 1.025545597076416016e+00
1.211000000000000000e+03 2.876427459716796875e+01 -9.632742404937744141e-02 3.165853977203369141e+00 -3.518129512667655945e-02 9.392018318176269531e-01 2.381188422441482544e-02
1.212000000000000000e+03 2.433046913146972656e+01 -2.948074042797088623e-01 8.385818004608154297e-01 -1.297101378440856934e-01 2.126614898443222046e-01 4.178607761859893799e-01
1.213000000000000000e+03 2.280504798889160156e+01 -7.744041085243225098e-01 3.503432273864746094e-01 7.418131083250045776e-02 1.273573637008666992e-01 5.345700383186340332e-01
1.214000000000000000e+03 2.202849006652832031e+01 -9.680142402648925781e-01 1.389450430870056152e-01 1.295893192291259766e-01 8.056031167507171631e-02 5.633202791213989258e-01
1.215000000000000000e+03 1.889941787719726562e+01 -1.493740916252136230e+00 -6.116872429847717285e-01 1.698832809925079346e-01 -1.325411796569824219e-01 4.796893894672393799e-01
1.216000000000000000e+03 2.046360969543457031e+01 -1.257600545883178711e+00 -2.572667896747589111e-01 1.790223419666290283e-01 -2.347333729267120361e-02 5.638325214385986328e-01
1.217000000000000000e+03 1.656141662597656250e+01 -1.702772259712219238e+00 -1.016814470291137695e+00 1.129596680402755737e-01 -2.711564302444458008e-01 2.640067338943481445e-01
1.218000000000000000e+03 1.578371429443359375e+01 -1.747862696647644043e+00 -1.103867769241333008e+00 1.102178841829299927e-01 -2.980949580669403076e-01 1.834915578365325928e-01
1.219000000000000000e+03 1.270717430114746094e+01 -1.838370084762573242e+00 -1.221354961395263672e+00 6.904441863298416138e-02 -3.456931710243225098e-01 -1.120660677552223206e-01
1.220000000000000000e+03 1.043038082122802734e+01 -1.857007026672363281e+00 -1.080193519592285156e+00 3.868817910552024841e-02 -3.124516010284423828e-01 -2.608763873577117920e-01
1.221000000000000000e+03 9.691300392150878906e+00 -1.860737323760986328e+00 -1.001490354537963867e+00 3.341429680585861206e-02 -2.904227972030639648e-01 -2.918335795402526855e-01
1.222000000000000000e+03 3.498646163940429688e+01 -1.366086006164550781e+01 1.232412695884704590e+00 1.223368453979492188e+01 4.039829254150390625e+00 -3.316644906997680664e+00
1.223000000000000000e+03 3.542431640625000000e+01 -1.639395904541015625e+01 5.084970593452453613e-01 1.250487804412841797e+01 3.904012441635131836e+00 -1.740256428718566895e+00
1.224000000000000000e+03 3.553470611572265625e+01 -1.778182220458984375e+01 3.031455278396606445e-01 1.155840873718261719e+01 3.558466434478759766e+00 -1.022428274154663086e+00
1.225000000000000000e+03 3.554620742797851562e+01 -2.197615432739257812e+01 7.408121824264526367e-01 9.954563140869140625e+00 3.208612442016601562e+00 1.367895245552062988e+00
1.226000000000000000e+03 3.551828384399414062e+01 -2.479330444335937500e+01 1.445403575897216797e+00 6.833612442016601562e+00 2.483704805374145508e+00 1.746050715446472168e+00
1.227000000000000000e+03 2.745376396179199219e+01 -3.006535148620605469e+01 -1.032651662826538086e+00 1.871219575405120850e-01 -2.536588907241821289e-01 1.809660792350769043e-01
1.228000000000000000e+03 1.624679756164550781e+01 -2.353857803344726562e+01 4.790146052837371826e-01 1.314536929130554199e+00 5.380654335021972656e-01 -7.620921134948730469e-01
1.229000000000000000e+03 1.437251472473144531e+01 -1.665656852722167969e+01 5.641489624977111816e-01 4.914974689483642578e+00 1.643737077713012695e+00 8.406080603599548340e-01
1.230000000000000000e+03 2.210911560058593750e+01 -1.096803283691406250e+01 9.201717972755432129e-01 1.719858497381210327e-01 3.276472985744476318e-01 4.241514503955841064e-01
1.231000000000000000e+03 2.459753227233886719e+01 -1.009738254547119141e+01 2.462287694215774536e-01 1.907246410846710205e-01 1.310860216617584229e-01 2.840651869773864746e-01
1.232000000000000000e+03 6.250555801391601562e+01 1.527674102783203125e+01 1.347107887268066406e-01 9.219426155090332031e+00 2.806241273880004883e+00 -2.658013999462127686e-01
1.233000000000000000e+03 6.217752075195312500e+01 9.548313140869140625e+00 5.782947540283203125e-01 7.824801921844482422e+00 2.520929098129272461e+00 1.223798871040344238e+00
1.234000000000000000e+03 5.979858398437500000e+01 4.241165161132812500e+00 1.524739384651184082e+00 3.899242401123046875e+00 1.627194643020629883e+00 2.286331176757812500e+00
1.235000000000000000e+03 5.653046035766601562e+01 -4.546445608139038086e-01 2.152561187744140625e+00 3.370639801025390625e+00 1.656960368156433105e+00 2.547017574310302734e+00
1.236000000000000000e+03 4.657954025268554688e+01 -4.790611743927001953e+00 -4.995006084442138672e+00 -3.188590705394744873e-01 -1.594159603118896484e+00 1.438091874122619629e+00
1.237000000000000000e+03 4.526807022094726562e+01 -4.368022441864013672e+00 -4.495118618011474609e+00 -1.194341406226158142e-01 -1.384365797042846680e+00 1.076303124427795410e+00
1.238000000000000000e+03 4.261499023437500000e+01 -3.483436822891235352e+00 -1.643804907798767090e+00 1.492203593254089355e+00 -4.548042267560958862e-02 -8.263986706733703613e-01
1.239000000000000000e+03 3.969897842407226562e+01 2.178753614425659180e-01 1.559728026390075684e+00 1.378788185119628906e+01 4.604283332824707031e+00 -3.897231817245483398e+00
1.240000000000000000e+03 3.915296173095703125e+01 2.978549242019653320e+00 6.750290393829345703e-01 1.567785072326660156e+01 4.905863761901855469e+00 -1.171295642852783203e+00
1.241000000000000000e+03 3.902911758422851562e+01 5.856121540069580078e+00 5.498945713043212891e-01 1.611794090270996094e+01 5.000350475311279297e+00 8.897175192832946777e-01
1.242000000000000000e+03 3.916684722900390625e+01 7.200619220733642578e+00 1.138866662979125977e+00 1.712490272521972656e+01 5.479130744934082031e+00 2.240936994552612305e+00
1.243000000000000000e+03 4.354124450683593750e+01 1.475862312316894531e+01 2.050716161727905273e+00 3.166377782821655273e+00 1.565128207206726074e+00 2.425222873687744141e+00
1.244000000000000000e+03 4.452470397949218750e+01 1.580160427093505859e+01 1.684339284896850586e+00 2.334520816802978516e+00 1.205657958984375000e+00 1.956657171249389648e+00
1.245000000000000000e+03 4.684679031372070312e+01 1.987970542907714844e+01 3.777807652950286865e-01 1.848466277122497559e+00 6.678740978240966797e-01 1.249109148979187012e+00
1.246000000000000000e+03 5.031143188476562500e+01 2.007235145568847656e+01 -3.539062738418579102e-01 3.589600622653961182e-01 1.516128890216350555e-03 2.674567401409149170e-01
1.247000000000000000e+03 5.306976318359375000e+01 2.102535629272460938e+01 -1.280610680580139160e+00 7.297678291797637939e-02 -3.622901737689971924e-01 -1.171826124191284180e-01
1.248000000000000000e+03 5.594261169433593750e+01 2.165243721008300781e+01 -1.708997845649719238e+00 2.666911669075489044e-02 -5.046986341476440430e-01 -2.913141846656799316e-01
1.249000000000000000e+03 5.745183563232421875e+01 2.181805610656738281e+01 -1.539618968963623047e+00 -2.247895859181880951e-02 -4.686293900012969971e-01 -3.694682717323303223e-01
1.250000000000000000e+03 6.983787536621093750e+01 -1.448526573181152344e+01 -7.041293382644653320e-01 1.009408235549926758e+00 9.158366173505783081e-02 1.296356618404388428e-01
1.251000000000000000e+03 7.067288208007812500e+01 -1.449798488616943359e+01 1.314867585897445679e-01 1.677657485008239746e+00 5.427432656288146973e-01 -9.875704646110534668e-01
1.252000000000000000e+03 7.130132293701171875e+01 -1.438156890869140625e+01 8.690536618232727051e-01 3.160453081130981445e+00 1.208852052688598633e+00 -2.366424560546875000e+00
1.253000000000000000e+03 7.120719909667968750e+01 -1.468624877929687500e+01 8.772502541542053223e-01 2.223603248596191406e+00 9.302560091018676758e-01 -1.866354703903198242e+00
1.254000000000000000e+03 7.369437408447265625e+01 -1.466330623626708984e+01 -7.006772160530090332e-01 1.845410346984863281e+01 5.326028347015380859e+00 -1.543189883232116699e+00
1.255000000000000000e+03 7.459207916259765625e+01 -1.521564483642578125e+01 3.585336446762084961e+00 1.738527297973632812e+01 6.291182994842529297e+00 2.769449949264526367e+00
1.256000000000000000e+03 7.479043579101562500e+01 -1.693171119689941406e+01 6.571650028228759766e+00 1.586067485809326172e+01 6.729697227478027344e+00 -2.468238830566406250e+00
1.257000000000000000e+03 7.426567840576171875e+01 -1.760931777954101562e+01 2.047378063201904297e+00 1.853031158447265625e+01 6.173306941986083984e+00 -1.819061398506164551e+00
1.258000000000000000e+03 7.164073944091796875e+01 -1.807476425170898438e+01 2.291371345520019531e+00 4.031339645385742188e+00 1.896813273429870605e+00 3.271578311920166016e+00
1.259000000000000000e+03 7.226466369628906250e+01 -1.798264694213867188e+01 2.393156051635742188e+00 7.410204887390136719e+00 2.941008090972900391e+00 4.957420349121093750e+00
1.260000000000000000e+03 7.094772338867187500e+01 -1.839614486694335938e+01 1.711129903793334961e+00 2.456867456436157227e+00 1.250399231910705566e+00 2.045046806335449219e+00
1.261000000000000000e+03 6.914607238769531250e+01 -1.853687477111816406e+01 3.663757443428039551e-01 2.534198164939880371e-01 1.859386712312698364e-01 1.769066303968429565e-01
1.262000000000000000e+03 6.451245880126953125e+01 -2.634538841247558594e+01 -1.216778755187988281e+00 -8.267904520034790039e-01 -6.130707263946533203e-01 -1.064003348350524902e+00
1.263000000000000000e+03 5.999961090087890625e+01 -2.990980720520019531e+01 -2.396774291992187500e+00 -5.500944852828979492e-01 -8.840606808662414551e-01 -1.070554018020629883e+00
1.264000000000000000e+03 5.858369827270507812e+01 -3.065370178222656250e+01 -2.199779033660888672e+00 -4.622991085052490234e-01 -7.986234426498413086e-01 -8.343712687492370605e-01
1.265000000000000000e+03 5.227685928344726562e+01 -3.071747779846191406e+01 -3.019499778747558594e-01 4.044317603111267090e-01 3.074453957378864288e-02 -6.523131728172302246e-01
1.266000000000000000e+03 4.598602294921875000e+01 -2.768801116943359375e+01 2.475564479827880859e+00 8.762035369873046875e+00 3.371279954910278320e+00 -3.174196481704711914e+00
1.267000000000000000e+03 4.381054687500000000e+01 -1.843634986877441406e+01 1.918661355972290039e+00 9.408203125000000000e+00 3.398059368133544922e+00 -1.072313040494918823e-01
1.268000000000000000e+03 5.572257232666015625e+01 -1.467341613769531250e+01 -2.688823938369750977e+00 -5.059538409113883972e-02 -8.218258023262023926e-01 -1.216847449541091919e-01
1.269000000000000000e+03 5.703989028930664062e+01 -1.451855278015136719e+01 -3.026587963104248047e+00 9.181077778339385986e-02 -8.804332017898559570e-01 -2.644693851470947266e-01
1.270000000000000000e+03 5.961706161499023438e+01 -1.392184829711914062e+01 -2.952567577362060547e+00 6.430167704820632935e-02 -8.664797544479370117e-01 -8.513774871826171875e-01
1.271000000000000000e+03 6.205743026733398438e+01 -1.277357482910156250e+01 -4.801069736480712891e+00 -5.047673583030700684e-01 -1.591751098632812500e+00 -1.926161050796508789e+00
1.272000000000000000e+03 4.021020507812500000e+01 1.028333473205566406e+01 2.424602508544921875e+00 1.115407657623291016e+01 4.073603630065917969e+00 4.624310016632080078e+00
1.273000000000000000e+03 4.094079971313476562e+01 1.144422435760498047e+01 2.584977865219116211e+00 8.089929580688476562e+00 3.202472209930419922e+00 4.190806388854980469e+00
1.274000000000000000e+03 6.826325988769531250e+01 -1.479633903503417969e+01 -1.397053241729736328e+00 -2.337090224027633667e-01 -4.892286658287048340e-01 1.083456635475158691e+00
1.275000000000000000e+03 6.960375976562500000e+01 -1.922133636474609375e+01 5.566350221633911133e-01 1.281579136848449707e+00 5.514642596244812012e-01 9.097775220870971680e-01
1.276000000000000000e+03 7.367898559570312500e+01 -1.789307403564453125e+01 1.071003973484039307e-01 1.847698402404785156e+01 5.575225353240966797e+00 1.396347403526306152e+00
1.277000000000000000e+03 7.291693878173828125e+01 -1.821595191955566406e+01 5.086719989776611328e-01 1.257468128204345703e+01 3.925005912780761719e+00 4.445859432220458984e+00
1.278000000000000000e+03 7.207353973388671875e+01 -1.802985000610351562e+01 2.341609954833984375e+00 6.083292484283447266e+00 2.527470827102661133e+00 4.312651157379150391e+00
1.279000000000000000e+03 7.263951110839843750e+01 -1.794345664978027344e+01 1.680904269218444824e+00 1.062812900543212891e+01 3.692709922790527344e+00 5.259628772735595703e+00
1.280000000000000000e+03 7.087374877929687500e+01 -1.808003234863281250e+01 1.808449625968933105e+00 1.860191941261291504e+00 1.100592494010925293e+00 1.723300933837890625e+00
1.281000000000000000e+03 7.051020812988281250e+01 -1.841148376464843750e+01 1.426012992858886719e+00 1.689105272293090820e+00 9.345355033874511719e-01 1.400632858276367188e+00
1.282000000000000000e+03 7.044764709472656250e+01 -1.810502624511718750e+01 1.337341666221618652e+00 1.255882978439331055e+00 7.779673933982849121e-01 1.077126502990722656e+00
1.283000000000000000e+03 7.066423797607421875e+01 -1.809122085571289062e+01 1.570941567420959473e+00 1.619929790496826172e+00 9.572613835334777832e-01 1.395108103752136230e+00
1.284000000000000000e+03 7.107456970214843750e+01 -1.801845359802246094e+01 1.989884018898010254e+00 2.050093650817871094e+00 1.211993336677551270e+00 2.029363632202148438e+00
1.285000000000000000e+03 7.304463195800781250e+01 -1.792350387573242188e+01 6.937530040740966797e-01 1.461995124816894531e+01 4.594111442565917969e+00 4.802444458007812500e+00
1.286000000000000000e+03 7.125094604492187500e+01 -1.801139068603515625e+01 2.087733030319213867e+00 2.590875864028930664e+00 1.403582692146301270e+00 2.284364223480224609e+00
1.287000000000000000e+03 7.132080841064453125e+01 -1.845617485046386719e+01 1.729313015937805176e+00 3.738780260086059570e+00 1.640428066253662109e+00 2.734960317611694336e+00
1.288000000000000000e+03 7.457022857666015625e+01 -1.730560302734375000e+01 4.352112770080566406e+00 1.735195922851562500e+01 6.511221885681152344e+00 -2.782833814620971680e+00
1.289000000000000000e+03 7.425292968750000000e+01 -1.495049571990966797e+01 1.425508379936218262e+00 1.881018066406250000e+01 6.070706844329833984e+00 1.792713761329650879e+00
1.290000000000000000e+03 7.476773071289062500e+01 -1.538382720947265625e+01 4.713023662567138672e+00 1.639254760742187500e+01 6.331671237945556641e+00 2.823625802993774414e+00
1.291000000000000000e+03 7.456413269042968750e+01 -1.789204597473144531e+01 1.437344670295715332e+00 1.677271842956542969e+01 5.463018894195556641e+00 -1.966283440589904785e+00
1.292000000000000000e+03 7.408929443359375000e+01 -1.773632049560546875e+01 1.162605166435241699e+00 1.885708999633789062e+01 6.005908489227294922e+00 -9.557079076766967773e-01
1.293000000000000000e+03 7.464755249023437500e+01 -1.475679683685302734e+01 1.465072512626647949e+00 1.683186340332031250e+01 5.489080905914306641e+00 2.171880960464477539e+00
1.294000000000000000e+03 7.345852661132812500e+01 -1.791056251525878906e+01 1.183044090867042542e-01 1.746095275878906250e+01 5.273777008056640625e+00 2.657016038894653320e+00
1.295000000000000000e+03 7.474380493164062500e+01 -1.772771453857421875e+01 2.397662639617919922e+00 1.621942329406738281e+01 5.585125923156738281e+00 -2.450401782989501953e+00
1.296000000000000000e+03 7.268371582031250000e+01 -1.441879081726074219e+01 3.179132342338562012e-01 1.100403976440429688e+01 3.396585941314697266e+00 -5.098078727722167969e+00
1.297000000000000000e+03 6.955484008789062500e+01 -1.474952983856201172e+01 -8.704389929771423340e-01 7.312575578689575195e-01 -4.175442457199096680e-02 4.399236440658569336e-01
1.298000000000000000e+03 7.017036437988281250e+01 -1.468322753906250000e+01 -2.684099078178405762e-01 1.022200822830200195e+00 2.261372804641723633e-01 -1.042012348771095276e-01
1.299000000000000000e+03 7.038884735107421875e+01 -1.472553634643554688e+01 -1.777385175228118896e-01 1.173523902893066406e+00 2.987355887889862061e-01 -3.574785292148590088e-01
1.300000000000000000e+03 7.150787353515625000e+01 -1.449613571166992188e+01 1.126836657524108887e+00 3.523720264434814453e+00 1.395167112350463867e+00 -2.898331165313720703e+00
1.301000000000000000e+03 7.162126159667968750e+01 -1.426306247711181641e+01 8.244596123695373535e-01 4.514669418334960938e+00 1.601738810539245605e+00 -3.163907051086425781e+00
1.302000000000000000e+03 7.223365783691406250e+01 -1.468989849090576172e+01 1.575435161590576172e+00 6.861001491546630859e+00 2.530930995941162109e+00 -4.928742408752441406e+00
1.303000000000000000e+03 7.303668975830078125e+01 -1.457002925872802734e+01 -2.924280762672424316e-01 1.417404079437255859e+01 4.164484024047851562e+00 -4.771907806396484375e+00
1.304000000000000000e+03 7.160798645019531250e+01 -1.469776630401611328e+01 1.421145677566528320e+00 3.384846210479736328e+00 1.441797614097595215e+00 -2.903010606765747070e+00
1.305000000000000000e+03 6.743447875976562500e+01 -1.374944686889648438e+01 -2.630853176116943359e+00 -1.468092918395996094e+00 -1.229683876037597656e+00 1.353394627571105957e+00
1.306000000000000000e+03 6.939001464843750000e+01 -1.427530002593994141e+01 -1.016240596771240234e+00 9.123044610023498535e-01 -3.118085488677024841e-02 3.182328641414642334e-01
1.307000000000000000e+03 6.760602569580078125e+01 -1.475123691558837891e+01 -1.564872741699218750e+00 -2.109611988067626953e+00 -1.102345466613769531e+00 1.594810605049133301e+00
1.308000000000000000e+03 2.179091835021972656e+01 2.924760580062866211e+00 3.608632541727274656e-04 2.510119811631739140e-04 1.835625735111534595e-04 -2.417371579213067889e-04
1.309000000000000000e+03 1.836135482788085938e+01 4.599095821380615234e+00 -2.243886468932032585e-03 6.863546150270849466e-05 -6.525752833113074303e-04 -5.452853511087596416e-04
1.310000000000000000e+03 1.819980239868164062e+01 2.902530193328857422e+00 6.541947950609028339e-04 8.323616930283606052e-04 4.459669580683112144e-04 1.854711008490994573e-04
1.311000000000000000e+03 2.039230728149414062e+01 2.581022024154663086e+00 5.549445049837231636e-04 4.503356176428496838e-04 3.015840484295040369e-04 -9.698000212665647268e-06
1.312000000000000000e+03 2.139292716979980469e+01 3.690657138824462891e+00 -6.980701582506299019e-04 -1.342673658655257896e-05 -2.134490787284448743e-04 2.913582138717174530e-04
1.313000000000000000e+03 8.969601631164550781e+00 -1.860617518424987793e+00 -9.175877571105957031e-01 2.005615085363388062e-02 -2.692594826221466064e-01 -3.148173391819000244e-01
1.314000000000000000e+03 6.104266166687011719e+00 -1.855645895004272461e+00 -5.438367724418640137e-01 -1.773802004754543304e-02 -1.684724241495132446e-01 -3.286567628383636475e-01
1.315000000000000000e+03 8.309145927429199219e+00 -2.575936555862426758e+00 -7.060188651084899902e-01 2.726458944380283356e-02 -2.036262750625610352e-01 -4.104913473129272461e-01
1.316000000000000000e+03 3.309179306030273438e+00 -2.774065971374511719e+00 -1.806271970272064209e-01 -1.355456113815307617e-01 -9.485184401273727417e-02 -3.034203648567199707e-01
1.317000000000000000e+03 5.535277366638183594e+00 -3.304812431335449219e+00 -3.505306243896484375e-01 -6.808499991893768311e-02 -1.255846917629241943e-01 -4.720927476882934570e-01
1.318000000000000000e+03 7.585717678070068359e+00 -2.567546129226684570e+00 -6.321916580200195312e-01 9.655791334807872772e-03 -1.867607533931732178e-01 -4.200639426708221436e-01
1.319000000000000000e+03 3.240700006484985352e+00 -1.925844788551330566e+00 -1.977961510419845581e-01 -7.295443117618560791e-02 -8.122517913579940796e-02 -2.174176722764968872e-01
1.320000000000000000e+03 4.037515163421630859e+00 -2.693594694137573242e+00 -2.529496848583221436e-01 -1.023260578513145447e-01 -1.065827235579490662e-01 -3.480064272880554199e-01
1.321000000000000000e+03 2.580232143402099609e+00 -2.847903251647949219e+00 -1.203404664993286133e-01 -1.530336141586303711e-01 -8.201222121715545654e-02 -2.417067885398864746e-01
1.322000000000000000e+03 8.249921798706054688e+00 -1.858833432197570801e+00 -8.285567164421081543e-01 1.449610851705074310e-02 -2.442181706428527832e-01 -3.289145231246948242e-01
1.323000000000000000e+03 6.166319370269775391e+00 -2.568513631820678711e+00 -4.800733923912048340e-01 -2.775762230157852173e-02 -1.523493081331253052e-01 -4.152649044990539551e-01
1.324000000000000000e+03 4.615319073200225830e-01 -3.511095523834228516e+00 -1.316621713340282440e-02 -2.010497003793716431e-01 -6.426477432250976562e-02 -5.878186970949172974e-02
1.325000000000000000e+03 5.820094347000122070e-01 -4.934413433074951172e+00 -1.705695874989032745e-02 -4.177844822406768799e-01 -1.304524242877960205e-01 -9.927979111671447754e-02
1.326000000000000000e+03 1.617820167541503906e+01 2.743288755416870117e+00 -5.630413070321083069e-04 -5.604626494459807873e-04 -3.370511985849589109e-04 3.860394936054944992e-04
1.327000000000000000e+03 1.835033035278320312e+01 2.203703165054321289e+00 -4.150647437199950218e-04 -6.140586338005959988e-04 -3.087370132561773062e-04 1.165842913906089962e-04
1.328000000000000000e+03 1.883421134948730469e+01 3.033700704574584961e+00 -7.628657040186226368e-04 -4.097648488823324442e-04 -3.517891746014356613e-04 -3.203322648914763704e-06
1.329000000000000000e+03 1.687513923645019531e+01 2.783179521560668945e+00 7.624832214787602425e-04 9.600750054232776165e-04 5.167674389667809010e-04 7.642224954906851053e-05
1.330000000000000000e+03 1.398615932464599609e+01 3.364323854446411133e+00 -4.164689453318715096e-04 -1.022309530526399612e-03 -4.316335252951830626e-04 1.304004341363906860e-03
1.331000000000000000e+03 1.179795932769775391e+01 2.598836421966552734e+00 -1.497672492405399680e-04 -7.067871629260480404e-04 -2.569663338363170624e-04 9.016458061523735523e-04
1.332000000000000000e+03 1.477860832214355469e+01 1.940452694892883301e+00 8.274826686829328537e-04 9.015497053042054176e-04 5.187097121961414814e-04 1.351160753984004259e-04
1.333000000000000000e+03 1.546020412445068359e+01 2.693245172500610352e+00 7.752192323096096516e-04 1.142008113674819469e-03 5.751681746914982796e-04 2.969283668790012598e-04
1.334000000000000000e+03 1.473452377319335938e+01 2.655757427215576172e+00 -2.304544032085686922e-04 -8.306392701342701912e-04 -3.183280932717025280e-04 7.935775793157517910e-04
1.335000000000000000e+03 1.402139854431152344e+01 4.127938270568847656e+00 8.547641336917877197e-04 2.042917301878333092e-03 8.693044073879718781e-04 2.911615010816603899e-04
1.336000000000000000e+03 1.257570838928222656e+01 1.876413345336914062e+00 1.667290052864700556e-04 -6.031571538187563419e-04 -1.309284416493028402e-04 7.879291661083698273e-04
1.337000000000000000e+03 1.253586101531982422e+01 2.607332468032836914e+00 1.657022861763834953e-03 6.779091781936585903e-04 7.004796061664819717e-04 2.112829097313806415e-04
1.338000000000000000e+03 1.327179050445556641e+01 2.618925809860229492e+00 -2.449663297738879919e-04 -7.685049204155802727e-04 -3.040413721464574337e-04 1.109263161197304726e-03
1.339000000000000000e+03 1.136543178558349609e+01 -3.277826309204101562e+00 -7.700099349021911621e-01 1.676536500453948975e-01 -1.807068884372711182e-01 -2.819436490535736084e-01
1.340000000000000000e+03 1.052136898040771484e+01 -2.575604438781738281e+00 -8.980469703674316406e-01 8.387582749128341675e-02 -2.442513406276702881e-01 -3.155374825000762939e-01
1.341000000000000000e+03 1.281079006195068359e+01 -2.546969413757324219e+00 -9.992812275886535645e-01 1.334508806467056274e-01 -2.597490847110748291e-01 -1.107584759593009949e-01
1.342000000000000000e+03 9.774143218994140625e+00 -2.582631826400756836e+00 -8.393079042434692383e-01 6.215114146471023560e-02 -2.331470251083374023e-01 -3.585205674171447754e-01
1.343000000000000000e+03 1.424156570434570312e+01 -1.800887465476989746e+00 -1.214517593383789062e+00 8.679641038179397583e-02 -3.383163511753082275e-01 2.516518346965312958e-02
1.344000000000000000e+03 1.446081161499023438e+01 -3.261918783187866211e+00 -7.700509428977966309e-01 2.706793546676635742e-01 -1.498114764690399170e-01 1.193046420812606812e-01
1.345000000000000000e+03 1.358197212219238281e+01 -2.538594245910644531e+00 -9.955397248268127441e-01 1.528018116950988770e-01 -2.528213858604431152e-01 -2.197745628654956818e-02
1.346000000000000000e+03 1.592161273956298828e+01 -2.475652217864990234e+00 -8.799806833267211914e-01 1.971850246191024780e-01 -2.048386931419372559e-01 2.782648205757141113e-01
1.347000000000000000e+03 7.272391796112060547e+00 2.628094196319580078e+00 6.083710468374192715e-04 -9.711727034300565720e-04 -1.088404969777911901e-04 5.396324559114873409e-05
1.348000000000000000e+03 8.037716865539550781e+00 2.602205514907836914e+00 1.868758117780089378e-03 2.625575580168515444e-04 6.393947405740618706e-04 -3.576067683752626181e-04
1.349000000000000000e+03 2.709954977035522461e+00 3.043112277984619141e+00 -7.462135981768369675e-04 3.377311513759195805e-04 -1.225447340402752161e-04 -4.799217567779123783e-04
1.350000000000000000e+03 2.755021333694458008e+00 3.853224515914916992e+00 1.534429262392222881e-03 6.398840341717004776e-04 6.522939656861126423e-04 -1.667572534643113613e-03
1.351000000000000000e+03 4.225440979003906250e+00 2.825644254684448242e+00 -1.867259561549872160e-04 -2.568399650044739246e-04 -1.330697850789874792e-04 -5.892243352718651295e-04
1.352000000000000000e+03 6.506025314331054688e+00 2.666481018066406250e+00 1.848303945735096931e-03 2.137639821739867330e-04 6.186203681863844395e-04 -8.966961759142577648e-04
1.353000000000000000e+03 5.741075038909912109e+00 2.714087724685668945e+00 2.344631066080182791e-04 -6.538344314321875572e-04 -1.258113916264846921e-04 -2.027971495408564806e-04
1.354000000000000000e+03 1.423772931098937988e+00 3.003771305084228516e+00 -6.654304161202162504e-05 3.837458498310297728e-04 9.516084537608548999e-05 -1.615973014850169420e-04
1.355000000000000000e+03 1.869415044784545898e+00 2.055599927902221680e+00 6.545662472490221262e-05 -3.010213185916654766e-05 1.060634713212493807e-05 -5.574458627961575985e-04
1.356000000000000000e+03 1.031202697753906250e+01 2.586630105972290039e+00 2.524904848542064428e-04 -8.516401867382228374e-04 -1.797449076548218727e-04 5.175761179998517036e-04
1.357000000000000000e+03 9.560709953308105469e+00 2.583943605422973633e+00 1.907701953314244747e-03 3.118132881354540586e-04 6.658545462414622307e-04 1.678760745562613010e-04
1.358000000000000000e+03 1.766767692565917969e+01 -3.127351760864257812e+00 -5.364933609962463379e-01 3.300379514694213867e-01 -6.193662807345390320e-02 6.048142910003662109e-01
1.359000000000000000e+03 1.734289550781250000e+01 -1.639052033424377441e+00 -9.002310037612915039e-01 1.390944421291351318e-01 -2.283409684896469116e-01 3.426107466220855713e-01
1.360000000000000000e+03 1.671493148803710938e+01 -2.436925888061523438e+00 -7.959153652191162109e-01 2.170322537422180176e-01 -1.736649274826049805e-01 3.858507573604583740e-01
1.361000000000000000e+03 2.146413803100585938e+01 -1.890135407447814941e+00 -6.898715626448392868e-03 1.928108632564544678e-01 5.577364563941955566e-02 7.712258696556091309e-01
1.362000000000000000e+03 2.225866317749023438e+01 -1.728817820549011230e+00 1.767773777246475220e-01 1.659760177135467529e-01 1.028260216116905212e-01 7.799652218818664551e-01
1.363000000000000000e+03 1.988154983520507812e+01 -2.141631841659545898e+00 -3.284430801868438721e-01 2.428464889526367188e-01 -2.567898109555244446e-02 7.146459221839904785e-01
1.364000000000000000e+03 2.356946372985839844e+01 -5.377237200736999512e-01 5.669707059860229492e-01 -1.780125685036182404e-02 1.647508293390274048e-01 4.676900506019592285e-01
1.365000000000000000e+03 2.539912414550781250e+01 -8.103653192520141602e-01 1.277997255325317383e+00 -1.645978242158889771e-01 3.340198397636413574e-01 5.773182511329650879e-01
1.366000000000000000e+03 2.383989715576171875e+01 -1.303277015686035156e+00 6.602698564529418945e-01 -1.060944609344005585e-02 1.948981285095214844e-01 7.121472358703613281e-01
1.367000000000000000e+03 2.631707382202148438e+01 -5.863415598869323730e-01 1.473984718322753906e+00 -2.356841266155242920e-01 3.714901804924011230e-01 5.452895164489746094e-01
1.368000000000000000e+03 2.253773498535156250e+01 3.208208560943603516e+00 -1.249343767995014787e-04 -5.333911976777017117e-04 -1.974976767087355256e-04 1.114330152631737292e-04
1.369000000000000000e+03 1.883292770385742188e+01 7.067143440246582031e+00 2.730351872742176056e-03 1.106973038986325264e-03 1.151197473518550396e-03 1.183187821879982948e-03
1.370000000000000000e+03 1.923573112487792969e+01 4.573342800140380859e+00 6.757595110684633255e-04 4.226858436595648527e-05 2.154084213543683290e-04 -8.211214444600045681e-04
1.371000000000000000e+03 5.674689483642578125e+01 -3.652972459793090820e+00 1.384641289710998535e+00 2.286203622817993164e+00 1.101253509521484375e+00 1.806315183639526367e+00
1.372000000000000000e+03 4.497878646850585938e+01 -1.795490074157714844e+01 2.275818109512329102e+00 1.005713558197021484e+01 3.699886083602905273e+00 1.572465896606445312e+00
1.373000000000000000e+03 6.148740005493164062e+01 1.988057708740234375e+01 1.703213334083557129e+00 6.778897762298583984e+00 2.544633388519287109e+00 -2.748201131820678711e+00
1.374000000000000000e+03 1.278169441223144531e+01 2.079626464843750000e+01 -2.049283385276794434e-01 5.829584226012229919e-02 -4.398974776268005371e-02 -2.546925283968448639e-02
1.375000000000000000e+03 6.775801086425781250e+01 -1.293008232116699219e+01 -2.580181360244750977e+00 1.727196872234344482e-01 -7.222385406494140625e-01 6.570939421653747559e-01
1.376000000000000000e+03 1.266438674926757812e+01 1.749471092224121094e+01 -4.398994892835617065e-02 -8.322277106344699860e-03 -1.569366827607154846e-02 -3.429357707500457764e-02
1.377000000000000000e+03 1.518607807159423828e+01 2.228614234924316406e+01 -3.506606519222259521e-01 3.363490477204322815e-02 -9.510772675275802612e-02 1.033528335392475128e-02
1.378000000000000000e+03 1.452340126037597656e+01 1.025952625274658203e+01 3.408576885703951120e-04 5.370015278458595276e-03 1.713261939585208893e-03 1.309084182139486074e-04
1.379000000000000000e+03 1.984509849548339844e+01 2.439372825622558594e+01 -1.298469454050064087e-01 6.147010251879692078e-02 -2.051305212080478668e-02 -1.091835722327232361e-01
1.380000000000000000e+03 1.453577136993408203e+01 1.391302967071533203e+01 5.933763924986124039e-03 1.698142476379871368e-02 6.874556653201580048e-03 1.942365779541432858e-03
1.381000000000000000e+03 1.316687488555908203e+01 1.492670059204101562e+01 3.628011560067534447e-03 3.880970180034637451e-03 2.252694452181458473e-03 3.122971393167972565e-03
1.382000000000000000e+03 1.598496150970458984e+01 6.927556037902832031e+00 -1.838125055655837059e-03 4.915811005048453808e-04 -4.039631749037653208e-04 1.282605517189949751e-04
1.383000000000000000e+03 1.883987808227539062e+01 2.384428977966308594e+01 -3.428258895874023438e-01 4.566271381918340921e-04 -1.027107834815979004e-01 -1.988994888961315155e-02
1.384000000000000000e+03 1.803781318664550781e+01 5.553173065185546875e+00 2.264155773445963860e-03 1.407805364578962326e-03 1.101588364690542221e-03 7.943186210468411446e-04
1.385000000000000000e+03 1.697756767272949219e+01 7.462848663330078125e+00 1.589092658832669258e-03 2.176006091758608818e-03 1.129529555328190327e-03 8.572447695769369602e-04
1.386000000000000000e+03 1.759297752380371094e+01 6.530241489410400391e+00 -2.543777925893664360e-03 -6.637423066422343254e-04 -9.622561046853661537e-04 -9.073214605450630188e-04
1.387000000000000000e+03 1.543966293334960938e+01 9.359518051147460938e+00 9.248189599020406604e-05 4.664287902414798737e-03 1.427030889317393303e-03 -1.185224027722142637e-05
1.388000000000000000e+03 3.101601600646972656e+01 -6.393815517425537109e+00 -1.768513321876525879e+00 1.808395028114318848e+00 1.196451019495725632e-02 -2.678163349628448486e-01
1.389000000000000000e+03 2.996074485778808594e+01 -8.072145462036132812e+00 -5.712135791778564453e+00 -4.772864282131195068e-01 -1.856826663017272949e+00 1.029630422592163086e+00
1.390000000000000000e+03 6.168083190917968750e+01 2.470034790039062500e+01 -4.259727597236633301e-01 4.505376338958740234e+00 1.223821043968200684e+00 -1.329461932182312012e+00
1.391000000000000000e+03 2.894882392883300781e+01 -2.974283218383789062e+01 -6.323322057723999023e-01 3.271811306476593018e-01 -9.154532104730606079e-02 3.516602814197540283e-01
1.392000000000000000e+03 1.582947826385498047e+01 -1.013411426544189453e+01 8.895527124404907227e-01 1.711517810821533203e+00 7.803211808204650879e-01 7.214516997337341309e-01
1.393000000000000000e+03 1.798791885375976562e+01 -1.177900695800781250e+01 2.836171388626098633e+00 1.118460774421691895e+00 1.186389684677124023e+00 1.506005048751831055e+00
1.394000000000000000e+03 2.856739616394042969e+01 -8.046948432922363281e+00 -4.483959674835205078e+00 -2.425355315208435059e-01 -1.417948603630065918e+00 3.578165173530578613e-01
1.395000000000000000e+03 3.704218673706054688e+01 -2.461156463623046875e+01 1.204799056053161621e+00 7.556512832641601562e+00 2.628393650054931641e+00 5.820097923278808594e-01
1.396000000000000000e+03 1.283396911621093750e+01 -1.810051536560058594e+01 6.211092472076416016e-01 3.439883232116699219e+00 1.218297719955444336e+00 3.507593572139739990e-01
1.397000000000000000e+03 2.593913459777832031e+01 -3.004502487182617188e+01 -1.275393247604370117e+00 2.683331444859504700e-02 -3.745679855346679688e-01 8.197238296270370483e-02
1.398000000000000000e+03 5.134106445312500000e+01 -5.475938796997070312e+00 -6.025456786155700684e-01 8.325647115707397461e-01 6.900570541620254517e-02 1.669629096984863281e+00
1.399000000000000000e+03 1.388981819152832031e+01 -1.258688831329345703e+01 1.209739327430725098e+00 2.434215545654296875e+00 1.093186497688293457e+00 6.150087118148803711e-01
1.400000000000000000e+03 2.183301734924316406e+01 -9.771679878234863281e+00 7.403090000152587891e-01 2.852843999862670898e-01 3.076780140399932861e-01 7.278616428375244141e-01
1.401000000000000000e+03 3.351479339599609375e+01 -1.040736103057861328e+01 4.282307028770446777e-01 6.518916130065917969e+00 2.084144115447998047e+00 -2.318395137786865234e+00
1.402000000000000000e+03 3.641294860839843750e+01 -1.113836669921875000e+01 -7.012414336204528809e-01 9.508378982543945312e+00 2.642141342163085938e+00 -1.346110582351684570e+00
1.403000000000000000e+03 1.813300704956054688e+01 -9.689767837524414062e+00 1.008437037467956543e+00 1.259752154350280762e+00 6.804566979408264160e-01 1.194585919380187988e+00
1.404000000000000000e+03 1.627644157409667969e+01 -1.117565155029296875e+01 1.414249777793884277e+00 2.043950557708740234e+00 1.037460088729858398e+00 9.463117718696594238e-01
1.405000000000000000e+03 2.884881210327148438e+01 2.238293838500976562e+01 4.989286661148071289e-01 3.541693210601806641e+00 1.212186574935913086e+00 -1.820226788520812988e+00
1.406000000000000000e+03 2.765642166137695312e+01 -3.201927566528320312e+01 -3.287908434867858887e-01 4.197069406509399414e-01 2.727482467889785767e-02 4.410429596900939941e-01
1.407000000000000000e+03 3.678697967529296875e+01 -1.912601852416992188e+01 8.289629220962524414e-01 1.035724639892578125e+01 3.355862855911254883e+00 -7.495029568672180176e-01
1.408000000000000000e+03 2.594493675231933594e+01 -8.173746109008789062e+00 -1.133039474487304688e+00 6.037238240242004395e-01 -1.587946861982345581e-01 8.452692031860351562e-01
1.409000000000000000e+03 2.674656295776367188e+01 -8.792127609252929688e+00 -1.481067419052124023e+00 5.630875378847122192e-02 -4.274275898933410645e-01 -7.106921076774597168e-02
1.410000000000000000e+03 2.071848678588867188e+01 -3.083698463439941406e+01 -5.502576828002929688e-01 4.730667769908905029e-01 -2.315727807581424713e-02 -3.248684108257293701e-01
1.411000000000000000e+03 2.162307929992675781e+01 -3.215603637695312500e+01 -4.005773067474365234e-01 3.442630767822265625e-01 -1.689427159726619720e-02 -2.883531451225280762e-01
1.412000000000000000e+03 2.061165618896484375e+01 -9.961401939392089844e+00 1.148192405700683594e+00 4.203512072563171387e-01 4.705630838871002197e-01 9.553427100181579590e-01
1.413000000000000000e+03 3.629432296752929688e+01 -1.241559028625488281e+01 4.208287894725799561e-01 9.558455467224121094e+00 2.993785142898559570e+00 -1.461231470108032227e+00
1.414000000000000000e+03 3.646435165405273438e+01 -1.504006385803222656e+01 1.295061707496643066e+00 1.068682575225830078e+01 3.594566106796264648e+00 -2.172276258468627930e+00
1.415000000000000000e+03 2.078843116760253906e+01 -1.124753284454345703e+01 1.320257902145385742e+00 1.103071197867393494e-01 4.291695058345794678e-01 4.987775385379791260e-01
1.416000000000000000e+03 3.202033233642578125e+01 -7.433447837829589844e+00 -2.831488609313964844e+00 3.411034584045410156e+00 1.738637536764144897e-01 -9.821481704711914062e-01
1.417000000000000000e+03 3.141031646728515625e+01 -2.817321777343750000e+01 6.644254326820373535e-01 1.480547428131103516e+00 6.434918642044067383e-01 1.104353904724121094e+00
1.418000000000000000e+03 3.664945220947265625e+01 -1.776132965087890625e+01 7.750664949417114258e-01 1.072609996795654297e+01 3.450350046157836914e+00 -1.463443517684936523e+00
1.419000000000000000e+03 1.516748332977294922e+01 -2.462428665161132812e+01 3.498831763863563538e-02 1.649555921554565430e+00 5.053632855415344238e-01 -4.587193429470062256e-01
1.420000000000000000e+03 7.802725982666015625e+01 -3.582929229736328125e+01 -9.270528331398963928e-03 1.002361392974853516e+01 3.004302978515625000e+00 3.350876271724700928e-01
1.421000000000000000e+03 7.940457916259765625e+01 -3.476563262939453125e+01 -3.592951968312263489e-02 1.098054599761962891e+01 3.283385038375854492e+00 1.237400621175765991e-01
1.422000000000000000e+03 7.941744232177734375e+01 -3.069300460815429688e+01 -2.593554370105266571e-02 1.164787483215332031e+01 3.486581802368164062e+00 5.019282177090644836e-02
1.423000000000000000e+03 7.704795074462890625e+01 -3.436889648437500000e+01 -4.518269374966621399e-02 9.431208610534667969e+00 2.815807819366455078e+00 3.789523541927337646e-01
1.424000000000000000e+03 7.926102447509765625e+01 -3.744008255004882812e+01 -6.032473593950271606e-02 1.037956047058105469e+01 3.095770835876464844e+00 1.603684425354003906e-01
1.425000000000000000e+03 7.653501892089843750e+01 -3.903753280639648438e+01 4.267161339521408081e-02 9.351498603820800781e+00 2.818251132965087891e+00 2.449160814285278320e-01
1.426000000000000000e+03 7.933509826660156250e+01 -2.792987060546875000e+01 -4.721351712942123413e-02 1.184052085876464844e+01 3.537992238998413086e+00 -3.776096552610397339e-02
1.427000000000000000e+03 7.823829650878906250e+01 -3.079035568237304688e+01 -3.221869841217994690e-02 1.073239421844482422e+01 3.210052728652954102e+00 2.060873806476593018e-01
1.428000000000000000e+03 7.940001678466796875e+01 -2.375123023986816406e+01 -2.343334816396236420e-02 1.110702419281005859e+01 3.325077295303344727e+00 -3.017801940441131592e-01
1.429000000000000000e+03 7.792624664306640625e+01 -2.663110923767089844e+01 -1.949374824762344360e-01 1.070687961578369141e+01 3.153582811355590820e+00 -1.454017460346221924e-01
1.430000000000000000e+03 7.934223175048828125e+01 -2.092348861694335938e+01 -1.226419508457183838e-01 8.846937179565429688e+00 2.617288589477539062e+00 -7.792742252349853516e-01
1.431000000000000000e+03 7.822281646728515625e+01 -2.385256385803222656e+01 -2.753292322158813477e-01 1.058611869812011719e+01 3.093236923217773438e+00 -6.928340792655944824e-01
1.432000000000000000e+03 7.914637756347656250e+01 3.620413970947265625e+01 -1.439909078180789948e-02 6.059800148010253906e+00 1.813620328903198242e+00 5.543859209865331650e-03
1.433000000000000000e+03 7.665820312500000000e+01 -2.857618522644042969e+01 -2.562677264213562012e-01 9.794214248657226562e+00 2.861383914947509766e+00 1.383820921182632446e-01
1.434000000000000000e+03 7.937557983398437500e+01 1.251702785491943359e+01 1.218618359416723251e-02 5.123221397399902344e+00 1.540622234344482422e+00 -6.318879872560501099e-02
1.435000000000000000e+03 7.687496185302734375e+01 1.103351688385009766e+01 1.174920797348022461e-01 5.640503883361816406e+00 1.727398753166198730e+00 -3.773995637893676758e-01
1.436000000000000000e+03 7.937337493896484375e+01 1.390669250488281250e+01 7.859303615987300873e-03 5.009269237518310547e+00 1.505138635635375977e+00 -4.102274775505065918e-02
1.437000000000000000e+03 7.936294555664062500e+01 1.807291412353515625e+01 1.110632345080375671e-02 4.962324142456054688e+00 1.492029070854187012e+00 2.514086104929447174e-02
1.438000000000000000e+03 7.809842681884765625e+01 1.660579490661621094e+01 5.010057985782623291e-02 5.169658184051513672e+00 1.565927624702453613e+00 1.839633216150105000e-03
1.439000000000000000e+03 7.931999969482421875e+01 2.223513221740722656e+01 -1.408494717907160521e-04 5.255702972412109375e+00 1.576668739318847656e+00 6.246273964643478394e-02
1.440000000000000000e+03 7.804525756835937500e+01 1.935398483276367188e+01 3.591698035597801208e-02 5.223097801208496094e+00 1.577704429626464844e+00 1.051297187805175781e-01
1.441000000000000000e+03 7.929001617431640625e+01 2.501359176635742188e+01 -4.731677006930112839e-03 5.505768775939941406e+00 1.650311112403869629e+00 6.458907574415206909e-02
1.442000000000000000e+03 7.788162231445312500e+01 2.347328567504882812e+01 -1.484354492276906967e-03 5.449531078338623047e+00 1.634414076805114746e+00 1.712308079004287720e-01
1.443000000000000000e+03 7.928017425537109375e+01 2.640581130981445312e+01 7.138525834307074547e-04 5.622629165649414062e+00 1.687002897262573242e+00 6.107391417026519775e-02
1.444000000000000000e+03 7.777950286865234375e+01 3.044548416137695312e+01 -1.871874555945396423e-02 5.791468143463134766e+00 1.731824755668640137e+00 9.938021749258041382e-02
1.445000000000000000e+03 7.779093933105468750e+01 2.905744743347167969e+01 -2.189323678612709045e-02 5.740983486175537109e+00 1.715727090835571289e+00 1.236099377274513245e-01
1.446000000000000000e+03 7.923072814941406250e+01 3.337751770019531250e+01 -3.397163935005664825e-03 6.006176471710205078e+00 1.800833821296691895e+00 2.484281174838542938e-02
1.447000000000000000e+03 7.950584411621093750e+01 -1.804003906250000000e+01 1.858571469783782959e-01 5.411149978637695312e+00 1.679102182388305664e+00 -5.472404956817626953e-01
1.448000000000000000e+03 7.949531555175781250e+01 -1.378295516967773438e+01 -4.536527849268168211e-04 6.226522445678710938e+00 1.867820620536804199e+00 6.325063109397888184e-01
1.449000000000000000e+03 7.946115112304687500e+01 -1.103414154052734375e+01 -7.351157814264297485e-02 9.217823982238769531e+00 2.743293762207031250e+00 4.575836658477783203e-01
1.450000000000000000e+03 7.947388458251953125e+01 -8.282686233520507812e+00 -4.517959803342819214e-02 1.053879547119140625e+01 3.148084640502929688e+00 5.961469188332557678e-02
1.451000000000000000e+03 7.841095733642578125e+01 -9.444524765014648438e+00 -3.208264410495758057e-01 9.910893440246582031e+00 2.877019882202148438e+00 4.738162755966186523e-01
1.452000000000000000e+03 7.942967224121093750e+01 -4.161926746368408203e+00 -1.678032241761684418e-02 9.871260643005371094e+00 2.956344127655029297e+00 -1.872494071722030640e-01
1.453000000000000000e+03 7.837937927246093750e+01 -6.801295280456542969e+00 -1.635313630104064941e-01 9.838827133178710938e+00 2.902588605880737305e+00 -2.012150585651397705e-01
1.454000000000000000e+03 7.940043640136718750e+01 -1.400480747222900391e+00 -5.253524985164403915e-03 8.849775314331054688e+00 2.653356552124023438e+00 -2.329905629158020020e-01
1.455000000000000000e+03 7.710823822021484375e+01 -4.112536907196044922e+00 -1.585066169500350952e-01 8.604224205017089844e+00 2.533715248107910156e+00 -8.409650921821594238e-01
1.456000000000000000e+03 7.937567138671875000e+01 2.767892599105834961e+00 7.411313243210315704e-03 7.306571483612060547e+00 2.194194793701171875e+00 -2.148512750864028931e-01
1.457000000000000000e+03 7.937164306640625000e+01 5.551428318023681641e+00 8.045705966651439667e-03 6.450383663177490234e+00 1.937528729438781738e+00 -1.770496517419815063e-01
1.458000000000000000e+03 7.687289428710937500e+01 2.689809083938598633e+00 8.814471960067749023e-02 6.908769130706787109e+00 2.099074125289916992e+00 -8.893035650253295898e-01
1.459000000000000000e+03 7.937288665771484375e+01 6.943684577941894531e+00 1.107109989970922470e-02 6.087878704071044922e+00 1.829684972763061523e+00 -1.558036953210830688e-01
1.460000000000000000e+03 7.811483764648437500e+01 6.899892330169677734e+00 4.490744695067405701e-02 6.155450344085693359e+00 1.860107302665710449e+00 -4.344569146633148193e-01
1.461000000000000000e+03 7.778788757324218750e+01 3.181818580627441406e+01 -1.877885498106479645e-02 5.825197696685791016e+00 1.741925597190856934e+00 8.013314753770828247e-02
1.462000000000000000e+03 7.806151580810546875e+01 4.172132110595703125e+01 5.615809559822082520e-02 5.956775665283203125e+00 1.803880095481872559e+00 -1.567994058132171631e-02
1.463000000000000000e+03 7.742794036865234375e+01 3.621052932739257812e+01 -2.580313943326473236e-02 5.859974384307861328e+00 1.750251293182373047e+00 3.863341361284255981e-02
1.464000000000000000e+03 7.755197906494140625e+01 3.468060302734375000e+01 -1.854031533002853394e-02 5.844359874725341797e+00 1.747745871543884277e+00 4.652487114071846008e-02
1.465000000000000000e+03 7.819833374023437500e+01 -1.418778777122497559e+00 -5.180996377021074295e-03 8.362444877624511719e+00 2.507179021835327148e+00 -6.469939947128295898e-01
1.466000000000000000e+03 7.859179687500000000e+01 -1.788989257812500000e+01 3.890317976474761963e-01 7.176440715789794922e+00 2.269641637802124023e+00 -1.222652554512023926e+00
1.467000000000000000e+03 1.901123428344726562e+01 -2.858262252807617188e+01 -3.492989242076873779e-01 5.796038508415222168e-01 6.909148395061492920e-02 -1.709800362586975098e-01
1.468000000000000000e+03 1.618536758422851562e+01 -2.563965415954589844e+01 -1.751072704792022705e-02 1.220387339591979980e+00 3.608630001544952393e-01 -4.057607054710388184e-01
1.469000000000000000e+03 2.512253189086914062e+01 -8.652265548706054688e+00 -6.932716965675354004e-01 4.828067719936370850e-01 -6.313947588205337524e-02 4.906738698482513428e-01
1.470000000000000000e+03 3.771785736083984375e+01 -1.512291049957275391e+01 1.276840329170227051e+00 9.484995841979980469e+00 3.228550672531127930e+00 -1.862925767898559570e+00
1.471000000000000000e+03 2.506147003173828125e+01 -3.210512924194335938e+01 -3.718762993812561035e-01 7.902237027883529663e-02 -8.785618096590042114e-02 2.776345983147621155e-02
1.472000000000000000e+03 3.695355224609375000e+01 -2.201465415954589844e+01 1.484411239624023438e+00 8.845016479492187500e+00 3.098828315734863281e+00 3.174100220203399658e-01
1.473000000000000000e+03 3.511134719848632812e+01 -2.691439437866210938e+01 3.908452987670898438e-01 5.527185916900634766e+00 1.775409340858459473e+00 1.400444269180297852e+00
1.474000000000000000e+03 1.719631385803222656e+01 -2.660031700134277344e+01 -8.482520282268524170e-02 9.165364503860473633e-01 2.495133876800537109e-01 -3.171343803405761719e-01
1.475000000000000000e+03 5.503431320190429688e+01 -5.267498493194580078e+00 7.045497894287109375e-01 2.192453384399414062e+00 8.691009879112243652e-01 1.629741668701171875e+00
1.476000000000000000e+03 4.807436370849609375e+01 -1.539553737640380859e+01 2.256295680999755859e+00 2.209985256195068359e+00 1.339884281158447266e+00 1.899888515472412109e+00
1.477000000000000000e+03 5.030388641357421875e+01 -1.489821243286132812e+01 7.787530422210693359e-01 4.656100273132324219e-01 3.733089268207550049e-01 8.616601824760437012e-01
1.478000000000000000e+03 5.550439834594726562e+01 2.327470970153808594e+01 -4.664276540279388428e-01 2.518641948699951172e-01 -6.436903029680252075e-02 -8.134577423334121704e-02
1.479000000000000000e+03 4.221121597290039062e+01 -4.685285091400146484e+00 -2.164321422576904297e+00 4.608980655670166016e+00 7.333978414535522461e-01 -2.417514801025390625e+00
1.480000000000000000e+03 4.141048431396484375e+01 -2.837964773178100586e+00 9.176079630851745605e-01 6.041692733764648438e+00 2.087790250778198242e+00 -2.859934806823730469e+00
1.481000000000000000e+03 4.787855911254882812e+01 -5.199971199035644531e+00 -4.952837944030761719e+00 -4.585060775279998779e-01 -1.623403191566467285e+00 1.388395667076110840e+00
1.482000000000000000e+03 4.353872680664062500e+01 -5.122440814971923828e+00 -2.469080448150634766e+00 1.782549858093261719e+00 -2.059591561555862427e-01 -9.435729384422302246e-01
1.483000000000000000e+03 6.101496124267578125e+01 3.777959108352661133e+00 1.197561502456665039e+00 4.452513217926025391e+00 1.695022344589233398e+00 1.673831701278686523e+00
1.484000000000000000e+03 6.166111755371093750e+01 4.972711086273193359e+00 1.152937054634094238e+00 5.049370288848876953e+00 1.860692262649536133e+00 1.445139884948730469e+00
1.485000000000000000e+03 5.661362075805664062e+01 -2.094359636306762695e+00 1.886098504066467285e+00 2.702544927597045898e+00 1.376592993736267090e+00 2.081198930740356445e+00
1.486000000000000000e+03 3.556702804565429688e+01 8.420769691467285156e+00 1.164622783660888672e+00 1.348592567443847656e+01 4.395164489746093750e+00 -1.636100858449935913e-01
1.487000000000000000e+03 2.979381370544433594e+01 -1.510086536407470703e+00 2.799310207366943359e+00 1.937242269515991211e+00 1.420965671539306641e+00 1.884588718414306641e+00
1.488000000000000000e+03 4.077540588378906250e+01 1.331217193603515625e+01 1.561400294303894043e+00 7.175881862640380859e+00 2.621184587478637695e+00 2.785231828689575195e+00
1.489000000000000000e+03 6.237117767333984375e+01 6.198497295379638672e+00 1.035310268402099609e+00 5.757921695709228516e+00 2.037969589233398438e+00 1.303057789802551270e+00
1.490000000000000000e+03 4.440521240234375000e+01 1.801010513305664062e+01 8.981414437294006348e-01 3.004994630813598633e+00 1.170940876007080078e+00 1.781983375549316406e+00
1.491000000000000000e+03 5.587281799316406250e+01 -4.425325393676757812e+00 1.207403540611267090e+00 2.266471862792968750e+00 1.042162537574768066e+00 1.802673339843750000e+00
1.492000000000000000e+03 5.485254287719726562e+01 -3.406123876571655273e+00 1.871373295783996582e+00 2.669599533081054688e+00 1.362291812896728516e+00 2.337786912918090820e+00
1.493000000000000000e+03 5.081523513793945312e+01 2.213056182861328125e+01 -3.009666502475738525e-01 7.999022603034973145e-01 1.496806740760803223e-01 7.232227325439453125e-01
1.494000000000000000e+03 3.927867889404296875e+01 1.113361072540283203e+01 1.388132572174072266e+00 1.124278259277343750e+01 3.789274454116821289e+00 2.393726110458374023e+00
1.495000000000000000e+03 4.802157211303710938e+01 2.078745841979980469e+01 9.411223977804183960e-02 1.504405379295349121e+00 4.795552790164947510e-01 1.092339634895324707e+00
1.496000000000000000e+03 4.924695968627929688e+01 -7.518462657928466797e+00 -1.380838036537170410e+00 3.547038435935974121e-01 -3.078402578830718994e-01 2.354634523391723633e+00
1.497000000000000000e+03 3.847769165039062500e+01 1.326366811990737915e-01 1.891921162605285645e+00 1.222259235382080078e+01 4.234354019165039062e+00 -2.252286434173583984e+00
1.498000000000000000e+03 5.998600387573242188e+01 1.354237675666809082e+00 1.447090864181518555e+00 3.180714607238769531e+00 1.388341546058654785e+00 1.812048673629760742e+00
1.499000000000000000e+03 4.261907958984375000e+01 1.368010520935058594e+01 2.291868209838867188e+00 4.236522674560546875e+00 1.958517193794250488e+00 2.992182254791259766e+00
1.500000000000000000e+03 5.749474334716796875e+01 6.416894197463989258e-01 1.675068140029907227e+00 3.117967844009399414e+00 1.437910795211791992e+00 2.241873025894165039e+00
1.501000000000000000e+03 6.558878326416015625e+01 1.650770378112792969e+01 1.048849463462829590e+00 7.069494724273681641e+00 2.435503244400024414e+00 -4.202914237976074219e-01
1.502000000000000000e+03 6.508646392822265625e+01 1.384427452087402344e+01 6.831963062286376953e-01 7.633341789245605469e+00 2.494961500167846680e+00 -3.821346759796142578e-01
1.503000000000000000e+03 4.239009094238281250e+01 1.561842155456542969e+01 1.330714464187622070e+00 4.596737861633300781e+00 1.778235673904418945e+00 2.322315692901611328e+00
1.504000000000000000e+03 3.482256317138671875e+01 2.639618873596191406e+00 3.022092819213867188e+00 1.389444828033447266e+01 5.074962139129638672e+00 1.090044856071472168e+00
1.505000000000000000e+03 4.704570007324218750e+01 -1.623263931274414062e+01 2.729312896728515625e+00 3.903917074203491211e+00 1.989968895912170410e+00 2.911615848541259766e+00
1.506000000000000000e+03 6.124092483520507812e+01 -3.142692375183105469e+01 -1.138456225395202637e+00 -3.212669789791107178e-01 -4.379169642925262451e-01 -4.570540487766265869e-01
1.507000000000000000e+03 5.691231155395507812e+01 -3.332058715820312500e+01 -2.771557569503784180e-01 -3.601068854331970215e-01 -1.911787986755371094e-01 -7.074328660964965820e-01
1.508000000000000000e+03 4.898084259033203125e+01 -3.102092170715332031e+01 6.142128109931945801e-01 3.596641778945922852e+00 1.263256311416625977e+00 -2.464211702346801758e+00
1.509000000000000000e+03 4.960866546630859375e+01 -2.959498405456542969e+01 2.138773441314697266e+00 2.251825332641601562e+00 1.317179679870605469e+00 -2.126401901245117188e+00
1.510000000000000000e+03 4.527590179443359375e+01 -2.202070999145507812e+01 3.412672281265258789e-01 1.304229068756103516e+01 4.015067577362060547e+00 -6.236045360565185547e-01
1.511000000000000000e+03 6.737883758544921875e+01 -2.326346969604492188e+01 -2.508811354637145996e-01 6.431372165679931641e-01 1.176768243312835693e-01 7.376224547624588013e-02
1.512000000000000000e+03 3.293912124633789062e+01 -4.567704498767852783e-01 2.410790443420410156e+00 8.544136047363281250e+00 3.286477804183959961e+00 2.486534118652343750e+00
1.513000000000000000e+03 5.792755889892578125e+01 -1.324057388305664062e+01 -2.775672912597656250e+00 3.384543657302856445e-01 -7.311655282974243164e-01 -3.025018870830535889e-01
1.514000000000000000e+03 5.683741760253906250e+01 -1.360770320892333984e+01 -2.576023101806640625e+00 1.427246779203414917e-01 -7.299895286560058594e-01 2.992967516183853149e-02
1.515000000000000000e+03 6.243236541748046875e+01 -3.040168762207031250e+01 -1.296924352645874023e+00 -3.121294081211090088e-01 -4.827161431312561035e-01 -4.265035986900329590e-01
1.516000000000000000e+03 5.161068725585937500e+01 -1.486833000183105469e+01 -3.740694820880889893e-01 1.676201522350311279e-01 -6.193480268120765686e-02 4.041804075241088867e-01
1.517000000000000000e+03 4.957909011840820312e+01 -1.284044933319091797e+01 1.555063575506210327e-01 1.459509253501892090e+00 4.845046997070312500e-01 1.853854417800903320e+00
1.518000000000000000e+03 5.467232894897460938e+01 -1.375372219085693359e+01 -1.782403349876403809e+00 1.734629124402999878e-01 -4.826821088790893555e-01 4.906317889690399170e-01
1.519000000000000000e+03 6.962200164794921875e+01 -2.155175209045410156e+01 4.762746766209602356e-02 2.958361625671386719e+00 9.017966985702514648e-01 1.212058305740356445e+00
1.520000000000000000e+03 5.298429870605468750e+01 -1.474913311004638672e+01 -1.287564277648925781e+00 7.478666305541992188e-02 -3.638332784175872803e-01 2.498390078544616699e-01
1.521000000000000000e+03 5.574415969848632812e+01 -1.379551601409912109e+01 -2.257979393005371094e+00 1.906264722347259521e-01 -6.202058792114257812e-01 1.933993846178054810e-01
1.522000000000000000e+03 5.330757904052734375e+01 -3.336706542968750000e+01 -1.012245640158653259e-01 8.335040211677551270e-01 2.196838259696960449e-01 -1.329234123229980469e+00
1.523000000000000000e+03 5.374910354614257812e+01 -3.098168182373046875e+01 -1.059176206588745117e+00 7.067112624645233154e-02 -2.965514957904815674e-01 -4.833706617355346680e-01
1.524000000000000000e+03 4.378594970703125000e+01 -2.073113250732421875e+01 1.477255582809448242e+00 1.092812728881835938e+01 3.721614837646484375e+00 -1.372136026620864868e-01
1.525000000000000000e+03 4.525756454467773438e+01 -2.059849548339843750e+01 3.534515202045440674e-01 1.263450908660888672e+01 3.896388292312622070e+00 4.643368348479270935e-02
1.526000000000000000e+03 2.008419513702392578e+00 2.604205894470214844e+01 -9.381061419844627380e-03 -1.230753064155578613e-01 -3.973691165447235107e-02 5.742329731583595276e-02
1.527000000000000000e+03 7.226678133010864258e-01 3.185501098632812500e+01 6.231773179024457932e-03 -3.343800604343414307e-01 -9.844448417425155640e-02 1.899983361363410950e-02
1.528000000000000000e+03 3.077700614929199219e+00 3.482745742797851562e+01 2.118072099983692169e-02 -2.836382985115051270e-01 -7.873727381229400635e-02 5.793756246566772461e-02
1.529000000000000000e+03 3.496514320373535156e+00 3.907699584960937500e+01 1.452583819627761841e-02 -3.464050889015197754e-01 -9.956377744674682617e-02 3.077556937932968140e-02
1.530000000000000000e+03 9.578829407691955566e-01 3.869280242919921875e+01 -9.483437985181808472e-03 -4.351631402969360352e-01 -1.333939731121063232e-01 -9.727519354782998562e-04
1.531000000000000000e+03 4.046167373657226562e+00 -3.787525939941406250e+01 -4.577600210905075073e-02 1.605963706970214844e-01 3.444610908627510071e-02 9.129413962364196777e-02
1.532000000000000000e+03 1.811604619026184082e+00 -3.554097747802734375e+01 -1.152352802455425262e-02 1.394380722194910049e-02 7.260835263878107071e-04 9.929527342319488525e-02
1.533000000000000000e+03 1.836410760879516602e+00 2.325284576416015625e+01 -1.242062635719776154e-02 -6.370919197797775269e-02 -2.283894456923007965e-02 3.846875578165054321e-02
1.534000000000000000e+03 2.263575315475463867e+00 3.035907936096191406e+01 4.951046779751777649e-03 -2.227794378995895386e-01 -6.534852087497711182e-02 6.527762115001678467e-02
1.535000000000000000e+03 2.277952671051025391e+00 3.685891723632812500e+01 9.417546913027763367e-03 -3.532508313655853271e-01 -1.031499803066253662e-01 2.951052412390708923e-02
1.536000000000000000e+03 2.047427654266357422e+00 -2.740780448913574219e+01 -1.486783754080533981e-02 -5.661308765411376953e-01 -1.742996126413345337e-01 2.693901956081390381e-01
1.537000000000000000e+03 2.293759584426879883e+00 -3.686792755126953125e+01 -1.843967288732528687e-02 8.106058835983276367e-02 1.878627575933933258e-02 8.931005746126174927e-02
1.538000000000000000e+03 2.744448661804199219e+00 -3.329436874389648438e+01 -4.143534973263740540e-02 -2.301206998527050018e-02 -1.933422684669494629e-02 1.851828247308731079e-01
1.539000000000000000e+03 7.219223976135253906e-01 -6.428450107574462891e+00 -2.221157960593700409e-02 -7.059112787246704102e-01 -2.184368669986724854e-01 -1.456385552883148193e-01
1.540000000000000000e+03 1.864767193794250488e+00 -2.611507797241210938e+01 -1.068121939897537231e-02 -7.342734336853027344e-01 -2.234863936901092529e-01 2.687987685203552246e-01
1.541000000000000000e+03 1.803396224975585938e+00 4.928546428680419922e+00 1.409276388585567474e-03 1.265444909222424030e-03 8.024164126254618168e-04 -1.053609885275363922e-03
1.542000000000000000e+03 6.524009704589843750e-01 -1.783755302429199219e+01 9.624084457755088806e-03 -2.031992197036743164e+00 -6.067104339599609375e-01 3.016995079815387726e-02
1.543000000000000000e+03 1.962649464607238770e+00 -1.659309959411621094e+01 6.184620410203933716e-02 -1.494108319282531738e+00 -4.296786189079284668e-01 9.364548139274120331e-03
1.544000000000000000e+03 1.838938713073730469e+00 2.185931015014648438e+01 -1.392416772432625294e-03 -4.253888875246047974e-02 -1.317939069122076035e-02 3.125822916626930237e-02
1.545000000000000000e+03 6.226573586463928223e-01 1.913707923889160156e+01 -6.961354520171880722e-03 -4.737234674394130707e-03 -3.509576665237545967e-03 5.426773801445960999e-03
1.546000000000000000e+03 6.194973587989807129e-01 1.772811889648437500e+01 4.620051011443138123e-03 4.171083681285381317e-03 2.637340454384684563e-03 2.390622394159436226e-03
1.547000000000000000e+03 5.971999764442443848e-01 1.490447521209716797e+01 3.893822431564331055e-03 1.061731018126010895e-02 4.353339783847332001e-03 -3.014771500602364540e-04
1.548000000000000000e+03 5.769171118736267090e-01 1.067264747619628906e+01 -2.521492540836334229e-03 7.094337604939937592e-03 1.371853519231081009e-03 -4.298392450436949730e-04
1.549000000000000000e+03 5.939233303070068359e-01 7.849570274353027344e+00 -1.454594428651034832e-03 3.755116602405905724e-03 6.901566521264612675e-04 -3.772138152271509171e-04
1.550000000000000000e+03 6.446050405502319336e-01 -1.080645275115966797e+01 1.112045813351869583e-02 -1.538701176643371582e+00 -4.582742154598236084e-01 -1.047933548688888550e-01
1.551000000000000000e+03 6.458039879798889160e-01 -1.924493217468261719e+01 9.703023359179496765e-03 -1.950915694236755371e+00 -5.823638439178466797e-01 5.122822523117065430e-02
1.552000000000000000e+03 6.315440535545349121e-01 -2.064904594421386719e+01 7.639287970960140228e-03 -1.822207570075988770e+00 -5.443704724311828613e-01 7.067833840847015381e-02
1.553000000000000000e+03 3.264600753784179688e+00 -3.922393417358398438e+01 -3.133614361286163330e-02 1.522734761238098145e-01 3.628120198845863342e-02 6.429068744182586670e-02
1.554000000000000000e+03 2.625788927078247070e+00 -3.172546958923339844e+01 -4.590545222163200378e-02 -1.346202492713928223e-01 -5.415771156549453735e-02 2.117654830217361450e-01
1.555000000000000000e+03 1.764277100563049316e+00 -2.482774353027343750e+01 9.802327491343021393e-03 -9.208496212959289551e-01 -2.733141779899597168e-01 2.655950188636779785e-01
1.556000000000000000e+03 5.936294794082641602e-01 -2.483302879333496094e+01 -2.974745584651827812e-03 -1.227889418601989746e+00 -3.692592680454254150e-01 9.479281306266784668e-02
1.557000000000000000e+03 1.846300125122070312e+00 -2.215723991394042969e+01 2.685797773301601410e-02 -1.210338354110717773e+00 -3.550441265106201172e-01 2.369743138551712036e-01
1.558000000000000000e+03 1.942542552947998047e+00 -1.519046783447265625e+01 6.554657965898513794e-02 -1.487895488739013672e+00 -4.267046749591827393e-01 -7.280247658491134644e-02
1.559000000000000000e+03 6.452944874763488770e-01 -1.502039909362792969e+01 8.656535297632217407e-03 -2.020183086395263672e+00 -6.034579277038574219e-01 -2.517789416015148163e-02
1.560000000000000000e+03 1.903185486793518066e+00 -1.242659759521484375e+01 5.486643314361572266e-02 -1.337015628814697266e+00 -3.846447467803955078e-01 -2.149051278829574585e-01
1.561000000000000000e+03 2.768548011779785156e+00 -7.193214893341064453e+00 -1.416846085339784622e-02 -5.817648172378540039e-01 -1.787799894809722900e-01 -4.392331540584564209e-01
1.562000000000000000e+03 7.638928890228271484e-01 -7.930309295654296875e+00 1.033092103898525238e-02 -9.682546257972717285e-01 -2.873771190643310547e-01 -1.573112756013870239e-01
1.563000000000000000e+03 1.793232917785644531e+00 -3.740041017532348633e+00 -5.368120595812797546e-02 -2.604698240756988525e-01 -9.424530714750289917e-02 -2.239855676889419556e-01
1.564000000000000000e+03 1.754278063774108887e+00 1.344403839111328125e+01 3.089667996391654015e-03 4.798983223736286163e-03 2.366595435887575150e-03 -1.774246105924248695e-03
1.565000000000000000e+03 3.107709693908691406e+01 2.239476776123046875e+01 2.881040573120117188e-01 5.561216831207275391e+00 1.754796266555786133e+00 -1.318248748779296875e+00
1.566000000000000000e+03 2.746380615234375000e+01 -2.468833178281784058e-01 2.201440811157226562e+00 1.388808935880661011e-01 7.020965218544006348e-01 2.070227414369583130e-01
1.567000000000000000e+03 3.508936309814453125e+01 5.855446338653564453e+00 9.161335825920104980e-01 1.541898155212402344e+01 4.900534629821777344e+00 7.599931359291076660e-01
1.568000000000000000e+03 3.287819671630859375e+01 1.772145080566406250e+01 1.185989618301391602e+00 7.993873596191406250e+00 2.753958940505981445e+00 -2.018409252166748047e+00
1.569000000000000000e+03 3.398576354980468750e+01 1.339322090148925781e+01 8.972120881080627441e-01 1.046849346160888672e+01 3.409711599349975586e+00 -1.857688903808593750e+00
1.570000000000000000e+03 2.658123970031738281e+01 2.368200492858886719e+01 6.102803945541381836e-01 1.436175465583801270e+00 6.139367818832397461e-01 -1.399876594543457031e+00
1.571000000000000000e+03 3.630665969848632812e+01 6.902496337890625000e+00 1.287279725074768066e+00 1.457618427276611328e+01 4.759039402008056641e+00 9.028708934783935547e-01
1.572000000000000000e+03 2.454420661926269531e+01 2.252667999267578125e+01 6.838320940732955933e-02 1.264086216688156128e-01 5.843755230307579041e-02 -3.575327694416046143e-01
1.573000000000000000e+03 2.381353378295898438e+01 2.472609519958496094e+01 2.638768851757049561e-01 5.510616302490234375e-01 2.444815486669540405e-01 -7.164364457130432129e-01
1.574000000000000000e+03 3.437492370605468750e+01 1.053138256072998047e+01 7.490838766098022461e-01 1.226600456237792969e+01 3.904526710510253906e+00 -1.456398487091064453e+00
1.575000000000000000e+03 3.365390777587890625e+01 1.483888530731201172e+01 8.120779991149902344e-01 9.770296096801757812e+00 3.174712181091308594e+00 -1.981939911842346191e+00
1.576000000000000000e+03 6.622054290771484375e+01 -2.611730766296386719e+01 -8.673392534255981445e-01 6.274670958518981934e-01 -7.196165621280670166e-02 -2.610540390014648438e-01
1.577000000000000000e+03 4.484186935424804688e+01 -5.527944564819335938e+00 -2.989284276962280273e+00 9.564431905746459961e-01 -6.098523139953613281e-01 4.374095052480697632e-02
1.578000000000000000e+03 1.265389442443847656e+01 -1.968807411193847656e+01 6.495851278305053711e-01 2.886844158172607422e+00 1.060928702354431152e+00 8.164124935865402222e-02
1.579000000000000000e+03 6.500012207031250000e+01 -1.041395568847656250e+01 -3.186733484268188477e+00 -1.170048117637634277e+00 -1.307034373283386230e+00 -5.352979302406311035e-01
1.580000000000000000e+03 6.369253540039062500e+01 1.111421298980712891e+01 5.528579354286193848e-01 7.728626251220703125e+00 2.484445095062255859e+00 4.407573640346527100e-01
1.581000000000000000e+03 7.245254516601562500e+01 -1.795723915100097656e+01 2.116520166397094727e+00 8.858528137207031250e+00 3.292514562606811523e+00 5.228495597839355469e+00
1.582000000000000000e+03 7.046450042724609375e+01 -1.437041568756103516e+01 1.319006830453872681e-01 1.732508659362792969e+00 5.593227744102478027e-01 -7.918484807014465332e-01
1.583000000000000000e+03 7.183274078369140625e+01 -1.464652538299560547e+01 1.448079705238342285e+00 4.478982448577880859e+00 1.778118729591369629e+00 -3.667171955108642578e+00
1.584000000000000000e+03 7.213294219970703125e+01 -1.416783237457275391e+01 5.166650414466857910e-01 7.133924007415771484e+00 2.295176744461059570e+00 -4.215466976165771484e+00
1.585000000000000000e+03 7.204638671875000000e+01 -1.466947746276855469e+01 1.557361125946044922e+00 5.601944923400878906e+00 2.147791862487792969e+00 -4.250835895538330078e+00
1.586000000000000000e+03 7.243384552001953125e+01 -1.466921901702880859e+01 1.457146048545837402e+00 8.466306686401367188e+00 2.977035760879516602e+00 -5.378596782684326172e+00
1.587000000000000000e+03 7.219813537597656250e+01 -1.445968914031982422e+01 1.195279240608215332e+00 7.079255104064941406e+00 2.482360124588012695e+00 -4.585859298706054688e+00
1.588000000000000000e+03 7.141342926025390625e+01 -1.472363567352294922e+01 1.166139006614685059e+00 2.524669408798217773e+00 1.107242465019226074e+00 -2.268268585205078125e+00
1.589000000000000000e+03 7.326853942871093750e+01 -1.457911682128906250e+01 -6.912052631378173828e-01 1.599904632568359375e+01 4.592352390289306641e+00 -3.874424219131469727e+00
1.590000000000000000e+03 7.324686431884765625e+01 -1.791526412963867188e+01 3.059274852275848389e-01 1.618959808349609375e+01 4.948657989501953125e+00 3.903451919555664062e+00
1.591000000000000000e+03 7.493518066406250000e+01 -1.585131263732910156e+01 6.906704425811767578e+00 1.503435516357421875e+01 6.582317829132080078e+00 1.694207310676574707e+00
1.592000000000000000e+03 7.443038940429687500e+01 -1.467347240447998047e+01 7.368652820587158203e-01 1.744074249267578125e+01 5.453282356262207031e+00 1.665678858757019043e+00
1.593000000000000000e+03 7.286850738525390625e+01 -1.362223815917968750e+01 -1.118330001831054688e+00 1.129820919036865234e+01 3.053963661193847656e+00 -3.558072566986083984e+00
1.594000000000000000e+03 7.389415740966796875e+01 -1.473658752441406250e+01 -3.256683349609375000e-01 1.906398200988769531e+01 5.621493816375732422e+00 -2.519045770168304443e-01
1.595000000000000000e+03 7.495423889160156250e+01 -1.630290412902832031e+01 7.790474414825439453e+00 1.461578750610351562e+01 6.721878528594970703e+00 -4.798160865902900696e-02
1.596000000000000000e+03 7.495755004882812500e+01 -1.608037757873535156e+01 7.506618499755859375e+00 1.468321704864501953e+01 6.656950473785400391e+00 9.024985432624816895e-01
1.597000000000000000e+03 7.504059600830078125e+01 -1.731082534790039062e+01 4.378518104553222656e+00 1.502336597442626953e+01 5.820565223693847656e+00 -2.668365001678466797e+00
1.598000000000000000e+03 7.306902313232421875e+01 -1.414996719360351562e+01 -8.454754352569580078e-01 1.327826118469238281e+01 3.729835510253906250e+00 -3.936964511871337891e+00
1.599000000000000000e+03 7.021675872802734375e+01 -1.969122695922851562e+01 5.087138414382934570e-01 2.633773803710937500e+00 9.427462816238403320e-01 1.543587684631347656e+00
1.600000000000000000e+03 7.052178192138671875e+01 -1.907990646362304688e+01 9.933899044990539551e-01 2.591775417327880859e+00 1.075549602508544922e+00 1.700639367103576660e+00
1.601000000000000000e+03 6.990921783447265625e+01 -1.399977397918701172e+01 -5.156946778297424316e-01 1.698210239410400391e+00 3.547546863555908203e-01 -4.781807065010070801e-01
1.602000000000000000e+03 7.074864959716796875e+01 -1.863266563415527344e+01 1.389221072196960449e+00 2.528752565383911133e+00 1.175392150878906250e+00 1.834916353225708008e+00
1.603000000000000000e+03 2.276569366455078125e+01 -3.438021898269653320e+00 2.215846925973892212e-01 2.570683360099792480e-01 1.435959041118621826e-01 1.205716013908386230e+00
1.604000000000000000e+03 1.947491264343261719e+01 3.170875310897827148e+00 7.134127663448452950e-04 5.316261667758226395e-04 3.735116624739021063e-04 -8.519005496054887772e-05
1.605000000000000000e+03 1.748861503601074219e+01 3.497990131378173828e+00 3.112871781922876835e-04 1.298612449318170547e-03 4.829698882531374693e-04 -1.644349104026332498e-04
1.606000000000000000e+03 1.613897895812988281e+01 3.487536430358886719e+00 1.074092928320169449e-03 1.002938835881650448e-03 6.231095176190137863e-04 7.208580500446259975e-04
1.607000000000000000e+03 1.541476249694824219e+01 3.402429342269897461e+00 -3.575794398784637451e-04 -9.604704682715237141e-04 -3.954149724449962378e-04 2.828085562214255333e-04
1.608000000000000000e+03 6.956891632080078125e+01 -1.323920822143554688e+01 -1.177934765815734863e+00 2.113735437393188477e+00 2.807402312755584717e-01 -6.823830604553222656e-01
1.609000000000000000e+03 6.890717315673828125e+01 -1.354810428619384766e+01 -1.714572548866271973e+00 1.038078308105468750e+00 -2.029482573270797729e-01 2.506470084190368652e-01
1.610000000000000000e+03 2.011013603210449219e+01 3.341531991958618164e+00 -6.250162841752171516e-04 -5.518228281289339066e-04 -3.530517278704792261e-04 -2.446677353873383254e-05
1.611000000000000000e+03 2.038685798645019531e+01 4.391710758209228516e+00 -1.298198243603110313e-03 -3.629295388236641884e-04 -4.983383114449679852e-04 -2.004415146075189114e-04
1.612000000000000000e+03 2.118278312683105469e+01 4.438589096069335938e+00 3.662784001789987087e-04 3.351228951942175627e-04 2.104203886119648814e-04 -3.657508932519704103e-04
1.613000000000000000e+03 5.459648132324218750e+00 -2.588949441909790039e+00 -4.044892489910125732e-01 -4.764919355511665344e-02 -1.356415301561355591e-01 -4.007270336151123047e-01
1.614000000000000000e+03 6.918456077575683594e+00 -3.281317472457885742e+00 -4.703539609909057617e-01 -1.108142081648111343e-02 -1.444306075572967529e-01 -4.906022846698760986e-01
1.615000000000000000e+03 3.416393280029296875e+00 -3.609770774841308594e+00 -1.588756889104843140e-01 -1.973307877779006958e-01 -1.068619415163993835e-01 -3.831968605518341064e-01
1.616000000000000000e+03 4.852814197540283203e+00 -3.369779586791992188e+00 -2.880508601665496826e-01 -9.924495965242385864e-02 -1.161887422204017639e-01 -4.506162405014038086e-01
1.617000000000000000e+03 4.153935909271240234e+00 -3.472532272338867188e+00 -2.252533733844757080e-01 -1.427474915981292725e-01 -1.104002594947814941e-01 -4.251810312271118164e-01
1.618000000000000000e+03 8.354866981506347656e+00 -3.294881582260131836e+00 -5.865159034729003906e-01 4.665108397603034973e-02 -1.619594395160675049e-01 -4.707405865192413330e-01
1.619000000000000000e+03 9.094507217407226562e+00 -3.306099414825439453e+00 -6.391246914863586426e-01 7.633009552955627441e-02 -1.688383668661117554e-01 -4.466036856174468994e-01
1.620000000000000000e+03 2.631716489791870117e+00 -3.745388746261596680e+00 -9.816426038742065430e-02 -2.535665631294250488e-01 -1.055192500352859497e-01 -3.174612820148468018e-01
1.621000000000000000e+03 7.626957893371582031e+00 -3.282817125320434570e+00 -5.322457551956176758e-01 2.065303549170494080e-02 -1.534778177738189697e-01 -4.875386059284210205e-01
1.622000000000000000e+03 3.616456985473632812e+00 -4.427461624145507812e+00 -1.349212676286697388e-01 -2.471932917833328247e-01 -1.146343648433685303e-01 -4.520021378993988037e-01
1.623000000000000000e+03 1.400588321685791016e+01 2.634795427322387695e+00 1.070318161509931087e-03 1.108891679905354977e-03 6.537629524245858192e-04 1.582785625942051411e-04
1.624000000000000000e+03 1.250639724731445312e+01 3.353209972381591797e+00 -6.108173402026295662e-04 -8.620448643341660500e-04 -4.418586613610386848e-04 1.419431995600461960e-03
1.625000000000000000e+03 1.754894256591796875e+01 2.818966388702392578e+00 -4.652325878851115704e-04 -6.222720257937908173e-04 -3.262514073867350817e-04 2.339047932764515281e-04
1.626000000000000000e+03 1.924490547180175781e+01 3.877388477325439453e+00 -1.018225913867354393e-03 -1.403258211212232709e-04 -3.475655103102326393e-04 5.984168383292853832e-04
1.627000000000000000e+03 1.128141117095947266e+01 -2.563295841217041016e+00 -9.469467401504516602e-01 9.951962530612945557e-02 -2.542281448841094971e-01 -2.592422068119049072e-01
1.628000000000000000e+03 1.102701187133789062e+01 3.334163427352905273e+00 -4.052860313095152378e-04 -8.697896846570074558e-04 -3.825227031484246254e-04 8.126918110065162182e-04
1.629000000000000000e+03 1.324586296081542969e+01 3.356484651565551758e+00 1.428496558219194412e-03 1.121053122915327549e-03 7.648649043403565884e-04 1.432061544619500637e-04
1.630000000000000000e+03 6.904709625244140625e+01 -1.982601356506347656e+01 1.716050356626510620e-01 7.056235074996948242e-01 2.631685435771942139e-01 6.999554634094238281e-01
1.631000000000000000e+03 8.039349555969238281e+00 3.344697475433349609e+00 4.854351282119750977e-04 -1.404865528456866741e-03 -2.758291375357657671e-04 2.018725936068221927e-04
1.632000000000000000e+03 1.213048648834228516e+01 -3.265877485275268555e+00 -7.958564758300781250e-01 1.988945305347442627e-01 -1.790885925292968750e-01 -1.996875107288360596e-01
1.633000000000000000e+03 1.435883331298828125e+01 -2.522094249725341797e+00 -9.777365922927856445e-01 1.624792218208312988e-01 -2.445771992206573486e-01 7.267834991216659546e-02
1.634000000000000000e+03 9.843353271484375000e+00 -3.307621479034423828e+00 -6.892565488815307617e-01 1.048099771142005920e-01 -1.753339767456054688e-01 -4.060800373554229736e-01
1.635000000000000000e+03 1.060090541839599609e+01 -3.295750856399536133e+00 -7.334342002868652344e-01 1.385854035615921021e-01 -1.784546375274658203e-01 -3.523190617561340332e-01
1.636000000000000000e+03 1.524911403656005859e+01 -3.241554737091064453e+00 -7.414129376411437988e-01 2.948897182941436768e-01 -1.339569687843322754e-01 2.373282909393310547e-01
1.637000000000000000e+03 1.751427459716796875e+01 -2.382978439331054688e+00 -7.056547999382019043e-01 2.282408773899078369e-01 -1.432241797447204590e-01 4.838080108165740967e-01
1.638000000000000000e+03 7.284259319305419922e+00 3.394068717956542969e+00 1.931154751218855381e-03 1.964155380846932530e-04 6.382710998877882957e-04 -7.378566078841686249e-04
1.639000000000000000e+03 8.791659355163574219e+00 3.318570613861083984e+00 1.944222603924572468e-03 2.434089255984872580e-04 6.562894559465348721e-04 -3.702980757225304842e-05
1.640000000000000000e+03 4.997786521911621094e+00 3.632520914077758789e+00 -3.711751778610050678e-04 -5.485120927914977074e-04 -2.759062044788151979e-04 -4.035740275867283344e-04
1.641000000000000000e+03 2.753998756408691406e+00 4.808407783508300781e+00 -4.435278526671027066e-07 -4.622566339094191790e-04 -1.388100499752908945e-04 -6.126731750555336475e-04
1.642000000000000000e+03 5.035087585449218750e+00 4.540257930755615234e+00 2.471767831593751907e-03 4.436832750798203051e-05 7.548407884314656258e-04 -1.860761316493153572e-03
1.643000000000000000e+03 6.523576736450195312e+00 3.465659141540527344e+00 3.340112743899226189e-04 -1.226129941642284393e-03 -2.676355943549424410e-04 -4.668581459554843605e-05
1.644000000000000000e+03 6.584743022918701172e+00 4.281159400939941406e+00 1.993226120248436928e-03 1.508135464973747730e-04 6.432118825614452362e-04 -1.173863071016967297e-03
1.645000000000000000e+03 1.028561496734619141e+01 3.321768283843994141e+00 2.100374782457947731e-03 2.728603431023657322e-04 7.119704969227313995e-04 4.761738236993551254e-04
1.646000000000000000e+03 9.541118621826171875e+00 3.313380241394042969e+00 2.359977079322561622e-04 -1.250571222044527531e-03 -3.043720498681068420e-04 4.216989909764379263e-04
1.647000000000000000e+03 1.779720306396484375e+01 -3.867851972579956055e+00 -4.138347804546356201e-01 4.544304013252258301e-01 1.217868458479642868e-02 6.973022818565368652e-01
1.648000000000000000e+03 1.847872161865234375e+01 -3.070132970809936523e+00 -4.553764164447784424e-01 3.462089896202087402e-01 -3.275022655725479126e-02 7.053964734077453613e-01
1.649000000000000000e+03 1.909433937072753906e+01 -2.238917827606201172e+00 -4.722956120967864990e-01 2.480941116809844971e-01 -6.726045161485671997e-02 6.488035917282104492e-01
1.650000000000000000e+03 1.289731597900390625e+01 -3.266354560852050781e+00 -8.018844127655029297e-01 2.262829840183258057e-01 -1.726804375648498535e-01 -1.008062213659286499e-01
1.651000000000000000e+03 2.490099525451660156e+01 -1.794514179229736328e+00 9.627950787544250488e-01 -8.708039671182632446e-02 2.627144157886505127e-01 9.271069765090942383e-01
1.652000000000000000e+03 2.559568405151367188e+01 -1.536428928375244141e+00 1.253040313720703125e+00 -2.348305583000183105e-01 3.054629266262054443e-01 8.747476935386657715e-01
1.653000000000000000e+03 2.647922706604003906e+01 -1.446425676345825195e+00 1.737892389297485352e+00 -6.838504970073699951e-02 5.008522272109985352e-01 8.872868418693542480e-01
1.654000000000000000e+03 1.604280090332031250e+01 -3.215384483337402344e+00 -6.861907839775085449e-01 3.141356408596038818e-01 -1.116165369749069214e-01 3.652421534061431885e-01
1.655000000000000000e+03 2.167769241333007812e+01 -2.706626176834106445e+00 4.294695332646369934e-02 2.631132304668426514e-01 9.181804955005645752e-02 9.711807966232299805e-01
1.656000000000000000e+03 2.249752807617187500e+01 -2.545312643051147461e+00 2.259274721145629883e-01 1.497690677642822266e-01 1.127089634537696838e-01 9.757149815559387207e-01
1.657000000000000000e+03 1.927349853515625000e+01 -3.005912542343139648e+00 -3.463099300861358643e-01 3.279030621051788330e-01 -5.522060673683881760e-03 7.997079491615295410e-01
1.658000000000000000e+03 2.006327056884765625e+01 -2.927324533462524414e+00 -2.393955290317535400e-01 3.305145800113677979e-01 2.733571268618106842e-02 8.677814602851867676e-01
1.659000000000000000e+03 2.753431510925292969e+01 -1.345936775207519531e+00 2.245384931564331055e+00 -5.397476255893707275e-02 6.574230790138244629e-01 8.335134387016296387e-01
1.660000000000000000e+03 3.512046813964843750e+01 7.221041202545166016e+00 9.059493541717529297e-01 1.433860301971435547e+01 4.573365688323974609e+00 -1.469448506832122803e-01
1.661000000000000000e+03 3.790602874755859375e+01 9.350629806518554688e+00 1.835232257843017578e+00 1.294727134704589844e+01 4.434751033782958984e+00 1.229937195777893066e+00
1.662000000000000000e+03 5.994522094726562500e+01 1.189862564206123352e-01 1.610601305961608887e+00 2.775314092636108398e+00 1.315774559974670410e+00 1.658267736434936523e+00
1.663000000000000000e+03 3.765768814086914062e+01 5.782214641571044922e+00 1.311851739883422852e+00 1.512178897857666016e+01 4.930092334747314453e+00 1.222385406494140625e+00
1.664000000000000000e+03 3.717027282714843750e+01 1.195034265518188477e+00 2.387785434722900391e+00 1.249093723297119141e+01 4.463616847991943359e+00 -1.016603827476501465e+00
1.665000000000000000e+03 3.635260009765625000e+01 4.460008144378662109e+00 1.982514977455139160e+00 1.430397415161132812e+01 4.885946750640869141e+00 7.246078848838806152e-01
1.666000000000000000e+03 1.206407642364501953e+01 -2.351850509643554688e+01 4.128156974911689758e-02 1.820389986038208008e+00 5.585014820098876953e-01 3.140264153480529785e-01
1.667000000000000000e+03 1.409150981903076172e+01 -2.588509750366210938e+01 -2.859404087066650391e-01 1.640252947807312012e+00 4.062937498092651367e-01 -7.969208061695098877e-02
1.668000000000000000e+03 1.854376029968261719e+01 -3.061476135253906250e+01 -4.748481810092926025e-01 7.090246081352233887e-01 7.025292515754699707e-02 -3.186608254909515381e-01
1.669000000000000000e+03 2.300773048400878906e+01 -9.481103897094726562e+00 3.858280777931213379e-01 3.224925994873046875e-01 2.124962061643600464e-01 6.467808485031127930e-01
1.670000000000000000e+03 2.052785682678222656e+01 -8.710113525390625000e+00 5.940222740173339844e-01 6.774012446403503418e-01 3.814270496368408203e-01 1.135023951530456543e+00
1.671000000000000000e+03 1.944637107849121094e+01 -8.717083930969238281e+00 6.201927065849304199e-01 8.586162328720092773e-01 4.436426758766174316e-01 1.125976443290710449e+00
1.672000000000000000e+03 4.044332122802734375e+01 1.514149188995361328e+01 9.499823451042175293e-01 6.657839775085449219e+00 2.282346725463867188e+00 1.992488384246826172e+00
1.673000000000000000e+03 1.348555660247802734e+01 -1.376964187622070312e+01 1.289747357368469238e+00 2.575414657592773438e+00 1.159548521041870117e+00 5.760251283645629883e-01
1.674000000000000000e+03 1.014485454559326172e+01 -1.669511413574218750e+01 9.130237698554992676e-01 1.335813760757446289e+00 6.746512651443481445e-01 2.451237291097640991e-01
1.675000000000000000e+03 5.507611083984375000e+01 2.498705101013183594e+01 2.516775429248809814e-01 7.344597578048706055e-01 2.958411872386932373e-01 -4.395463690161705017e-02
1.676000000000000000e+03 5.328089141845703125e+01 2.480832290649414062e+01 1.085081398487091064e-01 7.691610455513000488e-01 2.633007466793060303e-01 4.208803176879882812e-01
1.677000000000000000e+03 4.437920379638671875e+01 -2.769282150268554688e+01 1.253664255142211914e+00 8.966619491577148438e+00 3.066085100173950195e+00 -1.452058315277099609e+00
1.678000000000000000e+03 6.701967620849609375e+01 -1.220539569854736328e+01 -4.554238319396972656e+00 2.536102533340454102e-01 -1.290188431739807129e+00 2.947629690170288086e-01
1.679000000000000000e+03 5.111402511596679688e+01 -1.197788524627685547e+01 -4.016836881637573242e-01 1.021570444107055664e+00 1.859660297632217407e-01 2.018932580947875977e+00
1.680000000000000000e+03 4.673541259765625000e+01 -7.414865970611572266e+00 -1.497296810150146484e+00 7.599833607673645020e-01 -2.211940437555313110e-01 9.926675558090209961e-01
1.681000000000000000e+03 2.162596511840820312e+01 -8.593743324279785156e+00 4.924451708793640137e-01 4.829148352146148682e-01 2.926079928874969482e-01 1.041942119598388672e+00
1.682000000000000000e+03 2.793399429321289062e+01 2.442733764648437500e+01 8.160371333360671997e-02 2.836950540542602539e+00 8.755662441253662109e-01 -1.498308897018432617e+00
1.683000000000000000e+03 2.767768287658691406e+01 2.295067787170410156e+01 8.534919619560241699e-01 2.577355861663818359e+00 1.029254317283630371e+00 -1.888619899749755859e+00
1.684000000000000000e+03 3.332747650146484375e+01 -2.823909950256347656e+01 5.375754833221435547e-01 3.372651576995849609e+00 1.173068165779113770e+00 1.642065286636352539e+00
1.685000000000000000e+03 5.943182373046875000e+01 -1.115792465209960938e+01 -3.407881498336791992e+00 7.509899139404296875e-01 -7.970675230026245117e-01 3.853518962860107422e-01
1.686000000000000000e+03 5.735879135131835938e+01 -1.225945854187011719e+01 -2.631382942199707031e+00 5.880230665206909180e-01 -6.130079627037048340e-01 2.960087954998016357e-01
1.687000000000000000e+03 5.496341705322265625e+01 -1.207312774658203125e+01 -1.698166251182556152e+00 5.929852128028869629e-01 -3.315542936325073242e-01 1.052015185356140137e+00
1.688000000000000000e+03 5.399540710449218750e+01 -1.226386547088623047e+01 -1.251696944236755371e+00 5.578606128692626953e-01 -2.081508934497833252e-01 1.205046772956848145e+00
1.689000000000000000e+03 6.492874908447265625e+01 2.097200012207031250e+01 3.446903228759765625e-01 6.462847709655761719e+00 2.042261362075805664e+00 -1.616285741329193115e-01
1.690000000000000000e+03 3.823947525024414062e+01 1.434593558311462402e+00 1.873992919921875000e+00 1.342517375946044922e+01 4.589749813079833984e+00 -1.738414883613586426e+00
1.691000000000000000e+03 3.786482620239257812e+01 2.831760168075561523e+00 1.879932045936584473e+00 1.407888031005859375e+01 4.787643432617187500e+00 -7.803280353546142578e-01
1.692000000000000000e+03 1.395253849029541016e+01 9.261547088623046875e+00 -2.612781943753361702e-03 1.234586467035114765e-03 -4.134586488362401724e-04 4.300992004573345184e-03
1.693000000000000000e+03 1.153910446166992188e+01 2.004776763916015625e+01 -1.355057507753372192e-01 3.371435031294822693e-02 -3.053742088377475739e-02 -2.230547368526458740e-03
1.694000000000000000e+03 1.220273017883300781e+01 1.875649070739746094e+01 -9.359986335039138794e-02 2.578916028141975403e-02 -2.034321054816246033e-02 -3.199769929051399231e-02
1.695000000000000000e+03 1.080972194671630859e+01 1.421607494354248047e+01 -6.857627071440219879e-03 -4.116527736186981201e-03 -3.292246488854289055e-03 -4.354654345661401749e-03
1.696000000000000000e+03 7.702204132080078125e+01 -3.088103485107421875e+01 -1.039554551243782043e-01 9.825475692749023438e+00 2.916455984115600586e+00 3.179669976234436035e-01
1.697000000000000000e+03 7.703556060791015625e+01 -2.974467277526855469e+01 -1.318312734365463257e-01 9.999114036560058594e+00 2.960184812545776367e+00 2.704571783542633057e-01
1.698000000000000000e+03 7.710649108886718750e+01 -2.387827682495117188e+01 -5.845955014228820801e-01 1.029757499694824219e+01 2.913893938064575195e+00 -7.952133417129516602e-01
1.699000000000000000e+03 7.688063049316406250e+01 -2.511031913757324219e+01 -5.096224546432495117e-01 1.015020275115966797e+01 2.892174005508422852e+00 -4.372131824493408203e-01
1.700000000000000000e+03 7.678510284423828125e+01 1.786575698852539062e+01 1.080680042505264282e-01 5.352628707885742188e+00 1.638208985328674316e+00 6.450399756431579590e-02
1.701000000000000000e+03 7.717603302001953125e+01 -2.270470237731933594e+01 -6.988874077796936035e-01 1.041014957427978516e+01 2.913378715515136719e+00 -1.206708788871765137e+00
1.702000000000000000e+03 7.654158020019531250e+01 -2.642552375793457031e+01 -4.070847332477569580e-01 9.851926803588867188e+00 2.833452463150024414e+00 -1.457970738410949707e-01
1.703000000000000000e+03 7.633213806152343750e+01 2.468533515930175781e+01 -1.756457425653934479e-02 5.573275566101074219e+00 1.666713237762451172e+00 2.409617900848388672e-01
1.704000000000000000e+03 7.639895629882812500e+01 2.328436279296875000e+01 7.795178797096014023e-03 5.518272399902343750e+00 1.657820224761962891e+00 2.406185269355773926e-01
1.705000000000000000e+03 7.681373596191406250e+01 1.651808738708496094e+01 1.119153425097465515e-01 5.359346389770507812e+00 1.641378521919250488e+00 -1.582720689475536346e-02
1.706000000000000000e+03 7.682618713378906250e+01 1.515602493286132812e+01 1.223333552479743958e-01 5.385653972625732422e+00 1.652396202087402344e+00 -1.022675633430480957e-01
1.707000000000000000e+03 7.702695465087890625e+01 -2.161312675476074219e+01 -7.633136510848999023e-01 1.062851715087890625e+01 2.959561109542846680e+00 -1.595678329467773438e+00
1.708000000000000000e+03 7.683328247070312500e+01 1.378337383270263672e+01 1.207891404628753662e-01 5.445471286773681641e+00 1.669878125190734863e+00 -1.973590403795242310e-01
1.709000000000000000e+03 7.685133361816406250e+01 1.241127395629882812e+01 1.220020204782485962e-01 5.530112266540527344e+00 1.695634245872497559e+00 -2.861885726451873779e-01
1.710000000000000000e+03 7.615024566650390625e+01 3.037238121032714844e+01 -5.272656679153442383e-02 5.702031135559082031e+00 1.694791436195373535e+00 1.379252821207046509e-01
1.711000000000000000e+03 7.688437652587890625e+01 9.647128105163574219e+00 1.219149902462959290e-01 5.782999992370605469e+00 1.771474480628967285e+00 -4.702004492282867432e-01
1.712000000000000000e+03 7.813085174560546875e+01 9.687936782836914062e+00 4.751342907547950745e-02 5.676683425903320312e+00 1.717259049415588379e+00 -3.086678385734558105e-01
1.713000000000000000e+03 7.516428375244140625e+01 -1.708569526672363281e+01 5.219398021697998047e+00 1.441609954833984375e+01 5.890649318695068359e+00 -2.323049068450927734e+00
1.714000000000000000e+03 7.845129394531250000e+01 -1.473834323883056641e+01 4.874773323535919189e-01 7.536778926849365234e+00 2.407276868820190430e+00 1.207976222038269043e+00
1.715000000000000000e+03 7.741159820556640625e+01 -1.218563461303710938e+01 -6.128981113433837891e-01 1.016160583496093750e+01 2.864612340927124023e+00 1.730956315994262695e+00
1.716000000000000000e+03 7.719799804687500000e+01 -5.414848327636718750e+00 -2.531633079051971436e-01 8.972439765930175781e+00 2.615782976150512695e+00 -6.711848378181457520e-01
1.717000000000000000e+03 7.728872680664062500e+01 -6.697798252105712891e+00 -3.754494488239288330e-01 9.302927017211914062e+00 2.678243160247802734e+00 -4.128596782684326172e-01
1.718000000000000000e+03 7.690738677978515625e+01 1.306479454040527344e+00 6.986738741397857666e-02 7.204237461090087891e+00 2.182231426239013672e+00 -9.398568868637084961e-01
1.719000000000000000e+03 7.694744873046875000e+01 -7.486245036125183105e-02 3.709393739700317383e-02 7.529770374298095703e+00 2.270059347152709961e+00 -9.825452566146850586e-01
1.720000000000000000e+03 7.684767913818359375e+01 4.076529502868652344e+00 9.945708513259887695e-02 6.630692958831787109e+00 2.019045114517211914e+00 -8.206775188446044922e-01
1.721000000000000000e+03 7.649234008789062500e+01 2.190355110168457031e+01 3.007126785814762115e-02 5.468793869018554688e+00 1.649659514427185059e+00 2.226855903863906860e-01
1.722000000000000000e+03 7.671376800537109375e+01 1.921130752563476562e+01 8.260595798492431641e-02 5.375642776489257812e+00 1.637474536895751953e+00 1.372493058443069458e-01
1.723000000000000000e+03 7.687061309814453125e+01 8.255316734313964844e+00 1.145741268992424011e-01 5.958099842071533203e+00 1.821802139282226562e+00 -5.660935044288635254e-01
1.724000000000000000e+03 7.684545898437500000e+01 6.864001750946044922e+00 1.141793802380561829e-01 6.156085014343261719e+00 1.881079196929931641e+00 -6.563732028007507324e-01
1.725000000000000000e+03 7.683555603027343750e+01 5.470139503479003906e+00 1.071778908371925354e-01 6.381246089935302734e+00 1.946527123451232910e+00 -7.452680468559265137e-01
1.726000000000000000e+03 7.699118041992187500e+01 -1.446148037910461426e+00 -1.907811872661113739e-02 7.885549068450927734e+00 2.359941244125366211e+00 -9.799112677574157715e-01
1.727000000000000000e+03 7.823513031005859375e+01 -2.782148122787475586e+00 -3.696714714169502258e-02 8.792793273925781250e+00 2.626747846603393555e+00 -6.114397644996643066e-01
1.728000000000000000e+03 7.704161071777343750e+01 -2.792114496231079102e+00 -7.212705165147781372e-02 8.241498947143554688e+00 2.450811624526977539e+00 -9.363031983375549316e-01
1.729000000000000000e+03 7.734687805175781250e+01 -7.953485488891601562e+00 -5.096787214279174805e-01 9.602584838867187500e+00 2.727871894836425781e+00 -6.998290866613388062e-02
1.730000000000000000e+03 7.734271240234375000e+01 -9.179107666015625000e+00 -6.698834300041198730e-01 9.817226409912109375e+00 2.744202852249145508e+00 3.678237199783325195e-01
1.731000000000000000e+03 7.722223663330078125e+01 -1.035179138183593750e+01 -8.453540802001953125e-01 1.008748340606689453e+01 2.772638797760009766e+00 8.817958235740661621e-01
1.732000000000000000e+03 7.850988769531250000e+01 -1.349747753143310547e+01 1.097746379673480988e-02 8.146555900573730469e+00 2.447260141372680664e+00 1.590667486190795898e+00
1.733000000000000000e+03 7.833040618896484375e+01 -1.911870384216308594e+01 1.810249239206314087e-01 8.531585693359375000e+00 2.613783359527587891e+00 -1.763907790184020996e+00
1.734000000000000000e+03 7.758746337890625000e+01 -2.007687568664550781e+01 -2.959403395652770996e-01 1.000508880615234375e+01 2.912744522094726562e+00 -2.002298116683959961e+00
1.735000000000000000e+03 7.629637145996093750e+01 3.173783111572265625e+01 -4.485561698675155640e-02 5.726702690124511719e+00 1.704554200172424316e+00 1.082193180918693542e-01
1.736000000000000000e+03 7.754977416992187500e+01 -1.861602973937988281e+01 4.836321771144866943e-01 9.622201919555664062e+00 3.031750202178955078e+00 -2.148138999938964844e+00
1.737000000000000000e+03 1.700160217285156250e+01 2.450387382507324219e+01 -2.020056992769241333e-01 1.007474865764379501e-02 -5.757928267121315002e-02 5.450157821178436279e-02
1.738000000000000000e+03 3.818688964843750000e+01 -2.725809478759765625e+01 5.322942733764648438e-01 6.752554416656494141e+00 2.185454607009887695e+00 5.197469592094421387e-01
1.739000000000000000e+03 3.244386291503906250e+01 1.922320175170898438e+01 1.367524743080139160e+00 7.072672367095947266e+00 2.532059192657470703e+00 -1.773018360137939453e+00
1.740000000000000000e+03 6.725208282470703125e+01 -2.523429870605468750e+01 -7.644490003585815430e-01 1.217378020286560059e+00 1.358787119388580322e-01 5.480208247900009155e-02
1.741000000000000000e+03 6.128305435180664062e+01 -1.170420837402343750e+01 -5.004252910614013672e+00 3.493181765079498291e-01 -1.396480321884155273e+00 -7.185034453868865967e-02
1.742000000000000000e+03 6.015170669555664062e+01 -1.225980854034423828e+01 -3.667583465576171875e+00 4.836877584457397461e-01 -9.551687240600585938e-01 -5.342406034469604492e-01
1.743000000000000000e+03 4.357823562622070312e+01 1.938047027587890625e+01 4.895834624767303467e-01 3.658785104751586914e+00 1.244510531425476074e+00 1.730752825736999512e+00
1.744000000000000000e+03 4.180294418334960938e+01 1.766502952575683594e+01 6.532062888145446777e-01 4.867890834808349609e+00 1.656329035758972168e+00 1.858577609062194824e+00
1.745000000000000000e+03 3.426499557495117188e+01 -3.265115356445312500e+01 -5.696040391921997070e-01 3.952178478240966797e+00 1.014772295951843262e+00 1.215563535690307617e+00
1.746000000000000000e+03 3.883490562438964844e+00 3.028988265991210938e+01 7.026817649602890015e-03 -1.628009825944900513e-01 -4.673225060105323792e-02 1.002934053540229797e-01
1.747000000000000000e+03 3.855660915374755859e+00 3.187038421630859375e+01 1.267206110060214996e-02 -1.841301470994949341e-01 -5.143742263317108154e-02 9.205241501331329346e-02
1.748000000000000000e+03 3.013970851898193359e+00 2.316726875305175781e+01 -1.088063605129718781e-02 -5.356959998607635498e-02 -1.933507062494754791e-02 6.079539656639099121e-02
1.749000000000000000e+03 3.132127761840820312e+00 2.449005889892578125e+01 -2.130914665758609772e-02 -7.058224081993103027e-02 -2.756741642951965332e-02 7.080195844173431396e-02
1.750000000000000000e+03 3.595146656036376953e+00 3.690615081787109375e+01 3.141541033983230591e-02 -2.897419035434722900e-01 -7.749795168638229370e-02 4.207436740398406982e-02
1.751000000000000000e+03 3.357371091842651367e+00 2.583060264587402344e+01 -6.851821672171354294e-03 -9.219693392515182495e-02 -2.971462719142436981e-02 8.816687017679214478e-02
1.752000000000000000e+03 3.562048435211181641e+00 2.724484443664550781e+01 -1.208689529448747635e-02 -1.107392832636833191e-01 -3.684785217046737671e-02 9.480787813663482666e-02
1.753000000000000000e+03 3.742260456085205078e+00 2.873475265502929688e+01 5.999416112899780273e-03 -1.319243460893630981e-01 -3.777747973799705505e-02 1.047121360898017883e-01
1.754000000000000000e+03 3.425900459289550781e+00 -2.703223991394042969e+01 -4.408430308103561401e-02 -3.274484872817993164e-01 -1.114598363637924194e-01 4.029261469841003418e-01
1.755000000000000000e+03 3.076899766921997070e+00 -2.585305786132812500e+01 -1.287496834993362427e-02 -4.851958453655242920e-01 -1.494212448596954346e-01 3.988230824470520020e-01
1.756000000000000000e+03 4.150635719299316406e+00 -2.990341758728027344e+01 -9.470003098249435425e-02 -2.941888757050037384e-02 -3.723567724227905273e-02 3.502471446990966797e-01
1.757000000000000000e+03 1.989911079406738281e+00 -6.141400337219238281e+00 -2.473508007824420929e-02 -5.466200113296508789e-01 -1.714065223932266235e-01 -3.371668159961700439e-01
1.758000000000000000e+03 4.299197196960449219e+00 1.608160781860351562e+01 -5.058300681412220001e-03 -4.811311140656471252e-03 -2.960883546620607376e-03 5.531862843781709671e-03
1.759000000000000000e+03 3.149795770645141602e+00 1.761653709411621094e+01 -4.742095712572336197e-03 -7.397476118057966232e-03 -3.641871502622961998e-03 1.244144979864358902e-02
1.760000000000000000e+03 2.911958456039428711e+00 1.340159130096435547e+01 -5.843636114150285721e-03 9.157058666460216045e-04 -1.478379126638174057e-03 9.212572476826608181e-04
1.761000000000000000e+03 2.966824293136596680e+00 1.478969383239746094e+01 9.343767887912690639e-04 -6.990025285631418228e-04 7.061226642690598965e-05 4.394358838908374310e-04
1.762000000000000000e+03 3.038890123367309570e+00 6.555436611175537109e+00 2.093536313623189926e-03 8.852763567119836807e-04 8.936438243836164474e-04 -1.932904473505914211e-03
1.763000000000000000e+03 2.953377962112426758e+00 7.918708324432373047e+00 -1.618910697288811207e-03 8.448683656752109528e-04 -2.322126965736970305e-04 -1.379510271362960339e-03
1.764000000000000000e+03 3.205400705337524414e+00 -1.396314239501953125e+01 1.486730277538299561e-01 -1.009665846824645996e+00 -2.582978606224060059e-01 -1.945878714323043823e-01
1.765000000000000000e+03 3.160046100616455078e+00 -1.262199306488037109e+01 1.329050809144973755e-01 -9.542126655578613281e-01 -2.463922798633575439e-01 -3.042073845863342285e-01
1.766000000000000000e+03 2.967948913574218750e+00 -2.360829734802246094e+01 3.474795818328857422e-02 -7.270755767822265625e-01 -2.076982855796813965e-01 3.723773360252380371e-01
1.767000000000000000e+03 1.922089219093322754e+00 -1.105447769165039062e+01 4.434219002723693848e-02 -1.188889741897583008e+00 -3.433642685413360596e-01 -2.819428443908691406e-01
1.768000000000000000e+03 3.498782157897949219e+00 -8.855380058288574219e+00 5.286372825503349304e-02 -6.095216870307922363e-01 -1.669973880052566528e-01 -5.119305253028869629e-01
1.769000000000000000e+03 3.286998033523559570e+00 -1.674426841735839844e+01 1.549194157123565674e-01 -1.002012372016906738e+00 -2.541278898715972900e-01 2.542325109243392944e-02
1.770000000000000000e+03 3.300935983657836914e+00 -1.815572166442871094e+01 1.389543265104293823e-01 -9.695791006088256836e-01 -2.491874396800994873e-01 1.372448801994323730e-01
1.771000000000000000e+03 3.894211292266845703e+00 -7.845992565155029297e+00 1.607783697545528412e-02 -4.826448559761047363e-01 -1.399701088666915894e-01 -5.471256971359252930e-01
1.772000000000000000e+03 2.775391101837158203e+00 -4.711755275726318359e+00 -8.845886588096618652e-02 -3.257890641689300537e-01 -1.242743805050849915e-01 -3.934200704097747803e-01
1.773000000000000000e+03 2.871353626251220703e+00 1.066611385345458984e+01 -2.989130094647407532e-03 1.148472656495869160e-03 -5.521972780115902424e-04 -1.208303379826247692e-03
1.774000000000000000e+03 3.064129590988159180e+00 1.619237518310546875e+01 -1.168123167008161545e-02 -2.398599172011017799e-03 -4.223949275910854340e-03 7.483949419111013412e-03
1.775000000000000000e+03 3.169922351837158203e+00 -1.130850982666015625e+01 1.020561680197715759e-01 -8.694862723350524902e-01 -2.302290350198745728e-01 -3.796125948429107666e-01
1.776000000000000000e+03 3.251407623291015625e+00 -1.533777999877929688e+01 1.543306708335876465e-01 -1.009968876838684082e+00 -2.566914558410644531e-01 -8.720543980598449707e-02
1.777000000000000000e+03 3.198027849197387695e+00 -2.095939254760742188e+01 8.416268229484558105e-02 -8.559821844100952148e-01 -2.315458357334136963e-01 3.160552680492401123e-01
1.778000000000000000e+03 3.265863895416259766e+00 -1.956504440307617188e+01 1.230442672967910767e-01 -9.230862855911254883e-01 -2.400126010179519653e-01 2.330267131328582764e-01
1.779000000000000000e+03 3.156102418899536133e+00 2.045197296142578125e+01 -9.580753743648529053e-03 -2.433918043971061707e-02 -1.017598062753677368e-02 3.436252847313880920e-02
1.780000000000000000e+03 3.058267593383789062e+00 2.182164764404296875e+01 -2.287737652659416199e-02 -3.301077336072921753e-02 -1.676644571125507355e-02 4.341234266757965088e-02
1.781000000000000000e+03 3.189217567443847656e+00 1.904644584655761719e+01 -1.914641074836254120e-02 -1.185667607933282852e-02 -9.300925768911838531e-03 2.325280196964740753e-02
1.782000000000000000e+03 2.883681774139404297e+00 1.202783870697021484e+01 2.687965054064989090e-03 1.604692544788122177e-03 1.287797233089804649e-03 -3.056570421904325485e-03
1.783000000000000000e+03 2.891579151153564453e+00 9.292634963989257812e+00 2.747752936556935310e-03 1.356214052066206932e-03 1.231190050020813942e-03 -2.939068013802170753e-03
1.784000000000000000e+03 5.758951950073242188e+01 -2.821869850158691406e+00 1.484856605529785156e+00 2.250815153121948242e+00 1.120701551437377930e+00 1.714480042457580566e+00
1.785000000000000000e+03 2.866553115844726562e+01 -1.349969863891601562e+00 3.182796716690063477e+00 4.718438684940338135e-01 1.096392154693603516e+00 1.391766309738159180e+00
1.786000000000000000e+03 3.468091201782226562e+01 9.322927474975585938e+00 7.548618912696838379e-01 1.300524520874023438e+01 4.128032207489013672e+00 -9.974116683006286621e-01
1.787000000000000000e+03 4.566293334960937500e+01 2.115592575073242188e+01 2.255334556102752686e-01 2.671108484268188477e+00 8.689926266670227051e-01 1.526138663291931152e+00
1.788000000000000000e+03 2.261308097839355469e+01 2.545050621032714844e+01 1.545095741748809814e-01 4.434808790683746338e-01 1.793971359729766846e-01 -4.708769619464874268e-01
1.789000000000000000e+03 3.472500610351562500e+01 1.662178230285644531e+01 7.865607738494873047e-01 8.439670562744140625e+00 2.767869234085083008e+00 -1.128162980079650879e+00
1.790000000000000000e+03 3.505931091308593750e+01 1.515928936004638672e+01 8.036295771598815918e-01 9.270851135253906250e+00 3.022344350814819336e+00 -1.173823595046997070e+00
1.791000000000000000e+03 3.284001159667968750e+01 -6.326641082763671875e+00 -2.268948078155517578e+00 5.668836593627929688e+00 1.019966483116149902e+00 -9.311841726303100586e-01
1.792000000000000000e+03 5.217379760742187500e+01 -1.207742500305175781e+01 -7.325720191001892090e-01 8.819250464439392090e-01 4.480589926242828369e-02 1.787323474884033203e+00
1.793000000000000000e+03 5.304178237915039062e+01 -1.345149230957031250e+01 -1.005224227905273438e+00 4.041742682456970215e-01 -1.803150027990341187e-01 9.011509418487548828e-01
1.794000000000000000e+03 3.729669570922851562e+01 1.133318990468978882e-01 1.493706941604614258e+00 1.170651340484619141e+01 3.960066318511962891e+00 -1.052136540412902832e+00
1.795000000000000000e+03 3.469665908813476562e+01 9.148311018943786621e-01 2.652557373046875000e+00 1.153568172454833984e+01 4.256471633911132812e+00 1.138224720954895020e+00
1.796000000000000000e+03 2.851277923583984375e+01 -2.491375923156738281e+00 1.836763024330139160e+00 8.563985228538513184e-01 8.079484701156616211e-01 1.650595426559448242e+00
1.797000000000000000e+03 2.994066238403320312e+01 -4.293019294738769531e+00 4.818994998931884766e-01 1.861291050910949707e+00 7.029571533203125000e-01 1.280483245849609375e+00
1.798000000000000000e+03 3.437590408325195312e+01 1.808645629882812500e+01 8.561641573905944824e-01 7.693964481353759766e+00 2.565038681030273438e+00 -1.085990190505981445e+00
1.799000000000000000e+03 1.861531829833984375e+01 3.778216600418090820e+00 1.461381325498223305e-03 1.363325427519157529e-04 4.793141561094671488e-04 3.981436020694673061e-04
1.800000000000000000e+03 3.776609039306640625e+01 -1.777025413513183594e+01 1.219555258750915527e+00 9.894150733947753906e+00 3.334111690521240234e+00 -1.471923112869262695e+00
1.801000000000000000e+03 4.766630935668945312e+01 -7.898804664611816406e+00 -1.255993723869323730e+00 7.631763815879821777e-01 -1.478452235460281372e-01 1.564388871192932129e+00
1.802000000000000000e+03 1.173154640197753906e+01 1.578787899017333984e+01 -1.687729172408580780e-02 -4.603661131113767624e-03 -6.444285623729228973e-03 -1.324627175927162170e-02
1.803000000000000000e+03 4.316072082519531250e+01 -6.331312656402587891e+00 -2.194077730178833008e+00 3.723741054534912109e+00 4.588989615440368652e-01 -1.582807898521423340e+00
1.804000000000000000e+03 1.987992477416992188e+01 -2.966082572937011719e+01 -6.292478442192077637e-01 5.185735225677490234e-01 -3.320230171084403992e-02 -1.992579549551010132e-01
1.805000000000000000e+03 4.230426025390625000e+01 -2.421562957763671875e+01 2.056998491287231445e+00 9.356244087219238281e+00 3.423972606658935547e+00 -1.104596734046936035e+00
1.806000000000000000e+03 3.536892700195312500e+01 1.365519046783447266e+01 7.488216161727905273e-01 1.006912899017333984e+01 3.245385169982910156e+00 -1.108048796653747559e+00
1.807000000000000000e+03 2.073211288452148438e+01 2.509991264343261719e+01 -3.037065826356410980e-02 1.259258538484573364e-01 2.866655774414539337e-02 -2.407408803701400757e-01
1.808000000000000000e+03 1.623419570922851562e+01 8.409725189208984375e+00 -1.740611507557332516e-03 6.656472687609493732e-04 -3.224892716389149427e-04 -6.869215285405516624e-04
1.809000000000000000e+03 1.527936172485351562e+01 7.774239063262939453e+00 8.001018431968986988e-04 2.058737212792038918e-03 8.576516993343830109e-04 6.830072961747646332e-04
1.810000000000000000e+03 1.083986759185791016e+01 -2.075857162475585938e+01 5.062955617904663086e-01 1.781130552291870117e+00 6.862277984619140625e-01 4.337923526763916016e-01
1.811000000000000000e+03 1.463906860351562500e+01 8.632489204406738281e+00 -2.380121964961290359e-03 2.099872333928942680e-03 -8.407489076489582658e-05 2.078809542581439018e-03
1.812000000000000000e+03 3.203617477416992188e+01 -3.232839584350585938e+01 -3.025922477245330811e-01 2.770070075988769531e+00 7.402433156967163086e-01 1.294512748718261719e+00
1.813000000000000000e+03 3.024386787414550781e+01 -3.150193214416503906e+01 -3.148808479309082031e-01 1.528959393501281738e+00 3.642235696315765381e-01 1.055864810943603516e+00
1.814000000000000000e+03 3.767400741577148438e+01 -1.381637001037597656e+01 8.921062946319580078e-01 9.235932350158691406e+00 3.038411617279052734e+00 -1.527130007743835449e+00
1.815000000000000000e+03 7.218910980224609375e+01 -1.916101455688476562e+01 3.430795371532440186e-01 7.863496303558349609e+00 2.461972713470458984e+00 3.307263374328613281e+00
1.816000000000000000e+03 6.164839553833007812e+01 -3.384335327148437500e+01 2.047418355941772461e-01 1.664098352193832397e-01 1.113454997539520264e-01 -8.945012837648391724e-02
1.817000000000000000e+03 4.001013946533203125e+01 1.220285224914550781e+01 1.555759310722351074e+00 9.045059204101562500e+00 3.180245637893676758e+00 2.848037242889404297e+00
1.818000000000000000e+03 6.635327148437500000e+01 1.372490882873535156e+01 8.966655731201171875e-01 6.894183635711669922e+00 2.337254762649536133e+00 -3.982425332069396973e-01
1.819000000000000000e+03 4.846395111083984375e+01 -8.549612045288085938e+00 -7.949860692024230957e-01 6.837673783302307129e-01 -3.336560726165771484e-02 1.985112905502319336e+00
1.820000000000000000e+03 5.461710739135742188e+01 -6.403774261474609375e+00 -3.550148606300354004e-01 2.187438488006591797e+00 5.497270822525024414e-01 1.736358523368835449e+00
1.821000000000000000e+03 2.446870231628417969e+01 -6.777218818664550781e+00 -3.638817667961120605e-01 4.898477196693420410e-01 3.778978064656257629e-02 1.293693065643310547e+00
1.822000000000000000e+03 6.467277526855468750e+01 -3.025825119018554688e+01 -8.314836025238037109e-01 6.947623491287231445e-01 -4.101638123393058777e-02 1.231684759259223938e-01
1.823000000000000000e+03 6.352075958251953125e+01 -2.933656692504882812e+01 -1.406566143035888672e+00 -1.526086181402206421e-01 -4.677523970603942871e-01 -4.008290171623229980e-01
1.824000000000000000e+03 6.282088851928710938e+01 4.474953651428222656e+00 1.048802852630615234e+00 4.975094795227050781e+00 1.807169318199157715e+00 9.380182027816772461e-01
1.825000000000000000e+03 3.838171005249023438e+01 -2.019287490844726562e+01 1.542474508285522461e+00 9.157276153564453125e+00 3.209925174713134766e+00 -7.835083603858947754e-01
1.826000000000000000e+03 3.702526855468750000e+01 -2.058337783813476562e+01 1.162185192108154297e+00 9.591782569885253906e+00 3.226190328598022461e+00 -1.510227173566818237e-01
1.827000000000000000e+03 3.769426727294921875e+01 -1.256017589569091797e+01 1.480111628770828247e-01 9.151978492736816406e+00 2.789996862411499023e+00 -1.433832406997680664e+00
1.828000000000000000e+03 4.403287124633789062e+01 -1.943154907226562500e+01 1.980231404304504395e+00 9.759891510009765625e+00 3.522036790847778320e+00 1.082966402173042297e-01
1.829000000000000000e+03 2.039055347442626953e+00 3.664382696151733398e+00 -2.831762249115854502e-04 7.514721364714205265e-04 1.404887734679505229e-04 -9.799166582524776459e-04
1.830000000000000000e+03 2.610559082031250000e+01 -4.296423435211181641e+00 4.757539331912994385e-01 1.114575043320655823e-01 1.761634349822998047e-01 1.786021232604980469e+00
1.831000000000000000e+03 4.610554504394531250e+01 -3.234710311889648438e+01 -7.546446323394775391e-01 6.221744060516357422e+00 1.640129804611206055e+00 -1.426217436790466309e+00
1.832000000000000000e+03 4.788656997680664062e+01 -3.159842872619628906e+01 -2.587094902992248535e-01 4.913442611694335938e+00 1.396419882774353027e+00 -2.045965194702148438e+00
1.833000000000000000e+03 1.736086845397949219e+01 -1.062296867370605469e+01 1.337846040725708008e+00 1.718344449996948242e+00 9.168571233749389648e-01 1.196601390838623047e+00
1.834000000000000000e+03 4.760584640502929688e+01 -1.107406330108642578e+01 -6.711403280496597290e-02 2.404900312423706055e+00 7.013359069824218750e-01 1.745054364204406738e+00
1.835000000000000000e+03 5.003245925903320312e+01 -8.354526519775390625e+00 -9.471226334571838379e-01 6.407680511474609375e-01 -9.190636873245239258e-02 2.544381618499755859e+00
1.836000000000000000e+03 5.203086471557617188e+01 -6.822259426116943359e+00 -8.958190679550170898e-01 2.003147840499877930e+00 3.321986496448516846e-01 2.797839403152465820e+00
1.837000000000000000e+03 6.016791152954101562e+01 -9.569236636161804199e-01 1.485305070877075195e+00 2.411614894866943359e+00 1.169075965881347656e+00 1.406139850616455078e+00
1.838000000000000000e+03 4.056245803833007812e+01 -5.563324451446533203e+00 -2.684719085693359375e+00 7.530548572540283203e+00 1.453748941421508789e+00 -2.042757034301757812e+00
1.839000000000000000e+03 2.558881568908691406e+01 2.653809547424316406e+01 1.732094436883926392e-01 1.614311099052429199e+00 5.362561345100402832e-01 -1.096858978271484375e+00
1.840000000000000000e+03 2.375720596313476562e+01 2.640852355957031250e+01 2.328421771526336670e-01 8.733337521553039551e-01 3.318527638912200928e-01 -7.816759943962097168e-01
1.841000000000000000e+03 3.622496414184570312e+01 -2.642515182495117188e+01 6.760835051536560059e-01 6.031194686889648438e+00 2.012183427810668945e+00 9.904494881629943848e-01
1.842000000000000000e+03 3.690814590454101562e+01 -2.330356025695800781e+01 1.416865229606628418e+00 8.056192398071289062e+00 2.841917276382446289e+00 4.726025462150573730e-01
1.843000000000000000e+03 6.429296112060546875e+01 6.607565879821777344e+00 9.293314814567565918e-01 5.792546272277832031e+00 2.016563415527343750e+00 3.372836410999298096e-01
1.844000000000000000e+03 6.318318176269531250e+01 7.454398155212402344e+00 8.375599980354309082e-01 6.447385787963867188e+00 2.185483694076538086e+00 8.569555282592773438e-01
1.845000000000000000e+03 3.659453201293945312e+01 7.798172950744628906e+00 1.389976143836975098e+00 1.405150508880615234e+01 4.632444381713867188e+00 6.900817155838012695e-01
1.846000000000000000e+03 3.224739456176757812e+01 -1.210197567939758301e+00 2.478644132614135742e+00 6.341844558715820312e+00 2.646146535873413086e+00 2.414424896240234375e+00
1.847000000000000000e+03 3.456898117065429688e+01 -7.932922840118408203e-01 1.282057166099548340e+00 9.930653572082519531e+00 3.363813161849975586e+00 6.732425689697265625e-01
1.848000000000000000e+03 5.920899581909179688e+01 -1.249354362487792969e+00 1.601343154907226562e+00 2.398706436157226562e+00 1.200014948844909668e+00 1.597806334495544434e+00
1.849000000000000000e+03 3.196671485900878906e+01 -2.118083238601684570e+00 1.678560972213745117e+00 5.516758441925048828e+00 2.158595800399780273e+00 1.579546451568603516e+00
1.850000000000000000e+03 3.367615890502929688e+01 -1.359523057937622070e+00 1.048166155815124512e+00 8.891122817993164062e+00 2.981786727905273438e+00 8.574458956718444824e-01
1.851000000000000000e+03 3.148329162597656250e+01 -3.057899665832519531e+01 -3.169246613979339600e-01 2.286473274230957031e+00 5.908645987510681152e-01 1.232899665832519531e+00
1.852000000000000000e+03 2.984517097473144531e+01 -6.812873840332031250e+00 -1.753128170967102051e+00 4.560322687029838562e-02 -5.122575163841247559e-01 5.936289429664611816e-01
1.853000000000000000e+03 4.557609176635742188e+01 -2.950711250305175781e+01 5.071873664855957031e-01 7.165098667144775391e+00 2.301685810089111328e+00 -1.537099242210388184e+00
1.854000000000000000e+03 6.319171142578125000e+01 -1.040185356140136719e+01 -3.229258060455322266e+00 -9.852352142333984375e-01 -1.264348030090332031e+00 3.690942227840423584e-01
1.855000000000000000e+03 2.839494323730468750e+01 -5.683390617370605469e+00 -3.097098171710968018e-01 1.207841336727142334e-01 -5.667770281434059143e-02 1.528329610824584961e+00
1.856000000000000000e+03 6.527707672119140625e+01 1.016561794281005859e+01 7.484154105186462402e-01 6.829964160919189453e+00 2.273514032363891602e+00 -1.822474785149097443e-02
1.857000000000000000e+03 1.093640804290771484e+01 1.815397834777832031e+01 -6.781721860170364380e-02 6.091171409934759140e-03 -1.851781457662582397e-02 -1.047441922128200531e-02
1.858000000000000000e+03 5.097391510009765625e+01 -7.487731933593750000e+00 -7.302417159080505371e-01 1.048711180686950684e+00 9.554082900285720825e-02 2.800253868103027344e+00
1.859000000000000000e+03 5.353752136230468750e+01 -7.595967769622802734e+00 -8.879354596138000488e-01 1.870203018188476562e+00 2.946802675724029541e-01 2.295670509338378906e+00
1.860000000000000000e+03 7.284033203125000000e+01 -1.794463539123535156e+01 1.272228002548217773e+00 1.233897781372070312e+01 4.083362102508544922e+00 5.176041126251220703e+00
1.861000000000000000e+03 7.222186279296875000e+01 -1.827668571472167969e+01 1.665924787521362305e+00 7.648821353912353516e+00 2.794423818588256836e+00 4.487861633300781250e+00
1.862000000000000000e+03 7.111984252929687500e+01 -1.416356945037841797e+01 4.323054850101470947e-01 3.196863174438476562e+00 1.088750600814819336e+00 -2.136986255645751953e+00
1.863000000000000000e+03 7.074970245361328125e+01 -1.395368194580078125e+01 1.074530091136693954e-02 2.823376893997192383e+00 8.502366542816162109e-01 -1.615475296974182129e+00
1.864000000000000000e+03 7.023269653320312500e+01 -1.423384571075439453e+01 -3.540348112583160400e-01 1.610063076019287109e+00 3.768084645271301270e-01 -6.408855319023132324e-01
1.865000000000000000e+03 7.310585021972656250e+01 -1.819733047485351562e+01 1.475543081760406494e-01 1.415832138061523438e+01 4.291762828826904297e+00 3.898288965225219727e+00
1.866000000000000000e+03 7.244443511962890625e+01 -1.405023097991943359e+01 1.082123909145593643e-02 9.202152252197265625e+00 2.763891935348510742e+00 -4.394946098327636719e+00
1.867000000000000000e+03 7.346076965332031250e+01 -1.383270740509033203e+01 -1.505344271659851074e+00 1.421352863311767578e+01 3.812455177307128906e+00 -2.466902494430541992e+00
1.868000000000000000e+03 7.412197875976562500e+01 -1.822669601440429688e+01 -9.243682026863098145e-02 1.683458709716796875e+01 5.022644996643066406e+00 -2.731558680534362793e-01
1.869000000000000000e+03 7.437538909912109375e+01 -1.807211685180664062e+01 6.416907906532287598e-01 1.692820358276367188e+01 5.270968437194824219e+00 -1.343689680099487305e+00
1.870000000000000000e+03 7.381742858886718750e+01 -1.434399509429931641e+01 -1.133914470672607422e+00 1.698202133178710938e+01 4.754431724548339844e+00 -1.151864409446716309e+00
1.871000000000000000e+03 7.594804382324218750e+01 -1.611270904541015625e+01 4.553635120391845703e+00 1.184709358215332031e+01 4.920218467712402344e+00 4.161557853221893311e-01
1.872000000000000000e+03 7.549420166015625000e+01 -1.512423133850097656e+01 3.148180723190307617e+00 1.372779846191406250e+01 5.062793731689453125e+00 2.392666578292846680e+00
1.873000000000000000e+03 7.513148498535156250e+01 -1.502374935150146484e+01 3.021950244903564453e+00 1.499477005004882812e+01 5.405015945434570312e+00 2.645689964294433594e+00
1.874000000000000000e+03 7.492485046386718750e+01 -1.651967430114746094e+01 7.764013767242431641e+00 1.481946372985839844e+01 6.775043487548828125e+00 -9.336940646171569824e-01
1.875000000000000000e+03 7.542217254638671875e+01 -1.635368156433105469e+01 6.122993946075439453e+00 1.315252017974853516e+01 5.782654285430908203e+00 -1.914201080799102783e-01
1.876000000000000000e+03 1.591065311431884766e+01 4.955702304840087891e+00 1.321443472988903522e-03 2.063148887827992439e-03 1.015377696603536606e-03 6.452294765040278435e-04
1.877000000000000000e+03 1.473269081115722656e+01 4.068959712982177734e+00 3.249134169891476631e-04 -1.598113682121038437e-03 -3.819600678980350494e-04 6.372959469445049763e-04
1.878000000000000000e+03 8.382928848266601562e+00 -4.020658016204833984e+00 -4.738124608993530273e-01 7.421968132257461548e-02 -1.198778301477432251e-01 -5.202623605728149414e-01
1.879000000000000000e+03 9.134391784667968750e+00 -4.040697574615478516e+00 -5.114929676055908203e-01 1.089470311999320984e-01 -1.207637861371040344e-01 -4.878258407115936279e-01
1.880000000000000000e+03 1.327982997894287109e+01 4.846338272094726562e+00 5.922109121456742287e-04 2.518685534596443176e-03 9.332689223811030388e-04 -7.935581961646676064e-04
1.881000000000000000e+03 5.459631919860839844e+00 -4.628067016601562500e+00 -2.221636921167373657e-01 -1.224073395133018494e-01 -1.033713072538375854e-01 -5.602344870567321777e-01
1.882000000000000000e+03 7.027947902679443359e+00 -4.784010887145996094e+00 -2.869588434696197510e-01 -2.241035923361778259e-03 -8.675996214151382446e-02 -5.934002399444580078e-01
1.883000000000000000e+03 6.225987434387207031e+00 -3.288385391235351562e+00 -4.143455624580383301e-01 -3.554200008511543274e-02 -1.349662691354751587e-01 -4.848198294639587402e-01
1.884000000000000000e+03 6.267036437988281250e+00 -4.035801410675048828e+00 -3.386879265308380127e-01 -5.119143426418304443e-02 -1.169638112187385559e-01 -5.378915071487426758e-01
1.885000000000000000e+03 5.136609554290771484e+00 -5.330708026885986328e+00 -1.563021093606948853e-01 -1.753192692995071411e-01 -9.948641061782836914e-02 -5.752955079078674316e-01
1.886000000000000000e+03 5.599735260009765625e+00 -3.994766950607299805e+00 -3.006043434143066406e-01 -7.412782311439514160e-02 -1.124196499586105347e-01 -5.285348296165466309e-01
1.887000000000000000e+03 1.608442878723144531e+01 4.237575531005859375e+00 -1.310494146309792995e-03 -4.883001092821359634e-04 -5.396382766775786877e-04 -3.355359658598899841e-04
1.888000000000000000e+03 1.174882125854492188e+01 4.127384185791015625e+00 -1.191362156532704830e-03 -7.273680530488491058e-04 -5.756190512329339981e-04 1.367680262774229050e-03
1.889000000000000000e+03 1.767096900939941406e+01 4.141532897949218750e+00 -1.128101757785771042e-05 1.015124376863241196e-03 3.011529915966093540e-04 6.915076519362628460e-04
1.890000000000000000e+03 1.470499992370605469e+01 3.365105867385864258e+00 5.987436161376535892e-04 1.809743698686361313e-03 7.225461886264383793e-04 2.671662950888276100e-04
1.891000000000000000e+03 1.324180030822753906e+01 4.105607986450195312e+00 -5.455951904878020287e-04 -1.396024948917329311e-03 -5.824860418215394020e-04 2.016443526372313499e-03
1.892000000000000000e+03 1.536266422271728516e+01 4.062999248504638672e+00 5.079908878542482853e-04 2.030475065112113953e-03 7.615397335030138493e-04 1.284761470742523670e-03
1.893000000000000000e+03 1.176792907714843750e+01 3.346552133560180664e+00 2.155999187380075455e-03 4.375744319986552000e-04 7.780721061863005161e-04 3.439402207732200623e-04
1.894000000000000000e+03 1.100109004974365234e+01 4.104111671447753906e+00 2.496085828170180321e-03 1.169154566014185548e-04 7.839003810659050941e-04 6.990220281295478344e-04
1.895000000000000000e+03 2.834809875488281250e+01 -3.543794631958007812e+00 1.387631535530090332e+00 6.652905941009521484e-01 6.158766150474548340e-01 1.630653500556945801e+00
1.896000000000000000e+03 1.026227760314941406e+01 4.070919036865234375e+00 -3.712793404702097178e-04 -1.277669332921504974e-03 -4.946846165694296360e-04 5.634507979266345501e-04
1.897000000000000000e+03 7.002346038818359375e+01 -1.347633552551269531e+01 -8.075802326202392578e-01 2.317518711090087891e+00 4.529815316200256348e-01 -1.058967828750610352e+00
1.898000000000000000e+03 6.832261657714843750e+01 -1.334261035919189453e+01 -2.195036411285400391e+00 1.991213858127593994e-01 -5.987745523452758789e-01 2.072449326515197754e-01
1.899000000000000000e+03 1.249642753601074219e+01 4.126689434051513672e+00 2.171013969928026199e-03 7.723691524006426334e-04 8.830149308778345585e-04 -7.921587530290707946e-05
1.900000000000000000e+03 3.495253324508666992e+00 3.776378870010375977e+00 -4.875639278907328844e-04 -1.317191345151513815e-04 -1.857849274529144168e-04 -8.596661500632762909e-04
1.901000000000000000e+03 3.500777482986450195e+00 4.638216972351074219e+00 1.731881871819496155e-03 4.420982440933585167e-04 6.521940231323242188e-04 -9.815854718908667564e-04
1.902000000000000000e+03 1.143572616577148438e+01 -3.991116523742675781e+00 -6.148182749748229980e-01 2.531078159809112549e-01 -1.085131466388702393e-01 -2.960599064826965332e-01
1.903000000000000000e+03 9.901620864868164062e+00 -4.040756225585937500e+00 -5.469691753387451172e-01 1.616991013288497925e-01 -1.155810207128524780e-01 -4.417706429958343506e-01
1.904000000000000000e+03 1.374169158935546875e+01 -4.783538818359375000e+00 -4.521263241767883301e-01 5.016362667083740234e-01 1.485299225896596909e-02 4.218854755163192749e-02
1.905000000000000000e+03 9.530424118041992188e+00 4.044479846954345703e+00 2.086265245452523232e-03 1.875809684861451387e-04 6.821539136581122875e-04 4.430167900864034891e-04
1.906000000000000000e+03 1.067160892486572266e+01 -4.017642498016357422e+00 -5.835345983505249023e-01 2.006975710391998291e-01 -1.148511096835136414e-01 -3.768363296985626221e-01
1.907000000000000000e+03 1.367469024658203125e+01 -3.269600391387939453e+00 -7.945551872253417969e-01 2.477412372827529907e-01 -1.640441864728927612e-01 5.354629829525947571e-03
1.908000000000000000e+03 1.373718357086181641e+01 -4.020367622375488281e+00 -6.139934659004211426e-01 3.669391274452209473e-01 -7.411630451679229736e-02 3.467803075909614563e-02
1.909000000000000000e+03 6.705500125885009766e+00 5.095679283142089844e+00 3.752962220460176468e-04 -2.354309195652604103e-03 -5.937039386481046677e-04 -2.435690548736602068e-04
1.910000000000000000e+03 7.338149070739746094e+00 4.170483112335205078e+00 3.513410338200628757e-04 -1.798375626094639301e-03 -4.341104067862033844e-04 6.263955583563074470e-05
1.911000000000000000e+03 4.255317687988281250e+00 4.627596855163574219e+00 -1.080359681509435177e-03 -8.727345993975177407e-05 -3.502899489831179380e-04 -9.156904998235404491e-04
1.912000000000000000e+03 5.758999824523925781e+00 3.549420118331909180e+00 2.022136701270937920e-03 1.496197510277852416e-04 6.515269633382558823e-04 -1.343834446743130684e-03
1.913000000000000000e+03 4.245753288269042969e+00 3.708822011947631836e+00 2.062056446447968483e-03 1.474058954045176506e-04 6.628386909142136574e-04 -1.163707929663360119e-03
1.914000000000000000e+03 1.861987686157226562e+01 -3.825930118560791016e+00 -3.251723945140838623e-01 4.352642297744750977e-01 3.302755206823348999e-02 8.187235593795776367e-01
1.915000000000000000e+03 8.801789283752441406e+00 4.048130035400390625e+00 2.838116488419473171e-04 -1.758359605446457863e-03 -4.423643986228853464e-04 3.721790271811187267e-04
1.916000000000000000e+03 1.684995651245117188e+01 -3.178448915481567383e+00 -6.253330707550048828e-01 3.291004300117492676e-01 -8.886980265378952026e-02 4.886619746685028076e-01
1.917000000000000000e+03 1.219079780578613281e+01 -3.979418992996215820e+00 -6.267511248588562012e-01 2.853224277496337891e-01 -1.024286076426506042e-01 -1.997494101524353027e-01
1.918000000000000000e+03 1.454386615753173828e+01 -4.035859107971191406e+00 -5.893282890319824219e-01 3.900952339172363281e-01 -5.976991727948188782e-02 1.619972437620162964e-01
1.919000000000000000e+03 1.534619998931884766e+01 -4.003267765045166016e+00 -5.629988312721252441e-01 4.279222190380096436e-01 -4.052297770977020264e-02 2.890774905681610107e-01
1.920000000000000000e+03 1.696565818786621094e+01 -3.927492856979370117e+00 -4.635345935821533203e-01 4.324921369552612305e-01 -9.312742389738559723e-03 5.762650966644287109e-01
1.921000000000000000e+03 2.357601547241210938e+01 -3.155343294143676758e+00 4.320714771747589111e-01 8.847293257713317871e-02 1.561633199453353882e-01 1.216924309730529785e+00
1.922000000000000000e+03 6.836229705810546875e+01 -1.264667606353759766e+01 -2.505498170852661133e+00 1.150173187255859375e+00 -4.065974652767181396e-01 -2.660015970468521118e-02
1.923000000000000000e+03 2.385554695129394531e+01 -4.527687549591064453e+00 2.415934950113296509e-01 2.793407142162322998e-01 1.562802642583847046e-01 1.491988897323608398e+00
1.924000000000000000e+03 2.415469360351562500e+01 -2.113870620727539062e+00 7.014445662498474121e-01 -5.806961655616760254e-02 1.930124759674072266e-01 1.000879406929016113e+00
1.925000000000000000e+03 2.086251068115234375e+01 -2.829900979995727539e+00 -1.090510785579681396e-01 2.809313833713531494e-01 5.156409367918968201e-02 9.230132699012756348e-01
1.926000000000000000e+03 2.290993881225585938e+01 -4.388816833496093750e+00 1.410983204841613770e-01 2.872995138168334961e-01 1.285193413496017456e-01 1.313635587692260742e+00
1.927000000000000000e+03 5.840865325927734375e+01 -1.982580423355102539e+00 1.634948849678039551e+00 2.279645204544067383e+00 1.174378275871276855e+00 1.707164883613586426e+00
1.928000000000000000e+03 2.021260261535644531e+01 -3.760830879211425781e+00 -1.563257724046707153e-01 3.862724900245666504e-01 6.898400932550430298e-02 9.979994297027587891e-01
1.929000000000000000e+03 4.038367843627929688e+01 -2.045179367065429688e+01 1.897567749023437500e+00 8.972528457641601562e+00 3.261028766632080078e+00 -1.085371136665344238e+00
1.930000000000000000e+03 4.185401153564453125e+01 -5.929105281829833984e+00 -2.756595373153686523e+00 5.769284725189208984e+00 9.038068056106567383e-01 -1.950953245162963867e+00
1.931000000000000000e+03 1.274230098724365234e+01 -1.224078845977783203e+01 1.058446764945983887e+00 1.862135171890258789e+00 8.761745691299438477e-01 1.992763876914978027e-01
1.932000000000000000e+03 1.107608604431152344e+01 -1.396500778198242188e+01 1.008930206298828125e+00 1.536301493644714355e+00 7.635694742202758789e-01 9.409423917531967163e-02
1.933000000000000000e+03 7.820424652099609375e+01 -3.460148239135742188e+01 -4.233826696872711182e-02 1.022990703582763672e+01 3.056270599365234375e+00 2.579983472824096680e-01
1.934000000000000000e+03 1.474825572967529297e+01 5.197094440460205078e+00 1.099197659641504288e-03 1.550843357108533382e-03 7.950122817419469357e-04 3.074815031141042709e-04
1.935000000000000000e+03 1.688044548034667969e+01 5.220988273620605469e+00 -2.185325138270854950e-03 -6.504025077447295189e-04 -8.507182938046753407e-04 -1.068538695108145475e-04
1.936000000000000000e+03 1.577375507354736328e+01 -2.890154457092285156e+01 -4.393988847732543945e-01 1.084400415420532227e+00 1.935004591941833496e-01 -1.681402921676635742e-01
1.937000000000000000e+03 3.664293670654296875e+01 1.194476985931396484e+01 9.325278997421264648e-01 1.094880485534667969e+01 3.564399719238281250e+00 -2.100205570459365845e-01
1.938000000000000000e+03 1.195318222045898438e+01 9.631178855895996094e+00 -4.551469348371028900e-03 -1.258180476725101471e-03 -1.742894994094967842e-03 2.694019349291920662e-03
1.939000000000000000e+03 1.374765968322753906e+01 8.369578361511230469e+00 2.725533908233046532e-03 2.879227977246046066e-03 1.681428635492920876e-03 -6.425857427529990673e-04
1.940000000000000000e+03 7.594831085205078125e+01 -2.758693504333496094e+01 -4.029519557952880859e-01 9.440579414367675781e+00 2.711288213729858398e+00 1.034414470195770264e-01
1.941000000000000000e+03 5.163251113891601562e+01 2.427216529846191406e+01 2.902850508689880371e-02 9.770720005035400391e-01 3.018301725387573242e-01 7.568067908287048340e-01
1.942000000000000000e+03 6.392950057983398438e+01 -9.594136238098144531e+00 -2.731922149658203125e+00 -1.248861789703369141e+00 -1.194235205650329590e+00 -4.175086971372365952e-03
1.943000000000000000e+03 6.225537490844726562e+01 -9.491723060607910156e+00 -2.694240093231201172e+00 -1.007639840245246887e-01 -8.385012149810791016e-01 6.426239609718322754e-01
1.944000000000000000e+03 7.738881683349609375e+01 -1.504570198059082031e+01 1.346545815467834473e+00 9.443867683410644531e+00 3.237123966217041016e+00 1.553799867630004883e+00
1.945000000000000000e+03 7.805245208740234375e+01 -1.562268733978271484e+01 9.615911841392517090e-01 7.889263629913330078e+00 2.655256509780883789e+00 7.283568978309631348e-01
1.946000000000000000e+03 7.742263031005859375e+01 -1.609148788452148438e+01 1.975161194801330566e+00 9.028536796569824219e+00 3.301109552383422852e+00 2.438777685165405273e-01
1.947000000000000000e+03 7.716354370117187500e+01 -1.759967231750488281e+01 1.774409532546997070e+00 9.942313194274902344e+00 3.515016794204711914e+00 -1.696054577827453613e+00
1.948000000000000000e+03 7.692051696777343750e+01 -1.821821975708007812e+01 1.172139048576354980e+00 1.066300201416015625e+01 3.550542354583740234e+00 -2.201085329055786133e+00
1.949000000000000000e+03 4.015683650970458984e+00 9.373048782348632812e+00 -2.227069111540913582e-03 -8.608193020336329937e-04 -9.263665415346622467e-04 -1.431574113667011261e-03
1.950000000000000000e+03 6.990773010253906250e+01 -2.046888160705566406e+01 1.908634305000305176e-01 2.876584053039550781e+00 9.202342629432678223e-01 1.470959067344665527e+00
1.951000000000000000e+03 7.072140502929687500e+01 -2.074969100952148438e+01 9.111203253269195557e-02 4.352029800415039062e+00 1.332942605018615723e+00 1.864816308021545410e+00
1.952000000000000000e+03 3.819736242294311523e+00 -2.506699943542480469e+01 -4.739019554108381271e-03 -3.541862666606903076e-01 -1.076775789260864258e-01 4.478740394115447998e-01
1.953000000000000000e+03 5.647139072418212891e+00 -2.290065383911132812e+01 1.099807098507881165e-01 3.545376239344477654e-03 3.405782580375671387e-02 5.326745510101318359e-01
1.954000000000000000e+03 7.760067749023437500e+01 -1.430978965759277344e+01 7.820639610290527344e-01 9.444313049316406250e+00 3.067913055419921875e+00 1.856654405593872070e+00
1.955000000000000000e+03 4.307872009277343750e+01 -1.749657249450683594e+01 1.931529998779296875e+00 8.851376533508300781e+00 3.234872102737426758e+00 -3.115570247173309326e-01
1.956000000000000000e+03 4.304466247558593750e+01 -1.914313507080078125e+01 1.824962854385375977e+00 9.705372810363769531e+00 3.459100723266601562e+00 -2.837238311767578125e-01
1.957000000000000000e+03 5.061943054199218750e+01 -1.065909481048583984e+01 -4.771088659763336182e-01 1.168728470802307129e+00 2.074858695268630981e-01 2.370171546936035156e+00
1.958000000000000000e+03 6.147394943237304688e+01 -1.013510513305664062e+01 -3.031442403793334961e+00 2.959149144589900970e-02 -9.005552530288696289e-01 4.867866635322570801e-01
1.959000000000000000e+03 5.573231887817382812e+01 -1.066987991333007812e+01 -1.822475790977478027e+00 1.062300920486450195e+00 -2.280524522066116333e-01 1.250635504722595215e+00
1.960000000000000000e+03 5.209531021118164062e+01 -9.645594596862792969e+00 -8.614857196807861328e-01 1.293802499771118164e+00 1.296950280666351318e-01 2.374703884124755859e+00
1.961000000000000000e+03 1.769433403015136719e+01 2.331919288635253906e+01 -3.978311717510223389e-01 -7.599665783345699310e-03 -1.216292530298233032e-01 -2.704269438982009888e-02
1.962000000000000000e+03 7.619970703125000000e+01 -9.850389480590820312e+00 -1.292952895164489746e+00 1.015568637847900391e+01 2.658820152282714844e+00 2.544035911560058594e-01
1.963000000000000000e+03 4.635855102539062500e+01 -8.356756210327148438e+00 -1.102110981941223145e+00 1.637559652328491211e+00 1.606346070766448975e-01 7.615679502487182617e-01
1.964000000000000000e+03 6.916592407226562500e+01 -2.508389854431152344e+01 -6.593966484069824219e-01 3.347351312637329102e+00 8.063864111900329590e-01 5.392786860466003418e-01
1.965000000000000000e+03 7.291967773437500000e+01 1.609552764892578125e+01 4.367530345916748047e-01 5.738040447235107422e+00 1.852438092231750488e+00 -1.073705181479454041e-01
1.966000000000000000e+03 7.167193603515625000e+01 -2.409746932983398438e+01 -9.339164495468139648e-01 6.232048034667968750e+00 1.589439511299133301e+00 8.547936081886291504e-01
1.967000000000000000e+03 7.099536132812500000e+01 -2.303452682495117188e+01 -6.497760415077209473e-01 5.333523750305175781e+00 1.405124306678771973e+00 1.164569497108459473e+00
1.968000000000000000e+03 6.881859588623046875e+01 -1.100152397155761719e+01 -2.089360952377319336e+00 2.537067174911499023e+00 1.343118548393249512e-01 -1.936566352844238281e+00
1.969000000000000000e+03 1.057947731018066406e+01 1.535893058776855469e+01 -2.260957472026348114e-02 -4.248828627169132233e-03 -8.057521656155586243e-03 -4.995240829885005951e-03
1.970000000000000000e+03 4.511914730072021484e+00 -2.117675590515136719e+01 1.387370824813842773e-01 -4.334310889244079590e-01 -8.840820193290710449e-02 3.945021331310272217e-01
1.971000000000000000e+03 3.492060184478759766e+00 -6.449172496795654297e+00 -4.079084098339080811e-02 -4.013164341449737549e-01 -1.326321810483932495e-01 -5.062832236289978027e-01
1.972000000000000000e+03 7.614398193359375000e+01 -2.190997505187988281e+01 -1.105055332183837891e+00 1.086520290374755859e+01 2.928044319152832031e+00 -1.199700117111206055e+00
1.973000000000000000e+03 4.512916088104248047e+00 2.052912521362304688e+01 -3.538157790899276733e-02 -1.042405888438224792e-02 -1.374169066548347473e-02 4.073606431484222412e-02
1.974000000000000000e+03 4.226004600524902344e+00 5.599832534790039062e+00 3.245247295126318932e-03 -1.989017328014597297e-04 9.139036410488188267e-04 -2.003919798880815506e-03
1.975000000000000000e+03 2.958580017089843750e+01 -2.704314231872558594e+00 1.875779986381530762e+00 1.630480527877807617e+00 1.051878213882446289e+00 1.520027518272399902e+00
1.976000000000000000e+03 7.420360565185546875e+01 5.393816471099853516e+00 3.076663017272949219e-01 6.107685565948486328e+00 1.924605607986450195e+00 -1.059407949447631836e+00
1.977000000000000000e+03 7.555465698242187500e+01 6.843592643737792969e+00 2.025894522666931152e-01 6.110458374023437500e+00 1.893914222717285156e+00 -8.298111557960510254e-01
1.978000000000000000e+03 3.733876800537109375e+01 6.996264934539794922e+00 1.667743206024169922e+00 1.448089027404785156e+01 4.844590187072753906e+00 1.402853012084960938e+00
1.979000000000000000e+03 3.629217910766601562e+01 9.374981880187988281e+00 1.320216178894042969e+00 1.275799369812011719e+01 4.223463058471679688e+00 -8.138713985681533813e-02
1.980000000000000000e+03 3.722430038452148438e+01 8.568915367126464844e+00 1.685786128044128418e+00 1.377970123291015625e+01 4.639646053314208984e+00 9.472315311431884766e-01
1.981000000000000000e+03 3.662566375732421875e+01 2.373765230178833008e+00 2.378925800323486328e+00 1.329115486145019531e+01 4.701024055480957031e+00 -2.014970779418945312e-01
1.982000000000000000e+03 6.556696319580078125e+01 -9.299108505249023438e+00 -2.055439710617065430e+00 -2.997017279267311096e-02 -6.256229877471923828e-01 -1.158266663551330566e+00
1.983000000000000000e+03 2.470073890686035156e+01 -7.763409614562988281e+00 -4.243442416191101074e-01 5.253880023956298828e-01 3.031311929225921631e-02 1.071319937705993652e+00
1.984000000000000000e+03 2.210785675048828125e+01 -5.388032436370849609e+00 3.329500183463096619e-02 4.437355101108551025e-01 1.431091576814651489e-01 1.307013392448425293e+00
1.985000000000000000e+03 5.550846576690673828e+00 -1.280419921875000000e+01 3.200861215591430664e-01 -3.112523853778839111e-01 2.650125417858362198e-03 -3.662172555923461914e-01
1.986000000000000000e+03 3.186613845825195312e+01 -5.568586349487304688e+00 -1.253610372543334961e+00 3.994173526763916016e+00 8.221689462661743164e-01 -3.453230261802673340e-01
1.987000000000000000e+03 3.183848571777343750e+01 -3.155724048614501953e+00 6.254532933235168457e-01 4.845189094543457031e+00 1.641192793846130371e+00 9.929865598678588867e-01
1.988000000000000000e+03 5.794276428222656250e+01 -7.717074394226074219e+00 -9.553286433219909668e-01 1.390582442283630371e+00 1.305761337280273438e-01 1.343630194664001465e+00
1.989000000000000000e+03 5.627162170410156250e+01 -5.968373775482177734e+00 -7.185595482587814331e-02 2.053097963333129883e+00 5.943726301193237305e-01 1.562435626983642578e+00
1.990000000000000000e+03 4.410623168945312500e+01 -1.505821514129638672e+01 9.161616563796997070e-01 6.848876953125000000e+00 2.329511642456054688e+00 1.028673872351646423e-01
1.991000000000000000e+03 4.217297744750976562e+01 -1.645096778869628906e+01 1.376476049423217773e+00 8.091485977172851562e+00 2.840388536453247070e+00 -9.901542067527770996e-01
1.992000000000000000e+03 1.323061370849609375e+01 -2.221998214721679688e+01 3.208877444267272949e-01 2.497239112854003906e+00 8.454380631446838379e-01 1.475690007209777832e-01
1.993000000000000000e+03 4.060948371887207031e+00 1.337594127655029297e+01 9.016993572004139423e-04 -1.772816176526248455e-03 -2.613350516185164452e-04 -2.404678612947463989e-03
1.994000000000000000e+03 7.424057769775390625e+01 1.502552127838134766e+01 3.396293222904205322e-01 5.657513141632080078e+00 1.799142837524414062e+00 -1.929411739110946655e-01
1.995000000000000000e+03 7.318767547607421875e+01 1.037492036819458008e+00 2.627390921115875244e-01 6.143318653106689453e+00 1.921817302703857422e+00 -1.468490719795227051e+00
1.996000000000000000e+03 7.441906738281250000e+01 9.566710472106933594e+00 3.161559998989105225e-01 5.870713233947753906e+00 1.856060862541198730e+00 -6.776518225669860840e-01
1.997000000000000000e+03 7.484004974365234375e+01 2.304819488525390625e+01 2.239630185067653656e-02 5.598161697387695312e+00 1.686167478561401367e+00 2.796262204647064209e-01
1.998000000000000000e+03 7.530581665039062500e+01 -7.681743144989013672e+00 -1.024193644523620605e+00 8.895517349243164062e+00 2.361397027969360352e+00 -8.017299175262451172e-01
1.999000000000000000e+03 3.988113021850585938e+01 1.687275695800781250e+01 5.263921618461608887e-01 6.465151786804199219e+00 2.097463369369506836e+00 1.450097799301147461e+00
2.000000000000000000e+03 3.926662063598632812e+01 1.580108928680419922e+01 6.553574204444885254e-01 7.219834327697753906e+00 2.362557649612426758e+00 1.358557343482971191e+00
2.001000000000000000e+03 1.359593009948730469e+01 7.469500541687011719e+00 -2.506853546947240829e-03 -4.858393513131886721e-04 -8.978078840300440788e-04 3.091294318437576294e-03
2.002000000000000000e+03 1.511521148681640625e+01 6.376648902893066406e+00 9.701841627247631550e-04 1.374021056108176708e-03 7.032615831121802330e-04 2.539206179790198803e-04
2.003000000000000000e+03 3.767859649658203125e+01 4.320919036865234375e+00 1.308431982994079590e+00 1.502687549591064453e+01 4.900592327117919922e+00 3.231694400310516357e-01
2.004000000000000000e+03 7.608519744873046875e+01 -3.038849258422851562e+01 -1.436159610748291016e-01 9.131443977355957031e+00 2.696348428726196289e+00 3.552201390266418457e-01
2.005000000000000000e+03 7.364993286132812500e+01 -3.198609924316406250e+01 -1.331131756305694580e-01 7.288393974304199219e+00 2.146584272384643555e+00 5.474261641502380371e-01
2.006000000000000000e+03 1.488828372955322266e+01 -1.033325386047363281e+01 8.329932093620300293e-01 1.812381982803344727e+00 7.936125397682189941e-01 5.104272365570068359e-01
2.007000000000000000e+03 3.589225530624389648e+00 3.341291427612304688e+01 1.912214607000350952e-02 -2.234643250703811646e-01 -6.130265444517135620e-02 8.631226420402526855e-02
2.008000000000000000e+03 6.807843780517578125e+01 -2.635762786865234375e+01 -7.882964611053466797e-01 2.537563562393188477e+00 5.247801542282104492e-01 3.516262769699096680e-01
2.009000000000000000e+03 4.444076156616210938e+01 -6.724294662475585938e+00 -2.000682592391967773e+00 2.001621246337890625e+00 2.816545020323246717e-04 -5.935860276222229004e-01
2.010000000000000000e+03 2.726994705200195312e+01 -5.662512302398681641e+00 -4.112856686115264893e-01 7.670675218105316162e-02 -1.003736704587936401e-01 1.976836681365966797e+00
2.011000000000000000e+03 5.257614135742187500e+01 -8.036191940307617188e+00 -9.640763401985168457e-01 1.738706350326538086e+00 2.323890030384063721e-01 2.396228313446044922e+00
2.012000000000000000e+03 4.343902206420898438e+01 -2.461748123168945312e+01 2.313255786895751953e+00 9.842397689819335938e+00 3.646695852279663086e+00 -1.503840446472167969e+00
2.013000000000000000e+03 4.423609924316406250e+01 -2.371887207031250000e+01 2.088999986648559570e+00 1.126011657714843750e+01 4.004734992980957031e+00 -1.989862084388732910e+00
2.014000000000000000e+03 3.805804824829101562e+01 -1.012061023712158203e+01 -1.605299234390258789e+00 8.872816085815429688e+00 2.180254936218261719e+00 -1.157467246055603027e+00
2.015000000000000000e+03 6.509328460693359375e+01 1.134618949890136719e+01 7.428181171417236328e-01 7.076624393463134766e+00 2.345832824707031250e+00 -5.794627591967582703e-02
2.016000000000000000e+03 7.544014739990234375e+01 -2.212928199768066406e+01 -1.285416483879089355e+00 1.071987819671630859e+01 2.830338478088378906e+00 -7.572685480117797852e-01
2.017000000000000000e+03 1.664662742614746094e+01 -9.745369911193847656e+00 7.449659109115600586e-01 1.603462457656860352e+00 7.045285105705261230e-01 8.263731598854064941e-01
2.018000000000000000e+03 6.579880523681640625e+01 1.980867195129394531e+01 7.960019111633300781e-01 6.456556320190429688e+00 2.175767421722412109e+00 -7.451888173818588257e-02
2.019000000000000000e+03 2.246981620788574219e+01 -7.304059982299804688e+00 6.533367186784744263e-02 5.322505235671997070e-01 1.792752444744110107e-01 1.189020276069641113e+00
2.020000000000000000e+03 1.812780189514160156e+01 -2.757881546020507812e+01 -2.412381470203399658e-01 7.046009302139282227e-01 1.390088498592376709e-01 -2.489800602197647095e-01
2.021000000000000000e+03 6.615744781494140625e+01 5.057508468627929688e+00 8.997630476951599121e-01 5.268709659576416016e+00 1.850541830062866211e+00 -2.960406839847564697e-01
2.022000000000000000e+03 3.924753570556640625e+01 -5.273734569549560547e+00 -2.898877382278442383e+00 9.067050933837890625e+00 1.850452184677124023e+00 -1.859077930450439453e+00
2.023000000000000000e+03 4.092051696777343750e+01 -4.253235816955566406e+00 -2.725693941116333008e+00 7.679689884185791016e+00 1.486198902130126953e+00 -2.258126258850097656e+00
2.024000000000000000e+03 4.399444580078125000e+01 -3.145324897766113281e+01 -5.842046737670898438e-01 6.894230842590332031e+00 1.893007874488830566e+00 -7.523995637893676758e-01
2.025000000000000000e+03 4.546927642822265625e+01 -3.109763526916503906e+01 -1.902675032615661621e-01 6.817235469818115234e+00 1.988090395927429199e+00 -1.505092024803161621e+00
2.026000000000000000e+03 5.873091888427734375e+01 -1.002621746063232422e+01 -2.153460025787353516e+00 8.726146221160888672e-01 -3.842536509037017822e-01 8.685566782951354980e-01
2.027000000000000000e+03 3.553222656250000000e+01 1.218660163879394531e+01 8.326032161712646484e-01 1.109898090362548828e+01 3.579475164413452148e+00 -8.745589256286621094e-01
2.028000000000000000e+03 3.537813949584960938e+01 1.020280551910400391e+01 9.714699387550354004e-01 1.240876293182373047e+01 4.014070034027099609e+00 -7.833293080329895020e-01
2.029000000000000000e+03 3.037690544128417969e+01 -5.284696102142333984e+00 -2.367640882730484009e-01 1.699688315391540527e+00 4.388772547245025635e-01 7.896179556846618652e-01
2.030000000000000000e+03 6.182030868530273438e+01 2.256738185882568359e+00 1.183561444282531738e+00 3.944147825241088867e+00 1.538312792778015137e+00 1.183131456375122070e+00
2.031000000000000000e+03 4.945972061157226562e+01 2.696658515930175781e+01 2.764609754085540771e-01 1.886946201324462891e+00 6.490221619606018066e-01 1.050118684768676758e+00
2.032000000000000000e+03 6.227384185791015625e+01 3.362603902816772461e+00 1.137641072273254395e+00 4.407767772674560547e+00 1.663622736930847168e+00 1.055083394050598145e+00
2.033000000000000000e+03 6.309938812255859375e+01 1.946196317672729492e+00 1.140840411186218262e+00 3.956897020339965820e+00 1.529321312904357910e+00 5.989157557487487793e-01
2.034000000000000000e+03 4.410404205322265625e+01 -7.990672588348388672e+00 -1.440218925476074219e+00 3.361394882202148438e+00 5.763528347015380859e-01 -7.228716015815734863e-01
2.035000000000000000e+03 4.534214019775390625e+01 -8.255408287048339844e+00 -1.184321761131286621e+00 2.255172014236450195e+00 3.212550878524780273e-01 1.402918845415115356e-01
2.036000000000000000e+03 6.559420776367187500e+01 9.103991508483886719e+00 7.932783961296081543e-01 6.506540775299072266e+00 2.189945697784423828e+00 -3.667644038796424866e-02
2.037000000000000000e+03 3.685040283203125000e+01 -3.280728912353515625e+01 -7.180275321006774902e-01 5.246065139770507812e+00 1.358411312103271484e+00 9.179155230522155762e-01
2.038000000000000000e+03 3.446290588378906250e+01 -2.873294067382812500e+01 -8.205607882700860500e-04 4.614387989044189453e+00 1.384070277214050293e+00 1.356795787811279297e+00
2.039000000000000000e+03 3.640256500244140625e+01 -4.871599197387695312e+00 -2.369830608367919922e+00 9.439412117004394531e+00 2.120874404907226562e+00 -1.044281601905822754e+00
2.040000000000000000e+03 3.713027191162109375e+01 -2.128627061843872070e+00 -2.256704270839691162e-01 1.043212795257568359e+01 3.061937332153320312e+00 -1.018954634666442871e+00
2.041000000000000000e+03 5.755002212524414062e+01 -1.061661434173583984e+01 -2.324423551559448242e+00 1.027285456657409668e+00 -3.891413807868957520e-01 8.362353444099426270e-01
2.042000000000000000e+03 6.764415740966796875e+01 -1.131496429443359375e+01 -2.951650619506835938e+00 1.131438493728637695e+00 -5.460636615753173828e-01 -1.326833963394165039e+00
2.043000000000000000e+03 6.655999755859375000e+01 -9.471087455749511719e+00 -2.216783285140991211e+00 5.285513401031494141e-01 -5.064695477485656738e-01 -1.464294552803039551e+00
2.044000000000000000e+03 4.200703430175781250e+01 1.930806732177734375e+01 3.906752169132232666e-01 4.531825542449951172e+00 1.476750254631042480e+00 1.701677799224853516e+00
2.045000000000000000e+03 2.379061317443847656e+01 -3.250011444091796875e+01 -4.013686478137969971e-01 2.032827585935592651e-01 -5.942576378583908081e-02 -1.110390871763229370e-01
2.046000000000000000e+03 2.268515396118164062e+01 -3.345412445068359375e+01 -2.939885258674621582e-01 3.034767508506774902e-01 2.846464980393648148e-03 -1.874347627162933350e-01
2.047000000000000000e+03 4.769580841064453125e+00 3.765987014770507812e+01 3.663932532072067261e-02 -2.262070626020431519e-01 -5.687031894922256470e-02 7.712043076753616333e-02
2.048000000000000000e+03 3.900483703613281250e+01 -1.646222496032714844e+01 1.350547194480895996e+00 9.019839286804199219e+00 3.111115932464599609e+00 -1.629255652427673340e+00
2.049000000000000000e+03 3.894050598144531250e+01 -1.395368289947509766e+01 6.790150403976440430e-01 8.679150581359863281e+00 2.807449579238891602e+00 -1.498634219169616699e+00
2.050000000000000000e+03 7.529355621337890625e+01 -3.744303131103515625e+01 8.953332155942916870e-02 8.371161460876464844e+00 2.538208484649658203e+00 1.468513160943984985e-01
2.051000000000000000e+03 4.378253173828125000e+01 -1.359239673614501953e+01 2.826487421989440918e-01 6.344160079956054688e+00 1.988042593002319336e+00 -1.052692439407110214e-02
2.052000000000000000e+03 4.593523406982421875e+01 -1.511910152435302734e+01 9.729207754135131836e-01 6.050083637237548828e+00 2.106901407241821289e+00 1.459060192108154297e+00
2.053000000000000000e+03 3.861271667480468750e+01 1.479491710662841797e+01 6.733847856521606445e-01 8.389133453369140625e+00 2.718755483627319336e+00 1.016896128654479980e+00
2.054000000000000000e+03 7.444261074066162109e+00 -3.448101043701171875e+01 -1.917267292737960815e-01 4.042097032070159912e-01 6.374488770961761475e-02 2.107061892747879028e-01
2.055000000000000000e+03 4.970273494720458984e+00 -8.316669464111328125e+00 5.396223813295364380e-02 -3.291774392127990723e-01 -8.256456255912780762e-02 -5.975831747055053711e-01
2.056000000000000000e+03 3.606638336181640625e+01 -8.119544029235839844e+00 -3.037410020828247070e+00 9.127663612365722656e+00 1.827075958251953125e+00 -1.165826439857482910e+00
2.057000000000000000e+03 3.461225891113281250e+01 -5.748807430267333984e+00 -2.449960231781005859e+00 8.108857154846191406e+00 1.697669029235839844e+00 -9.898763895034790039e-01
2.058000000000000000e+03 4.848730850219726562e+01 -1.204763603210449219e+01 1.897010654211044312e-01 1.813439965248107910e+00 6.009423136711120605e-01 1.940252900123596191e+00
2.059000000000000000e+03 4.664252853393554688e+01 -1.177171421051025391e+01 -8.320369571447372437e-02 3.303046941757202148e+00 9.659529328346252441e-01 1.246089816093444824e+00
2.060000000000000000e+03 6.527571868896484375e+01 -3.234369277954101562e+01 -1.866910606622695923e-01 1.412548065185546875e+00 3.677570819854736328e-01 4.727702438831329346e-01
2.061000000000000000e+03 4.123042678833007812e+01 -2.366156768798828125e+01 2.055454730987548828e+00 8.707689285278320312e+00 3.228943347930908203e+00 -8.519774079322814941e-01
2.062000000000000000e+03 3.420742034912109375e+01 -2.252936601638793945e+00 1.989936530590057373e-01 8.714055061340332031e+00 2.673914670944213867e+00 4.396279752254486084e-01
2.063000000000000000e+03 3.728976058959960938e+01 -1.009828448295593262e+00 8.734093904495239258e-01 1.127111148834228516e+01 3.643356323242187500e+00 -1.129496932029724121e+00
2.064000000000000000e+03 3.900885391235351562e+01 1.300001907348632812e+01 9.511553645133972168e-01 9.378743171691894531e+00 3.098969459533691406e+00 1.575407266616821289e+00
2.065000000000000000e+03 3.793947982788085938e+01 1.379805850982666016e+01 8.035249114036560059e-01 9.160116195678710938e+00 2.989092350006103516e+00 6.828674674034118652e-01
2.066000000000000000e+03 4.040730667114257812e+01 -1.841134071350097656e+01 1.804088830947875977e+00 8.825654029846191406e+00 3.188922882080078125e+00 -1.276514410972595215e+00
2.067000000000000000e+03 4.122382354736328125e+01 -1.735682487487792969e+01 1.718827962875366211e+00 8.601349830627441406e+00 3.096053361892700195e+00 -1.157012343406677246e+00
2.068000000000000000e+03 3.562697219848632812e+01 1.979702568054199219e+01 3.186405599117279053e-01 6.782314777374267578e+00 2.130286455154418945e+00 -1.267070472240447998e-01
2.069000000000000000e+03 3.551696395874023438e+01 2.119654464721679688e+01 1.082915067672729492e-01 6.262302875518798828e+00 1.911178350448608398e+00 1.589317433536052704e-02
2.070000000000000000e+03 1.152194595336914062e+01 -1.522846508026123047e+01 1.066739916801452637e+00 1.910428047180175781e+00 8.931503891944885254e-01 3.144575357437133789e-01
2.071000000000000000e+03 1.144204521179199219e+01 -1.801606178283691406e+01 8.499367237091064453e-01 2.159080743789672852e+00 9.027052521705627441e-01 3.562166988849639893e-01
2.072000000000000000e+03 3.350190734863281250e+01 -5.219266414642333984e+00 -1.812661647796630859e+00 6.929256916046142578e+00 1.534978628158569336e+00 -4.811634421348571777e-01
2.073000000000000000e+03 4.754389953613281250e+01 2.532032966613769531e+01 5.563904345035552979e-02 2.295275449752807617e+00 7.052743434906005859e-01 1.342275619506835938e+00
2.074000000000000000e+03 4.824450683593750000e+01 2.327945709228515625e+01 1.231985632330179214e-02 1.877937078475952148e+00 5.670771002769470215e-01 1.283918976783752441e+00
2.075000000000000000e+03 2.544376945495605469e+01 -6.720750331878662109e+00 -5.480618476867675781e-01 5.197286009788513184e-01 -8.499980904161930084e-03 1.426543474197387695e+00
2.076000000000000000e+03 2.555002212524414062e+01 -7.520635128021240234e+00 -8.300262689590454102e-01 5.043506622314453125e-01 -9.770268946886062622e-02 1.053079009056091309e+00
2.077000000000000000e+03 7.560736083984375000e+01 2.640230894088745117e+00 1.540135741233825684e-01 6.649380207061767578e+00 2.041018247604370117e+00 -1.113190889358520508e+00
2.078000000000000000e+03 2.776701927185058594e+01 2.651528167724609375e+01 1.875058165751397610e-03 2.639219284057617188e+00 7.923282980918884277e-01 -1.306783914566040039e+00
2.079000000000000000e+03 1.024319458007812500e+01 1.647422790527343750e+01 -3.248348459601402283e-02 -2.899418585002422333e-03 -1.061487104743719101e-02 -7.792768534272909164e-03
2.080000000000000000e+03 5.938599777221679688e+01 -2.674760580062866211e+00 1.268692374229431152e+00 2.019326686859130859e+00 9.864057302474975586e-01 1.334834098815917969e+00
2.081000000000000000e+03 6.529890441894531250e+01 1.514953231811523438e+01 9.968136548995971680e-01 7.353428363800048828e+00 2.505072593688964844e+00 -5.549493432044982910e-01
2.082000000000000000e+03 6.527490234375000000e+01 -3.390871047973632812e+01 2.227900624275207520e-01 1.608092069625854492e+00 5.492646694183349609e-01 5.268582701683044434e-01
2.083000000000000000e+03 6.770521545410156250e+01 -3.005509757995605469e+01 -5.189214944839477539e-01 2.797689676284790039e+00 6.836304664611816406e-01 5.421084761619567871e-01
2.084000000000000000e+03 3.949560546875000000e+01 -1.936181831359863281e+01 1.826995372772216797e+00 9.010535240173339844e+00 3.251259326934814453e+00 -1.166650652885437012e+00
2.085000000000000000e+03 4.144941329956054688e+01 -2.153050422668457031e+01 2.148371934890747070e+00 9.266026496887207031e+00 3.424319505691528320e+00 -1.076606273651123047e+00
2.086000000000000000e+03 3.634711074829101562e+01 6.093069314956665039e-01 1.862559676170349121e+00 1.174394798278808594e+01 4.081952095031738281e+00 -4.343871772289276123e-01
2.087000000000000000e+03 1.713441658020019531e+01 -3.094424438476562500e+01 -4.417265355587005615e-01 8.266047239303588867e-01 1.154634580016136169e-01 -2.507598698139190674e-01
2.088000000000000000e+03 2.014370918273925781e+01 -3.361513900756835938e+01 -3.262945711612701416e-01 5.474104881286621094e-01 6.633477658033370972e-02 -3.048857152462005615e-01
2.089000000000000000e+03 3.431555938720703125e+01 -3.153539419174194336e+00 -6.047149300575256348e-01 8.500602722167968750e+00 2.368766307830810547e+00 9.719452820718288422e-03
2.090000000000000000e+03 5.652288055419921875e+01 -1.277203750610351562e+01 -2.247942209243774414e+00 4.816035926342010498e-01 -5.299015641212463379e-01 2.918165624141693115e-01
2.091000000000000000e+03 3.404072189331054688e+01 2.300838088989257812e+01 -9.344016015529632568e-02 5.782001972198486328e+00 1.706568598747253418e+00 -3.304853439331054688e-01
2.092000000000000000e+03 7.213528442382812500e+01 -1.865307998657226562e+01 1.173680186271667480e+00 7.422578334808349609e+00 2.578877449035644531e+00 3.844686508178710938e+00
2.093000000000000000e+03 7.243993377685546875e+01 -1.838047599792480469e+01 1.129267334938049316e+00 9.010091781616210938e+00 3.041807651519775391e+00 4.314566612243652344e+00
2.094000000000000000e+03 7.275792694091796875e+01 -1.835022926330566406e+01 5.956618785858154297e-01 1.143452930450439453e+01 3.609057426452636719e+00 4.323738098144531250e+00
2.095000000000000000e+03 7.330966949462890625e+01 -1.820039939880371094e+01 -1.729573309421539307e-01 1.529619407653808594e+01 4.536971092224121094e+00 3.275878667831420898e+00
2.096000000000000000e+03 7.071968078613281250e+01 -1.356491184234619141e+01 -1.789986640214920044e-01 3.322756052017211914e+00 9.431272149085998535e-01 -1.941150188446044922e+00
2.097000000000000000e+03 7.206932067871093750e+01 -1.379681682586669922e+01 1.416755616664886475e-01 7.317005634307861328e+00 2.237604379653930664e+00 -3.817741155624389648e+00
2.098000000000000000e+03 7.317164611816406250e+01 -1.374636268615722656e+01 -1.348875761032104492e+00 1.277139568328857422e+01 3.426756143569946289e+00 -3.180025100708007812e+00
2.099000000000000000e+03 7.256886291503906250e+01 -1.343106651306152344e+01 -8.877431154251098633e-01 9.790325164794921875e+00 2.670774459838867188e+00 -3.625108480453491211e+00
2.100000000000000000e+03 7.276582336425781250e+01 -1.406411838531494141e+01 -4.791345596313476562e-01 1.117240810394287109e+01 3.207982063293457031e+00 -4.264676094055175781e+00
2.101000000000000000e+03 7.383450317382812500e+01 -1.829862213134765625e+01 -4.298164248466491699e-01 1.656215858459472656e+01 4.839702606201171875e+00 8.403625488281250000e-01
2.102000000000000000e+03 7.406178283691406250e+01 -1.441872310638427734e+01 -6.628399491310119629e-01 1.739297485351562500e+01 5.019040584564208984e+00 -2.842583693563938141e-02
2.103000000000000000e+03 7.491955566406250000e+01 -1.754529190063476562e+01 3.267898559570312500e+00 1.565622043609619141e+01 5.677235603332519531e+00 -2.660894155502319336e+00
2.104000000000000000e+03 7.490579223632812500e+01 -1.802496147155761719e+01 1.490283131599426270e+00 1.547489738464355469e+01 5.089553833007812500e+00 -2.262570381164550781e+00
2.105000000000000000e+03 7.544646453857421875e+01 -1.579768180847167969e+01 5.411727428436279297e+00 1.327972126007080078e+01 5.607434749603271484e+00 1.373835086822509766e+00
2.106000000000000000e+03 7.612695312500000000e+01 -1.328319358825683594e+01 -4.653457105159759521e-01 1.206788825988769531e+01 3.480762720108032227e+00 2.005916595458984375e+00
2.107000000000000000e+03 7.566195678710937500e+01 -1.110308361053466797e+01 -1.622154116630554199e+00 1.089345741271972656e+01 2.781390905380249023e+00 4.950678646564483643e-01
2.108000000000000000e+03 7.592835235595703125e+01 -1.512409019470214844e+01 2.778697252273559570e+00 1.231488609313964844e+01 4.528075218200683594e+00 2.143790006637573242e+00
2.109000000000000000e+03 7.487960815429687500e+01 -1.487235832214355469e+01 2.241916656494140625e+00 1.611908340454101562e+01 5.508300304412841797e+00 2.577569007873535156e+00
2.110000000000000000e+03 7.536014556884765625e+01 -1.747131156921386719e+01 3.658087968826293945e+00 1.407232952117919922e+01 5.319125175476074219e+00 -2.561694383621215820e+00
2.111000000000000000e+03 7.713900756835937500e+01 -1.699830245971679688e+01 2.282979726791381836e+00 9.704837799072265625e+00 3.596345186233520508e+00 -9.796304702758789062e-01
2.112000000000000000e+03 7.595197296142578125e+01 -1.578770160675048828e+01 4.243801116943359375e+00 1.191024971008300781e+01 4.846215248107910156e+00 1.119968652725219727e+00
2.113000000000000000e+03 7.045264434814453125e+01 -1.401222515106201172e+01 -1.091362088918685913e-01 2.267837524414062500e+00 6.476103663444519043e-01 -1.244862914085388184e+00
2.114000000000000000e+03 7.066823577880859375e+01 -2.183352279663085938e+01 -3.041657507419586182e-01 4.634058952331542969e+00 1.298967957496643066e+00 1.443168282508850098e+00
2.115000000000000000e+03 7.040444946289062500e+01 -1.357130050659179688e+01 -3.613591492176055908e-01 2.818724870681762695e+00 7.372097373008728027e-01 -1.366291403770446777e+00
2.116000000000000000e+03 2.435213470458984375e+01 -2.945635080337524414e+00 6.993053555488586426e-01 5.651383846998214722e-02 2.267457544803619385e-01 1.261108160018920898e+00
2.117000000000000000e+03 7.700128936767578125e+01 -1.929673194885253906e+01 4.452645778656005859e-02 1.067396259307861328e+01 3.215546607971191406e+00 -2.346858739852905273e+00
2.118000000000000000e+03 7.635951995849609375e+01 -1.952125167846679688e+01 -3.388364613056182861e-01 1.152879238128662109e+01 3.356986761093139648e+00 -2.191693782806396484e+00
2.119000000000000000e+03 1.558203506469726562e+01 5.660264015197753906e+00 -1.808342873118817806e-03 -8.506245649186894298e-05 -5.680215544998645782e-04 9.214023011736571789e-04
2.120000000000000000e+03 7.761730957031250000e+01 -1.332775211334228516e+01 -1.976127177476882935e-02 9.678619384765625000e+00 2.897657394409179688e+00 2.013983011245727539e+00
2.121000000000000000e+03 7.527561187744140625e+01 -1.685537338256835938e+01 5.781733036041259766e+00 1.381074142456054688e+01 5.877742290496826172e+00 -1.753820776939392090e+00
2.122000000000000000e+03 7.656678771972656250e+01 -1.872698402404785156e+01 5.676726102828979492e-01 1.138586997985839844e+01 3.586062908172607422e+00 -2.480565786361694336e+00
2.123000000000000000e+03 8.376135826110839844e+00 -4.761350154876708984e+00 -3.621995151042938232e-01 9.097109735012054443e-02 -8.136852085590362549e-02 -5.595071911811828613e-01
2.124000000000000000e+03 9.155787467956542969e+00 -4.792743682861328125e+00 -3.885115385055541992e-01 1.656696051359176636e-01 -6.685257703065872192e-02 -5.187866687774658203e-01
2.125000000000000000e+03 7.683893585205078125e+01 -1.476557540893554688e+01 1.652032732963562012e+00 1.061339473724365234e+01 3.679628372192382812e+00 2.003749370574951172e+00
2.126000000000000000e+03 7.654825210571289062e+00 -4.000456809997558594e+00 -4.275978505611419678e-01 3.179812431335449219e-02 -1.187399178743362427e-01 -5.390604734420776367e-01
2.127000000000000000e+03 7.667476177215576172e+00 -4.693607330322265625e+00 -3.419391810894012451e-01 5.001958459615707397e-02 -8.757587522268295288e-02 -5.741549134254455566e-01
2.128000000000000000e+03 1.398209095001220703e+01 4.847285270690917969e+00 -1.104910857975482941e-03 -1.072371494956314564e-03 -6.531847175210714340e-04 1.859556417912244797e-03
2.129000000000000000e+03 6.956707477569580078e+00 -4.019064426422119141e+00 -3.827406167984008789e-01 -8.765419945120811462e-03 -1.174518093466758728e-01 -5.467274785041809082e-01
2.130000000000000000e+03 2.186902427673339844e+01 -3.571010112762451172e+00 6.064146384596824646e-02 2.871903181076049805e-01 1.043495386838912964e-01 1.125846624374389648e+00
2.131000000000000000e+03 4.996338844299316406e+00 -4.106615543365478516e+00 -2.375666499137878418e-01 -1.342059075832366943e-01 -1.115317642688751221e-01 -5.096647739410400391e-01
2.132000000000000000e+03 4.378140926361083984e+00 -6.971672058105468750e+00 -3.216601908206939697e-02 -3.514310717582702637e-01 -1.150791272521018982e-01 -5.723540782928466797e-01
2.133000000000000000e+03 7.681913757324218750e+01 -1.330789661407470703e+01 -1.309491395950317383e-01 1.102871322631835938e+01 3.269329309463500977e+00 2.092877864837646484e+00
2.134000000000000000e+03 1.173743152618408203e+01 4.947748661041259766e+00 3.010722808539867401e-03 -3.047193604288622737e-05 8.940752595663070679e-04 4.920046776533126831e-04
2.135000000000000000e+03 1.022319793701171875e+01 4.835512161254882812e+00 2.521736547350883484e-03 -8.833038009470328689e-05 7.300218567252159119e-04 1.086494186893105507e-03
2.136000000000000000e+03 1.253708839416503906e+01 4.953423023223876953e+00 -1.845960272476077080e-03 -7.604593993164598942e-04 -7.819258607923984528e-04 2.532360842451453209e-03
2.137000000000000000e+03 6.930442810058593750e+01 -1.243872928619384766e+01 -1.653872609138488770e+00 2.372375488281250000e+00 2.155508399009704590e-01 -1.175633430480957031e+00
2.138000000000000000e+03 9.517622947692871094e+00 4.767415046691894531e+00 1.009885090752504766e-05 -1.983525231480598450e-03 -5.920279072597622871e-04 3.840967256110161543e-04
2.139000000000000000e+03 7.533979034423828125e+01 -8.670551300048828125e+00 -1.298267483711242676e+00 9.372521400451660156e+00 2.422276020050048828e+00 -5.752462148666381836e-01
2.140000000000000000e+03 1.461576938629150391e+01 -4.874392986297607422e+00 -4.178358912467956543e-01 5.320388674736022949e-01 3.426088392734527588e-02 2.010357975959777832e-01
2.141000000000000000e+03 1.149501323699951172e+01 -4.706138610839843750e+00 -4.674496054649353027e-01 3.332958817481994629e-01 -4.024612158536911011e-02 -2.998285591602325439e-01
2.142000000000000000e+03 5.290744304656982422e+00 6.556301116943359375e+00 2.097717719152569771e-03 5.620543961413204670e-04 7.979316287674009800e-04 -2.614558907225728035e-03
2.143000000000000000e+03 5.814209938049316406e+00 4.411902427673339844e+00 1.242030339199118316e-05 -1.446328009478747845e-03 -4.301723092794418335e-04 -1.209205365739762783e-04
2.144000000000000000e+03 8.073736190795898438e+00 4.091363430023193359e+00 2.053570933640003204e-03 1.144930211012251675e-04 6.504191551357507706e-04 -3.770709154196083546e-04
2.145000000000000000e+03 5.106946468353271484e+00 5.503143787384033203e+00 -6.355282384902238846e-04 -1.460626022890210152e-03 -6.288462900556623936e-04 -6.743943231413140893e-05
2.146000000000000000e+03 9.959827423095703125e+00 -4.788384914398193359e+00 -4.136420488357543945e-01 2.093382477760314941e-01 -6.129113957285881042e-02 -4.628010392189025879e-01
2.147000000000000000e+03 1.074414253234863281e+01 -4.742712974548339844e+00 -4.444321393966674805e-01 2.913767397403717041e-01 -4.591662436723709106e-02 -3.948133587837219238e-01
2.148000000000000000e+03 7.446300029754638672e+00 4.944227218627929688e+00 2.278543077409267426e-03 -1.846615341491997242e-04 6.281644455157220364e-04 -5.493823555298149586e-04
2.149000000000000000e+03 1.295190143585205078e+01 -3.991214752197265625e+00 -6.306334733963012695e-01 3.334791064262390137e-01 -8.914631605148315430e-02 -9.609193354845046997e-02
2.150000000000000000e+03 8.833426475524902344e+00 4.763447284698486328e+00 2.100311452522873878e-03 5.474914360092952847e-05 6.465181941166520119e-04 -7.677879693801514804e-06
2.151000000000000000e+03 1.870310211181640625e+01 -4.561655044555664062e+00 -2.392136305570602417e-01 5.561476349830627441e-01 9.508020430803298950e-02 8.966137766838073730e-01
2.152000000000000000e+03 1.790488624572753906e+01 -4.585193157196044922e+00 -2.866853177547454834e-01 5.458993911743164062e-01 7.776422798633575439e-02 7.783131599426269531e-01
2.153000000000000000e+03 7.662999725341796875e+01 -1.242929744720458984e+01 -9.294844269752502441e-01 1.111119747161865234e+01 3.054513931274414062e+00 1.719125509262084961e+00
2.154000000000000000e+03 7.620800781250000000e+01 -1.166341781616210938e+01 -1.340438127517700195e+00 1.107026004791259766e+01 2.918946504592895508e+00 1.151373505592346191e+00
2.155000000000000000e+03 1.614610671997070312e+01 -3.964874029159545898e+00 -5.298753380775451660e-01 4.557628631591796875e-01 -2.223374322056770325e-02 4.450761675834655762e-01
2.156000000000000000e+03 1.222334766387939453e+01 -4.690718650817871094e+00 -4.858458638191223145e-01 3.947531878948211670e-01 -2.732779644429683685e-02 -2.066316306591033936e-01
2.157000000000000000e+03 1.295941638946533203e+01 -4.707324981689453125e+00 -4.737960100173950195e-01 4.346657097339630127e-01 -1.173909753561019897e-02 -8.481237292289733887e-02
2.158000000000000000e+03 2.572975349426269531e+01 -5.140892028808593750e+00 3.217034786939620972e-02 2.384157776832580566e-01 8.117584139108657837e-02 1.817677974700927734e+00
2.159000000000000000e+03 1.706224250793457031e+01 -4.701068401336669922e+00 -3.429726064205169678e-01 5.728887319564819336e-01 6.897483766078948975e-02 6.437364220619201660e-01
2.160000000000000000e+03 1.594861888885498047e+01 -5.421316623687744141e+00 -2.487381398677825928e-01 7.108141183853149414e-01 1.386227905750274658e-01 4.860832393169403076e-01
2.161000000000000000e+03 4.229513645172119141e+00 6.734993934631347656e+00 -1.376562518998980522e-03 -9.801993146538734436e-04 -7.070285500958561897e-04 -9.321255492977797985e-04
2.162000000000000000e+03 5.359389305114746094e+00 -7.425299167633056641e+00 -2.432187087833881378e-03 -2.308894395828247070e-01 -6.999649107456207275e-02 -6.272059679031372070e-01
2.163000000000000000e+03 6.456370544433593750e+01 -8.685158729553222656e+00 -1.414117455482482910e+00 -4.161253571510314941e-01 -5.490728616714477539e-01 -6.133859157562255859e-01
2.164000000000000000e+03 6.296335601806640625e+01 -8.779618263244628906e+00 -1.674392461776733398e+00 -1.881603151559829712e-01 -5.587658286094665527e-01 4.149318337440490723e-01
2.165000000000000000e+03 2.031641960144042969e+01 -4.671617984771728516e+00 -8.194242417812347412e-02 5.094243884086608887e-01 1.282445788383483887e-01 1.109205722808837891e+00
2.166000000000000000e+03 1.941986083984375000e+01 -3.804085731506347656e+00 -2.492617368698120117e-01 4.400787949562072754e-01 5.724511295557022095e-02 9.184148907661437988e-01
2.167000000000000000e+03 2.946117782592773438e+01 -5.598185539245605469e+00 -4.223955273628234863e-01 8.961247801780700684e-01 1.421187818050384521e-01 1.249124288558959961e+00
2.168000000000000000e+03 5.777684402465820312e+01 -4.407645702362060547e+00 8.303562998771667480e-01 1.886062264442443848e+00 8.149255514144897461e-01 1.448318719863891602e+00
2.169000000000000000e+03 1.469310474395751953e+01 -9.339301109313964844e+00 5.158377885818481445e-01 1.473209738731384277e+00 5.967142581939697266e-01 3.581458926200866699e-01
2.170000000000000000e+03 9.607241630554199219e+00 -2.046170043945312500e+01 5.319750308990478516e-01 1.255547881126403809e+00 5.362568497657775879e-01 5.228546261787414551e-01
2.171000000000000000e+03 1.125433635711669922e+01 -2.251370811462402344e+01 2.180094122886657715e-01 1.742097377777099609e+00 5.880320668220520020e-01 4.599269330501556396e-01
2.172000000000000000e+03 6.481185150146484375e+01 2.679651975631713867e+00 1.019460916519165039e+00 4.407026767730712891e+00 1.627946257591247559e+00 -6.279885303229093552e-03
2.173000000000000000e+03 9.797614097595214844e+00 1.282025432586669922e+01 -2.787649631500244141e-03 -3.584096906706690788e-03 -1.911523984745144844e-03 -1.552674104459583759e-03
2.174000000000000000e+03 1.291948318481445312e+01 -1.137806415557861328e+01 8.945834040641784668e-01 1.710775613784790039e+00 7.816076874732971191e-01 1.271820217370986938e-01
2.175000000000000000e+03 1.117685222625732422e+01 -1.217770004272460938e+01 8.221396803855895996e-01 1.214849233627319336e+00 6.110966801643371582e-01 -1.456141471862792969e-01
2.176000000000000000e+03 7.573480987548828125e+01 -2.484438705444335938e+01 -8.026050925254821777e-01 9.637814521789550781e+00 2.650563001632690430e+00 -3.229719996452331543e-01
2.177000000000000000e+03 7.405492401123046875e+01 -2.535341835021972656e+01 -9.412817955017089844e-01 8.421312332153320312e+00 2.244009256362915039e+00 2.288160771131515503e-01
2.178000000000000000e+03 5.378435897827148438e+01 -1.145005321502685547e+01 -1.316859006881713867e+00 8.520669937133789062e-01 -1.394376158714294434e-01 1.638084292411804199e+00
2.179000000000000000e+03 5.314903259277343750e+01 -9.197420120239257812e+00 -1.162461519241333008e+00 1.494978070259094238e+00 9.975495934486389160e-02 2.297535657882690430e+00
2.180000000000000000e+03 4.217707061767578125e+01 -1.833997154235839844e+01 1.874358296394348145e+00 8.848408699035644531e+00 3.216830253601074219e+00 -8.900643587112426758e-01
2.181000000000000000e+03 4.013675308227539062e+01 -1.660388183593750000e+01 1.518551349639892578e+00 8.491175651550292969e+00 3.002918004989624023e+00 -1.418092966079711914e+00
2.182000000000000000e+03 2.102412033081054688e+01 -3.677988290786743164e+00 -5.750574916601181030e-02 3.827345669269561768e-01 9.756864607334136963e-02 1.073065280914306641e+00
2.183000000000000000e+03 3.897814559936523438e+01 -1.272664642333984375e+01 1.500711888074874878e-01 8.423627853393554688e+00 2.572109699249267578e+00 -1.206101059913635254e+00
2.184000000000000000e+03 4.151396942138671875e+01 -7.151432037353515625e+00 -2.348077297210693359e+00 6.323732852935791016e+00 1.192696690559387207e+00 -1.781815886497497559e+00
2.185000000000000000e+03 4.280008697509765625e+01 -7.549343109130859375e+00 -2.062354803085327148e+00 4.779620647430419922e+00 8.151796460151672363e-01 -1.340736269950866699e+00
2.186000000000000000e+03 3.816188812255859375e+01 -3.693299531936645508e+00 -1.564322829246520996e+00 1.002972316741943359e+01 2.539620161056518555e+00 -1.378884315490722656e+00
2.187000000000000000e+03 7.273874664306640625e+01 -1.896105575561523438e+01 -1.094220429658889771e-01 1.070447444915771484e+01 3.178515672683715820e+00 3.402782678604125977e+00
2.188000000000000000e+03 4.843618392944335938e+01 -1.022871875762939453e+01 -2.807043194770812988e-01 1.356415748596191406e+00 3.227134346961975098e-01 2.009406805038452148e+00
2.189000000000000000e+03 5.160640335083007812e+01 -8.571756362915039062e+00 -1.087895035743713379e+00 1.475926280021667480e+00 1.164093837141990662e-01 2.695802688598632812e+00
2.190000000000000000e+03 7.574473571777343750e+01 -1.108984202146530151e-01 7.417969405651092529e-02 7.118198871612548828e+00 2.157713651657104492e+00 -1.217369914054870605e+00
2.191000000000000000e+03 7.363714599609375000e+01 -1.493325352668762207e+00 4.720197618007659912e-02 6.561698436737060547e+00 1.982670187950134277e+00 -1.565990924835205078e+00
2.192000000000000000e+03 1.278023719787597656e+01 8.509316444396972656e+00 -4.322205670177936554e-03 -4.500139621086418629e-04 -1.431665965355932713e-03 4.015807062387466431e-03
2.193000000000000000e+03 1.300638771057128906e+01 9.539016723632812500e+00 4.531083628535270691e-03 1.618187874555587769e-03 1.844781450927257538e-03 8.814023458398878574e-04
2.194000000000000000e+03 7.547979736328125000e+01 -2.276776695251464844e+01 -1.204707741737365723e+00 1.035510826110839844e+01 2.745120286941528320e+00 -6.472333073616027832e-01
2.195000000000000000e+03 1.180000019073486328e+01 8.571798324584960938e+00 4.456190858036279678e-03 -1.352679391857236624e-04 1.296276925131678581e-03 1.819216646254062653e-03
2.196000000000000000e+03 2.747029304504394531e+01 -2.407968282699584961e+00 2.016848564147949219e+00 1.645972728729248047e-01 6.544337868690490723e-01 1.506507039070129395e+00
2.197000000000000000e+03 3.111750793457031250e+01 -4.802219867706298828e+00 -4.092284739017486572e-01 2.805159091949462891e+00 7.187792062759399414e-01 3.591577708721160889e-01
2.198000000000000000e+03 4.036232948303222656e+00 1.203397464752197266e+01 -4.676938988268375397e-03 -1.999131636694073677e-03 -2.002821303904056549e-03 3.254838229622691870e-04
2.199000000000000000e+03 6.677214813232421875e+01 9.304181098937988281e+00 8.032125234603881836e-01 6.303577423095703125e+00 2.132036924362182617e+00 -3.301134109497070312e-01
2.200000000000000000e+03 7.630023193359375000e+01 -7.796794414520263672e+00 -8.047412037849426270e-01 9.267460823059082031e+00 2.538815975189208984e+00 -3.946751654148101807e-01
2.201000000000000000e+03 7.444362640380859375e+01 -9.333962440490722656e+00 -1.658320784568786621e+00 9.332346916198730469e+00 2.302207946777343750e+00 -9.588221907615661621e-01
2.202000000000000000e+03 5.136994171142578125e+01 -1.090202426910400391e+01 -6.150798201560974121e-01 1.118565440177917480e+00 1.510456651449203491e-01 2.251354217529296875e+00
2.203000000000000000e+03 1.330301952362060547e+01 6.666530609130859375e+00 2.713668858632445335e-03 8.654338889755308628e-04 1.073730876669287682e-03 2.226067736046388745e-04
2.204000000000000000e+03 1.446776866912841797e+01 7.060171604156494141e+00 -1.527639455161988735e-03 2.857208251953125000e-03 3.988706739619374275e-04 1.158974948339164257e-03
2.205000000000000000e+03 4.384284496307373047e+00 -1.275825119018554688e+01 2.286821454763412476e-01 -6.112799644470214844e-01 -1.147793456912040710e-01 -3.389814794063568115e-01
2.206000000000000000e+03 5.557356357574462891e+00 -1.059072685241699219e+01 2.114338725805282593e-01 -2.698909640312194824e-01 -1.753712818026542664e-02 -5.384091138839721680e-01
2.207000000000000000e+03 4.415677261352539062e+01 -1.170172786712646484e+01 -2.791586816310882568e-01 5.345578670501708984e+00 1.519925951957702637e+00 -7.016195356845855713e-02
2.208000000000000000e+03 7.084471130371093750e+01 -1.992094039916992188e+01 3.821168243885040283e-01 4.309101104736328125e+00 1.407365322113037109e+00 2.131508588790893555e+00
2.209000000000000000e+03 7.438003540039062500e+01 8.251145362854003906e+00 3.097206950187683105e-01 5.953034400939941406e+00 1.878826498985290527e+00 -8.072606921195983887e-01
2.210000000000000000e+03 2.451703834533691406e+01 -5.756906032562255859e+00 -1.268981546163558960e-01 4.268773198127746582e-01 8.999375253915786743e-02 1.540114998817443848e+00
2.211000000000000000e+03 6.069539260864257812e+01 -9.299916267395019531e+00 -2.256671190261840820e+00 5.723992586135864258e-01 -5.052816271781921387e-01 8.369930982589721680e-01
2.212000000000000000e+03 2.147983360290527344e+01 -7.470217227935791016e+00 2.032605707645416260e-01 6.119939684867858887e-01 2.445763647556304932e-01 1.179796099662780762e+00
2.213000000000000000e+03 1.986655998229980469e+01 -6.012297630310058594e+00 2.268420904874801636e-02 6.443370580673217773e-01 2.001063823699951172e-01 1.116693615913391113e+00
2.214000000000000000e+03 4.253343582153320312e+00 2.190687942504882812e+01 -2.550471201539039612e-02 -2.763842605054378510e-02 -1.594294235110282898e-02 6.225101277232170105e-02
2.215000000000000000e+03 2.055207014083862305e+00 3.567627334594726562e+01 2.208236418664455414e-02 -3.405823409557342529e-01 -9.554999321699142456e-02 2.965425886213779449e-02
2.216000000000000000e+03 5.260931491851806641e+00 3.386566543579101562e+01 2.951821871101856232e-02 -1.394750624895095825e-01 -3.298705443739891052e-02 9.792423993349075317e-02
2.217000000000000000e+03 4.322005081176757812e+01 -1.577154731750488281e+01 1.021523833274841309e+00 7.802075386047363281e+00 2.647079706192016602e+00 -3.056171834468841553e-01
2.218000000000000000e+03 3.920771408081054688e+01 -2.149758529663085938e+01 1.893987298011779785e+00 8.745553970336914062e+00 3.191862344741821289e+00 -7.376419901847839355e-01
2.219000000000000000e+03 4.591221809387207031e+00 -1.975002288818359375e+01 2.120284438133239746e-01 -4.639678001403808594e-01 -7.558180391788482666e-02 3.168950974941253662e-01
2.220000000000000000e+03 5.657834625244140625e+01 -1.141562652587890625e+01 -2.014086723327636719e+00 8.379171490669250488e-01 -3.528508543968200684e-01 8.143485784530639648e-01
2.221000000000000000e+03 5.409714508056640625e+01 -8.530678749084472656e+00 -1.084858775138854980e+00 1.667227625846862793e+00 1.747106611728668213e-01 2.039339542388916016e+00
2.222000000000000000e+03 7.551064300537109375e+01 1.642666435241699219e+01 2.050362229347229004e-01 5.503652095794677734e+00 1.712606549263000488e+00 -3.861796855926513672e-02
2.223000000000000000e+03 7.415488433837890625e+01 1.365352249145507812e+01 3.401812613010406494e-01 5.709771633148193359e+00 1.814985871315002441e+00 -3.270912468433380127e-01
2.224000000000000000e+03 5.596907806396484375e+01 -6.876438617706298828e+00 -4.551539421081542969e-01 1.905822157859802246e+00 4.352004826068878174e-01 1.603752732276916504e+00
2.225000000000000000e+03 5.711063385009765625e+01 -6.755525588989257812e+00 -4.351745545864105225e-01 1.662843227386474609e+00 3.683006167411804199e-01 1.385686755180358887e+00
2.226000000000000000e+03 3.620629501342773438e+01 1.694725799560546875e+01 5.963676571846008301e-01 8.000086784362792969e+00 2.578936100006103516e+00 -3.125633597373962402e-01
2.227000000000000000e+03 7.390619659423828125e+01 -2.246754264831542969e+01 -1.361325144767761230e+00 9.538063049316406250e+00 2.453021287918090820e+00 3.368485271930694580e-01
2.228000000000000000e+03 2.734207344055175781e+01 -3.450362682342529297e+00 1.150639176368713379e+00 2.934997379779815674e-01 4.332416653633117676e-01 1.697942376136779785e+00
2.229000000000000000e+03 6.454480743408203125e+01 4.968932628631591797e+00 9.688175916671752930e-01 5.199477672576904297e+00 1.850488543510437012e+00 2.223152816295623779e-01
2.230000000000000000e+03 6.619136047363281250e+01 6.634507179260253906e+00 8.674046397209167480e-01 5.721270561218261719e+00 1.976602554321289062e+00 -2.128252983093261719e-01
2.231000000000000000e+03 1.101493644714355469e+01 2.345369529724121094e+01 -1.426312178373336792e-01 7.986907660961151123e-02 -1.882864534854888916e-02 9.461591392755508423e-02
2.232000000000000000e+03 1.193282222747802734e+01 2.215806388854980469e+01 -1.999004632234573364e-01 7.554710656404495239e-02 -3.730601072311401367e-02 6.192976981401443481e-02
2.233000000000000000e+03 7.425720977783203125e+01 -3.346646881103515625e+01 -2.584019908681511879e-03 7.641834259033203125e+00 2.291775226593017578e+00 6.101717352867126465e-01
2.234000000000000000e+03 7.606889343261718750e+01 -5.387358665466308594e+00 -4.209539294242858887e-01 8.421957015991210938e+00 2.400300979614257812e+00 -9.645163416862487793e-01
2.235000000000000000e+03 3.344410324096679688e+01 -2.756289958953857422e+00 9.368673712015151978e-02 7.603175163269042969e+00 2.309058427810668945e+00 4.761967658996582031e-01
2.236000000000000000e+03 6.698843383789062500e+01 1.620022964477539062e+01 9.734715819358825684e-01 6.627364158630371094e+00 2.280250787734985352e+00 -3.452743589878082275e-01
2.237000000000000000e+03 6.732133483886718750e+01 1.737655258178710938e+01 9.607890844345092773e-01 6.459770202636718750e+00 2.226167917251586914e+00 -2.109736949205398560e-01
2.238000000000000000e+03 7.596504211425781250e+01 -1.057954788208007812e+01 -1.441189646720886230e+00 1.053614807128906250e+01 2.728487491607666016e+00 4.308631718158721924e-01
2.239000000000000000e+03 2.857535123825073242e+00 -2.480320930480957031e+01 4.895863123238086700e-03 -6.525058746337890625e-01 -1.942830085754394531e-01 3.781546652317047119e-01
2.240000000000000000e+03 2.346331214904785156e+01 -7.003904819488525391e+00 -9.397191554307937622e-02 5.067433118820190430e-01 1.238314062356948853e-01 1.259558558464050293e+00
2.241000000000000000e+03 3.762945938110351562e+01 1.109062480926513672e+01 1.191770195960998535e+00 1.156246566772460938e+01 3.826270818710327148e+00 7.431093454360961914e-01
2.242000000000000000e+03 6.080069065093994141e+00 2.378394317626953125e+01 -5.432968959212303162e-02 -8.403131738305091858e-03 -1.881984621286392212e-02 9.358019381761550903e-02
2.243000000000000000e+03 7.422103881835937500e+01 6.863549232482910156e+00 3.140259087085723877e-01 6.027018070220947266e+00 1.902313232421875000e+00 -9.288452863693237305e-01
2.244000000000000000e+03 4.036851119995117188e+01 1.797241973876953125e+01 4.342209994792938232e-01 5.721542358398437500e+00 1.846729040145874023e+00 1.543262600898742676e+00
2.245000000000000000e+03 4.329396820068359375e+01 -1.425399971008300781e+01 3.872942030429840088e-01 7.030885219573974609e+00 2.225453853607177734e+00 -2.928292751312255859e-01
2.246000000000000000e+03 4.480928039550781250e+01 -1.421408939361572266e+01 3.832123577594757080e-01 5.945716381072998047e+00 1.898678660392761230e+00 4.177534580230712891e-01
2.247000000000000000e+03 4.533312606811523438e+01 -1.319376182556152344e+01 2.064349651336669922e-01 5.220040321350097656e+00 1.627942562103271484e+00 7.916361093521118164e-01
2.248000000000000000e+03 3.762847900390625000e+01 -7.457509994506835938e+00 -3.009177684783935547e+00 9.183347702026367188e+00 1.852251172065734863e+00 -1.357011795043945312e+00
2.249000000000000000e+03 2.638759613037109375e+01 -6.716870784759521484e+00 -1.066987514495849609e+00 4.078198373317718506e-01 -1.977503001689910889e-01 1.472772836685180664e+00
2.250000000000000000e+03 2.721594238281250000e+01 -4.529927730560302734e+00 5.785211324691772461e-01 1.859578490257263184e-01 2.293436974287033081e-01 1.812209367752075195e+00
2.251000000000000000e+03 5.709398269653320312e+01 -8.616138458251953125e+00 -1.340837478637695312e+00 1.450105547904968262e+00 3.278042003512382507e-02 1.294530153274536133e+00
2.252000000000000000e+03 5.174995899200439453e+00 1.464844894409179688e+01 -2.440117066726088524e-03 -5.935726687312126160e-03 -2.512753242626786232e-03 -6.232631276361644268e-04
2.253000000000000000e+03 5.510930633544921875e+01 2.656561851501464844e+01 4.660537242889404297e-01 1.235058784484863281e+00 5.103337764739990234e-01 -8.993247896432876587e-02
2.254000000000000000e+03 5.235248947143554688e+01 2.669156265258789062e+01 4.126578271389007568e-01 1.300032019615173340e+00 5.138069391250610352e-01 5.652320981025695801e-01
2.255000000000000000e+03 6.566620635986328125e+01 2.344941329956054688e+01 -2.290067672729492188e-01 5.890306949615478516e+00 1.698390126228332520e+00 -2.203630357980728149e-01
2.256000000000000000e+03 6.285360813140869141e+00 -1.487950801849365234e+01 4.394687712192535400e-01 -9.065489470958709717e-02 1.046441644430160522e-01 -1.499745398759841919e-01
2.257000000000000000e+03 4.552639007568359375e+01 -9.427191734313964844e+00 -7.974998354911804199e-01 2.877436876296997070e+00 6.239811182022094727e-01 3.302567005157470703e-01
2.258000000000000000e+03 4.643050765991210938e+01 -9.209109306335449219e+00 -7.125501632690429688e-01 2.092624425888061523e+00 4.140222668647766113e-01 9.338285326957702637e-01
2.259000000000000000e+03 1.006426143646240234e+01 -1.551368618011474609e+01 8.936753869056701660e-01 1.269975662231445312e+00 6.490952968597412109e-01 9.109465032815933228e-02
2.260000000000000000e+03 3.948515701293945312e+01 -1.750026130676269531e+01 1.683051705360412598e+00 8.964056968688964844e+00 3.194132566452026367e+00 -1.427701354026794434e+00
2.261000000000000000e+03 4.025473022460937500e+01 -1.536166095733642578e+01 1.068537354469299316e+00 8.365866661071777344e+00 2.830321311950683594e+00 -1.386247277259826660e+00
2.262000000000000000e+03 5.256759643554687500e+00 2.847622489929199219e+01 -6.602813955396413803e-03 -7.939133793115615845e-02 -2.579824626445770264e-02 1.243338286876678467e-01
2.263000000000000000e+03 6.048132705688476562e+01 -3.281329870223999023e+00 1.062926888465881348e+00 1.806212782859802246e+00 8.607419133186340332e-01 9.831102490425109863e-01
2.264000000000000000e+03 5.999991226196289062e+01 -1.836424946784973145e+00 1.456105113029479980e+00 2.192672967910766602e+00 1.094633460044860840e+00 1.308665513992309570e+00
2.265000000000000000e+03 7.443042755126953125e+01 1.189530372619628906e+00 1.825389862060546875e-01 6.523833751678466797e+00 2.011911869049072266e+00 -1.343974709510803223e+00
2.266000000000000000e+03 9.788033485412597656e+00 1.756620025634765625e+01 -5.652520805597305298e-02 1.573145575821399689e-02 -1.223812531679868698e-02 -3.993959631770849228e-03
2.267000000000000000e+03 3.067413902282714844e+01 2.504153251647949219e+01 -3.065718412399291992e-01 4.359622478485107422e+00 1.215915083885192871e+00 -1.118093490600585938e+00
2.268000000000000000e+03 5.484136962890625000e+01 -1.117448234558105469e+01 -1.463777303695678711e+00 8.847554922103881836e-01 -1.737065315246582031e-01 1.291272521018981934e+00
2.269000000000000000e+03 7.030585479736328125e+01 -2.706098175048828125e+01 -7.436640858650207520e-01 4.735271453857421875e+00 1.197482228279113770e+00 7.121055126190185547e-01
2.270000000000000000e+03 7.083232879638671875e+01 -2.473117256164550781e+01 -8.378868103027343750e-01 5.268277168273925781e+00 1.329117059707641602e+00 8.072329759597778320e-01
2.271000000000000000e+03 3.513851547241210938e+01 -4.508043766021728516e+00 -1.882949829101562500e+00 8.827858924865722656e+00 2.083472728729248047e+00 -6.764304041862487793e-01
2.272000000000000000e+03 7.500576782226562500e+01 -3.125485992431640625e+01 -1.629451811313629150e-01 8.337824821472167969e+00 2.452463865280151367e+00 5.186608433723449707e-01
2.273000000000000000e+03 4.674900436401367188e+01 2.237810134887695312e+01 7.330012321472167969e-02 2.296900987625122070e+00 7.110603451728820801e-01 1.438338637351989746e+00
2.274000000000000000e+03 4.417034530639648438e+01 2.217836952209472656e+01 5.327519401907920837e-02 3.390252590179443359e+00 1.033058404922485352e+00 1.616219520568847656e+00
2.275000000000000000e+03 4.039654159545898438e+01 -2.497499084472656250e+01 1.653549790382385254e+00 8.079612731933593750e+00 2.919948816299438477e+00 -4.638300836086273193e-01
2.276000000000000000e+03 7.624052429199218750e+01 -2.279731559753417969e+01 -1.007396817207336426e+00 1.046023559570312500e+01 2.835851669311523438e+00 -9.729602932929992676e-01
2.277000000000000000e+03 1.842699050903320312e+01 -8.568793296813964844e+00 5.583173632621765137e-01 1.053608059883117676e+00 4.835776090621948242e-01 1.086875557899475098e+00
2.278000000000000000e+03 3.635102081298828125e+01 5.749722003936767578e+00 1.683198571205139160e+00 1.449802207946777344e+01 4.854366302490234375e+00 9.676303267478942871e-01
2.279000000000000000e+03 6.376922225952148438e+01 1.386755752563476562e+01 4.550002217292785645e-01 8.233821868896484375e+00 2.606646537780761719e+00 -9.618523716926574707e-02
2.280000000000000000e+03 6.501153564453125000e+01 1.257786560058593750e+01 6.717802286148071289e-01 7.414087772369384766e+00 2.425760269165039062e+00 -8.106401562690734863e-02
2.281000000000000000e+03 1.098682117462158203e+01 1.187224864959716797e+01 1.929497113451361656e-03 -1.630798098631203175e-03 8.960970444604754448e-05 2.150754909962415695e-03
2.282000000000000000e+03 4.134667205810546875e+01 -1.938044929504394531e+01 1.995267629623413086e+00 9.023431777954101562e+00 3.305609941482543945e+00 -1.047260880470275879e+00
2.283000000000000000e+03 2.120799064636230469e+01 2.799043655395507812e+01 2.081198990345001221e-01 5.347670316696166992e-01 2.228660732507705688e-01 -4.231989085674285889e-01
2.284000000000000000e+03 1.930242347717285156e+01 2.780387115478515625e+01 1.054219827055931091e-01 2.932542264461517334e-01 1.196028590202331543e-01 -1.674270331859588623e-01
2.285000000000000000e+03 4.233858489990234375e+01 2.299000930786132812e+01 -1.046665236353874207e-01 4.148770332336425781e+00 1.213231205940246582e+00 1.485993623733520508e+00
2.286000000000000000e+03 1.616896629333496094e+01 -9.072640419006347656e+00 5.790343284606933594e-01 1.467670917510986328e+00 6.140115857124328613e-01 7.403517365455627441e-01
2.287000000000000000e+03 1.550813484191894531e+01 -9.255364418029785156e+00 5.039806962013244629e-01 1.563657402992248535e+00 6.202914118766784668e-01 5.654618144035339355e-01
2.288000000000000000e+03 6.895055389404296875e+01 -3.226147079467773438e+01 -8.238530158996582031e-02 4.022308826446533203e+00 1.181977152824401855e+00 7.425954937934875488e-01
2.289000000000000000e+03 1.154505729675292969e+01 -1.662130928039550781e+01 9.717390537261962891e-01 2.249434232711791992e+00 9.663520455360412598e-01 3.821664154529571533e-01
2.290000000000000000e+03 1.281057453155517578e+01 -1.040804195404052734e+01 6.978593468666076660e-01 1.565639019012451172e+00 6.790494918823242188e-01 2.983505465090274811e-02
2.291000000000000000e+03 1.396991634368896484e+01 -1.146920394897460938e+01 1.138135671615600586e+00 2.068075418472290039e+00 9.618633389472961426e-01 4.840543270111083984e-01
2.292000000000000000e+03 3.911340713500976562e+01 -1.155011367797851562e+01 -6.756161451339721680e-01 8.378782272338867188e+00 2.310949802398681641e+00 -1.199203252792358398e+00
2.293000000000000000e+03 3.779067230224609375e+01 -2.979718399047851562e+01 -1.228350400924682617e-01 6.015073299407958984e+00 1.767671465873718262e+00 8.283088207244873047e-01
2.294000000000000000e+03 6.509104156494140625e+01 3.591409921646118164e+00 9.684583544731140137e-01 4.790144443511962891e+00 1.727580904960632324e+00 -2.568115247413516045e-03
2.295000000000000000e+03 6.548509979248046875e+01 4.429181575775146484e+00 9.385390877723693848e-01 5.071361064910888672e+00 1.802970051765441895e+00 -1.033865585923194885e-01
2.296000000000000000e+03 7.427735900878906250e+01 3.957624435424804688e+00 2.686570882797241211e-01 6.233851909637451172e+00 1.950752615928649902e+00 -1.180275201797485352e+00
2.297000000000000000e+03 3.588988876342773438e+01 1.838419342041015625e+01 5.090529322624206543e-01 7.297823429107666016e+00 2.342062950134277344e+00 -2.040374130010604858e-01
2.298000000000000000e+03 3.481515884399414062e+01 2.466007614135742188e+01 -4.670822918415069580e-01 5.263036727905273438e+00 1.438786268234252930e+00 1.807638257741928101e-02
2.299000000000000000e+03 6.379885196685791016e+00 -1.752010726928710938e+01 4.262458384037017822e-01 -3.857170231640338898e-04 1.277580410242080688e-01 1.679804325103759766e-01
2.300000000000000000e+03 3.399447250366210938e+01 -4.142749309539794922e+00 -1.218018054962158203e+00 7.859082221984863281e+00 1.992319226264953613e+00 -3.419859707355499268e-01
2.301000000000000000e+03 7.344924163818359375e+01 -3.058624267578125000e-01 1.442079544067382812e-01 6.340257167816162109e+00 1.945339560508728027e+00 -1.533481597900390625e+00
2.302000000000000000e+03 5.739764213562011719e+00 -1.389611911773681641e+01 3.899320363998413086e-01 -2.453088313341140747e-01 4.338696226477622986e-02 -2.312767803668975830e-01
2.303000000000000000e+03 4.173470687866210938e+01 -2.569840621948242188e+01 1.767263174057006836e+00 8.454178810119628906e+00 3.066432714462280273e+00 -6.695087552070617676e-01
2.304000000000000000e+03 7.469310760498046875e+00 1.892679786682128906e+01 -5.483523756265640259e-02 6.182154174894094467e-03 -1.459592487663030624e-02 2.720930799841880798e-02
2.305000000000000000e+03 4.920911788940429688e+01 -9.298509597778320312e+00 -5.894860625267028809e-01 9.609993696212768555e-01 1.114539951086044312e-01 2.311200857162475586e+00
2.306000000000000000e+03 6.379223346710205078e+00 -3.166169548034667969e+01 -1.781128197908401489e-01 3.241374790668487549e-01 4.380739480257034302e-02 3.384453356266021729e-01
2.307000000000000000e+03 1.740867424011230469e+01 -3.284646606445312500e+01 -4.265345036983489990e-01 7.673891186714172363e-01 1.022563800215721130e-01 -2.712453901767730713e-01
2.308000000000000000e+03 6.736323547363281250e+01 1.317686653137207031e+01 8.612761497497558594e-01 6.582214832305908203e+00 2.233047246932983398e+00 -3.960218727588653564e-01
2.309000000000000000e+03 3.673497772216796875e+01 1.398497104644775391e+01 6.957180500030517578e-01 9.649370193481445312e+00 3.103526353836059570e+00 -1.656232178211212158e-01
2.310000000000000000e+03 1.713708305358886719e+01 2.623269081115722656e+01 -4.638080671429634094e-02 1.017259433865547180e-01 1.660354062914848328e-02 1.456044986844062805e-02
2.311000000000000000e+03 1.801821899414062500e+01 2.705474662780761719e+01 6.342170387506484985e-02 1.939602047204971313e-01 7.721456885337829590e-02 -6.832384318113327026e-02
2.312000000000000000e+03 7.502354431152343750e+01 -2.826772499084472656e+01 -4.291711151599884033e-01 8.544228553771972656e+00 2.434517383575439453e+00 3.050976693630218506e-01
2.313000000000000000e+03 7.322751617431640625e+01 -3.054461097717285156e+01 -2.809781432151794434e-01 7.005125045776367188e+00 2.017244100570678711e+00 5.875640511512756348e-01
2.314000000000000000e+03 6.342512512207031250e+01 -3.418539047241210938e+01 2.994950711727142334e-01 9.152203798294067383e-01 3.644146323204040527e-01 2.541936337947845459e-01
2.315000000000000000e+03 6.871733093261718750e+01 -2.965107154846191406e+01 -5.527198910713195801e-01 3.673216342926025391e+00 9.361489415168762207e-01 7.095171809196472168e-01
2.316000000000000000e+03 3.740320587158203125e+01 1.870432281494140625e+01 2.786980867385864258e-01 6.880789279937744141e+00 2.147846221923828125e+00 4.413222372531890869e-01
2.317000000000000000e+03 4.831037998199462891e+00 -2.672202682495117188e+01 -5.653741210699081421e-02 -3.570700436830520630e-02 -2.767332457005977631e-02 4.875764250755310059e-01
2.318000000000000000e+03 7.397813415527343750e+01 -3.609057235717773438e+01 1.876065880060195923e-01 7.255414009094238281e+00 2.232906103134155273e+00 4.807207286357879639e-01
2.319000000000000000e+03 7.464781188964843750e+01 2.736749458312988281e+01 -7.964288443326950073e-02 5.647028446197509766e+00 1.670215606689453125e+00 2.204620242118835449e-01
2.320000000000000000e+03 7.306475067138671875e+01 2.424481201171875000e+01 -3.334665298461914062e-02 5.674833297729492188e+00 1.692445993423461914e+00 2.821650803089141846e-01
2.321000000000000000e+03 5.865100479125976562e+01 2.793240165710449219e+01 2.595615386962890625e-01 2.638024091720581055e+00 8.692756891250610352e-01 -8.396041393280029297e-01
2.322000000000000000e+03 6.025385856628417969e+00 1.505565452575683594e+01 -1.608568616211414337e-02 1.557894982397556305e-03 -4.358337260782718658e-03 4.369876347482204437e-03
2.323000000000000000e+03 7.216216564178466797e+00 3.470037078857421875e+01 5.199390277266502380e-02 -4.731015488505363464e-02 1.405124319717288017e-03 9.853512793779373169e-02
2.324000000000000000e+03 5.720672130584716797e+00 3.202571868896484375e+01 2.555193565785884857e-02 -1.073090285062789917e-01 -2.452712878584861755e-02 1.162797883152961731e-01
2.325000000000000000e+03 6.033793449401855469e+00 -1.858214950561523438e+01 3.778121173381805420e-01 -6.597213447093963623e-02 9.355199337005615234e-02 2.697879672050476074e-01
2.326000000000000000e+03 4.450234889984130859e+00 1.754006195068359375e+01 -2.442947775125503540e-02 -3.029163926839828491e-03 -8.237591944634914398e-03 1.593173481523990631e-02
2.327000000000000000e+03 3.921867370605468750e+01 2.273665428161621094e+01 -2.226900011301040649e-01 5.215588569641113281e+00 1.497869610786437988e+00 1.068064689636230469e+00
2.328000000000000000e+03 4.191035461425781250e+01 2.119372177124023438e+01 4.151294380426406860e-02 4.400659561157226562e+00 1.332651853561401367e+00 1.536804914474487305e+00
2.329000000000000000e+03 7.516770172119140625e+01 2.030245590209960938e+01 1.117880418896675110e-01 5.532439708709716797e+00 1.693268418312072754e+00 2.103581875562667847e-01
2.330000000000000000e+03 7.313803863525390625e+01 1.804643440246582031e+01 3.458880484104156494e-01 5.696542739868164062e+00 1.812729239463806152e+00 6.072830036282539368e-02
2.331000000000000000e+03 7.292148590087890625e+01 -1.854593086242675781e+01 2.642154693603515625e-02 1.223006153106689453e+01 3.676944971084594727e+00 3.753196001052856445e+00
2.332000000000000000e+03 7.100277709960937500e+01 -1.921987152099609375e+01 9.260640740394592285e-01 3.931397199630737305e+00 1.457238435745239258e+00 2.294054031372070312e+00
2.333000000000000000e+03 7.512235260009765625e+01 -2.154014205932617188e+01 -1.390893459320068359e+00 1.107567882537841797e+01 2.905435562133789062e+00 -6.854462027549743652e-01
2.334000000000000000e+03 7.345172119140625000e+01 -1.845657920837402344e+01 -5.334026813507080078e-01 1.502356910705566406e+01 4.347050189971923828e+00 2.349205493927001953e+00
2.335000000000000000e+03 7.592089080810546875e+01 -1.546322250366210938e+01 3.511420488357543945e+00 1.212567996978759766e+01 4.691130161285400391e+00 1.663068413734436035e+00
2.336000000000000000e+03 7.580043029785156250e+01 -1.866291999816894531e+01 5.710027217864990234e-01 1.279310894012451172e+01 4.009233474731445312e+00 -2.359015703201293945e+00
2.337000000000000000e+03 7.268113708496093750e+01 -1.942639541625976562e+01 -4.353244900703430176e-01 9.904710769653320312e+00 2.840816020965576172e+00 2.846529960632324219e+00
2.338000000000000000e+03 7.492926788330078125e+01 -1.834956550598144531e+01 7.101061940193176270e-01 1.505067539215087891e+01 4.728234767913818359e+00 -1.971856594085693359e+00
2.339000000000000000e+03 7.419222259521484375e+01 -1.341151618957519531e+01 -1.813626766204833984e+00 1.424493789672851562e+01 3.729393243789672852e+00 -5.353403687477111816e-01
2.340000000000000000e+03 7.536428833007812500e+01 -1.661214637756347656e+01 6.079364299774169922e+00 1.337302112579345703e+01 5.835715293884277344e+00 -1.032256722450256348e+00
2.341000000000000000e+03 7.605397033691406250e+01 -1.723399734497070312e+01 3.485910892486572266e+00 1.185216522216796875e+01 4.601422786712646484e+00 -1.814831376075744629e+00
2.342000000000000000e+03 7.629579925537109375e+01 -1.692703437805175781e+01 3.733847618103027344e+00 1.120666790008544922e+01 4.482154846191406250e+00 -1.271270275115966797e+00
2.343000000000000000e+03 7.145314025878906250e+01 -1.930787658691406250e+01 7.825471162796020508e-01 5.373837947845458984e+00 1.846915483474731445e+00 2.773381471633911133e+00
2.344000000000000000e+03 7.105703735351562500e+01 -1.870583724975585938e+01 1.480665802955627441e+00 3.452815294265747070e+00 1.480044245719909668e+00 2.424392938613891602e+00
2.345000000000000000e+03 7.101496124267578125e+01 -1.385397052764892578e+01 2.308130264282226562e-01 3.509148836135864258e+00 1.121988534927368164e+00 -2.176087617874145508e+00
2.346000000000000000e+03 6.903237152099609375e+01 -1.291098117828369141e+01 -2.041988849639892578e+00 1.695818424224853516e+00 -1.038511171936988831e-01 -6.405965089797973633e-01
2.347000000000000000e+03 7.146685028076171875e+01 -2.075278472900390625e+01 -2.852399349212646484e-01 6.046787261962890625e+00 1.728464245796203613e+00 2.005623340606689453e+00
2.348000000000000000e+03 6.913161468505859375e+01 -1.192574882507324219e+01 -1.940978646278381348e+00 2.553538322448730469e+00 1.837678849697113037e-01 -1.263560891151428223e+00
2.349000000000000000e+03 7.666390228271484375e+01 -1.519716262817382812e+01 2.227786540985107422e+00 1.071040344238281250e+01 3.881456851959228516e+00 1.752117395401000977e+00
2.350000000000000000e+03 7.687851715087890625e+01 -1.413001632690429688e+01 7.328364253044128418e-01 1.077505588531494141e+01 3.452367782592773438e+00 2.233392715454101562e+00
2.351000000000000000e+03 7.671166992187500000e+01 -1.727975082397460938e+01 2.649397373199462891e+00 1.066210365295410156e+01 3.993450403213500977e+00 -1.569176793098449707e+00
2.352000000000000000e+03 9.153944969177246094e+00 -5.551053047180175781e+00 -2.696503102779388428e-01 2.059341520071029663e-01 -1.911484822630882263e-02 -5.489737391471862793e-01
2.353000000000000000e+03 8.298506736755371094e+00 -5.514929294586181641e+00 -2.495778650045394897e-01 1.215180233120918274e-01 -3.841795027256011963e-02 -5.866927504539489746e-01
2.354000000000000000e+03 7.478346347808837891e+00 -5.327630996704101562e+00 -2.482047975063323975e-01 3.624389693140983582e-02 -6.358826905488967896e-02 -6.083654165267944336e-01
2.355000000000000000e+03 7.303732299804687500e+01 -1.323566627502441406e+01 -1.506475806236267090e+00 1.147360610961914062e+01 2.990139007568359375e+00 -2.918182611465454102e+00
2.356000000000000000e+03 3.894843101501464844e+00 -5.723981380462646484e+00 -8.938643336296081543e-02 -3.040457665920257568e-01 -1.180296540260314941e-01 -5.180699825286865234e-01
2.357000000000000000e+03 4.800794124603271484e+00 -6.143935203552246094e+00 -8.763374388217926025e-02 -2.393905520439147949e-01 -9.810729324817657471e-02 -5.903940200805664062e-01
2.358000000000000000e+03 1.253359985351562500e+01 6.706491470336914062e+00 -3.617019858211278915e-03 1.101384550565853715e-04 -1.052064355462789536e-03 2.810550387948751450e-03
2.359000000000000000e+03 2.528556632995605469e+01 -3.077455520629882812e+00 8.227660059928894043e-01 -5.677261948585510254e-02 2.297980189323425293e-01 1.373305559158325195e+00
2.360000000000000000e+03 7.688591003417968750e+01 -1.644497489929199219e+01 2.908551931381225586e+00 9.981692314147949219e+00 3.867073297500610352e+00 -2.802976071834564209e-01
2.361000000000000000e+03 7.567522430419921875e+01 -1.701434326171875000e+01 4.569960594177246094e+00 1.271143817901611328e+01 5.184419631958007812e+00 -1.732171297073364258e+00
2.362000000000000000e+03 7.637857055664062500e+01 -1.755957984924316406e+01 2.592443704605102539e+00 1.138543224334716797e+01 4.193362712860107422e+00 -2.053514957427978516e+00
2.363000000000000000e+03 5.930738925933837891e+00 5.298002719879150391e+00 1.968023600056767464e-03 3.290498279966413975e-04 6.891220109537243843e-04 -1.806298387236893177e-03
2.364000000000000000e+03 7.235329627990722656e+00 7.642605304718017578e+00 3.110175020992755890e-05 -2.792715560644865036e-03 -8.284841314889490604e-04 1.261661062017083168e-03
2.365000000000000000e+03 1.168979549407958984e+01 6.696806907653808594e+00 4.005095455795526505e-03 -5.152175435796380043e-04 1.046963268890976906e-03 8.087042951956391335e-04
2.366000000000000000e+03 9.470769882202148438e+00 5.462712287902832031e+00 1.746520865708589554e-03 1.527961831016000360e-05 5.285401130095124245e-04 1.112813712097704411e-03
2.367000000000000000e+03 1.126928997039794922e+01 -6.092986106872558594e+00 -2.235308736562728882e-01 4.790785908699035645e-01 7.666431367397308350e-02 -3.561155200004577637e-01
2.368000000000000000e+03 1.448454284667968750e+01 -5.730091094970703125e+00 -2.558948695659637451e-01 7.088908553123474121e-01 1.358987838029861450e-01 2.103995829820632935e-01
2.369000000000000000e+03 1.500854682922363281e+01 -6.773684978485107422e+00 -3.876721113920211792e-02 9.840741157531738281e-01 2.835920751094818115e-01 3.299292623996734619e-01
2.370000000000000000e+03 8.152388572692871094e+00 4.835374832153320312e+00 5.123568553244695067e-05 -2.104449784383177757e-03 -6.159642362035810947e-04 3.530639223754405975e-04
2.371000000000000000e+03 7.420181274414062500e+01 -1.373902130126953125e+01 -1.467408180236816406e+00 1.497175025939941406e+01 4.051302909851074219e+00 -3.530012369155883789e-01
2.372000000000000000e+03 1.224283123016357422e+01 -5.422603607177734375e+00 -3.312683701515197754e-01 4.960905909538269043e-01 4.944666102528572083e-02 -2.068324834108352661e-01
2.373000000000000000e+03 7.537673950195312500e+01 -1.461887359619140625e+01 1.553007602691650391e+00 1.406469345092773438e+01 4.685310363769531250e+00 2.510710954666137695e+00
2.374000000000000000e+03 1.666178512573242188e+01 -6.603472709655761719e+00 -2.815931849181652069e-02 9.725655913352966309e-01 2.833218872547149658e-01 6.793463826179504395e-01
2.375000000000000000e+03 1.545313262939453125e+01 -4.787958145141601562e+00 -4.194333255290985107e-01 5.961289405822753906e-01 5.300868302583694458e-02 3.358367681503295898e-01
2.376000000000000000e+03 2.115660667419433594e+01 -4.564950466156005859e+00 -1.565698534250259399e-02 4.146740734577178955e-01 1.197051256895065308e-01 1.171530485153198242e+00
2.377000000000000000e+03 1.949411010742187500e+01 -4.651010990142822266e+00 -1.481790691614151001e-01 5.218539237976074219e-01 1.121024489402770996e-01 1.013940334320068359e+00
2.378000000000000000e+03 1.803175354003906250e+01 -5.268494606018066406e+00 -2.021103501319885254e-01 6.657469868659973145e-01 1.390909850597381592e-01 8.623551130294799805e-01
2.379000000000000000e+03 1.933331108093261719e+01 -5.401029109954833984e+00 -6.615503132343292236e-02 6.430710554122924805e-01 1.730747967958450317e-01 1.056230545043945312e+00
2.380000000000000000e+03 2.828590965270996094e+01 -4.587038516998291016e+00 4.522599577903747559e-01 5.513420701026916504e-01 3.010806143283843994e-01 1.740535736083984375e+00
2.381000000000000000e+03 2.930208015441894531e+01 -3.700834751129150391e+00 1.154856085777282715e+00 1.398665070533752441e+00 7.660563588142395020e-01 1.673208355903625488e+00
2.382000000000000000e+03 6.286348342895507812e+01 9.876845479011535645e-01 1.135172247886657715e+00 3.546947479248046875e+00 1.404635906219482422e+00 6.395995020866394043e-01
2.383000000000000000e+03 1.096420764923095703e+01 4.905827999114990234e+00 -1.390562392771244049e-03 -8.966027526184916496e-04 -6.861495203338563442e-04 9.377691894769668579e-04
2.384000000000000000e+03 7.447558593750000000e+01 -2.307135200500488281e+01 -1.303488254547119141e+00 9.677326202392578125e+00 2.512151241302490234e+00 -3.881776332855224609e-02
2.385000000000000000e+03 7.520183563232421875e+01 -2.352447509765625000e+01 -1.144025444984436035e+00 9.871583938598632812e+00 2.618267536163330078e+00 -3.896450102329254150e-01
2.386000000000000000e+03 1.084063148498535156e+01 -5.473112106323242188e+00 -3.052925467491149902e-01 3.512690365314483643e-01 1.379294786602258682e-02 -3.992033004760742188e-01
2.387000000000000000e+03 6.845316314697265625e+01 -1.180431652069091797e+01 -2.895808696746826172e+00 1.848994255065917969e+00 -3.140443265438079834e-01 -1.100465774536132812e+00
2.388000000000000000e+03 6.824967956542968750e+01 -1.052631664276123047e+01 -2.102996349334716797e+00 2.039386987686157227e+00 -1.908281072974205017e-02 -1.779241681098937988e+00
2.389000000000000000e+03 1.675826072692871094e+01 -7.360870361328125000e+00 1.498138159513473511e-01 1.114105105400085449e+00 3.791756629943847656e-01 7.375692129135131836e-01
2.390000000000000000e+03 1.848277854919433594e+01 -7.565244197845458984e+00 2.840302288532257080e-01 9.516664743423461914e-01 3.707090020179748535e-01 1.048436641693115234e+00
2.391000000000000000e+03 6.714420318603515625e+01 -7.645500659942626953e+00 -9.709988832473754883e-01 1.764353990554809570e+00 2.380065321922302246e-01 -1.794664263725280762e+00
2.392000000000000000e+03 6.682820892333984375e+01 -8.519040107727050781e+00 -1.226276755332946777e+00 1.190034151077270508e+00 -1.087277568876743317e-02 -1.788871169090270996e+00
2.393000000000000000e+03 7.025470733642578125e+01 -2.572690391540527344e+01 -7.282705307006835938e-01 4.651082038879394531e+00 1.176843523979187012e+00 7.397210597991943359e-01
2.394000000000000000e+03 7.325222778320312500e+01 -2.300358772277832031e+01 -1.223787546157836914e+00 8.503403663635253906e+00 2.183884859085083008e+00 6.273166537284851074e-01
2.395000000000000000e+03 5.560647487640380859e+00 -1.168626785278320312e+01 2.921861112117767334e-01 -2.876223921775817871e-01 1.369114383123815060e-03 -4.542148113250732422e-01
2.396000000000000000e+03 5.735614299774169922e+00 -9.611833572387695312e+00 1.534768491983413696e-01 -2.287239581346511841e-01 -2.257413417100906372e-02 -5.844476819038391113e-01
2.397000000000000000e+03 7.497730255126953125e+01 -5.429827690124511719e+00 -5.470623373985290527e-01 7.932283878326416016e+00 2.215566635131835938e+00 -1.265727758407592773e+00
2.398000000000000000e+03 7.431361389160156250e+01 -1.885857772827148438e+01 -8.101342320442199707e-01 1.499553680419921875e+01 4.255620479583740234e+00 -3.030343353748321533e-01
2.399000000000000000e+03 7.582314300537109375e+01 -2.116302680969238281e+01 -1.199256896972656250e+00 1.130737876892089844e+01 3.032436370849609375e+00 -1.265394210815429688e+00
2.400000000000000000e+03 2.508068084716796875e+01 -3.972483634948730469e+00 5.688573122024536133e-01 1.134935989975929260e-01 2.047052830457687378e-01 1.603577613830566406e+00
2.401000000000000000e+03 6.330632209777832031e+00 -7.854718685150146484e+00 4.564131796360015869e-02 -9.495302289724349976e-02 -1.479351148009300232e-02 -6.434258222579956055e-01
2.402000000000000000e+03 2.365603256225585938e+01 -5.469027519226074219e+00 -3.513699769973754883e-02 4.033600687980651855e-01 1.104669198393821716e-01 1.458453893661499023e+00
2.403000000000000000e+03 8.296782493591308594e+00 5.582207202911376953e+00 2.982321660965681076e-03 -8.891264442354440689e-04 6.279585068114101887e-04 -3.088145458605140448e-04
2.404000000000000000e+03 6.277323246002197266e+00 -4.848953247070312500e+00 -2.465654164552688599e-01 -5.881533399224281311e-02 -9.161422401666641235e-02 -5.903338193893432617e-01
2.405000000000000000e+03 7.194795989990234375e+01 -2.261518859863281250e+01 -8.724790811538696289e-01 6.862866878509521484e+00 1.797116279602050781e+00 1.250118255615234375e+00
2.406000000000000000e+03 6.598844051361083984e+00 -1.159801387786865234e+01 3.628500998020172119e-01 -2.585596404969692230e-02 1.010982394218444824e-01 -4.695511460304260254e-01
2.407000000000000000e+03 5.518276977539062500e+01 -9.141881942749023438e+00 -1.331529974937438965e+00 1.488708376884460449e+00 4.715349897742271423e-02 1.731146097183227539e+00
2.408000000000000000e+03 4.923691177368164062e+01 -1.101234626770019531e+01 -1.566399782896041870e-01 1.406872391700744629e+00 3.750697374343872070e-01 2.133473157882690430e+00
2.409000000000000000e+03 4.993118286132812500e+01 -1.004521942138671875e+01 -5.039999485015869141e-01 9.830671548843383789e-01 1.437201648950576782e-01 2.435070276260375977e+00
2.410000000000000000e+03 5.882408905029296875e+01 -5.162402629852294922e+00 3.933454453945159912e-01 1.568166613578796387e+00 5.884535908699035645e-01 1.221366643905639648e+00
2.411000000000000000e+03 1.095055294036865234e+01 1.072319793701171875e+01 -3.288520267233252525e-03 -5.148031283169984818e-03 -2.530965488404035568e-03 2.155906520783901215e-03
2.412000000000000000e+03 1.212310981750488281e+01 1.078487110137939453e+01 4.150249063968658447e-03 1.398155931383371353e-03 1.664521521888673306e-03 3.945569973438978195e-03
2.413000000000000000e+03 9.606815338134765625e+00 2.048546981811523438e+01 -1.087902560830116272e-01 3.404583036899566650e-02 -2.242332883179187775e-02 3.535650297999382019e-02
2.414000000000000000e+03 1.033263969421386719e+01 1.933187866210937500e+01 -9.458719193935394287e-02 3.521073609590530396e-02 -1.781293749809265137e-02 -5.907244631089270115e-04
2.415000000000000000e+03 1.819621467590332031e+01 -5.950124263763427734e+00 -3.863964974880218506e-02 7.483136057853698730e-01 2.129021883010864258e-01 9.151245951652526855e-01
2.416000000000000000e+03 6.397607326507568359e+00 1.340428256988525391e+01 -4.966820124536752701e-03 -2.105886815115809441e-03 -2.121812198311090469e-03 -2.968532033264636993e-03
2.417000000000000000e+03 7.492990112304687500e+01 -2.248771095275878906e+01 -1.342267394065856934e+00 1.030330371856689453e+01 2.688310861587524414e+00 -3.660103678703308105e-01
2.418000000000000000e+03 6.427266693115234375e+01 -7.125411987304687500e+00 -4.250918328762054443e-01 4.211322665214538574e-01 -1.187870977446436882e-03 -5.017610788345336914e-01
2.419000000000000000e+03 4.148534011840820312e+01 -1.524914169311523438e+01 1.018755674362182617e+00 7.951518058776855469e+00 2.691082239151000977e+00 -1.003478407859802246e+00
2.420000000000000000e+03 4.034549713134765625e+01 -1.179010581970214844e+01 -4.118113219738006592e-01 7.691889286041259766e+00 2.184023380279541016e+00 -1.061404466629028320e+00
2.421000000000000000e+03 7.458904266357421875e+01 -2.819719314575195312e+00 -1.369597166776657104e-01 7.104772567749023438e+00 2.090343952178955078e+00 -1.487179160118103027e+00
2.422000000000000000e+03 7.465545654296875000e+01 -1.493268370628356934e+00 2.112554945051670074e-02 6.918012142181396484e+00 2.081741333007812500e+00 -1.426428556442260742e+00
2.423000000000000000e+03 1.200732612609863281e+01 -1.154582786560058594e+01 8.141363859176635742e-01 1.519372105598449707e+00 7.000525593757629395e-01 -6.105959042906761169e-02
2.424000000000000000e+03 5.843689727783203125e+01 -8.814084053039550781e+00 -1.723893761634826660e+00 1.094772100448608398e+00 -1.887364685535430908e-01 1.045770764350891113e+00
2.425000000000000000e+03 5.649016189575195312e+01 -9.722414016723632812e+00 -1.659095287322998047e+00 1.252883434295654297e+00 -1.218635514378547668e-01 1.309321284294128418e+00
2.426000000000000000e+03 8.000328063964843750e+00 -1.177695369720458984e+01 4.935224354267120361e-01 3.171328902244567871e-01 2.431965917348861694e-01 -4.179006516933441162e-01
2.427000000000000000e+03 5.850107669830322266e+00 7.496696472167968750e+00 1.476023346185684204e-03 -3.063471289351582527e-03 -4.762344178743660450e-04 -4.997858777642250061e-04
2.428000000000000000e+03 2.139050674438476562e+01 -6.443208694458007812e+00 8.388228714466094971e-02 5.728105902671813965e-01 1.970078647136688232e-01 1.238898873329162598e+00
2.429000000000000000e+03 1.034862899780273438e+01 -2.199669075012207031e+01 3.698137104511260986e-01 1.446378827095031738e+00 5.448578000068664551e-01 5.326816439628601074e-01
2.430000000000000000e+03 7.473184204101562500e+01 -2.439268875122070312e+01 -1.044045209884643555e+00 9.237833023071289062e+00 2.458136558532714844e+00 -6.819233298301696777e-02
2.431000000000000000e+03 7.423675537109375000e+01 -6.646941661834716797e+00 -9.039888978004455566e-01 7.955523967742919922e+00 2.115460634231567383e+00 -1.373489379882812500e+00
2.432000000000000000e+03 8.173341751098632812e+00 1.553876209259033203e+01 -1.995699293911457062e-02 -5.422700662165880203e-03 -7.613908033818006516e-03 1.840181997977197170e-03
2.433000000000000000e+03 8.458850860595703125e+00 1.461698246002197266e+01 -1.775528676807880402e-02 -4.212346393615007401e-03 -6.590289995074272156e-03 9.278145735152065754e-04
2.434000000000000000e+03 8.601180076599121094e+00 -1.467471504211425781e+01 7.448091506958007812e-01 6.667588353157043457e-01 4.234704077243804932e-01 -8.088609576225280762e-02
2.435000000000000000e+03 5.123843193054199219e+00 1.074297809600830078e+01 -2.785895951092243195e-03 -4.566069226711988449e-03 -2.205589553341269493e-03 -2.255007275380194187e-04
2.436000000000000000e+03 2.128794479370117188e+01 -5.486513614654541016e+00 1.002254616469144821e-02 5.317246913909912109e-01 1.625241786241531372e-01 1.249294996261596680e+00
2.437000000000000000e+03 2.200418663024902344e+01 -4.466780662536621094e+00 6.184025853872299194e-02 4.041537046432495117e-01 1.397981792688369751e-01 1.255954504013061523e+00
2.438000000000000000e+03 6.144191741943359375e+01 3.224261850118637085e-02 1.306243419647216797e+00 2.944114208221435547e+00 1.275107264518737793e+00 1.097843647003173828e+00
2.439000000000000000e+03 4.607508850097656250e+01 -1.053979778289794922e+01 -3.230132758617401123e-01 3.203191757202148438e+00 8.640536069869995117e-01 8.787287473678588867e-01
2.440000000000000000e+03 3.070880889892578125e+01 -3.959911108016967773e+00 7.141619324684143066e-01 2.633809804916381836e+00 1.004391551017761230e+00 1.106932759284973145e+00
2.441000000000000000e+03 4.693422317504882812e+01 -1.009256267547607422e+01 -4.176963269710540771e-01 2.251514434814453125e+00 5.501454472541809082e-01 1.212170481681823730e+00
2.442000000000000000e+03 4.519216537475585938e+01 -1.081175804138183594e+01 -4.517668485641479492e-01 3.764254331588745117e+00 9.937462210655212402e-01 4.690479636192321777e-01
2.443000000000000000e+03 7.431369781494140625e+01 2.574702501296997070e+00 2.353501617908477783e-01 6.368691444396972656e+00 1.981212377548217773e+00 -1.270165324211120605e+00
2.444000000000000000e+03 6.919686889648437500e+01 1.772816467285156250e+01 7.238881587982177734e-01 6.072926521301269531e+00 2.039044380187988281e+00 -4.586162790656089783e-02
2.445000000000000000e+03 6.813363647460937500e+01 1.862928390502929688e+01 7.645861506462097168e-01 6.214374065399169922e+00 2.093688011169433594e+00 -1.866389252245426178e-02
2.446000000000000000e+03 1.197438430786132812e+01 1.455748081207275391e+01 -8.036028593778610229e-03 -9.798735380172729492e-03 -5.350429099053144455e-03 -3.816617187112569809e-03
2.447000000000000000e+03 6.526196289062500000e+01 7.493705272674560547e+00 8.769481182098388672e-01 6.027647018432617188e+00 2.071378469467163086e+00 7.651644200086593628e-02
2.448000000000000000e+03 3.962071990966796875e+01 -9.205982208251953125e+00 -2.066573143005371094e+00 8.107017517089843750e+00 1.812133431434631348e+00 -1.313038945198059082e+00
2.449000000000000000e+03 7.434846496582031250e+01 1.087682914733886719e+01 3.134040534496307373e-01 5.810797691345214844e+00 1.837260603904724121e+00 -5.713805556297302246e-01
2.450000000000000000e+03 1.375417327880859375e+01 -9.360010147094726562e+00 4.706175029277801514e-01 1.458343386650085449e+00 5.786882638931274414e-01 1.768444031476974487e-01
2.451000000000000000e+03 5.575977706909179688e+01 -8.003334045410156250e+00 -1.042741894721984863e+00 1.735951781272888184e+00 2.079629451036453247e-01 1.636373639106750488e+00
2.452000000000000000e+03 3.830959320068359375e+01 1.200693225860595703e+01 1.107674837112426758e+00 1.049002265930175781e+01 3.479309320449829102e+00 1.048859477043151855e+00
2.453000000000000000e+03 3.839100646972656250e+01 -8.915502548217773438e+00 -2.253851413726806641e+00 8.806037902832031250e+00 1.965655803680419922e+00 -1.213104605674743652e+00
2.454000000000000000e+03 6.279792785644531250e+01 -1.317532062530517578e+00 1.100091457366943359e+00 2.633031368255615234e+00 1.119936823844909668e+00 4.133931398391723633e-01
2.455000000000000000e+03 7.354882812500000000e+01 -8.455579757690429688e+00 -1.494934678077697754e+00 8.218205451965332031e+00 2.016981124877929688e+00 -1.539378523826599121e+00
2.456000000000000000e+03 7.518022155761718750e+01 -1.023580741882324219e+01 -1.727588295936584473e+00 1.026178932189941406e+01 2.560260295867919922e+00 -2.665072083473205566e-01
2.457000000000000000e+03 3.774941253662109375e+01 -6.385245800018310547e+00 -3.123653650283813477e+00 9.350591659545898438e+00 1.868081331253051758e+00 -1.438874006271362305e+00
2.458000000000000000e+03 7.419409179687500000e+01 1.224491310119628906e+01 3.412365019321441650e-01 5.757297039031982422e+00 1.829560041427612305e+00 -4.498862028121948242e-01
2.459000000000000000e+03 7.552342987060546875e+01 1.371211910247802734e+01 2.228851169347763062e-01 5.589596271514892578e+00 1.743744492530822754e+00 -2.667908668518066406e-01
2.460000000000000000e+03 1.224977588653564453e+01 2.447263717651367188e+01 -1.553541123867034912e-01 8.539807796478271484e-02 -2.098681032657623291e-02 1.289910823106765747e-01
2.461000000000000000e+03 4.101687908172607422e+00 -2.383361816406250000e+01 3.883053362369537354e-02 -3.450917303562164307e-01 -9.187835454940795898e-02 4.717250466346740723e-01
2.462000000000000000e+03 6.912286758422851562e+00 -2.360649299621582031e+01 9.102831035852432251e-02 3.928503692150115967e-01 1.451636105775833130e-01 5.803943276405334473e-01
2.463000000000000000e+03 4.016899108886718750e+01 -1.289680194854736328e+01 -2.095542103052139282e-02 7.949009895324707031e+00 2.378416299819946289e+00 -1.207512259483337402e+00
2.464000000000000000e+03 4.057507324218750000e+01 -1.066908454895019531e+01 -1.138690948486328125e+00 7.466675758361816406e+00 1.898395419120788574e+00 -1.146509170532226562e+00
2.465000000000000000e+03 1.753465080261230469e+01 -6.700173854827880859e+00 5.132662132382392883e-02 9.185432195663452148e-01 2.909609377384185791e-01 8.620897531509399414e-01
2.466000000000000000e+03 1.535991001129150391e+01 -6.065018177032470703e+00 -2.011340707540512085e-01 8.237764239311218262e-01 1.867927014827728271e-01 3.777990043163299561e-01
2.467000000000000000e+03 7.724997997283935547e+00 1.641796684265136719e+01 -3.204155340790748596e-02 5.367694422602653503e-03 -8.002158254384994507e-03 3.797734389081597328e-03
2.468000000000000000e+03 6.612486267089843750e+01 1.787404823303222656e+01 1.019859194755554199e+00 6.731368064880371094e+00 2.325368165969848633e+00 -3.152586817741394043e-01
2.469000000000000000e+03 5.122824478149414062e+01 -1.003683567047119141e+01 -8.340325355529785156e-01 1.186423897743225098e+00 1.057174354791641235e-01 2.502466917037963867e+00
2.470000000000000000e+03 4.550567150115966797e+00 1.904388809204101562e+01 -1.917262561619281769e-02 -1.000809855759143829e-02 -8.754217065870761871e-03 2.892418019473552704e-02
2.471000000000000000e+03 5.677642345428466797e+00 -1.564019584655761719e+01 3.739078938961029053e-01 -2.612205743789672852e-01 3.380619734525680542e-02 -6.088963896036148071e-02
2.472000000000000000e+03 5.773960590362548828e+00 1.882415962219238281e+01 -4.170200228691101074e-02 -1.488600042648613453e-03 -1.295718085020780563e-02 3.042232804000377655e-02
2.473000000000000000e+03 7.538086700439453125e+01 1.901582717895507812e+01 1.689299792051315308e-01 5.505889892578125000e+00 1.702445983886718750e+00 1.433643251657485962e-01
2.474000000000000000e+03 6.819321441650390625e+01 1.661204338073730469e+01 8.767028450965881348e-01 6.311956405639648438e+00 2.156597852706909180e+00 -2.148972153663635254e-01
2.475000000000000000e+03 6.678410339355468750e+01 1.491432380676269531e+01 9.384148716926574707e-01 6.776206493377685547e+00 2.314386367797851562e+00 -3.634666800498962402e-01
2.476000000000000000e+03 6.056967926025390625e+01 -4.875983715057373047e+00 4.980883002281188965e-01 1.437042593955993652e+00 5.805392861366271973e-01 8.933530449867248535e-01
2.477000000000000000e+03 6.133739089965820312e+01 -3.974195957183837891e+00 7.155320644378662109e-01 1.607253313064575195e+00 6.968356370925903320e-01 7.131770849227905273e-01
2.478000000000000000e+03 6.926654815673828125e+01 1.983936691284179688e+01 5.114746093750000000e-01 6.004531860351562500e+00 1.954801917076110840e+00 1.530127972364425659e-01
2.479000000000000000e+03 6.636938476562500000e+01 2.192428016662597656e+01 6.147923320531845093e-02 6.129578590393066406e+00 1.857317328453063965e+00 -1.934703998267650604e-02
2.480000000000000000e+03 6.675820922851562500e+01 -2.846660804748535156e+01 -9.061837196350097656e-01 1.894212841987609863e+00 2.964087128639221191e-01 2.171884775161743164e-01
2.481000000000000000e+03 5.861128330230712891e+00 -2.142915344238281250e+01 2.142219394445419312e-01 7.108456920832395554e-03 6.639911979436874390e-02 4.890330135822296143e-01
2.482000000000000000e+03 7.158625125885009766e+00 -2.009451293945312500e+01 3.859655559062957764e-01 3.503170907497406006e-01 2.208847999572753906e-01 4.376924932003021240e-01
2.483000000000000000e+03 7.412086486816406250e+01 1.873359680175781250e+01 2.435888499021530151e-01 5.609086990356445312e+00 1.755802750587463379e+00 1.235331743955612183e-01
2.484000000000000000e+03 5.760514068603515625e+01 3.145819854736328125e+01 4.150006473064422607e-01 2.777732849121093750e+00 9.578200578689575195e-01 -3.951490819454193115e-01
2.485000000000000000e+03 8.340928077697753906e+00 -3.239234924316406250e+01 -2.669030427932739258e-01 5.617952346801757812e-01 8.846766501665115356e-02 2.688268125057220459e-01
2.486000000000000000e+03 3.810544586181640625e+01 2.163039016723632812e+01 -1.152544766664505005e-01 5.800301074981689453e+00 1.705513954162597656e+00 8.358437418937683105e-01
2.487000000000000000e+03 3.861090469360351562e+01 2.045711517333984375e+01 2.522412920370697975e-03 5.995410919189453125e+00 1.799379944801330566e+00 9.164059758186340332e-01
2.488000000000000000e+03 2.479360198974609375e+01 -4.825788497924804688e+00 1.389491558074951172e-01 2.586515545845031738e-01 1.192802116274833679e-01 1.645122647285461426e+00
2.489000000000000000e+03 2.628630256652832031e+01 -5.796645164489746094e+00 -4.644829928874969482e-01 3.598587810993194580e-01 -3.138726204633712769e-02 1.811203956604003906e+00
2.490000000000000000e+03 1.072943973541259766e+01 -2.458101654052734375e+01 -5.706181749701499939e-02 1.343652248382568359e+00 3.859771192073822021e-01 4.866410791873931885e-01
2.491000000000000000e+03 7.322627258300781250e+01 2.897648239135742188e+01 -1.317178308963775635e-01 5.615792274475097656e+00 1.645222306251525879e+00 1.689881086349487305e-01
2.492000000000000000e+03 7.469364929199218750e+01 2.876304244995117188e+01 -7.849373668432235718e-02 5.653149604797363281e+00 1.672396779060363770e+00 1.933392882347106934e-01
2.493000000000000000e+03 4.151631927490234375e+01 -2.724147415161132812e+01 1.101029753684997559e+00 8.018793106079101562e+00 2.735946893692016602e+00 -3.633536994457244873e-01
2.494000000000000000e+03 3.694501876831054688e+01 2.119288253784179688e+01 -1.591455563902854919e-02 6.140156269073486328e+00 1.837272405624389648e+00 4.601599276065826416e-01
2.495000000000000000e+03 2.130842018127441406e+01 2.628911018371582031e+01 1.078193113207817078e-01 2.850786447525024414e-01 1.178693920373916626e-01 -3.490234613418579102e-01
2.496000000000000000e+03 4.757250785827636719e+00 2.548014259338378906e+01 -3.088022768497467041e-02 -5.408807098865509033e-02 -2.549048885703086853e-02 1.025581285357475281e-01
2.497000000000000000e+03 6.473527431488037109e+00 2.667531394958496094e+01 -3.349705412983894348e-02 -2.306500822305679321e-02 -1.696861907839775085e-02 1.302210539579391479e-01
2.498000000000000000e+03 2.049236106872558594e+01 -5.581511974334716797e+00 -6.763095501810312271e-03 5.548967123031616211e-01 1.644400805234909058e-01 1.165036082267761230e+00
2.499000000000000000e+03 1.212953186035156250e+01 -1.315868854522705078e+01 1.087887883186340332e+00 1.894374370574951172e+00 8.946787118911743164e-01 1.849582493305206299e-01
2.500000000000000000e+03 1.304178047180175781e+01 -2.734927177429199219e+01 -3.662151396274566650e-01 1.343436956405639648e+00 2.931665480136871338e-01 1.384354978799819946e-01
2.501000000000000000e+03 1.236732578277587891e+01 -2.907989501953125000e+01 -4.170516431331634521e-01 1.146398663520812988e+00 2.188040912151336670e-01 1.573335081338882446e-01
2.502000000000000000e+03 5.276951313018798828e+00 8.359338760375976562e+00 -1.224131323397159576e-03 -1.375202788040041924e-03 -7.798002334311604500e-04 -1.224782317876815796e-03
2.503000000000000000e+03 5.955135822296142578e+00 9.626217842102050781e+00 -3.370610938873142004e-04 -5.666577722877264023e-03 -1.801091595552861691e-03 -2.457515511196106672e-04
2.504000000000000000e+03 2.920438385009765625e+01 -4.581479072570800781e+00 4.962256550788879395e-01 9.555873274803161621e-01 4.355438947677612305e-01 1.360375881195068359e+00
2.505000000000000000e+03 6.100709152221679688e+01 2.278385734558105469e+01 -4.012700617313385010e-01 4.448637485504150391e+00 1.214210152626037598e+00 -1.731037139892578125e+00
2.506000000000000000e+03 6.012071990966796875e+01 2.646160697937011719e+01 -5.210688710212707520e-02 3.248430967330932617e+00 9.588972330093383789e-01 -1.299520373344421387e+00
2.507000000000000000e+03 1.915340781211853027e+00 3.453823471069335938e+01 -5.438936568680219352e-05 -3.291412293910980225e-01 -9.875869005918502808e-02 4.079383611679077148e-02
2.508000000000000000e+03 3.628163146972656250e+01 2.389808845520019531e+01 -3.490800261497497559e-01 5.496827602386474609e+00 1.544324278831481934e+00 3.388597667217254639e-01
2.509000000000000000e+03 3.900654602050781250e+01 -6.524904727935791016e+00 -2.977331399917602539e+00 8.867483139038085938e+00 1.767045378684997559e+00 -1.632948875427246094e+00
2.510000000000000000e+03 7.299423694610595703e+00 1.509205341339111328e+01 -2.029205672442913055e-02 1.264137332327663898e-03 -5.708375945687294006e-03 1.454313285648822784e-03
2.511000000000000000e+03 6.666840076446533203e+00 1.443785476684570312e+01 -1.208398491144180298e-02 -9.923517704010009766e-03 -6.602250970900058746e-03 5.445057991892099380e-03
2.512000000000000000e+03 5.232904052734375000e+01 -1.079744052886962891e+01 -9.103212952613830566e-01 1.081077218055725098e+00 5.122679099440574646e-02 2.183398485183715820e+00
2.513000000000000000e+03 7.294066619873046875e+01 7.138075828552246094e+00 4.203466475009918213e-01 5.948376178741455078e+00 1.910616755485534668e+00 -9.641277790069580078e-01
2.514000000000000000e+03 1.444980907440185547e+01 -2.826513099670410156e+01 -4.458620250225067139e-01 1.248259782791137695e+00 2.407193332910537720e-01 -8.233053982257843018e-02
2.515000000000000000e+03 7.457380676269531250e+01 -1.686978638172149658e-01 1.122938543558120728e-01 6.734547615051269531e+00 2.054052352905273438e+00 -1.397047996520996094e+00
2.516000000000000000e+03 6.622335052490234375e+01 -3.589377593994140625e+01 6.202865242958068848e-01 2.447852611541748047e+00 9.204417467117309570e-01 5.174493789672851562e-01
2.517000000000000000e+03 3.738877105712890625e+01 -2.591835594177246094e+01 9.930447936058044434e-01 6.981322288513183594e+00 2.392310142517089844e+00 6.588666439056396484e-01
2.518000000000000000e+03 5.973190307617187500e+01 -8.770292282104492188e+00 -1.520628452301025391e+00 7.918683290481567383e-01 -2.186280339956283569e-01 9.513912200927734375e-01
2.519000000000000000e+03 8.392792701721191406e+00 -1.379565334320068359e+01 6.877611875534057617e-01 5.459986925125122070e-01 3.701279759407043457e-01 -1.747327297925949097e-01
2.520000000000000000e+03 6.531579017639160156e+00 -1.321475601196289062e+01 4.615674912929534912e-01 -2.049610391259193420e-02 1.323214173316955566e-01 -3.160384595394134521e-01
2.521000000000000000e+03 7.180551147460937500e+01 -1.389743518829345703e+01 2.464182823896408081e-01 6.105891704559326172e+00 1.905692934989929199e+00 -3.568655014038085938e+00
2.522000000000000000e+03 7.164568328857421875e+01 -1.358253574371337891e+01 8.100986480712890625e-02 5.917132377624511719e+00 1.799442648887634277e+00 -3.287862300872802734e+00
2.523000000000000000e+03 7.558453369140625000e+01 -1.766676139831542969e+01 2.930212497711181641e+00 1.334848213195800781e+01 4.883608341217041016e+00 -2.542685985565185547e+00
2.524000000000000000e+03 7.528091430664062500e+01 -1.770835876464843750e+01 2.859313249588012695e+00 1.433759021759033203e+01 5.159070968627929688e+00 -2.627676725387573242e+00
2.525000000000000000e+03 7.577322387695312500e+01 -1.798019981384277344e+01 2.115312337875366211e+00 1.290436458587646484e+01 4.505903244018554688e+00 -2.457683086395263672e+00
2.526000000000000000e+03 7.464880371093750000e+01 -1.885907363891601562e+01 -5.350202322006225586e-01 1.460937023162841797e+01 4.222305297851562500e+00 -1.110049128532409668e+00
2.527000000000000000e+03 7.522871398925781250e+01 -1.880448913574218750e+01 -8.835694193840026855e-02 1.381964111328125000e+01 4.119385242462158203e+00 -1.831355690956115723e+00
2.528000000000000000e+03 7.534201812744140625e+01 -1.805106735229492188e+01 1.765531897544860840e+00 1.407610225677490234e+01 4.752490520477294922e+00 -2.462028980255126953e+00
2.529000000000000000e+03 7.362917327880859375e+01 -1.916010475158691406e+01 -1.105238556861877441e+00 1.349052810668945312e+01 3.715586900711059570e+00 1.443153262138366699e+00
2.530000000000000000e+03 7.049242401123046875e+01 -1.310094070434570312e+01 -7.965136766433715820e-01 3.514654636383056641e+00 8.154423236846923828e-01 -1.906198978424072266e+00
2.531000000000000000e+03 7.146912384033203125e+01 -1.325175285339355469e+01 -4.395394921302795410e-01 5.715487957000732422e+00 1.582784533500671387e+00 -2.957437753677368164e+00
2.532000000000000000e+03 7.648984527587890625e+01 -1.576418972015380859e+01 3.144003868103027344e+00 1.074994468688964844e+01 4.168184757232666016e+00 8.773093819618225098e-01
2.533000000000000000e+03 7.449110412597656250e+01 -1.439553546905517578e+01 -1.144148632884025574e-01 1.656667900085449219e+01 4.935679435729980469e+00 1.221011996269226074e+00
2.534000000000000000e+03 7.525723266601562500e+01 -1.348893451690673828e+01 -8.531922698020935059e-01 1.351489257812500000e+01 3.798510074615478516e+00 1.515429258346557617e+00
2.535000000000000000e+03 7.551571655273437500e+01 -1.725649452209472656e+01 4.153874397277832031e+00 1.339132785797119141e+01 5.263560771942138672e+00 -2.241614580154418945e+00
2.536000000000000000e+03 7.510230255126953125e+01 -1.446911716461181641e+01 9.677237868309020996e-01 1.489413070678710938e+01 4.758556365966796875e+00 2.282282590866088867e+00
2.537000000000000000e+03 7.597937011718750000e+01 -1.260832977294921875e+01 -1.097456216812133789e+00 1.189739418029785156e+01 3.239981412887573242e+00 1.507014751434326172e+00
2.538000000000000000e+03 7.450222778320312500e+01 -1.372060966491699219e+01 -1.283531427383422852e+00 1.478417873382568359e+01 4.050194263458251953e+00 4.862439930438995361e-01
2.539000000000000000e+03 7.647915649414062500e+01 -1.615971755981445312e+01 3.425970554351806641e+00 1.064332675933837891e+01 4.220788955688476562e+00 2.467869967222213745e-01
2.540000000000000000e+03 7.564794921875000000e+01 -1.424397945404052734e+01 8.604367375373840332e-01 1.332061672210693359e+01 4.254315853118896484e+00 2.410040616989135742e+00
2.541000000000000000e+03 7.534040069580078125e+01 -1.406183147430419922e+01 1.531171947717666626e-01 1.385695743560791016e+01 4.203022480010986328e+00 2.042764663696289062e+00
2.542000000000000000e+03 7.581417846679687500e+01 -1.674150276184082031e+01 4.804436206817626953e+00 1.218491172790527344e+01 5.096804618835449219e+00 -1.140873789787292480e+00
2.543000000000000000e+03 7.640515136718750000e+01 -1.654590988159179688e+01 3.648432493209838867e+00 1.086903667449951172e+01 4.355240821838378906e+00 -5.991140007972717285e-01
2.544000000000000000e+03 7.165251159667968750e+01 -1.890487289428710938e+01 1.054895401000976562e+00 5.604629516601562500e+00 1.997857451438903809e+00 3.187783241271972656e+00
2.545000000000000000e+03 7.014976501464843750e+01 -1.297753906250000000e+01 -8.789261579513549805e-01 3.198929309844970703e+00 6.960009336471557617e-01 -1.468956470489501953e+00
2.546000000000000000e+03 6.119579792022705078e+00 -5.709187030792236328e+00 -1.591041982173919678e-01 -9.126170724630355835e-02 -7.510977238416671753e-02 -6.266233325004577637e-01
2.547000000000000000e+03 9.149183273315429688e+00 -6.300955772399902344e+00 -1.561690270900726318e-01 2.699303328990936279e-01 3.412839397788047791e-02 -5.597351193428039551e-01
2.548000000000000000e+03 7.610979461669921875e+01 -1.833512687683105469e+01 1.201220750808715820e+00 1.221300125122070312e+01 4.024266719818115234e+00 -2.437675237655639648e+00
2.549000000000000000e+03 7.640975189208984375e+01 -1.796846580505371094e+01 1.917275190353393555e+00 1.152507877349853516e+01 4.032706260681152344e+00 -2.294945001602172852e+00
2.550000000000000000e+03 7.142373657226562500e+01 -1.997733688354492188e+01 2.248342037200927734e-01 5.644731044769287109e+00 1.760869503021240234e+00 2.447818517684936523e+00
2.551000000000000000e+03 7.617876434326171875e+01 -1.902612686157226562e+01 1.773403882980346680e-01 1.184733867645263672e+01 3.607403755187988281e+00 -2.336916446685791016e+00
2.552000000000000000e+03 1.089727306365966797e+01 5.748083114624023438e+00 3.529867390170693398e-03 -8.643480832688510418e-04 7.996557396836578846e-04 1.164099550805985928e-03
2.553000000000000000e+03 1.171171855926513672e+01 5.806771278381347656e+00 -2.496880944818258286e-03 -4.717457923106849194e-04 -8.905879803933203220e-04 2.044271677732467651e-03
2.554000000000000000e+03 7.160793304443359375e+01 -2.165460014343261719e+01 -6.163145303726196289e-01 6.500221729278564453e+00 1.765172123908996582e+00 1.639955878257751465e+00
2.555000000000000000e+03 7.307723236083984375e+01 -1.872939109802246094e+01 -3.490705788135528564e-01 1.238774871826171875e+01 3.611603498458862305e+00 3.134469032287597656e+00
2.556000000000000000e+03 1.004022407531738281e+01 -5.566519737243652344e+00 -2.876189649105072021e-01 3.019188046455383301e-01 4.289947915822267532e-03 -4.636331498622894287e-01
2.557000000000000000e+03 7.629548645019531250e+01 -1.422560977935791016e+01 9.061425328254699707e-01 1.192747306823730469e+01 3.850084543228149414e+00 2.348167896270751953e+00
2.558000000000000000e+03 7.556792449951171875e+01 -1.368196582794189453e+01 -3.649686574935913086e-01 1.318466758728027344e+01 3.845909833908081055e+00 1.940695285797119141e+00
2.559000000000000000e+03 6.844562530517578125e+01 -9.289993286132812500e+00 -1.585820674896240234e+00 2.571511268615722656e+00 2.957071661949157715e-01 -2.115813493728637695e+00
2.560000000000000000e+03 7.164772510528564453e+00 -6.109294414520263672e+00 -1.409428268671035767e-01 2.365443669259548187e-02 -3.518651798367500305e-02 -6.342489719390869141e-01
2.561000000000000000e+03 7.607585906982421875e+01 -1.775127410888671875e+01 2.521187305450439453e+00 1.210596179962158203e+01 4.388144969940185547e+00 -2.347798109054565430e+00
2.562000000000000000e+03 7.581971740722656250e+01 -1.747507667541503906e+01 3.218710422515869141e+00 1.262883567810058594e+01 4.754263877868652344e+00 -2.279356479644775391e+00
2.563000000000000000e+03 7.566194915771484375e+01 -1.197850990295410156e+01 -1.626116394996643066e+00 1.172835063934326172e+01 3.030670404434204102e+00 9.269325733184814453e-01
2.564000000000000000e+03 1.330278015136718750e+01 5.966784000396728516e+00 -3.493882482871413231e-03 1.420988701283931732e-03 -6.218681228347122669e-04 2.138442359864711761e-03
2.565000000000000000e+03 1.012787818908691406e+01 5.630799770355224609e+00 -9.742862894199788570e-04 -1.412651734426617622e-03 -7.160814129747450352e-04 1.325535704381763935e-04
2.566000000000000000e+03 9.198255538940429688e+00 6.065999507904052734e+00 1.317459973506629467e-03 -1.242912723682820797e-03 2.236417640233412385e-05 -5.677380831912159920e-04
2.567000000000000000e+03 7.524623107910156250e+01 -1.141673946380615234e+01 -1.816285490989685059e+00 1.122565460205078125e+01 2.822810888290405273e+00 2.189864516258239746e-01
2.568000000000000000e+03 7.450294494628906250e+01 -2.197054290771484375e+01 -1.447477340698242188e+00 1.043760490417480469e+01 2.697038412094116211e+00 -8.349624276161193848e-02
2.569000000000000000e+03 1.871430587768554688e+01 -5.219643115997314453e+00 -1.348332017660140991e-01 6.024637818336486816e-01 1.402891874313354492e-01 9.344307780265808105e-01
2.570000000000000000e+03 1.374350070953369141e+01 -8.364050865173339844e+00 2.223130613565444946e-01 1.186100363731384277e+00 4.225240051746368408e-01 1.028174459934234619e-01
2.571000000000000000e+03 7.309152221679687500e+01 -2.104983139038085938e+01 -1.238529086112976074e+00 9.644323348999023438e+00 2.521738290786743164e+00 1.294533252716064453e+00
2.572000000000000000e+03 6.886794281005859375e+01 -9.879087448120117188e+00 -1.739886522293090820e+00 2.999017715454101562e+00 3.777393400669097900e-01 -2.185081958770751953e+00
2.573000000000000000e+03 6.774495697021484375e+01 -9.839126586914062500e+00 -1.971546411514282227e+00 1.928543806076049805e+00 -1.290077343583106995e-02 -1.891641855239868164e+00
2.574000000000000000e+03 7.250174713134765625e+01 -2.355156135559082031e+01 -1.091826915740966797e+00 7.382073402404785156e+00 1.887073993682861328e+00 8.224148750305175781e-01
2.575000000000000000e+03 6.907620429992675781e+00 5.880074024200439453e+00 2.084271516650915146e-03 -3.019791329279541969e-04 5.346877151168882847e-04 -6.599535699933767319e-04
2.576000000000000000e+03 6.591114521026611328e+00 6.966597557067871094e+00 1.886149751953780651e-03 -1.281864126212894917e-03 1.812856644392013550e-04 -1.435625716112554073e-03
2.577000000000000000e+03 6.203756332397460938e+01 -8.001792907714843750e+00 -1.402542114257812500e+00 2.666299641132354736e-01 -3.407736420631408691e-01 5.586708784103393555e-01
2.578000000000000000e+03 9.259037017822265625e+00 -7.060719966888427734e+00 -3.677269443869590759e-02 3.428979516029357910e-01 9.183757752180099487e-02 -5.603603720664978027e-01
2.579000000000000000e+03 6.935421752929687500e+01 -1.131013870239257812e+01 -2.254475831985473633e+00 3.146553754806518555e+00 2.676233947277069092e-01 -1.865713715553283691e+00
2.580000000000000000e+03 6.847895622253417969e+00 1.040984153747558594e+01 -1.042083255015313625e-03 -7.110883481800556183e-03 -2.445890102535486221e-03 -3.418897686060518026e-04
2.581000000000000000e+03 6.408354282379150391e+00 1.220038509368896484e+01 -6.071348674595355988e-03 -5.820558406412601471e-03 -3.567572217434644699e-03 2.025307621806859970e-03
2.582000000000000000e+03 7.811964511871337891e+00 6.425645351409912109e+00 3.015912603586912155e-03 -1.285314443521201611e-03 5.191795062273740768e-04 7.797903381288051605e-04
2.583000000000000000e+03 2.415783119201660156e+01 -3.704782247543334961e+00 3.782233595848083496e-01 1.507106125354766846e-01 1.586801856756210327e-01 1.392615675926208496e+00
2.584000000000000000e+03 1.361612319946289062e+01 -5.559963226318359375e+00 -3.219077587127685547e-01 5.968086719512939453e-01 8.247026801109313965e-02 1.611980609595775604e-02
2.585000000000000000e+03 1.417014408111572266e+01 -6.567941188812255859e+00 -1.129117980599403381e-01 8.643422722816467285e-01 2.254291474819183350e-01 1.490193009376525879e-01
2.586000000000000000e+03 6.222924709320068359e+00 8.852277755737304688e+00 2.778945956379175186e-03 -4.305531736463308334e-03 -4.579757805913686752e-04 -1.479732571169734001e-03
2.587000000000000000e+03 1.675409507751464844e+01 -5.843247890472412109e+00 -1.660382896661758423e-01 7.973574399948120117e-01 1.893957406282424927e-01 6.415251493453979492e-01
2.588000000000000000e+03 1.748259544372558594e+01 -6.012034893035888672e+00 -8.051582425832748413e-02 8.593090176582336426e-01 2.336379587650299072e-01 8.264982700347900391e-01
2.589000000000000000e+03 6.639505004882812500e+01 -7.423860073089599609e+00 -8.226019144058227539e-01 1.338280677795410156e+00 1.547036468982696533e-01 -1.475196480751037598e+00
2.590000000000000000e+03 6.570615386962890625e+01 -6.896734237670898438e+00 -3.612141609191894531e-01 1.204345822334289551e+00 2.529394924640655518e-01 -1.177224874496459961e+00
2.591000000000000000e+03 7.605661773681640625e+01 -2.008545875549316406e+01 -8.258068561553955078e-01 1.179480934143066406e+01 3.290700674057006836e+00 -1.905260562896728516e+00
2.592000000000000000e+03 7.589038085937500000e+01 -1.930670738220214844e+01 -3.633036315441131592e-01 1.250794792175292969e+01 3.643393278121948242e+00 -2.098502874374389648e+00
2.593000000000000000e+03 6.000693321228027344e+00 -8.718523025512695312e+00 9.903506189584732056e-02 -1.616571247577667236e-01 -1.878661662340164185e-02 -6.221321225166320801e-01
2.594000000000000000e+03 7.556044006347656250e+01 -1.964056968688964844e+01 -7.613155245780944824e-01 1.266354751586914062e+01 3.570669651031494141e+00 -1.769284009933471680e+00
2.595000000000000000e+03 7.438928222656250000e+01 -1.932951354980468750e+01 -1.135932683944702148e+00 1.386937618255615234e+01 3.820033073425292969e+00 -2.559354305267333984e-01
2.596000000000000000e+03 6.026241302490234375e+01 -7.833178520202636719e+00 -1.267840862274169922e+00 8.721681833267211914e-01 -1.187017932534217834e-01 9.643911123275756836e-01
2.597000000000000000e+03 1.272652626037597656e+01 -9.363453865051269531e+00 4.151628911495208740e-01 1.252903223037719727e+00 5.004198551177978516e-01 -8.444458246231079102e-02
2.598000000000000000e+03 9.528759002685546875e+00 -1.197851753234863281e+01 6.519912481307983398e-01 7.549607753753662109e-01 4.220856130123138428e-01 -3.168136775493621826e-01
2.599000000000000000e+03 6.160039901733398438e+00 6.171897411346435547e+00 5.621852469630539417e-04 -3.051722189411520958e-03 -7.468611001968383789e-04 -5.026996368542313576e-04
2.600000000000000000e+03 7.615659713745117188e+00 5.701110363006591797e+00 -2.171219093725085258e-04 -2.278068568557500839e-03 -7.485571550205349922e-04 -3.427393676247447729e-04
2.601000000000000000e+03 2.630853462219238281e+01 -3.306406021118164062e+00 1.195038914680480957e+00 4.973980598151683807e-03 3.600038588047027588e-01 1.618036627769470215e+00
2.602000000000000000e+03 8.555858612060546875e+00 6.382116794586181641e+00 -1.749624498188495636e-03 -1.688426011241972446e-03 -1.031415187753736973e-03 5.680572357960045338e-04
2.603000000000000000e+03 7.442154693603515625e+01 -1.073265457153320312e+01 -1.993946671485900879e+00 1.039675140380859375e+01 2.520841360092163086e+00 -7.139120697975158691e-01
2.604000000000000000e+03 1.289607906341552734e+01 -5.399022102355957031e+00 -3.404206931591033936e-01 5.491380095481872559e-01 6.261518597602844238e-02 -8.608453720808029175e-02
2.605000000000000000e+03 1.332209014892578125e+01 -6.351568222045898438e+00 -1.503114104270935059e-01 7.351606488227844238e-01 1.754547655582427979e-01 -6.519692484289407730e-03
2.606000000000000000e+03 7.345709228515625000e+01 -7.609013557434082031e+00 -1.225087761878967285e+00 7.786990642547607422e+00 1.968570828437805176e+00 -1.603667616844177246e+00
2.607000000000000000e+03 7.443114471435546875e+01 -8.525710105895996094e+00 -1.413443207740783691e+00 8.861541748046875000e+00 2.234429597854614258e+00 -1.072303175926208496e+00
2.608000000000000000e+03 1.202046108245849609e+01 -6.724361896514892578e+00 -8.660051226615905762e-02 6.864423155784606934e-01 1.799525320529937744e-01 -2.328106611967086792e-01
2.609000000000000000e+03 1.389834785461425781e+01 -7.436203002929687500e+00 6.100656092166900635e-02 1.045367479324340820e+00 3.319121897220611572e-01 1.332403868436813354e-01
2.610000000000000000e+03 9.902018547058105469e+00 6.469160556793212891e+00 3.606701269745826721e-03 -1.783168874680995941e-03 5.470596952363848686e-04 1.770966686308383942e-03
2.611000000000000000e+03 1.263972568511962891e+01 7.582216262817382812e+00 3.726996714249253273e-03 8.826203411445021629e-04 1.382885151542723179e-03 6.734582711942493916e-04
2.612000000000000000e+03 7.346250915527343750e+01 -2.555640459060668945e+00 -8.559025824069976807e-02 6.573768615722656250e+00 1.946453452110290527e+00 -1.624806761741638184e+00
2.613000000000000000e+03 7.467607879638671875e+01 -4.156318187713623047e+00 -3.460499942302703857e-01 7.417827129364013672e+00 2.121533155441284180e+00 -1.439183115959167480e+00
2.614000000000000000e+03 6.842607116699218750e+01 8.178846359252929688e+00 7.630817294120788574e-01 5.955863475799560547e+00 2.015683650970458984e+00 -6.077777147293090820e-01
2.615000000000000000e+03 6.630675506591796875e+01 8.306890487670898438e+00 8.128376007080078125e-01 6.171419620513916016e+00 2.095277309417724609e+00 -2.164525985717773438e-01
2.616000000000000000e+03 6.823909759521484375e+01 -8.507390975952148438e+00 -1.379325509071350098e+00 2.668810129165649414e+00 3.868453800678253174e-01 -2.160573482513427734e+00
2.617000000000000000e+03 6.694293212890625000e+01 -6.879289150238037109e+00 -3.781092762947082520e-01 1.961871266365051270e+00 4.751285910606384277e-01 -1.717028141021728516e+00
2.618000000000000000e+03 5.474074172973632812e+01 -1.022247886657714844e+01 -1.436908721923828125e+00 1.212643504142761230e+00 -6.727956235408782959e-02 1.732635974884033203e+00
2.619000000000000000e+03 1.390406608581542969e+01 6.386473655700683594e+00 1.655783038586378098e-03 -1.334636704996228218e-03 9.634388698032125831e-05 1.505562104284763336e-03
2.620000000000000000e+03 2.290407943725585938e+01 -5.292057514190673828e+00 8.391486853361129761e-02 4.227177798748016357e-01 1.519897878170013428e-01 1.417657494544982910e+00
2.621000000000000000e+03 7.390938568115234375e+01 -2.375321960449218750e+01 -1.207533597946166992e+00 8.845874786376953125e+00 2.291502237319946289e+00 2.395647913217544556e-01
2.622000000000000000e+03 7.230158233642578125e+01 -2.795779609680175781e+01 -6.530620455741882324e-01 6.447597026824951172e+00 1.738360524177551270e+00 6.390756368637084961e-01
2.623000000000000000e+03 7.518936920166015625e+01 -6.598106861114501953e+00 -7.809689640998840332e-01 8.408257484436035156e+00 2.288186788558959961e+00 -1.053553700447082520e+00
2.624000000000000000e+03 5.802266311645507812e+01 -6.018788337707519531e+00 -1.150737255811691284e-01 1.646882772445678711e+00 4.595426917076110840e-01 1.335732936859130859e+00
2.625000000000000000e+03 3.782044601440429688e+01 -5.113189220428466797e+00 -2.760824918746948242e+00 9.664887428283691406e+00 2.071218729019165039e+00 -1.342382073402404785e+00
2.626000000000000000e+03 3.938682174682617188e+01 -2.624912071228027344e+01 1.150956749916076660e+00 7.554233551025390625e+00 2.611557006835937500e+00 -1.148286648094654083e-02
2.627000000000000000e+03 3.994143295288085938e+01 -8.015304565429687500e+00 -2.456698656082153320e+00 7.965373992919921875e+00 1.652602553367614746e+00 -1.523542404174804688e+00
2.628000000000000000e+03 9.204150199890136719e+00 1.864326477050781250e+01 -6.750368326902389526e-02 1.152206491678953171e-02 -1.679448597133159637e-02 1.325694099068641663e-02
2.629000000000000000e+03 1.751956176757812500e+01 -8.296599388122558594e+00 4.389273226261138916e-01 1.234998941421508789e+00 5.021778941154479980e-01 9.747206568717956543e-01
2.630000000000000000e+03 1.436341094970703125e+01 5.841166973114013672e+00 -2.271997509524226189e-03 1.709987875074148178e-03 -1.686028845142573118e-04 1.520430552773177624e-03
2.631000000000000000e+03 3.718426132202148438e+01 -8.580306053161621094e+00 -2.799041748046875000e+00 9.161201477050781250e+00 1.908648014068603516e+00 -1.175695896148681641e+00
2.632000000000000000e+03 6.927287292480468750e+01 1.089302444458007812e+01 7.569440603256225586e-01 6.119011402130126953e+00 2.062786579132080078e+00 -5.794709324836730957e-01
2.633000000000000000e+03 6.784518432617187500e+01 1.204078865051269531e+01 8.249114751815795898e-01 6.418717384338378906e+00 2.173088550567626953e+00 -4.722518622875213623e-01
2.634000000000000000e+03 7.739295959472656250e+00 1.044638442993164062e+01 1.960315043106675148e-03 -3.380787558853626251e-03 -4.261417197994887829e-04 -1.111936056986451149e-03
2.635000000000000000e+03 6.531688690185546875e+01 8.870041370391845703e-01 9.881293177604675293e-01 3.882346630096435547e+00 1.461142778396606445e+00 -3.030812442302703857e-01
2.636000000000000000e+03 6.491097259521484375e+01 1.749723196029663086e+00 9.887260198593139648e-01 4.150091648101806641e+00 1.541645288467407227e+00 -1.066417098045349121e-01
2.637000000000000000e+03 7.440346527099609375e+01 -2.997922515869140625e+01 -3.216434717178344727e-01 7.948738574981689453e+00 2.288128376007080078e+00 4.553209543228149414e-01
2.638000000000000000e+03 7.483569335937500000e+01 -2.717776679992675781e+01 -5.691879987716674805e-01 8.581029891967773438e+00 2.403552770614624023e+00 1.863854378461837769e-01
2.639000000000000000e+03 7.399566650390625000e+01 -5.600647926330566406e+00 -6.582880020141601562e-01 7.483605384826660156e+00 2.047595262527465820e+00 -1.523672699928283691e+00
2.640000000000000000e+03 8.600307464599609375e+00 1.363409614562988281e+01 -7.937416434288024902e-03 -3.538191085681319237e-03 -3.442682093009352684e-03 -2.761018928140401840e-03
2.641000000000000000e+03 1.094357681274414062e+01 1.304573917388916016e+01 -5.609800573438405991e-03 -8.749448694288730621e-03 -4.307774826884269714e-03 4.941644729115068913e-04
2.642000000000000000e+03 7.517440319061279297e+00 1.435460662841796875e+01 -1.146034244447946548e-02 -2.655325923115015030e-03 -4.234700463712215424e-03 -5.434733466245234013e-04
2.643000000000000000e+03 7.517338275909423828e+00 1.343436622619628906e+01 -9.915476664900779724e-03 -7.915752939879894257e-03 -5.349369253963232040e-03 2.629095921292901039e-03
2.644000000000000000e+03 7.647614002227783203e+00 -1.673969841003417969e+01 6.263934969902038574e-01 3.817904293537139893e-01 3.024551868438720703e-01 1.091599762439727783e-01
2.645000000000000000e+03 8.766366958618164062e+00 -1.566832828521728516e+01 7.602999806404113770e-01 7.364056706428527832e-01 4.490116834640502930e-01 5.747346580028533936e-02
2.646000000000000000e+03 1.920910263061523438e+01 -6.527627468109130859e+00 1.035502180457115173e-01 7.536193132400512695e-01 2.571508586406707764e-01 1.081704139709472656e+00
2.647000000000000000e+03 6.114991760253906250e+01 -2.236551284790039062e+00 1.160394549369812012e+00 2.074044704437255859e+00 9.703317880630493164e-01 9.295907020568847656e-01
2.648000000000000000e+03 4.116793823242187500e+01 -1.407804107666015625e+01 4.696425497531890869e-01 7.765502452850341797e+00 2.470543384552001953e+00 -1.122833847999572754e+00
2.649000000000000000e+03 4.125757598876953125e+01 -1.311287117004394531e+01 2.241786867380142212e-01 7.381567001342773438e+00 2.281723737716674805e+00 -9.205936789512634277e-01
2.650000000000000000e+03 4.249543762207031250e+01 -1.477201843261718750e+01 7.756813764572143555e-01 7.278097629547119141e+00 2.416133642196655273e+00 -7.514625787734985352e-01
2.651000000000000000e+03 1.030943870544433594e+01 -1.134742069244384766e+01 6.485494375228881836e-01 9.362456202507019043e-01 4.754385352134704590e-01 -2.778485417366027832e-01
2.652000000000000000e+03 1.464384841918945312e+01 -8.426091194152832031e+00 2.771358788013458252e-01 1.331075429916381836e+00 4.824633896350860596e-01 3.316107690334320068e-01
2.653000000000000000e+03 3.674309158325195312e+01 -6.930264472961425781e+00 -3.136973381042480469e+00 9.295983314514160156e+00 1.847702980041503906e+00 -1.276535272598266602e+00
2.654000000000000000e+03 7.173581600189208984e+00 1.728814697265625000e+01 -3.261476382613182068e-02 -4.149608779698610306e-03 -1.102931145578622818e-02 1.568388193845748901e-02
2.655000000000000000e+03 7.043979644775390625e+01 -3.512910842895507812e+01 2.865566313266754150e-01 4.870643615722656250e+00 1.547160148620605469e+00 7.041246294975280762e-01
2.656000000000000000e+03 6.807087707519531250e+01 9.410120964050292969e+00 7.820448875427246094e-01 6.134506702423095703e+00 2.074965476989746094e+00 -5.222739577293395996e-01
2.657000000000000000e+03 5.353266716003417969e+00 1.575010299682617188e+01 -1.786793582141399384e-02 -6.505937781184911728e-03 -7.312161847949028015e-03 1.118387281894683838e-02
2.658000000000000000e+03 3.870907592773437500e+01 -1.830177497863769531e+01 1.555476188659667969e+00 9.202578544616699219e+00 3.227416515350341797e+00 -1.362044811248779297e+00
2.659000000000000000e+03 4.085509109497070312e+01 -9.517491340637207031e+00 -1.590687513351440430e+00 7.192017555236816406e+00 1.680398941040039062e+00 -1.261414647102355957e+00
2.660000000000000000e+03 7.985702991485595703e+00 2.258459472656250000e+01 -9.167309850454330444e-02 2.661360800266265869e-02 -1.951784640550613403e-02 8.992916345596313477e-02
2.661000000000000000e+03 7.118815422058105469e+00 2.343548965454101562e+01 -6.343889236450195312e-02 1.153525896370410919e-02 -1.557109039276838303e-02 9.450215101242065430e-02
2.662000000000000000e+03 7.305928039550781250e+01 1.502632427215576172e+01 4.257654845714569092e-01 5.751474857330322266e+00 1.853172063827514648e+00 -2.225114852190017700e-01
2.663000000000000000e+03 7.278833770751953125e+01 1.384767055511474609e+01 4.751207232475280762e-01 5.795929431915283203e+00 1.881314992904663086e+00 -3.460268378257751465e-01
2.664000000000000000e+03 4.282241821289062500e+01 -1.340588569641113281e+01 1.978062242269515991e-01 6.669032096862792969e+00 2.060051441192626953e+00 -6.388600468635559082e-01
2.665000000000000000e+03 9.980443000793457031e+00 2.466405105590820312e+01 -1.114670038223266602e-01 6.183517724275588989e-02 -1.488954853266477585e-02 1.294237077236175537e-01
2.666000000000000000e+03 1.007724189758300781e+01 -1.794170570373535156e+01 7.910749912261962891e-01 1.442975044250488281e+00 6.702150106430053711e-01 3.894033730030059814e-01
2.667000000000000000e+03 7.333921432495117188e+00 -1.887338447570800781e+01 4.936961829662322998e-01 3.843243718147277832e-01 2.634061574935913086e-01 3.280659615993499756e-01
2.668000000000000000e+03 1.069886112213134766e+01 -3.097620391845703125e+01 -3.733691275119781494e-01 8.422947525978088379e-01 1.406776905059814453e-01 1.957790851593017578e-01
2.669000000000000000e+03 8.088780403137207031e+00 -2.960655021667480469e+01 -2.489079684019088745e-01 5.654935836791992188e-01 9.497568011283874512e-02 3.975847959518432617e-01
2.670000000000000000e+03 8.172809600830078125e+00 -2.143799400329589844e+01 3.553888499736785889e-01 7.650712132453918457e-01 3.361380100250244141e-01 5.518408417701721191e-01
2.671000000000000000e+03 7.537843704223632812e+00 -1.777518081665039062e+01 5.361869931221008301e-01 4.227533638477325439e-01 2.876821160316467285e-01 2.438857406377792358e-01
2.672000000000000000e+03 7.660322570800781250e+01 2.055233573913574219e+01 6.188290193676948547e-02 5.420359611511230469e+00 1.644672751426696777e+00 1.904401928186416626e-01
2.673000000000000000e+03 4.278741836547851562e+01 -1.240204048156738281e+01 -1.318373680114746094e-01 6.554148197174072266e+00 1.926693201065063477e+00 -5.037694573402404785e-01
2.674000000000000000e+03 7.284616851806640625e+01 -2.919554519653320312e+01 -4.614697694778442383e-01 6.870937347412109375e+00 1.922840237617492676e+00 6.067107319831848145e-01
2.675000000000000000e+03 6.850724792480468750e+01 2.116337966918945312e+01 2.947389185428619385e-01 6.030461311340332031e+00 1.897560119628906250e+00 1.792463511228561401e-01
2.676000000000000000e+03 7.307356262207031250e+01 1.070624923706054688e+01 4.313609898090362549e-01 5.861743927001953125e+00 1.887931466102600098e+00 -6.362453699111938477e-01
2.677000000000000000e+03 7.322080993652343750e+01 9.495581626892089844e+00 4.193449020385742188e-01 5.893756866455078125e+00 1.893930554389953613e+00 -7.370281219482421875e-01
2.678000000000000000e+03 8.167311668395996094e+00 -2.452921485900878906e+01 -9.643144905567169189e-03 7.724150419235229492e-01 2.288315594196319580e-01 6.018695235252380371e-01
2.679000000000000000e+03 7.805303096771240234e+00 -2.809612464904785156e+01 -1.982687860727310181e-01 5.487235784530639648e-01 1.051364392042160034e-01 4.770640730857849121e-01
2.680000000000000000e+03 4.117672729492187500e+01 -8.344925880432128906e+00 -2.192876338958740234e+00 6.826198101043701172e+00 1.389996528625488281e+00 -1.479193806648254395e+00
2.681000000000000000e+03 4.543712615966796875e+01 -1.197952842712402344e+01 -6.113622337579727173e-02 4.263509750366210938e+00 1.260712027549743652e+00 7.645335793495178223e-01
2.682000000000000000e+03 7.353838348388671875e+01 -4.491775035858154297e+00 -4.188913404941558838e-01 6.923198223114013672e+00 1.951292037963867188e+00 -1.664149880409240723e+00
2.683000000000000000e+03 7.183444976806640625e+00 -1.241608524322509766e+01 4.720783531665802002e-01 1.489667445421218872e-01 1.863135248422622681e-01 -3.863449096679687500e-01
2.684000000000000000e+03 7.443986415863037109e+00 -1.377643966674804688e+01 5.779460072517395020e-01 2.523598968982696533e-01 2.490917742252349854e-01 -2.314499616622924805e-01
2.685000000000000000e+03 7.136345672607421875e+01 -2.562373161315917969e+01 -8.229806423187255859e-01 5.908913135528564453e+00 1.525779724121093750e+00 6.866652369499206543e-01
2.686000000000000000e+03 6.590415954589843750e+01 1.885100483894348145e+00 9.362601637840270996e-01 4.324853897094726562e+00 1.578334331512451172e+00 -4.177536964416503906e-01
2.687000000000000000e+03 7.277336883544921875e+01 -1.770133137702941895e+00 2.811310812830924988e-02 6.154844760894775391e+00 1.854887366294860840e+00 -1.695549011230468750e+00
2.688000000000000000e+03 3.726418304443359375e+01 2.489689826965332031e+01 -4.828681647777557373e-01 5.104208469390869141e+00 1.386402010917663574e+00 6.200158596038818359e-01
2.689000000000000000e+03 3.318417739868164062e+01 2.552654266357421875e+01 -5.416360497474670410e-01 4.942134857177734375e+00 1.320149660110473633e+00 -4.160826504230499268e-01
2.690000000000000000e+03 8.192809104919433594e+00 -2.678584671020507812e+01 -1.674499660730361938e-01 6.719237565994262695e-01 1.513421386480331421e-01 5.212010741233825684e-01
2.691000000000000000e+03 4.367366790771484375e+01 -9.192302703857421875e+00 -1.255103111267089844e+00 4.351519584655761719e+00 9.289249777793884277e-01 -5.757887363433837891e-01
2.692000000000000000e+03 4.348332214355468750e+01 2.594546699523925781e+01 -1.989822983741760254e-01 3.558367967605590820e+00 1.007815718650817871e+00 1.344878911972045898e+00
2.693000000000000000e+03 4.211332702636718750e+01 -3.129737854003906250e+01 -4.592329561710357666e-01 7.011912345886230469e+00 1.965803742408752441e+00 -2.019371241331100464e-01
2.694000000000000000e+03 6.369148254394531250e+00 2.269415092468261719e+01 -6.072806939482688904e-02 3.814030787907540798e-04 -1.810400001704692841e-02 8.431050181388854980e-02
2.695000000000000000e+03 7.272702789306640625e+01 -1.303063583374023438e+01 -1.421063542366027832e+00 1.018430614471435547e+01 2.628972768783569336e+00 -3.119459867477416992e+00
2.696000000000000000e+03 7.329824829101562500e+01 -1.340358638763427734e+01 -1.637544393539428711e+00 1.251422405242919922e+01 3.263003826141357422e+00 -2.680182456970214844e+00
2.697000000000000000e+03 7.503315734863281250e+01 -1.989632987976074219e+01 -1.209422111511230469e+00 1.271369361877441406e+01 3.451281547546386719e+00 -1.057537555694580078e+00
2.698000000000000000e+03 7.292164611816406250e+01 -1.887430381774902344e+01 -3.110782206058502197e-01 1.178671169281005859e+01 3.442690134048461914e+00 3.307347297668457031e+00
2.699000000000000000e+03 7.372728729248046875e+01 -2.078824615478515625e+01 -1.441502094268798828e+00 1.080043411254882812e+01 2.807679653167724609e+00 7.663694024085998535e-01
2.700000000000000000e+03 7.152108764648437500e+01 -1.253377151489257812e+01 -1.168097734451293945e+00 6.355720520019531250e+00 1.556286931037902832e+00 -2.826570510864257812e+00
2.701000000000000000e+03 7.427263641357421875e+01 -1.308206558227539062e+01 -1.912694096565246582e+00 1.349792766571044922e+01 3.475569963455200195e+00 -4.764969348907470703e-01
2.702000000000000000e+03 7.597017669677734375e+01 -1.477504062652587891e+01 2.035748004913330078e+00 1.253221988677978516e+01 4.370390415191650391e+00 2.401624441146850586e+00
2.703000000000000000e+03 7.535571289062500000e+01 -1.844380378723144531e+01 7.899302840232849121e-01 1.388458156585693359e+01 4.402353763580322266e+00 -2.244878053665161133e+00
2.704000000000000000e+03 7.484346008300781250e+01 -1.930611991882324219e+01 -8.755834698677062988e-01 1.371871852874755859e+01 3.852940559387207031e+00 -1.124019622802734375e+00
2.705000000000000000e+03 7.488064575195312500e+01 -1.331887626647949219e+01 -1.397115230560302734e+00 1.387603855133056641e+01 3.743677139282226562e+00 8.449383974075317383e-01
2.706000000000000000e+03 7.507013702392578125e+01 -1.385339546203613281e+01 -5.044473409652709961e-01 1.440853500366210938e+01 4.171226501464843750e+00 1.588099718093872070e+00
2.707000000000000000e+03 7.214115905761718750e+01 -2.059590530395507812e+01 -6.070777773857116699e-01 7.764416217803955078e+00 2.147201538085937500e+00 2.108991622924804688e+00
2.708000000000000000e+03 7.195130157470703125e+01 -1.989771842956542969e+01 -7.859162986278533936e-02 7.327466487884521484e+00 2.174662351608276367e+00 2.591778278350830078e+00
2.709000000000000000e+03 6.961474609375000000e+01 -1.205205726623535156e+01 -1.692226290702819824e+00 3.125631332397460938e+00 4.300214946269989014e-01 -1.632919311523437500e+00
2.710000000000000000e+03 7.480792999267578125e+01 -1.371668910980224609e+01 -9.917119741439819336e-01 1.464688205718994141e+01 4.096550941467285156e+00 1.101244926452636719e+00
2.711000000000000000e+03 6.973157501220703125e+01 -1.079140186309814453e+01 -1.722164392471313477e+00 3.853304386138916016e+00 6.393419504165649414e-01 -2.319037437438964844e+00
2.712000000000000000e+03 8.378180503845214844e+00 -7.221948623657226562e+00 -1.797113567590713501e-02 2.025221586227416992e-01 5.536530539393424988e-02 -6.154000759124755859e-01
2.713000000000000000e+03 1.006854057312011719e+01 -6.944937229156494141e+00 -4.756476357579231262e-02 4.493236839771270752e-01 1.205276772379875183e-01 -4.845961928367614746e-01
2.714000000000000000e+03 1.171379756927490234e+01 7.607235431671142578e+00 -3.773400327190756798e-03 -9.847547626122832298e-04 -1.427446492016315460e-03 2.673652023077011108e-03
2.715000000000000000e+03 6.900630187988281250e+01 -8.679937362670898438e+00 -1.362842440605163574e+00 3.472293138504028320e+00 6.328352093696594238e-01 -2.284200668334960938e+00
2.716000000000000000e+03 6.739009857177734375e+01 -9.019819259643554688e+00 -1.589958310127258301e+00 1.719211816787719727e+00 3.877605125308036804e-02 -1.855927109718322754e+00
2.717000000000000000e+03 8.657931327819824219e+00 7.322730541229248047e+00 4.517854657024145126e-03 -2.394323004409670830e-03 6.370595074258744717e-04 1.856163726188242435e-04
2.718000000000000000e+03 7.753948211669921875e+00 7.114523887634277344e+00 -3.007831401191651821e-04 -2.043829765170812607e-03 -7.033838774077594280e-04 -9.774892823770642281e-04
2.719000000000000000e+03 7.275285339355468750e+01 -2.220112037658691406e+01 -1.141849398612976074e+00 8.305644035339355469e+00 2.149138212203979492e+00 1.085170030593872070e+00
2.720000000000000000e+03 7.362332153320312500e+01 -9.241486549377441406e+00 -1.683338165283203125e+00 8.678314208984375000e+00 2.098492860794067383e+00 -1.455097794532775879e+00
2.721000000000000000e+03 7.443400573730468750e+01 -1.005314922332763672e+01 -1.809708952903747559e+00 9.788842201232910156e+00 2.393739938735961914e+00 -8.284955620765686035e-01
2.722000000000000000e+03 7.031278991699218750e+01 -1.210763835906982422e+01 -1.326066732406616211e+00 4.148900985717773438e+00 8.468503355979919434e-01 -2.021886587142944336e+00
2.723000000000000000e+03 5.766150474548339844e+00 -6.563979148864746094e+00 -7.367859035730361938e-02 -1.534302085638046265e-01 -6.813263893127441406e-02 -6.334491968154907227e-01
2.724000000000000000e+03 1.728885650634765625e+01 -5.397078037261962891e+00 -2.069518715143203735e-01 6.971047520637512207e-01 1.470458656549453735e-01 7.179763317108154297e-01
2.725000000000000000e+03 7.199824523925781250e+01 7.214652299880981445e-01 3.349390625953674316e-01 5.742401123046875000e+00 1.823202013969421387e+00 -1.517997503280639648e+00
2.726000000000000000e+03 6.679523944854736328e+00 8.181228637695312500e+00 -4.080724320374429226e-04 -2.345503540709614754e-03 -8.260728209279477596e-04 -6.199183990247547626e-04
2.727000000000000000e+03 7.207385540008544922e+00 6.584665775299072266e+00 8.091478957794606686e-04 -3.044496057555079460e-03 -6.706044077873229980e-04 -2.293775032740086317e-04
2.728000000000000000e+03 1.070581626892089844e+01 -6.621747493743896484e+00 -1.160392537713050842e-01 4.715685546398162842e-01 1.066587865352630615e-01 -4.145500361919403076e-01
2.729000000000000000e+03 1.269525527954101562e+01 -8.272330284118652344e+00 1.918814331293106079e-01 1.049437999725341797e+00 3.723958134651184082e-01 -9.913867712020874023e-02
2.730000000000000000e+03 9.333391189575195312e+00 -1.343964099884033203e+01 7.879168391227722168e-01 8.393247723579406738e-01 4.881724715232849121e-01 -1.642640531063079834e-01
2.731000000000000000e+03 6.775363445281982422e+00 -9.924798011779785156e+00 2.159360796213150024e-01 -1.480771787464618683e-02 6.033850833773612976e-02 -5.868194103240966797e-01
2.732000000000000000e+03 7.019642639160156250e+01 -1.038809204101562500e+01 -1.780325293540954590e+00 4.622126579284667969e+00 8.525403738021850586e-01 -2.323560476303100586e+00
2.733000000000000000e+03 6.948929595947265625e+01 -9.319714546203613281e+00 -1.507643818855285645e+00 3.886060953140258789e+00 7.135251760482788086e-01 -2.284508466720581055e+00
2.734000000000000000e+03 1.291589641571044922e+01 -7.231986522674560547e+00 -1.002790313214063644e-02 8.633341789245605469e-01 2.559918761253356934e-01 -9.002865850925445557e-02
2.735000000000000000e+03 1.165921783447265625e+01 -9.414246559143066406e+00 4.071410596370697021e-01 1.055979967117309570e+00 4.389363229274749756e-01 -2.446771264076232910e-01
2.736000000000000000e+03 7.409311676025390625e+01 -2.138628005981445312e+01 -1.483428597450256348e+00 1.056987476348876953e+01 2.725933790206909180e+00 3.052477538585662842e-01
2.737000000000000000e+03 7.321121215820312500e+01 -1.994241142272949219e+01 -1.119089007377624512e+00 1.105647754669189453e+01 2.981216669082641602e+00 1.812822103500366211e+00
2.738000000000000000e+03 7.017841339111328125e+01 -2.934250068664550781e+01 -4.821333587169647217e-01 4.857484817504882812e+00 1.312605500221252441e+00 6.793411374092102051e-01
2.739000000000000000e+03 1.258174324035644531e+01 -6.015073299407958984e+00 -2.419853061437606812e-01 6.123035550117492676e-01 1.110954731702804565e-01 -1.485234498977661133e-01
2.740000000000000000e+03 9.723925590515136719e+00 7.420124053955078125e+00 -2.091699978336691856e-03 -2.515046857297420502e-03 -1.382024027407169342e-03 9.881710866466164589e-04
2.741000000000000000e+03 6.469884490966796875e+01 -4.664900779724121094e+00 3.354915976524353027e-01 1.742074728012084961e+00 6.232699155807495117e-01 -6.123883724212646484e-01
2.742000000000000000e+03 6.208363342285156250e+01 -4.553762435913085938e+00 5.913482904434204102e-01 1.305370688438415527e+00 5.690156817436218262e-01 4.420596659183502197e-01
2.743000000000000000e+03 7.216254234313964844e+00 -8.261797904968261719e+00 1.035681143403053284e-01 5.223291367292404175e-02 4.674030840396881104e-02 -6.406431794166564941e-01
2.744000000000000000e+03 6.816590118408203125e+01 -7.413203716278076172e+00 -7.881681919097900391e-01 2.769428730010986328e+00 5.943781733512878418e-01 -2.090166330337524414e+00
2.745000000000000000e+03 2.226391029357910156e+01 -6.322683811187744141e+00 3.007466346025466919e-02 5.389953851699829102e-01 1.707210093736648560e-01 1.311292171478271484e+00
2.746000000000000000e+03 8.707654953002929688e+00 9.454154014587402344e+00 3.322859993204474449e-03 -2.670298097655177116e-03 1.957685453817248344e-04 2.833178441505879164e-04
2.747000000000000000e+03 1.086345291137695312e+01 9.609658241271972656e+00 3.907017875462770462e-03 -1.046716701239347458e-03 8.580902940593659878e-04 2.738776151090860367e-03
2.748000000000000000e+03 7.320280456542968750e+01 -2.445726203918457031e+01 -1.089502930641174316e+00 7.887701511383056641e+00 2.039459466934204102e+00 4.920516610145568848e-01
2.749000000000000000e+03 6.735094547271728516e+00 9.533238410949707031e+00 -5.627320206258445978e-05 2.628070360515266657e-04 6.196014874149113894e-05 -1.967384945601224899e-03
2.750000000000000000e+03 1.885677719116210938e+01 -5.809362411499023438e+00 -6.574299931526184082e-02 7.138561010360717773e-01 1.944339275360107422e-01 1.013171553611755371e+00
2.751000000000000000e+03 7.345310211181640625e+01 -2.178831672668457031e+01 -1.341858148574829102e+00 9.491024971008300781e+00 2.444750070571899414e+00 7.447493672370910645e-01
2.752000000000000000e+03 1.480380916595458984e+01 -7.575113773345947266e+00 9.614073485136032104e-02 1.087834715843200684e+00 3.551926314830780029e-01 2.985023856163024902e-01
2.753000000000000000e+03 6.568294525146484375e+01 -5.399262428283691406e+00 1.615577787160873413e-01 1.837464094161987305e+00 5.997065305709838867e-01 -1.101636767387390137e+00
2.754000000000000000e+03 1.674565887451171875e+01 -8.054096221923828125e+00 2.925067543983459473e-01 1.321845293045043945e+00 4.843056201934814453e-01 7.592956423759460449e-01
2.755000000000000000e+03 8.756294250488281250e+00 -1.107099533081054688e+01 4.756009280681610107e-01 4.932769536972045898e-01 2.906633615493774414e-01 -4.367910325527191162e-01
2.756000000000000000e+03 9.497380256652832031e+00 -8.553344726562500000e+00 1.712722480297088623e-01 4.749062359333038330e-01 1.938535422086715698e-01 -5.299168229103088379e-01
2.757000000000000000e+03 7.568824768066406250e+00 1.242445182800292969e+01 -2.570883603766560555e-03 -3.876037662848830223e-03 -1.934076310135424137e-03 -2.977142343297600746e-03
2.758000000000000000e+03 1.064381122589111328e+01 -1.049457836151123047e+01 5.456275343894958496e-01 9.375090003013610840e-01 4.449409544467926025e-01 -3.091176450252532959e-01
2.759000000000000000e+03 6.274374389648437500e+01 -7.290005683898925781e+00 -6.313843727111816406e-01 4.069148302078247070e-01 -6.734085083007812500e-02 3.062481582164764404e-01
2.760000000000000000e+03 6.100370025634765625e+01 -6.309584140777587891e+00 -1.814979761838912964e-01 1.002612352371215820e+00 2.463343143463134766e-01 8.486045598983764648e-01
2.761000000000000000e+03 7.598043918609619141e+00 -1.571691608428955078e+01 6.194668412208557129e-01 3.494222164154052734e-01 2.906666994094848633e-01 1.745075546205043793e-02
2.762000000000000000e+03 8.602880477905273438e+00 -1.904119682312011719e+01 5.864791274070739746e-01 8.480424284934997559e-01 4.303564727306365967e-01 4.141803979873657227e-01
2.763000000000000000e+03 9.685677528381347656e+00 1.390585708618164062e+01 -1.203010883182287216e-02 -7.764410693198442459e-03 -5.938355810940265656e-03 -3.618340124376118183e-04
2.764000000000000000e+03 6.800174236297607422e+00 1.580548477172851562e+01 -1.847107149660587311e-02 -7.474529091268777847e-03 -7.783680222928524017e-03 7.060526870191097260e-03
2.765000000000000000e+03 2.052837753295898438e+01 -6.457333564758300781e+00 1.006978973746299744e-01 6.635962128639221191e-01 2.292882353067398071e-01 1.208075642585754395e+00
2.766000000000000000e+03 8.771242141723632812e+00 -1.787693405151367188e+01 6.926792263984680176e-01 8.430555462837219238e-01 4.607204496860504150e-01 2.801262438297271729e-01
2.767000000000000000e+03 5.716232299804687500e+00 -1.676414489746093750e+01 3.888845741748809814e-01 -2.373247444629669189e-01 4.546795040369033813e-02 7.378600537776947021e-02
2.768000000000000000e+03 7.296852874755859375e+01 1.195516586303710938e+01 4.537427723407745361e-01 5.826777935028076172e+00 1.884156227111816406e+00 -5.181253552436828613e-01
2.769000000000000000e+03 8.498455047607421875e+00 1.969931602478027344e+01 -7.488483190536499023e-02 2.625657431781291962e-02 -1.458847802132368088e-02 2.314234524965286255e-02
2.770000000000000000e+03 7.723042011260986328e+00 2.071741867065429688e+01 -7.738855481147766113e-02 1.651699654757976532e-02 -1.826146803796291351e-02 5.399594455957412720e-02
2.771000000000000000e+03 1.050393295288085938e+01 -8.527297019958496094e+00 1.999756097793579102e-01 6.885371804237365723e-01 2.665538489818572998e-01 -4.267853200435638428e-01
2.772000000000000000e+03 7.334056091308593750e+01 -6.724379539489746094e+00 -9.761620759963989258e-01 7.392697811126708984e+00 1.924960732460021973e+00 -1.660914301872253418e+00
2.773000000000000000e+03 5.990800094604492188e+01 -5.897586345672607422e+00 -1.463530808687210083e-01 1.236891269683837891e+00 3.271614313125610352e-01 1.001909852027893066e+00
2.774000000000000000e+03 6.448944091796875000e+01 5.143594741821289062e-01 1.061447143554687500e+00 3.573580265045166016e+00 1.390508174896240234e+00 -2.928023599088191986e-02
2.775000000000000000e+03 8.685461044311523438e+00 1.261501502990722656e+01 -7.170496508479118347e-03 -8.320915512740612030e-03 -4.647423513233661652e-03 1.616046996787190437e-03
2.776000000000000000e+03 8.713376998901367188e+00 -1.255969333648681641e+01 6.212466955184936523e-01 5.629799365997314453e-01 3.552680015563964844e-01 -3.096801340579986572e-01
2.777000000000000000e+03 7.048579406738281250e+01 9.881370544433593750e+00 6.582203507423400879e-01 5.972765445709228516e+00 1.989295721054077148e+00 -6.952123641967773438e-01
2.778000000000000000e+03 6.797322082519531250e+01 1.071815872192382812e+01 7.804443240165710449e-01 6.315073490142822266e+00 2.128655433654785156e+00 -4.736752510070800781e-01
2.779000000000000000e+03 7.047700500488281250e+01 -1.513139009475708008e+00 2.953433394432067871e-01 5.118019104003906250e+00 1.624008655548095703e+00 -1.646274089813232422e+00
2.780000000000000000e+03 7.100341320037841797e+00 -2.141945075988769531e+01 2.730786800384521484e-01 3.691295683383941650e-01 1.926624774932861328e-01 5.139765739440917969e-01
2.781000000000000000e+03 6.400933074951171875e+01 -2.740514576435089111e-01 1.049439907073974609e+00 3.258606195449829102e+00 1.292413830757141113e+00 1.160000339150428772e-01
2.782000000000000000e+03 6.615464019775390625e+01 3.293657064437866211e+00 9.128360152244567871e-01 4.779029846191406250e+00 1.707559704780578613e+00 -4.122480154037475586e-01
2.783000000000000000e+03 7.067125701904296875e+01 1.205169868469238281e+01 6.577953696250915527e-01 5.993542194366455078e+00 1.995401144027709961e+00 -5.391070246696472168e-01
2.784000000000000000e+03 7.188584136962890625e+01 1.183415126800537109e+01 5.622031688690185547e-01 5.906569957733154297e+00 1.940631985664367676e+00 -5.507542490959167480e-01
2.785000000000000000e+03 1.507744884490966797e+01 2.669547462463378906e+01 -3.985212370753288269e-02 1.371563524007797241e-01 2.919126860797405243e-02 9.084653109312057495e-02
2.786000000000000000e+03 1.118354511260986328e+01 2.579777526855468750e+01 -7.541436702013015747e-02 7.739379256963729858e-02 5.938259419053792953e-04 1.383059173822402954e-01
2.787000000000000000e+03 7.021525859832763672e+00 -9.079433441162109375e+00 1.579329371452331543e-01 1.674628816545009613e-02 5.240376666188240051e-02 -6.066932082176208496e-01
2.788000000000000000e+03 5.983239173889160156e+00 -2.716402435302734375e+01 -1.164354458451271057e-01 2.298952192068099976e-01 3.403793647885322571e-02 5.131178498268127441e-01
2.789000000000000000e+03 4.427069854736328125e+01 -1.069886779785156250e+01 -6.728156208992004395e-01 4.619265556335449219e+00 1.183934926986694336e+00 -5.757081508636474609e-02
2.790000000000000000e+03 4.242745971679687500e+01 -8.729767799377441406e+00 -1.603587627410888672e+00 5.567776203155517578e+00 1.189256548881530762e+00 -1.221271634101867676e+00
2.791000000000000000e+03 3.829992294311523438e+01 -2.505984687805175781e+01 1.281204104423522949e+00 7.583304405212402344e+00 2.659352540969848633e+00 1.262795776128768921e-01
2.792000000000000000e+03 7.367032623291015625e+01 1.988716316223144531e+01 2.211081385612487793e-01 5.641353130340576172e+00 1.758738398551940918e+00 2.004976123571395874e-01
2.793000000000000000e+03 7.393878936767578125e+01 -2.871119880676269531e+01 -4.593562781810760498e-01 7.703824043273925781e+00 2.173340320587158203e+00 4.555309712886810303e-01
2.794000000000000000e+03 7.303125000000000000e+01 -2.617619132995605469e+01 -8.037014603614807129e-01 7.416521072387695312e+00 1.983845829963684082e+00 4.771254956722259521e-01
2.795000000000000000e+03 6.260433959960937500e+01 -2.565156221389770508e+00 1.045351743698120117e+00 2.127256155014038086e+00 9.517824053764343262e-01 3.837113976478576660e-01
2.796000000000000000e+03 1.586510372161865234e+01 2.421707344055175781e+01 -2.296640276908874512e-01 6.739965081214904785e-02 -4.867931455373764038e-02 7.358067482709884644e-02
2.797000000000000000e+03 1.250171947479248047e+01 -3.095825004577636719e+01 -4.446747303009033203e-01 9.654240012168884277e-01 1.562247872352600098e-01 9.483319520950317383e-02
2.798000000000000000e+03 7.201550292968750000e+01 -3.092501258850097656e+01 -2.343147993087768555e-01 6.062927246093750000e+00 1.748583674430847168e+00 7.471534609794616699e-01
2.799000000000000000e+03 7.058073425292968750e+01 -3.273157882690429688e+01 -4.766528680920600891e-02 5.021461486816406250e+00 1.492138862609863281e+00 8.255741596221923828e-01
2.800000000000000000e+03 6.922058868408203125e+01 2.505358123779296875e+01 -1.834769546985626221e-01 5.742099285125732422e+00 1.667586803436279297e+00 1.130970120429992676e-01
2.801000000000000000e+03 6.738877105712890625e+01 2.429833602905273438e+01 -2.124357968568801880e-01 5.817026615142822266e+00 1.681377172470092773e+00 -2.731741033494472504e-02
2.802000000000000000e+03 7.669556617736816406e+00 -2.247731971740722656e+01 1.825875937938690186e-01 5.781975984573364258e-01 2.282355576753616333e-01 5.873256921768188477e-01
2.803000000000000000e+03 6.927669525146484375e+01 1.222728347778320312e+01 7.818724513053894043e-01 6.172787666320800781e+00 2.086398124694824219e+00 -4.895933866500854492e-01
2.804000000000000000e+03 7.140467071533203125e+01 -2.867155647277832031e+01 -5.917050838470458984e-01 5.665697097778320312e+00 1.522197604179382324e+00 7.191600799560546875e-01
2.805000000000000000e+03 4.042621231079101562e+01 2.434485626220703125e+01 -3.173273205757141113e-01 4.576234817504882812e+00 1.277672290802001953e+00 1.189505219459533691e+00
2.806000000000000000e+03 3.542367935180664062e+01 -3.210960865020751953e+00 -9.473915100097656250e-01 9.359290122985839844e+00 2.523569583892822266e+00 -5.265500545501708984e-01
2.807000000000000000e+03 7.293544769287109375e+01 -1.266583251953125000e+01 -1.674099087715148926e+00 1.038677883148193359e+01 2.613803863525390625e+00 -2.566865205764770508e+00
2.808000000000000000e+03 7.325820159912109375e+01 -1.290008449554443359e+01 -1.901301383972167969e+00 1.163985061645507812e+01 2.921564817428588867e+00 -2.351397991180419922e+00
2.809000000000000000e+03 7.389810943603515625e+01 -1.973377227783203125e+01 -1.337349653244018555e+00 1.261451816558837891e+01 3.383150577545166016e+00 8.424378037452697754e-01
2.810000000000000000e+03 7.355678558349609375e+01 -1.347690391540527344e+01 -1.777794837951660156e+00 1.357091045379638672e+01 3.537934780120849609e+00 -2.011045455932617188e+00
2.811000000000000000e+03 7.449131774902343750e+01 -1.335746955871582031e+01 -1.558766603469848633e+00 1.391498851776123047e+01 3.706866741180419922e+00 1.562924683094024658e-01
2.812000000000000000e+03 7.480677795410156250e+01 -1.170027065277099609e+01 -2.010076999664306641e+00 1.152458858489990234e+01 2.854353427886962891e+00 -7.294549793004989624e-02
2.813000000000000000e+03 7.215427398681640625e+01 -1.304650211334228516e+01 -9.306623935699462891e-01 8.112034797668457031e+00 2.154411792755126953e+00 -3.297413349151611328e+00
2.814000000000000000e+03 7.442669677734375000e+01 -1.990277290344238281e+01 -1.388670563697814941e+00 1.267833232879638672e+01 3.386898517608642578e+00 -2.052300572395324707e-01
2.815000000000000000e+03 7.556970977783203125e+01 -1.898790550231933594e+01 -1.325457990169525146e-01 1.304338645935058594e+01 3.873252391815185547e+00 -2.065028190612792969e+00
2.816000000000000000e+03 7.423050689697265625e+01 -2.045830917358398438e+01 -1.497387766838073730e+00 1.189126873016357422e+01 3.118164300918579102e+00 7.001608610153198242e-02
2.817000000000000000e+03 7.491072082519531250e+01 -1.286025810241699219e+01 -1.606282830238342285e+00 1.315560531616210938e+01 3.464796781539916992e+00 5.878853201866149902e-01
2.818000000000000000e+03 7.447106170654296875e+01 -1.273120498657226562e+01 -1.918285489082336426e+00 1.300134086608886719e+01 3.324916601181030273e+00 -2.254492044448852539e-01
2.819000000000000000e+03 7.273903656005859375e+01 -2.031591033935546875e+01 -9.057871103286743164e-01 9.447129249572753906e+00 2.562402725219726562e+00 1.984746336936950684e+00
2.820000000000000000e+03 7.025533294677734375e+01 -1.162375926971435547e+01 -1.535649418830871582e+00 4.327659130096435547e+00 8.376028537750244141e-01 -2.232621908187866211e+00
2.821000000000000000e+03 7.517967224121093750e+01 -1.221950721740722656e+01 -1.745722770690917969e+00 1.213034343719482422e+01 3.115386247634887695e+00 5.374537706375122070e-01
2.822000000000000000e+03 7.067028808593750000e+01 -1.161729431152343750e+01 -1.428267717361450195e+00 5.008526802062988281e+00 1.074077606201171875e+00 -2.266281366348266602e+00
2.823000000000000000e+03 6.981573486328125000e+01 -1.156494045257568359e+01 -1.613565683364868164e+00 3.696767568588256836e+00 6.249605417251586914e-01 -1.927984118461608887e+00
2.824000000000000000e+03 7.239736938476562500e+01 -2.138064193725585938e+01 -9.178493022918701172e-01 8.019890785217285156e+00 2.130612611770629883e+00 1.612244367599487305e+00
2.825000000000000000e+03 7.049795532226562500e+01 -9.552951812744140625e+00 -1.553630828857421875e+00 5.029475688934326172e+00 1.042753458023071289e+00 -2.410265445709228516e+00
2.826000000000000000e+03 7.370082855224609375e+01 -9.960808753967285156e+00 -1.893209099769592285e+00 9.231728553771972656e+00 2.201555967330932617e+00 -1.396856784820556641e+00
2.827000000000000000e+03 7.376930999755859375e+01 -1.059765529632568359e+01 -2.031686782836914062e+00 9.741039276123046875e+00 2.312805891036987305e+00 -1.322195291519165039e+00
2.828000000000000000e+03 7.471089172363281250e+01 -2.094057083129882812e+01 -1.481385469436645508e+00 1.153920555114746094e+01 3.017345905303955078e+00 -4.020748734474182129e-01
2.829000000000000000e+03 7.537821197509765625e+01 -2.052294158935546875e+01 -1.264788627624511719e+00 1.194205760955810547e+01 3.203180551528930664e+00 -1.160038590431213379e+00
2.830000000000000000e+03 7.430963134765625000e+01 -1.131204223632812500e+01 -2.047653436660766602e+00 1.089282321929931641e+01 2.653550863265991211e+00 -7.097583413124084473e-01
2.831000000000000000e+03 7.385836791992187500e+01 -1.302984237670898438e+01 -2.026035547256469727e+00 1.298203754425048828e+01 3.286800622940063477e+00 -1.295620203018188477e+00
2.832000000000000000e+03 1.077863788604736328e+01 8.549201965332031250e+00 -3.059868002310395241e-03 -2.613998483866453171e-03 -1.702159876003861427e-03 1.958729699254035950e-03
2.833000000000000000e+03 7.436766052246093750e+01 -7.623099803924560547e+00 -1.175819396972656250e+00 8.398384094238281250e+00 2.166769266128540039e+00 -1.226967573165893555e+00
2.834000000000000000e+03 7.070108795166015625e+01 -1.009902763366699219e+01 -1.652148842811584473e+00 5.322143077850341797e+00 1.100998163223266602e+00 -2.478347063064575195e+00
2.835000000000000000e+03 6.986498260498046875e+01 -9.891091346740722656e+00 -1.650682091712951660e+00 4.263679027557373047e+00 7.838990688323974609e-01 -2.433507680892944336e+00
2.836000000000000000e+03 9.829670906066894531e+00 1.062409591674804688e+01 2.574427518993616104e-03 -2.617121906951069832e-03 -1.280828928429400548e-05 1.394390477798879147e-03
2.837000000000000000e+03 7.580623149871826172e+00 8.413819313049316406e+00 3.847400192171335220e-03 -1.963510410860180855e-03 5.651668761856853962e-04 -2.075887052342295647e-03
2.838000000000000000e+03 6.666488170623779297e+00 1.121841812133789062e+01 1.491584116593003273e-03 -5.661050323396921158e-03 -1.250839908607304096e-03 -1.853277324698865414e-03
2.839000000000000000e+03 1.125374984741210938e+01 -7.368781566619873047e+00 3.758257022127509117e-03 6.786146163940429688e-01 2.047118693590164185e-01 -3.414045870304107666e-01
2.840000000000000000e+03 7.164521026611328125e+01 -1.084741306304931641e+01 -1.683653116226196289e+00 6.754740715026855469e+00 1.521326303482055664e+00 -2.455576896667480469e+00
2.841000000000000000e+03 1.172439956665039062e+01 -1.051226520538330078e+01 6.146911978721618652e-01 1.193038225173950195e+00 5.423188209533691406e-01 -2.141447514295578003e-01
2.842000000000000000e+03 1.056834602355957031e+01 -9.473235130310058594e+00 3.829551339149475098e-01 7.907820343971252441e-01 3.521211445331573486e-01 -4.023565948009490967e-01
2.843000000000000000e+03 8.633976936340332031e+00 8.382194519042968750e+00 -2.020251238718628883e-03 -4.127727821469306946e-03 -1.844393671490252018e-03 9.780561085790395737e-04
2.844000000000000000e+03 7.616302490234375000e+00 -7.599933624267578125e+00 1.634843461215496063e-02 1.052555441856384277e-01 3.648119419813156128e-02 -6.342790126800537109e-01
2.845000000000000000e+03 6.779204845428466797e+00 -7.008845806121826172e+00 -4.181507602334022522e-02 -1.422462612390518188e-02 -1.681191101670265198e-02 -6.530974507331848145e-01
2.846000000000000000e+03 7.317925262451171875e+01 8.361266136169433594e+00 4.121209383010864258e-01 5.923279285430908203e+00 1.900619983673095703e+00 -8.501238226890563965e-01
2.847000000000000000e+03 7.273899078369140625e+01 -5.124881267547607422e+00 -5.405872464179992676e-01 6.560665130615234375e+00 1.806023359298706055e+00 -1.824270248413085938e+00
2.848000000000000000e+03 7.095683288574218750e+01 3.750426769256591797e+00 5.367218255996704102e-01 5.613463401794433594e+00 1.845055580139160156e+00 -1.207385897636413574e+00
2.849000000000000000e+03 7.020092010498046875e+01 1.548420548439025879e+00 5.405817627906799316e-01 5.256659507751464844e+00 1.739172339439392090e+00 -1.328082084655761719e+00
2.850000000000000000e+03 1.075135707855224609e+01 7.558376789093017578e+00 4.184446297585964203e-03 -1.011075684800744057e-03 9.520112071186304092e-04 1.471824012696743011e-03
2.851000000000000000e+03 6.339443969726562500e+01 -6.475123405456542969e+00 -2.858577370643615723e-01 5.578921437263488770e-01 8.161032944917678833e-02 2.614168624859303236e-04
2.852000000000000000e+03 6.192118072509765625e+01 -6.659598350524902344e+00 -4.596453011035919189e-01 6.129066944122314453e-01 4.597841948270797729e-02 4.786005318164825439e-01
2.853000000000000000e+03 8.744580268859863281e+00 1.158202457427978516e+01 2.054289798252284527e-04 -3.858369309455156326e-03 -1.095882151275873184e-03 -1.125657581724226475e-03
2.854000000000000000e+03 7.244987487792968750e+01 -6.754373550415039062e+00 -9.614285230636596680e-01 6.699463367462158203e+00 1.721410512924194336e+00 -1.931048631668090820e+00
2.855000000000000000e+03 7.834087371826171875e+00 -1.033829307556152344e+01 3.360283076763153076e-01 2.421573549509048462e-01 1.734557002782821655e-01 -5.247886776924133301e-01
2.856000000000000000e+03 6.589210987091064453e+00 1.816094970703125000e+01 -4.068953171372413635e-02 7.732892874628305435e-03 -9.886991232633590698e-03 1.897399500012397766e-02
2.857000000000000000e+03 8.162731170654296875e+00 1.796554756164550781e+01 -5.173513665795326233e-02 1.478078309446573257e-02 -1.108630653470754623e-02 9.269761852920055389e-03
2.858000000000000000e+03 6.406746673583984375e+01 -1.229272246360778809e+00 1.010513305664062500e+00 2.869355201721191406e+00 1.163960576057434082e+00 -6.979784928262233734e-03
2.859000000000000000e+03 6.484591674804687500e+01 -6.760008335113525391e-01 9.709054827690124512e-01 3.248372316360473633e+00 1.265783309936523438e+00 -3.737552464008331299e-01
2.860000000000000000e+03 7.683096885681152344e+00 1.143755340576171875e+01 -4.890007432550191879e-03 -6.422960199415683746e-03 -3.393890336155891418e-03 1.476424513384699821e-03
2.861000000000000000e+03 6.769145965576171875e+01 1.972234249114990234e-01 7.446440458297729492e-01 4.271952629089355469e+00 1.504979014396667480e+00 -1.070732951164245605e+00
2.862000000000000000e+03 7.939077854156494141e+00 -1.309229373931884766e+01 6.057760119438171387e-01 3.557748496532440186e-01 2.884652614593505859e-01 -2.888830900192260742e-01
2.863000000000000000e+03 7.424180984497070312e+00 -1.470944309234619141e+01 5.718472003936767578e-01 2.517982125282287598e-01 2.470936328172683716e-01 -1.139888018369674683e-01
2.864000000000000000e+03 6.589645862579345703e+00 -1.576491451263427734e+01 5.374732613563537598e-01 6.911151111125946045e-02 1.819754242897033691e-01 -1.116491295397281647e-02
2.865000000000000000e+03 6.118017196655273438e+01 -7.207790851593017578e+00 -6.833404302597045898e-01 7.046869993209838867e-01 6.403958424925804138e-03 7.179333567619323730e-01
2.866000000000000000e+03 6.801602935791015625e+01 6.457578659057617188e+00 7.776870131492614746e-01 5.669108390808105469e+00 1.934038639068603516e+00 -6.434170603752136230e-01
2.867000000000000000e+03 6.642797088623046875e+01 4.169319152832031250e+00 8.877453804016113281e-01 5.056369781494140625e+00 1.783234477043151855e+00 -4.101849198341369629e-01
2.868000000000000000e+03 6.973759460449218750e+01 -8.085494995117187500e+00 -1.124526739120483398e+00 4.220824241638183594e+00 9.288892745971679688e-01 -2.341062784194946289e+00
2.869000000000000000e+03 6.938217926025390625e+01 -7.026270389556884766e+00 -8.733015060424804688e-01 3.985578775405883789e+00 9.336831569671630859e-01 -2.218466520309448242e+00
2.870000000000000000e+03 5.859789276123046875e+01 -3.548125267028808594e+00 1.153325319290161133e+00 1.912328243255615234e+00 9.196960926055908203e-01 1.437821269035339355e+00
2.871000000000000000e+03 7.101659393310546875e+01 -2.965410423278808594e+01 -4.691219627857208252e-01 5.240621566772460938e+00 1.431449890136718750e+00 7.321060299873352051e-01
2.872000000000000000e+03 6.911407470703125000e+01 1.566277217864990234e+01 8.122549653053283691e-01 6.178154945373535156e+00 2.097122907638549805e+00 -2.473537474870681763e-01
2.873000000000000000e+03 6.667317962646484375e+01 2.160406112670898438e+00 8.740204572677612305e-01 4.556368827819824219e+00 1.629116773605346680e+00 -6.597256064414978027e-01
2.874000000000000000e+03 6.482869720458984375e+01 -2.123019218444824219e+00 8.701583743095397949e-01 2.753647327423095703e+00 1.087141633033752441e+00 -4.450957179069519043e-01
2.875000000000000000e+03 6.151338195800781250e+01 -5.391290187835693359e+00 1.367905288934707642e-01 1.134892344474792480e+00 3.815048635005950928e-01 5.837568044662475586e-01
2.876000000000000000e+03 7.068806457519531250e+01 -2.854847908020019531e+00 4.985515400767326355e-02 5.152561187744140625e+00 1.560724854469299316e+00 -1.803982496261596680e+00
2.877000000000000000e+03 4.155797576904296875e+01 -1.211232852935791016e+01 -3.803753554821014404e-01 7.067421436309814453e+00 2.006113767623901367e+00 -9.487677812576293945e-01
2.878000000000000000e+03 9.780233383178710938e+00 9.536579132080078125e+00 -2.445753896608948708e-03 -4.965349566191434860e-03 -2.223331015557050705e-03 1.449366216547787189e-03
2.879000000000000000e+03 7.207976531982421875e+01 1.536220645904541016e+01 5.404567718505859375e-01 5.838255405426025391e+00 1.913613677024841309e+00 -2.123589664697647095e-01
2.880000000000000000e+03 7.030788421630859375e+01 1.491031360626220703e+01 7.230422496795654297e-01 6.029454708099365234e+00 2.025748968124389648e+00 -2.899931669235229492e-01
2.881000000000000000e+03 1.402478027343750000e+01 2.860223388671875000e+01 4.889697209000587463e-02 1.710072457790374756e-01 6.597127020359039307e-02 8.771228045225143433e-02
2.882000000000000000e+03 1.119361782073974609e+01 2.832107734680175781e+01 7.160031236708164215e-03 8.605248481035232544e-02 2.796375565230846405e-02 1.406685560941696167e-01
2.883000000000000000e+03 3.911830520629882812e+01 1.776866531372070312e+01 3.632985949516296387e-01 6.655957221984863281e+00 2.105776786804199219e+00 1.150383949279785156e+00
2.884000000000000000e+03 9.028442382812500000e+00 -3.064468002319335938e+01 -3.045517504215240479e-01 6.982745528221130371e-01 1.181168407201766968e-01 3.359434008598327637e-01
2.885000000000000000e+03 8.984072685241699219e+00 -2.778242874145507812e+01 -2.521468400955200195e-01 8.156154155731201172e-01 1.690405756235122681e-01 4.454650580883026123e-01
2.886000000000000000e+03 8.932116508483886719e+00 2.359433174133300781e+01 -9.589230269193649292e-02 5.011275038123130798e-02 -1.373386569321155548e-02 1.009333357214927673e-01
2.887000000000000000e+03 6.972635650634765625e+01 6.080746650695800781e+00 6.699758768081665039e-01 5.689912796020507812e+00 1.907966613769531250e+00 -9.004265666007995605e-01
2.888000000000000000e+03 8.878966331481933594e+00 -2.312911224365234375e+01 1.381593197584152222e-01 9.542512297630310059e-01 3.277231752872467041e-01 5.866960287094116211e-01
2.889000000000000000e+03 7.234211730957031250e+01 -2.509965705871582031e+01 -9.792639613151550293e-01 6.947503089904785156e+00 1.790471792221069336e+00 6.473389267921447754e-01
2.890000000000000000e+03 7.137305450439453125e+01 1.989323806762695312e+01 3.647024035453796387e-01 5.804484367370605469e+00 1.850756049156188965e+00 1.996415406465530396e-01
2.891000000000000000e+03 6.924557495117187500e+01 6.334655284881591797e-01 6.012945771217346191e-01 4.886153697967529297e+00 1.646234393119812012e+00 -1.292679190635681152e+00
2.892000000000000000e+03 7.002149200439453125e+01 -3.626627326011657715e-01 4.186829328536987305e-01 5.028714179992675781e+00 1.634219050407409668e+00 -1.489661097526550293e+00
2.893000000000000000e+03 1.662881660461425781e+01 2.752365112304687500e+01 6.078510731458663940e-02 1.872833967208862305e-01 7.442054897546768188e-02 -9.798125829547643661e-04
2.894000000000000000e+03 7.187661743164062500e+01 -2.961292839050292969e+01 -4.680234193801879883e-01 6.076471328735351562e+00 1.682534337043762207e+00 7.361466884613037109e-01
2.895000000000000000e+03 6.146851539611816406e+00 1.662140274047851562e+01 -2.379184402525424957e-02 2.259787637740373611e-03 -6.459616590291261673e-03 6.929665803909301758e-03
2.896000000000000000e+03 6.958145904541015625e+01 -3.055573654174804688e+01 -4.043729305267333984e-01 4.328670978546142578e+00 1.177289366722106934e+00 7.986455559730529785e-01
2.897000000000000000e+03 7.240444946289062500e+01 -1.275416660308837891e+01 -1.250086069107055664e+00 8.908647537231445312e+00 2.297568559646606445e+00 -3.040071010589599609e+00
2.898000000000000000e+03 7.350182342529296875e+01 -1.315726566314697266e+01 -1.817742705345153809e+00 1.259339427947998047e+01 3.232695341110229492e+00 -2.008820056915283203e+00
2.899000000000000000e+03 7.093436431884765625e+01 -1.278540515899658203e+01 -8.205857872962951660e-01 4.795156002044677734e+00 1.192371010780334473e+00 -2.502915382385253906e+00
2.900000000000000000e+03 7.361523437500000000e+01 -1.231246566772460938e+01 -2.149458646774291992e+00 1.142825222015380859e+01 2.783638000488281250e+00 -1.557758808135986328e+00
2.901000000000000000e+03 7.063127136230468750e+01 -1.267550659179687500e+01 -8.828058242797851562e-01 4.195843219757080078e+00 9.939112663269042969e-01 -2.082206010818481445e+00
2.902000000000000000e+03 7.477106475830078125e+01 -1.244019031524658203e+01 -1.904367923736572266e+00 1.240237617492675781e+01 3.149402379989624023e+00 1.448638588190078735e-01
2.903000000000000000e+03 7.414543151855468750e+01 -1.239952182769775391e+01 -2.164407014846801758e+00 1.232146358489990234e+01 3.047116994857788086e+00 -8.709225058555603027e-01
2.904000000000000000e+03 6.998229217529296875e+01 -1.233806228637695312e+01 -1.341088652610778809e+00 3.491505622863769531e+00 6.451250910758972168e-01 -1.757348418235778809e+00
2.905000000000000000e+03 7.377003479003906250e+01 -1.112356853485107422e+01 -2.087299108505249023e+00 1.022367191314697266e+01 2.440912008285522461e+00 -1.343471407890319824e+00
2.906000000000000000e+03 7.334253692626953125e+01 -1.204741191864013672e+01 -2.006183147430419922e+00 1.074638366699218750e+01 2.622060060501098633e+00 -1.815728902816772461e+00
2.907000000000000000e+03 7.281961822509765625e+01 -1.093425655364990234e+01 -1.992339730262756348e+00 8.808169364929199219e+00 2.044748783111572266e+00 -2.073455810546875000e+00
2.908000000000000000e+03 7.369641876220703125e+01 -2.023420906066894531e+01 -1.386134743690490723e+00 1.145120048522949219e+01 3.019519567489624023e+00 9.605557918548583984e-01
2.909000000000000000e+03 7.018650817871093750e+01 -8.882630348205566406e+00 -1.455354213714599609e+00 4.757048606872558594e+00 9.905083179473876953e-01 -2.447528839111328125e+00
2.910000000000000000e+03 7.317820739746093750e+01 -5.851222038269042969e+00 -7.305839657783508301e-01 7.056232452392578125e+00 1.897694587707519531e+00 -1.713591933250427246e+00
2.911000000000000000e+03 7.182901763916015625e+01 -8.503046035766601562e+00 -1.490282297134399414e+00 6.586846351623535156e+00 1.528969287872314453e+00 -2.199401140213012695e+00
2.912000000000000000e+03 7.123102569580078125e+01 -9.401866912841796875e+00 -1.644455075263977051e+00 6.102885246276855469e+00 1.337529063224792480e+00 -2.417683839797973633e+00
2.913000000000000000e+03 7.052649688720703125e+01 -1.084228897094726562e+01 -1.606216192245483398e+00 4.966951370239257812e+00 1.008220434188842773e+00 -2.427745342254638672e+00
2.914000000000000000e+03 7.186464691162109375e+01 -4.551673889160156250e+00 -3.829502761363983154e-01 5.913920879364013672e+00 1.659291267395019531e+00 -1.920235157012939453e+00
2.915000000000000000e+03 7.156183624267578125e+01 -5.718112945556640625e+00 -6.514638066291809082e-01 5.811520576477050781e+00 1.548017024993896484e+00 -2.057874679565429688e+00
2.916000000000000000e+03 7.645132064819335938e+00 9.407022476196289062e+00 -1.427444629371166229e-03 -5.970401689410209656e-03 -2.219353802502155304e-03 6.217734771780669689e-04
2.917000000000000000e+03 9.726401329040527344e+00 8.469964981079101562e+00 3.983291797339916229e-03 -1.828446867875754833e-03 6.464534671977162361e-04 1.483720145188271999e-03
2.918000000000000000e+03 8.801807403564453125e+00 -8.090938568115234375e+00 1.199004501104354858e-01 3.237698376178741455e-01 1.331010907888412476e-01 -5.851680636405944824e-01
2.919000000000000000e+03 6.529001617431640625e+01 5.842791080474853516e+00 9.140673279762268066e-01 5.535196304321289062e+00 1.934779047966003418e+00 3.043745411559939384e-03
2.920000000000000000e+03 6.305134963989257812e+01 -5.009684562683105469e+00 3.058867454528808594e-01 1.204281210899353027e+00 4.530504047870635986e-01 1.105630025267601013e-01
2.921000000000000000e+03 6.614399719238281250e+01 -3.811299562454223633e+00 4.679716825485229492e-01 2.558064222335815430e+00 9.078107476234436035e-01 -1.111556053161621094e+00
2.922000000000000000e+03 9.487670898437500000e+00 -7.811528205871582031e+00 8.140499889850616455e-02 4.284427165985107422e-01 1.529543101787567139e-01 -5.308420658111572266e-01
2.923000000000000000e+03 6.618676757812500000e+01 1.136733770370483398e+00 9.050408005714416504e-01 4.154743671417236328e+00 1.517935395240783691e+00 -5.406391620635986328e-01
2.924000000000000000e+03 6.717207336425781250e+01 2.849871635437011719e+00 8.400484919548034668e-01 4.775254249572753906e+00 1.684590816497802734e+00 -7.083616256713867188e-01
2.925000000000000000e+03 6.825661468505859375e+01 -5.601945877075195312e+00 -2.179253846406936646e-01 3.215191841125488281e+00 8.991799950599670410e-01 -1.861566781997680664e+00
2.926000000000000000e+03 6.569295501708984375e+01 -1.259460926055908203e+00 8.061198592185974121e-01 3.322912454605102539e+00 1.238709688186645508e+00 -6.254333853721618652e-01
2.927000000000000000e+03 6.725276947021484375e+01 -5.628462791442871094e+00 -6.354513019323348999e-02 2.596054077148437500e+00 7.597526907920837402e-01 -1.641200661659240723e+00
2.928000000000000000e+03 6.639263153076171875e+01 -6.185958862304687500e+00 -2.427620291709899902e-01 1.900299429893493652e+00 4.972611963748931885e-01 -1.391629934310913086e+00
2.929000000000000000e+03 6.403821563720703125e+01 -5.593679428100585938e+00 1.862216889858245850e-01 1.117977976799011230e+00 3.912599086761474609e-01 -3.831968903541564941e-01
2.930000000000000000e+03 7.054347991943359375e+01 1.090202617645263672e+01 6.904461979866027832e-01 5.993137359619140625e+00 2.005074977874755859e+00 -6.245310306549072266e-01
2.931000000000000000e+03 7.141362762451171875e+01 -1.092290282249450684e+00 2.270000725984573364e-01 5.475770473480224609e+00 1.710831165313720703e+00 -1.664597034454345703e+00
2.932000000000000000e+03 1.157714271545410156e+01 -8.338932991027832031e+00 1.821103692054748535e-01 8.451258540153503418e-01 3.081708550453186035e-01 -2.930369079113006592e-01
2.933000000000000000e+03 6.623908996582031250e+01 -2.926519513130187988e-01 8.577621579170227051e-01 3.757835865020751953e+00 1.384679436683654785e+00 -7.200037837028503418e-01
2.934000000000000000e+03 6.810601043701171875e+01 -1.153954386711120605e+00 6.079081296920776367e-01 4.082374572753906250e+00 1.407084822654724121e+00 -1.307727456092834473e+00
2.935000000000000000e+03 8.069594383239746094e+00 -8.392662048339843750e+00 1.357427686452865601e-01 2.318416535854339600e-01 1.102753281593322754e-01 -5.976159572601318359e-01
2.936000000000000000e+03 6.706610870361328125e+01 5.690710544586181641e+00 8.418725132942199707e-01 5.493845939636230469e+00 1.900715470314025879e+00 -4.852740764617919922e-01
2.937000000000000000e+03 6.952322387695312500e+01 -2.869561767578125000e+01 -5.579593777656555176e-01 4.300109863281250000e+00 1.122645139694213867e+00 6.825399994850158691e-01
2.938000000000000000e+03 6.986142158508300781e+00 2.171765327453613281e+01 -6.766846030950546265e-02 1.564095541834831238e-02 -1.560825016349554062e-02 6.074556708335876465e-02
2.939000000000000000e+03 7.092787933349609375e+01 2.181347310543060303e-01 4.091855585575103760e-01 5.384298324584960938e+00 1.738045096397399902e+00 -1.517253875732421875e+00
2.940000000000000000e+03 6.812806701660156250e+01 1.260862112045288086e+00 7.155268192291259766e-01 4.677028179168701172e+00 1.617766499519348145e+00 -1.046864032745361328e+00
2.941000000000000000e+03 7.226734161376953125e+01 1.278575897216796875e+01 5.073966383934020996e-01 5.863883018493652344e+00 1.911383986473083496e+00 -4.525758326053619385e-01
2.942000000000000000e+03 7.100251770019531250e+01 1.320863342285156250e+01 6.391451358795166016e-01 5.960764408111572266e+00 1.979972958564758301e+00 -4.248609840869903564e-01
2.943000000000000000e+03 6.593153953552246094e+00 1.986016273498535156e+01 -4.786205291748046875e-02 7.351826410740613937e-03 -1.215306762605905533e-02 3.319439664483070374e-02
2.944000000000000000e+03 7.416030883789062500e+01 1.636190223693847656e+01 3.154790103435516357e-01 5.636791229248046875e+00 1.785681009292602539e+00 -6.659025698900222778e-02
2.945000000000000000e+03 7.232878112792968750e+01 1.905219841003417969e+01 3.584542870521545410e-01 5.751039981842041016e+00 1.832848191261291504e+00 1.345735043287277222e-01
2.946000000000000000e+03 6.960539245605468750e+01 1.362482547760009766e+01 7.554400563240051270e-01 6.145981788635253906e+00 2.070426464080810547e+00 -4.015949666500091553e-01
2.947000000000000000e+03 7.056021118164062500e+01 2.073426628112792969e+01 2.856329679489135742e-01 5.865779399871826172e+00 1.845423698425292969e+00 2.302142828702926636e-01
2.948000000000000000e+03 8.753539085388183594e+00 1.052281284332275391e+01 -2.795112552121281624e-03 -6.629249081015586853e-03 -2.827308373525738716e-03 1.092583523131906986e-03
2.949000000000000000e+03 7.295548248291015625e+01 5.145998954772949219e+00 3.976367115974426270e-01 5.984402656555175781e+00 1.914611816406250000e+00 -1.117130279541015625e+00
2.950000000000000000e+03 6.748004913330078125e+01 3.849892854690551758e+00 8.221769332885742188e-01 5.106573581695556641e+00 1.778625249862670898e+00 -7.192841172218322754e-01
2.951000000000000000e+03 6.402015686035156250e+01 -3.041468143463134766e+00 7.673223018646240234e-01 2.143352746963500977e+00 8.732025027275085449e-01 -1.898526251316070557e-01
2.952000000000000000e+03 5.372888565063476562e+00 2.222515106201171875e+01 -4.569197818636894226e-02 -9.545559063553810120e-03 -1.657126098871231079e-02 6.641302257776260376e-02
2.953000000000000000e+03 6.085172653198242188e+00 -2.485781288146972656e+01 -1.937389187514781952e-02 1.965634673833847046e-01 5.315687507390975952e-02 5.609096288681030273e-01
2.954000000000000000e+03 6.397003936767578125e+01 2.256254196166992188e+01 -2.451915740966796875e-01 6.081568717956542969e+00 1.750913143157958984e+00 -5.568026304244995117e-01
2.955000000000000000e+03 7.199204254150390625e+01 4.461171627044677734e+00 4.754339158535003662e-01 5.821290016174316406e+00 1.889017105102539062e+00 -1.207858800888061523e+00
2.956000000000000000e+03 6.981662750244140625e+01 3.620005846023559570e+00 6.333482861518859863e-01 5.388690471649169922e+00 1.806611537933349609e+00 -1.140383720397949219e+00
2.957000000000000000e+03 7.073516082763671875e+01 6.605909824371337891e+00 6.099933981895446777e-01 5.795537948608398438e+00 1.921659350395202637e+00 -9.398491978645324707e-01
2.958000000000000000e+03 7.109946441650390625e+01 2.553913879394531250e+01 -1.398956477642059326e-01 5.695903301239013672e+00 1.666802287101745605e+00 2.049564719200134277e-01
2.959000000000000000e+03 7.323111724853515625e+01 2.277327728271484375e+01 4.374146088957786560e-02 5.673813343048095703e+00 1.715266346931457520e+00 2.851738035678863525e-01
2.960000000000000000e+03 7.224086761474609375e+00 2.957703971862792969e+01 1.193066593259572983e-02 -2.544823661446571350e-02 -4.055271390825510025e-03 1.419407576322555542e-01
2.961000000000000000e+03 7.256029510498046875e+01 -1.180162715911865234e+01 -1.901093721389770508e+00 8.976841926574707031e+00 2.122724533081054688e+00 -2.505183935165405273e+00
2.962000000000000000e+03 7.344131469726562500e+01 -1.257828807830810547e+01 -1.992217898368835449e+00 1.163644790649414062e+01 2.893269062042236328e+00 -1.884398937225341797e+00
2.963000000000000000e+03 7.313618469238281250e+01 -1.233456134796142578e+01 -1.986554503440856934e+00 1.059927082061767578e+01 2.583814859390258789e+00 -2.224537611007690430e+00
2.964000000000000000e+03 7.262950134277343750e+01 -1.240186786651611328e+01 -1.742201805114746094e+00 9.466070175170898438e+00 2.317160367965698242e+00 -2.738802433013916016e+00
2.965000000000000000e+03 7.379541778564453125e+01 -1.262642383575439453e+01 -2.014417409896850586e+00 1.219016933441162109e+01 3.052725553512573242e+00 -1.388601183891296387e+00
2.966000000000000000e+03 7.097997283935546875e+01 -1.183709621429443359e+01 -1.474779486656188965e+00 5.519479751586914062e+00 1.213410139083862305e+00 -2.497303724288940430e+00
2.967000000000000000e+03 7.446337890625000000e+01 -1.206282138824462891e+01 -2.055052042007446289e+00 1.194761180877685547e+01 2.967767953872680664e+00 -3.894840180873870850e-01
2.968000000000000000e+03 7.267984771728515625e+01 -8.448879241943359375e+00 -1.455236077308654785e+00 7.430562496185302734e+00 1.792598009109497070e+00 -1.920643925666809082e+00
2.969000000000000000e+03 7.255225372314453125e+01 -7.617971897125244141e+00 -1.244869351387023926e+00 7.022902965545654297e+00 1.733410120010375977e+00 -1.927621006965637207e+00
2.970000000000000000e+03 7.147628021240234375e+01 -1.121418857574462891e+01 -1.747525095939636230e+00 6.608576774597167969e+00 1.458315610885620117e+00 -2.560389041900634766e+00
2.971000000000000000e+03 7.297124481201171875e+01 -9.986686706542968750e+00 -1.853184819221496582e+00 8.432666778564453125e+00 1.973844647407531738e+00 -1.824653506278991699e+00
2.972000000000000000e+03 7.209548950195312500e+01 -1.244680786132812500e+01 -1.425982594490051270e+00 7.870582103729248047e+00 1.933379888534545898e+00 -2.901507139205932617e+00
2.973000000000000000e+03 7.153134918212890625e+01 -6.744424343109130859e+00 -9.453947544097900391e-01 5.915537357330322266e+00 1.491042733192443848e+00 -2.126603841781616211e+00
2.974000000000000000e+03 6.515303802490234375e+01 -3.715090751647949219e+00 6.013404130935668945e-01 2.283722400665283203e+00 8.655188083648681641e-01 -7.266622781753540039e-01
2.975000000000000000e+03 1.033493804931640625e+01 -7.676032066345214844e+00 5.468893051147460938e-02 5.507206916809082031e-01 1.816228926181793213e-01 -4.713074564933776855e-01
2.976000000000000000e+03 6.862915039062500000e+01 -2.398629426956176758e+00 3.846182525157928467e-01 4.115993976593017578e+00 1.350183606147766113e+00 -1.527079463005065918e+00
2.977000000000000000e+03 7.066950225830078125e+01 -4.318650722503662109e+00 -1.885089129209518433e-01 5.102726936340332031e+00 1.474265456199645996e+00 -1.980434656143188477e+00
2.978000000000000000e+03 7.242517852783203125e+01 -5.888492584228515625e+00 -7.454460263252258301e-01 6.474250316619873047e+00 1.718641400337219238e+00 -1.901291131973266602e+00
2.979000000000000000e+03 6.938257598876953125e+01 -5.759008407592773438e+00 -4.022294282913208008e-01 4.130974769592285156e+00 1.118623614311218262e+00 -2.077954053878784180e+00
2.980000000000000000e+03 6.849327850341796875e+01 -4.544400215148925781e+00 -1.675350032746791840e-02 3.635324239730834961e+00 1.085571289062500000e+00 -1.806512951850891113e+00
2.981000000000000000e+03 6.493163299560546875e+01 -6.251033306121826172e+00 -1.924667507410049438e-01 1.073473811149597168e+00 2.643021047115325928e-01 -7.629627585411071777e-01
2.982000000000000000e+03 6.761658477783203125e+01 -4.037186145782470703e+00 2.511978447437286377e-01 3.240687608718872070e+00 1.047565579414367676e+00 -1.560121297836303711e+00
2.983000000000000000e+03 6.719538116455078125e+01 -7.427046298980712891e-01 6.982501745223999023e-01 3.919136285781860352e+00 1.385215997695922852e+00 -1.028011441230773926e+00
2.984000000000000000e+03 6.775055694580078125e+01 -2.007555007934570312e+00 5.024785399436950684e-01 3.792309045791625977e+00 1.288436293601989746e+00 -1.356589674949645996e+00
2.985000000000000000e+03 6.879771423339843750e+01 5.506600856781005859e+00 7.462530732154846191e-01 5.540318489074707031e+00 1.885971546173095703e+00 -8.211956024169921875e-01
2.986000000000000000e+03 7.780438423156738281e+00 2.460111618041992188e+01 -7.487205415964126587e-02 2.173114754259586334e-02 -1.594227179884910583e-02 1.225588247179985046e-01
2.987000000000000000e+03 7.053118896484375000e+01 -6.807235240936279297e+00 -8.241097331047058105e-01 5.138511657714843750e+00 1.294320464134216309e+00 -2.252278327941894531e+00
2.988000000000000000e+03 7.235339355468750000e+01 6.174461364746093750e+00 4.551843404769897461e-01 5.911645889282226562e+00 1.910048961639404297e+00 -1.058750391006469727e+00
2.989000000000000000e+03 7.131797790527343750e+01 8.154561996459960938e+00 5.867639780044555664e-01 5.887898445129394531e+00 1.942398667335510254e+00 -8.641543388366699219e-01
2.990000000000000000e+03 6.950426483154296875e+01 4.616046905517578125e+00 6.713435053825378418e-01 5.496403694152832031e+00 1.850324153900146484e+00 -9.990859627723693848e-01
2.991000000000000000e+03 7.419103240966796875e+01 1.761567687988281250e+01 2.915564775466918945e-01 5.614017963409423828e+00 1.771672368049621582e+00 3.326606005430221558e-02
2.992000000000000000e+03 6.859480285644531250e+01 -2.829264998435974121e-01 5.893288850784301758e-01 4.484368801116943359e+00 1.522109270095825195e+00 -1.282005906105041504e+00
2.993000000000000000e+03 7.017152404785156250e+01 1.685270118713378906e+01 6.679332852363586426e-01 5.992370128631591797e+00 1.998090982437133789e+00 -1.119584813714027405e-01
2.994000000000000000e+03 7.122066497802734375e+01 1.795608901977539062e+01 5.279043912887573242e-01 5.859709739685058594e+00 1.916284203529357910e+00 2.819027006626129150e-02
2.995000000000000000e+03 7.135589599609375000e+01 2.392067718505859375e+01 -3.714457154273986816e-02 5.738996982574462891e+00 1.710555672645568848e+00 2.549325525760650635e-01
2.996000000000000000e+03 6.936116027832031250e+01 9.703575134277343750e+00 7.247534394264221191e-01 6.036763191223144531e+00 2.028455018997192383e+00 -6.386405229568481445e-01
2.997000000000000000e+03 7.072362518310546875e+01 9.028033256530761719e+00 6.252998113632202148e-01 5.931067466735839844e+00 1.966910243034362793e+00 -7.688335776329040527e-01
2.998000000000000000e+03 7.234110260009765625e+01 -1.148288726806640625e+01 -1.741032004356384277e+00 8.304710388183593750e+00 1.969103574752807617e+00 -2.446531295776367188e+00
2.999000000000000000e+03 7.356488800048828125e+01 -1.181239795684814453e+01 -2.180164813995361328e+00 1.075483989715576172e+01 2.572402715682983398e+00 -1.550079464912414551e+00
3.000000000000000000e+03 7.233412170410156250e+01 -1.211229133605957031e+01 -1.542964100837707520e+00 8.527542114257812500e+00 2.095373392105102539e+00 -2.703783035278320312e+00
3.001000000000000000e+03 7.317826080322265625e+01 -1.060557556152343750e+01 -1.985298395156860352e+00 9.030435562133789062e+00 2.113541126251220703e+00 -1.832414150238037109e+00
3.002000000000000000e+03 7.122949218750000000e+01 -1.218502140045166016e+01 -1.156315922737121582e+00 5.836024284362792969e+00 1.403912544250488281e+00 -2.597568035125732422e+00
3.003000000000000000e+03 7.386052703857421875e+01 -1.207037830352783203e+01 -2.074954748153686523e+00 1.137386798858642578e+01 2.789673805236816406e+00 -1.269856929779052734e+00
3.004000000000000000e+03 7.305678558349609375e+01 -1.172254180908203125e+01 -2.047380447387695312e+00 9.762745857238769531e+00 2.314609527587890625e+00 -2.025294780731201172e+00
3.005000000000000000e+03 7.371136474609375000e+01 -1.153040885925292969e+01 -2.056343555450439453e+00 1.055198001861572266e+01 2.548690795898437500e+00 -1.357390880584716797e+00
3.006000000000000000e+03 7.087940216064453125e+01 -1.121588325500488281e+01 -1.765346527099609375e+00 5.490345478057861328e+00 1.117499709129333496e+00 -2.456186294555664062e+00
3.007000000000000000e+03 7.179952239990234375e+01 -1.215438747406005859e+01 -1.292619824409484863e+00 7.194858074188232422e+00 1.770671486854553223e+00 -2.768406629562377930e+00
3.008000000000000000e+03 7.181065368652343750e+01 -1.035413265228271484e+01 -1.799854874610900879e+00 6.923357009887695312e+00 1.537050604820251465e+00 -2.370602846145629883e+00
3.009000000000000000e+03 7.096395874023437500e+01 -1.050749683380126953e+01 -1.785650134086608887e+00 5.811707019805908203e+00 1.207816958427429199e+00 -2.444501876831054688e+00
3.010000000000000000e+03 7.071860504150390625e+01 -7.780761241912841797e+00 -1.212997078895568848e+00 5.314182281494140625e+00 1.230355620384216309e+00 -2.305546998977661133e+00
3.011000000000000000e+03 6.570686340332031250e+01 -2.941729068756103516e+00 6.218891143798828125e-01 2.768860340118408203e+00 1.017224788665771484e+00 -7.891280651092529297e-01
3.012000000000000000e+03 7.053242492675781250e+01 -5.666347980499267578e+00 -6.078891754150390625e-01 5.047044754028320312e+00 1.331746697425842285e+00 -2.149613380432128906e+00
3.013000000000000000e+03 7.201920318603515625e+01 -9.318154335021972656e+00 -1.613407731056213379e+00 6.996054172515869141e+00 1.614794015884399414e+00 -2.190347671508789062e+00
3.014000000000000000e+03 7.133484649658203125e+01 5.557572841644287109e+00 5.463904142379760742e-01 5.759194374084472656e+00 1.891675472259521484e+00 -1.081747174263000488e+00
3.015000000000000000e+03 6.949504852294921875e+01 -4.533586502075195312e+00 -1.363020539283752441e-01 4.307085990905761719e+00 1.251235127449035645e+00 -1.916249155998229980e+00
3.016000000000000000e+03 9.623300552368164062e+00 -1.053950977325439453e+01 4.558205902576446533e-01 6.122153401374816895e-01 3.204107880592346191e-01 -4.373036026954650879e-01
3.017000000000000000e+03 6.906224060058593750e+01 7.099407672882080078e+00 7.317436337471008301e-01 5.777126312255859375e+00 1.952661037445068359e+00 -7.550585269927978516e-01
3.018000000000000000e+03 6.966222381591796875e+01 8.629609107971191406e+00 6.978814005851745605e-01 5.938696861267089844e+00 1.990973472595214844e+00 -7.349132895469665527e-01
3.019000000000000000e+03 6.676667785644531250e+01 5.644328594207763672e-01 7.950601577758789062e-01 4.179502964019775391e+00 1.492368936538696289e+00 -7.681299448013305664e-01
3.020000000000000000e+03 6.674340820312500000e+01 -1.691999316215515137e+00 7.277150154113769531e-01 3.428155422210693359e+00 1.246761083602905273e+00 -9.861505627632141113e-01
3.021000000000000000e+03 6.668180084228515625e+01 -4.717439174652099609e+00 1.369790732860565186e-01 2.524848461151123047e+00 7.985482811927795410e-01 -1.332399725914001465e+00
3.022000000000000000e+03 6.890747833251953125e+01 4.067806243896484375e+00 7.321428656578063965e-01 5.276372909545898438e+00 1.802554726600646973e+00 -9.437270760536193848e-01
3.023000000000000000e+03 6.906708526611328125e+01 -3.707179546356201172e+00 1.456662565469741821e-01 4.175617218017578125e+00 1.296385049819946289e+00 -1.744807600975036621e+00
3.024000000000000000e+03 6.889980316162109375e+01 -1.567730665206909180e+00 4.317432343959808350e-01 4.368828296661376953e+00 1.440171480178833008e+00 -1.502973318099975586e+00
3.025000000000000000e+03 6.936895751953125000e+01 2.637830734252929688e+00 6.624326109886169434e-01 5.184291362762451172e+00 1.754017114639282227e+00 -1.143355965614318848e+00
3.026000000000000000e+03 1.597354602813720703e+01 3.226713943481445312e+01 1.493266075849533081e-01 4.058431684970855713e-01 1.665509343147277832e-01 -5.208921432495117188e-02
3.027000000000000000e+03 6.829890441894531250e+01 2.377564430236816406e+00 7.366409301757812500e-01 4.959429740905761719e+00 1.708821177482604980e+00 -9.859768152236938477e-01
3.028000000000000000e+03 8.932716369628906250e+00 2.803214836120605469e+01 -6.575210485607385635e-03 3.948066756129264832e-02 9.871637448668479919e-03 1.486225426197052002e-01
3.029000000000000000e+03 7.205877685546875000e+01 -1.180394458770751953e+01 -1.664046883583068848e+00 7.708463191986083984e+00 1.813324809074401855e+00 -2.617636919021606445e+00
3.030000000000000000e+03 7.328255462646484375e+01 -1.108667755126953125e+01 -2.060651779174804688e+00 9.698536872863769531e+00 2.291365623474121094e+00 -1.749856472015380859e+00
3.031000000000000000e+03 7.227342224121093750e+01 -1.005617809295654297e+01 -1.849210739135742188e+00 7.639044284820556641e+00 1.736950039863586426e+00 -2.253689765930175781e+00
3.032000000000000000e+03 7.123515319824218750e+01 -1.088111209869384766e+01 -1.632892012596130371e+00 6.069774150848388672e+00 1.331064701080322266e+00 -2.559412717819213867e+00
3.033000000000000000e+03 7.121846771240234375e+01 -1.152826023101806641e+01 -1.408275246620178223e+00 6.041955471038818359e+00 1.390104055404663086e+00 -2.525543928146362305e+00
3.034000000000000000e+03 7.165017700195312500e+01 -7.656956195831298828e+00 -1.152212738990783691e+00 6.202813625335693359e+00 1.515180230140686035e+00 -2.190141201019287109e+00
3.035000000000000000e+03 6.955729675292968750e+01 -2.771656990051269531e+00 1.891807019710540771e-01 4.549666404724121094e+00 1.421654105186462402e+00 -1.740011811256408691e+00
3.036000000000000000e+03 6.821854400634765625e+01 -3.226529836654663086e+00 2.715884149074554443e-01 3.837268352508544922e+00 1.232657074928283691e+00 -1.567638158798217773e+00
3.037000000000000000e+03 1.003199577331542969e+01 2.695899963378906250e+01 -4.994539916515350342e-02 6.163752079010009766e-02 3.507637418806552887e-03 1.498389542102813721e-01
3.038000000000000000e+03 9.820592880249023438e+00 2.910878753662109375e+01 1.242349389940500259e-02 6.821204721927642822e-02 2.419066429138183594e-02 1.442107856273651123e-01
3.039000000000000000e+03 6.799520111083984375e+01 4.787312507629394531e+00 7.824274301528930664e-01 5.344669818878173828e+00 1.838129162788391113e+00 -7.250962853431701660e-01
3.040000000000000000e+03 7.773972034454345703e+00 2.710761260986328125e+01 -3.281495720148086548e-02 1.089148037135601044e-02 -6.577043328434228897e-03 1.465972512960433960e-01
3.041000000000000000e+03 6.307160377502441406e+00 2.516847991943359375e+01 -3.718253597617149353e-02 -1.602964848279953003e-02 -1.596365496516227722e-02 1.203396171331405640e-01
3.042000000000000000e+03 4.941833019256591797e+00 -2.538875389099121094e+01 -3.153673559427261353e-02 -6.791549175977706909e-02 -2.983566932380199432e-02 5.187387466430664062e-01
3.043000000000000000e+03 3.546257400512695312e+01 -9.440744400024414062e+00 -2.224085092544555664e+00 8.546587944030761719e+00 1.896750926971435547e+00 -9.784539341926574707e-01
3.044000000000000000e+03 3.773451995849609375e+01 1.729125213623046875e+01 4.134958088397979736e-01 7.353343486785888672e+00 2.330051660537719727e+00 5.155131816864013672e-01
3.045000000000000000e+03 5.522246932983398438e+01 -3.316525268554687500e+01 -4.374375045299530029e-01 2.557721175253391266e-02 -1.235580891370773315e-01 -9.153884649276733398e-01
3.046000000000000000e+03 3.408583068847656250e+01 -3.520268630981445312e+01 -6.600630283355712891e-01 3.738862752914428711e+00 9.236398935317993164e-01 9.860562682151794434e-01
3.047000000000000000e+03 2.626455497741699219e+01 -3.609074401855468750e+01 -1.506343833170831203e-03 8.987330198287963867e-01 2.691679894924163818e-01 2.958651781082153320e-01
3.048000000000000000e+03 2.827852249145507812e+01 -3.505033493041992188e+01 -1.225560531020164490e-01 1.282209515571594238e+00 3.478960394859313965e-01 5.398117303848266602e-01
3.049000000000000000e+03 7.633109283447265625e+01 3.300799942016601562e+01 -3.478346019983291626e-02 5.730848312377929688e+00 1.708819508552551270e+00 7.545674592256546021e-02
3.050000000000000000e+03 7.093479156494140625e+01 2.742377662658691406e+01 -2.014346271753311157e-01 5.584128856658935547e+00 1.614808320999145508e+00 1.254596114158630371e-01
3.051000000000000000e+03 6.963703155517578125e+01 2.340399360656738281e+01 -2.615147456526756287e-02 5.849385261535644531e+00 1.746970176696777344e+00 2.006932199001312256e-01
3.052000000000000000e+03 7.381254577636718750e+01 3.148927688598632812e+01 -1.085783615708351135e-01 5.591089725494384766e+00 1.644753456115722656e+00 1.049986928701400757e-01
3.053000000000000000e+03 6.422625732421875000e+01 2.689228439331054688e+01 -4.299428462982177734e-01 4.985721588134765625e+00 1.366733670234680176e+00 -7.272052168846130371e-01
3.054000000000000000e+03 6.152099609375000000e+01 2.786421966552734375e+01 -1.647782325744628906e-01 4.017758369445800781e+00 1.155894041061401367e+00 -9.438691735267639160e-01
3.055000000000000000e+03 1.233000183105468750e+01 3.012306594848632812e+01 5.613033473491668701e-02 1.578389555215835571e-01 6.419078260660171509e-02 1.032557114958763123e-01
3.056000000000000000e+03 7.553312683105468750e+01 3.612997817993164062e+01 -4.220315068960189819e-02 5.642957210540771484e+00 1.680226206779479980e+00 2.803839743137359619e-02
3.057000000000000000e+03 3.000303459167480469e+01 2.873327064514160156e+01 -4.437458813190460205e-01 3.462209463119506836e+00 9.055390954017639160e-01 -8.878544569015502930e-01
3.058000000000000000e+03 3.490455627441406250e+01 2.885915374755859375e+01 -6.906402111053466797e-01 4.368822097778320312e+00 1.103454470634460449e+00 4.133136197924613953e-02
3.059000000000000000e+03 2.241521644592285156e+01 3.018551635742187500e+01 1.701129376888275146e-01 1.039623737335205078e+00 3.629209995269775391e-01 -5.715256929397583008e-01
3.060000000000000000e+03 1.023587703704833984e+01 3.282240676879882812e+01 7.350710034370422363e-02 1.013499498367309570e-01 5.245711654424667358e-02 1.082454398274421692e-01
3.061000000000000000e+03 9.810446739196777344e+00 3.538997268676757812e+01 9.188821166753768921e-02 9.359010308980941772e-02 5.564349517226219177e-02 8.419181406497955322e-02
3.062000000000000000e+03 4.479405975341796875e+01 -3.323285675048828125e+01 -7.821992039680480957e-01 6.169095516204833984e+00 1.616068840026855469e+00 -1.018531680107116699e+00
3.063000000000000000e+03 3.765374374389648438e+01 2.890600967407226562e+01 -6.419262290000915527e-01 4.399249076843261719e+00 1.127196907997131348e+00 5.150493979454040527e-01
3.064000000000000000e+03 2.101309776306152344e+01 3.142650985717773438e+01 1.625136435031890869e-01 9.236372113227844238e-01 3.258452713489532471e-01 -4.095997512340545654e-01
3.065000000000000000e+03 7.173799896240234375e+01 3.427885818481445312e+01 -9.989159554243087769e-02 5.392608642578125000e+00 1.587815046310424805e+00 1.252985838800668716e-02
3.066000000000000000e+03 6.788898468017578125e+01 2.881742286682128906e+01 -2.893787920475006104e-01 5.301638603210449219e+00 1.503677964210510254e+00 -1.591636985540390015e-01
3.067000000000000000e+03 7.439059448242187500e+01 3.007431221008300781e+01 -1.035408973693847656e-01 5.631888389587402344e+00 1.658504247665405273e+00 1.433113962411880493e-01
3.068000000000000000e+03 7.592762756347656250e+01 3.441562652587890625e+01 -3.988069668412208557e-02 5.699268341064453125e+00 1.697816252708435059e+00 5.456012487411499023e-02
3.069000000000000000e+03 6.787981414794921875e+01 3.168639564514160156e+01 -1.970712393522262573e-01 5.046551704406738281e+00 1.454844117164611816e+00 -1.812177002429962158e-01
3.070000000000000000e+03 7.214215087890625000e+01 3.147190666198730469e+01 -1.467156708240509033e-01 5.485608100891113281e+00 1.601667761802673340e+00 6.076251342892646790e-02
3.071000000000000000e+03 7.301885986328125000e+01 3.286197280883789062e+01 -1.078101471066474915e-01 5.496798038482666016e+00 1.616696357727050781e+00 4.360319301486015320e-02
3.072000000000000000e+03 7.626542663574218750e+01 2.750044822692871094e+01 -4.006605222821235657e-02 5.654252052307128906e+00 1.684255719184875488e+00 2.012320160865783691e-01
3.073000000000000000e+03 7.624398040771484375e+01 2.892486000061035156e+01 -5.306879431009292603e-02 5.681659698486328125e+00 1.688577294349670410e+00 1.699984818696975708e-01
3.074000000000000000e+03 6.944487762451171875e+01 -1.376764965057373047e+01 -1.149630784988403320e+00 1.364322900772094727e+00 6.440763175487518311e-02 -1.980241388082504272e-01
3.075000000000000000e+03 7.058744812011718750e+01 -1.475822162628173828e+01 1.463008671998977661e-01 1.189726948738098145e+00 4.008083343505859375e-01 -5.815380215644836426e-01
3.076000000000000000e+03 7.077452087402343750e+01 -1.474735355377197266e+01 3.669050931930541992e-01 1.511162519454956055e+00 5.634202957153320312e-01 -9.259213209152221680e-01
3.077000000000000000e+03 7.098127746582031250e+01 -1.469016742706298828e+01 5.489509701728820801e-01 1.824749588966369629e+00 7.121101617813110352e-01 -1.329777359962463379e+00
3.078000000000000000e+03 7.088069152832031250e+01 -1.432344341278076172e+01 5.065376758575439453e-01 2.376310586929321289e+00 8.648544549942016602e-01 -1.608400940895080566e+00
3.079000000000000000e+03 7.185308837890625000e+01 -1.426343345642089844e+01 9.653822183609008789e-01 5.571707248687744141e+00 1.961126804351806641e+00 -3.787737369537353516e+00
3.080000000000000000e+03 7.281967926025390625e+01 -1.462093544006347656e+01 3.178240060806274414e-01 1.222506618499755859e+01 3.762866973876953125e+00 -5.383184432983398438e+00
3.081000000000000000e+03 7.263061523437500000e+01 -1.466683769226074219e+01 8.926416635513305664e-01 1.019001388549804688e+01 3.324796676635742188e+00 -5.664537429809570312e+00
3.082000000000000000e+03 7.348450469970703125e+01 -1.461070060729980469e+01 -8.867323994636535645e-01 1.744138145446777344e+01 4.966394901275634766e+00 -2.832045316696166992e+00
3.083000000000000000e+03 7.333898925781250000e+01 -1.420180988311767578e+01 -1.179689884185791016e+00 1.499372291564941406e+01 4.144209861755371094e+00 -3.188313007354736328e+00
3.084000000000000000e+03 7.358101654052734375e+01 -1.427019691467285156e+01 -1.224519610404968262e+00 1.610407829284667969e+01 4.463867664337158203e+00 -2.264995336532592773e+00
3.085000000000000000e+03 7.425721740722656250e+01 -1.454867267608642578e+01 -1.168698519468307495e-01 1.760872650146484375e+01 5.247556686401367188e+00 8.450708985328674316e-01
3.086000000000000000e+03 7.542654418945312500e+01 -1.548890972137451172e+01 4.471908092498779297e+00 1.359811496734619141e+01 5.421007156372070312e+00 2.073874473571777344e+00
3.087000000000000000e+03 7.544837951660156250e+01 -1.608179283142089844e+01 5.909806251525878906e+00 1.314156913757324219e+01 5.715412616729736328e+00 5.729869604110717773e-01
3.088000000000000000e+03 7.442671203613281250e+01 -1.746535491943359375e+01 3.229881525039672852e+00 1.800208282470703125e+01 6.369589328765869141e+00 -2.482725143432617188e+00
3.089000000000000000e+03 7.354137420654296875e+01 -1.823750305175781250e+01 -4.269785583019256592e-01 1.615710067749023438e+01 4.719036579132080078e+00 2.110157489776611328e+00
3.090000000000000000e+03 7.257632446289062500e+01 -1.817110252380371094e+01 1.335653305053710938e+00 9.955968856811523438e+00 3.387486457824707031e+00 4.771783351898193359e+00
3.091000000000000000e+03 7.186449432373046875e+01 -1.808109092712402344e+01 2.297167301177978516e+00 5.170302867889404297e+00 2.240241050720214844e+00 3.836401224136352539e+00
3.092000000000000000e+03 7.156640625000000000e+01 -1.854456520080566406e+01 1.668792366981506348e+00 4.594214439392089844e+00 1.878901958465576172e+00 3.141420364379882812e+00
3.093000000000000000e+03 7.184796905517578125e+01 -1.856961631774902344e+01 1.485924363136291504e+00 6.091045856475830078e+00 2.273091077804565430e+00 3.663166046142578125e+00
3.094000000000000000e+03 7.114936065673828125e+01 -1.824682807922363281e+01 1.882826685905456543e+00 2.563278913497924805e+00 1.333831667900085449e+00 2.242300271987915039e+00
3.095000000000000000e+03 2.596768379211425781e+00 -3.814812088012695312e+01 -1.468020770698785782e-02 1.307621896266937256e-01 3.482459113001823425e-02 8.069682121276855469e-02
3.096000000000000000e+03 3.860202312469482422e+00 -3.638075637817382812e+01 -5.482693389058113098e-02 1.586879789829254150e-01 3.115831315517425537e-02 1.206697970628738403e-01
3.097000000000000000e+03 1.237036108970642090e+00 -3.157275676727294922e+00 -3.174623101949691772e-02 -2.020645439624786377e-01 -7.014323025941848755e-02 -1.415114253759384155e-01
3.098000000000000000e+03 1.803202247619628906e+01 3.577515363693237305e+00 -4.651046183425933123e-04 -8.586451876908540726e-04 -3.971249388996511698e-04 -5.674770218320190907e-04
3.099000000000000000e+03 2.995806217193603516e+00 -5.695426940917968750e+00 -6.421579420566558838e-02 -3.823751807212829590e-01 -1.339772939682006836e-01 -4.539739191532135010e-01
3.100000000000000000e+03 2.380081558227539062e+01 -3.596633148193359375e+01 -3.459706157445907593e-02 5.773392319679260254e-01 1.628226488828659058e-01 1.537060644477605820e-02
3.101000000000000000e+03 7.241001129150390625e+01 -1.867240333557128906e+01 6.942471265792846680e-01 9.062180519104003906e+00 2.926928520202636719e+00 3.910899639129638672e+00
3.102000000000000000e+03 4.662206649780273438e+01 -3.121193695068359375e+01 -2.023432590067386627e-02 5.929843425750732422e+00 1.772882699966430664e+00 -1.697823405265808105e+00
3.103000000000000000e+03 4.796944427490234375e+01 -3.018917465209960938e+01 1.096504092216491699e+00 5.347803115844726562e+00 1.933292269706726074e+00 -2.779764890670776367e+00
3.104000000000000000e+03 7.244406890869140625e+01 -1.439364337921142578e+01 5.467521548271179199e-01 9.088028907775878906e+00 2.890434265136718750e+00 -4.826897144317626953e+00
3.105000000000000000e+03 7.160174560546875000e+01 -1.400999546051025391e+01 6.542054414749145508e-01 5.123573303222656250e+00 1.733333587646484375e+00 -3.391186714172363281e+00
3.106000000000000000e+03 7.125971221923828125e+01 -1.374952125549316406e+01 1.862364411354064941e-01 4.429557800292968750e+00 1.384738326072692871e+00 -2.676601171493530273e+00
3.107000000000000000e+03 7.121551513671875000e+01 -1.346482563018798828e+01 -6.833589822053909302e-02 4.660634517669677734e+00 1.377689599990844727e+00 -2.632932186126708984e+00
3.108000000000000000e+03 7.144977569580078125e+01 -1.416115760803222656e+01 5.721009969711303711e-01 4.037151813507080078e+00 1.382775902748107910e+00 -2.755556583404541016e+00
3.109000000000000000e+03 7.131626892089843750e+01 -1.398897075653076172e+01 5.986858606338500977e-01 4.036470413208007812e+00 1.390546917915344238e+00 -2.756606101989746094e+00
3.110000000000000000e+03 6.975360107421875000e+01 -1.276453018188476562e+01 -1.563061237335205078e+00 2.708564996719360352e+00 3.436511456966400146e-01 -1.300843119621276855e+00
3.111000000000000000e+03 7.391274261474609375e+01 -1.376701164245605469e+01 -1.700764894485473633e+00 1.504912853240966797e+01 4.004508972167968750e+00 -1.154490113258361816e+00
3.112000000000000000e+03 7.370182037353515625e+01 -1.394805812835693359e+01 -1.532299876213073730e+00 1.527447319030761719e+01 4.122652053833007812e+00 -1.759004235267639160e+00
3.113000000000000000e+03 5.406163024902343750e+01 -1.319074630737304688e+01 -1.574214458465576172e+00 3.106713593006134033e-01 -3.790629208087921143e-01 8.094783425331115723e-01
3.114000000000000000e+03 7.417807769775390625e+01 -1.407850646972656250e+01 -1.083591818809509277e+00 1.614634323120117188e+01 4.518825054168701172e+00 -7.309365272521972656e-02
3.115000000000000000e+03 7.391708374023437500e+01 -1.404363822937011719e+01 -1.326346874237060547e+00 1.603983879089355469e+01 4.414047718048095703e+00 -1.001745820045471191e+00
3.116000000000000000e+03 7.479607391357421875e+01 -1.439082622528076172e+01 3.639560341835021973e-01 1.574855804443359375e+01 4.833754062652587891e+00 1.850476741790771484e+00
3.117000000000000000e+03 7.306546783447265625e+01 -1.839745330810546875e+01 -3.088211640715599060e-02 1.333638763427734375e+01 3.991651773452758789e+00 3.644767045974731445e+00
3.118000000000000000e+03 7.260869598388671875e+01 -1.855432701110839844e+01 5.526463985443115234e-01 1.028534603118896484e+01 3.251397848129272461e+00 4.108851432800292969e+00
3.119000000000000000e+03 7.324671936035156250e+01 -1.858135223388671875e+01 -4.267365038394927979e-01 1.363723182678222656e+01 3.963148593902587891e+00 2.866964578628540039e+00
3.120000000000000000e+03 7.393914794921875000e+01 -1.876726722717285156e+01 -8.464198112487792969e-01 1.504132843017578125e+01 4.258472919464111328e+00 6.784654259681701660e-01
3.121000000000000000e+03 7.439064025878906250e+01 -1.856115722656250000e+01 -3.121119439601898193e-01 1.572284889221191406e+01 4.623220920562744141e+00 -7.355570793151855469e-01
3.122000000000000000e+03 7.590224456787109375e+01 -1.643552207946777344e+01 4.768392562866210938e+00 1.193533515930175781e+01 5.011118412017822266e+00 -4.725678861141204834e-01
3.123000000000000000e+03 1.694134521484375000e+01 4.350942134857177734e+00 1.809779438190162182e-03 6.051217787899076939e-04 7.244703592732548714e-04 4.558003565762192011e-04
3.124000000000000000e+03 7.788698577880859375e+01 -3.702181243896484375e+01 1.873527653515338898e-02 9.824408531188964844e+00 2.952943086624145508e+00 3.148962855339050293e-01
3.125000000000000000e+03 5.489710998535156250e+01 -1.295360946655273438e+01 -1.856024503707885742e+00 4.432954192161560059e-01 -4.238187372684478760e-01 6.628682613372802734e-01
3.126000000000000000e+03 7.781220245361328125e+01 -1.774553298950195312e+01 9.800412654876708984e-01 8.871809005737304688e+00 2.955554962158203125e+00 -1.507615208625793457e+00
3.127000000000000000e+03 6.814677429199218750e+01 -3.439080047607421875e+01 2.954201400279998779e-01 3.440088748931884766e+00 1.120652675628662109e+00 6.381932497024536133e-01
3.128000000000000000e+03 9.255778312683105469e+00 -2.174622917175292969e+01 3.416042923927307129e-01 1.143752813339233398e+00 4.456071555614471436e-01 5.544280409812927246e-01
3.129000000000000000e+03 4.499411773681640625e+01 3.022977066040039062e+01 -9.083874523639678955e-02 3.077547788619995117e+00 8.960127234458923340e-01 1.027529954910278320e+00
3.130000000000000000e+03 5.699501800537109375e+01 2.991660499572753906e+01 4.549293518066406250e-01 2.329435110092163086e+00 8.353093266487121582e-01 -3.955934643745422363e-01
3.131000000000000000e+03 2.603150177001953125e+01 3.288045120239257812e+01 -1.709598302841186523e-01 2.131556510925292969e+00 5.881789922714233398e-01 -6.120048165321350098e-01
3.132000000000000000e+03 3.248472595214843750e+01 -4.634209632873535156e+00 -9.299469590187072754e-01 5.481582164764404297e+00 1.365490555763244629e+00 -2.285304293036460876e-02
3.133000000000000000e+03 7.249416351318359375e+01 -1.904256820678710938e+01 1.816425919532775879e-01 9.361856460571289062e+00 2.863049745559692383e+00 3.431517362594604492e+00
3.134000000000000000e+03 7.277046203613281250e+01 -1.872169876098632812e+01 8.888555318117141724e-02 1.099025630950927734e+01 3.323742628097534180e+00 3.656019210815429688e+00
3.135000000000000000e+03 7.097795867919921875e+01 -1.355260944366455078e+01 -8.835976570844650269e-02 3.850109577178955078e+00 1.128525018692016602e+00 -2.227015495300292969e+00
3.136000000000000000e+03 7.146474456787109375e+01 -1.379863929748535156e+01 2.215500473976135254e-01 4.976165771484375000e+00 1.559314727783203125e+00 -3.019162416458129883e+00
3.137000000000000000e+03 7.125187683105468750e+01 -1.292946815490722656e+01 -5.964714884757995605e-01 5.369381427764892578e+00 1.431872963905334473e+00 -2.621394872665405273e+00
3.138000000000000000e+03 2.544125366210937500e+01 -5.887638568878173828e+00 -4.246345758438110352e-01 3.975636363029479980e-01 -8.121283724904060364e-03 1.588409066200256348e+00
3.139000000000000000e+03 7.462133789062500000e+01 -1.839062500000000000e+01 2.407483905553817749e-01 1.582064723968505859e+01 4.818418502807617188e+00 -1.383991599082946777e+00
3.140000000000000000e+03 7.448353576660156250e+01 -1.407611846923828125e+01 -6.724218130111694336e-01 1.587533473968505859e+01 4.560873985290527344e+00 8.179301023483276367e-01
3.141000000000000000e+03 7.480911254882812500e+01 -1.403997230529785156e+01 -4.340705275535583496e-01 1.510759067535400391e+01 4.402056217193603516e+00 1.456892609596252441e+00
3.142000000000000000e+03 1.723156166076660156e+01 -9.105768203735351562e+00 6.219489574432373047e-01 1.523210167884826660e+00 6.435477137565612793e-01 9.584909677505493164e-01
3.143000000000000000e+03 7.361376190185546875e+01 -1.876788902282714844e+01 -8.427005410194396973e-01 1.450196075439453125e+01 4.097778320312500000e+00 1.655228376388549805e+00
3.144000000000000000e+03 7.183692932128906250e+01 -1.929722023010253906e+01 5.421611666679382324e-01 6.749204635620117188e+00 2.187409639358520508e+00 3.100749731063842773e+00
3.145000000000000000e+03 1.627789688110351562e+01 -2.763787841796875000e+01 -3.202890753746032715e-01 1.099543690681457520e+00 2.337763905525207520e-01 -2.525519430637359619e-01
3.146000000000000000e+03 7.565075683593750000e+01 -1.475470352172851562e+01 1.987747788429260254e+00 1.339963245391845703e+01 4.616214275360107422e+00 2.546381473541259766e+00
3.147000000000000000e+03 7.105038452148437500e+01 -1.326570987701416016e+01 -4.018036723136901855e-01 4.466819286346435547e+00 1.219504714012145996e+00 -2.533054351806640625e+00
3.148000000000000000e+03 7.240165710449218750e+01 -1.969572067260742188e+01 -3.194801509380340576e-01 8.859893798828125000e+00 2.562124252319335938e+00 2.786237955093383789e+00
3.149000000000000000e+03 7.632130432128906250e+01 -1.509556102752685547e+01 2.472753286361694336e+00 1.140850543975830078e+01 4.164377689361572266e+00 1.976768374443054199e+00
3.150000000000000000e+03 7.635202026367187500e+01 -1.540700912475585938e+01 2.693826198577880859e+00 1.120515823364257812e+01 4.169695377349853516e+00 1.585975527763366699e+00
3.151000000000000000e+03 7.636669158935546875e+01 -1.471171092987060547e+01 1.747666716575622559e+00 1.149999237060546875e+01 3.974297761917114258e+00 2.199946165084838867e+00
3.152000000000000000e+03 7.396974945068359375e+01 -1.924792671203613281e+01 -1.178963303565979004e+00 1.365642642974853516e+01 3.743238925933837891e+00 6.476669907569885254e-01
3.153000000000000000e+03 5.591469955444335938e+01 -1.219688510894775391e+01 -2.098613977432250977e+00 7.071612477302551270e-01 -4.174357950687408447e-01 7.297902703285217285e-01
3.154000000000000000e+03 3.292863845825195312e+01 -3.626471996307373047e+00 -2.989674806594848633e-01 6.633819103240966797e+00 1.900455355644226074e+00 4.121586084365844727e-01
3.155000000000000000e+03 7.236562347412109375e+01 -1.369789505004882812e+01 -4.455024003982543945e-01 9.000779151916503906e+00 2.566583156585693359e+00 -3.938973903656005859e+00
3.156000000000000000e+03 7.228990936279296875e+01 -1.337532615661621094e+01 -6.788586378097534180e-01 8.541015625000000000e+00 2.358647108078002930e+00 -3.487748622894287109e+00
3.157000000000000000e+03 7.031231689453125000e+01 -1.253691959381103516e+01 -1.341698169708251953e+00 3.851928472518920898e+00 7.530691027641296387e-01 -2.034653663635253906e+00
3.158000000000000000e+03 5.881193161010742188e+00 -3.334292221069335938e+01 -1.509826034307479858e-01 2.681753933429718018e-01 3.515784069895744324e-02 2.635419070720672607e-01
3.159000000000000000e+03 4.822234153747558594e+00 -3.435946655273437500e+01 -1.051375046372413635e-01 1.942993700504302979e-01 2.674856036901473999e-02 2.168439775705337524e-01
3.160000000000000000e+03 7.628408813476562500e+01 2.609272575378417969e+01 -3.374978899955749512e-02 5.615669727325439453e+00 1.674576044082641602e+00 2.213421911001205444e-01
3.161000000000000000e+03 3.714483642578125000e+01 2.225722122192382812e+01 -1.580729037523269653e-01 5.746356487274169922e+00 1.676485061645507812e+00 5.737653374671936035e-01
3.162000000000000000e+03 1.758724975585937500e+01 -7.474930763244628906e+00 2.082446515560150146e-01 1.078139901161193848e+00 3.859153687953948975e-01 9.191728234291076660e-01
3.163000000000000000e+03 1.837267112731933594e+01 -6.695177555084228516e+00 8.200206607580184937e-02 8.819348216056823730e-01 2.891810536384582520e-01 9.918297529220581055e-01
3.164000000000000000e+03 1.601637458801269531e+01 -8.502806663513183594e+00 3.150463104248046875e-01 1.421461343765258789e+00 5.209522843360900879e-01 6.396033167839050293e-01
3.165000000000000000e+03 7.700426483154296875e+01 -1.554066562652587891e+01 2.087868213653564453e+00 9.896712303161621094e+00 3.595374345779418945e+00 1.087193608283996582e+00
3.166000000000000000e+03 6.247233581542968750e+01 -5.881054401397705078e+00 3.810562938451766968e-02 8.639057874679565430e-01 2.706034481525421143e-01 3.250712156295776367e-01
3.167000000000000000e+03 3.400391387939453125e+01 2.719013786315917969e+01 -6.204870939254760742e-01 4.594509124755859375e+00 1.192206621170043945e+00 -1.510382294654846191e-01
3.168000000000000000e+03 7.387056732177734375e+01 -1.343772315979003906e+01 -1.787919640541076660e+00 1.415032100677490234e+01 3.708720207214355469e+00 -1.272650003433227539e+00
3.169000000000000000e+03 5.868063354492187500e+01 2.970528602600097656e+01 2.979652583599090576e-01 2.839483261108398438e+00 9.412345290184020996e-01 -7.079753875732421875e-01
3.170000000000000000e+03 4.667835998535156250e+01 3.094337081909179688e+01 7.719542086124420166e-02 2.790630817413330078e+00 8.603478670120239258e-01 9.143668413162231445e-01
3.171000000000000000e+03 3.211017990112304688e+01 2.813031768798828125e+01 -6.176176071166992188e-01 4.215198516845703125e+00 1.079274296760559082e+00 -5.401315093040466309e-01
3.172000000000000000e+03 5.712826919555664062e+01 2.827046203613281250e+01 4.556217193603515625e-01 2.123510122299194336e+00 7.737395167350769043e-01 -4.885558784008026123e-01
3.173000000000000000e+03 6.595741271972656250e+01 -3.099772834777832031e+01 -5.038638114929199219e-01 1.599923253059387207e+00 3.288178443908691406e-01 4.457025527954101562e-01
3.174000000000000000e+03 7.337931823730468750e+01 -1.882388114929199219e+01 -7.587645649909973145e-01 1.356777858734130859e+01 3.842704296112060547e+00 2.328406572341918945e+00
3.175000000000000000e+03 7.589162445068359375e+01 -1.447306919097900391e+01 1.265993356704711914e+00 1.287248706817626953e+01 4.241544246673583984e+00 2.447633504867553711e+00
3.176000000000000000e+03 7.487430572509765625e+01 -1.865467834472656250e+01 -1.280363649129867554e-01 1.459446525573730469e+01 4.339928627014160156e+00 -1.551416158676147461e+00
3.177000000000000000e+03 7.203243255615234375e+01 -1.347391891479492188e+01 -4.922037720680236816e-01 7.409238338470458984e+00 2.075110435485839844e+00 -3.435767650604248047e+00
3.178000000000000000e+03 7.195475006103515625e+01 -1.323838615417480469e+01 -6.140351295471191406e-01 7.414562702178955078e+00 2.040158271789550781e+00 -3.285222768783569336e+00
3.179000000000000000e+03 7.079315185546875000e+01 -1.317815208435058594e+01 -4.719801843166351318e-01 4.098475933074951172e+00 1.087948679924011230e+00 -2.075086355209350586e+00
3.180000000000000000e+03 1.657777976989746094e+01 -8.672550201416015625e+00 4.791918992996215820e-01 1.346975564956665039e+00 5.478502511978149414e-01 7.497833371162414551e-01
3.181000000000000000e+03 7.660191345214843750e+01 -3.552071380615234375e+01 -4.957848414778709412e-02 9.179005622863769531e+00 2.738828182220458984e+00 3.627498149871826172e-01
3.182000000000000000e+03 6.557805633544921875e+01 -2.907751274108886719e+01 -8.872311115264892578e-01 9.369840621948242188e-01 1.492587476968765259e-02 8.747054636478424072e-02
3.183000000000000000e+03 6.652223205566406250e+01 -2.973820877075195312e+01 -6.180850267410278320e-01 2.008774757385253906e+00 4.172069430351257324e-01 3.269936144351959229e-01
3.184000000000000000e+03 1.540026187896728516e+01 -3.072945976257324219e+01 -4.872267246246337891e-01 9.990518689155578613e-01 1.535475552082061768e-01 -1.573293656110763550e-01
3.185000000000000000e+03 7.597688293457031250e+01 -1.384477424621582031e+01 1.515091061592102051e-01 1.251293754577636719e+01 3.799334049224853516e+00 2.198293209075927734e+00
3.186000000000000000e+03 7.173625946044921875e+01 -1.313009548187255859e+01 -5.379635095596313477e-01 6.631605148315429688e+00 1.828092455863952637e+00 -3.208752393722534180e+00
3.187000000000000000e+03 3.572525024414062500e+01 2.611837577819824219e+01 -6.056686639785766602e-01 4.916914939880371094e+00 1.293373942375183105e+00 2.109948694705963135e-01
3.188000000000000000e+03 4.750311279296875000e+01 2.748987197875976562e+01 1.049414053559303284e-01 2.504758119583129883e+00 7.829098701477050781e-01 1.173741579055786133e+00
3.189000000000000000e+03 7.350200653076171875e+01 -1.954827880859375000e+01 -1.241280198097229004e+00 1.247565269470214844e+01 3.370311498641967773e+00 1.532811045646667480e+00
3.190000000000000000e+03 7.286338806152343750e+01 -1.922906875610351562e+01 -4.378611445426940918e-01 1.096232318878173828e+01 3.157338619232177734e+00 3.040896654129028320e+00
3.191000000000000000e+03 6.501349639892578125e+01 2.964056587219238281e+01 -2.638388574123382568e-01 4.797490596771240234e+00 1.360095500946044922e+00 -5.080556273460388184e-01
3.192000000000000000e+03 7.291651153564453125e+01 2.735829925537109375e+01 -1.279133856296539307e-01 5.630483150482177734e+00 1.650770902633666992e+00 2.184319198131561279e-01
3.193000000000000000e+03 6.530944824218750000e+01 8.818189799785614014e-02 9.361619949340820312e-01 3.597057342529296875e+00 1.359965801239013672e+00 -3.996730148792266846e-01
3.194000000000000000e+03 5.464852523803710938e+01 2.875034713745117188e+01 5.446394085884094238e-01 1.779880762100219727e+00 6.973560452461242676e-01 -6.446436047554016113e-02
3.195000000000000000e+03 5.650902938842773438e+01 2.647431755065917969e+01 4.163427650928497314e-01 1.536863207817077637e+00 5.859618186950683594e-01 -5.798280239105224609e-01
3.196000000000000000e+03 5.586464309692382812e+01 2.774229240417480469e+01 5.059538483619689941e-01 1.819404602050781250e+00 6.976075172424316406e-01 -2.898754477500915527e-01
3.197000000000000000e+03 4.467860794067382812e+01 -9.874902725219726562e+00 -7.374334335327148438e-01 3.800386905670166016e+00 9.188860058784484863e-01 -7.773696910589933395e-03
3.198000000000000000e+03 1.608551597595214844e+01 -7.948352336883544922e+00 2.855627536773681641e-01 1.223183631896972656e+00 4.526239037513732910e-01 6.134831309318542480e-01
3.199000000000000000e+03 7.017078399658203125e+01 7.624603271484375000e+00 6.607785820960998535e-01 5.850688457489013672e+00 1.953440070152282715e+00 -8.325867056846618652e-01
3.200000000000000000e+03 4.207332992553710938e+01 -9.875518798828125000e+00 -1.317355632781982422e+00 6.167306423187255859e+00 1.454985260963439941e+00 -1.015215992927551270e+00
3.201000000000000000e+03 7.321245574951171875e+01 -1.893078231811523438e+01 -6.264001727104187012e-01 1.266515159606933594e+01 3.611625432968139648e+00 2.634063959121704102e+00
3.202000000000000000e+03 1.512352371215820312e+01 4.612976551055908203e+00 -1.110347337089478970e-03 -1.420904300175607204e-04 -3.757313534151762724e-04 7.058671326376497746e-04
3.203000000000000000e+03 6.609284400939941406e+00 -2.838214302062988281e+01 -1.741685718297958374e-01 3.750555813312530518e-01 6.026610732078552246e-02 4.969120919704437256e-01
3.204000000000000000e+03 7.089247131347656250e+01 -1.240989780426025391e+01 -1.278653621673583984e+00 5.021644592285156250e+00 1.122897267341613770e+00 -2.310325384140014648e+00
3.205000000000000000e+03 7.337828063964843750e+01 -1.907569122314453125e+01 -8.944875001907348633e-01 1.302849674224853516e+01 3.640202760696411133e+00 2.100998163223266602e+00
3.206000000000000000e+03 7.048541545867919922e+00 -2.590970611572265625e+01 -8.836292475461959839e-02 4.560565352439880371e-01 1.103080883622169495e-01 5.624605417251586914e-01
3.207000000000000000e+03 2.312349700927734375e+01 -6.089118480682373047e+00 -5.935261771082878113e-02 4.795517325401306152e-01 1.260597407817840576e-01 1.357992053031921387e+00
3.208000000000000000e+03 7.526551818847656250e+01 -1.919393730163574219e+01 -5.778865218162536621e-01 1.339441490173339844e+01 3.844958543777465820e+00 -1.649014711380004883e+00
3.209000000000000000e+03 7.507156372070312500e+01 -1.085458374023437500e+01 -1.835249900817871094e+00 1.072581672668457031e+01 2.667170047760009766e+00 -1.309558600187301636e-01
3.210000000000000000e+03 7.542129516601562500e+01 -1.276322460174560547e+01 -1.385232329368591309e+00 1.267789649963378906e+01 3.387799263000488281e+00 1.178331017494201660e+00
3.211000000000000000e+03 7.297306823730468750e+01 -1.952629280090332031e+01 -7.969067096710205078e-01 1.067515087127685547e+01 2.963473320007324219e+00 2.416538953781127930e+00
3.212000000000000000e+03 7.323308563232421875e+01 -1.932483863830566406e+01 -9.264789819717407227e-01 1.201261329650878906e+01 3.325840234756469727e+00 2.116302728652954102e+00
3.213000000000000000e+03 7.305494689941406250e+01 -1.909381103515625000e+01 -4.948621690273284912e-01 1.163149642944335938e+01 3.340990304946899414e+00 2.853876829147338867e+00
3.214000000000000000e+03 1.377829551696777344e+01 -2.994794273376464844e+01 -4.508891105651855469e-01 1.100023508071899414e+00 1.947403401136398315e-01 -9.459067136049270630e-03
3.215000000000000000e+03 3.888258361816406250e+01 1.908763313293457031e+01 1.731427013874053955e-01 6.240929126739501953e+00 1.924221634864807129e+00 9.876633286476135254e-01
3.216000000000000000e+03 5.378553390502929688e+01 2.749134445190429688e+01 5.033419132232666016e-01 1.373309373855590820e+00 5.629953742027282715e-01 1.835990697145462036e-01
3.217000000000000000e+03 4.938125610351562500e+01 2.541018295288085938e+01 1.361226439476013184e-01 1.699069499969482422e+00 5.505576729774475098e-01 1.127246618270874023e+00
3.218000000000000000e+03 7.218379211425781250e+01 1.706540489196777344e+01 4.672739505767822266e-01 5.783849716186523438e+00 1.875337123870849609e+00 -3.828344866633415222e-02
3.219000000000000000e+03 7.551795959472656250e+01 -2.931627845764160156e+01 -3.260831236839294434e-01 8.763743400573730469e+00 2.531298160552978516e+00 3.508773744106292725e-01
3.220000000000000000e+03 5.179697036743164062e+00 -2.416151618957519531e+01 4.853816702961921692e-02 -8.039981871843338013e-02 -9.558496065437793732e-03 5.477351546287536621e-01
3.221000000000000000e+03 7.185244750976562500e+01 -1.279241657257080078e+01 -9.040146470069885254e-01 7.179888725280761719e+00 1.882762193679809570e+00 -2.981714010238647461e+00
3.222000000000000000e+03 7.182733917236328125e+01 -1.340070152282714844e+01 -4.020872116088867188e-01 6.669671535491943359e+00 1.880275249481201172e+00 -3.328883886337280273e+00
3.223000000000000000e+03 6.888594055175781250e+01 -2.760843276977539062e+01 -7.308526635169982910e-01 3.451534509658813477e+00 8.162045478820800781e-01 5.320945978164672852e-01
3.224000000000000000e+03 7.558308410644531250e+01 -1.326994705200195312e+01 -8.221158385276794434e-01 1.296739673614501953e+01 3.643584251403808594e+00 1.641672253608703613e+00
3.225000000000000000e+03 6.527721405029296875e+00 -1.074941635131835938e+01 2.879260480403900146e-01 -7.263990491628646851e-02 6.458584219217300415e-02 -5.398429036140441895e-01
3.226000000000000000e+03 1.581053256988525391e+01 -6.709612369537353516e+00 -6.888300180435180664e-03 9.545444250106811523e-01 2.842968404293060303e-01 5.102378129959106445e-01
3.227000000000000000e+03 7.069728088378906250e+01 -1.203502464294433594e+01 -1.297263264656066895e+00 4.837308883666992188e+00 1.062013626098632812e+00 -2.417911052703857422e+00
3.228000000000000000e+03 7.151499176025390625e+01 -1.184679031372070312e+01 -1.501941323280334473e+00 6.597022533416748047e+00 1.528524398803710938e+00 -2.705985784530639648e+00
3.229000000000000000e+03 6.775555419921875000e+01 -6.437896251678466797e+00 -4.885957539081573486e-01 2.778367280960083008e+00 6.869314312934875488e-01 -1.879086017608642578e+00
3.230000000000000000e+03 1.551093578338623047e+01 -7.788422584533691406e+00 1.746206730604171753e-01 1.208288311958312988e+00 4.148727059364318848e-01 5.001608729362487793e-01
3.231000000000000000e+03 6.795949554443359375e+01 -2.873909950256347656e+01 -7.303085327148437500e-01 2.694522142410278320e+00 5.892640948295593262e-01 5.375941395759582520e-01
3.232000000000000000e+03 7.047514343261718750e+01 -2.829763412475585938e+01 -6.389153003692626953e-01 5.004909992218017578e+00 1.309798359870910645e+00 7.177355885505676270e-01
3.233000000000000000e+03 8.151641845703125000e+00 -9.371668815612792969e+00 2.405116260051727295e-01 2.697505354881286621e-01 1.530786454677581787e-01 -5.688038468360900879e-01
3.234000000000000000e+03 7.409559631347656250e+01 -1.174078941345214844e+01 -2.187973976135253906e+00 1.129371547698974609e+01 2.731722354888916016e+00 -9.659380912780761719e-01
3.235000000000000000e+03 7.284475708007812500e+01 -1.205948448181152344e+01 -1.783895254135131836e+00 9.595491409301757812e+00 2.343478679656982422e+00 -2.390089273452758789e+00
3.236000000000000000e+03 5.060623645782470703e+00 9.505690574645996094e+00 2.589584095403552055e-03 -1.296407426707446575e-03 3.879530122503638268e-04 -2.701545367017388344e-03
3.237000000000000000e+03 6.696224212646484375e+01 -3.369648694992065430e+00 4.101972281932830811e-01 2.965524911880493164e+00 1.012716650962829590e+00 -1.264612436294555664e+00
3.238000000000000000e+03 6.745464324951171875e+01 -2.782002687454223633e+00 4.811472594738006592e-01 3.501493692398071289e+00 1.194792270660400391e+00 -1.387003779411315918e+00
3.239000000000000000e+03 7.173587799072265625e+01 -2.675919151306152344e+01 -7.392228841781616211e-01 6.188404560089111328e+00 1.634754538536071777e+00 6.608104109764099121e-01
3.240000000000000000e+03 7.270358276367187500e+01 -1.143663311004638672e+01 -1.880316376686096191e+00 8.907942771911621094e+00 2.108288049697875977e+00 -2.249574899673461914e+00
3.241000000000000000e+03 1.599383354187011719e+01 -7.390577793121337891e+00 9.079588204622268677e-02 1.137011766433715820e+00 3.683422803878784180e-01 5.551434755325317383e-01
3.242000000000000000e+03 7.226643371582031250e+01 8.942744255065917969e+00 5.005397200584411621e-01 5.905328750610351562e+00 1.921760439872741699e+00 -8.140016198158264160e-01
3.243000000000000000e+03 7.206092071533203125e+01 -1.112265777587890625e+01 -1.871053814888000488e+00 7.675063610076904297e+00 1.741202831268310547e+00 -2.409566879272460938e+00
3.244000000000000000e+03 7.178070831298828125e+01 -1.149334526062011719e+01 -1.544585347175598145e+00 7.090594291687011719e+00 1.663802623748779297e+00 -2.597471714019775391e+00
3.245000000000000000e+03 7.126399230957031250e+01 -1.006773281097412109e+01 -1.636541008949279785e+00 6.177926063537597656e+00 1.362415552139282227e+00 -2.459907293319702148e+00
3.246000000000000000e+03 6.931660461425781250e+01 -9.104509353637695312e-01 4.771844148635864258e-01 4.693667888641357422e+00 1.551255702972412109e+00 -1.483370661735534668e+00
3.247000000000000000e+03 7.334326171875000000e+01 -1.150535106658935547e+01 -2.021245479583740234e+00 1.006333541870117188e+01 2.412626981735229492e+00 -1.771579623222351074e+00
3.248000000000000000e+03 6.062901020050048828e+00 1.057694911956787109e+01 -1.205039909109473228e-03 8.622145978733897209e-04 -1.028475817292928696e-04 -2.453964902088046074e-03
3.249000000000000000e+03 5.649974822998046875e+00 1.763557243347167969e+01 -1.886467449367046356e-02 -8.026002906262874603e-03 -8.067202754318714142e-03 1.761305332183837891e-02
3.250000000000000000e+03 7.231989288330078125e+01 -1.066061782836914062e+01 -1.811244726181030273e+00 8.005161285400390625e+00 1.858174920082092285e+00 -2.266236305236816406e+00
3.251000000000000000e+03 6.964520263671875000e+01 -1.722406148910522461e+00 3.320535123348236084e-01 4.777265071868896484e+00 1.532795548439025879e+00 -1.603650212287902832e+00
3.252000000000000000e+03 6.859963226318359375e+01 -1.550830554962158203e+01 -1.248652935028076172e+00 -3.490016162395477295e-01 -4.792963564395904541e-01 1.132438421249389648e+00
3.253000000000000000e+03 6.979656982421875000e+01 -1.633861351013183594e+01 -2.183197498321533203e+00 8.181327581405639648e-02 -6.304152607917785645e-01 -2.934909984469413757e-02
3.254000000000000000e+03 6.992961883544921875e+01 -1.608633613586425781e+01 -2.011624813079833984e+00 1.593419313430786133e-01 -5.556849241256713867e-01 3.457803726196289062e-01
3.255000000000000000e+03 6.997789764404296875e+01 -1.568222808837890625e+01 -1.489201545715332031e+00 2.237343192100524902e-01 -3.796401619911193848e-01 5.573289990425109863e-01
3.256000000000000000e+03 6.962798309326171875e+01 -1.550361156463623047e+01 -1.336948275566101074e+00 3.865690529346466064e-01 -2.851137518882751465e-01 7.007628679275512695e-01
3.257000000000000000e+03 6.992332458496093750e+01 -1.527147865295410156e+01 -9.879363179206848145e-01 3.867835998535156250e-01 -1.803458184003829956e-01 5.716377496719360352e-01
3.258000000000000000e+03 6.981869506835937500e+01 -1.508018207550048828e+01 -9.589626193046569824e-01 4.625486433506011963e-01 -1.489242017269134521e-01 6.462681293487548828e-01
3.259000000000000000e+03 6.912548065185546875e+01 -1.530657863616943359e+01 -1.241448879241943359e+00 2.897134423255920410e-01 -2.855206429958343506e-01 8.562344312667846680e-01
3.260000000000000000e+03 6.995206451416015625e+01 -1.547343349456787109e+01 -1.116456508636474609e+00 2.911812961101531982e-01 -2.475825846195220947e-01 6.956947445869445801e-01
3.261000000000000000e+03 6.957001495361328125e+01 -1.526288604736328125e+01 -1.002885818481445312e+00 3.842160701751708984e-01 -1.856009215116500854e-01 7.487022280693054199e-01
3.262000000000000000e+03 6.999494171142578125e+01 -1.588282585144042969e+01 -1.759729266166687012e+00 1.940955519676208496e-01 -4.696901142597198486e-01 6.378687620162963867e-01
3.263000000000000000e+03 6.817628479003906250e+01 -1.582593536376953125e+01 -8.557407557964324951e-02 -3.849611878395080566e-01 -1.411605775356292725e-01 4.488157033920288086e-01
3.264000000000000000e+03 6.916345214843750000e+01 -1.590627288818359375e+01 -1.056876420974731445e+00 1.306883990764617920e-02 -3.131422698497772217e-01 7.832027077674865723e-01
3.265000000000000000e+03 6.892546844482421875e+01 -1.636962509155273438e+01 -7.052701115608215332e-01 -3.986740950495004654e-03 -2.127770632505416870e-01 8.909081667661666870e-02
3.266000000000000000e+03 6.965483856201171875e+01 -1.571009445190429688e+01 -1.283121705055236816e+00 2.042505890130996704e-01 -3.236613571643829346e-01 8.603586554527282715e-01
3.267000000000000000e+03 6.965055084228515625e+01 -1.594917678833007812e+01 -1.497351646423339844e+00 1.230788007378578186e-01 -4.122818708419799805e-01 4.832027554512023926e-01
3.268000000000000000e+03 6.935651397705078125e+01 -1.561762905120849609e+01 -1.485239982604980469e+00 1.760484725236892700e-01 -3.927574753761291504e-01 9.694914817810058594e-01
3.269000000000000000e+03 1.639982223510742188e+01 -2.317397296428680420e-01 -1.612822532653808594e+00 -1.416634954512119293e-02 -4.880966544151306152e-01 -4.396780952811241150e-02
3.270000000000000000e+03 1.798723983764648438e+01 -8.314419388771057129e-01 -9.681638479232788086e-01 8.101069927215576172e-02 -2.661459445953369141e-01 2.194064557552337646e-01
3.271000000000000000e+03 1.645354080200195312e+01 -9.699125885963439941e-01 -1.268910646438598633e+00 4.634398594498634338e-02 -3.667699992656707764e-01 1.343005001544952393e-01
3.272000000000000000e+03 1.875374794006347656e+01 -7.599936723709106445e-01 -7.630103230476379395e-01 7.173347473144531250e-02 -2.073830515146255493e-01 2.735833525657653809e-01
3.273000000000000000e+03 1.790756225585937500e+01 -9.563824534416198730e-02 -1.189736723899841309e+00 4.232825594954192638e-04 -3.567940294742584229e-01 -7.704874733462929726e-04
3.274000000000000000e+03 1.866109085083007812e+01 -2.537456899881362915e-02 -9.629638195037841797e-01 2.902541309595108032e-02 -2.801815271377563477e-01 2.287458255887031555e-02
3.275000000000000000e+03 1.715376663208007812e+01 -1.644264459609985352e-01 -1.401259064674377441e+00 2.367846295237541199e-02 -4.132741689682006836e-01 -3.090939298272132874e-02
3.276000000000000000e+03 1.722046470642089844e+01 -9.014146924018859863e-01 -1.145341277122497559e+00 5.512771010398864746e-02 -3.270640671253204346e-01 1.767476946115493774e-01
3.277000000000000000e+03 1.941230964660644531e+01 7.625918835401535034e-02 -6.782929301261901855e-01 1.667711301706731319e-03 -2.029875665903091431e-01 4.746954515576362610e-02
3.278000000000000000e+03 2.090952491760253906e+01 3.449267148971557617e-01 -8.996759355068206787e-02 1.712870225310325623e-02 -2.185166627168655396e-02 1.234849020838737488e-01
3.279000000000000000e+03 1.952174568176269531e+01 -6.559218764305114746e-01 -5.537107586860656738e-01 1.089779883623123169e-01 -1.334198415279388428e-01 3.247174918651580811e-01
3.280000000000000000e+03 2.106011390686035156e+01 -3.798714280128479004e-01 -9.765513241291046143e-02 1.290829479694366455e-01 9.428345598280429840e-03 3.641738295555114746e-01
3.281000000000000000e+03 2.183077621459960938e+01 -2.417316585779190063e-01 1.152641475200653076e-01 1.137771159410476685e-01 6.871237605810165405e-02 3.745489716529846191e-01
3.282000000000000000e+03 2.165959548950195312e+01 4.794237911701202393e-01 1.754455119371414185e-01 8.716861158609390259e-02 7.878423482179641724e-02 1.600314825773239136e-01
3.283000000000000000e+03 2.016033744812011719e+01 2.105962187051773071e-01 -3.660252392292022705e-01 5.843581631779670715e-02 -9.227682650089263916e-02 7.519914209842681885e-02
3.284000000000000000e+03 2.029035186767578125e+01 -5.178933739662170410e-01 -3.394955992698669434e-01 1.036875545978546143e-01 -7.074241340160369873e-02 3.436439037322998047e-01
3.285000000000000000e+03 2.487032127380371094e+01 1.181118011474609375e+00 3.417007029056549072e-01 -1.218438521027565002e-01 6.595705449581146240e-02 -2.100409381091594696e-02
3.286000000000000000e+03 2.407070922851562500e+01 1.205850601196289062e+00 4.619622826576232910e-01 1.210608053952455521e-02 1.422205120325088501e-01 1.359009593725204468e-01
3.287000000000000000e+03 2.608052253723144531e+01 1.172411799430847168e+00 4.350574016571044922e-01 2.347282692790031433e-02 1.375590711832046509e-01 -2.000543475151062012e-01
3.288000000000000000e+03 2.532574653625488281e+01 1.649281024932861328e+00 3.063325881958007812e-01 3.473593620583415031e-03 9.294185787439346313e-02 -3.153968974947929382e-02
3.289000000000000000e+03 2.337576103210449219e+01 2.122173905372619629e-01 5.076583623886108398e-01 9.314395487308502197e-03 1.550918221473693848e-01 2.805602848529815674e-01
3.290000000000000000e+03 2.244518852233886719e+01 6.874994635581970215e-01 3.792253732681274414e-01 4.085733368992805481e-02 1.260248124599456787e-01 2.002982348203659058e-01
3.291000000000000000e+03 2.260292434692382812e+01 -4.084869846701622009e-02 3.227343857288360596e-01 8.069708943367004395e-02 1.210294440388679504e-01 3.318697512149810791e-01
3.292000000000000000e+03 2.485904884338378906e+01 6.037077903747558594e-01 9.381582140922546387e-01 -2.403762191534042358e-01 2.093345969915390015e-01 1.655540317296981812e-01
3.293000000000000000e+03 2.413345909118652344e+01 4.415436685085296631e-01 6.347967386245727539e-01 -7.564204186201095581e-02 1.677464097738265991e-01 1.493832021951675415e-01
3.294000000000000000e+03 2.326551818847656250e+01 9.585449695587158203e-01 4.785525202751159668e-01 5.771071836352348328e-02 1.608789712190628052e-01 1.669031232595443726e-01
3.295000000000000000e+03 2.548499107360839844e+01 8.103089928627014160e-01 8.957012295722961426e-01 -7.565489411354064941e-02 2.460138946771621704e-01 -4.617027938365936279e-02
3.296000000000000000e+03 2.289602470397949219e+01 2.428752899169921875e+00 2.167187631130218506e-04 4.701832367572933435e-04 2.060706028714776039e-04 1.389800891047343612e-04
3.297000000000000000e+03 2.207656478881835938e+01 2.160299539566040039e+00 -1.624607102712616324e-04 -4.836459993384778500e-04 -1.938320056069642305e-04 6.670560833299532533e-05
3.298000000000000000e+03 2.309196090698242188e+01 1.710520744323730469e+00 -1.509030698798596859e-04 -2.265949442517012358e-04 -1.132494071498513222e-04 2.717011193453799933e-05
3.299000000000000000e+03 2.226285171508789062e+01 1.441366434097290039e+00 7.500538049498572946e-05 3.183575754519551992e-04 1.180088875116780400e-04 -2.874843812605831772e-05
3.300000000000000000e+03 2.365754890441894531e+01 2.680384397506713867e+00 -4.232361097820103168e-04 -1.390359830111265182e-04 -1.686816249275580049e-04 -2.277911116834729910e-04
3.301000000000000000e+03 2.446170997619628906e+01 2.351509332656860352e+00 -3.826859392574988306e-05 -1.131192620960064232e-04 -4.541635644272901118e-05 3.479888982838019729e-05
3.302000000000000000e+03 2.386312484741210938e+01 1.962898492813110352e+00 1.672145444899797440e-04 1.752222015056759119e-04 1.027310281642712653e-04 -1.029935519909486175e-04
3.303000000000000000e+03 2.075237083435058594e+01 1.106616377830505371e+00 1.133559126174077392e-04 4.864676157012581825e-04 1.799470628611743450e-04 -9.955768473446369171e-05
3.304000000000000000e+03 2.060178184509277344e+01 1.831414580345153809e+00 -3.302902914583683014e-04 -4.640035622287541628e-04 -2.382881502853706479e-04 4.599303792929276824e-05
3.305000000000000000e+03 2.130817413330078125e+01 1.960395336151123047e+00 3.048229264095425606e-04 4.547180433291941881e-04 2.278622996527701616e-04 -1.342863542959094048e-04
3.306000000000000000e+03 1.918785858154296875e+01 1.579434752464294434e+00 -2.676606818567961454e-04 -6.060920422896742821e-04 -2.621258317958563566e-04 2.770469836832489818e-05
3.307000000000000000e+03 1.989505195617675781e+01 1.704050064086914062e+00 3.135939477942883968e-04 5.575749091804027557e-04 2.613506512716412544e-04 -2.014274468820076436e-05
3.308000000000000000e+03 1.929729461669921875e+01 8.472537398338317871e-01 8.577504195272922516e-05 6.110449321568012238e-04 2.090459893224760890e-04 -6.357535312417894602e-05
3.309000000000000000e+03 2.147934150695800781e+01 1.239288687705993652e+00 -9.369556210003793240e-05 -4.523048701230436563e-04 -1.638001267565414310e-04 8.615687693236395717e-05
3.310000000000000000e+03 2.002506446838378906e+01 9.755603671073913574e-01 -1.325949269812554121e-04 -5.375223699957132339e-04 -2.010351890930905938e-04 6.731670873705297709e-05
3.311000000000000000e+03 1.701650238037109375e+01 1.350294589996337891e+00 3.910905215889215469e-04 7.484777015633881092e-04 3.418704727664589882e-04 6.245214990485692397e-06
3.312000000000000000e+03 1.708320045471191406e+01 6.133062839508056641e-01 -3.502636536723002791e-05 -6.779934628866612911e-04 -2.139059506589546800e-04 1.208059547934681177e-04
3.313000000000000000e+03 1.634315681457519531e+01 5.465459823608398438e-01 2.541538560763001442e-04 6.876330589875578880e-04 2.825360861606895924e-04 -1.540878656669519842e-05
3.314000000000000000e+03 1.782329559326171875e+01 6.808430552482604980e-01 1.142675973824225366e-04 7.019394543021917343e-04 2.448621089570224285e-04 -5.814680116600356996e-05
3.315000000000000000e+03 1.847070503234863281e+01 1.483781576156616211e+00 2.959243720397353172e-04 6.762575940228998661e-04 2.916545781772583723e-04 -1.780360253178514540e-05
3.316000000000000000e+03 1.856336212158203125e+01 7.491624951362609863e-01 -1.067682824213989079e-04 -6.563294446095824242e-04 -2.289293188368901610e-04 7.695008389418944716e-05
3.317000000000000000e+03 1.628943824768066406e+01 1.284718871116638184e+00 -1.181883635581471026e-04 -6.378609687089920044e-04 -2.268148091388866305e-04 2.760558272711932659e-04
3.318000000000000000e+03 1.774361801147460938e+01 1.416646718978881836e+00 -2.024339046329259872e-04 -6.296955980360507965e-04 -2.496388624422252178e-04 1.420643966412171721e-04
3.319000000000000000e+03 1.408120155334472656e+01 1.187072157859802246e+00 8.788576233200728893e-04 6.247574347071349621e-04 4.510845174081623554e-04 1.054182284860871732e-04
3.320000000000000000e+03 1.410851097106933594e+01 4.475762248039245605e-01 5.032006883993744850e-04 -4.660168197005987167e-04 1.115515715355286375e-05 2.029698371188715100e-04
3.321000000000000000e+03 1.336430931091308594e+01 4.183164834976196289e-01 9.212608565576374531e-04 3.897476417478173971e-04 3.933025582227855921e-04 5.670842438121326268e-05
3.322000000000000000e+03 1.485382461547851562e+01 4.748390913009643555e-01 5.239713354967534542e-04 5.786474794149398804e-04 3.307856386527419090e-04 1.850414810178335756e-05
3.323000000000000000e+03 1.555697250366210938e+01 1.239178419113159180e+00 5.707167438231408596e-04 7.301541627384722233e-04 3.902612661477178335e-04 6.292806938290596008e-05
3.324000000000000000e+03 1.560021686553955078e+01 5.002670884132385254e-01 1.660079869907349348e-04 -6.179963238537311554e-04 -1.355964923277497292e-04 1.582145923748612404e-04
3.325000000000000000e+03 1.334496879577636719e+01 1.158104777336120605e+00 3.970738907810300589e-04 -5.008429870940744877e-04 -3.113073398708365858e-05 5.043162382207810879e-04
3.326000000000000000e+03 1.481854820251464844e+01 1.214042663574218750e+00 1.285826583625748754e-04 -5.833756295032799244e-04 -1.364378986181691289e-04 4.365912172943353653e-04
3.327000000000000000e+03 1.111325168609619141e+01 1.138490676879882812e+00 1.624440657906234264e-03 3.338973328936845064e-04 5.875013885088264942e-04 2.099003904731944203e-04
3.328000000000000000e+03 1.186833381652832031e+01 4.020517766475677490e-01 1.375673688016831875e-03 2.480875991750508547e-04 4.871283890679478645e-04 7.475293386960402131e-05
3.329000000000000000e+03 1.037295722961425781e+01 3.924405574798583984e-01 1.755677629262208939e-03 2.309780829818919301e-04 5.959966802038252354e-04 7.605752034578472376e-05
3.330000000000000000e+03 1.260390949249267578e+01 1.143149375915527344e+00 1.272996072657406330e-03 4.458427429199218750e-04 5.156516563147306442e-04 1.654106017667800188e-04
3.331000000000000000e+03 1.261756992340087891e+01 4.032067656517028809e-01 9.152372949756681919e-04 -3.098875749856233597e-04 1.816049189073964953e-04 1.817427983041852713e-04
3.332000000000000000e+03 1.036947441101074219e+01 1.132432341575622559e+00 1.047868630848824978e-03 -4.171562031842768192e-04 1.892137224785983562e-04 2.483833523001521826e-04
3.333000000000000000e+03 1.185806560516357422e+01 1.142010807991027832e+00 7.250346243381500244e-04 -4.219680558890104294e-04 9.091997344512492418e-05 4.290624638088047504e-04
3.334000000000000000e+03 1.112012767791748047e+01 3.985152244567871094e-01 1.352846040390431881e-03 -2.395706251263618469e-04 3.339826071169227362e-04 1.244805316673591733e-04
3.335000000000000000e+03 8.771651268005371094e+00 3.881228864192962646e-01 1.950159319676458836e-03 2.303442306583747268e-04 6.541510811075568199e-04 1.013968926599773113e-06
3.336000000000000000e+03 8.818146705627441406e+00 1.128122925758361816e+00 1.256314571946859360e-03 -4.047664406243711710e-04 2.554644306655973196e-04 9.939315350493416190e-05
3.337000000000000000e+03 7.953170776367187500e+00 3.921383917331695557e-01 1.733877928927540779e-03 -2.320150233572348952e-04 4.505588731262832880e-04 5.909284794824998244e-08
3.338000000000000000e+03 6.319846630096435547e+00 3.892590403556823730e-01 1.452671829611063004e-03 -6.697168282698839903e-05 4.157100338488817215e-04 -3.155561353196389973e-05
3.339000000000000000e+03 5.502897262573242188e+00 3.910058438777923584e-01 1.384661183692514896e-03 -5.100342968944460154e-05 4.000973131041973829e-04 -2.020897663896903396e-04
3.340000000000000000e+03 4.685476779937744141e+00 3.909447193145751953e-01 9.039494907483458519e-04 1.090340228984132409e-04 3.038950671907514334e-04 -5.823012543260119855e-05
3.341000000000000000e+03 3.050973415374755859e+00 3.907458484172821045e-01 2.617056888993829489e-04 1.198880199808627367e-04 1.144781126640737057e-04 -9.634772868594154716e-05
3.342000000000000000e+03 2.234469175338745117e+00 3.876248300075531006e-01 3.252225578762590885e-04 -1.634667023608926684e-05 9.266276174457743764e-05 -7.255181117216125131e-05
3.343000000000000000e+03 2.538473606109619141e+00 1.127624869346618652e+00 -1.415540755260735750e-04 9.484998736297711730e-05 -1.401122699462575838e-05 -3.458185528870671988e-04
3.344000000000000000e+03 1.768125653266906738e+00 1.127171397209167480e+00 5.243758205324411392e-04 2.071988710667937994e-04 2.194723929278552532e-04 -8.556015382055193186e-05
3.345000000000000000e+03 1.067988038063049316e+00 1.148616075515747070e+00 4.654958684113807976e-05 -2.213140833191573620e-04 -5.242935003479942679e-05 3.081790782744064927e-05
3.346000000000000000e+03 6.996063590049743652e-01 4.086160361766815186e-01 -6.370236224029213190e-05 -4.890226045972667634e-05 -3.378138717380352318e-05 -1.558769872644916177e-04
3.347000000000000000e+03 3.732481598854064941e-01 9.636608362197875977e-01 3.720917447935789824e-04 1.842691854108124971e-04 1.669082848820835352e-04 -3.874914182233624160e-05
3.348000000000000000e+03 3.322789192199707031e+00 1.130745887756347656e+00 1.006366917863488197e-03 6.808361831645015627e-06 3.039526054635643959e-04 -3.881664015352725983e-04
3.349000000000000000e+03 3.868146419525146484e+00 3.889868557453155518e-01 8.036213694140315056e-04 -1.370932441204786301e-04 1.999584346776828170e-04 -2.046957088168710470e-04
3.350000000000000000e+03 5.678146839141845703e+00 1.131005883216857910e+00 8.915785001590847969e-04 -1.926926197484135628e-04 2.096657553920522332e-04 -1.627378369448706508e-04
3.351000000000000000e+03 7.247090816497802734e+00 1.132560849189758301e+00 1.206314424052834511e-03 -3.456010308582335711e-04 2.582140150479972363e-04 -2.966785177704878151e-05
3.352000000000000000e+03 7.136218547821044922e+00 3.925608992576599121e-01 1.819558907300233841e-03 1.299680297961458564e-04 5.848580622114241123e-04 -1.080989604815840721e-04
3.353000000000000000e+03 8.031854629516601562e+00 1.132138371467590332e+00 1.825299346819519997e-03 2.183945762226358056e-04 6.131081609055399895e-04 -1.552960457047447562e-04
3.354000000000000000e+03 9.590107917785644531e+00 3.879971206188201904e-01 1.669556368142366409e-03 -2.607323112897574902e-04 4.226471937727183104e-04 5.286676241667009890e-05
3.355000000000000000e+03 9.604414939880371094e+00 1.127997159957885742e+00 1.810358371585607529e-03 2.601425221655517817e-04 6.211502477526664734e-04 1.104760085581801832e-04
3.356000000000000000e+03 6.462907791137695312e+00 1.129258990287780762e+00 1.651508151553571224e-03 1.417997118551284075e-04 5.379923386499285698e-04 -4.162029654253274202e-04
3.357000000000000000e+03 4.892915248870849609e+00 1.130944728851318359e+00 1.348683377727866173e-03 4.401712067192420363e-05 4.178101662546396255e-04 -5.041422555223107338e-04
3.358000000000000000e+03 4.107773303985595703e+00 1.128986835479736328e+00 3.861533186864107847e-04 -1.545714076200965792e-05 1.112088502850383520e-04 -3.019517753273248672e-04
3.359000000000000000e+03 1.431932568550109863e+00 3.871713578701019287e-01 -3.462582753854803741e-05 4.736892606160836294e-06 -8.966680070443544537e-06 -3.500368256936781108e-05
3.360000000000000000e+03 1.338494110107421875e+01 -3.624081611633300781e-01 -1.878458142280578613e+00 -1.080280262976884842e-02 -5.667783021926879883e-01 -6.290811300277709961e-02
3.361000000000000000e+03 1.492772197723388672e+01 -1.047161340713500977e+00 -1.467035889625549316e+00 3.718690574169158936e-02 -4.289547204971313477e-01 2.187359519302845001e-02
3.362000000000000000e+03 1.340428161621093750e+01 -1.102196455001831055e+00 -1.509121298789978027e+00 2.161419577896595001e-02 -4.462521076202392578e-01 -5.441803485155105591e-02
3.363000000000000000e+03 1.489244556427001953e+01 -3.079577088356018066e-01 -1.810025453567504883e+00 -2.293387195095419884e-03 -5.436956286430358887e-01 -4.462485760450363159e-02
3.364000000000000000e+03 1.568929195404052734e+01 -1.018365263938903809e+00 -1.377070426940917969e+00 2.262371405959129333e-02 -4.063340127468109131e-01 7.146052271127700806e-02
3.365000000000000000e+03 1.564604759216308594e+01 -2.794539332389831543e-01 -1.752181529998779297e+00 3.497482277452945709e-03 -5.246052145957946777e-01 -4.065662249922752380e-02
3.366000000000000000e+03 1.413872909545898438e+01 -3.356079757213592529e-01 -1.851612806320190430e+00 1.119611877948045731e-02 -5.521250367164611816e-01 -5.872190371155738831e-02
3.367000000000000000e+03 1.416603755950927734e+01 -1.075103878974914551e+00 -1.510653138160705566e+00 2.497733570635318756e-02 -4.457027316093444824e-01 -1.356875896453857422e-02
3.368000000000000000e+03 1.037684440612792969e+01 -3.884835243225097656e-01 -1.538270473480224609e+00 -4.473395645618438721e-03 -4.628231525421142578e-01 -7.181122899055480957e-02
3.369000000000000000e+03 1.189073276519775391e+01 -1.121461629867553711e+00 -1.453539609909057617e+00 2.213736623525619507e-02 -4.294206798076629639e-01 -1.339343339204788208e-01
3.370000000000000000e+03 1.038032817840576172e+01 -1.128475308418273926e+00 -1.289733290672302246e+00 1.622242294251918793e-02 -3.820532560348510742e-01 -1.813374906778335571e-01
3.371000000000000000e+03 1.264584636688232422e+01 -1.117530822753906250e+00 -1.490536689758300781e+00 1.011230424046516418e-02 -4.441273212432861328e-01 -1.002677679061889648e-01
3.372000000000000000e+03 1.188046455383300781e+01 -3.815026283264160156e-01 -1.755753517150878906e+00 -2.077852841466665268e-03 -5.273494124412536621e-01 -5.849533528089523315e-02
3.373000000000000000e+03 1.263218593597412109e+01 -3.775882422924041748e-01 -1.845518589019775391e+00 2.224311232566833496e-03 -5.529882907867431641e-01 -5.781695991754531860e-02
3.374000000000000000e+03 1.112868118286132812e+01 -3.851337432861328125e-01 -1.654422044754028320e+00 8.854694664478302002e-03 -4.936702251434326172e-01 -6.672077625989913940e-02
3.375000000000000000e+03 1.113555717468261719e+01 -1.125109195709228516e+00 -1.381571650505065918e+00 1.497962698340415955e-02 -4.099776148796081543e-01 -1.574364155530929565e-01
3.376000000000000000e+03 9.622406005859375000e+00 -3.850494623184204102e-01 -1.403816699981689453e+00 5.091869737952947617e-03 -4.196174442768096924e-01 -7.355786114931106567e-02
3.377000000000000000e+03 8.866015434265136719e+00 -3.791061341762542725e-01 -1.252113342285156250e+00 -3.600092139095067978e-03 -3.767140507698059082e-01 -7.496838271617889404e-02
3.378000000000000000e+03 8.110340118408203125e+00 -3.782755434513092041e-01 -1.093493342399597168e+00 5.122262053191661835e-03 -3.265113234519958496e-01 -7.785321772098541260e-02
3.379000000000000000e+03 7.354346275329589844e+00 -3.774763345718383789e-01 -9.314241409301757812e-01 -4.241844173520803452e-03 -2.806997895240783691e-01 -7.791205495595932007e-02
3.380000000000000000e+03 6.598577022552490234e+00 -3.773281872272491455e-01 -7.672654986381530762e-01 2.775040455162525177e-03 -2.293471246957778931e-01 -7.794683426618576050e-02
3.381000000000000000e+03 5.843272686004638672e+00 -3.783421814441680908e-01 -6.076459884643554688e-01 -4.882042761892080307e-03 -1.837584078311920166e-01 -7.442312687635421753e-02
3.382000000000000000e+03 5.087837696075439453e+00 -3.782689273357391357e-01 -4.548646807670593262e-01 1.201333579956553876e-04 -1.364233642816543579e-01 -7.095941901206970215e-02
3.383000000000000000e+03 4.332343578338623047e+00 -3.772869408130645752e-01 -3.171115815639495850e-01 -7.339778356254100800e-03 -9.733541309833526611e-02 -6.137063726782798767e-02
3.384000000000000000e+03 3.576737403869628906e+00 -3.757566809654235840e-01 -1.960297375917434692e-01 -1.538318349048495293e-03 -5.927041545510292053e-02 -5.398362874984741211e-02
3.385000000000000000e+03 2.821185827255249023e+00 -3.741005063056945801e-01 -9.913236647844314575e-02 -8.744350634515285492e-03 -3.236301615834236145e-02 -4.044238105416297913e-02
3.386000000000000000e+03 2.067172050476074219e+00 -3.734666705131530762e-01 -3.417572006583213806e-02 -6.555782631039619446e-03 -1.221945136785507202e-02 -2.488749660551548004e-02
3.387000000000000000e+03 1.326888561248779297e+00 -3.787174820899963379e-01 -5.291440058499574661e-03 -7.988091558218002319e-03 -3.983859438449144363e-03 -8.402916602790355682e-03
3.388000000000000000e+03 6.511554718017578125e-01 -4.016090035438537598e-01 -1.522413804195821285e-03 -3.011137479916214943e-03 -1.360065420158207417e-03 4.850752011407166719e-04
3.389000000000000000e+03 9.947552680969238281e-01 -1.141608953475952148e+00 -1.726236008107662201e-02 -3.271273523569107056e-02 -1.499252859503030777e-02 -2.237690053880214691e-02
3.390000000000000000e+03 9.637866020202636719e+00 -1.125049471855163574e+00 -1.189665555953979492e+00 7.193045690655708313e-03 -3.547417521476745605e-01 -1.998946666717529297e-01
3.391000000000000000e+03 8.908821105957031250e+00 -1.119106173515319824e+00 -1.081729173660278320e+00 1.010715495795011520e-02 -3.214866220951080322e-01 -2.108059376478195190e-01
3.392000000000000000e+03 8.180490493774414062e+00 -1.118275523185729980e+00 -9.618996977806091309e-01 2.058635465800762177e-03 -2.879523038864135742e-01 -2.180740386247634888e-01
3.393000000000000000e+03 6.723416805267333984e+00 -1.117328166961669922e+00 -7.123987078666687012e-01 -5.484388209879398346e-03 -2.153649330139160156e-01 -2.207323759794235229e-01
3.394000000000000000e+03 5.995457649230957031e+00 -1.118342161178588867e+00 -5.875953435897827148e-01 -5.747676827013492584e-03 -1.780029088258743286e-01 -2.154476940631866455e-01
3.395000000000000000e+03 5.267367839813232422e+00 -1.118268966674804688e+00 -4.698930978775024414e-01 -1.486918050795793533e-02 -1.454286873340606689e-01 -2.025329768657684326e-01
3.396000000000000000e+03 4.539218425750732422e+00 -1.117286920547485352e+00 -3.577135801315307617e-01 -1.717943511903285980e-02 -1.124678999185562134e-01 -1.851244419813156128e-01
3.397000000000000000e+03 3.810957431793212891e+00 -1.115756630897521973e+00 -2.593809664249420166e-01 -2.500958554446697235e-02 -8.531716465950012207e-02 -1.583896577358245850e-01
3.398000000000000000e+03 3.082750558853149414e+00 -1.114100456237792969e+00 -1.761162579059600830e-01 -2.580250427126884460e-02 -6.057562679052352905e-02 -1.290769428014755249e-01
3.399000000000000000e+03 2.356081962585449219e+00 -1.113466620445251465e+00 -1.039479747414588928e-01 -3.783382475376129150e-02 -4.253454133868217468e-02 -9.334177523851394653e-02
3.400000000000000000e+03 1.643143415451049805e+00 -1.118717432022094727e+00 -4.968170821666717529e-02 -3.835911303758621216e-02 -2.641224674880504608e-02 -5.249765142798423767e-02
3.401000000000000000e+03 7.451840877532958984e+00 -1.117476344108581543e+00 -8.369151949882507324e-01 3.168165683746337891e-03 -2.501240968704223633e-01 -2.217469066381454468e-01
3.402000000000000000e+03 3.483387529850006104e-01 -9.597249627113342285e-01 -8.934109355323016644e-04 -1.920152339152991772e-03 -8.440689998678863049e-04 -2.922367304563522339e-03
3.403000000000000000e+03 7.312705993652343750e+01 -1.628145027160644531e+01 3.512554168701171875e+01 7.027068138122558594e+00 1.264578342437744141e+01 1.321897220611572266e+01
3.404000000000000000e+03 7.313197326660156250e+01 -1.630028915405273438e+01 3.129575920104980469e+01 1.969238662719726562e+01 1.529644393920898438e+01 2.316412925720214844e+01
3.405000000000000000e+03 7.314044952392578125e+01 -1.631781196594238281e+01 2.813282012939453125e+01 3.119604110717773438e+01 1.779865837097167969e+01 2.641820144653320312e+01
3.406000000000000000e+03 7.315218353271484375e+01 -1.633334922790527344e+01 2.370843696594238281e+01 4.284761047363281250e+01 1.996681404113769531e+01 2.688972663879394531e+01
3.407000000000000000e+03 7.316671752929687500e+01 -1.634630393981933594e+01 1.998707580566406250e+01 5.304521560668945312e+01 2.190968704223632812e+01 2.453976631164550781e+01
3.408000000000000000e+03 7.318349456787109375e+01 -1.635618400573730469e+01 1.671575164794921875e+01 6.143875885009765625e+01 2.344635200500488281e+01 1.988850975036621094e+01
3.409000000000000000e+03 7.320186614990234375e+01 -1.636260604858398438e+01 1.515307807922363281e+01 6.709686279296875000e+01 2.467498397827148438e+01 1.376816749572753906e+01
3.410000000000000000e+03 7.322114562988281250e+01 -1.636532974243164062e+01 1.526784515380859375e+01 6.973627471923828125e+01 2.550123596191406250e+01 6.922942161560058594e+00
3.411000000000000000e+03 7.324058532714843750e+01 -1.636424636840820312e+01 1.741588783264160156e+01 6.949196624755859375e+01 2.607235717773437500e+01 4.923439919948577881e-01
3.412000000000000000e+03 7.325943756103515625e+01 -1.635940170288085938e+01 2.102192687988281250e+01 6.673212432861328125e+01 2.632621574401855469e+01 -4.809068679809570312e+00
3.413000000000000000e+03 7.327699279785156250e+01 -1.635097694396972656e+01 2.562778663635253906e+01 6.238134002685546875e+01 2.640273857116699219e+01 -8.285140991210937500e+00
3.414000000000000000e+03 7.329256439208984375e+01 -1.633929634094238281e+01 3.054509925842285156e+01 5.726575851440429688e+01 2.634325599670410156e+01 -9.768106460571289062e+00
3.415000000000000000e+03 7.330557250976562500e+01 -1.632480812072753906e+01 3.502200317382812500e+01 5.224858856201171875e+01 2.618117713928222656e+01 -9.351420402526855469e+00
3.416000000000000000e+03 7.331550598144531250e+01 -1.630806541442871094e+01 3.868387222290039062e+01 4.812807846069335938e+01 2.604358482360839844e+01 -7.325229167938232422e+00
3.417000000000000000e+03 7.332199096679687500e+01 -1.628970909118652344e+01 4.111900711059570312e+01 4.523765945434570312e+01 2.590699958801269531e+01 -4.166443824768066406e+00
3.418000000000000000e+03 7.332477569580078125e+01 -1.627044105529785156e+01 4.216780090332031250e+01 4.394966125488281250e+01 2.583523750305175781e+01 -3.701158165931701660e-01
3.419000000000000000e+03 7.332376098632812500e+01 -1.625099945068359375e+01 4.175231552124023438e+01 4.437653350830078125e+01 2.583865547180175781e+01 3.586388587951660156e+00
3.420000000000000000e+03 7.331897735595703125e+01 -1.623212623596191406e+01 3.983508300781250000e+01 4.643197250366210938e+01 2.588011741638183594e+01 7.187038421630859375e+00
3.421000000000000000e+03 7.331060791015625000e+01 -1.621454811096191406e+01 3.653998947143554688e+01 5.000978851318359375e+01 2.596493339538574219e+01 9.903906822204589844e+00
3.422000000000000000e+03 7.329898071289062500e+01 -1.619893455505371094e+01 3.207073211669921875e+01 5.462790679931640625e+01 2.600959205627441406e+01 1.123354434967041016e+01
3.423000000000000000e+03 7.328453063964843750e+01 -1.618588256835937500e+01 2.688247871398925781e+01 5.973229980468750000e+01 2.598443222045898438e+01 1.073817062377929688e+01
3.424000000000000000e+03 7.326782226562500000e+01 -1.617589187622070312e+01 2.157758331298828125e+01 6.439048004150390625e+01 2.579041862487792969e+01 8.236935615539550781e+00
3.425000000000000000e+03 7.324948883056640625e+01 -1.616934776306152344e+01 1.695204544067382812e+01 6.785318756103515625e+01 2.544157028198242188e+01 3.737829685211181641e+00
3.426000000000000000e+03 7.323023223876953125e+01 -1.616649627685546875e+01 1.335812473297119141e+01 6.900914764404296875e+01 2.471018028259277344e+01 -2.162123918533325195e+00
3.427000000000000000e+03 7.321078491210937500e+01 -1.616744995117187500e+01 1.175978088378906250e+01 6.755445861816406250e+01 2.379427146911621094e+01 -8.798912048339843750e+00
3.428000000000000000e+03 7.319189453125000000e+01 -1.617217063903808594e+01 1.164574050903320312e+01 6.301137924194335938e+01 2.239713668823242188e+01 -1.524093627929687500e+01
3.429000000000000000e+03 7.317429351806640625e+01 -1.618047904968261719e+01 1.326865768432617188e+01 5.591928482055664062e+01 2.075638198852539062e+01 -2.047896957397460938e+01
3.430000000000000000e+03 7.315863800048828125e+01 -1.619205665588378906e+01 1.568028736114501953e+01 4.653491973876953125e+01 1.866456222534179688e+01 -2.396275901794433594e+01
3.431000000000000000e+03 7.314553833007812500e+01 -1.620645904541015625e+01 1.837876510620117188e+01 3.620267868041992188e+01 1.637443351745605469e+01 -2.510702133178710938e+01
3.432000000000000000e+03 7.313549804687500000e+01 -1.622313499450683594e+01 2.103970336914062500e+01 2.503597068786621094e+01 1.382270240783691406e+01 -2.367766761779785156e+01
3.433000000000000000e+03 7.312889099121093750e+01 -1.624144935607910156e+01 2.230144309997558594e+01 1.456911659240722656e+01 1.106116771697998047e+01 -1.993202018737792969e+01
3.434000000000000000e+03 7.312597656250000000e+01 -1.626069831848144531e+01 2.360546302795410156e+01 4.774858474731445312e+00 8.514096260070800781e+00 -9.510990142822265625e+00
