# el_label, x, y, sXX, sYY, sZZ, sXY
1.000000000000000000e+00 7.138031005859375000e+01 -1.674990081787109375e+01 2.992900786921381950e-03 -5.181500091566704214e-05 8.823256939649581909e-04 5.489317700266838074e-04
2.000000000000000000e+00 7.211955261230468750e+01 -1.671120262145996094e+01 3.572183195501565933e-03 -5.434758350020274520e-05 1.055350643582642078e-03 3.888576757162809372e-04
3.000000000000000000e+00 7.071197509765625000e+01 -1.752739334106445312e+01 1.676855492405593395e-03 -2.356121403863653541e-04 4.323729954194277525e-04 1.384074101224541664e-03
4.000000000000000000e+00 7.287363433837890625e+01 -1.741421890258789062e+01 2.507758326828479767e-03 -3.157989704050123692e-04 6.575877778232097626e-04 2.839316730387508869e-04
5.000000000000000000e+00 7.215311431884765625e+01 -1.745045852661132812e+01 2.313114935532212257e-03 -4.166542494203895330e-04 5.689382087439298630e-04 6.647293921560049057e-04
6.000000000000000000e+00 7.143251037597656250e+01 -1.748818206787109375e+01 1.954791834577918053e-03 -1.658942783251404762e-04 5.366692203097045422e-04 9.953962871804833412e-04
7.000000000000000000e+00 7.285870361328125000e+01 -1.667398834228515625e+01 3.811808302998542786e-03 -1.118150830734521151e-04 1.109997974708676338e-03 1.916568726301193237e-04
8.000000000000000000e+00 7.064115142822265625e+01 -1.679008674621582031e+01 2.028043381869792938e-03 4.126219209865666926e-05 6.207916885614395142e-04 6.125072250142693520e-04
9.000000000000000000e+00 7.509190368652343750e+01 -1.672233772277832031e+01 3.623714670538902283e-03 -3.969401223002932966e-05 1.075206208042800426e-03 -3.363892319612205029e-04
1.000000000000000000e+01 7.507875823974609375e+01 -1.746236038208007812e+01 2.341303275898098946e-03 -2.224754571216180921e-04 6.356483208946883678e-04 -5.838013021275401115e-04
1.100000000000000000e+01 7.583750152587890625e+01 -1.675157546997070312e+01 3.152472199872136116e-03 -6.962965812817856204e-07 9.455327526666224003e-04 -4.032419528812170029e-04
1.200000000000000000e+01 7.360292816162109375e+01 -1.740974807739257812e+01 2.678813878446817398e-03 -4.150025488343089819e-04 6.791434134356677532e-04 1.158211398433195427e-05
1.300000000000000000e+01 7.434651947021484375e+01 -1.669533538818359375e+01 3.933696076273918152e-03 -5.431226600194349885e-05 1.163815264590084553e-03 -2.179206494474783540e-04
1.400000000000000000e+01 7.581685638427734375e+01 -1.749131965637207031e+01 1.962062902748584747e-03 -1.116750863729976118e-04 5.551163339987397194e-04 -8.376659825444221497e-04
1.500000000000000000e+01 7.434088134765625000e+01 -1.743563652038574219e+01 2.424561418592929840e-03 -2.472650958225131035e-04 6.531889084726572037e-04 -3.170708951074630022e-04
1.600000000000000000e+01 7.360105895996093750e+01 -1.666916847229003906e+01 3.874436719343066216e-03 -1.083088500308804214e-04 1.129838288761675358e-03 -4.426974192028865218e-05
1.700000000000000000e+01 7.961856079101562500e+01 -1.760054779052734375e+01 1.293426757911220193e-04 3.602521610446274281e-04 1.468784612370654941e-04 -2.260578476125374436e-04
1.800000000000000000e+01 7.810430908203125000e+01 -1.681215476989746094e+01 9.116245200857520103e-04 4.257813634467311203e-05 2.862607943825423717e-04 -3.642164811026304960e-04
1.900000000000000000e+01 7.734732055664062500e+01 -1.679562950134277344e+01 1.679241657257080078e-03 4.182434349786490202e-05 5.163198220543563366e-04 -4.293702950235456228e-04
2.000000000000000000e+01 7.886226654052734375e+01 -1.683067893981933594e+01 3.636241599451750517e-04 1.020124036585912108e-04 1.396909647155553102e-04 -2.277705643791705370e-04
2.100000000000000000e+01 7.885494232177734375e+01 -1.757777404785156250e+01 3.342200652696192265e-04 3.736124781426042318e-04 2.123497688444331288e-04 -6.234602769836783409e-04
2.200000000000000000e+01 7.962100219726562500e+01 -1.685145187377929688e+01 5.374321335693821311e-05 6.642079097218811512e-05 3.604920129873789847e-05 -6.610400305362418294e-05
2.300000000000000000e+01 7.658949279785156250e+01 -1.677681159973144531e+01 2.440885873511433601e-03 -1.086147858586627990e-05 7.290073554031550884e-04 -4.429153050296008587e-04
2.400000000000000000e+01 7.656753540039062500e+01 -1.751748657226562500e+01 1.655872096307575703e-03 -4.873873331234790385e-05 4.821400216314941645e-04 -9.798465762287378311e-04
2.500000000000000000e+01 7.733024597167968750e+01 -1.753844451904296875e+01 1.162308733910322189e-03 7.053164154058322310e-05 3.698521177284419537e-04 -1.031176187098026276e-03
2.600000000000000000e+01 7.809210968017578125e+01 -1.755710792541503906e+01 7.957239868119359016e-04 2.124872989952564240e-04 3.024633915629237890e-04 -9.128444944508373737e-04
2.700000000000000000e+01 7.887693023681640625e+01 -1.532412910461425781e+01 -4.990685731172561646e-03 -5.029061343520879745e-03 -3.005924168974161148e-03 -9.850814240053296089e-04
2.800000000000000000e+01 7.738233947753906250e+01 -1.528156280517578125e+01 -2.928057312965393066e-02 -8.458914235234260559e-03 -1.132184639573097229e-02 -2.022575959563255310e-02
2.900000000000000000e+01 7.663458251953125000e+01 -1.525937652587890625e+01 -4.953660443425178528e-02 -8.073378354310989380e-03 -1.728299446403980255e-02 -3.119460120797157288e-02
3.000000000000000000e+01 7.812899780273437500e+01 -1.530161857604980469e+01 -1.469427347183227539e-02 -9.274897165596485138e-03 -7.190751377493143082e-03 -9.966561570763587952e-03
3.100000000000000000e+01 7.811679840087890625e+01 -1.604657363891601562e+01 1.919610076583921909e-03 -1.479528960771858692e-03 1.320243318332359195e-04 -1.996433595195412636e-03
3.200000000000000000e+01 7.886960601806640625e+01 -1.607122421264648438e+01 2.922924235463142395e-03 -1.229077228344976902e-03 5.081541021354496479e-04 8.435281342826783657e-04
3.300000000000000000e+01 7.661262512207031250e+01 -1.600004959106445312e+01 -2.395680733025074005e-02 -3.979538159910589457e-04 -7.306428160518407822e-03 -9.759351611137390137e-03
3.400000000000000000e+01 7.962351989746093750e+01 -1.609820365905761719e+01 9.927421342581510544e-04 9.718543151393532753e-04 5.893789348192512989e-04 9.597872267477214336e-04
3.500000000000000000e+01 7.962596130371093750e+01 -1.534896755218505859e+01 -9.532352560199797153e-04 2.914347453042864799e-03 5.883336998522281647e-04 1.064434763975441456e-03
3.600000000000000000e+01 7.736525726318359375e+01 -1.602437782287597656e+01 -6.656572688370943069e-03 -2.523292321711778641e-03 -2.753959503024816513e-03 -6.230115890502929688e-03
3.700000000000000000e+01 7.435244750976562500e+01 -1.591604232788085938e+01 -1.178299933671951294e-01 -8.680906612426042557e-04 -3.560942411422729492e-02 -1.480063144117593765e-02
3.800000000000000000e+01 7.588006591796875000e+01 -1.523305606842041016e+01 -7.532994449138641357e-02 -4.076132085174322128e-03 -2.382182329893112183e-02 -3.983267396688461304e-02
3.900000000000000000e+01 7.359722137451171875e+01 -1.514822292327880859e+01 -1.679735034704208374e-01 2.687694504857063293e-03 -4.958574101328849792e-02 -4.672922566533088684e-02
4.000000000000000000e+01 7.510590362548828125e+01 -1.594404602050781250e+01 -8.149077743291854858e-02 1.387427560985088348e-03 -2.403100393712520599e-02 -1.442087441682815552e-02
4.100000000000000000e+01 7.359909057617187500e+01 -1.588880252838134766e+01 -1.574568599462509155e-01 1.502963597886264324e-03 -4.678616672754287720e-02 -1.530915219336748123e-02
4.200000000000000000e+01 7.435808563232421875e+01 -1.517574119567871094e+01 -1.388354599475860596e-01 1.995199592784047127e-03 -4.105207696557044983e-02 -4.945413023233413696e-02
4.300000000000000000e+01 7.585942077636718750e+01 -1.597279930114746094e+01 -4.953373223543167114e-02 -1.972399419173598289e-03 -1.545183919370174408e-02 -1.285510137677192688e-02
4.400000000000000000e+01 7.511904144287109375e+01 -1.520402336120605469e+01 -1.057037413120269775e-01 -2.513091778382658958e-03 -3.246504813432693481e-02 -4.627834260463714600e-02
4.500000000000000000e+01 7.132652282714843750e+01 -1.597409629821777344e+01 -1.774079203605651855e-01 4.718704149127006531e-03 -5.180676281452178955e-02 6.264391122385859489e-04
4.600000000000000000e+01 7.056670379638671875e+01 -1.601350212097167969e+01 -1.487094908952713013e-01 5.555170122534036636e-03 -4.294629767537117004e-02 1.018608547747135162e-02
4.700000000000000000e+01 7.208541107177734375e+01 -1.593443489074707031e+01 -1.876103430986404419e-01 5.213299300521612167e-03 -5.471911281347274780e-02 -1.017199270427227020e-02
4.800000000000000000e+01 7.284317016601562500e+01 -1.589438438415527344e+01 -1.831746399402618408e-01 -1.560710370540618896e-03 -5.542060732841491699e-02 -1.488988101482391357e-02
4.900000000000000000e+01 7.282823944091796875e+01 -1.515415287017822266e+01 -1.946384161710739136e-01 9.362517856061458588e-03 -5.558276921510696411e-02 -3.481294587254524231e-02
5.000000000000000000e+01 7.049587249755859375e+01 -1.527619743347167969e+01 -2.166818827390670776e-01 2.970753610134124756e-02 -5.609230697154998779e-02 3.755679354071617126e-02
5.100000000000000000e+01 7.127433013916015625e+01 -1.523581504821777344e+01 -2.232710868120193481e-01 2.323844656348228455e-02 -6.000978872179985046e-02 4.814077634364366531e-03
5.200000000000000000e+01 7.205184173583984375e+01 -1.519517898559570312e+01 -2.148655354976654053e-01 1.674110442399978638e-02 -5.943732708692550659e-02 -1.511587575078010559e-02
5.300000000000000000e+01 6.809272003173828125e+01 -1.561153030395507812e+01 -3.110245987772941589e-02 -2.591554448008537292e-02 -1.710540056228637695e-02 3.064147755503654480e-02
5.400000000000000000e+01 6.909484100341796875e+01 -1.537983512878417969e+01 -1.616119295358657837e-01 1.223932136781513691e-03 -4.811640083789825439e-02 6.956607848405838013e-02
5.500000000000000000e+01 6.852738189697265625e+01 -1.547280693054199219e+01 -8.634702116250991821e-02 -2.778429538011550903e-02 -3.423939272761344910e-02 7.260223478078842163e-02
5.600000000000000000e+01 6.853375244140625000e+01 -1.628848648071289062e+01 -7.449903525412082672e-03 -1.794259762391448021e-03 -2.773249056190252304e-03 3.675351152196526527e-03
5.700000000000000000e+01 6.976448822021484375e+01 -1.608900451660156250e+01 -8.509433269500732422e-02 7.446795701980590820e-03 -2.329426072537899017e-02 2.045509777963161469e-02
5.800000000000000000e+01 6.975740051269531250e+01 -1.534006977081298828e+01 -2.055716961622238159e-01 1.517230551689863205e-02 -5.711981654167175293e-02 5.652341246604919434e-02
5.900000000000000000e+01 6.902143859863281250e+01 -1.593789577484130859e+01 -6.662785261869430542e-02 -1.351811736822128296e-02 -2.404379099607467651e-02 2.668166346848011017e-02
6.000000000000000000e+01 6.840941619873046875e+01 -1.795475006103515625e+01 2.936913224402815104e-04 2.231389749795198441e-03 7.575243362225592136e-04 -3.313031047582626343e-04
6.100000000000000000e+01 6.871118164062500000e+01 -1.764047813415527344e+01 7.975954940775409341e-05 2.901872503571212292e-04 1.109840377466753125e-04 8.330048294737935066e-04
6.200000000000000000e+01 6.975873565673828125e+01 -1.690816497802734375e+01 1.047799480147659779e-03 1.184410139103420079e-04 3.498721343930810690e-04 5.638625589199364185e-04
6.300000000000000000e+01 6.854742431640625000e+01 -1.802977561950683594e+01 1.673236547503620386e-04 2.702146535739302635e-03 8.608410716988146305e-04 9.954394772648811340e-04
6.400000000000000000e+01 6.898069000244140625e+01 -1.788616180419921875e+01 3.685436677187681198e-04 4.707612679339945316e-04 2.517914981581270695e-04 9.968117810785770416e-04
6.500000000000000000e+01 6.984674072265625000e+01 -1.764367675781250000e+01 9.434980456717312336e-04 5.921735428273677826e-04 4.607014998327940702e-04 1.140536274760961533e-03
6.600000000000000000e+01 6.877840423583984375e+01 -1.707168769836425781e+01 2.482967684045433998e-04 2.647227083798497915e-04 1.539058430353179574e-04 2.660379977896809578e-04
6.700000000000000000e+01 1.639982223510742188e+01 -2.317397296428680420e-01 -1.558140873908996582e+00 -1.289003249257802963e-02 -4.713092744350433350e-01 -7.936873286962509155e-02
6.800000000000000000e+01 1.798723983764648438e+01 -8.314419388771057129e-01 -1.111519217491149902e+00 2.488957531750202179e-02 -3.259888887405395508e-01 5.881206318736076355e-02
6.900000000000000000e+01 1.645354080200195312e+01 -9.699125885963439941e-01 -1.267834067344665527e+00 9.105530567467212677e-03 -3.776185810565948486e-01 2.243888750672340393e-02
7.000000000000000000e+01 1.875374794006347656e+01 -7.599936723709106445e-01 -9.849240779876708984e-01 2.055861987173557281e-02 -2.893096506595611572e-01 9.058213979005813599e-02
7.100000000000000000e+01 1.790756225585937500e+01 -9.563824534416198730e-02 -1.317753076553344727e+00 5.008692969568073750e-04 -3.951756656169891357e-01 -6.490372121334075928e-02
7.200000000000000000e+01 1.866109085083007812e+01 -2.537456899881362915e-02 -1.205956697463989258e+00 -1.241911295801401138e-02 -3.655127286911010742e-01 -6.326612830162048340e-02
7.300000000000000000e+01 1.715376663208007812e+01 -1.644264459609985352e-01 -1.432925581932067871e+00 -2.809518191497772932e-04 -4.299619495868682861e-01 -7.880606502294540405e-02
7.400000000000000000e+01 1.722046470642089844e+01 -9.014146924018859863e-01 -1.209631085395812988e+00 2.439043298363685608e-02 -3.555722236633300781e-01 4.672597721219062805e-02
7.500000000000000000e+01 1.941230964660644531e+01 7.625918835401535034e-02 -1.032806992530822754e+00 -1.119204610586166382e-02 -3.131996989250183105e-01 -6.853296607732772827e-02
7.600000000000000000e+01 2.090952491760253906e+01 3.449267148971557617e-01 -6.469678878784179688e-01 6.658909376710653305e-03 -1.920926868915557861e-01 -3.466844558715820312e-02
7.700000000000000000e+01 1.952174568176269531e+01 -6.559218764305114746e-01 -8.607074618339538574e-01 3.013317845761775970e-02 -2.491722851991653442e-01 1.203718632459640503e-01
7.800000000000000000e+01 2.106011390686035156e+01 -3.798714280128479004e-01 -5.821062922477722168e-01 4.439879953861236572e-02 -1.613122522830963135e-01 1.261881142854690552e-01
7.900000000000000000e+01 2.183077621459960938e+01 -2.417316585779190063e-01 -4.300907254219055176e-01 4.174244776368141174e-02 -1.165044829249382019e-01 1.407156437635421753e-01
8.000000000000000000e+01 2.165959548950195312e+01 4.794237911701202393e-01 -4.930583238601684570e-01 -4.234013613313436508e-03 -1.491876989603042603e-01 -1.972492225468158722e-02
8.100000000000000000e+01 2.016033744812011719e+01 2.105962187051773071e-01 -8.206701874732971191e-01 4.921495565213263035e-04 -2.460534125566482544e-01 -5.808033794164657593e-02
8.200000000000000000e+01 2.029035186767578125e+01 -5.178933739662170410e-01 -7.377269268035888672e-01 4.854485392570495605e-02 -2.067546248435974121e-01 1.266747713088989258e-01
8.300000000000000000e+01 2.486502075195312500e+01 1.181535840034484863e+00 -4.021893441677093506e-02 1.802844461053609848e-03 -1.152482628822326660e-02 7.689127698540687561e-03
8.400000000000000000e+01 2.407039642333984375e+01 1.203782439231872559e+00 -7.826866954565048218e-02 4.742434713989496231e-03 -2.205787040293216705e-02 -2.161525626434013247e-04
8.500000000000000000e+01 2.607850456237792969e+01 1.173345804214477539e+00 9.358953684568405151e-04 -2.598270541056990623e-03 -4.987125867046415806e-04 1.750491000711917877e-02
8.600000000000000000e+01 2.532372856140136719e+01 1.650214910507202148e+00 -3.010621108114719391e-02 -3.554963914211839437e-04 -9.138512425124645233e-03 3.517021425068378448e-03
8.700000000000000000e+01 2.326537322998046875e+01 9.581053853034973145e-01 -1.564138829708099365e-01 -5.713673308491706848e-04 -4.709557443857192993e-02 -7.043540012091398239e-03
8.800000000000000000e+01 2.244518280029296875e+01 6.874685883522033691e-01 -3.149362206459045410e-01 5.493215212482027709e-05 -9.446438401937484741e-02 -1.526993978768587112e-02
8.900000000000000000e+01 2.260291671752929688e+01 -4.087954387068748474e-02 -2.925178706645965576e-01 3.633454814553260803e-02 -7.685499638319015503e-02 1.348652392625808716e-01
9.000000000000000000e+01 2.485576438903808594e+01 6.031916737556457520e-01 3.066439740359783173e-02 -4.133547190576791763e-03 7.959255017340183258e-03 5.296774208545684814e-02
9.100000000000000000e+01 2.337561607360839844e+01 2.117778509855270386e-01 -1.696799248456954956e-01 2.852983772754669189e-02 -4.234502837061882019e-02 1.052085608243942261e-01
9.200000000000000000e+01 2.413314819335937500e+01 4.394754171371459961e-01 -4.980402067303657532e-02 1.070371456444263458e-02 -1.173009257763624191e-02 8.055844902992248535e-02
9.300000000000000000e+01 2.547986221313476562e+01 8.123863935470581055e-01 5.447693914175033569e-02 3.367076860740780830e-03 1.735320501029491425e-02 2.595683187246322632e-02
9.400000000000000000e+01 2.384457206726074219e+01 1.920147299766540527e+00 6.272759947023587301e-06 1.196183711726916954e-05 5.470379164762562141e-06 -1.811563379305880517e-06
9.500000000000000000e+01 2.269768333435058594e+01 2.332504749298095703e+00 1.240624715137528256e-05 2.365751424804329872e-05 1.081912887457292527e-05 -7.020158136583631858e-06
9.600000000000000000e+01 2.200780105590820312e+01 2.124691486358642578e+00 -1.308240553044015542e-05 -4.026590249850414693e-05 -1.600449104444123805e-05 -4.505022843659389764e-06
9.700000000000000000e+01 2.224600791931152344e+01 1.422776222229003906e+00 -2.548244992794934660e-06 2.871278775273822248e-05 7.849363100831396878e-06 -1.477760179113829508e-05
9.800000000000000000e+01 2.304938125610351562e+01 1.665326476097106934e+00 -8.921007975004613400e-06 -2.716259405133314431e-05 -1.082508060790132731e-05 1.297566313951392658e-06
9.900000000000000000e+01 2.404323768615722656e+01 2.781441688537597656e+00 1.416214490745915100e-05 8.545129276171792299e-06 6.812182164139812812e-06 6.854952971480088308e-06
1.000000000000000000e+02 2.462189483642578125e+01 2.183827638626098633e+00 -5.106305707158753648e-06 -4.030176569358445704e-06 -2.740944637480424717e-06 -8.026402156247058883e-07
1.010000000000000000e+02 2.337939453125000000e+01 2.552543401718139648e+00 -9.831733223109040409e-06 -2.934682743216399103e-05 -1.175356828753137961e-05 -5.751221578975673765e-06
1.020000000000000000e+02 2.075237083435058594e+01 1.106616377830505371e+00 -2.199797927460167557e-05 3.989013566751964390e-05 5.367647190723801032e-06 -1.777886609488632530e-05
1.030000000000000000e+02 2.060178184509277344e+01 1.831414580345153809e+00 -2.054228934866841882e-05 -3.936510256608016789e-05 -1.797221739252563566e-05 -3.820534402620978653e-06
1.040000000000000000e+02 2.130817413330078125e+01 1.960395336151123047e+00 2.197527101088780910e-05 3.377630491741001606e-05 1.672547296038828790e-05 -1.821523983380757272e-05
1.050000000000000000e+02 1.918785858154296875e+01 1.579434752464294434e+00 -6.266068339755292982e-06 -2.884835521399509162e-05 -1.053432697517564520e-05 2.527820106479339302e-05
1.060000000000000000e+02 1.989505195617675781e+01 1.704050064086914062e+00 2.228224911959841847e-05 6.494930858025327325e-05 2.616946767375338823e-05 -5.278505454953119624e-07
1.070000000000000000e+02 1.929729461669921875e+01 8.472537398338317871e-01 -2.556539584475103766e-05 5.373781095840968192e-05 8.451724170299712569e-06 -5.673505256709177047e-06
1.080000000000000000e+02 2.147934150695800781e+01 1.239288687705993652e+00 -2.853434853022918105e-05 -4.201966294203884900e-05 -2.116620271408464760e-05 -1.095622348401548152e-08
1.090000000000000000e+02 2.002506446838378906e+01 9.755603671073913574e-01 -4.395353244035504758e-05 -4.316730337450280786e-05 -2.613625110825523734e-05 -9.235724860445770901e-07
1.100000000000000000e+02 1.701650238037109375e+01 1.350294589996337891e+00 1.543926482554525137e-04 1.149864838225767016e-04 8.081374107860028744e-05 1.270225329790264368e-04
1.110000000000000000e+02 1.708320045471191406e+01 6.133062839508056641e-01 9.531345858704298735e-05 -2.975348434119950980e-05 1.966799209185410291e-05 6.061235399101860821e-05
1.120000000000000000e+02 1.634315681457519531e+01 5.465459823608398438e-01 2.086104068439453840e-04 5.632140164379961789e-05 7.947954145492985845e-05 6.730217137373983860e-05
1.130000000000000000e+02 1.782329559326171875e+01 6.808430552482604980e-01 3.577359530027024448e-05 6.238070636754855514e-05 2.944628977274987847e-05 2.476156623743008822e-05
1.140000000000000000e+02 1.847070503234863281e+01 1.483781576156616211e+00 4.955410986440256238e-05 9.890514047583565116e-05 4.453777364687994123e-05 4.418297612573951483e-05
1.150000000000000000e+02 1.856336212158203125e+01 7.491624951362609863e-01 -1.949046054505743086e-05 -4.062301013618707657e-05 -1.803404120437335223e-05 1.994478952838107944e-05
1.160000000000000000e+02 1.628943824768066406e+01 1.284718871116638184e+00 2.081870770780369639e-04 9.815784324018750340e-06 6.540086178574711084e-05 2.045115543296560645e-04
1.170000000000000000e+02 1.774361801147460938e+01 1.416646718978881836e+00 5.850479283253662288e-05 -4.774625722347991541e-06 1.611904917808715254e-05 1.043132870108820498e-04
1.180000000000000000e+02 1.408120155334472656e+01 1.187072157859802246e+00 6.655969773419201374e-04 6.982653576415032148e-05 2.206270437454804778e-04 3.087666991632431746e-04
1.190000000000000000e+02 1.410851097106933594e+01 4.475762248039245605e-01 7.174811325967311859e-04 -9.727589713293127716e-06 2.123260637745261192e-04 1.375528809148818254e-04
1.200000000000000000e+02 1.336430931091308594e+01 4.183164834976196289e-01 9.420141577720642090e-04 1.775217424437869340e-05 2.879298990592360497e-04 1.329321967205032706e-04
1.210000000000000000e+02 1.485382461547851562e+01 4.748390913009643555e-01 5.271254340186715126e-04 4.165318750892765820e-05 1.706335897324606776e-04 1.103225295082665980e-04
1.220000000000000000e+02 1.555697250366210938e+01 1.239178419113159180e+00 3.644109820015728474e-04 1.017410395434126258e-04 1.398456079186871648e-04 2.262260823044925928e-04
1.230000000000000000e+02 1.560021686553955078e+01 5.002670884132385254e-01 3.335951769258826971e-04 -1.965012052096426487e-05 9.418351692147552967e-05 1.008552862913347781e-04
1.240000000000000000e+02 1.334496879577636719e+01 1.158104777336120605e+00 8.112422656267881393e-04 -1.509594949311576784e-05 2.388439024798572063e-04 3.495755954645574093e-04
1.250000000000000000e+02 1.481854820251464844e+01 1.214042663574218750e+00 4.640184051822870970e-04 1.152748245658585802e-05 1.426637754775583744e-04 3.036202106159180403e-04
1.260000000000000000e+02 1.111325168609619141e+01 1.138490676879882812e+00 1.377540174871683121e-03 -3.179786290274932981e-05 4.037226899527013302e-04 2.690208202693611383e-04
1.270000000000000000e+02 1.186833381652832031e+01 4.020517766475677490e-01 1.416752929799258709e-03 -2.176994655656017130e-07 4.249605699442327023e-04 1.178878956125117838e-04
1.280000000000000000e+02 1.037295722961425781e+01 3.924405574798583984e-01 1.809184323064982891e-03 -2.085274536511860788e-05 5.364994867704808712e-04 7.946957339299842715e-05
1.290000000000000000e+02 1.260390949249267578e+01 1.143149375915527344e+00 1.035399851389229298e-03 1.480546961829531938e-05 3.150615957565605640e-04 3.306492289993911982e-04
1.300000000000000000e+02 1.261756992340087891e+01 4.032067656517028809e-01 1.161429216153919697e-03 -1.310648895014310256e-05 3.444968315307050943e-04 1.347031793557107449e-04
1.310000000000000000e+02 1.036947441101074219e+01 1.132432341575622559e+00 1.480929902754724026e-03 -7.008983811829239130e-05 4.232520295772701502e-04 2.277864405186846852e-04
1.320000000000000000e+02 1.185806560516357422e+01 1.142010807991027832e+00 1.175408367998898029e-03 -4.419368269736878574e-05 3.393644292373210192e-04 3.369266050867736340e-04
1.330000000000000000e+02 1.112012767791748047e+01 3.985152244567871094e-01 1.620871596969664097e-03 -7.679496775381267071e-06 4.839576140511780977e-04 1.110324665205553174e-04
1.340000000000000000e+02 8.749180793762207031e+00 3.899427950382232666e-01 2.007119590416550636e-03 -3.066091085202060640e-05 5.929376347921788692e-04 6.674685209873132408e-06
1.350000000000000000e+02 7.082522392272949219e+00 3.898618221282958984e-01 1.869247178547084332e-03 -3.472004755167290568e-05 5.503581487573683262e-04 -7.323161844396963716e-05
1.360000000000000000e+02 6.247702121734619141e+00 1.129743337631225586e+00 1.425289665348827839e-03 -7.398476736852899194e-05 4.053914744872599840e-04 -2.939311962109059095e-04
1.370000000000000000e+02 4.581694126129150391e+00 3.896949291229248047e-01 1.078856643289327621e-03 1.578287810843903571e-05 3.283918485976755619e-04 -1.468730333726853132e-04
1.380000000000000000e+02 3.748422384262084961e+00 3.898865282535552979e-01 7.605022401548922062e-04 -1.229004010383505374e-05 2.244636561954393983e-04 -1.444431691197678447e-04
1.390000000000000000e+02 3.747751951217651367e+00 1.129886507987976074e+00 7.160681998357176781e-04 2.650474380061496049e-05 2.227718796348199248e-04 -4.027858085464686155e-04
1.400000000000000000e+02 2.915430068969726562e+00 3.901152908802032471e-01 4.446700331754982471e-04 2.522743125155102462e-05 1.409692340530455112e-04 -1.286352780880406499e-04
1.410000000000000000e+02 2.914908647537231445e+00 1.130115270614624023e+00 5.087418830953538418e-04 4.998169242753647268e-05 1.676170795690268278e-04 -3.510168753564357758e-04
1.420000000000000000e+02 2.082287311553955078e+00 3.901598453521728516e-01 2.093363582389429212e-04 1.212247389048570767e-05 6.643764936598017812e-05 -8.803257514955475926e-05
1.430000000000000000e+02 2.081915140151977539e+00 1.130159854888916016e+00 2.755033201538026333e-04 9.517098078504204750e-05 1.112022873712703586e-04 -2.670613175723701715e-04
1.440000000000000000e+02 1.249198555946350098e+00 1.130092263221740723e+00 1.350115344393998384e-04 1.042042349581606686e-04 7.176472718128934503e-05 -1.380919711664319038e-04
1.450000000000000000e+02 4.164851903915405273e-01 1.130014061927795410e+00 1.956289997906424105e-05 4.562348476611077785e-05 1.955591505975462496e-05 -3.880351141560822725e-05
1.460000000000000000e+02 4.165596663951873779e-01 3.900140523910522461e-01 1.019961473502917215e-05 4.558493856166023761e-06 4.427432486409088597e-06 -5.789154783997219056e-06
1.470000000000000000e+02 4.580874919891357422e+00 1.129694938659667969e+00 9.949237573891878128e-04 -2.410316847090143710e-05 2.912461932282894850e-04 -4.023420042358338833e-04
1.480000000000000000e+02 5.414232254028320312e+00 1.129676342010498047e+00 1.194196986034512520e-03 -3.625847966759465635e-05 3.473815449979156256e-04 -3.591574495658278465e-04
1.490000000000000000e+02 5.415200710296630859e+00 3.896763324737548828e-01 1.403050147928297520e-03 -2.913242860813625157e-05 4.121753154322504997e-04 -1.331514649791643023e-04
1.500000000000000000e+02 6.248819828033447266e+00 3.897433280944824219e-01 1.659903558902442455e-03 5.369318841985659674e-06 4.995818599127233028e-04 -1.047174082486890256e-04
1.510000000000000000e+02 7.081255912780761719e+00 1.129861831665039062e+00 1.536908210255205631e-03 -7.466752140317112207e-05 4.386721993796527386e-04 -1.870124979177489877e-04
1.520000000000000000e+02 7.915904998779296875e+00 3.899158239364624023e-01 1.972530037164688110e-03 -2.771517301880521700e-06 5.909275496378540993e-04 -2.918060818046797067e-05
1.530000000000000000e+02 9.582430839538574219e+00 3.899797797203063965e-01 1.929029356688261032e-03 -7.472692232113331556e-06 5.764670204371213913e-04 5.150245488039217889e-05
1.540000000000000000e+02 9.580718994140625000e+00 1.129979729652404785e+00 1.618301961570978165e-03 -7.495329919038340449e-05 4.630045732483267784e-04 1.247829204658046365e-04
1.550000000000000000e+02 1.249422073364257812e+00 3.900922536849975586e-01 5.573493763222359121e-05 2.819690598698798567e-05 2.517955363146029413e-05 -4.133533366257324815e-05
1.560000000000000000e+02 7.914489746093750000e+00 1.129915833473205566e+00 1.653347280807793140e-03 -9.006568143377080560e-05 4.689844790846109390e-04 -9.175002196570858359e-05
1.570000000000000000e+02 8.747616767883300781e+00 1.129942774772644043e+00 1.634106156416237354e-03 -8.532292849849909544e-05 4.646349698305130005e-04 3.634063614299520850e-05
1.580000000000000000e+02 1.338494110107421875e+01 -3.624081611633300781e-01 -1.615861415863037109e+00 -7.522215135395526886e-03 -4.870150983333587646e-01 -6.767528504133224487e-02
1.590000000000000000e+02 1.492772197723388672e+01 -1.047161340713500977e+00 -1.358597040176391602e+00 1.274687424302101135e-02 -4.037550389766693115e-01 -4.560119658708572388e-02
1.600000000000000000e+02 1.340428161621093750e+01 -1.102196455001831055e+00 -1.333698272705078125e+00 5.604123696684837341e-03 -3.984282612800598145e-01 -8.798836916685104370e-02
1.610000000000000000e+02 1.489244556427001953e+01 -3.079577088356018066e-01 -1.626362442970275879e+00 -1.703126181382685900e-04 -4.879598319530487061e-01 -6.158569827675819397e-02
1.620000000000000000e+02 1.568929195404052734e+01 -1.018365263938903809e+00 -1.317471623420715332e+00 3.363991621881723404e-03 -3.942322731018066406e-01 -1.503734663128852844e-02
1.630000000000000000e+02 1.564604759216308594e+01 -2.794539332389831543e-01 -1.625032067298889160e+00 -1.021247170865535736e-02 -4.905733466148376465e-01 -6.651607900857925415e-02
1.640000000000000000e+02 1.413872909545898438e+01 -3.356079757213592529e-01 -1.624131560325622559e+00 1.738946884870529175e-03 -4.867177903652191162e-01 -6.854102015495300293e-02
1.650000000000000000e+02 1.416603755950927734e+01 -1.075103878974914551e+00 -1.361746430397033691e+00 1.274122577160596848e-02 -4.047015607357025146e-01 -6.217242404818534851e-02
1.660000000000000000e+02 6.840991973876953125e+01 -1.856923866271972656e+01 -2.913670032285153866e-04 3.902979660779237747e-03 1.083483803085982800e-03 6.011505029164254665e-04
1.670000000000000000e+02 6.976827239990234375e+01 -2.133130455017089844e+01 -4.025299567729234695e-03 -6.862591835670173168e-04 -1.413467573001980782e-03 -1.995230704778805375e-04
1.680000000000000000e+02 7.153018951416015625e+01 -1.825537109375000000e+01 1.171639538370072842e-03 -9.061227901838719845e-04 7.965503027662634850e-05 1.244783285073935986e-03
1.690000000000000000e+02 7.585339355468750000e+01 -1.820167541503906250e+01 1.171357929706573486e-03 -4.178191302344202995e-04 2.260616602143272758e-04 -1.011062064208090305e-03
1.700000000000000000e+02 7.295509338378906250e+01 -1.814828300476074219e+01 1.436491496860980988e-03 -9.436762193217873573e-04 1.478445628890767694e-04 4.197332891635596752e-04
1.710000000000000000e+02 6.708056640625000000e+01 -2.327420616149902344e+01 -1.064918097108602524e-02 -4.308820702135562897e-03 -4.487400408834218979e-03 -6.033207755535840988e-03
1.720000000000000000e+02 6.491524505615234375e+01 -2.564514160156250000e+01 -5.367795377969741821e-02 -3.001276962459087372e-02 -2.510721608996391296e-02 -3.800675645470619202e-02
1.730000000000000000e+02 6.261420822143554688e+01 -2.791157722473144531e+01 -2.695894837379455566e-01 -9.722107648849487305e-02 -1.100431680679321289e-01 -1.416358798742294312e-01
1.740000000000000000e+02 6.052424240112304688e+01 -2.917103004455566406e+01 -5.773267745971679688e-01 -6.626953929662704468e-02 -1.930789053440093994e-01 -1.876510083675384521e-01
1.750000000000000000e+02 6.465197753906250000e+01 -3.999469757080078125e+01 2.234621047973632812e-01 3.537204861640930176e-02 7.765024155378341675e-02 6.086691096425056458e-02
1.760000000000000000e+02 7.102849578857421875e+01 -3.814221191406250000e+01 7.081057131290435791e-02 -4.379427805542945862e-02 8.104886859655380249e-03 7.322652637958526611e-02
1.770000000000000000e+02 7.883658599853515625e+01 -3.092339134216308594e+01 -1.714559155516326427e-03 -4.548186063766479492e-02 -1.415892504155635834e-02 1.580140180885791779e-02
1.780000000000000000e+02 7.963018798828125000e+01 -2.862735557556152344e+01 -5.723242065869271755e-04 -1.871877722442150116e-02 -5.787330679595470428e-03 3.530948422849178314e-03
1.790000000000000000e+02 7.890014648437500000e+01 -2.382690048217773438e+01 -6.946612265892326832e-04 1.059803296811878681e-03 1.095426341635175049e-04 1.185384579002857208e-03
1.800000000000000000e+02 7.962460327148437500e+01 -2.309037590026855469e+01 -9.650147694628685713e-05 4.838730674237012863e-03 1.422668690793216228e-03 4.230317426845431328e-05
1.810000000000000000e+02 7.521928405761718750e+01 -1.885113716125488281e+01 4.310270305722951889e-04 -8.871274767443537712e-04 -1.368301309412345290e-04 -7.264671148732304573e-04
1.820000000000000000e+02 7.963051605224609375e+01 -1.914304161071777344e+01 9.138009772868826985e-05 1.775719923898577690e-03 5.601299926638603210e-04 -4.171154287178069353e-04
1.830000000000000000e+02 5.976587677001953125e+01 -2.950839996337890625e+01 -7.148931026458740234e-01 -8.367156982421875000e-02 -2.395693957805633545e-01 -1.834294945001602173e-01
1.840000000000000000e+02 5.570989990234375000e+01 -3.036969184875488281e+01 -1.091781973838806152e+00 -1.763126067817211151e-02 -3.328239917755126953e-01 -8.256378024816513062e-02
1.850000000000000000e+02 6.047195434570312500e+01 -3.916709136962890625e+01 2.963106036186218262e-01 2.490065395832061768e-01 1.635951399803161621e-01 3.863896057009696960e-02
1.860000000000000000e+02 5.754576110839843750e+01 -3.608866500854492188e+01 2.109806537628173828e-01 3.948288261890411377e-01 1.817428469657897949e-01 -1.499441862106323242e-01
1.870000000000000000e+02 5.841065597534179688e+01 -3.097827529907226562e+01 -6.211242675781250000e-01 -1.083288621157407761e-02 -1.895871460437774658e-01 -3.151643276214599609e-02
1.880000000000000000e+02 5.157072830200195312e+01 -3.009261322021484375e+01 4.012520015239715576e-01 3.807394802570343018e-01 2.345974445343017578e-01 -5.497885942459106445e-01
1.890000000000000000e+02 5.077866363525390625e+01 -2.983224487304687500e+01 1.148694396018981934e+00 7.467808127403259277e-01 5.686425566673278809e-01 -9.856119155883789062e-01
1.900000000000000000e+02 4.597221755981445312e+01 -3.249662017822265625e+01 -5.574371218681335449e-01 5.913352489471435547e+00 1.606774687767028809e+00 -1.254948973655700684e+00
1.910000000000000000e+02 3.693465042114257812e+01 -2.832188224792480469e+01 3.655609190464019775e-01 6.148131370544433594e+00 1.954107642173767090e+00 1.165237665176391602e+00
1.920000000000000000e+02 3.247233200073242188e+01 -2.652897262573242188e+01 1.559064865112304688e+00 2.423291444778442383e+00 1.194706916809082031e+00 1.924890160560607910e+00
1.930000000000000000e+02 3.052595138549804688e+01 -2.960780715942382812e+01 2.771531641483306885e-01 1.642615675926208496e+00 5.759306550025939941e-01 1.169329047203063965e+00
1.940000000000000000e+02 2.920773696899414062e+01 -2.902215385437011719e+01 6.394237279891967773e-03 3.081614971160888672e-01 9.436671435832977295e-02 3.619787693023681641e-01
1.950000000000000000e+02 2.965632438659667969e+01 -2.994660758972167969e+01 1.497161984443664551e-01 1.066002130508422852e+00 3.647155165672302246e-01 9.567323327064514160e-01
1.960000000000000000e+02 2.514109802246093750e+01 -2.960978126525878906e+01 -9.814176559448242188e-01 9.105101227760314941e-03 -2.916937470436096191e-01 8.582757785916328430e-03
1.970000000000000000e+02 2.279619216918945312e+01 -3.099156188964843750e+01 -2.318419069051742554e-01 2.827129960060119629e-01 1.526132225990295410e-02 -2.871223390102386475e-01
1.980000000000000000e+02 2.173456382751464844e+01 -2.836441993713378906e+01 -6.409151852130889893e-02 1.829906851053237915e-01 3.566974774003028870e-02 -1.212180033326148987e-01
1.990000000000000000e+02 1.761676216125488281e+01 -2.575765991210937500e+01 3.856613934040069580e-01 9.412297010421752930e-01 3.980673253536224365e-01 -6.006729006767272949e-01
2.000000000000000000e+02 1.548564338684082031e+01 -2.209945869445800781e+01 8.912850618362426758e-01 1.967969179153442383e+00 8.577762842178344727e-01 -1.337944865226745605e+00
2.010000000000000000e+02 1.458987522125244141e+01 -2.062666702270507812e+01 7.150812149047851562e-01 4.273215770721435547e+00 1.496489048004150391e+00 -8.017964959144592285e-01
2.020000000000000000e+02 1.456335258483886719e+01 -1.891905975341796875e+01 8.193095028400421143e-02 3.725151777267456055e+00 1.142124772071838379e+00 -6.018737331032752991e-02
2.030000000000000000e+02 1.456746959686279297e+01 -1.727156257629394531e+01 1.601360887289047241e-01 4.004838466644287109e+00 1.249492406845092773e+00 2.612807452678680420e-01
2.040000000000000000e+02 1.622576141357421875e+01 -1.347258090972900391e+01 1.675277233123779297e+00 2.204136371612548828e+00 1.163824081420898438e+00 1.786993861198425293e+00
2.050000000000000000e+02 1.680895423889160156e+01 -1.288179969787597656e+01 2.034741401672363281e+00 1.727529048919677734e+00 1.128681063652038574e+00 1.684124827384948730e+00
2.060000000000000000e+02 1.795749664306640625e+01 -1.149999523162841797e+01 1.587981104850769043e+00 9.579278826713562012e-01 7.637726664543151855e-01 9.447029232978820801e-01
2.070000000000000000e+02 1.803681373596191406e+01 -1.540119886398315430e+00 -9.297143220901489258e-01 6.318134069442749023e-02 -2.599599063396453857e-01 1.747842729091644287e-01
2.080000000000000000e+02 1.491743087768554688e+01 -2.444321393966674805e+00 -9.460254907608032227e-01 9.776081144809722900e-02 -2.544794082641601562e-01 2.769378013908863068e-03
2.090000000000000000e+02 1.493518066406250000e+01 -1.759637117385864258e+00 -1.126984715461730957e+00 4.481509327888488770e-02 -3.246508836746215820e-01 -1.522708870470523834e-02
2.100000000000000000e+02 1.187333106994628906e+01 -1.839960694313049316e+00 -1.047098040580749512e+00 3.041971288621425629e-02 -3.050034940242767334e-01 -1.882893890142440796e-01
2.110000000000000000e+02 1.035388660430908203e+01 -1.849209785461425781e+00 -9.256277084350585938e-01 2.371307276189327240e-02 -2.705743908882141113e-01 -2.427363693714141846e-01
2.120000000000000000e+02 3.435129404067993164e+00 -1.867895960807800293e+00 -1.786441802978515625e-01 -5.482131242752075195e-02 -7.003964483737945557e-02 -1.788758933544158936e-01
2.130000000000000000e+02 4.971082687377929688e+00 -1.860989332199096680e+00 -3.247041106224060059e-01 -3.445448726415634155e-02 -1.077475845813751221e-01 -2.416310161352157593e-01
2.140000000000000000e+02 3.610020875930786133e-01 -9.099032402038574219e+00 -1.525065599707886577e-04 -1.065232634544372559e+00 -3.196155428886413574e-01 -6.472893804311752319e-02
2.150000000000000000e+02 1.079205751419067383e+00 -1.064243793487548828e+01 8.385493420064449310e-03 -1.179507851600646973e+00 -3.513367176055908203e-01 -1.745729297399520874e-01
2.160000000000000000e+02 3.616062998771667480e-01 -1.634156227111816406e+01 4.687500651925802231e-03 -2.038168668746948242e+00 -6.100443601608276367e-01 -1.673495769500732422e-02
2.170000000000000000e+02 1.347871303558349609e+01 -2.165917968750000000e+01 6.586450934410095215e-01 2.402485370635986328e+00 9.183391332626342773e-01 -1.689971238374710083e-01
2.180000000000000000e+02 1.602440071105957031e+01 -2.271727752685546875e+01 8.169045448303222656e-01 1.596552252769470215e+00 7.240370512008666992e-01 -1.074529528617858887e+00
2.190000000000000000e+02 4.855740737915039062e+01 -2.861943244934082031e+01 3.197162151336669922e+00 3.810594320297241211e+00 2.102326869964599609e+00 -3.216834306716918945e+00
2.200000000000000000e+02 4.651136016845703125e+01 -2.602833366394042969e+01 3.244655847549438477e+00 1.156643867492675781e+01 4.443328380584716797e+00 -5.351820468902587891e+00
2.210000000000000000e+02 4.567304229736328125e+01 -2.372806549072265625e+01 1.272796034812927246e+00 1.670350074768066406e+01 5.392889022827148438e+00 -2.422448635101318359e+00
2.220000000000000000e+02 4.560174942016601562e+01 -2.210700416564941406e+01 1.253016740083694458e-01 1.383768844604492188e+01 4.188897132873535156e+00 -3.882354497909545898e-01
2.230000000000000000e+02 4.519977569580078125e+01 -1.903482437133789062e+01 2.435295343399047852e+00 1.398167133331298828e+01 4.925089836120605469e+00 2.037362337112426758e+00
2.240000000000000000e+02 4.574114990234375000e+01 -1.855769538879394531e+01 2.826006412506103516e+00 1.524137973785400391e+01 5.420216083526611328e+00 3.939639806747436523e+00
2.250000000000000000e+02 4.517277145385742188e+01 -1.788463592529296875e+01 2.981110572814941406e+00 1.058327865600585938e+01 4.069316864013671875e+00 1.628140330314636230e+00
2.260000000000000000e+02 4.486036682128906250e+01 -6.875614643096923828e+00 -1.976858377456665039e+00 2.339648246765136719e+00 1.088369488716125488e-01 -9.554395079612731934e-01
2.270000000000000000e+02 4.887771606445312500e+01 -5.107039928436279297e+00 -6.061275482177734375e+00 -2.887976169586181641e-01 -1.905021905899047852e+00 1.043157219886779785e+00
2.280000000000000000e+02 4.431668472290039062e+01 -3.811023712158203125e+00 -3.837445974349975586e+00 2.496935985982418060e-02 -1.143743038177490234e+00 6.325557231903076172e-01
2.290000000000000000e+02 4.636689376831054688e+01 -5.144327640533447266e+00 -4.409197330474853516e+00 7.907859981060028076e-02 -1.299035668373107910e+00 7.916418313980102539e-01
2.300000000000000000e+02 4.206721878051757812e+01 -2.860950946807861328e+00 1.936485886573791504e+00 3.742092609405517578e+00 1.703573584556579590e+00 -2.898437023162841797e+00
2.310000000000000000e+02 3.983048629760742188e+01 -1.279869556427001953e+00 2.590432405471801758e+00 1.334301471710205078e+01 4.780034065246582031e+00 -3.954375505447387695e+00
2.320000000000000000e+02 2.957191085815429688e+01 -1.497148871421813965e+00 1.342759251594543457e+00 7.655503153800964355e-01 6.324928402900695801e-01 8.674612641334533691e-01
2.330000000000000000e+02 2.697405624389648438e+01 -1.511776089668273926e+00 6.878924369812011719e-01 -4.046928510069847107e-02 1.942269504070281982e-01 4.493931829929351807e-01
2.340000000000000000e+02 2.848476600646972656e+01 5.620723217725753784e-02 7.385318279266357422e-01 3.143306076526641846e-02 2.309894710779190063e-01 7.895861566066741943e-02
2.350000000000000000e+02 2.677198410034179688e+01 6.744647026062011719e-01 2.044291496276855469e-01 -8.211475796997547150e-03 5.886530131101608276e-02 2.203262969851493835e-02
2.360000000000000000e+02 2.594206237792968750e+01 1.958996355533599854e-01 2.170891612768173218e-01 -2.756294608116149902e-02 5.685786530375480652e-02 8.875384181737899780e-02
2.370000000000000000e+02 2.124451828002929688e+01 -1.762976288795471191e+00 -4.301984012126922607e-01 1.027268692851066589e-01 -9.824145585298538208e-02 3.876017630100250244e-01
2.380000000000000000e+02 2.290204620361328125e+01 -1.098293590545654297e+01 6.331413388252258301e-01 1.090728119015693665e-01 2.226642519235610962e-01 2.620254158973693848e-01
2.390000000000000000e+02 2.464625358581542969e+01 -9.421203613281250000e+00 1.389167755842208862e-01 2.060188800096511841e-01 1.034806966781616211e-01 2.931066751480102539e-01
2.400000000000000000e+02 2.506198883056640625e+01 -1.005250740051269531e+01 2.338801324367523193e-01 1.276738941669464111e-01 1.084662079811096191e-01 2.309609502553939819e-01
2.410000000000000000e+02 2.674073791503906250e+01 -8.275138854980468750e+00 -9.399232268333435059e-01 2.820995748043060303e-01 -1.973471045494079590e-01 3.453929722309112549e-01
2.420000000000000000e+02 3.064693450927734375e+01 -8.386958122253417969e+00 -3.357142210006713867e+00 -3.187039792537689209e-01 -1.102753877639770508e+00 7.800912857055664062e-01
2.430000000000000000e+02 3.249633407592773438e+01 -1.001668643951416016e+01 4.206740558147430420e-01 2.452858924865722656e+00 8.620598316192626953e-01 -1.332018375396728516e+00
2.440000000000000000e+02 3.356352615356445312e+01 -1.128987121582031250e+01 1.954663276672363281e+00 6.851637840270996094e+00 2.641890287399291992e+00 -3.405923128128051758e+00
2.450000000000000000e+02 3.433116149902343750e+01 -1.275843048095703125e+01 1.750463247299194336e+00 1.053520870208740234e+01 3.685701608657836914e+00 -3.851011991500854492e+00
2.460000000000000000e+02 4.465094757080078125e+01 -7.457157611846923828e+00 -1.513524293899536133e+00 3.052281141281127930e+00 4.616270363330841064e-01 -1.130159616470336914e+00
2.470000000000000000e+02 4.718777084350585938e+01 -1.672058486938476562e+01 4.766269207000732422e+00 5.765058994293212891e+00 3.159398555755615234e+00 4.764776229858398438e+00
2.480000000000000000e+02 4.664895248413085938e+01 -1.731707191467285156e+01 4.051843166351318359e+00 7.217019557952880859e+00 3.380658864974975586e+00 5.078211784362792969e+00
2.490000000000000000e+02 4.851304626464843750e+01 -1.570280456542968750e+01 6.211972236633300781e+00 2.215388298034667969e+00 2.528208255767822266e+00 2.925986051559448242e+00
2.500000000000000000e+02 4.935660552978515625e+01 -1.545841312408447266e+01 5.184782505035400391e+00 9.784625768661499023e-01 1.848973512649536133e+00 1.627536058425903320e+00
2.510000000000000000e+02 4.938953781127929688e+01 -1.459526252746582031e+01 3.758833408355712891e+00 1.630315780639648438e+00 1.616744756698608398e+00 2.130972385406494141e+00
2.520000000000000000e+02 5.037269210815429688e+01 -1.380187606811523438e+01 2.788892030715942383e+00 1.011372208595275879e+00 1.140079259872436523e+00 1.850709438323974609e+00
2.530000000000000000e+02 5.041092681884765625e+01 -5.334665298461914062e+00 -4.052571296691894531e+00 -8.797206729650497437e-02 -1.242163062095642090e+00 6.987861990928649902e-01
2.540000000000000000e+02 5.080799484252929688e+01 -6.478230953216552734e+00 -2.120947837829589844e+00 3.535386621952056885e-01 -5.302227139472961426e-01 1.979305624961853027e+00
2.550000000000000000e+02 5.107488250732421875e+01 -1.454371452331542969e+01 2.989763736724853516e+00 3.208617866039276123e-01 9.931876659393310547e-01 1.135554075241088867e+00
2.560000000000000000e+02 5.808676910400390625e+01 -1.454160499572753906e+01 -2.496832311153411865e-01 1.700366102159023285e-02 -6.980387121438980103e-02 4.722895845770835876e-02
2.570000000000000000e+02 5.497299194335937500e+01 -1.487220191955566406e+01 9.214347600936889648e-01 3.935302421450614929e-02 2.882363200187683105e-01 2.663764953613281250e-01
2.580000000000000000e+02 5.604891967773437500e+01 -5.762190818786621094e-01 1.687709927558898926e+00 2.853245019912719727e+00 1.362286448478698730e+00 2.111079692840576172e+00
2.590000000000000000e+02 5.923397827148437500e+01 3.963931083679199219e+00 1.503888607025146484e+00 3.274149894714355469e+00 1.433411478996276855e+00 2.180055618286132812e+00
2.600000000000000000e+02 5.652225875854492188e+01 6.790897995233535767e-02 1.483505010604858398e+00 3.053370237350463867e+00 1.361062526702880859e+00 2.032620906829833984e+00
2.610000000000000000e+02 5.959232711791992188e+01 -1.424282455444335938e+01 -4.822501242160797119e-01 -3.829841269180178642e-03 -1.458239853382110596e-01 -8.055365085601806641e-02
2.620000000000000000e+02 6.241780471801757812e+01 -1.296502399444580078e+01 -1.338397502899169922e+00 -2.807132601737976074e-01 -4.857332110404968262e-01 -5.186499953269958496e-01
2.630000000000000000e+02 6.314463424682617188e+01 -1.259656524658203125e+01 -2.002851963043212891e+00 -2.485326379537582397e-01 -6.754153370857238770e-01 -7.010537981986999512e-01
2.640000000000000000e+02 6.513863372802734375e+01 -1.176516342163085938e+01 -1.825037002563476562e+00 -3.102395534515380859e-01 -6.405829787254333496e-01 -1.155986711382865906e-01
2.650000000000000000e+02 6.479424285888671875e+01 -1.237300968170166016e+01 -2.702617645263671875e+00 -4.266697168350219727e-01 -9.387862086296081543e-01 4.281080961227416992e-01
2.660000000000000000e+02 7.336943817138671875e+01 -3.292295217514038086e+00 -4.778892733156681061e-03 -1.533666998147964478e-01 -4.744368046522140503e-02 -5.905839204788208008e-01
2.670000000000000000e+02 7.242385864257812500e+01 3.126741170883178711e+00 2.561478018760681152e-01 2.743341401219367981e-02 8.507436513900756836e-02 -4.088382422924041748e-01
2.680000000000000000e+02 6.616197967529296875e+01 1.201156616210937500e+01 6.017052531242370605e-01 2.906797885894775391e+00 1.052550911903381348e+00 3.291557729244232178e-01
2.690000000000000000e+02 6.666819000244140625e+01 1.587208747863769531e+01 5.514560937881469727e-01 2.510634899139404297e+00 9.186273217201232910e-01 2.863995134830474854e-01
2.700000000000000000e+02 7.444206237792968750e+01 2.592912673950195312e+01 -9.572163224220275879e-02 5.200114473700523376e-02 -1.311614550650119781e-02 4.654945433139801025e-01
2.710000000000000000e+02 7.329541015625000000e+01 3.147324943542480469e+01 -1.540417522192001343e-01 3.313187360763549805e-01 5.318310111761093140e-02 2.898635268211364746e-01
2.720000000000000000e+02 7.521299743652343750e+01 3.953367614746093750e+01 -5.766372010111808777e-02 2.423574626445770264e-01 5.540812388062477112e-02 4.426525160670280457e-02
2.730000000000000000e+02 6.217270278930664062e+01 4.115606689453125000e+01 -1.993922144174575806e-01 1.100676536560058594e+00 2.703852951526641846e-01 -9.834956377744674683e-03
2.740000000000000000e+02 6.326113891601562500e+01 2.840607261657714844e+01 -4.502946436405181885e-01 1.475065946578979492e+00 3.074313700199127197e-01 -1.793097704648971558e-01
2.750000000000000000e+02 6.031044006347656250e+01 2.203586769104003906e+01 -1.975563764572143555e-01 1.727953791618347168e+00 4.591192007064819336e-01 -9.267899990081787109e-01
2.760000000000000000e+02 6.028557205200195312e+01 2.074172782897949219e+01 9.948787093162536621e-01 1.718589305877685547e+00 8.140404224395751953e-01 -1.243742227554321289e+00
2.770000000000000000e+02 6.129502868652343750e+01 1.948244667053222656e+01 1.165131568908691406e+00 3.676882028579711914e+00 1.452604174613952637e+00 -1.882154464721679688e+00
2.780000000000000000e+02 6.231684494018554688e+01 1.840304756164550781e+01 8.767712116241455078e-01 4.974786281585693359e+00 1.755467295646667480e+00 -1.002733469009399414e+00
2.790000000000000000e+02 6.755532836914062500e+01 1.649547576904296875e+01 5.087115168571472168e-01 2.066089391708374023e+00 7.724402546882629395e-01 3.728614151477813721e-01
2.800000000000000000e+02 6.187118530273437500e+01 -1.183642196655273438e+01 -1.337268114089965820e+00 1.878544092178344727e-01 -3.448241055011749268e-01 7.694146037101745605e-02
2.810000000000000000e+02 6.971854400634765625e+01 -1.462354087829589844e+01 -3.060639500617980957e-01 4.641706123948097229e-02 -7.789406925439834595e-02 6.458641588687896729e-02
2.820000000000000000e+02 7.046976470947265625e+01 -1.456571483612060547e+01 -3.067017495632171631e-01 5.554734915494918823e-02 -7.534632086753845215e-02 2.309230342507362366e-02
2.830000000000000000e+02 7.049711608886718750e+01 -1.387446498870849609e+01 -3.786297440528869629e-01 8.846578747034072876e-02 -8.704918622970581055e-02 -6.521387258544564247e-04
2.840000000000000000e+02 7.203922271728515625e+01 -1.448956966400146484e+01 -2.548025250434875488e-01 3.586254268884658813e-02 -6.568199396133422852e-02 -3.930455446243286133e-02
2.850000000000000000e+02 7.965087890625000000e+01 -1.061678886413574219e+01 -2.719609765335917473e-03 -1.622162312269210815e-01 -4.948075115680694580e-02 -2.707871235907077789e-02
2.860000000000000000e+02 7.441566467285156250e+01 -1.377467155456542969e+01 -1.731610298156738281e-01 8.748149266466498375e-04 -5.168586596846580505e-02 -1.112498044967651367e-01
2.870000000000000000e+02 7.965028381347656250e+01 -7.433092117309570312e+00 -1.632145955227315426e-03 -5.064943432807922363e-01 -1.524379551410675049e-01 -4.462083801627159119e-02
2.880000000000000000e+02 7.894426727294921875e+01 -1.925741076469421387e+00 1.834010472521185875e-03 -1.228726625442504883e+00 -3.680678009986877441e-01 -1.625892221927642822e-01
2.890000000000000000e+02 7.407595062255859375e+01 -3.014626264572143555e+00 2.296185266459360719e-05 -2.740880846977233887e-01 -8.221953362226486206e-02 -5.718463659286499023e-01
2.900000000000000000e+02 6.897781372070312500e+01 -1.469647884368896484e+01 -2.835807502269744873e-01 1.955624110996723175e-02 -7.920735329389572144e-02 9.501913934946060181e-02
2.910000000000000000e+02 7.964441680908203125e+01 -2.468317598104476929e-01 1.744223118294030428e-04 -1.641988873481750488e+00 -4.925443530082702637e-01 -5.093123763799667358e-02
2.920000000000000000e+02 7.894527435302734375e+01 5.346930027008056641e+00 9.516345337033271790e-03 -2.089414834976196289e+00 -6.239695549011230469e-01 -8.833590149879455566e-02
2.930000000000000000e+02 7.895024108886718750e+01 6.945821762084960938e+00 1.007927861064672470e-02 -2.200445413589477539e+00 -6.571097970008850098e-01 -6.061668694019317627e-02
2.940000000000000000e+02 7.894292449951171875e+01 1.413218307495117188e+01 1.074192952364683151e-02 -2.172295808792114258e+00 -6.484661698341369629e-01 7.543476670980453491e-02
2.950000000000000000e+02 7.891069793701171875e+01 2.130956459045410156e+01 1.257359865121543407e-03 -1.415033578872680664e+00 -4.241328537464141846e-01 1.556898951530456543e-01
2.960000000000000000e+02 7.881637573242187500e+01 2.853165245056152344e+01 -8.169236592948436737e-03 -5.488402247428894043e-01 -1.671028286218643188e-01 1.237718015909194946e-01
2.970000000000000000e+02 7.890319061279296875e+01 3.566996002197265625e+01 -6.116444710642099380e-03 -9.705951809883117676e-02 -3.095278888940811157e-02 4.163330793380737305e-02
2.980000000000000000e+02 7.882069396972656250e+01 4.104205703735351562e+01 -4.891439341008663177e-03 2.119468897581100464e-02 4.890975076705217361e-03 1.117888279259204865e-02
2.990000000000000000e+02 5.776319885253906250e+01 3.846465301513671875e+01 -1.721377074718475342e-01 1.317140579223632812e+00 3.435008823871612549e-01 -2.136737108230590820e-02
3.000000000000000000e+02 5.515759658813476562e+01 2.876267242431640625e+01 2.432422153651714325e-02 8.610337972640991211e-01 2.656074166297912598e-01 -6.022945418953895569e-02
3.010000000000000000e+02 5.628103256225585938e+01 2.135439491271972656e+01 -1.134207367897033691e+00 5.453764460980892181e-03 -3.386260569095611572e-01 -2.409066110849380493e-01
3.020000000000000000e+02 5.391305541992187500e+01 2.085423278808593750e+01 -1.210164666175842285e+00 -8.673782646656036377e-02 -3.890707194805145264e-01 -2.989574968814849854e-01
3.030000000000000000e+02 5.878006744384765625e+01 2.159213447570800781e+01 -3.542651534080505371e-01 3.585317432880401611e-01 1.279981923289597034e-03 -4.629210531711578369e-01
3.040000000000000000e+02 5.961848068237304688e+01 2.129604721069335938e+01 3.210383951663970947e-01 8.617196679115295410e-01 3.548274338245391846e-01 -7.909491658210754395e-01
3.050000000000000000e+02 5.282596206665039062e+01 4.094900131225585938e+01 -2.322341054677963257e-01 1.723556399345397949e+00 4.473966956138610840e-01 3.169830888509750366e-02
3.060000000000000000e+02 4.824289703369140625e+01 4.088342285156250000e+01 -4.220899045467376709e-01 2.259091138839721680e+00 5.511003732681274414e-01 9.098738431930541992e-02
3.070000000000000000e+02 4.904332351684570312e+01 2.953927612304687500e+01 -4.249944537878036499e-02 1.595084071159362793e+00 4.657753705978393555e-01 6.040517687797546387e-01
3.080000000000000000e+02 5.039796447753906250e+01 2.090360450744628906e+01 -4.619510769844055176e-01 1.995053887367248535e-01 -7.873370498418807983e-02 1.595742851495742798e-01
3.090000000000000000e+02 5.002478408813476562e+01 1.957295036315917969e+01 -5.747709274291992188e-01 -2.649836055934429169e-02 -1.803807914257049561e-01 -1.558389514684677124e-01
3.100000000000000000e+02 5.156173706054687500e+01 2.020089340209960938e+01 -9.690243005752563477e-01 -5.985138192772865295e-02 -3.086627125740051270e-01 -2.181923836469650269e-01
3.110000000000000000e+02 5.077328872680664062e+01 1.994171905517578125e+01 -8.058385252952575684e-01 -6.782098859548568726e-02 -2.620978653430938721e-01 -1.990900784730911255e-01
3.120000000000000000e+02 4.519549942016601562e+01 3.943564987182617188e+01 -5.751520991325378418e-01 2.651263236999511719e+00 6.228333115577697754e-01 1.775749474763870239e-01
3.130000000000000000e+02 4.169315719604492188e+01 4.061084747314453125e+01 -7.824195623397827148e-01 3.062907934188842773e+00 6.841465234756469727e-01 9.507407248020172119e-02
3.140000000000000000e+02 4.728615951538085938e+01 3.027884292602539062e+01 -1.596116274595260620e-01 2.031345129013061523e+00 5.615200400352478027e-01 7.080259323120117188e-01
3.150000000000000000e+02 4.613903045654296875e+01 2.253883361816406250e+01 8.806930482387542725e-02 1.695344567298889160e+00 5.350241661071777344e-01 1.010400056838989258e+00
3.160000000000000000e+02 4.436565399169921875e+01 1.505169391632080078e+01 6.802539825439453125e-01 8.615691661834716797e-01 4.625469446182250977e-01 7.527604103088378906e-01
3.170000000000000000e+02 4.037910842895507812e+01 1.004151725769042969e+01 1.583475947380065918e+00 7.732607364654541016e+00 2.794824838638305664e+00 3.241695165634155273e+00
3.180000000000000000e+02 4.166162490844726562e+01 1.208877086639404297e+01 1.361098647117614746e+00 3.502302169799804688e+00 1.459020256996154785e+00 2.049590110778808594e+00
3.190000000000000000e+02 3.711047363281250000e+01 4.086125946044921875e+01 -9.843041300773620605e-01 3.448975563049316406e+00 7.394014000892639160e-01 3.484427183866500854e-02
3.200000000000000000e+02 4.040459442138671875e+01 3.698638534545898438e+01 -8.395512104034423828e-01 3.321182489395141602e+00 7.444893717765808105e-01 3.023081719875335693e-01
3.210000000000000000e+02 3.767568588256835938e+01 2.908325195312500000e+01 -7.490916252136230469e-01 4.327023029327392578e+00 1.073379397392272949e+00 5.244044065475463867e-01
3.220000000000000000e+02 3.397314453125000000e+01 1.526471042633056641e+01 1.086649656295776367e+00 1.108648490905761719e+01 3.651940345764160156e+00 -2.160939216613769531e+00
3.230000000000000000e+02 3.286919021606445312e+01 1.083239459991455078e+01 6.983377337455749512e-01 1.496441364288330078e+01 4.698825359344482422e+00 -3.097100496292114258e+00
3.240000000000000000e+02 3.946055221557617188e+01 6.958695411682128906e+00 4.631423652172088623e-01 1.611510467529296875e+01 4.973474025726318359e+00 1.107520818710327148e+00
3.250000000000000000e+02 4.013357925415039062e+01 -2.127688974142074585e-01 2.332184076309204102e+00 1.675651359558105469e+01 5.726609230041503906e+00 -5.622550964355468750e+00
3.260000000000000000e+02 3.968211746215820312e+01 1.352510929107666016e+00 1.451668739318847656e+00 1.897786903381347656e+01 6.128861427307128906e+00 -4.188924789428710938e+00
3.270000000000000000e+02 3.231612014770507812e+01 4.103912734985351562e+01 -9.681990146636962891e-01 3.380761384963989258e+00 7.237687110900878906e-01 -5.376696214079856873e-02
3.280000000000000000e+02 2.743537139892578125e+01 4.109770202636718750e+01 -6.969798207283020020e-01 2.781932353973388672e+00 6.254857182502746582e-01 -1.009191125631332397e-01
3.290000000000000000e+02 2.734147071838378906e+01 2.864651870727539062e+01 -2.018141448497772217e-01 3.101884365081787109e+00 8.700210452079772949e-01 -1.320862531661987305e+00
3.300000000000000000e+02 2.730015182495117188e+01 2.123800849914550781e+01 3.085023403167724609e+00 9.027602076530456543e-01 1.196335077285766602e+00 -1.643355011940002441e+00
3.310000000000000000e+02 2.752275466918945312e+01 2.204036903381347656e+01 2.460066318511962891e+00 2.369398355484008789e+00 1.448839426040649414e+00 -2.540959358215332031e+00
3.320000000000000000e+02 2.878988456726074219e+01 2.060693740844726562e+01 5.319387912750244141e+00 4.668868064880371094e+00 2.996476888656616211e+00 -4.399295330047607422e+00
3.330000000000000000e+02 2.938375282287597656e+01 2.012252998352050781e+01 4.784512996673583984e+00 7.368310451507568359e+00 3.645847082138061523e+00 -5.109882354736328125e+00
3.340000000000000000e+02 3.017328262329101562e+01 1.914580154418945312e+01 3.389450550079345703e+00 9.146068572998046875e+00 3.760655641555786133e+00 -5.002431869506835938e+00
3.350000000000000000e+02 3.107535552978515625e+01 1.698170089721679688e+01 1.938174962997436523e+00 1.216576004028320312e+01 4.231180667877197266e+00 -4.482480525970458984e+00
3.360000000000000000e+02 3.185514068603515625e+01 1.471462821960449219e+01 1.407236933708190918e+00 1.290295314788818359e+01 4.293056964874267578e+00 -4.074033260345458984e+00
3.370000000000000000e+02 3.873621749877929688e+01 3.717124938964843750e+00 8.809443116188049316e-01 1.663260459899902344e+01 5.254064559936523438e+00 -1.580389380455017090e+00
3.380000000000000000e+02 3.370491790771484375e+01 2.119893074035644531e+00 2.327217102050781250e+00 1.209411239624023438e+01 4.326398849487304688e+00 2.449797153472900391e+00
3.390000000000000000e+02 3.247117233276367188e+01 1.243741631507873535e+00 2.808483839035034180e+00 5.328402042388916016e+00 2.441065788269042969e+00 3.612802982330322266e+00
3.400000000000000000e+02 3.089990043640136719e+01 -3.053176105022430420e-01 2.103870153427124023e+00 1.437824964523315430e+00 1.062508463859558105e+00 1.243847489356994629e+00
3.410000000000000000e+02 2.255934715270996094e+01 4.116460418701171875e+01 -3.542961180210113525e-01 1.975951075553894043e+00 4.864965081214904785e-01 -9.118126332759857178e-02
3.420000000000000000e+02 2.292380332946777344e+01 2.837807083129882812e+01 2.677490413188934326e-01 1.322987556457519531e+00 4.772209823131561279e-01 -9.668241739273071289e-01
3.430000000000000000e+02 2.014763450622558594e+01 2.215549850463867188e+01 -6.697146296501159668e-01 -1.965499296784400940e-02 -2.068108767271041870e-01 -1.402700543403625488e-01
3.440000000000000000e+02 2.258346748352050781e+01 2.225850296020507812e+01 -1.607410758733749390e-01 3.851396590471267700e-02 -3.666813299059867859e-02 -1.138454452157020569e-01
3.450000000000000000e+02 2.271451950073242188e+01 2.294402122497558594e+01 1.433503627777099609e-01 1.447652727365493774e-01 8.643469214439392090e-02 -3.942055404186248779e-01
3.460000000000000000e+02 1.782015800476074219e+01 4.121136093139648438e+01 -6.468519568443298340e-02 1.160182118415832520e+00 3.286490738391876221e-01 -5.797733739018440247e-02
3.470000000000000000e+02 1.842590332031250000e+01 3.618013763427734375e+01 -1.239358820021152496e-02 1.126929402351379395e+00 3.343607485294342041e-01 -2.435359209775924683e-01
3.480000000000000000e+02 1.776221847534179688e+01 2.173609924316406250e+01 -6.817686557769775391e-01 -5.872798711061477661e-02 -2.221489846706390381e-01 -1.770689338445663452e-01
3.490000000000000000e+02 1.594961452484130859e+01 2.084872627258300781e+01 -4.518179297447204590e-01 -1.724531799554824829e-01 -1.872813403606414795e-01 -2.158908098936080933e-01
3.500000000000000000e+02 1.542734622955322266e+01 2.030095863342285156e+01 -2.596627175807952881e-01 -1.641389876604080200e-01 -1.271405071020126343e-01 -2.010499089956283569e-01
3.510000000000000000e+02 1.039969825744628906e+01 3.984013366699218750e+01 5.688535422086715698e-02 2.871716618537902832e-01 1.032171100378036499e-01 4.587793257087469101e-03
3.520000000000000000e+02 6.346469879150390625e+00 3.010404586791992188e+01 2.037518844008445740e-02 -3.785490617156028748e-02 -5.243915598839521408e-03 1.094353646039962769e-01
3.530000000000000000e+02 1.208745479583740234e+01 2.159577178955078125e+01 -1.881720125675201416e-01 8.193436264991760254e-02 -3.187129646539688110e-02 3.055505827069282532e-02
3.540000000000000000e+02 1.384729290008544922e+01 1.682019042968750000e+01 -6.908622570335865021e-03 -1.014334615319967270e-02 -5.115590523928403854e-03 -1.247065607458353043e-02
3.550000000000000000e+02 1.440354442596435547e+01 1.072177505493164062e+01 -6.844725576229393482e-04 4.300862550735473633e-03 1.084916992112994194e-03 1.058031804859638214e-03
3.560000000000000000e+02 1.154753327369689941e+00 5.853730678558349609e+00 1.322064636042341590e-04 1.773919677361845970e-03 5.718378233723342419e-04 -8.054351783357560635e-04
3.570000000000000000e+02 1.030308818817138672e+01 1.861830115318298340e+00 1.314127584919333458e-03 -1.500836951890960336e-04 3.492131654638797045e-04 2.977623662445694208e-04
3.580000000000000000e+02 1.105422973632812500e+01 1.863124370574951172e+00 1.127945608459413052e-03 -1.238079858012497425e-04 3.012412926182150841e-04 4.348396323621273041e-04
3.590000000000000000e+02 1.094594860076904297e+01 2.576118230819702148e+00 1.068952726200222969e-03 -1.946901757037267089e-04 2.622787724249064922e-04 4.838630557060241699e-04
3.600000000000000000e+02 1.766339874267578125e+01 7.798240184783935547e+00 -1.807067310437560081e-04 7.001210469752550125e-04 1.558242802275344729e-04 -4.150094464421272278e-04
3.610000000000000000e+02 2.067328643798828125e+01 3.784118413925170898e+00 -3.281905446783639491e-05 -9.694225445855408907e-05 -3.892839231411926448e-05 -4.578024527290835977e-05
3.620000000000000000e+02 2.295379066467285156e+01 3.143544912338256836e+00 1.802585939003620297e-05 4.863922367803752422e-05 1.999952473852317780e-05 9.166141353489365429e-06
3.630000000000000000e+02 1.388587236404418945e+00 3.724519348144531250e+01 1.155828824266791344e-03 -3.987717330455780029e-01 -1.192847713828086853e-01 2.369264699518680573e-02
3.640000000000000000e+02 1.211421012878417969e+00 3.879828262329101562e+01 3.047164063900709152e-03 -4.317851662635803223e-01 -1.286213994026184082e-01 6.958050653338432312e-03
3.650000000000000000e+02 2.134804010391235352e+00 3.550222015380859375e+01 7.019300479441881180e-03 -3.074412941932678223e-01 -9.012660384178161621e-02 3.896046057343482971e-02
3.660000000000000000e+02 1.202462315559387207e+00 2.926770210266113281e+01 -7.936038891784846783e-04 -2.402207851409912109e-01 -7.230431586503982544e-02 3.653830662369728088e-02
3.670000000000000000e+02 3.660685122013092041e-01 2.038868904113769531e+01 -6.004518945701420307e-04 -3.122162260115146637e-02 -9.546622633934020996e-03 5.583688616752624512e-03
3.680000000000000000e+02 1.089298725128173828e+00 1.555836486816406250e+01 -7.854768773540854454e-04 2.530775964260101318e-03 5.235897260718047619e-04 2.564400434494018555e-03
3.690000000000000000e+02 1.137226343154907227e+00 8.290900230407714844e+00 -2.069694346573669463e-05 3.356661647558212280e-03 1.000789343379437923e-03 -1.040222588926553726e-03
3.700000000000000000e+02 1.691546821594238281e+01 2.040838241577148438e+00 9.699225483927875757e-05 5.607340426649898291e-05 4.591969991452060640e-05 2.487097517587244511e-04
3.710000000000000000e+02 1.669185829162597656e+01 3.336195945739746094e+00 -1.546649764350149781e-05 2.018247905652970076e-04 5.590749060502275825e-05 3.875372349284589291e-04
3.720000000000000000e+02 1.607575225830078125e+01 1.069555091857910156e+01 1.417517545633018017e-03 4.312099423259496689e-03 1.718885148875415325e-03 -1.613191212527453899e-03
3.730000000000000000e+02 1.531666946411132812e+01 1.215823554992675781e+01 1.433849683962762356e-03 9.910090826451778412e-03 3.403182141482830048e-03 -2.227661898359656334e-03
3.740000000000000000e+02 1.564547348022460938e+01 1.140028381347656250e+01 6.716597708873450756e-04 7.061842828989028931e-03 2.320050727576017380e-03 -2.616679295897483826e-03
3.750000000000000000e+02 1.486761760711669922e+01 1.374630260467529297e+01 1.113773090764880180e-03 1.498823519796133041e-02 4.830602556467056274e-03 -2.427948173135519028e-03
3.760000000000000000e+02 1.455167102813720703e+01 1.777401924133300781e+01 -2.497578272596001625e-03 -1.328171975910663605e-02 -4.733789246529340744e-03 -1.051533967256546021e-02
3.770000000000000000e+02 1.425101566314697266e+01 1.931455230712890625e+01 -1.230621859431266785e-01 -7.045568525791168213e-02 -5.805536359548568726e-02 -9.081045538187026978e-02
3.780000000000000000e+02 1.858704566955566406e+01 2.279403877258300781e+01 -4.159461855888366699e-01 -4.038676619529724121e-02 -1.368998885154724121e-01 -1.165719777345657349e-01
3.790000000000000000e+02 1.854884910583496094e+01 2.189197921752929688e+01 -7.093248963356018066e-01 -4.792037978768348694e-02 -2.271735966205596924e-01 -1.649011075496673584e-01
3.800000000000000000e+02 2.117322158813476562e+01 -1.082113385200500488e+00 -5.079349279403686523e-01 8.007041364908218384e-02 -1.283593475818634033e-01 2.744424343109130859e-01
3.810000000000000000e+02 1.088057875633239746e+00 -1.788833427429199219e+01 1.540543604642152786e-02 -1.805544018745422363e+00 -5.370415449142456055e-01 -1.232836674898862839e-02
3.820000000000000000e+02 3.702454566955566406e-01 -2.277418518066406250e+01 2.281266497448086739e-03 -1.883015155792236328e+00 -5.642201304435729980e-01 3.415021672844886780e-02
3.830000000000000000e+02 6.471071720123291016e+00 -3.022890281677246094e+01 -1.062964498996734619e-01 -5.405059084296226501e-02 -4.810411110520362854e-02 2.697215974330902100e-01
3.840000000000000000e+02 1.753561019897460938e+01 -4.097587966918945312e+01 7.461746223270893097e-03 6.242519617080688477e-01 1.895141005516052246e-01 -4.445388913154602051e-02
3.850000000000000000e+02 2.542982101440429688e+01 -3.849847030639648438e+01 1.268926113843917847e-01 1.216946005821228027e+00 4.031516015529632568e-01 1.617571264505386353e-01
3.860000000000000000e+02 3.053999710083007812e+01 -3.714813995361328125e+01 -2.402352839708328247e-01 2.663717508316040039e+00 7.270446419715881348e-01 6.119654774665832520e-01
3.870000000000000000e+02 4.115648651123046875e+01 -3.784027481079101562e+01 -1.348588347434997559e+00 5.537075519561767578e+00 1.256546139717102051e+00 3.170565003529191017e-03
3.880000000000000000e+02 4.534929656982421875e+01 -3.950293731689453125e+01 -1.238716721534729004e+00 4.954721927642822266e+00 1.114801526069641113e+00 -3.163971602916717529e-01
3.890000000000000000e+02 4.971553039550781250e+01 -3.826978302001953125e+01 -5.127722620964050293e-01 3.276252746582031250e+00 8.290441632270812988e-01 -7.520766258239746094e-01
3.900000000000000000e+02 5.159080123901367188e+01 -3.596725845336914062e+01 -9.681335836648941040e-02 2.406916141510009766e+00 6.930308341979980469e-01 -1.063346505165100098e+00
3.910000000000000000e+02 1.135440111160278320e+00 -2.672275352478027344e+01 -2.523892617318779230e-04 -1.296337723731994629e+00 -3.889770507812500000e-01 1.177445650100708008e-01
3.920000000000000000e+02 3.931196033954620361e-01 -3.000408744812011719e+01 -1.728692557662725449e-03 -1.133713960647583008e+00 -3.406327962875366211e-01 3.713317960500717163e-02
3.930000000000000000e+02 9.040326118469238281e+00 -3.675875854492187500e+01 -1.470817178487777710e-01 1.597943156957626343e-01 3.813782008364796638e-03 5.944877117872238159e-02
3.940000000000000000e+02 1.705135917663574219e+01 -3.794140625000000000e+01 -5.498843640089035034e-02 6.143170595169067383e-01 1.677985787391662598e-01 -1.453792154788970947e-01
3.950000000000000000e+02 1.288731694221496582e+00 -3.479474258422851562e+01 -2.967923646792769432e-03 -7.125200629234313965e-01 -2.146463990211486816e-01 6.142728775739669800e-02
3.960000000000000000e+02 3.693271577358245850e-01 -3.642198944091796875e+01 -8.698527701199054718e-03 -7.204954028129577637e-01 -2.187581807374954224e-01 1.268780697137117386e-02
3.970000000000000000e+02 6.026568889617919922e+00 -3.988552093505859375e+01 -7.839547842741012573e-02 -1.409860700368881226e-01 -6.581446528434753418e-02 5.666069686412811279e-02
3.980000000000000000e+02 1.981632113456726074e+00 -4.089730072021484375e+01 1.908749458380043507e-03 -5.468392968177795410e-01 -1.634791642427444458e-01 8.415330201387405396e-03
3.990000000000000000e+02 7.873659515380859375e+01 -3.726962280273437500e+01 1.776420394890010357e-03 -1.335202902555465698e-01 -3.952316194772720337e-02 1.803284138441085815e-02
4.000000000000000000e+02 7.877336883544921875e+01 -3.806131744384765625e+01 3.691347315907478333e-03 -1.445520073175430298e-01 -4.225819557905197144e-02 1.483674068003892899e-02
4.010000000000000000e+02 7.866178131103515625e+01 -3.570221328735351562e+01 2.714428119361400604e-04 -1.116612404584884644e-01 -3.341693803668022156e-02 2.189042977988719940e-02
4.020000000000000000e+02 3.515013885498046875e+01 -1.593486881256103516e+01 5.718752741813659668e-01 1.184690856933593750e+01 3.725635051727294922e+00 -1.853945612907409668e+00
4.030000000000000000e+02 3.534336090087890625e+01 -1.836869239807128906e+01 1.599948704242706299e-01 1.001433372497558594e+01 3.052298784255981445e+00 -6.447396874427795410e-01
4.040000000000000000e+02 3.483074569702148438e+01 -2.321840286254882812e+01 1.449142813682556152e+00 8.747918128967285156e+00 3.059118270874023438e+00 2.842963457107543945e+00
4.050000000000000000e+02 3.449113082885742188e+01 -2.397343635559082031e+01 2.134259939193725586e+00 7.110448837280273438e+00 2.773412704467773438e+00 3.358897924423217773e+00
4.060000000000000000e+02 3.417888259887695312e+01 -2.574268722534179688e+01 1.414745926856994629e+00 4.832334995269775391e+00 1.874124288558959961e+00 2.353791475296020508e+00
4.070000000000000000e+02 1.825453186035156250e+01 -1.205755996704101562e+01 2.430190563201904297e+00 6.012763381004333496e-01 9.094401001930236816e-01 9.512832164764404297e-01
4.080000000000000000e+02 6.316726303100585938e+01 1.818093681335449219e+01 7.244722247123718262e-01 4.085152626037597656e+00 1.442887425422668457e+00 -3.338727653026580811e-01
4.090000000000000000e+02 6.202672576904296875e+01 1.218195533752441406e+01 1.134503707289695740e-01 5.778571128845214844e+00 1.767606377601623535e+00 5.642216205596923828e-01
4.100000000000000000e+02 6.171384048461914062e+01 9.819676399230957031e+00 3.559697568416595459e-01 5.991954803466796875e+00 1.904377341270446777e+00 1.161441326141357422e+00
4.110000000000000000e+02 6.157458877563476562e+01 5.415221214294433594e+00 1.110332131385803223e+00 4.024040699005126953e+00 1.540311813354492188e+00 1.417652487754821777e+00
4.120000000000000000e+02 5.968988037109375000e+01 4.621641635894775391e+00 1.545361995697021484e+00 3.675941944122314453e+00 1.566391229629516602e+00 2.330390930175781250e+00
4.130000000000000000e+02 6.159709930419921875e+01 1.453421592712402344e+00 7.344845533370971680e-01 2.586293220520019531e+00 9.962333440780639648e-01 9.695178270339965820e-01
4.140000000000000000e+02 6.020599365234375000e+01 -1.600731849670410156e+00 6.310091614723205566e-01 1.993134617805480957e+00 7.872431278228759766e-01 9.483049511909484863e-01
4.150000000000000000e+02 5.380956649780273438e+01 -3.911057949066162109e+00 7.645420432090759277e-01 1.752156615257263184e+00 7.550095915794372559e-01 1.342899441719055176e+00
4.160000000000000000e+02 5.434931182861328125e+01 -3.346209526062011719e+00 1.033138275146484375e+00 1.902884006500244141e+00 8.808066844940185547e-01 1.470347285270690918e+00
4.170000000000000000e+02 3.940589904785156250e+01 6.154776573181152344e+00 2.919965982437133789e-01 1.624237251281738281e+01 4.960310935974121094e+00 2.714252769947052002e-01
4.180000000000000000e+02 4.554314804077148438e+01 1.611761856079101562e+01 4.430516362190246582e-01 5.336853861808776855e-01 2.930211126804351807e-01 4.846361875534057617e-01
4.190000000000000000e+02 4.450524139404296875e+01 1.710837173461914062e+01 5.456239581108093262e-01 1.468832612037658691e+00 6.043369770050048828e-01 9.415534734725952148e-01
4.200000000000000000e+02 6.795661926269531250e+01 -2.191307067871093750e+01 -1.321424497291445732e-03 4.733376204967498779e-03 1.023585558868944645e-03 1.335581531748175621e-03
4.210000000000000000e+02 6.755747985839843750e+01 -2.261961936950683594e+01 -3.333282656967639923e-03 1.176954712718725204e-03 -6.468983483500778675e-04 -2.682514721527695656e-03
4.220000000000000000e+02 6.693118286132812500e+01 -2.937734603881835938e+01 -1.381377130746841431e-01 4.855294153094291687e-02 -2.687543258070945740e-02 4.754184558987617493e-02
4.230000000000000000e+02 6.794511413574218750e+01 -2.870223617553710938e+01 -1.137948706746101379e-01 3.915972262620925903e-02 -2.239054441452026367e-02 3.228921070694923401e-02
4.240000000000000000e+02 4.587713623046875000e+01 -2.452378845214843750e+01 2.022874832153320312e+00 1.556887912750244141e+01 5.277525901794433594e+00 -4.193622589111328125e+00
4.250000000000000000e+02 5.653811264038085938e+01 -1.470535182952880859e+01 2.292749881744384766e-01 2.891601249575614929e-02 7.745730131864547729e-02 1.531609892845153809e-01
4.260000000000000000e+02 5.026011276245117188e+01 -1.459576416015625000e+01 3.620037794113159180e+00 6.175547838211059570e-01 1.271277785301208496e+00 1.598057150840759277e+00
4.270000000000000000e+02 3.596263885498046875e+01 -1.755733871459960938e+01 4.274834990501403809e-01 1.027638435363769531e+01 3.211160182952880859e+00 -1.211399912834167480e+00
4.280000000000000000e+02 4.044350814819335938e+01 -9.746421575546264648e-01 3.503560781478881836e+00 1.539001178741455078e+01 5.668071746826171875e+00 -6.333926200866699219e+00
4.290000000000000000e+02 2.937525177001953125e+01 -8.794199228286743164e-01 1.483318805694580078e+00 3.588548600673675537e-01 5.526521205902099609e-01 6.367949843406677246e-01
4.300000000000000000e+02 2.935164833068847656e+01 -2.706262469291687012e-02 1.036622643470764160e+00 -4.713476169854402542e-03 3.095727562904357910e-01 1.063784509897232056e-01
4.310000000000000000e+02 2.350481033325195312e+01 -5.143959522247314453e-01 -1.221474856138229370e-01 3.524263575673103333e-02 -2.607145532965660095e-02 2.360349297523498535e-01
4.320000000000000000e+02 1.302107906341552734e+01 -1.291580390930175781e+01 7.515615820884704590e-01 1.608509421348571777e+00 7.080212831497192383e-01 1.270431280136108398e-01
4.330000000000000000e+02 1.030125713348388672e+01 -2.547612428665161133e+00 -7.870967984199523926e-01 4.713822901248931885e-02 -2.219875603914260864e-01 -3.048242032527923584e-01
4.340000000000000000e+02 1.355158805847167969e+01 -1.346535396575927734e+01 8.537614941596984863e-01 1.895584344863891602e+00 8.248037695884704590e-01 3.215909898281097412e-01
4.350000000000000000e+02 1.302101707458496094e+01 -1.817265892028808594e+01 4.140893816947937012e-01 2.807582855224609375e+00 9.665017127990722656e-01 1.194962412118911743e-01
4.360000000000000000e+02 1.456569099426269531e+01 -1.810067939758300781e+01 4.003779217600822449e-02 3.751669406890869141e+00 1.137512207031250000e+00 6.185296177864074707e-02
4.370000000000000000e+02 6.051028823852539062e+01 6.008254051208496094e+00 1.300750970840454102e+00 5.403377056121826172e+00 2.011238336563110352e+00 2.297534227371215820e+00
4.380000000000000000e+02 7.367104339599609375e+01 3.977435588836669922e+00 2.108460217714309692e-01 -3.103632926940917969e-01 -2.985518239438533783e-02 -3.679950535297393799e-01
4.390000000000000000e+02 6.193810272216796875e+01 1.139353561401367188e+01 7.238214462995529175e-02 5.635803699493408203e+00 1.712455749511718750e+00 6.384304165840148926e-01
4.400000000000000000e+02 7.401840972900390625e+01 9.810419082641601562e+00 2.612429261207580566e-01 -3.907589018344879150e-01 -3.885479643940925598e-02 4.609600291587412357e-04
4.410000000000000000e+02 7.894536590576171875e+01 1.333525848388671875e+01 1.004228834062814713e-02 -2.218245983123779297e+00 -6.624611020088195801e-01 6.135977804660797119e-02
4.420000000000000000e+02 6.118242263793945312e+01 2.258272361755371094e+01 -3.572777807712554932e-01 2.167420864105224609e+00 5.430428981781005859e-01 -7.247042059898376465e-01
4.430000000000000000e+02 7.291238403320312500e+01 2.548939514160156250e+01 -1.361473798751831055e-01 3.611227869987487793e-01 6.749262660741806030e-02 5.159589052200317383e-01
4.440000000000000000e+02 3.300080490112304688e+01 1.584649085998535156e+01 1.278990030288696289e+00 1.131355381011962891e+01 3.777763366699218750e+00 -2.917020797729492188e+00
4.450000000000000000e+02 3.270739364624023438e+01 1.161612892150878906e+01 7.266660928726196289e-01 1.486663436889648438e+01 4.677989959716796875e+00 -3.190206289291381836e+00
4.460000000000000000e+02 7.891562652587890625e+01 2.051454544067382812e+01 2.070800866931676865e-03 -1.518213033676147461e+00 -4.548426568508148193e-01 1.521612554788589478e-01
4.470000000000000000e+02 6.326639938354492188e+01 3.040001487731933594e+01 -3.796834349632263184e-01 1.319523453712463379e+00 2.819520235061645508e-01 -1.286783069372177124e-01
4.480000000000000000e+02 7.426515197753906250e+01 3.064167022705078125e+01 -1.198727265000343323e-01 1.766948103904724121e-01 1.704662479460239410e-02 3.136758208274841309e-01
4.490000000000000000e+02 5.707027816772460938e+01 2.150930213928222656e+01 -1.134096860885620117e+00 -7.377211749553680420e-02 -3.623606860637664795e-01 -2.789451777935028076e-01
4.500000000000000000e+02 4.633115005493164062e+01 2.335884857177734375e+01 5.951747298240661621e-02 1.727078318595886230e+00 5.359787344932556152e-01 1.017004847526550293e+00
4.510000000000000000e+02 3.398778915405273438e+01 2.328666687011718750e+01 2.437566174194216728e-03 6.317510604858398438e+00 1.895984411239624023e+00 -3.172311782836914062e-01
4.520000000000000000e+02 1.267132472991943359e+01 2.366187667846679688e+01 -1.460811793804168701e-01 1.016111299395561218e-01 -1.334101241081953049e-02 8.446110785007476807e-02
4.530000000000000000e+02 1.223627948760986328e+01 1.716602325439453125e+01 -4.140812531113624573e-02 -5.695744883269071579e-03 -1.413116045296192169e-02 -2.860755100846290588e-02
4.540000000000000000e+02 1.114846825599670410e+00 2.359288978576660156e+01 -1.692590885795652866e-03 -9.214899688959121704e-02 -2.815247699618339539e-02 2.792165614664554596e-02
4.550000000000000000e+02 7.881976318359375000e+01 2.772697639465332031e+01 -6.579027976840734482e-03 -6.285306811332702637e-01 -1.905329078435897827e-01 1.301056295633316040e-01
4.560000000000000000e+02 5.957464218139648438e+01 2.914090538024902344e+01 -2.263259738683700562e-01 1.160570263862609863e+00 2.802732884883880615e-01 -3.364571630954742432e-01
4.570000000000000000e+02 4.805609512329101562e+01 3.220987701416015625e+01 -1.820032447576522827e-01 1.973899245262145996e+00 5.375688076019287109e-01 5.557179450988769531e-01
4.580000000000000000e+02 4.582104110717773438e+01 3.307160568237304688e+01 -3.693283200263977051e-01 2.463810205459594727e+00 6.283445954322814941e-01 5.961964130401611328e-01
4.590000000000000000e+02 3.766445159912109375e+01 3.268307876586914062e+01 -9.102041721343994141e-01 3.899879217147827148e+00 8.969025015830993652e-01 3.277923762798309326e-01
4.600000000000000000e+02 3.063620376586914062e+01 2.871236801147460938e+01 -6.459243297576904297e-01 4.294540405273437500e+00 1.094584822654724121e+00 -9.297019243240356445e-01
4.610000000000000000e+02 1.895498847961425781e+01 3.018573379516601562e+01 2.204957157373428345e-01 7.326105833053588867e-01 2.859318852424621582e-01 -4.429167509078979492e-01
4.620000000000000000e+02 5.726638793945312500e+00 3.247757720947265625e+01 3.544839099049568176e-02 -6.950776278972625732e-02 -1.021781004965305328e-02 8.938687294721603394e-02
4.630000000000000000e+02 1.196178674697875977e+00 3.007825279235839844e+01 2.321331063285470009e-03 -2.622109949588775635e-01 -7.796689867973327637e-02 3.548818826675415039e-02
4.640000000000000000e+02 7.883154296875000000e+01 3.491996002197265625e+01 -4.413341172039508820e-03 -1.257978528738021851e-01 -3.906335681676864624e-02 5.081645399332046509e-02
4.650000000000000000e+02 1.382481575012207031e+01 1.016590785980224609e+01 -8.623650646768510342e-04 2.085325075313448906e-03 3.668880090117454529e-04 2.040748251602053642e-03
4.660000000000000000e+02 3.345876312255859375e+01 6.877101421356201172e+00 2.321255505084991455e-01 1.585881805419921875e+01 4.827282905578613281e+00 -1.286743640899658203e+00
4.670000000000000000e+02 3.007451629638671875e+01 -8.237240314483642578e-01 1.577578067779541016e+00 9.064397215843200684e-01 7.452053427696228027e-01 9.889765381813049316e-01
4.680000000000000000e+02 3.842083740234375000e+01 1.118000268936157227e+00 2.023665666580200195e+00 1.518821239471435547e+01 5.163563251495361328e+00 -2.648330688476562500e+00
4.690000000000000000e+02 1.378661060333251953e+01 -1.812971115112304688e+01 2.381387352943420410e-01 3.364339590072631836e+00 1.080743432044982910e+00 1.080992147326469421e-01
4.700000000000000000e+02 1.351093387603759766e+01 -2.423962211608886719e+01 1.229937821626663208e-01 1.682284951210021973e+00 5.415836572647094727e-01 -1.392608433961868286e-01
4.710000000000000000e+02 1.874326705932617188e+01 -2.571739387512207031e+01 5.623561143875122070e-01 6.634762883186340332e-01 3.677497208118438721e-01 -6.019870638847351074e-01
4.720000000000000000e+02 2.050994873046875000e+01 -3.037670326232910156e+01 -2.385156303644180298e-01 5.955430269241333008e-01 1.071082204580307007e-01 -4.015890657901763916e-01
4.730000000000000000e+02 2.102608108520507812e+01 -2.903323936462402344e+01 -1.921095699071884155e-01 4.374309182167053223e-01 7.359640300273895264e-02 -2.492395341396331787e-01
4.740000000000000000e+02 7.153548240661621094e+00 -3.274008560180664062e+01 -1.358403563499450684e-01 1.464540231972932816e-02 -3.635848686099052429e-02 1.909483373165130615e-01
4.750000000000000000e+02 1.835429191589355469e+01 -3.186042594909667969e+01 -2.179388850927352905e-01 7.603046894073486328e-01 1.627097427845001221e-01 -3.514515757560729980e-01
4.760000000000000000e+02 2.355253028869628906e+01 -3.005942726135253906e+01 -5.772039890289306641e-01 7.106262445449829102e-02 -1.518424153327941895e-01 -9.687151014804840088e-02
4.770000000000000000e+02 3.316650390625000000e+01 -3.750869369506835938e+01 -5.903474092483520508e-01 3.651560783386230469e+00 9.183639883995056152e-01 7.360671162605285645e-01
4.780000000000000000e+02 3.496488189697265625e+01 -3.106582641601562500e+01 -1.505941003561019897e-01 4.634385108947753906e+00 1.345137238502502441e+00 1.363671183586120605e+00
4.790000000000000000e+02 4.732630920410156250e+01 -3.028763580322265625e+01 6.216102242469787598e-01 5.689951896667480469e+00 1.893468618392944336e+00 -2.265425682067871094e+00
4.800000000000000000e+02 6.857214355468750000e+01 -1.847106361389160156e+01 7.128781871870160103e-04 1.922121387906372547e-03 7.904998492449522018e-04 1.498115598224103451e-04
4.810000000000000000e+02 7.172821807861328125e+01 -2.068628883361816406e+01 -3.780474653467535973e-03 -1.878027687780559063e-03 -1.697550644166767597e-03 7.086912519298493862e-04
4.820000000000000000e+02 7.099710845947265625e+01 -1.918871307373046875e+01 5.304089791025035083e-05 -1.242241938598453999e-03 -3.567603125702589750e-04 1.589165534824132919e-03
4.830000000000000000e+02 6.759320831298828125e+01 -2.478209304809570312e+01 -4.152531921863555908e-02 3.579491516575217247e-03 -1.138374861329793930e-02 -1.424101181328296661e-02
4.840000000000000000e+02 6.656024932861328125e+01 -2.388946151733398438e+01 -1.639375090599060059e-02 -7.783786859363317490e-03 -7.253261283040046692e-03 -1.292495243251323700e-02
4.850000000000000000e+02 6.435601043701171875e+01 -2.622306060791015625e+01 -7.295566797256469727e-02 -3.976615890860557556e-02 -3.381654992699623108e-02 -5.621517822146415710e-02
4.860000000000000000e+02 6.321835708618164062e+01 -2.737137985229492188e+01 -1.671022772789001465e-01 -7.615771889686584473e-02 -7.297799736261367798e-02 -1.110159680247306824e-01
4.870000000000000000e+02 6.310934829711914062e+01 -2.854059791564941406e+01 -2.928357720375061035e-01 -1.256239693611860275e-02 -9.161944687366485596e-02 -6.810557842254638672e-02
4.880000000000000000e+02 6.371016311645507812e+01 -2.795696449279785156e+01 -2.239354699850082397e-01 -1.493439264595508575e-02 -7.166095823049545288e-02 -6.901925802230834961e-02
4.890000000000000000e+02 6.125894165039062500e+01 -2.880168342590332031e+01 -4.884343147277832031e-01 -8.484106510877609253e-02 -1.719826161861419678e-01 -1.708299368619918823e-01
4.900000000000000000e+02 5.735354995727539062e+01 -3.015257644653320312e+01 -1.002704977989196777e+00 -5.150208622217178345e-02 -3.162620961666107178e-01 -1.615594476461410522e-01
4.910000000000000000e+02 5.816442489624023438e+01 -2.997263717651367188e+01 -8.705930709838867188e-01 -3.751245886087417603e-02 -2.724316716194152832e-01 -1.664524376392364502e-01
4.920000000000000000e+02 5.653723907470703125e+01 -3.028483581542968750e+01 -1.104654312133789062e+00 -5.141013860702514648e-02 -3.468193411827087402e-01 -1.231761798262596130e-01
4.930000000000000000e+02 5.487573623657226562e+01 -3.042247390747070312e+01 -9.890295863151550293e-01 1.377902273088693619e-02 -2.925751805305480957e-01 -8.181312680244445801e-02
4.940000000000000000e+02 5.320916748046875000e+01 -3.038244056701660156e+01 -5.504912137985229492e-01 9.489317238330841064e-02 -1.366794258356094360e-01 -1.818869560956954956e-01
4.950000000000000000e+02 5.238343429565429688e+01 -3.027383995056152344e+01 -1.724399626255035400e-01 1.509690731763839722e-01 -6.441268138587474823e-03 -3.161324560642242432e-01
4.960000000000000000e+02 5.300378036499023438e+01 -3.151566314697265625e+01 2.870300970971584320e-02 3.937259614467620850e-01 1.267286986112594604e-01 -6.297041773796081543e-01
4.970000000000000000e+02 5.000760650634765625e+01 -2.949935531616210938e+01 1.965371847152709961e+00 1.399971365928649902e+00 1.009602904319763184e+00 -1.594159960746765137e+00
4.980000000000000000e+02 4.926123809814453125e+01 -2.909893798828125000e+01 2.700360059738159180e+00 2.470195055007934570e+00 1.551166534423828125e+00 -2.384938240051269531e+00
4.990000000000000000e+02 4.794109344482421875e+01 -2.804440689086914062e+01 3.360254764556884766e+00 5.011695861816406250e+00 2.511585235595703125e+00 -3.844249963760375977e+00
5.000000000000000000e+02 4.692311477661132812e+01 -2.673590087890625000e+01 3.808550834655761719e+00 8.971918106079101562e+00 3.834140777587890625e+00 -5.275372982025146484e+00
5.010000000000000000e+02 4.560192871093750000e+01 -2.291365814208984375e+01 4.320896565914154053e-01 1.512970352172851562e+01 4.668538093566894531e+00 -9.527916908264160156e-01
5.020000000000000000e+02 4.558172988891601562e+01 -2.053524589538574219e+01 -1.218044199049472809e-02 1.357539939880371094e+01 4.068965911865234375e+00 1.288025826215744019e-01
5.030000000000000000e+02 4.552691268920898438e+01 -1.978427505493164062e+01 9.166213274002075195e-01 1.499259757995605469e+01 4.772765636444091797e+00 1.164538264274597168e+00
5.040000000000000000e+02 4.614142990112304688e+01 -1.792986679077148438e+01 3.887306451797485352e+00 1.120856571197509766e+01 4.528761386871337891e+00 5.630910873413085938e+00
5.050000000000000000e+02 4.779168319702148438e+01 -1.617172050476074219e+01 5.989398002624511719e+00 4.167068958282470703e+00 3.046940088272094727e+00 4.303499698638916016e+00
5.060000000000000000e+02 5.102286148071289062e+01 -1.530972957611083984e+01 3.129913330078125000e+00 1.785374283790588379e-01 9.925352334976196289e-01 7.290273308753967285e-01
5.070000000000000000e+02 5.181281280517578125e+01 -1.520056056976318359e+01 2.765727996826171875e+00 1.433399766683578491e-01 8.727203607559204102e-01 6.397527456283569336e-01
5.080000000000000000e+02 5.260392379760742188e+01 -1.509903907775878906e+01 2.355040550231933594e+00 1.424397081136703491e-01 7.492440938949584961e-01 5.240836143493652344e-01
5.090000000000000000e+02 5.418706512451171875e+01 -1.494610214233398438e+01 1.351123452186584473e+00 6.903362274169921875e-02 4.260471165180206299e-01 3.253044486045837402e-01
5.100000000000000000e+02 5.575576400756835938e+01 -1.478760910034179688e+01 5.639378428459167480e-01 6.388996541500091553e-02 1.883483529090881348e-01 2.152659744024276733e-01
5.110000000000000000e+02 5.731636428833007812e+01 -1.462853336334228516e+01 -5.093516781926155090e-02 4.055343940854072571e-02 -3.114518942311406136e-03 9.632536768913269043e-02
5.120000000000000000e+02 6.031999588012695312e+01 -1.399482631683349609e+01 -5.887917876243591309e-01 -3.642575175035744905e-04 -1.767468154430389404e-01 -1.790297031402587891e-01
5.130000000000000000e+02 6.102980041503906250e+01 -1.369641494750976562e+01 -7.277206778526306152e-01 -9.418907761573791504e-02 -2.465729266405105591e-01 -2.529253065586090088e-01
5.140000000000000000e+02 6.078097152709960938e+01 -1.305388259887695312e+01 -8.190749883651733398e-01 1.202036142349243164e-01 -2.096614241600036621e-01 -1.303512752056121826e-01
5.150000000000000000e+02 6.676490020751953125e+01 -1.359737586975097656e+01 -6.529982089996337891e-01 -2.478605359792709351e-01 -2.702576220035552979e-01 4.188830256462097168e-01
5.160000000000000000e+02 6.616912078857421875e+01 -1.315199470520019531e+01 -1.098105669021606445e+00 -3.423106074333190918e-01 -4.321248829364776611e-01 4.950465261936187744e-01
5.170000000000000000e+02 6.789212036132812500e+01 -1.442060375213623047e+01 -2.969173789024353027e-01 -7.083681225776672363e-02 -1.103262528777122498e-01 1.641893386840820312e-01
5.180000000000000000e+02 6.730799865722656250e+01 -1.407058811187744141e+01 -4.016133844852447510e-01 -1.853976249694824219e-01 -1.761033087968826294e-01 2.440422475337982178e-01
5.190000000000000000e+02 7.282739257812500000e+01 -1.445505237579345703e+01 -2.231387048959732056e-01 2.391548827290534973e-02 -5.976696684956550598e-02 -6.010758131742477417e-02
5.200000000000000000e+02 7.360912322998046875e+01 -1.444603919982910156e+01 -1.904176324605941772e-01 1.125453505665063858e-02 -5.374892801046371460e-02 -7.518626749515533447e-02
5.210000000000000000e+02 7.514795684814453125e+01 -1.448325538635253906e+01 -1.236166059970855713e-01 -6.180895492434501648e-03 -3.893925249576568604e-02 -7.614845782518386841e-02
5.220000000000000000e+02 7.438059234619140625e+01 -1.446281147003173828e+01 -1.555513590574264526e-01 1.279901829548180103e-03 -4.628143832087516785e-02 -7.913062721490859985e-02
5.230000000000000000e+02 7.591182708740234375e+01 -1.450402259826660156e+01 -9.209810197353363037e-02 -1.360738184303045273e-02 -3.171164542436599731e-02 -6.688442826271057129e-02
5.240000000000000000e+02 7.815445709228515625e+01 -1.455364227294921875e+01 -2.268782071769237518e-02 -2.106604911386966705e-02 -1.312616094946861267e-02 -2.308464422821998596e-02
5.250000000000000000e+02 7.964855194091796875e+01 -1.220507431030273438e+01 -2.837094478309154510e-03 -5.977744609117507935e-02 -1.878436282277107239e-02 -1.678948663175106049e-02
5.260000000000000000e+02 7.963246154785156250e+01 -1.458084392547607422e+01 -1.733564655296504498e-03 2.284296322613954544e-03 1.652194769121706486e-04 -1.737179351039230824e-03
5.270000000000000000e+02 7.962248229980468750e+01 4.206231307983398438e+01 3.837676777038723230e-04 -8.158034645020961761e-03 -2.332279924303293228e-03 -4.782204050570726395e-04
5.280000000000000000e+02 7.664529418945312500e+01 3.945085144042968750e+01 -2.140373177826404572e-02 1.082221493124961853e-01 2.604552544653415680e-02 2.851071581244468689e-02
5.290000000000000000e+02 7.959916687011718750e+01 4.042084884643554688e+01 3.462527529336512089e-04 -1.648288965225219727e-02 -4.840991459786891937e-03 5.925612989813089371e-03
5.300000000000000000e+02 7.957636260986328125e+01 3.961322021484375000e+01 -2.147242194041609764e-03 -2.867348492145538330e-02 -9.246218018233776093e-03 7.157491054385900497e-03
5.310000000000000000e+02 7.958575439453125000e+01 3.882269668579101562e+01 -1.996515929931774735e-04 -4.384383186697959900e-02 -1.321304496377706528e-02 9.746070951223373413e-03
5.320000000000000000e+02 7.881365966796875000e+01 4.030043792724609375e+01 -5.032425746321678162e-03 7.609977852553129196e-03 7.732656667940318584e-04 1.654163561761379242e-02
5.330000000000000000e+02 7.961777496337890625e+01 3.804586410522460938e+01 5.945565644651651382e-04 -6.311668455600738525e-02 -1.875663921236991882e-02 9.529221802949905396e-03
5.340000000000000000e+02 7.963426208496093750e+01 3.569252395629882812e+01 1.336893998086452484e-03 -1.350994706153869629e-01 -4.012877494096755981e-02 1.387613825500011444e-02
5.350000000000000000e+02 7.961514282226562500e+01 3.490653991699218750e+01 -3.721429500728845596e-03 -1.671754568815231323e-01 -5.126906931400299072e-02 1.622756943106651306e-02
5.360000000000000000e+02 7.959369659423828125e+01 3.412041091918945312e+01 -1.016433001495897770e-03 -2.045569568872451782e-01 -6.167201697826385498e-02 2.097878046333789825e-02
5.370000000000000000e+02 7.958383941650390625e+01 3.332465744018554688e+01 -1.613583648577332497e-03 -2.472962737083435059e-01 -7.467295974493026733e-02 2.352565154433250427e-02
5.380000000000000000e+02 7.958673095703125000e+01 3.252172088623046875e+01 -2.092160284519195557e-03 -2.957276701927185059e-01 -8.934594690799713135e-02 2.706398256123065948e-02
5.390000000000000000e+02 7.959365844726562500e+01 3.171977615356445312e+01 -1.651238999329507351e-03 -3.519225120544433594e-01 -1.060721278190612793e-01 3.071892261505126953e-02
5.400000000000000000e+02 7.873564910888671875e+01 3.334629821777343750e+01 -7.919250056147575378e-03 -1.880155503749847412e-01 -5.878043919801712036e-02 7.125334441661834717e-02
5.410000000000000000e+02 7.959946441650390625e+01 3.092168235778808594e+01 -9.019694989547133446e-04 -4.151426553726196289e-01 -1.248133927583694458e-01 3.323235735297203064e-02
5.420000000000000000e+02 7.960688781738281250e+01 2.852592658996582031e+01 -1.257245428860187531e-03 -6.451635360717773438e-01 -1.939262300729751587e-01 4.191853106021881104e-02
5.430000000000000000e+02 7.960794067382812500e+01 2.772661018371582031e+01 -2.722299890592694283e-03 -7.339764833450317383e-01 -2.210096418857574463e-01 4.592897370457649231e-02
5.440000000000000000e+02 7.961119842529296875e+01 2.692512702941894531e+01 4.251697100698947906e-04 -8.297284841537475586e-01 -2.487909942865371704e-01 4.829573631286621094e-02
5.450000000000000000e+02 7.961601257324218750e+01 2.612322235107421875e+01 -2.700936747714877129e-03 -9.311189055442810059e-01 -2.801459431648254395e-01 5.053928866982460022e-02
5.460000000000000000e+02 7.962121582031250000e+01 2.532206535339355469e+01 8.308904361911118031e-04 -1.038311481475830078e+00 -3.112441599369049072e-01 5.258956179022789001e-02
5.470000000000000000e+02 7.962593841552734375e+01 2.452225303649902344e+01 -1.951221027411520481e-03 -1.150002002716064453e+00 -3.455859422683715820e-01 5.361344665288925171e-02
5.480000000000000000e+02 7.884914398193359375e+01 2.610548400878906250e+01 -4.995012655854225159e-03 -8.050715923309326172e-01 -2.430199831724166870e-01 1.437487304210662842e-01
5.490000000000000000e+02 7.962982177734375000e+01 2.372367286682128906e+01 7.770709926262497902e-04 -1.265359401702880859e+00 -3.793746829032897949e-01 5.496370792388916016e-02
5.500000000000000000e+02 7.963677215576171875e+01 2.132930946350097656e+01 1.078497225535102189e-04 -1.620786428451538086e+00 -4.862035810947418213e-01 5.489632487297058105e-02
5.510000000000000000e+02 7.963856506347656250e+01 2.053184700012207031e+01 4.773502296302467585e-04 -1.738487720489501953e+00 -5.214030742645263672e-01 5.423165857791900635e-02
5.520000000000000000e+02 7.963991546630859375e+01 1.973426055908203125e+01 9.276552009396255016e-04 -1.853706121444702148e+00 -5.558335185050964355e-01 5.256810411810874939e-02
5.530000000000000000e+02 7.964108276367187500e+01 1.893609046936035156e+01 6.710813613608479500e-04 -1.964833974838256836e+00 -5.892488956451416016e-01 5.074077844619750977e-02
5.540000000000000000e+02 7.964240264892578125e+01 1.813763427734375000e+01 1.617633621208369732e-03 -2.070830106735229492e+00 -6.207637786865234375e-01 4.808869957923889160e-02
5.550000000000000000e+02 7.964378356933593750e+01 1.733926963806152344e+01 1.021220232360064983e-03 -2.170209884643554688e+00 -6.507565975189208984e-01 4.506592079997062683e-02
5.560000000000000000e+02 7.892327117919921875e+01 1.892174339294433594e+01 4.617311991751194000e-03 -1.716127276420593262e+00 -5.134530067443847656e-01 1.414573490619659424e-01
5.570000000000000000e+02 7.964500427246093750e+01 1.654124069213867188e+01 2.060826634988188744e-03 -2.261960506439208984e+00 -6.779698729515075684e-01 4.150523990392684937e-02
5.580000000000000000e+02 7.964731597900390625e+01 1.414534282684326172e+01 1.637500012293457985e-03 -2.480548143386840820e+00 -7.436732053756713867e-01 2.897721342742443085e-02
5.590000000000000000e+02 7.964814758300781250e+01 1.334745216369628906e+01 2.625385066494345665e-03 -2.532112836837768555e+00 -7.588462233543395996e-01 2.407500520348548889e-02
5.600000000000000000e+02 7.964847564697265625e+01 1.254949378967285156e+01 1.783564686775207520e-03 -2.571565389633178711e+00 -7.709345221519470215e-01 1.901608332991600037e-02
5.610000000000000000e+02 7.964859008789062500e+01 1.175094795227050781e+01 2.741061849519610405e-03 -2.598697662353515625e+00 -7.787869572639465332e-01 1.384008675813674927e-02
5.620000000000000000e+02 7.964904022216796875e+01 1.095217418670654297e+01 1.725991838611662388e-03 -2.613323688507080078e+00 -7.834793329238891602e-01 8.737572468817234039e-03
5.630000000000000000e+02 7.964964294433593750e+01 1.015386581420898438e+01 3.024488454684615135e-03 -2.615433454513549805e+00 -7.837226986885070801e-01 3.353144275024533272e-03
5.640000000000000000e+02 7.894684600830078125e+01 1.173997783660888672e+01 1.028348971158266068e-02 -2.278524398803710938e+00 -6.804722547531127930e-01 3.097367845475673676e-02
5.650000000000000000e+02 7.964994812011718750e+01 9.355916023254394531e+00 1.567668397910892963e-03 -2.604678630828857422e+00 -7.809333205223083496e-01 -1.878720475360751152e-03
5.660000000000000000e+02 7.964987182617187500e+01 6.959023952484130859e+00 3.078682115301489830e-03 -2.499222993850708008e+00 -7.488433122634887695e-01 -1.689741574227809906e-02
5.670000000000000000e+02 7.964980316162109375e+01 6.160529613494873047e+00 1.304082339629530907e-03 -2.440868377685546875e+00 -7.318692803382873535e-01 -2.179290913045406342e-02
5.680000000000000000e+02 7.964868927001953125e+01 5.361536979675292969e+00 2.983903512358665466e-03 -2.371623039245605469e+00 -7.105917334556579590e-01 -2.643083594739437103e-02
5.690000000000000000e+02 7.964666748046875000e+01 4.561279773712158203e+00 1.554901595227420330e-03 -2.291695833206176758e+00 -6.870422363281250000e-01 -3.139905259013175964e-02
5.700000000000000000e+02 7.964411926269531250e+01 3.759685039520263672e+00 2.639860147610306740e-03 -2.201857805252075195e+00 -6.597653627395629883e-01 -3.581300005316734314e-02
5.710000000000000000e+02 7.964152526855468750e+01 2.957897424697875977e+00 1.497162040323019028e-03 -2.103018045425415039e+00 -6.304562687873840332e-01 -4.020208492875099182e-02
5.720000000000000000e+02 7.893807220458984375e+01 4.542352676391601562e+00 1.027577091008424759e-02 -2.018878221511840820e+00 -6.025807261466979980e-01 -1.010792106389999390e-01
5.730000000000000000e+02 7.963946533203125000e+01 2.156444311141967773e+00 2.119914395734667778e-03 -1.996262192726135254e+00 -5.982427000999450684e-01 -4.384741559624671936e-02
5.740000000000000000e+02 7.964629364013671875e+01 -1.047624230384826660e+00 1.690267468802630901e-03 -1.514088273048400879e+00 -4.537194073200225830e-01 -5.244219675660133362e-02
5.750000000000000000e+02 7.964814758300781250e+01 -1.847393989562988281e+00 -1.238718832610175014e-04 -1.382730722427368164e+00 -4.148563742637634277e-01 -5.396892130374908447e-02
5.760000000000000000e+02 7.964948272705078125e+01 -2.645988225936889648e+00 5.076159723103046417e-04 -1.249884009361267090e+00 -3.748129010200500488e-01 -5.386340618133544922e-02
5.770000000000000000e+02 7.965016174316406250e+01 -3.443965911865234375e+00 -3.837850090349093080e-05 -1.117497086524963379e+00 -3.352606594562530518e-01 -5.401008948683738708e-02
5.780000000000000000e+02 7.965042114257812500e+01 -4.242094516754150391e+00 -1.803084451239556074e-04 -9.865268468856811523e-01 -2.960121333599090576e-01 -5.329668894410133362e-02
5.790000000000000000e+02 7.894840240478515625e+01 -2.724168539047241211e+00 4.980823141522705555e-04 -1.115738034248352051e+00 -3.345719873905181885e-01 -1.633649468421936035e-01
5.800000000000000000e+02 7.965055084228515625e+01 -5.040403842926025391e+00 -4.241751448716968298e-04 -8.584663271903991699e-01 -2.576671540737152100e-01 -5.219289660453796387e-02
5.810000000000000000e+02 7.965016174316406250e+01 -8.230414390563964844e+00 -1.240079174749553204e-03 -4.047516286373138428e-01 -1.217975169420242310e-01 -4.095302522182464600e-02
5.820000000000000000e+02 7.965044403076171875e+01 -9.026800155639648438e+00 -2.311154967173933983e-03 -3.128666579723358154e-01 -9.455334395170211792e-02 -3.665303438901901245e-02
5.830000000000000000e+02 7.595034790039062500e+01 -1.378461456298828125e+01 -1.034291982650756836e-01 -2.549872547388076782e-02 -3.867837786674499512e-02 -9.523797780275344849e-02
5.840000000000000000e+02 7.894692230224609375e+01 -8.295445442199707031e+00 -8.568041026592254639e-03 -3.874031901359558105e-01 -1.187913641333580017e-01 -1.201832443475723267e-01
5.850000000000000000e+02 7.965025329589843750e+01 -1.141105079650878906e+01 -1.564544392749667168e-03 -1.047673001885414124e-01 -3.189955279231071472e-02 -2.191076427698135376e-02
5.860000000000000000e+02 7.894707489013671875e+01 -1.066341781616210938e+01 -1.049780845642089844e-02 -1.764203161001205444e-01 -5.607543885707855225e-02 -7.969609647989273071e-02
5.870000000000000000e+02 7.964067840576171875e+01 -1.379106903076171875e+01 -2.577392384409904480e-03 -6.918370723724365234e-03 -2.848729025572538376e-03 -6.521380972117185593e-03
5.880000000000000000e+02 4.458702206611633301e-01 4.202483367919921875e+01 2.298062201589345932e-03 -5.048370361328125000e-01 -1.507616937160491943e-01 2.877173945307731628e-03
5.890000000000000000e+02 5.107492804527282715e-01 4.116559982299804688e+01 -8.095956407487392426e-03 -5.012696385383605957e-01 -1.528096646070480347e-01 1.185486791655421257e-03
5.900000000000000000e+02 5.876974105834960938e+00 3.767382431030273438e+01 2.709042653441429138e-02 -5.988278985023498535e-02 -9.837709367275238037e-03 3.119583055377006531e-02
5.910000000000000000e+02 3.190847396850585938e+01 3.811993408203125000e+01 -9.561806321144104004e-01 3.459263801574707031e+00 7.509249448776245117e-01 -1.761034578084945679e-01
5.920000000000000000e+02 6.943762207031250000e+01 3.962142562866210938e+01 -1.716446131467819214e-01 6.523334980010986328e-01 1.442066580057144165e-01 3.713541850447654724e-02
5.930000000000000000e+02 7.872143554687500000e+01 4.194072341918945312e+01 -5.730959121137857437e-03 2.976663224399089813e-02 7.210702169686555862e-03 5.850158166140317917e-03
5.940000000000000000e+02 4.105932116508483887e-01 1.895629167556762695e+00 3.796787495957687497e-05 1.618684036657214165e-04 5.995088577037677169e-05 -8.645098569104447961e-05
5.950000000000000000e+02 2.885708808898925781e+00 1.871169686317443848e+00 4.556140338536351919e-04 1.429096591891720891e-04 1.795571006368845701e-04 -5.458960076794028282e-04
5.960000000000000000e+02 3.952787220478057861e-01 3.488081455230712891e+00 3.430596552789211273e-05 7.127470453269779682e-04 2.241158945253118873e-04 -1.790056412573903799e-04
5.970000000000000000e+02 3.914076387882232666e-01 4.289901733398437500e+00 4.589960553857963532e-06 1.131520257331430912e-03 3.408330667298287153e-04 -2.241493493784219027e-04
5.980000000000000000e+02 1.957809567451477051e+00 4.204584121704101562e+00 1.699096901575103402e-04 7.560836384072899818e-04 2.777979825623333454e-04 -8.772429428063333035e-04
5.990000000000000000e+02 3.857411146163940430e-01 5.898999214172363281e+00 3.907984478246362414e-07 2.218328649178147316e-03 6.656158366240561008e-04 -3.002959419973194599e-04
6.000000000000000000e+02 3.784843683242797852e-01 8.319892883300781250e+00 5.451583638205192983e-05 4.442408680915832520e-03 1.349077327176928520e-03 -4.034093872178345919e-04
6.010000000000000000e+02 3.763568997383117676e-01 9.124983787536621094e+00 -5.521779530681669712e-05 5.317044444382190704e-03 1.578547991812229156e-03 -4.069134010933339596e-04
6.020000000000000000e+02 3.744020462036132812e-01 9.929312705993652344e+00 8.074033394223079085e-05 6.209966726601123810e-03 1.887212041765451431e-03 -4.311384691391140223e-04
6.030000000000000000e+02 3.721661567687988281e-01 1.073439407348632812e+01 -1.120728775276802480e-04 7.118637673556804657e-03 2.101969439536333084e-03 -3.997663734480738640e-04
6.040000000000000000e+02 3.696714639663696289e-01 1.154029369354248047e+01 7.771693344693630934e-05 7.933364249765872955e-03 2.403324469923973083e-03 -3.593226720113307238e-04
6.050000000000000000e+02 1.107228159904479980e+00 1.152294158935546875e+01 -2.941541897598654032e-04 5.484030582010746002e-03 1.556962961331009865e-03 -8.611975354142487049e-04
6.060000000000000000e+02 3.656581044197082520e-01 1.315167713165283203e+01 4.464354424271732569e-05 9.020597673952579498e-03 2.719572279602289200e-03 -1.118826839956454933e-04
6.070000000000000000e+02 3.643484115600585938e-01 1.556577491760253906e+01 -3.616196627262979746e-04 7.104559801518917084e-03 2.022881992161273956e-03 8.171669906005263329e-04
6.080000000000000000e+02 3.643125891685485840e-01 1.636970901489257812e+01 -9.891870286082848907e-05 4.705999512225389481e-03 1.382124144583940506e-03 1.335667097009718418e-03
6.090000000000000000e+02 3.645032942295074463e-01 1.717372512817382812e+01 -4.719654680229723454e-04 1.094931853003799915e-03 1.868898980319499969e-04 1.957958098500967026e-03
6.100000000000000000e+02 3.647366166114807129e-01 1.797767257690429688e+01 -2.190614904975518584e-04 -4.110375884920358658e-03 -1.298831310123205185e-03 2.732423134148120880e-03
6.110000000000000000e+02 3.649876117706298828e-01 1.878154373168945312e+01 -5.558237317018210888e-04 -1.104543264955282211e-02 -3.480376908555626869e-03 3.578546689823269844e-03
6.120000000000000000e+02 3.689540028572082520e-01 2.199697685241699219e+01 -6.030293880030512810e-04 -6.053297594189643860e-02 -1.834080182015895844e-02 7.761816494166851044e-03
6.130000000000000000e+02 3.701927363872528076e-01 2.280100822448730469e+01 -3.201793297193944454e-04 -7.863546907901763916e-02 -2.368669584393501282e-02 8.785384707152843475e-03
6.140000000000000000e+02 3.715071380138397217e-01 2.360443687438964844e+01 -5.997830303385853767e-04 -9.878449141979217529e-02 -2.981528267264366150e-02 9.777591563761234283e-03
6.150000000000000000e+02 3.733331561088562012e-01 2.440817642211914062e+01 -1.693331578280776739e-04 -1.209669411182403564e-01 -3.634088113903999329e-02 1.062781549990177155e-02
6.160000000000000000e+02 3.759070932865142822e-01 2.521250534057617188e+01 -6.043619359843432903e-04 -1.447178423404693604e-01 -4.359666258096694946e-02 1.145494077354669571e-02
6.170000000000000000e+02 1.119705319404602051e+00 2.439612960815429688e+01 -2.119112061336636543e-03 -1.108641847968101501e-01 -3.389498963952064514e-02 3.052386082708835602e-02
6.180000000000000000e+02 3.849763870239257812e-01 2.682391357421875000e+01 -6.242892122827470303e-04 -1.961258351802825928e-01 -5.902503803372383118e-02 1.270414888858795166e-02
6.190000000000000000e+02 4.003852605819702148e-01 2.924663925170898438e+01 1.065976452082395554e-03 -2.750439941883087158e-01 -8.219340443611145020e-02 1.279895380139350891e-02
6.200000000000000000e+02 3.986903131008148193e-01 3.005157279968261719e+01 -8.348589763045310974e-04 -3.004820942878723145e-01 -9.039508551359176636e-02 1.248969510197639465e-02
6.210000000000000000e+02 3.932715058326721191e-01 3.085603904724121094e+01 1.790201640687882900e-03 -3.252750039100646973e-01 -9.704543650150299072e-02 1.164387166500091553e-02
6.220000000000000000e+02 3.875488638877868652e-01 3.165781593322753906e+01 -1.304268487729132175e-03 -3.487058877944946289e-01 -1.050030514597892761e-01 1.100632268935441971e-02
6.230000000000000000e+02 1.177115201950073242e+00 3.088535881042480469e+01 5.764289526268839836e-04 -2.841760218143463135e-01 -8.507987856864929199e-02 3.369421511888504028e-02
6.240000000000000000e+02 3.814610242843627930e-01 3.325119781494140625e+01 -2.491559367626905441e-03 -3.920337557792663574e-01 -1.183575987815856934e-01 9.994766674935817719e-03
6.250000000000000000e+02 4.248904883861541748e-01 3.565756607055664062e+01 2.650962211191654205e-03 -4.515306055545806885e-01 -1.346638947725296021e-01 9.166551753878593445e-03
6.260000000000000000e+02 4.454239606857299805e-01 3.646062850952148438e+01 -1.736056874506175518e-03 -4.675662517547607422e-01 -1.407906860113143921e-01 8.342768065631389618e-03
6.270000000000000000e+02 4.477814435958862305e-01 3.725946426391601562e+01 3.769864328205585480e-03 -4.809780120849609375e-01 -1.431624442338943481e-01 6.490850355476140976e-03
6.280000000000000000e+02 4.279678463935852051e-01 3.805281066894531250e+01 -2.687783213332295418e-03 -4.919498562812805176e-01 -1.483912914991378784e-01 5.697031505405902863e-03
6.290000000000000000e+02 4.020336866378784180e-01 3.884336090087890625e+01 6.894073914736509323e-03 -4.984002709388732910e-01 -1.474518626928329468e-01 9.798257378861308098e-04
6.300000000000000000e+02 4.391277134418487549e-01 4.040031051635742188e+01 8.541107177734375000e-03 -5.013951063156127930e-01 -1.478561908006668091e-01 -2.093924442306160927e-03
6.310000000000000000e+02 9.515819549560546875e+00 1.859482288360595703e+00 1.333306310698390007e-03 -1.858276518760249019e-04 3.442435699980705976e-04 2.046585723292082548e-04
6.320000000000000000e+02 8.691975593566894531e+00 1.858788251876831055e+00 1.443029614165425301e-03 -2.115365059580653906e-04 3.694479237310588360e-04 1.955036896106321365e-05
6.330000000000000000e+02 7.863192558288574219e+00 1.859995722770690918e+00 1.369362347759306431e-03 -2.003581030294299126e-04 3.507012734189629555e-04 -1.193455900647677481e-04
6.340000000000000000e+02 5.370815277099609375e+00 1.863052964210510254e+00 1.102064270526170731e-03 -1.187126617878675461e-04 2.950054768007248640e-04 -5.437977961264550686e-04
6.350000000000000000e+02 1.163115262985229492e+00 5.047108173370361328e+00 4.989553053746931255e-05 1.359397429041564465e-03 4.227878816891461611e-04 -7.104455726221203804e-04
6.360000000000000000e+02 4.462719440460205078e+00 2.599463939666748047e+00 8.468993473798036575e-04 -6.868424679851159453e-05 2.334645396331325173e-04 -7.705171592533588409e-04
6.370000000000000000e+02 3.712899684906005859e+00 1.866968035697937012e+00 7.113809697329998016e-04 3.124065187876112759e-05 2.227864897577092052e-04 -5.985011230222880840e-04
6.380000000000000000e+02 1.233743190765380859e+00 1.884885668754577637e+00 1.118972068070434034e-04 2.492258499842137098e-04 1.083369133993983269e-04 -2.703554055187851191e-04
6.390000000000000000e+02 1.180047512054443359e+01 1.863952994346618652e+00 1.060546841472387314e-03 -5.039324969402514398e-05 3.030460793524980545e-04 4.529260331764817238e-04
6.400000000000000000e+02 1.328245449066162109e+01 1.878356456756591797e+00 7.510990253649652004e-04 6.074744305806234479e-05 2.435539354337379336e-04 4.811184189748018980e-04
6.410000000000000000e+02 1.401687049865722656e+01 1.898952722549438477e+00 5.238458979874849319e-04 3.032656240975484252e-05 1.662517461227253079e-04 5.052690394222736359e-04
6.420000000000000000e+02 1.547784042358398438e+01 1.946881175041198730e+00 2.625778724905103445e-04 6.753636989742517471e-05 9.903427417157217860e-05 3.946878132410347462e-04
6.430000000000000000e+02 1.619940567016601562e+01 1.985938310623168945e+00 2.478289825376123190e-04 1.893460284918546677e-04 1.311525120399892330e-04 2.560571301728487015e-04
6.440000000000000000e+02 1.762942886352539062e+01 2.100593090057373047e+00 1.129234369727782905e-04 1.874342415248975158e-04 9.010730718728154898e-05 1.185780565720051527e-04
6.450000000000000000e+02 1.748950958251953125e+01 2.729462862014770508e+00 2.228646553703583777e-05 8.970981434686109424e-05 3.359888432896696031e-05 2.311039570486173034e-04
6.460000000000000000e+02 2.137294578552246094e+01 3.951009511947631836e+00 1.087810160242952406e-04 4.129057560930959880e-05 4.502147567109204829e-05 5.429244265542365611e-05
6.470000000000000000e+02 2.175442886352539062e+01 2.768827676773071289e+00 5.168446659808978438e-05 3.283384648966602981e-05 2.535549356252886355e-05 -1.832321868278086185e-05
6.480000000000000000e+02 2.236826515197753906e+01 2.941795110702514648e+00 -1.299704217672115192e-05 -6.172301800688728690e-05 -2.241601760033518076e-05 7.685656782996375114e-06
6.490000000000000000e+02 2.206597328186035156e+01 3.937751531600952148e+00 -3.416392792132683098e-05 8.486924343742430210e-06 -7.703100891376379877e-06 5.670221071341075003e-06
6.500000000000000000e+02 2.350950622558593750e+01 3.374472141265869141e+00 -3.085731077590025961e-05 -3.898314389516599476e-05 -2.095213676511775702e-05 -1.977215470105875283e-05
6.510000000000000000e+02 2.212216377258300781e+01 3.437048912048339844e+00 4.848587195738218725e-05 2.993998168676625937e-05 2.352775481995195150e-05 -2.645113636390306056e-05
6.520000000000000000e+02 2.110140991210937500e+01 2.619033575057983398e+00 -2.870979369617998600e-05 -4.208265818306244910e-05 -2.123773629136849195e-05 -1.814740585359686520e-06
6.530000000000000000e+02 2.041718292236328125e+01 2.492620706558227539e+00 6.131718691904097795e-05 7.324980106204748154e-05 4.037009421153925359e-05 -5.192756816541077569e-06
6.540000000000000000e+02 1.972927474975585938e+01 2.372321367263793945e+00 -1.673218139330856502e-05 -3.031602500414010137e-05 -1.411446191923459992e-05 2.011851938732434064e-05
6.550000000000000000e+02 1.903912353515625000e+01 2.257686138153076172e+00 6.220911018317565322e-05 1.417530875187367201e-04 6.118865712778642774e-05 3.161473796353675425e-05
6.560000000000000000e+02 1.933134078979492188e+01 7.084531784057617188e+00 2.389167493674904108e-04 2.841778914444148540e-04 1.569283922435715795e-04 1.346474309684708714e-04
6.570000000000000000e+02 1.759306144714355469e+01 8.765333175659179688e+00 3.272538742749020457e-05 6.970887188799679279e-04 2.189442457165569067e-04 -8.163816528394818306e-04
6.580000000000000000e+02 1.705104064941406250e+01 9.376302719116210938e+00 8.933682693168520927e-04 1.849666819907724857e-03 8.229105151258409023e-04 -6.041806773282587528e-04
6.590000000000000000e+02 1.507318401336669922e+01 1.294781970977783203e+01 1.024981174850836396e-04 1.195644587278366089e-02 3.617683192715048790e-03 -2.529258606955409050e-03
6.600000000000000000e+02 1.471457004547119141e+01 1.455458354949951172e+01 2.928992616944015026e-04 1.789536699652671814e-02 5.456479731947183609e-03 -1.900943811051547527e-03
6.610000000000000000e+02 1.464110374450683594e+01 1.536709022521972656e+01 4.730973741970956326e-04 1.710195839405059814e-02 5.272516515105962753e-03 -1.245733001269400120e-03
6.620000000000000000e+02 1.461424636840820312e+01 1.617383003234863281e+01 -7.217106758616864681e-04 1.319482550024986267e-02 3.741934662684798241e-03 -1.681874040514230728e-03
6.630000000000000000e+02 1.450722408294677734e+01 1.855177497863769531e+01 -3.335097059607505798e-02 -7.002392411231994629e-02 -3.101246803998947144e-02 -4.718377441167831421e-02
6.640000000000000000e+02 1.625348854064941406e+01 2.169127655029296875e+01 -4.726981222629547119e-01 -1.130058318376541138e-01 -1.757111847400665283e-01 -1.358119547367095947e-01
6.650000000000000000e+02 1.701382637023925781e+01 2.157385826110839844e+01 -6.235820055007934570e-01 -1.094120740890502930e-01 -2.198982238769531250e-01 -1.993085145950317383e-01
6.660000000000000000e+02 2.094972419738769531e+01 2.226384735107421875e+01 -6.296815276145935059e-01 -3.568471595644950867e-02 -1.996098607778549194e-01 -1.374042332172393799e-01
6.670000000000000000e+02 2.176556587219238281e+01 2.231488418579101562e+01 -4.727124869823455811e-01 -9.640806354582309723e-03 -1.447059810161590576e-01 -1.118634119629859924e-01
6.680000000000000000e+02 2.417462730407714844e+01 2.202667236328125000e+01 5.143901705741882324e-01 1.203649640083312988e-01 1.904265433549880981e-01 -3.080525994300842285e-01
6.690000000000000000e+02 2.496488189697265625e+01 2.187251091003417969e+01 9.496166110038757324e-01 2.245759963989257812e-01 3.522577881813049316e-01 -4.684150516986846924e-01
6.700000000000000000e+02 2.575157165527343750e+01 2.168086051940917969e+01 1.473831653594970703e+00 3.409916162490844727e-01 5.444470047950744629e-01 -7.141678333282470703e-01
6.710000000000000000e+02 3.047414779663085938e+01 1.844645881652832031e+01 2.741086244583129883e+00 1.018886280059814453e+01 3.878984689712524414e+00 -5.010581493377685547e+00
6.720000000000000000e+02 3.078639030456542969e+01 1.772462844848632812e+01 2.593346834182739258e+00 1.147371101379394531e+01 4.220117092132568359e+00 -4.902640819549560547e+00
6.730000000000000000e+02 3.133899688720703125e+01 1.622739219665527344e+01 1.503824353218078613e+00 1.213208675384521484e+01 4.090773582458496094e+00 -4.109052181243896484e+00
6.740000000000000000e+02 3.210256958007812500e+01 1.395148372650146484e+01 1.322236180305480957e+00 1.362249469757080078e+01 4.483419418334960938e+00 -4.042710304260253906e+00
6.750000000000000000e+02 3.233401489257812500e+01 1.318065738677978516e+01 1.275836586952209473e+00 1.453463363647460938e+01 4.743141174316406250e+00 -3.897402763366699219e+00
6.760000000000000000e+02 3.253604125976562500e+01 1.240124130249023438e+01 1.065114736557006836e+00 1.507165336608886719e+01 4.841030597686767578e+00 -3.513299942016601562e+00
6.770000000000000000e+02 3.975964736938476562e+01 1.028710556030273438e+01 9.072238206863403320e-01 9.272662162780761719e+00 3.053965806961059570e+00 2.153314828872680664e+00
6.780000000000000000e+02 3.329062652587890625e+01 8.468429565429687500e+00 5.267011523246765137e-01 1.614478302001953125e+01 5.001445293426513672e+00 -2.467841863632202148e+00
6.790000000000000000e+02 4.003065872192382812e+01 9.313072204589843750e+00 1.605356693267822266e+00 1.058169460296630859e+01 3.656115293502807617e+00 3.511768579483032227e+00
6.800000000000000000e+02 3.351031875610351562e+01 6.081721782684326172e+00 6.890705227851867676e-02 1.517696380615234375e+01 4.573760986328125000e+00 -1.114826202392578125e+00
6.810000000000000000e+02 3.339332580566406250e+01 7.673476219177246094e+00 5.452285408973693848e-01 1.654617309570312500e+01 5.127420425415039062e+00 -1.890829324722290039e+00
6.820000000000000000e+02 3.938799285888671875e+01 4.553689956665039062e+00 8.681572228670120239e-02 1.640786933898925781e+01 4.948405742645263672e+00 -3.727703988552093506e-01
6.830000000000000000e+02 3.355855941772460938e+01 2.907826662063598633e+00 1.884320378303527832e+00 1.493677902221679688e+01 5.046329975128173828e+00 2.930225849151611328e+00
6.840000000000000000e+02 3.939750671386718750e+01 3.753353595733642578e+00 2.938313484191894531e-01 1.773851203918457031e+01 5.409702777862548828e+00 -8.131294846534729004e-01
6.850000000000000000e+02 3.870558166503906250e+01 4.541294097900390625e+00 4.532903134822845459e-01 1.630912590026855469e+01 5.028724670410156250e+00 -9.513840675354003906e-01
6.860000000000000000e+02 3.190883827209472656e+01 7.172052860260009766e-01 3.002958297729492188e+00 3.401782989501953125e+00 1.921422362327575684e+00 2.701401948928833008e+00
6.870000000000000000e+02 2.758569908142089844e+01 2.774640321731567383e-01 4.373506903648376465e-01 -6.749040912836790085e-03 1.291804909706115723e-01 2.589457109570503235e-02
6.880000000000000000e+02 2.506982612609863281e+01 -5.302220210433006287e-02 1.133292987942695618e-01 -9.350535459816455841e-03 3.119362890720367432e-02 1.573657095432281494e-01
6.890000000000000000e+02 2.204080200195312500e+01 -1.601953148841857910e+00 -3.244449794292449951e-01 9.336979687213897705e-02 -6.932255625724792480e-02 3.915702998638153076e-01
6.900000000000000000e+02 2.273767089843750000e+01 -7.421765327453613281e-01 -2.484157830476760864e-01 5.722968652844429016e-02 -5.735582858324050903e-02 2.611925303936004639e-01
6.910000000000000000e+02 2.195940589904785156e+01 -9.323216676712036133e-01 -3.751133978366851807e-01 6.816440820693969727e-02 -9.208469837903976440e-02 2.733384370803833008e-01
6.920000000000000000e+02 1.881715774536132812e+01 -1.462309241294860840e+00 -8.372476696968078613e-01 6.687681376934051514e-02 -2.311112582683563232e-01 2.113875746726989746e-01
6.930000000000000000e+02 1.960204505920410156e+01 -1.356496453285217285e+00 -7.384210228919982910e-01 7.570391893386840820e-02 -1.988151222467422485e-01 2.442221492528915405e-01
6.940000000000000000e+02 2.038833427429199219e+01 -1.223187327384948730e+00 -6.239899396896362305e-01 7.485387474298477173e-02 -1.647408157587051392e-01 2.620905339717864990e-01
6.950000000000000000e+02 1.648143768310546875e+01 -1.677050590515136719e+00 -1.062129378318786621e+00 5.376577749848365784e-02 -3.025090694427490234e-01 8.623698353767395020e-02
6.960000000000000000e+02 1.570606422424316406e+01 -1.726867198944091797e+00 -1.101873159408569336e+00 4.811676591634750366e-02 -3.161269128322601318e-01 3.454216942191123962e-02
6.970000000000000000e+02 1.263409519195556641e+01 -1.832113504409790039e+00 -1.089968562126159668e+00 3.442329913377761841e-02 -3.166635632514953613e-01 -1.516118049621582031e-01
6.980000000000000000e+02 1.339890384674072266e+01 -1.814664006233215332e+00 -1.119884848594665527e+00 3.895133361220359802e-02 -3.242800533771514893e-01 -1.084431186318397522e-01
6.990000000000000000e+02 1.416672229766845703e+01 -1.788326740264892578e+00 -1.134086847305297852e+00 4.258271679282188416e-02 -3.274512290954589844e-01 -6.514485180377960205e-02
7.000000000000000000e+02 1.111369609832763672e+01 -1.845399856567382812e+00 -9.939133524894714355e-01 2.933259308338165283e-02 -2.893742322921752930e-01 -2.198580056428909302e-01
7.010000000000000000e+02 9.589173316955566406e+00 -1.851240992546081543e+00 -8.488049507141113281e-01 1.834536716341972351e-02 -2.491378784179687500e-01 -2.627118229866027832e-01
7.020000000000000000e+02 7.279910087585449219e+00 -1.854828476905822754e+00 -5.861443877220153809e-01 -6.400619167834520340e-03 -1.777635067701339722e-01 -2.831200957298278809e-01
7.030000000000000000e+02 6.510071754455566406e+00 -1.856721878051757812e+00 -4.958355724811553955e-01 -1.458161603659391403e-02 -1.531251519918441772e-01 -2.761825919151306152e-01
7.040000000000000000e+02 4.202711582183837891e+00 -1.864091515541076660e+00 -2.479076832532882690e-01 -4.539719969034194946e-02 -8.799146860837936401e-02 -2.143157720565795898e-01
7.050000000000000000e+02 2.668154239654541016e+00 -1.872620820999145508e+00 -1.185555681586265564e-01 -6.354701519012451172e-02 -5.463077500462532043e-02 -1.388135701417922974e-01
7.060000000000000000e+02 2.622289896011352539e+00 -2.620300531387329102e+00 -1.098954305052757263e-01 -1.101408153772354126e-01 -6.601087749004364014e-02 -1.878902614116668701e-01
7.070000000000000000e+02 1.902195930480957031e+00 -1.878331542015075684e+00 -6.783983856439590454e-02 -6.650910526514053345e-02 -4.030468314886093140e-02 -9.441921859979629517e-02
7.080000000000000000e+02 3.786768019199371338e-01 -1.895812511444091797e+00 -6.027337163686752319e-03 -2.241929620504379272e-02 -8.533990010619163513e-03 -1.507160067558288574e-02
7.090000000000000000e+02 4.675493538379669189e-01 -4.203142166137695312e+01 -6.413125665858387947e-04 -6.111979484558105469e-01 -1.835517883300781250e-01 3.236445772927254438e-04
7.100000000000000000e+02 6.113472580909729004e-01 -4.114882659912109375e+01 -1.452594064176082611e-02 -6.150050163269042969e-01 -1.888592839241027832e-01 7.932591252028942108e-03
7.110000000000000000e+02 6.313763856887817383e-01 -4.032684707641601562e+01 1.384436152875423431e-02 -6.279156208038330078e-01 -1.842213720083236694e-01 1.509239990264177322e-02
7.120000000000000000e+02 5.230635404586791992e-01 -3.873118591308593750e+01 3.459305968135595322e-03 -6.525649428367614746e-01 -1.947316974401473999e-01 9.605724364519119263e-03
7.130000000000000000e+02 5.930293202400207520e-01 -3.952056121826171875e+01 -6.289170123636722565e-03 -6.432950496673583984e-01 -1.948752701282501221e-01 4.947482608258724213e-03
7.140000000000000000e+02 3.828209340572357178e-01 -3.719276428222656250e+01 7.357235997915267944e-03 -6.910728812217712402e-01 -2.051146924495697021e-01 1.378409285098314285e-02
7.150000000000000000e+02 3.972052335739135742e-01 -3.563562011718750000e+01 4.082996398210525513e-03 -7.530489563941955566e-01 -2.246897816658020020e-01 1.861877553164958954e-02
7.160000000000000000e+02 4.204030632972717285e-01 -3.483441543579101562e+01 -6.515109445899724960e-03 -7.904009819030761719e-01 -2.390748262405395508e-01 2.039633505046367645e-02
7.170000000000000000e+02 4.276744723320007324e-01 -3.402639389038085938e+01 2.488465746864676476e-03 -8.324824571609497070e-01 -2.489981949329376221e-01 2.472910843789577484e-02
7.180000000000000000e+02 4.243443012237548828e-01 -3.321923828125000000e+01 -4.590637981891632080e-03 -8.797002434730529785e-01 -2.652872502803802490e-01 2.618781477212905884e-02
7.190000000000000000e+02 4.166901707649230957e-01 -3.241507339477539062e+01 3.478631842881441116e-04 -9.333464503288269043e-01 -2.798995971679687500e-01 3.059744834899902344e-02
7.200000000000000000e+02 1.279736399650573730e+00 -3.313863754272460938e+01 -6.148586049675941467e-03 -7.888893485069274902e-01 -2.385113835334777832e-01 7.942850887775421143e-02
7.210000000000000000e+02 4.080010056495666504e-01 -3.161204528808593750e+01 -2.556260442361235619e-03 -9.941045045852661133e-01 -2.989982366561889648e-01 3.254319354891777039e-02
7.220000000000000000e+02 3.882684707641601562e-01 -2.920064735412597656e+01 -2.039193786913529038e-04 -1.211387157440185547e+00 -3.634773194789886475e-01 3.918218240141868591e-02
7.230000000000000000e+02 3.843739330768585205e-01 -2.839721488952636719e+01 -1.159921637736260891e-03 -1.293151378631591797e+00 -3.882933855056762695e-01 4.053691029548645020e-02
7.240000000000000000e+02 3.815538585186004639e-01 -2.759407234191894531e+01 -1.191553164971992373e-04 -1.378503441810607910e+00 -4.135867655277252197e-01 4.188748076558113098e-02
7.250000000000000000e+02 3.792683780193328857e-01 -2.679101181030273438e+01 -3.066927893087267876e-04 -1.465909242630004883e+00 -4.398647844791412354e-01 4.233067855238914490e-02
7.260000000000000000e+02 3.771740198135375977e-01 -2.598789596557617188e+01 2.935159136541187763e-04 -1.554244399070739746e+00 -4.661852717399597168e-01 4.230040311813354492e-02
7.270000000000000000e+02 3.753969371318817139e-01 -2.518486785888671875e+01 3.522145852912217379e-04 -1.641825556755065918e+00 -4.924419820308685303e-01 4.161520302295684814e-02
7.280000000000000000e+02 3.737460970878601074e-01 -2.438159942626953125e+01 1.155322999693453312e-03 -1.727176785469055176e+00 -5.178064703941345215e-01 3.995891287922859192e-02
7.290000000000000000e+02 3.685556352138519287e-01 -2.197030639648437500e+01 1.523775979876518250e-03 -1.949249505996704102e+00 -5.843177437782287598e-01 2.993851527571678162e-02
7.300000000000000000e+02 3.669812977313995361e-01 -2.116628646850585938e+01 3.313962137326598167e-03 -2.005226135253906250e+00 -6.005736589431762695e-01 2.470029145479202271e-02
7.310000000000000000e+02 3.656946420669555664e-01 -2.036235427856445312e+01 1.902993535622954369e-03 -2.048612594604492188e+00 -6.140128374099731445e-01 1.885707303881645203e-02
7.320000000000000000e+02 3.646754920482635498e-01 -1.955836677551269531e+01 4.014001693576574326e-03 -2.078353881835937500e+00 -6.223019361495971680e-01 1.244811527431011200e-02
7.330000000000000000e+02 3.638061583042144775e-01 -1.875422286987304688e+01 2.079559257254004478e-03 -2.092866897583007812e+00 -6.272362470626831055e-01 5.582291167229413986e-03
7.340000000000000000e+02 1.824921965599060059e+00 -2.024102592468261719e+01 3.341040387749671936e-02 -1.518879652023315430e+00 -4.456407725811004639e-01 6.786415725946426392e-02
7.350000000000000000e+02 3.629887700080871582e-01 -1.794993972778320312e+01 4.531072918325662613e-03 -2.091664314270019531e+00 -6.261399984359741211e-01 -1.548217143863439560e-03
7.360000000000000000e+02 3.610799312591552734e-01 -1.553757381439208984e+01 2.268581883981823921e-03 -1.985341548919677734e+00 -5.949218869209289551e-01 -2.456991560757160187e-02
7.370000000000000000e+02 3.604640662670135498e-01 -1.473343849182128906e+01 4.357294179499149323e-03 -1.915714979171752930e+00 -5.734072923660278320e-01 -3.165628388524055481e-02
7.380000000000000000e+02 3.600289821624755859e-01 -1.392927646636962891e+01 2.026841975748538971e-03 -1.829853653907775879e+00 -5.483480691909790039e-01 -3.881133720278739929e-02
7.390000000000000000e+02 3.600040972232818604e-01 -1.312508296966552734e+01 3.764637280255556107e-03 -1.729203462600708008e+00 -5.176316499710083008e-01 -4.493163153529167175e-02
7.400000000000000000e+02 3.603648245334625244e-01 -1.232062435150146484e+01 1.566249877214431763e-03 -1.615199923515319824e+00 -4.840900897979736328e-01 -5.083894357085227966e-02
7.410000000000000000e+02 3.608771562576293945e-01 -1.151575756072998047e+01 3.027226310223340988e-03 -1.489822983741760254e+00 -4.460387229919433594e-01 -5.555807054042816162e-02
7.420000000000000000e+02 1.791506409645080566e+00 -1.299927043914794922e+01 3.193555772304534912e-02 -1.282291412353515625e+00 -3.751067519187927246e-01 -2.112108916044235229e-01
7.430000000000000000e+02 3.612154126167297363e-01 -1.071047115325927734e+01 8.581937290728092194e-04 -1.354909777641296387e+00 -4.062154889106750488e-01 -5.979241058230400085e-02
7.440000000000000000e+02 3.601974844932556152e-01 -8.293737411499023438e+00 8.267985540442168713e-04 -9.156866073608398438e-01 -2.744579315185546875e-01 -6.501183658838272095e-02
7.450000000000000000e+02 3.587678968906402588e-01 -7.489774227142333984e+00 -1.311727217398583889e-03 -7.664640545845031738e-01 -2.303327471017837524e-01 -6.436486542224884033e-02
7.460000000000000000e+02 3.576806485652923584e-01 -6.687144756317138672e+00 -4.771336680278182030e-04 -6.207618117332458496e-01 -1.863716840744018555e-01 -6.190043315291404724e-02
7.470000000000000000e+02 1.076397657394409180e+00 -7.412340641021728516e+00 -2.305348170921206474e-03 -6.876357793807983398e-01 -2.069823294878005981e-01 -1.851640939712524414e-01
7.480000000000000000e+02 4.861106872558593750e+00 -3.305845975875854492e+00 -2.539629340171813965e-01 -9.290651232004165649e-02 -1.040608361363410950e-01 -3.666338622570037842e-01
7.490000000000000000e+02 1.138469099998474121e+00 -1.885513544082641602e+00 -2.905246987938880920e-02 -5.824333801865577698e-02 -2.618874236941337585e-02 -5.176634714007377625e-02
7.500000000000000000e+02 7.954084777832031250e+01 -4.203366470336914062e+01 4.754263500217348337e-04 -1.886273622512817383e-01 -5.644557997584342957e-02 5.370342405512928963e-04
7.510000000000000000e+02 7.945253753662109375e+01 -4.118481826782226562e+01 1.508856774307787418e-03 -1.873834878206253052e-01 -5.576238781213760376e-02 1.663197879679501057e-03
7.520000000000000000e+02 5.225558853149414062e+01 -3.769714355468750000e+01 -9.946421533823013306e-02 2.168057203292846680e+00 6.205778717994689941e-01 -6.488076448440551758e-01
7.530000000000000000e+02 2.734580612182617188e+01 -3.756251525878906250e+01 1.102878674864768982e-01 1.446058154106140137e+00 4.669038057327270508e-01 3.363030552864074707e-01
7.540000000000000000e+02 1.304027175903320312e+01 -4.099462509155273438e+01 -1.094010695815086365e-01 3.819163441658020020e-01 8.175458759069442749e-02 -2.294095605611801147e-02
7.550000000000000000e+02 1.982697010040283203e+00 -3.996940231323242188e+01 -1.003506593406200409e-02 -5.284056067466735840e-01 -1.615322083234786987e-01 1.009794883430004120e-02
7.560000000000000000e+02 1.605488300323486328e+00 -4.193750381469726562e+01 -1.015843730419874191e-02 -5.606934428215026855e-01 -1.712555587291717529e-01 1.446366868913173676e-02
7.570000000000000000e+02 7.962303924560546875e+01 -1.836359405517578125e+01 -1.680397872405592352e-05 9.504613699391484261e-04 2.800972142722457647e-04 -3.538521996233612299e-04
7.580000000000000000e+02 7.886748504638671875e+01 -1.832809829711914062e+01 2.708657411858439445e-04 7.520965882577002048e-04 3.068887162953615189e-04 -9.165882365778088570e-04
7.590000000000000000e+02 7.811047363281250000e+01 -1.829324722290039062e+01 4.198861133772879839e-04 4.590413009282201529e-04 2.636782301124185324e-04 -1.238493947312235832e-03
7.600000000000000000e+02 7.659821319580078125e+01 -1.822959899902343750e+01 8.851717575453221798e-04 -8.451467147096991539e-05 2.401971287326887250e-04 -1.288549159653484821e-03
7.610000000000000000e+02 7.962599182128906250e+01 -2.071708869934082031e+01 8.271009392046835274e-06 3.602684475481510162e-03 1.083286595530807972e-03 -3.794962249230593443e-04
7.620000000000000000e+02 7.885175323486328125e+01 -2.142621421813964844e+01 -2.517390821594744921e-04 2.198105677962303162e-03 5.839099758304655552e-04 -6.278685177676379681e-04
7.630000000000000000e+02 7.961899566650390625e+01 -2.229763603210449219e+01 -8.514680666849017143e-05 4.767832346260547638e-03 1.404805690981447697e-03 -1.244553423020988703e-04
7.640000000000000000e+02 7.963518524169921875e+01 -2.467746925354003906e+01 -8.972730574896559119e-05 3.078187350183725357e-03 8.965380256995558739e-04 7.124080439098179340e-04
7.650000000000000000e+02 7.963663482666015625e+01 -2.546903228759765625e+01 -3.208479611203074455e-04 9.542097686789929867e-04 1.900085335364565253e-04 1.202150131575763226e-03
7.660000000000000000e+02 7.963636016845703125e+01 -2.625933647155761719e+01 -1.027830585371702909e-04 -2.152165165171027184e-03 -6.764844874851405621e-04 1.622302806936204433e-03
7.670000000000000000e+02 7.891288757324218750e+01 -2.541109848022460938e+01 -9.244466782547533512e-04 -2.568893600255250931e-03 -1.048002042807638645e-03 3.403357695788145065e-03
7.680000000000000000e+02 7.963329315185546875e+01 -2.783806228637695312e+01 -8.334919402841478586e-05 -1.188079454004764557e-02 -3.589243162423372269e-03 2.759125549346208572e-03
7.690000000000000000e+02 7.961761474609375000e+01 -3.020938491821289062e+01 -7.205232977867126465e-04 -3.634339570999145508e-02 -1.111917570233345032e-02 4.926072433590888977e-03
7.700000000000000000e+02 7.960976409912109375e+01 -3.100071525573730469e+01 1.180382387246936560e-04 -4.702551662921905518e-02 -1.407224405556917191e-02 5.454769358038902283e-03
7.710000000000000000e+02 7.960009002685546875e+01 -3.179317474365234375e+01 -8.809869759716093540e-04 -5.890594422817230225e-02 -1.793607883155345917e-02 6.318169180303812027e-03
7.720000000000000000e+02 7.958896636962890625e+01 -3.258674240112304688e+01 2.873382181860506535e-04 -7.174061983823776245e-02 -2.143598534166812897e-02 6.799387279897928238e-03
7.730000000000000000e+02 7.880678558349609375e+01 -3.171717453002929688e+01 -9.464998729526996613e-04 -5.542007461190223694e-02 -1.690997183322906494e-02 1.736400462687015533e-02
7.740000000000000000e+02 7.956670379638671875e+01 -3.417434692382812500e+01 4.032119759358465672e-04 -9.923760592937469482e-02 -2.965031936764717102e-02 7.724347524344921112e-03
7.750000000000000000e+02 7.957205200195312500e+01 -3.653934860229492188e+01 -1.714391401037573814e-04 -1.403762847185134888e-01 -4.216431826353073120e-02 7.243234664201736450e-03
7.760000000000000000e+02 7.958496093750000000e+01 -3.732583236694335938e+01 1.188382622785866261e-03 -1.528625041246414185e-01 -4.550223425030708313e-02 6.187395192682743073e-03
7.770000000000000000e+02 7.960069274902343750e+01 -3.811093902587890625e+01 2.924842119682580233e-04 -1.634602546691894531e-01 -4.895033314824104309e-02 4.828865639865398407e-03
7.780000000000000000e+02 7.961829376220703125e+01 -3.888845825195312500e+01 1.015544869005680084e-03 -1.716446280479431152e-01 -5.118872225284576416e-02 3.428555093705654144e-03
7.790000000000000000e+02 7.951663970947265625e+01 -4.042147445678710938e+01 1.159717212431132793e-04 -1.840604990720748901e-01 -5.518335849046707153e-02 3.189595183357596397e-03
7.800000000000000000e+02 7.594023132324218750e+01 -1.887688064575195312e+01 2.834815240930765867e-04 -4.659096302930265665e-04 -5.472842894960194826e-05 -1.188818132504820824e-03
7.810000000000000000e+02 7.367086029052734375e+01 -1.813571357727050781e+01 1.315652159973978996e-03 -5.105450400151312351e-04 2.415321359876543283e-04 -1.102676033042371273e-04
7.820000000000000000e+02 7.439475250244140625e+01 -1.815151214599609375e+01 1.442668843083083630e-03 -7.416688604280352592e-04 2.103000006172806025e-04 -3.483333566691726446e-04
7.830000000000000000e+02 7.224469757080078125e+01 -1.819298171997070312e+01 1.223465311340987682e-03 -5.364614771679043770e-04 2.061011618934571743e-04 6.919079460203647614e-04
7.840000000000000000e+02 7.079811859130859375e+01 -1.833979606628417969e+01 9.724118281155824661e-04 -2.160094154532998800e-04 2.269207179779186845e-04 1.423179288394749165e-03
7.850000000000000000e+02 6.873696136474609375e+01 -1.954240989685058594e+01 1.041214680299162865e-03 3.840752877295017242e-03 1.464590197429060936e-03 1.317820628173649311e-03
7.860000000000000000e+02 3.128787612915039062e+01 -8.897544860839843750e+00 -1.744096398353576660e+00 3.298560678958892822e-01 -4.242720901966094971e-01 5.342752337455749512e-01
7.870000000000000000e+02 3.306124877929687500e+01 -1.062631034851074219e+01 1.397526144981384277e+00 4.501333713531494141e+00 1.769657969474792480e+00 -2.518985033035278320e+00
7.880000000000000000e+02 3.460892105102539062e+01 -1.353743171691894531e+01 1.363546013832092285e+00 1.154195785522460938e+01 3.871651172637939453e+00 -3.476720809936523438e+00
7.890000000000000000e+02 3.500955963134765625e+01 -1.512874603271484375e+01 7.157381772994995117e-01 1.185799407958984375e+01 3.772119760513305664e+00 -2.457190752029418945e+00
7.900000000000000000e+02 3.529613494873046875e+01 -1.755840873718261719e+01 1.058209761977195740e-01 1.022489547729492188e+01 3.099215030670166016e+00 -8.467522859573364258e-01
7.910000000000000000e+02 3.524086380004882812e+01 -1.674687004089355469e+01 3.162384033203125000e-01 1.116925621032714844e+01 3.445648431777954102e+00 -1.202608942985534668e+00
7.920000000000000000e+02 3.536747360229492188e+01 -1.999318313598632812e+01 1.188610568642616272e-01 9.828262329101562500e+00 2.984137058258056641e+00 6.537371873855590820e-02
7.930000000000000000e+02 3.533361434936523438e+01 -2.080795097351074219e+01 4.013763070106506348e-01 1.020841503143310547e+01 3.182937622070312500e+00 6.682252287864685059e-01
7.940000000000000000e+02 3.506300354003906250e+01 -2.242545890808105469e+01 7.301393151283264160e-01 9.159523963928222656e+00 2.966898918151855469e+00 2.074056625366210938e+00
7.950000000000000000e+02 3.404582977294921875e+01 -2.466674232482910156e+01 2.277625560760498047e+00 5.060318946838378906e+00 2.201383352279663086e+00 3.135312318801879883e+00
7.960000000000000000e+02 3.300876617431640625e+01 -2.592066001892089844e+01 1.768351793289184570e+00 2.892073869705200195e+00 1.398127675056457520e+00 2.220270156860351562e+00
7.970000000000000000e+02 3.192435646057128906e+01 -2.714475250244140625e+01 1.335532784461975098e+00 2.033369541168212891e+00 1.010670661926269531e+00 1.643193244934082031e+00
7.980000000000000000e+02 3.073621177673339844e+01 -2.833295249938964844e+01 1.088097095489501953e+00 1.389569640159606934e+00 7.433000206947326660e-01 1.167455077171325684e+00
7.990000000000000000e+02 3.000408744812011719e+01 -2.874371147155761719e+01 6.052573323249816895e-01 7.600121498107910156e-01 4.095808565616607666e-01 7.543068528175354004e-01
8.000000000000000000e+02 2.758528900146484375e+01 -2.944667625427246094e+01 -7.504329681396484375e-01 5.273829028010368347e-02 -2.093084156513214111e-01 5.690463259816169739e-02
8.010000000000000000e+02 2.840034675598144531e+01 -2.925908470153808594e+01 -4.201403558254241943e-01 1.606207638978958130e-01 -7.785587757825851440e-02 1.495757102966308594e-01
8.020000000000000000e+02 2.594664955139160156e+01 -2.959720039367675781e+01 -9.991009831428527832e-01 -3.435061778873205185e-03 -3.007608056068420410e-01 1.565561816096305847e-02
8.030000000000000000e+02 2.437293243408203125e+01 -2.960551643371582031e+01 -8.717523813247680664e-01 -2.355222404003143311e-02 -2.685913741588592529e-01 2.142431028187274933e-02
8.040000000000000000e+02 2.300567054748535156e+01 -2.932625579833984375e+01 -5.911208987236022949e-01 4.121947288513183594e-02 -1.649704426527023315e-01 -1.888834871351718903e-02
8.050000000000000000e+02 2.235557937622070312e+01 -2.888130950927734375e+01 -3.021722733974456787e-01 1.010220274329185486e-01 -6.034507602453231812e-02 -4.440890252590179443e-02
8.060000000000000000e+02 2.056390571594238281e+01 -2.725942230224609375e+01 2.425693422555923462e-01 3.313816487789154053e-01 1.721853017807006836e-01 -2.968806922435760498e-01
8.070000000000000000e+02 2.114301872253417969e+01 -2.781182861328125000e+01 1.206315532326698303e-01 2.670455276966094971e-01 1.163031235337257385e-01 -2.193412482738494873e-01
8.080000000000000000e+02 1.935287475585937500e+01 -2.623976325988769531e+01 4.655285477638244629e-01 5.153092741966247559e-01 2.942513525485992432e-01 -4.812055826187133789e-01
8.090000000000000000e+02 1.760572624206542969e+01 -2.455969619750976562e+01 6.527607440948486328e-01 9.655541181564331055e-01 4.854944646358489990e-01 -7.968441843986511230e-01
8.100000000000000000e+02 1.706865501403808594e+01 -2.395096015930175781e+01 7.213368415832519531e-01 1.158184170722961426e+00 5.638563036918640137e-01 -8.734821081161499023e-01
8.110000000000000000e+02 1.654248428344726562e+01 -2.333701515197753906e+01 7.539092898368835449e-01 1.332961320877075195e+00 6.260612010955810547e-01 -1.005413889884948730e+00
8.120000000000000000e+02 1.491798686981201172e+01 -2.143979644775390625e+01 1.057625412940979004e+00 3.408836841583251953e+00 1.339938640594482422e+00 -1.291387319564819336e+00
8.130000000000000000e+02 1.460607242584228516e+01 -1.640284919738769531e+01 4.624279737472534180e-01 4.164820671081542969e+00 1.388174653053283691e+00 7.201603651046752930e-01
8.140000000000000000e+02 1.485131835937500000e+01 -1.555883693695068359e+01 7.135452032089233398e-01 3.902732610702514648e+00 1.384883284568786621e+00 1.179001331329345703e+00
8.150000000000000000e+02 1.526518154144287109e+01 -1.480519199371337891e+01 9.734337329864501953e-01 3.408779859542846680e+00 1.314664125442504883e+00 1.619277715682983398e+00
8.160000000000000000e+02 1.748649406433105469e+01 -1.238945579528808594e+01 2.431614875793457031e+00 1.206066489219665527e+00 1.091304421424865723e+00 1.473096013069152832e+00
8.170000000000000000e+02 1.983690261840820312e+01 -1.174141502380371094e+01 1.348146796226501465e+00 8.545408397912979126e-02 4.300802648067474365e-01 3.461330831050872803e-01
8.180000000000000000e+02 1.904979324340820312e+01 -1.187307739257812500e+01 1.850362777709960938e+00 1.814843416213989258e-01 6.095541119575500488e-01 5.085774064064025879e-01
8.190000000000000000e+02 2.214953041076660156e+01 -1.122200107574462891e+01 7.363372445106506348e-01 6.463143229484558105e-02 2.402905970811843872e-01 2.825390696525573730e-01
8.200000000000000000e+02 2.180783271789550781e+01 -1.053384208679199219e+01 7.173532247543334961e-01 1.394705921411514282e-01 2.570471465587615967e-01 3.978265821933746338e-01
8.210000000000000000e+02 2.396048545837402344e+01 -9.751814842224121094e+00 2.751009762287139893e-01 1.549428403377532959e-01 1.290131360292434692e-01 3.504811823368072510e-01
8.220000000000000000e+02 2.437088203430175781e+01 -1.042140102386474609e+01 3.639083802700042725e-01 1.248221397399902344e-01 1.466191560029983521e-01 2.242270410060882568e-01
8.230000000000000000e+02 2.573160171508789062e+01 -9.630288124084472656e+00 1.166451200842857361e-01 1.771959811449050903e-01 8.815232664346694946e-02 1.618316471576690674e-01
8.240000000000000000e+02 2.711994934082031250e+01 -8.813740730285644531e+00 -7.445442676544189453e-01 6.379960477352142334e-02 -2.042233943939208984e-01 -1.014025956392288208e-01
8.250000000000000000e+02 2.860358047485351562e+01 -8.212651252746582031e+00 -2.979531049728393555e+00 -7.113045454025268555e-02 -9.151985049247741699e-01 -6.811439990997314453e-02
8.260000000000000000e+02 2.933284950256347656e+01 -8.050766944885253906e+00 -3.831157684326171875e+00 -4.342407584190368652e-01 -1.279619574546813965e+00 5.593448281288146973e-01
8.270000000000000000e+02 6.168998336791992188e+01 1.884853935241699219e+01 9.985570907592773438e-01 5.066145420074462891e+00 1.819410800933837891e+00 -1.694354534149169922e+00
8.280000000000000000e+02 6.214457321166992188e+01 1.613202857971191406e+01 1.269760131835937500e-01 5.629408359527587891e+00 1.726915359497070312e+00 -2.729081511497497559e-01
8.290000000000000000e+02 6.214338684082031250e+01 1.534105873107910156e+01 5.015967413783073425e-02 5.573677539825439453e+00 1.687151193618774414e+00 -7.707235962152481079e-02
8.300000000000000000e+02 6.211666870117187500e+01 1.376349163055419922e+01 3.730468451976776123e-02 5.631775856018066406e+00 1.700724124908447266e+00 1.092893779277801514e-01
8.310000000000000000e+02 6.257073974609375000e+01 1.120788669586181641e+01 2.544150948524475098e-01 5.364071846008300781e+00 1.685546040534973145e+00 7.209691405296325684e-01
8.320000000000000000e+02 6.153530883789062500e+01 9.038362503051757812e+00 4.242538511753082275e-01 5.749880313873291016e+00 1.852240324020385742e+00 1.393026709556579590e+00
8.330000000000000000e+02 6.080744171142578125e+01 6.754158973693847656e+00 7.629060149192810059e-01 5.316040039062500000e+00 1.823683738708496094e+00 1.862441658973693848e+00
8.340000000000000000e+02 6.063645172119140625e+01 4.968453884124755859e+00 1.222567200660705566e+00 4.224517345428466797e+00 1.634125351905822754e+00 1.810857534408569336e+00
8.350000000000000000e+02 5.876993942260742188e+01 3.317855596542358398e+00 1.471639871597290039e+00 2.997460603713989258e+00 1.340730190277099609e+00 2.073068618774414062e+00
8.360000000000000000e+02 5.829690933227539062e+01 2.679462432861328125e+00 1.385628104209899902e+00 2.744756221771240234e+00 1.239115238189697266e+00 1.946498394012451172e+00
8.370000000000000000e+02 5.782695770263671875e+01 2.042841672897338867e+00 1.204010248184204102e+00 2.585594892501831055e+00 1.136881589889526367e+00 1.822566151618957520e+00
8.380000000000000000e+02 5.695893478393554688e+01 7.316849231719970703e-01 1.227007627487182617e+00 2.947594404220581055e+00 1.252380609512329102e+00 1.879813909530639648e+00
8.390000000000000000e+02 5.700884246826171875e+01 -3.405296206474304199e-01 1.410369634628295898e+00 2.612169027328491211e+00 1.206761598587036133e+00 1.745625734329223633e+00
8.400000000000000000e+02 5.500326538085937500e+01 -1.779672980308532715e+00 1.683843255043029785e+00 2.228663444519042969e+00 1.173752069473266602e+00 1.923454165458679199e+00
8.410000000000000000e+02 5.445778656005859375e+01 -2.351862430572509766e+00 1.618226289749145508e+00 2.017358064651489258e+00 1.090675354003906250e+00 1.777104735374450684e+00
8.420000000000000000e+02 5.335932159423828125e+01 -3.482342243194580078e+00 1.221817493438720703e+00 1.675992250442504883e+00 8.693429231643676758e-01 1.444353699684143066e+00
8.430000000000000000e+02 5.281624984741210938e+01 -4.053301334381103516e+00 1.007288932800292969e+00 1.553598642349243164e+00 7.682662606239318848e-01 1.296787858009338379e+00
8.440000000000000000e+02 5.223936462402343750e+01 -4.577602863311767578e+00 4.777658283710479736e-01 1.094041585922241211e+00 4.715422391891479492e-01 8.274738788604736328e-01
8.450000000000000000e+02 5.116086578369140625e+01 -5.630556106567382812e+00 -2.513725280761718750e+00 2.317423671483993530e-01 -6.845948696136474609e-01 1.187556862831115723e+00
8.460000000000000000e+02 4.810210037231445312e+01 -4.952794075012207031e+00 -6.591475009918212891e+00 -5.138406157493591309e-01 -2.131594657897949219e+00 1.458129167556762695e+00
8.470000000000000000e+02 4.733884811401367188e+01 -4.739988803863525391e+00 -6.111392498016357422e+00 -5.802961587905883789e-01 -2.007506608963012695e+00 1.695391774177551270e+00
8.480000000000000000e+02 4.658716201782226562e+01 -4.495310783386230469e+00 -5.335441589355468750e+00 -3.604398667812347412e-01 -1.708764433860778809e+00 1.556670427322387695e+00
8.490000000000000000e+02 4.485742950439453125e+01 -4.680457592010498047e+00 -3.502323627471923828e+00 5.221051573753356934e-01 -8.940655589103698730e-01 1.330032646656036377e-01
8.500000000000000000e+02 4.279320144653320312e+01 -3.268351316452026367e+00 -4.671350121498107910e-01 1.445761442184448242e+00 2.935879230499267578e-01 -1.061860084533691406e+00
8.510000000000000000e+02 4.141214370727539062e+01 -2.332182407379150391e+00 3.683051824569702148e+00 7.173902034759521484e+00 3.257086038589477539e+00 -4.892577171325683594e+00
8.520000000000000000e+02 4.086524581909179688e+01 -1.690887808799743652e+00 4.308255195617675781e+00 1.176134586334228516e+01 4.820880413055419922e+00 -6.299021244049072266e+00
8.530000000000000000e+02 3.988542938232421875e+01 5.652004480361938477e-01 1.803906202316284180e+00 1.775731277465820312e+01 5.868365764617919922e+00 -4.999017238616943359e+00
8.540000000000000000e+02 3.943964385986328125e+01 2.950594425201416016e+00 6.355453729629516602e-01 1.903749084472656250e+01 5.901911258697509766e+00 -1.780667543411254883e+00
8.550000000000000000e+02 3.953329086303710938e+01 2.149027347564697266e+00 9.595873951911926270e-01 1.943621063232421875e+01 6.118739604949951172e+00 -3.028867721557617188e+00
8.560000000000000000e+02 3.421713256835937500e+01 5.394329547882080078e+00 5.908441543579101562e-01 1.536262130737304688e+01 4.786039829254150391e+00 -5.608422756195068359e-01
8.570000000000000000e+02 3.957219696044921875e+01 7.759935855865478516e+00 7.359511852264404297e-01 1.525673198699951172e+01 4.797804832458496094e+00 2.098998546600341797e+00
8.580000000000000000e+02 3.316480636596679688e+01 9.259560585021972656e+00 6.198525428771972656e-01 1.572739219665527344e+01 4.904173374176025391e+00 -2.751400709152221680e+00
8.590000000000000000e+02 3.381673812866210938e+01 9.378956794738769531e+00 7.449628114700317383e-01 1.503874492645263672e+01 4.735112190246582031e+00 -2.425753831863403320e+00
8.600000000000000000e+02 3.975685119628906250e+01 8.550011634826660156e+00 1.268428802490234375e+00 1.351707267761230469e+01 4.435650348663330078e+00 3.070657491683959961e+00
8.610000000000000000e+02 4.119713592529296875e+01 1.142751407623291016e+01 1.401141524314880371e+00 4.584320545196533203e+00 1.795638561248779297e+00 2.394085168838500977e+00
8.620000000000000000e+02 4.322721481323242188e+01 1.392768955230712891e+01 9.295135140419006348e-01 1.529316663742065430e+00 7.376490235328674316e-01 1.146650433540344238e+00
8.630000000000000000e+02 4.378621292114257812e+01 1.450229549407958984e+01 8.214572072029113770e-01 1.159753322601318359e+00 5.943631529808044434e-01 9.454974532127380371e-01
8.640000000000000000e+02 4.495291900634765625e+01 1.558711242675781250e+01 5.459805727005004883e-01 6.647001504898071289e-01 3.632042109966278076e-01 6.018155813217163086e-01
8.650000000000000000e+02 4.675141906738281250e+01 1.715444564819335938e+01 2.497050166130065918e-01 3.148365914821624756e-01 1.693624854087829590e-01 2.858071029186248779e-01
8.660000000000000000e+02 4.737415313720703125e+01 1.765240097045898438e+01 1.277440935373306274e-01 2.162147611379623413e-01 1.031876578927040100e-01 1.886664330959320068e-01
8.670000000000000000e+02 4.800323867797851562e+01 1.815018272399902344e+01 -2.357717370614409447e-03 1.420361846685409546e-01 4.190354049205780029e-02 9.567919373512268066e-02
8.680000000000000000e+02 4.864636993408203125e+01 1.864555358886718750e+01 -1.705824583768844604e-01 7.202401012182235718e-02 -2.956753596663475037e-02 8.487655781209468842e-03
8.690000000000000000e+02 5.313859176635742188e+01 2.062100028991699219e+01 -1.086903095245361328e+00 -4.305424913763999939e-02 -3.389872014522552490e-01 -2.665794193744659424e-01
8.700000000000000000e+02 5.469506454467773438e+01 2.107883262634277344e+01 -1.349782943725585938e+00 -1.026228666305541992e-01 -4.357217550277709961e-01 -2.803207039833068848e-01
8.710000000000000000e+02 5.458471679687500000e+01 2.202749061584472656e+01 -7.851901054382324219e-01 -5.092172697186470032e-02 -2.508335709571838379e-01 -1.457596272230148315e-01
8.720000000000000000e+02 5.789076614379882812e+01 2.161363029479980469e+01 -9.633037447929382324e-01 3.856433788314461708e-03 -2.878341972827911377e-01 -2.946301400661468506e-01
8.730000000000000000e+02 6.775898742675781250e+01 -1.500778484344482422e+01 -1.047946512699127197e-01 -1.333139389753341675e-01 -7.143257558345794678e-02 1.205098927021026611e-01
8.740000000000000000e+02 2.237330055236816406e+01 4.407805442810058594e+00 -6.240804941626265645e-05 -8.933467324823141098e-05 -4.552281825453974307e-05 -5.657540896208956838e-05
8.750000000000000000e+02 2.299298477172851562e+01 3.912123918533325195e+00 4.039978375658392906e-05 5.675914508174173534e-05 2.914767719630617648e-05 4.806372453458607197e-05
8.760000000000000000e+02 2.172990798950195312e+01 4.934832572937011719e+00 7.488460687454789877e-05 6.498878065031021833e-05 4.196201552986167371e-05 1.050203354679979384e-04
8.770000000000000000e+02 6.767002105712890625e+01 -1.342353248596191406e+01 -6.798390150070190430e-01 1.199449598789215088e-02 -2.003533542156219482e-01 2.136491835117340088e-01
8.780000000000000000e+02 7.125357818603515625e+01 -1.452750873565673828e+01 -2.796106338500976562e-01 5.110955238342285156e-02 -6.855032593011856079e-02 -4.432362504303455353e-03
8.790000000000000000e+02 7.127177429199218750e+01 -1.384454154968261719e+01 -3.430930972099304199e-01 7.669007778167724609e-02 -7.992091029882431030e-02 -4.373601078987121582e-02
8.800000000000000000e+02 2.020517349243164062e+01 3.083405017852783203e+00 -2.554343518568202853e-05 -4.648624235414899886e-05 -2.160890289815142751e-05 -7.253706826304551214e-06
8.810000000000000000e+02 1.991847610473632812e+01 6.533896446228027344e+00 -2.189956721849739552e-04 -1.054611711879260838e-04 -9.733705519465729594e-05 -1.683751615928485990e-04
8.820000000000000000e+02 2.052371025085449219e+01 6.005097389221191406e+00 1.412047131452709436e-04 1.238287077285349369e-04 7.951002771733328700e-05 1.631838676985353231e-04
8.830000000000000000e+02 7.241043853759765625e+01 -1.891827201843261719e+01 2.707154199015349150e-04 -1.454342622309923172e-03 -3.550881519913673401e-04 7.976447232067584991e-04
8.840000000000000000e+02 6.992765808105468750e+01 -1.849787521362304688e+01 8.091422496363520622e-04 3.397075633984059095e-04 3.446549526415765285e-04 1.859595999121665955e-03
8.850000000000000000e+02 6.802521514892578125e+01 -2.298458862304687500e+01 -1.270559895783662796e-02 6.816695677116513252e-04 -3.607178805395960808e-03 -5.163617432117462158e-03
8.860000000000000000e+02 7.380789184570312500e+01 -1.883469772338867188e+01 4.363324260339140892e-04 -1.253016293048858643e-03 -2.450051542837172747e-04 -9.667831363913137466e-06
8.870000000000000000e+02 6.956851959228515625e+01 -2.001879119873046875e+01 -3.810390771832317114e-04 2.819316578097641468e-04 -2.973222581204026937e-05 1.894032582640647888e-03
8.880000000000000000e+02 6.825558471679687500e+01 -2.116305541992187500e+01 1.152712269686162472e-03 6.666084285825490952e-03 2.345638815313577652e-03 1.204940141178667545e-03
8.890000000000000000e+02 1.816887664794921875e+01 8.193882942199707031e+00 4.561567329801619053e-04 6.791611667722463608e-04 3.405953757464885712e-04 -5.194825280341319740e-05
8.900000000000000000e+02 1.833974838256835938e+01 2.166692972183227539e+00 1.670144774834625423e-05 1.152143067884026095e-05 8.466863619105424732e-06 1.097189888241700828e-04
8.910000000000000000e+02 1.817970466613769531e+01 2.789969921112060547e+00 7.253586227307096124e-05 2.546079922467470169e-04 9.814315853873267770e-05 9.088021761272102594e-05
8.920000000000000000e+02 1.608453178405761719e+01 2.650929212570190430e+00 1.062418596120551229e-04 1.375355495838448405e-04 7.313322566915303469e-05 4.183963174000382423e-04
8.930000000000000000e+02 1.940086936950683594e+01 6.151003837585449219e+00 7.991480379132553935e-05 3.089547681156545877e-04 1.166608708444982767e-04 7.603297854075208306e-05
8.940000000000000000e+02 1.383179950714111328e+01 3.293243408203125000e+00 2.916817320510745049e-04 9.276568016503006220e-05 1.153342236648313701e-04 7.905362872406840324e-04
8.950000000000000000e+02 1.474925994873046875e+01 1.922080159187316895e+00 4.637747479137033224e-04 1.477256591897457838e-04 1.834501163102686405e-04 3.984498325735330582e-04
8.960000000000000000e+02 1.537140464782714844e+01 2.626806974411010742e+00 2.997786796186119318e-04 2.644493943080306053e-04 1.692684163572266698e-04 4.229734186083078384e-04
8.970000000000000000e+02 1.464973545074462891e+01 2.608513593673706055e+00 2.876704384107142687e-04 1.073736420948989689e-04 1.185132277896627784e-04 5.887832958251237869e-04
8.980000000000000000e+02 7.512190246582031250e+01 -1.817463302612304688e+01 1.175425713881850243e-03 -3.592441207729279995e-04 2.448544546496123075e-04 -8.053289493545889854e-04
8.990000000000000000e+02 7.463061523437500000e+01 -1.952132797241210938e+01 -5.602566525340080261e-04 -1.385685056447982788e-03 -5.837825010530650616e-04 -2.974613162223249674e-04
9.000000000000000000e+02 7.451032257080078125e+01 -1.883594512939453125e+01 2.253858692711219192e-04 -7.345761987380683422e-04 -1.527571002952754498e-04 -5.888033774681389332e-04
9.010000000000000000e+02 1.160425662994384766e+01 3.275785684585571289e+00 8.406889392063021660e-04 -1.789185625966638327e-04 1.985311100725084543e-04 6.692628376185894012e-04
9.020000000000000000e+02 1.169715404510498047e+01 2.572493076324462891e+00 8.376757032237946987e-04 -1.562115212436765432e-04 2.044392458628863096e-04 6.409545312635600567e-04
9.030000000000000000e+02 1.254381370544433594e+01 1.866742610931396484e+00 8.355239988304674625e-04 -4.377831646706908941e-05 2.375236945226788521e-04 5.319807678461074829e-04
9.040000000000000000e+02 1.244173145294189453e+01 2.572596073150634766e+00 7.998624932952225208e-04 -9.090570529224351048e-06 2.372315793763846159e-04 6.102553452365100384e-04
9.050000000000000000e+02 1.318228340148925781e+01 2.579363584518432617e+00 5.551892681978642941e-04 -5.041935310146072879e-06 1.650441990932449698e-04 6.867634947411715984e-04
9.060000000000000000e+02 6.650157165527343750e+01 -1.262717533111572266e+01 -1.139427661895751953e+00 -7.589507102966308594e-02 -3.645968437194824219e-01 2.759745717048645020e-01
9.070000000000000000e+02 6.973978424072265625e+01 -1.390154457092285156e+01 -4.174475967884063721e-01 8.573355525732040405e-02 -9.951421618461608887e-02 3.948306664824485779e-02
9.080000000000000000e+02 6.552333831787109375e+01 -1.274335575103759766e+01 -1.539755582809448242e+00 -2.692107260227203369e-01 -5.426899194717407227e-01 6.778770685195922852e-01
9.090000000000000000e+02 6.585503387451171875e+01 -1.220335674285888672e+01 -1.707494378089904785e+00 -5.808862671256065369e-02 -5.296748876571655273e-01 1.972330808639526367e-01
9.100000000000000000e+02 7.889509582519531250e+01 -1.456840801239013672e+01 -9.511653333902359009e-03 -1.446606963872909546e-02 -7.193317171186208725e-03 -9.984663687646389008e-03
9.110000000000000000e+02 7.741155242919921875e+01 -1.453793334960937500e+01 -4.158016294240951538e-02 -2.231552079319953918e-02 -1.916870474815368652e-02 -3.911298885941505432e-02
9.120000000000000000e+02 7.894020843505859375e+01 -1.223262977600097656e+01 -1.099575590342283249e-02 -8.393393456935882568e-02 -2.847890555858612061e-02 -5.001832917332649231e-02
9.130000000000000000e+02 1.183189201354980469e+01 -2.534471035003662109e+00 -8.847742676734924316e-01 6.708355993032455444e-02 -2.453072071075439453e-01 -2.289974093437194824e-01
9.140000000000000000e+02 9.533673286437988281e+00 -2.550825834274291992e+00 -7.245810031890869141e-01 3.402737155556678772e-02 -2.071660906076431274e-01 -3.297143280506134033e-01
9.150000000000000000e+02 8.819629669189453125e+00 -1.852209568023681641e+00 -7.647181749343872070e-01 9.854684583842754364e-03 -2.264590412378311157e-01 -2.758508324623107910e-01
9.160000000000000000e+02 1.106631469726562500e+01 -2.542931079864501953e+00 -8.396586775779724121e-01 5.712347105145454407e-02 -2.347605526447296143e-01 -2.696462869644165039e-01
9.170000000000000000e+02 7.965083312988281250e+01 -9.822119712829589844e+00 -1.443975721485912800e-03 -2.317494004964828491e-01 -6.995801627635955811e-02 -3.200750052928924561e-02
9.180000000000000000e+02 7.518755340576171875e+01 -1.377929401397705078e+01 -1.358822882175445557e-01 -1.328371651470661163e-02 -4.474980011582374573e-02 -1.060224398970603943e-01
9.190000000000000000e+02 7.666615295410156250e+01 -1.452210330963134766e+01 -6.472786515951156616e-02 -1.868414506316184998e-02 -2.502360381186008453e-02 -5.378580838441848755e-02
9.200000000000000000e+02 7.823570251464843750e+01 -8.364509582519531250e+00 -2.238662354648113251e-02 -3.584753274917602539e-01 -1.142585799098014832e-01 -1.894992589950561523e-01
9.210000000000000000e+02 7.963092041015625000e+01 -1.992799377441406250e+01 -6.434274837374687195e-05 2.718891715630888939e-03 7.963646785356104374e-04 -4.563589172903448343e-04
9.220000000000000000e+02 7.735405731201171875e+01 -1.825976753234863281e+01 7.755340193398296833e-04 5.752954893978312612e-05 2.499190741218626499e-04 -1.317755435593426228e-03
9.230000000000000000e+02 7.814747619628906250e+01 -1.902338218688964844e+01 2.523160364944487810e-04 6.023601163178682327e-04 2.564028545748442411e-04 -1.344439107924699783e-03
9.240000000000000000e+02 7.531412506103515625e+01 -1.952580070495605469e+01 -6.186546524986624718e-04 -9.074170375242829323e-04 -4.578215011861175299e-04 -8.893723133951425552e-04
9.250000000000000000e+02 7.889263153076171875e+01 -1.985249519348144531e+01 6.268524884944781661e-05 1.621507573872804642e-03 5.052578635513782501e-04 -1.050803111866116524e-03
9.260000000000000000e+02 1.490594100952148438e+01 -3.118260622024536133e+00 -7.931833267211914062e-01 1.622931659221649170e-01 -1.892670542001724243e-01 2.080496028065681458e-02
9.270000000000000000e+02 1.260007953643798828e+01 -2.520243167877197266e+00 -9.187614917755126953e-01 7.509154826402664185e-02 -2.531009912490844727e-01 -1.781881302595138550e-01
9.280000000000000000e+02 1.337079238891601562e+01 -2.499762296676635742e+00 -9.421812891960144043e-01 8.378408849239349365e-02 -2.575191557407379150e-01 -1.237496212124824524e-01
9.290000000000000000e+02 8.049765586853027344e+00 -1.853399991989135742e+00 -6.766711473464965820e-01 3.264733823016285896e-03 -2.020219117403030396e-01 -2.828240096569061279e-01
9.300000000000000000e+02 1.102797985076904297e+01 -3.233071565628051758e+00 -7.077773213386535645e-01 9.471617639064788818e-02 -1.839183568954467773e-01 -3.114952743053436279e-01
9.310000000000000000e+02 5.740322589874267578e+00 -1.858725070953369141e+00 -4.080994725227355957e-01 -2.517585270106792450e-02 -1.299826055765151978e-01 -2.630592882633209229e-01
9.320000000000000000e+02 3.340303421020507812e+00 -3.347032785415649414e+00 -1.434836238622665405e-01 -1.443279236555099487e-01 -8.634345978498458862e-02 -2.855013012886047363e-01
9.330000000000000000e+02 6.450917720794677734e+00 -2.568592548370361328e+00 -4.354040026664733887e-01 -2.699918672442436218e-02 -1.387209594249725342e-01 -3.511552512645721436e-01
9.340000000000000000e+02 7.221442699432373047e+00 -2.562659740447998047e+00 -5.101391673088073730e-01 -9.923624806106090546e-03 -1.560188382863998413e-01 -3.584283590316772461e-01
9.350000000000000000e+02 4.912451267242431641e+00 -2.582756280899047852e+00 -2.919337451457977295e-01 -6.183718517422676086e-02 -1.061312779784202576e-01 -3.100047707557678223e-01
9.360000000000000000e+02 3.572348654270172119e-01 -5.885571956634521484e+00 -2.326862188056111336e-03 -4.818240404129028320e-01 -1.452452689409255981e-01 -5.861919000744819641e-02
9.370000000000000000e+02 3.576383888721466064e-01 -5.084942817687988281e+00 -2.050435170531272888e-03 -3.530578017234802246e-01 -1.065324693918228149e-01 -5.333883315324783325e-02
9.380000000000000000e+02 1.075282335281372070e+00 -6.612200736999511719e+00 -6.414510309696197510e-03 -5.674791336059570312e-01 -1.721680909395217896e-01 -1.788978874683380127e-01
9.390000000000000000e+02 3.689960539340972900e-01 -2.689810991287231445e+00 -5.419920664280653000e-03 -6.907598674297332764e-02 -2.234877273440361023e-02 -2.752729132771492004e-02
9.400000000000000000e+02 3.593840897083282471e-01 -4.285454273223876953e+00 -3.666486591100692749e-03 -2.384757250547409058e-01 -7.264266163110733032e-02 -4.680046439170837402e-02
9.410000000000000000e+02 1.805829620361328125e+01 -2.223303318023681641e+00 -7.833396196365356445e-01 1.107167750597000122e-01 -2.017868459224700928e-01 2.538290917873382568e-01
9.420000000000000000e+02 1.725908279418945312e+01 -1.610745549201965332e+00 -1.004553198814392090e+00 5.658907815814018250e-02 -2.843892276287078857e-01 1.297455430030822754e-01
9.430000000000000000e+02 1.569821262359619141e+01 -2.404984712600708008e+00 -9.274619817733764648e-01 1.024227887392044067e-01 -2.475117594003677368e-01 7.188801467418670654e-02
9.440000000000000000e+02 1.648400688171386719e+01 -2.354773044586181641e+00 -8.925203084945678711e-01 1.053664609789848328e-01 -2.361461669206619263e-01 1.358624547719955444e-01
9.450000000000000000e+02 6.395972824096679688e+01 -1.230815410614013672e+01 -3.054650068283081055e+00 -4.299034178256988525e-01 -1.045366048812866211e+00 -2.462874203920364380e-01
9.460000000000000000e+02 5.706309509277343750e+01 2.372160339355468750e+01 -2.342396676540374756e-01 2.575068771839141846e-01 6.980161182582378387e-03 -4.838140606880187988e-01
9.470000000000000000e+02 5.271447753906250000e+01 -5.001309871673583984e+00 -7.786762714385986328e-01 1.658804297447204590e+00 2.640384137630462646e-01 9.983272552490234375e-01
9.480000000000000000e+02 5.162397766113281250e+01 -4.994804382324218750e+00 -1.751296520233154297e+00 3.916549086570739746e-01 -4.078924953937530518e-01 4.944202601909637451e-01
9.490000000000000000e+02 5.326743698120117188e+01 -4.475063323974609375e+00 3.846109509468078613e-01 1.652909874916076660e+00 6.112562417984008789e-01 1.087090492248535156e+00
9.500000000000000000e+02 7.130306243896484375e+01 -1.315552043914794922e+01 -3.893280625343322754e-01 1.034938916563987732e-01 -8.575025200843811035e-02 -8.787134289741516113e-02
9.510000000000000000e+02 7.205528259277343750e+01 -1.381386947631835938e+01 -2.950780689716339111e-01 5.905494093894958496e-02 -7.080694288015365601e-02 -6.948163360357284546e-02
9.520000000000000000e+02 7.363471984863281250e+01 -1.377607250213623047e+01 -2.106037735939025879e-01 1.846182718873023987e-02 -5.764258280396461487e-02 -1.063030660152435303e-01
9.530000000000000000e+02 5.548952102661132812e+01 2.123228836059570312e+01 -1.274131298065185547e+00 -4.868780821561813354e-02 -3.968457281589508057e-01 -2.283047437667846680e-01
9.540000000000000000e+02 6.132355117797851562e+01 8.265251159667968750e+00 6.091359853744506836e-01 5.594766616821289062e+00 1.861170768737792969e+00 1.604529380798339844e+00
9.550000000000000000e+02 6.012828445434570312e+01 5.297245979309082031e+00 1.578327536582946777e+00 4.499885559082031250e+00 1.823463916778564453e+00 2.482306003570556641e+00
9.560000000000000000e+02 4.965213012695312500e+01 -5.232315063476562500e+00 -5.206537246704101562e+00 -1.180823519825935364e-01 -1.597385883331298828e+00 8.439772725105285645e-01
9.570000000000000000e+02 5.009709167480468750e+01 -6.222091197967529297e+00 -2.549053668975830078e+00 -1.323246061801910400e-01 -8.044134378433227539e-01 1.644586443901062012e+00
9.580000000000000000e+02 6.211640930175781250e+01 1.767812728881835938e+01 5.199735164642333984e-01 5.801160335540771484e+00 1.896340131759643555e+00 -9.513510465621948242e-01
9.590000000000000000e+02 6.220422363281250000e+01 1.939734077453613281e+01 6.799359321594238281e-01 3.857300996780395508e+00 1.361171126365661621e+00 -6.846740245819091797e-01
9.600000000000000000e+02 6.213628768920898438e+01 1.691835784912109375e+01 1.263235509395599365e-01 5.712391853332519531e+00 1.751614570617675781e+00 -4.778951406478881836e-01
9.610000000000000000e+02 6.302620697021484375e+01 1.746467208862304688e+01 6.723409295082092285e-01 4.338109493255615234e+00 1.503135085105895996e+00 -4.989792406558990479e-01
9.620000000000000000e+02 4.090404510498046875e+01 -2.840326547622680664e+00 4.635647237300872803e-01 9.408763885498046875e+00 2.961698532104492188e+00 -3.502444267272949219e+00
9.630000000000000000e+02 4.029605102539062500e+01 -2.075016975402832031e+00 1.883132576942443848e+00 1.184344387054443359e+01 4.117972850799560547e+00 -3.631404876708984375e+00
9.640000000000000000e+02 3.860026931762695312e+01 2.455424219369888306e-01 2.031455039978027344e+00 1.454874801635742188e+01 4.974061012268066406e+00 -2.882580995559692383e+00
9.650000000000000000e+02 5.376655960083007812e+01 2.176325798034667969e+01 -8.591797947883605957e-01 1.562776393257081509e-03 -2.572851181030273438e-01 -9.982758015394210815e-02
9.660000000000000000e+02 4.379274749755859375e+01 -1.954678535461425781e+01 2.231021642684936523e+00 1.110570526123046875e+01 4.001018047332763672e+00 6.940727233886718750e-01
9.670000000000000000e+02 4.354959487915039062e+01 -3.576002836227416992e+00 -2.688814640045166016e+00 3.251639604568481445e-01 -7.090952396392822266e-01 7.302772998809814453e-02
9.680000000000000000e+02 4.409486389160156250e+01 -4.433187961578369141e+00 -2.875673055648803711e+00 9.052245616912841797e-01 -5.911345481872558594e-01 -4.103184342384338379e-01
9.690000000000000000e+02 4.879825973510742188e+01 2.123748016357421875e+01 -1.695115864276885986e-01 6.106954813003540039e-01 1.323551684617996216e-01 4.854742288589477539e-01
9.700000000000000000e+02 4.931898498535156250e+01 1.912305068969726562e+01 -3.622586727142333984e-01 1.702431589365005493e-02 -1.035703048110008240e-01 -7.700062543153762817e-02
9.710000000000000000e+02 6.183954238891601562e+01 1.996341514587402344e+01 5.589457154273986816e-01 3.672161102294921875e+00 1.269332051277160645e+00 -9.576030969619750977e-01
9.720000000000000000e+02 6.083015823364257812e+01 2.012338256835937500e+01 1.175214052200317383e+00 2.629166603088378906e+00 1.141314148902893066e+00 -1.617099642753601074e+00
9.730000000000000000e+02 4.938264083862304688e+01 -6.008633136749267578e+00 -3.423071146011352539e+00 -3.084314763545989990e-01 -1.119450807571411133e+00 1.308777213096618652e+00
9.740000000000000000e+02 4.251760101318359375e+01 -3.846383571624755859e+00 -1.282207489013671875e+00 3.530852794647216797e+00 6.745936274528503418e-01 -2.334231376647949219e+00
9.750000000000000000e+02 4.167335128784179688e+01 -3.448718309402465820e+00 -4.970498681068420410e-01 6.484730720520019531e+00 1.796304225921630859e+00 -3.176290988922119141e+00
9.760000000000000000e+02 6.184751892089843750e+01 1.060558414459228516e+01 2.591653168201446533e-01 6.022088527679443359e+00 1.884376168251037598e+00 8.247531652450561523e-01
9.770000000000000000e+02 6.331184387207031250e+01 1.182326889038085938e+01 3.605079352855682373e-01 4.765754699707031250e+00 1.537878870964050293e+00 5.265958905220031738e-01
9.780000000000000000e+02 6.107048034667968750e+01 7.507273674011230469e+00 5.789861083030700684e-01 5.185153007507324219e+00 1.729241728782653809e+00 1.716229081153869629e+00
9.790000000000000000e+02 4.077230453491210938e+01 1.074320220947265625e+01 1.446772336959838867e+00 5.827834129333496094e+00 2.182381868362426758e+00 2.769076108932495117e+00
9.800000000000000000e+02 3.410902404785156250e+01 1.187195491790771484e+01 9.637718200683593750e-01 1.334468555450439453e+01 4.292537212371826172e+00 -2.503856658935546875e+00
9.810000000000000000e+02 6.209217453002929688e+01 1.297291278839111328e+01 1.586906760931015015e-01 5.936238288879394531e+00 1.828478693962097168e+00 3.098464906215667725e-01
9.820000000000000000e+02 5.541341781616210938e+01 2.225206947326660156e+01 -7.450194358825683594e-01 -1.817335002124309540e-02 -2.289578318595886230e-01 -2.376661598682403564e-01
9.830000000000000000e+02 4.216602325439453125e+01 1.271848773956298828e+01 1.190763354301452637e+00 2.536171436309814453e+00 1.118080496788024902e+00 1.675467133522033691e+00
9.840000000000000000e+02 4.748523330688476562e+01 1.870228958129882812e+01 5.536370724439620972e-02 4.672063291072845459e-01 1.567710191011428833e-01 3.335127234458923340e-01
9.850000000000000000e+02 4.583390808105468750e+01 -4.261941432952880859e+00 -4.968758106231689453e+00 -2.743476927280426025e-01 -1.572931766510009766e+00 1.285311102867126465e+00
9.860000000000000000e+02 4.711948013305664062e+01 -5.373495578765869141e+00 -4.545221328735351562e+00 -2.072018384933471680e-01 -1.425727009773254395e+00 8.741162419319152832e-01
9.870000000000000000e+02 4.787489318847656250e+01 -5.596204280853271484e+00 -4.389875411987304688e+00 -5.123117566108703613e-01 -1.470656156539916992e+00 1.020859599113464355e+00
9.880000000000000000e+02 3.906262969970703125e+01 1.226055264472961426e+00 1.845842957496643066e+00 1.674419784545898438e+01 5.577012062072753906e+00 -3.274895668029785156e+00
9.890000000000000000e+02 6.020655059814453125e+01 4.254007816314697266e+00 1.224010109901428223e+00 3.753333330154418945e+00 1.493203043937683105e+00 1.934460282325744629e+00
9.900000000000000000e+02 5.235654449462890625e+01 2.040876960754394531e+01 -1.032494783401489258e+00 -4.819034039974212646e-02 -3.242055177688598633e-01 -2.298372387886047363e-01
9.910000000000000000e+02 5.131610107421875000e+01 2.109367561340332031e+01 -6.065745949745178223e-01 7.219932973384857178e-02 -1.603125929832458496e-01 2.483026310801506042e-02
9.920000000000000000e+02 3.880465698242187500e+01 2.889175415039062500e+00 1.340532779693603516e+00 1.695883941650390625e+01 5.489811420440673828e+00 -2.111214160919189453e+00
9.930000000000000000e+02 5.553732681274414062e+01 -1.190343260765075684e+00 1.742495179176330566e+00 2.511325597763061523e+00 1.276146292686462402e+00 2.034568548202514648e+00
9.940000000000000000e+02 5.599744033813476562e+01 -1.628850817680358887e+00 1.372355580329895020e+00 2.424746751785278320e+00 1.139130711555480957e+00 1.723478436470031738e+00
9.950000000000000000e+02 5.707193374633789062e+01 2.254586029052734375e+01 -5.408539175987243652e-01 4.663698375225067139e-02 -1.482650935649871826e-01 -3.347714245319366455e-01
9.960000000000000000e+02 3.361069869995117188e+01 4.477945327758789062e+00 4.364554584026336670e-01 1.639251136779785156e+01 5.048690319061279297e+00 -6.791683286428451538e-02
9.970000000000000000e+02 3.925814056396484375e+01 3.910934925079345703e-01 1.975561022758483887e+00 1.610023880004882812e+01 5.422739982604980469e+00 -3.801008462905883789e+00
9.980000000000000000e+02 5.791604232788085938e+01 9.645321369171142578e-01 1.190969109535217285e+00 2.629609823226928711e+00 1.146173715591430664e+00 1.825475573539733887e+00
9.990000000000000000e+02 6.266157531738281250e+01 1.200147342681884766e+01 2.147840112447738647e-01 5.273431301116943359e+00 1.646464586257934570e+00 4.408551454544067383e-01
1.000000000000000000e+03 6.273157501220703125e+01 1.279806709289550781e+01 2.794485986232757568e-01 5.174248218536376953e+00 1.636109113693237305e+00 3.670456707477569580e-01
1.001000000000000000e+03 5.738322830200195312e+01 1.395047426223754883e+00 1.121604442596435547e+00 2.697003126144409180e+00 1.145582318305969238e+00 1.778708577156066895e+00
1.002000000000000000e+03 5.882911682128906250e+01 2.253559112548828125e+00 1.135485172271728516e+00 2.846699714660644531e+00 1.194655418395996094e+00 1.809008717536926270e+00
1.003000000000000000e+03 5.390563201904296875e+01 -2.915088891983032227e+00 1.412992358207702637e+00 1.785971045494079590e+00 9.596890211105346680e-01 1.624570012092590332e+00
1.004000000000000000e+03 3.938977813720703125e+01 5.352938652038574219e+00 8.486120402812957764e-02 1.598799991607666016e+01 4.821858406066894531e+00 -1.739761978387832642e-01
1.005000000000000000e+03 3.322042083740234375e+01 1.254578971862792969e+01 1.168973684310913086e+00 1.372520732879638672e+01 4.468254566192626953e+00 -3.072739839553833008e+00
1.006000000000000000e+03 5.986923980712890625e+01 2.293356132507324219e+01 -3.099041581153869629e-01 1.369621515274047852e+00 3.179152011871337891e-01 -9.088141918182373047e-01
1.007000000000000000e+03 6.190757369995117188e+01 8.017313957214355469e+00 6.165170669555664062e-01 4.978118419647216797e+00 1.678390741348266602e+00 1.305605530738830566e+00
1.008000000000000000e+03 4.106260299682617188e+01 1.245517444610595703e+01 9.842939972877502441e-01 4.806529045104980469e+00 1.737246870994567871e+00 1.906896591186523438e+00
1.009000000000000000e+03 4.057455444335937500e+01 1.175935077667236328e+01 9.832395911216735840e-01 6.009149074554443359e+00 2.097716569900512695e+00 2.098593473434448242e+00
1.010000000000000000e+03 4.390097045898437500e+01 1.657214736938476562e+01 6.226326227188110352e-01 1.763506650924682617e+00 7.158417701721191406e-01 1.071381926536560059e+00
1.011000000000000000e+03 3.950469207763671875e+01 -4.456793665885925293e-01 2.378020286560058594e+00 1.487414264678955078e+01 5.175649166107177734e+00 -4.218459129333496094e+00
1.012000000000000000e+03 4.507815933227539062e+01 -4.032782554626464844e+00 -4.452980518341064453e+00 -1.219835877418518066e-01 -1.372489333152770996e+00 1.004209399223327637e+00
1.013000000000000000e+03 4.952404785156250000e+01 2.047064971923828125e+01 -3.567044138908386230e-01 2.970634698867797852e-01 -1.789228990674018860e-02 2.227882444858551025e-01
1.014000000000000000e+03 4.878639602661132812e+01 1.984238052368164062e+01 -2.186247110366821289e-01 3.535596430301666260e-01 4.048047587275505066e-02 2.387682199478149414e-01
1.015000000000000000e+03 4.863368225097656250e+01 -5.802752971649169922e+00 -4.095992088317871094e+00 -4.621544182300567627e-01 -1.367443919181823730e+00 1.225043654441833496e+00
1.016000000000000000e+03 3.800814437866210938e+01 4.527403354644775391e+00 9.961689710617065430e-01 1.559657192230224609e+01 4.977822303771972656e+00 -1.154305100440979004e+00
1.017000000000000000e+03 6.213033676147460938e+01 1.455180168151855469e+01 3.517206385731697083e-02 5.486906528472900391e+00 1.656623601913452148e+00 2.386676520109176636e-02
1.018000000000000000e+03 6.285229873657226562e+01 1.515754222869873047e+01 1.931682974100112915e-01 5.051791667938232422e+00 1.573487997055053711e+00 -9.248273074626922607e-02
1.019000000000000000e+03 4.561331558227539062e+01 -4.916653156280517578e+00 -3.912621736526489258e+00 2.856625616550445557e-01 -1.088087797164916992e+00 5.411176681518554688e-01
1.020000000000000000e+03 6.289483261108398438e+01 1.594592666625976562e+01 2.408525049686431885e-01 4.983311176300048828e+00 1.567249178886413574e+00 -2.091013491153717041e-01
1.021000000000000000e+03 6.135882568359375000e+01 6.475560665130615234e+00 1.031205534934997559e+00 4.688106536865234375e+00 1.715793609619140625e+00 1.764711260795593262e+00
1.022000000000000000e+03 4.442568969726562500e+01 1.607522392272949219e+01 6.189321875572204590e-01 1.213217496871948242e+00 5.496448874473571777e-01 8.750067949295043945e-01
1.023000000000000000e+03 4.614061737060546875e+01 1.664294624328613281e+01 3.512481451034545898e-01 4.234265685081481934e-01 2.324024140834808350e-01 3.869650959968566895e-01
1.024000000000000000e+03 5.651854324340820312e+01 -9.944708943367004395e-01 1.427866339683532715e+00 2.566151857376098633e+00 1.198205471038818359e+00 1.719347000122070312e+00
1.025000000000000000e+03 5.490022277832031250e+01 -2.789922714233398438e+00 1.184751033782958984e+00 2.041536331176757812e+00 9.678861498832702637e-01 1.580923199653625488e+00
1.026000000000000000e+03 4.686172103881835938e+01 1.817334556579589844e+01 1.895679682493209839e-01 5.597853660583496094e-01 2.248059958219528198e-01 4.159926772117614746e-01
1.027000000000000000e+03 6.294860839843750000e+01 1.672440528869628906e+01 4.338624179363250732e-01 4.882871150970458984e+00 1.595020174980163574e+00 -4.755921661853790283e-01
1.028000000000000000e+03 5.747051239013671875e+01 3.159671425819396973e-01 1.326960563659667969e+00 2.606957912445068359e+00 1.180175542831420898e+00 1.783738493919372559e+00
1.029000000000000000e+03 4.269030761718750000e+01 1.332930564880371094e+01 1.018414258956909180e+00 1.926315546035766602e+00 8.834189176559448242e-01 1.369697093963623047e+00
1.030000000000000000e+03 4.158534622192382812e+01 1.311582851409912109e+01 9.506324529647827148e-01 3.813705921173095703e+00 1.429301500320434570e+00 1.762554764747619629e+00
1.031000000000000000e+03 5.929656600952148438e+01 2.907352209091186523e+00 1.219442367553710938e+00 3.038229942321777344e+00 1.277301669120788574e+00 1.845712900161743164e+00
1.032000000000000000e+03 6.212821578979492188e+01 8.812181472778320312e+00 5.840852260589599609e-01 5.190557003021240234e+00 1.732392668724060059e+00 1.190418958663940430e+00
1.033000000000000000e+03 5.545405578613281250e+01 -2.226928710937500000e+00 1.335088253021240234e+00 2.226719141006469727e+00 1.068542242050170898e+00 1.659419178962707520e+00
1.034000000000000000e+03 5.836487579345703125e+01 1.606638550758361816e+00 1.119980216026306152e+00 2.723806858062744141e+00 1.153136134147644043e+00 1.817268013954162598e+00
1.035000000000000000e+03 5.216009521484375000e+01 2.128445625305175781e+01 -7.367362976074218750e-01 4.210928082466125488e-02 -2.083881050348281860e-01 -7.325975596904754639e-02
1.036000000000000000e+03 3.475553131103515625e+01 7.100101470947265625e+00 8.537943363189697266e-01 1.496137237548828125e+01 4.744550228118896484e+00 -1.511426806449890137e+00
1.037000000000000000e+03 3.357069015502929688e+01 5.282293796539306641e+00 2.552242577075958252e-01 1.587545204162597656e+01 4.839202880859375000e+00 -8.750964403152465820e-01
1.038000000000000000e+03 4.383663558959960938e+01 1.552733707427978516e+01 7.052220106124877930e-01 1.510561704635620117e+00 6.647351384162902832e-01 1.022454619407653809e+00
1.039000000000000000e+03 4.624356079101562500e+01 1.765501022338867188e+01 3.064820766448974609e-01 6.745803356170654297e-01 2.943187355995178223e-01 5.089041590690612793e-01
1.040000000000000000e+03 4.013976287841796875e+01 1.103599452972412109e+01 9.243258237838745117e-01 7.505411624908447266e+00 2.528921127319335938e+00 2.234307527542114258e+00
1.041000000000000000e+03 5.975613021850585938e+01 3.569723606109619141e+00 1.239456534385681152e+00 3.318980693817138672e+00 1.367531180381774902e+00 1.913801550865173340e+00
1.042000000000000000e+03 6.277946472167968750e+01 1.358970165252685547e+01 2.120962738990783691e-01 5.215787887573242188e+00 1.628365278244018555e+00 2.662640511989593506e-01
1.043000000000000000e+03 4.325484848022460938e+01 1.495956802368164062e+01 7.957363128662109375e-01 1.884603619575500488e+00 8.041019439697265625e-01 1.172523617744445801e+00
1.044000000000000000e+03 4.212698364257812500e+01 1.375112819671630859e+01 9.349591732025146484e-01 2.963147401809692383e+00 1.169431924819946289e+00 1.575647354125976562e+00
1.045000000000000000e+03 4.562992095947265625e+01 1.713487625122070312e+01 4.207744002342224121e-01 8.138481974601745605e-01 3.703867793083190918e-01 6.129916906356811523e-01
1.046000000000000000e+03 7.888162994384765625e+01 -2.934140014648437500e+01 -1.676633022725582123e-03 -2.798080444335937500e-02 -8.897231891751289368e-03 1.195110101252794266e-02
1.047000000000000000e+03 7.962464904785156250e+01 -2.941804122924804688e+01 -1.103866270568687469e-05 -2.686151303350925446e-02 -8.061765693128108978e-03 4.079575650393962860e-03
1.048000000000000000e+03 7.891078186035156250e+01 -2.462100601196289062e+01 -9.224404348060488701e-04 -3.904020413756370544e-04 -3.938527370337396860e-04 2.359969308599829674e-03
1.049000000000000000e+03 7.963117218017578125e+01 -2.388435173034667969e+01 -2.191800740547478199e-04 4.317777696996927261e-03 1.229579327628016472e-03 4.139700904488563538e-04
1.050000000000000000e+03 7.956243896484375000e+01 -3.575209808349609375e+01 5.442586843855679035e-04 -1.268891692161560059e-01 -3.790347278118133545e-02 7.535054348409175873e-03
1.051000000000000000e+03 7.956023406982421875e+01 -3.496401977539062500e+01 -3.736146609298884869e-04 -1.132238283753395081e-01 -3.407923504710197449e-02 7.743049878627061844e-03
1.052000000000000000e+03 7.885018920898437500e+01 -2.222393226623535156e+01 -4.428446118254214525e-04 2.217967063188552856e-03 5.325367092154920101e-04 -3.156816819682717323e-04
1.053000000000000000e+03 7.961985015869140625e+01 -2.150722694396972656e+01 -8.031991455936804414e-05 4.329750314354896545e-03 1.274829031899571419e-03 -3.193238517269492149e-04
1.054000000000000000e+03 7.887687683105468750e+01 -2.302725601196289062e+01 -6.345047731883823872e-04 1.851295237429440022e-03 3.650371218100190163e-04 5.128982011228799820e-04
1.055000000000000000e+03 7.890837860107421875e+01 -2.698431777954101562e+01 -1.122702145949006081e-03 -9.599648416042327881e-03 -3.216705052182078362e-03 6.303132977336645126e-03
1.056000000000000000e+03 7.891146087646484375e+01 -2.619842338562011719e+01 -1.241185702383518219e-03 -5.661154631525278091e-03 -2.070702146738767624e-03 4.948777146637439728e-03
1.057000000000000000e+03 7.963515472412109375e+01 -2.704897117614746094e+01 -4.318573337513953447e-04 -6.417822092771530151e-03 -2.054903889074921608e-03 2.253938233479857445e-03
1.058000000000000000e+03 7.886101531982421875e+01 -3.013223648071289062e+01 -1.122228917665779591e-03 -3.622609376907348633e-02 -1.120449695736169815e-02 1.357276737689971924e-02
1.059000000000000000e+03 7.889652252197265625e+01 -2.855306434631347656e+01 -1.215234282426536083e-03 -2.066903375089168549e-02 -6.565280258655548096e-03 9.746011346578598022e-03
1.060000000000000000e+03 7.873161315917968750e+01 -3.331541824340820312e+01 -3.293610643595457077e-04 -7.732380926609039307e-02 -2.329595200717449188e-02 2.079923450946807861e-02
1.061000000000000000e+03 7.877136993408203125e+01 -3.251424789428710938e+01 -1.560278004035353661e-03 -6.605205684900283813e-02 -2.028370089828968048e-02 1.945511810481548309e-02
1.062000000000000000e+03 7.957732391357421875e+01 -3.338105392456054688e+01 -8.327189134433865547e-04 -8.526695519685745239e-02 -2.582990191876888275e-02 7.400735747069120407e-03
1.063000000000000000e+03 7.869161224365234375e+01 -3.648942947387695312e+01 1.827688189223408699e-03 -1.227031052112579346e-01 -3.626262396574020386e-02 2.010932192206382751e-02
1.064000000000000000e+03 7.868957519531250000e+01 -3.411688613891601562e+01 -9.623238001950085163e-04 -8.858671039342880249e-02 -2.686470933258533478e-02 2.195002697408199310e-02
1.065000000000000000e+03 7.774822235107421875e+01 -3.647149276733398438e+01 2.999336924403905869e-03 -1.070256829261779785e-01 -3.120790235698223114e-02 3.254273906350135803e-02
1.066000000000000000e+03 7.826595306396484375e+01 -3.905329895019531250e+01 3.508451161906123161e-03 -1.421006023883819580e-01 -4.157764464616775513e-02 1.525804214179515839e-02
1.067000000000000000e+03 7.883291625976562500e+01 -3.946685791015625000e+01 1.125748502090573311e-03 -1.594056934118270874e-01 -4.748398438096046448e-02 9.383955039083957672e-03
1.068000000000000000e+03 7.959441375732421875e+01 -3.965750122070312500e+01 -4.098060308024287224e-04 -1.784554272890090942e-01 -5.365956947207450867e-02 3.020141040906310081e-03
1.069000000000000000e+03 7.818185424804687500e+01 -4.083482360839843750e+01 4.457024391740560532e-03 -1.490577906370162964e-01 -4.338023066520690918e-02 6.794448476284742355e-03
1.070000000000000000e+03 7.834488677978515625e+01 -4.185765075683593750e+01 3.787634195759892464e-03 -1.575297564268112183e-01 -4.612263664603233337e-02 3.989607561379671097e-03
1.071000000000000000e+03 7.888925933837890625e+01 -1.908356666564941406e+01 2.127937841578386724e-05 1.228260807693004608e-03 3.748620802070945501e-04 -1.089622499421238899e-03
1.072000000000000000e+03 7.667268371582031250e+01 -1.891422462463378906e+01 3.977905435021966696e-04 -3.422671579755842686e-04 1.665701347519643605e-05 -1.317566377110779285e-03
1.073000000000000000e+03 2.044856834411621094e+01 -1.904815793037414551e+00 -5.384988188743591309e-01 1.151549816131591797e-01 -1.270031481981277466e-01 3.745178580284118652e-01
1.074000000000000000e+03 2.130915069580078125e+01 -2.441990375518798828e+00 -3.678396344184875488e-01 1.373443007469177246e-01 -6.914859265089035034e-02 4.904961585998535156e-01
1.075000000000000000e+03 1.885161972045898438e+01 -2.135845422744750977e+00 -7.148275375366210938e-01 1.151501536369323730e-01 -1.799032092094421387e-01 3.053558170795440674e-01
1.076000000000000000e+03 2.618555068969726562e+01 -6.251075863838195801e-01 3.796039819717407227e-01 -5.468041449785232544e-02 9.747707098722457886e-02 2.264067828655242920e-01
1.077000000000000000e+03 2.427606773376464844e+01 -2.841999828815460205e-01 -8.902084082365036011e-03 1.625599712133407593e-02 2.206173958256840706e-03 1.957855820655822754e-01
1.078000000000000000e+03 2.524724769592285156e+01 -8.138505220413208008e-01 1.980305463075637817e-01 -1.782521046698093414e-02 5.406160280108451843e-02 2.794445455074310303e-01
1.079000000000000000e+03 2.531028938293457031e+01 -1.567886352539062500e+00 2.819697558879852295e-01 -3.550237417221069336e-02 7.394021004438400269e-02 4.307388365268707275e-01
1.080000000000000000e+03 2.362182044982910156e+01 -1.218961715698242188e+00 -7.356205582618713379e-02 4.271784797310829163e-02 -9.253261610865592957e-03 3.571411967277526855e-01
1.081000000000000000e+03 4.620964813232421875e+01 -1.678346061706542969e+01 3.380653858184814453e+00 8.157180786132812500e+00 3.461350440979003906e+00 3.968903779983520508e+00
1.082000000000000000e+03 4.493819046020507812e+01 -2.389370346069335938e+01 2.234870195388793945e+00 1.303886985778808594e+01 4.582121849060058594e+00 -2.067052602767944336e+00
1.083000000000000000e+03 4.617238235473632812e+01 -2.528642082214355469e+01 2.230685710906982422e+00 1.300718593597412109e+01 4.571361541748046875e+00 -4.957999229431152344e+00
1.084000000000000000e+03 3.015862464904785156e+01 -3.045818954706192017e-02 1.834817290306091309e+00 4.179352223873138428e-01 6.758257150650024414e-01 5.594627261161804199e-01
1.085000000000000000e+03 3.299567413330078125e+01 1.772672653198242188e+00 2.743616580963134766e+00 9.340523719787597656e+00 3.625241994857788086e+00 3.974263906478881836e+00
1.086000000000000000e+03 7.133506774902343750e+01 -1.996782875061035156e+01 -1.012072316370904446e-03 -1.044000615365803242e-03 -6.168218678794801235e-04 4.951935843564569950e-04
1.087000000000000000e+03 4.555361175537109375e+01 -2.552104187011718750e+01 2.293193101882934570e+00 1.237561607360839844e+01 4.400642871856689453e+00 -3.458583116531372070e+00
1.088000000000000000e+03 4.588749313354492188e+01 -2.629161453247070312e+01 2.635670185089111328e+00 1.055465221405029297e+01 3.957096576690673828e+00 -3.652134180068969727e+00
1.089000000000000000e+03 4.481375122070312500e+01 -2.300471115112304688e+01 1.347509145736694336e+00 1.337437534332275391e+01 4.416565418243408203e+00 -1.708671450614929199e+00
1.090000000000000000e+03 4.524168395996093750e+01 -2.473521995544433594e+01 2.184321165084838867e+00 1.311008167266845703e+01 4.588320732116699219e+00 -2.494457483291625977e+00
1.091000000000000000e+03 3.237742614746093750e+01 2.201133370399475098e-01 1.938272595405578613e+00 4.976337909698486328e+00 2.074383020401000977e+00 2.442408561706542969e+00
1.092000000000000000e+03 3.132690048217773438e+01 2.607339918613433838e-01 2.653326272964477539e+00 1.629825592041015625e+00 1.284945607185363770e+00 1.810153722763061523e+00
1.093000000000000000e+03 4.740793991088867188e+01 -2.740402221679687500e+01 3.517982006072998047e+00 6.416424751281738281e+00 2.980322122573852539e+00 -4.503766059875488281e+00
1.094000000000000000e+03 4.872018814086914062e+01 -2.986125564575195312e+01 1.392273306846618652e+00 3.840835809707641602e+00 1.569932699203491211e+00 -2.395970106124877930e+00
1.095000000000000000e+03 6.706358337402343750e+01 -2.433566284179687500e+01 -3.173876926302909851e-02 -3.289845073595643044e-03 -1.050858385860919952e-02 -1.376683171838521957e-02
1.096000000000000000e+03 6.849319458007812500e+01 -2.038396072387695312e+01 -4.280474677216261625e-04 5.410486832261085510e-03 1.494731870479881763e-03 2.009089570492506027e-03
1.097000000000000000e+03 6.196051025390625000e+01 -2.839084625244140625e+01 -3.855306208133697510e-01 -9.188415110111236572e-02 -1.432244330644607544e-01 -1.681161671876907349e-01
1.098000000000000000e+03 6.176980972290039062e+01 -2.957277297973632812e+01 -4.148350059986114502e-01 -1.269372086971998215e-02 -1.282586157321929932e-01 -5.487819388508796692e-02
1.099000000000000000e+03 5.653707885742187500e+01 -1.404844093322753906e+01 2.494606375694274902e-01 1.422831714153289795e-01 1.175231412053108215e-01 4.001596868038177490e-01
1.100000000000000000e+03 5.884724426269531250e+01 -1.442468452453613281e+01 -3.714569211006164551e-01 4.182087257504463196e-02 -9.889081865549087524e-02 -1.922867074608802795e-02
1.101000000000000000e+03 5.663598632812500000e+01 -3.120158386230468750e+01 -6.256346106529235840e-01 -4.060270637273788452e-02 -1.998711973428726196e-01 -5.429922044277191162e-02
1.102000000000000000e+03 4.676726150512695312e+01 -1.619509315490722656e+01 4.190436363220214844e+00 5.934533596038818359e+00 3.037491083145141602e+00 3.617585420608520508e+00
1.103000000000000000e+03 4.737319946289062500e+01 -1.562485218048095703e+01 4.535524845123291016e+00 4.589522361755371094e+00 2.737514019012451172e+00 3.046356678009033203e+00
1.104000000000000000e+03 4.906578826904296875e+01 -6.759407997131347656e+00 -2.186286687850952148e+00 -1.687361598014831543e-01 -7.065068483352661133e-01 1.536072134971618652e+00
1.105000000000000000e+03 4.955245208740234375e+01 -3.028058624267578125e+01 1.169642686843872070e+00 2.702624559402465820e+00 1.161680102348327637e+00 -2.052083253860473633e+00
1.106000000000000000e+03 5.897551727294921875e+01 -2.977158546447753906e+01 -8.116903305053710938e-01 -5.751289427280426025e-02 -2.607609629631042480e-01 -1.700116544961929321e-01
1.107000000000000000e+03 5.037956237792968750e+01 -3.066855430603027344e+01 8.609846234321594238e-01 1.769109606742858887e+00 7.890282869338989258e-01 -1.650195837020874023e+00
1.108000000000000000e+03 6.172284698486328125e+01 -1.334441947937011719e+01 -9.213395714759826660e-01 -1.198428645730018616e-01 -3.123547136783599854e-01 -4.175115823745727539e-01
1.109000000000000000e+03 5.942015457153320312e+01 -1.353899955749511719e+01 -4.933286011219024658e-01 1.463782042264938354e-01 -1.040851175785064697e-01 4.230763390660285950e-02
1.110000000000000000e+03 4.714755249023437500e+01 -2.867723274230957031e+01 1.797248721122741699e+00 6.338364601135253906e+00 2.440684080123901367e+00 -2.968285083770751953e+00
1.111000000000000000e+03 5.501088333129882812e+01 -3.249126434326171875e+01 -8.387347310781478882e-02 1.977230012416839600e-01 3.415485844016075134e-02 -3.124222159385681152e-01
1.112000000000000000e+03 5.932450866699218750e+01 -3.077018737792968750e+01 -5.552183389663696289e-01 -2.923018485307693481e-02 -1.753345578908920288e-01 -2.906437590718269348e-02
1.113000000000000000e+03 6.602011871337890625e+01 -2.448328590393066406e+01 -2.697340585291385651e-02 -1.422295439988374710e-02 -1.235890761017799377e-02 -1.820613071322441101e-02
1.114000000000000000e+03 6.652706146240234375e+01 -2.609027862548828125e+01 -7.726011425256729126e-02 5.703771021217107773e-03 -2.146690338850021362e-02 -2.448467351496219635e-02
1.115000000000000000e+03 6.101196670532226562e+01 -3.003314781188964844e+01 -4.885257780551910400e-01 -6.385270971804857254e-03 -1.484733074903488159e-01 -3.676841780543327332e-02
1.116000000000000000e+03 5.404043960571289062e+01 -3.042946815490722656e+01 -8.031592965126037598e-01 3.575892746448516846e-02 -2.302201092243194580e-01 -1.109083369374275208e-01
1.117000000000000000e+03 5.266530990600585938e+01 -1.440250396728515625e+01 2.041212558746337891e+00 2.436174303293228149e-01 6.854490041732788086e-01 8.694292306900024414e-01
1.118000000000000000e+03 5.394334030151367188e+01 -3.156166076660156250e+01 -1.853410899639129639e-01 2.312821298837661743e-01 1.378230936825275421e-02 -4.068175554275512695e-01
1.119000000000000000e+03 6.379222106933593750e+01 -2.680082130432128906e+01 -1.100099608302116394e-01 -5.858054012060165405e-02 -5.057715252041816711e-02 -7.587194442749023438e-02
1.120000000000000000e+03 5.576984786987304688e+01 -3.130462265014648438e+01 -5.491226315498352051e-01 -1.000356301665306091e-02 -1.677378565073013306e-01 -1.182355284690856934e-01
1.121000000000000000e+03 6.289848327636718750e+01 -1.204314231872558594e+01 -1.895137786865234375e+00 -7.608607411384582520e-02 -5.913671255111694336e-01 -8.850070834159851074e-02
1.122000000000000000e+03 6.145755004882812500e+01 -1.274703407287597656e+01 -1.094403505325317383e+00 6.472779810428619385e-02 -3.089027106761932373e-01 -1.660040020942687988e-01
1.123000000000000000e+03 5.501129150390625000e+01 -1.420432472229003906e+01 8.749479651451110840e-01 1.538777500391006470e-01 3.086477220058441162e-01 5.771555900573730469e-01
1.124000000000000000e+03 5.423920822143554688e+01 -1.426940822601318359e+01 1.233891606330871582e+00 1.503524333238601685e-01 4.152732193470001221e-01 6.725904345512390137e-01
1.125000000000000000e+03 5.859489440917968750e+01 -1.301321983337402344e+01 -3.312361836433410645e-01 2.742312848567962646e-01 -1.710147410631179810e-02 3.175701200962066650e-01
1.126000000000000000e+03 6.215518951416015625e+01 -1.240190219879150391e+01 -1.375244498252868652e+00 2.737932465970516205e-02 -4.043595492839813232e-01 -2.402812391519546509e-01
1.127000000000000000e+03 4.560260009765625000e+01 -2.131356811523437500e+01 1.881842464208602905e-01 1.345630931854248047e+01 4.093348026275634766e+00 -3.971690684556961060e-02
1.128000000000000000e+03 5.021658706665039062e+01 -1.539499950408935547e+01 3.801580190658569336e+00 1.468716710805892944e-01 1.184535622596740723e+00 8.468443155288696289e-01
1.129000000000000000e+03 6.020029067993164062e+01 -3.045392799377441406e+01 -5.233824849128723145e-01 -9.137948974967002869e-03 -1.597561240196228027e-01 -2.058828622102737427e-02
1.130000000000000000e+03 5.339669418334960938e+01 -1.501762390136718750e+01 1.847949028015136719e+00 6.722398102283477783e-02 5.745518803596496582e-01 4.030370712280273438e-01
1.131000000000000000e+03 5.345689773559570312e+01 -1.433540153503417969e+01 1.630585551261901855e+00 2.111193239688873291e-01 5.525114536285400391e-01 7.802685499191284180e-01
1.132000000000000000e+03 5.577722549438476562e+01 -1.413362026214599609e+01 5.371407270431518555e-01 1.300008744001388550e-01 2.001424729824066162e-01 4.858740270137786865e-01
1.133000000000000000e+03 5.801050186157226562e+01 -1.384060859680175781e+01 -1.737687587738037109e-01 1.342336088418960571e-01 -1.186054572463035583e-02 2.187061309814453125e-01
1.134000000000000000e+03 5.121365737915039062e+01 -3.102110099792480469e+01 5.260258316993713379e-01 1.171285033226013184e+00 5.091932415962219238e-01 -1.310266256332397461e+00
1.135000000000000000e+03 6.653936004638671875e+01 -2.496748542785644531e+01 -4.251952469348907471e-02 -4.605154972523450851e-03 -1.413740403950214386e-02 -2.163358964025974274e-02
1.136000000000000000e+03 4.625850677490234375e+01 -2.706436729431152344e+01 2.400699138641357422e+00 9.301362991333007812e+00 3.510618686676025391e+00 -3.411973237991333008e+00
1.137000000000000000e+03 4.667160797119140625e+01 -2.785103416442871094e+01 2.118631124496459961e+00 7.901207923889160156e+00 3.005951642990112305e+00 -3.382104396820068359e+00
1.138000000000000000e+03 4.486310195922851562e+01 -2.215576553344726562e+01 6.567791700363159180e-01 1.346016502380371094e+01 4.235083103179931641e+00 -7.696856260299682617e-01
1.139000000000000000e+03 5.872118759155273438e+01 -1.371195316314697266e+01 -3.541314303874969482e-01 1.237779334187507629e-01 -6.910604238510131836e-02 1.392453312873840332e-01
1.140000000000000000e+03 7.171154022216796875e+01 -1.902364158630371094e+01 1.581029355293139815e-04 -7.843287894502282143e-04 -1.878677576314657927e-04 8.585476898588240147e-04
1.141000000000000000e+03 6.547048950195312500e+01 -2.506649971008300781e+01 -3.618648648262023926e-02 -1.944994740188121796e-02 -1.669093035161495209e-02 -2.860928513109683990e-02
1.142000000000000000e+03 6.599542236328125000e+01 -2.557709121704101562e+01 -6.137754768133163452e-02 -8.255052380263805389e-03 -2.088977955281734467e-02 -2.781727164983749390e-02
1.143000000000000000e+03 4.470119476318359375e+01 -1.997062110900878906e+01 1.643732309341430664e+00 1.250508785247802734e+01 4.244646072387695312e+00 1.364151000976562500e+00
1.144000000000000000e+03 6.486645507812500000e+01 -2.676256752014160156e+01 -1.136187165975570679e-01 -1.460371259599924088e-02 -3.846672922372817993e-02 -4.895316064357757568e-02
1.145000000000000000e+03 6.429067993164062500e+01 -2.735896682739257812e+01 -1.559712588787078857e-01 -1.439331285655498505e-02 -5.110936984419822693e-02 -6.491646915674209595e-02
1.146000000000000000e+03 4.487978744506835938e+01 -2.137862586975097656e+01 4.197187125682830811e-01 1.322700405120849609e+01 4.094017028808593750e+00 -2.702762484550476074e-01
1.147000000000000000e+03 4.482847595214843750e+01 -2.064570045471191406e+01 7.299489974975585938e-01 1.352439594268798828e+01 4.276303768157958984e+00 6.568129658699035645e-01
1.148000000000000000e+03 6.543621063232421875e+01 -2.617154693603515625e+01 -8.000472933053970337e-02 -1.027156785130500793e-02 -2.708289027214050293e-02 -3.962294757366180420e-02
1.149000000000000000e+03 2.709461212158203125e+01 2.381985282897949219e+01 9.880741238594055176e-01 2.722511053085327148e+00 1.113175511360168457e+00 -2.122220516204833984e+00
1.150000000000000000e+03 2.827687263488769531e+01 2.185148239135742188e+01 2.357285499572753906e+00 3.860173702239990234e+00 1.865237832069396973e+00 -2.989666461944580078e+00
1.151000000000000000e+03 1.455463314056396484e+01 -1.974693489074707031e+01 1.030978783965110779e-01 4.008882999420166016e+00 1.233594179153442383e+00 -2.444128394126892090e-01
1.152000000000000000e+03 1.369669723510742188e+01 -2.071942520141601562e+01 8.535602688789367676e-01 2.797247886657714844e+00 1.095242500305175781e+00 -4.294641017913818359e-01
1.153000000000000000e+03 3.031136131286621094e+01 2.085728836059570312e+01 2.558381795883178711e+00 6.895568370819091797e+00 2.836185216903686523e+00 -2.699348211288452148e+00
1.154000000000000000e+03 2.652820396423339844e+01 2.146120262145996094e+01 2.096522808074951172e+00 5.799720883369445801e-01 8.029484748840332031e-01 -1.049188971519470215e+00
1.155000000000000000e+03 2.807867240905761719e+01 2.100021362304687500e+01 4.537396907806396484e+00 2.518137216567993164e+00 2.116660118103027344e+00 -2.899658441543579102e+00
1.156000000000000000e+03 3.789911270141601562e+01 1.467479616403579712e-01 1.869812607765197754e+00 1.338608741760253906e+01 4.576769828796386719e+00 -2.066411733627319336e+00
1.157000000000000000e+03 3.138816261291503906e+01 -2.916141128540039062e+01 4.990198612213134766e-01 2.172356605529785156e+00 8.014129400253295898e-01 1.301086306571960449e+00
1.158000000000000000e+03 3.667493057250976562e+01 5.604979038238525391e+00 1.360641360282897949e+00 1.461478614807128906e+01 4.792628288269042969e+00 -8.898999691009521484e-01
1.159000000000000000e+03 3.361635971069335938e+01 3.675723075866699219e+00 7.504626512527465820e-01 1.666990470886230469e+01 5.226110458374023438e+00 1.267169952392578125e+00
1.160000000000000000e+03 7.965055847167968750e+01 -6.635930538177490234e+00 -8.555332897230982780e-04 -6.169356107711791992e-01 -1.853373497724533081e-01 -4.779909923672676086e-02
1.161000000000000000e+03 7.894959259033203125e+01 -6.706482887268066406e+00 -5.966366734355688095e-03 -5.706328153610229492e-01 -1.729797571897506714e-01 -1.409857571125030518e-01
1.162000000000000000e+03 7.964142608642578125e+01 5.545005202293395996e-01 2.095222938805818558e-03 -1.765695929527282715e+00 -5.290802121162414551e-01 -4.861753061413764954e-02
1.163000000000000000e+03 7.892920684814453125e+01 -3.173613250255584717e-01 5.752889905124902725e-03 -1.452399849891662598e+00 -4.339940845966339111e-01 -1.569280326366424561e-01
1.164000000000000000e+03 7.964967346191406250e+01 7.758437156677246094e+00 1.296085189096629620e-03 -2.546063661575317383e+00 -7.634302973747253418e-01 -1.208754908293485641e-02
1.165000000000000000e+03 7.964641571044921875e+01 1.494431781768798828e+01 2.238239161670207977e-03 -2.417849540710449219e+00 -7.246834039688110352e-01 3.342461213469505310e-02
1.166000000000000000e+03 7.963481903076171875e+01 2.212745857238769531e+01 4.164949059486389160e-04 -1.501805067062377930e+00 -4.504165649414062500e-01 5.559139326214790344e-02
1.167000000000000000e+03 7.960638427734375000e+01 2.932441139221191406e+01 -7.365005440078675747e-04 -5.623510479927062988e-01 -1.689262688159942627e-01 3.990744426846504211e-02
1.168000000000000000e+03 7.964360809326171875e+01 3.647960662841796875e+01 -2.824073657393455505e-03 -1.064779534935951233e-01 -3.279060870409011841e-02 1.195990946143865585e-02
1.169000000000000000e+03 7.960651397705078125e+01 4.122484207153320312e+01 -3.493881551548838615e-03 -9.088537655770778656e-03 -3.774725832045078278e-03 1.914223306812345982e-03
1.170000000000000000e+03 7.780792999267578125e+01 3.832747268676757812e+01 -8.225849829614162445e-03 3.213147446513175964e-02 7.171687670052051544e-03 4.108076542615890503e-02
1.171000000000000000e+03 7.885594940185546875e+01 3.789686203002929688e+01 -7.893324072938412428e-05 -3.097231499850749969e-02 -9.315374307334423065e-03 2.703106962144374847e-02
1.172000000000000000e+03 7.872844696044921875e+01 3.862966156005859375e+01 -3.022265620529651642e-03 -1.476137898862361908e-02 -5.335093475878238678e-03 2.537925541400909424e-02
1.173000000000000000e+03 7.964054870605468750e+01 3.726402664184570312e+01 -1.353925908915698528e-04 -8.336402475833892822e-02 -2.504982613027095795e-02 8.879422210156917572e-03
1.174000000000000000e+03 7.893109893798828125e+01 3.716734313964843750e+01 -4.011949058622121811e-03 -5.531408637762069702e-02 -1.779781095683574677e-02 2.956583350896835327e-02
1.175000000000000000e+03 7.797274780273437500e+01 3.171279335021972656e+01 -1.900395378470420837e-02 -2.181783616542816162e-01 -7.115469127893447876e-02 1.387783586978912354e-01
1.176000000000000000e+03 7.875370025634765625e+01 3.415522384643554688e+01 -9.450040757656097412e-03 -1.527398526668548584e-01 -4.865696653723716736e-02 5.881849303841590881e-02
1.177000000000000000e+03 7.878248596191406250e+01 3.171582794189453125e+01 -9.407434612512588501e-03 -2.871493995189666748e-01 -8.896704763174057007e-02 8.616849035024642944e-02
1.178000000000000000e+03 7.875894165039062500e+01 3.252402877807617188e+01 -7.727184798568487167e-03 -2.358401268720626831e-01 -7.307019084692001343e-02 7.846304774284362793e-02
1.179000000000000000e+03 7.960389709472656250e+01 3.012383079528808594e+01 -2.500700997188687325e-03 -4.850392937660217285e-01 -1.462619900703430176e-01 3.664316982030868530e-02
1.180000000000000000e+03 7.879837036132812500e+01 3.092201232910156250e+01 -8.847023360431194305e-03 -3.441877067089080811e-01 -1.059104204177856445e-01 9.749479591846466064e-02
1.181000000000000000e+03 7.813908386230468750e+01 2.447384643554687500e+01 -9.875630028545856476e-03 -8.466726541519165039e-01 -2.569644749164581299e-01 2.370003908872604370e-01
1.182000000000000000e+03 7.883243560791015625e+01 2.691585922241210938e+01 -7.192553952336311340e-03 -7.129695415496826172e-01 -2.160486429929733276e-01 1.380012780427932739e-01
1.183000000000000000e+03 7.887960815429687500e+01 2.449675941467285156e+01 -2.657286357134580612e-03 -1.001377224922180176e+00 -3.012103438377380371e-01 1.529187560081481934e-01
1.184000000000000000e+03 7.886574554443359375e+01 2.529882240295410156e+01 -5.825769621878862381e-03 -9.011459946632385254e-01 -2.720915377140045166e-01 1.485411971807479858e-01
1.185000000000000000e+03 7.963269042968750000e+01 2.292594718933105469e+01 -9.429695201106369495e-04 -1.383021235466003418e+00 -4.151892662048339844e-01 5.499098077416419983e-02
1.186000000000000000e+03 7.889091491699218750e+01 2.369850921630859375e+01 -3.241873113438487053e-03 -1.103096246719360352e+00 -3.319014310836791992e-01 1.545018702745437622e-01
1.187000000000000000e+03 7.889941406250000000e+01 2.290290451049804688e+01 -7.230682531371712685e-04 -1.206439018249511719e+00 -3.621486127376556396e-01 1.570090204477310181e-01
1.188000000000000000e+03 7.821955871582031250e+01 1.732700538635253906e+01 1.799659244716167450e-02 -1.632575035095214844e+00 -4.843735396862030029e-01 1.941055506467819214e-01
1.189000000000000000e+03 7.891957855224609375e+01 1.971928787231445312e+01 3.847772954031825066e-03 -1.618621945381164551e+00 -4.844322502613067627e-01 1.480913609266281128e-01
1.190000000000000000e+03 7.893151092529296875e+01 1.732503128051757812e+01 7.065265439450740814e-03 -1.897158145904541016e+00 -5.670278668403625488e-01 1.241657733917236328e-01
1.191000000000000000e+03 7.892736053466796875e+01 1.812320899963378906e+01 6.195062771439552307e-03 -1.809276938438415527e+00 -5.409245491027832031e-01 1.339271515607833862e-01
1.192000000000000000e+03 7.964578247070312500e+01 1.574359512329101562e+01 1.358601963147521019e-03 -2.344752788543701172e+00 -7.030182480812072754e-01 3.758092597126960754e-02
1.193000000000000000e+03 7.893518066406250000e+01 1.652796554565429688e+01 7.831386290490627289e-03 -1.978001594543457031e+00 -5.910510420799255371e-01 1.138998344540596008e-01
1.194000000000000000e+03 7.893797302246093750e+01 1.573200321197509766e+01 9.205470792949199677e-03 -2.051131010055541992e+00 -6.125776767730712891e-01 1.019506379961967468e-01
1.195000000000000000e+03 7.824944305419921875e+01 1.095030021667480469e+01 2.845208719372749329e-02 -1.989912271499633789e+00 -5.884380936622619629e-01 2.229997701942920685e-02
1.196000000000000000e+03 7.894643402099609375e+01 1.253878307342529297e+01 1.206136029213666916e-02 -2.253921747207641602e+00 -6.725581288337707520e-01 4.607855528593063354e-02
1.197000000000000000e+03 7.894973754882812500e+01 1.014234924316406250e+01 1.068991888314485550e-02 -2.296350479125976562e+00 -6.856981515884399414e-01 -6.082042818889021873e-04
1.198000000000000000e+03 7.894812011718750000e+01 1.094024372100830078e+01 1.256253849714994431e-02 -2.293148279190063477e+00 -6.841757297515869141e-01 1.502041611820459366e-02
1.199000000000000000e+03 7.964981079101562500e+01 8.558074951171875000e+00 3.107631113380193710e-03 -2.581479310989379883e+00 -7.735114693641662598e-01 -7.121227681636810303e-03
1.200000000000000000e+03 7.895044708251953125e+01 9.345660209655761719e+00 1.212687231600284576e-02 -2.288809061050415039e+00 -6.830046772956848145e-01 -1.615612208843231201e-02
1.201000000000000000e+03 7.895030975341796875e+01 8.548924446105957031e+00 1.048651337623596191e-02 -2.269711971282958984e+00 -6.777676343917846680e-01 -3.118737041950225830e-02
1.202000000000000000e+03 7.824098205566406250e+01 5.358976840972900391e+00 2.510403841733932495e-02 -1.824618577957153320e+00 -5.398543477058410645e-01 -1.405117511749267578e-01
1.203000000000000000e+03 7.891747283935546875e+01 2.921399593353271484e+00 9.069841355085372925e-03 -1.850261449813842773e+00 -5.523574948310852051e-01 -1.275970935821533203e-01
1.204000000000000000e+03 7.892816162109375000e+01 3.732415437698364258e+00 9.679705835878849030e-03 -1.938712120056152344e+00 -5.787097215652465820e-01 -1.150071471929550171e-01
1.205000000000000000e+03 7.963894653320312500e+01 1.355524182319641113e+00 3.878657007589936256e-04 -1.883449196815490723e+00 -5.649183988571166992e-01 -4.638995230197906494e-02
1.206000000000000000e+03 7.890864562988281250e+01 2.110488891601562500e+00 6.335216108709573746e-03 -1.756391286849975586e+00 -5.250168442726135254e-01 -1.374420225620269775e-01
1.207000000000000000e+03 7.890738677978515625e+01 1.300970554351806641e+00 6.869439035654067993e-03 -1.659248352050781250e+00 -4.957136809825897217e-01 -1.461771726608276367e-01
1.208000000000000000e+03 7.823986816406250000e+01 -2.019922018051147461e+00 3.324609249830245972e-03 -1.079172968864440918e+00 -3.227545022964477539e-01 -2.565910816192626953e-01
1.209000000000000000e+03 7.895130920410156250e+01 -4.317459106445312500e+00 -1.898793503642082214e-03 -8.893021941184997559e-01 -2.673602998256683350e-01 -1.595607548952102661e-01
1.210000000000000000e+03 7.895056152343750000e+01 -3.520531892776489258e+00 -2.391204761806875467e-04 -1.001962423324584961e+00 -3.006604611873626709e-01 -1.618073284626007080e-01
1.211000000000000000e+03 7.965064239501953125e+01 -5.838649272918701172e+00 -9.232712327502667904e-04 -7.347649931907653809e-01 -2.207064777612686157e-01 -5.024662986397743225e-02
1.212000000000000000e+03 7.894808959960937500e+01 -7.500826835632324219e+00 -7.232728879898786545e-03 -4.754507839679718018e-01 -1.448050439357757568e-01 -1.316772401332855225e-01
1.213000000000000000e+03 7.895082855224609375e+01 -5.911896705627441406e+00 -4.639049526304006577e-03 -6.719850897789001465e-01 -2.029872387647628784e-01 -1.491900533437728882e-01
1.214000000000000000e+03 7.894727325439453125e+01 -9.876613616943359375e+00 -1.044223550707101822e-02 -2.373621463775634766e-01 -7.434131205081939697e-02 -9.392149001359939575e-02
1.215000000000000000e+03 7.670339202880859375e+01 -1.378837203979492188e+01 -7.343340665102005005e-02 -3.468174114823341370e-02 -3.243454173207283020e-02 -7.934051007032394409e-02
1.216000000000000000e+03 7.891703796386718750e+01 -1.379467868804931641e+01 -1.054900605231523514e-02 -2.940752357244491577e-02 -1.198695879429578781e-02 -2.164168655872344971e-02
1.217000000000000000e+03 7.894677734375000000e+01 -9.087690353393554688e+00 -9.273220784962177277e-03 -3.078196048736572266e-01 -9.512785077095031738e-02 -1.078621894121170044e-01
1.218000000000000000e+03 7.818562316894531250e+01 -1.379390907287597656e+01 -2.667677029967308044e-02 -3.914672136306762695e-02 -1.974704675376415253e-02 -4.082755371928215027e-02
1.219000000000000000e+03 7.893119812011718750e+01 -1.301516819000244141e+01 -1.153670344501733780e-02 -5.226544663310050964e-02 -1.914064586162567139e-02 -3.573808073997497559e-02
1.220000000000000000e+03 7.964553833007812500e+01 -1.299862480163574219e+01 -1.756887300871312618e-03 -2.722508460283279419e-02 -8.694591931998729706e-03 -1.143634878098964691e-02
1.221000000000000000e+03 2.338406372070312500e+01 2.214746475219726562e+01 1.596305668354034424e-01 9.310236573219299316e-02 7.581987977027893066e-02 -1.864610016345977783e-01
1.222000000000000000e+03 2.103991889953613281e+01 2.299812126159667969e+01 -2.247451543807983398e-01 -4.684003069996833801e-03 -6.882874667644500732e-02 -2.040486782789230347e-01
1.223000000000000000e+03 3.290252304077148438e+01 6.686245799064636230e-01 1.866228699684143066e+00 7.361820697784423828e+00 2.768414974212646484e+00 2.827935695648193359e+00
1.224000000000000000e+03 3.345526504516601562e+01 1.039999127388000488e+00 1.317157268524169922e+00 9.445059776306152344e+00 3.228665113449096680e+00 1.923213243484497070e+00
1.225000000000000000e+03 2.679513549804687500e+01 -2.291309118270874023e+00 6.366191506385803223e-01 -7.422490045428276062e-03 1.887589991092681885e-01 6.575673818588256836e-01
1.226000000000000000e+03 2.879507255554199219e+01 -7.183205604553222656e+00 -1.167405009269714355e+00 -2.229842096567153931e-01 -4.171167910099029541e-01 1.056437849998474121e+00
1.227000000000000000e+03 3.871284484863281250e+01 5.364706516265869141e+00 4.445015788078308105e-01 1.589676856994628906e+01 4.902380943298339844e+00 -3.014205098152160645e-01
1.228000000000000000e+03 3.392918777465820312e+01 8.582833290100097656e+00 8.018321990966796875e-01 1.532577800750732422e+01 4.838283061981201172e+00 -2.090928077697753906e+00
1.229000000000000000e+03 3.468426132202148438e+01 7.896858692169189453e+00 9.647620320320129395e-01 1.476774978637695312e+01 4.719753265380859375e+00 -1.761163115501403809e+00
1.230000000000000000e+03 3.203281784057617188e+01 1.641364669799804688e+01 1.586129665374755859e+00 1.147337245941162109e+01 3.917850732803344727e+00 -3.734791517257690430e+00
1.231000000000000000e+03 3.508097839355468750e+01 3.945657968521118164e+00 1.885455489158630371e+00 1.402476882934570312e+01 4.773066997528076172e+00 -3.529307842254638672e-01
1.232000000000000000e+03 3.496046829223632812e+01 4.722053050994873047e+00 1.420098304748535156e+00 1.464803886413574219e+01 4.820441246032714844e+00 -2.706660628318786621e-01
1.233000000000000000e+03 3.113277816772460938e+01 1.935581588745117188e+01 2.617355585098266602e+00 8.662343025207519531e+00 3.383909702301025391e+00 -3.352726936340332031e+00
1.234000000000000000e+03 3.409669113159179688e+01 6.988934516906738281e+00 6.250510215759277344e-01 1.539128112792968750e+01 4.804899692535400391e+00 -1.701295375823974609e+00
1.235000000000000000e+03 2.352861595153808594e+01 2.290037536621093750e+01 4.412790238857269287e-01 2.677432298660278320e-01 2.127066850662231445e-01 -5.382186174392700195e-01
1.236000000000000000e+03 2.433520698547363281e+01 2.283366012573242188e+01 7.484738230705261230e-01 4.052462577819824219e-01 3.461160063743591309e-01 -7.409402728080749512e-01
1.237000000000000000e+03 2.675226974487304688e+01 2.224135017395019531e+01 2.013262271881103516e+00 1.346767663955688477e+00 1.008009076118469238e+00 -1.791658282279968262e+00
1.238000000000000000e+03 3.107704162597656250e+01 2.011862945556640625e+01 2.310816526412963867e+00 8.005947113037109375e+00 3.095029115676879883e+00 -2.817093849182128906e+00
1.239000000000000000e+03 3.014843750000000000e+01 1.997066116333007812e+01 3.632464885711669922e+00 8.023777008056640625e+00 3.496872663497924805e+00 -4.170294284820556641e+00
1.240000000000000000e+03 2.596244239807128906e+01 2.246012496948242188e+01 1.489001989364624023e+00 9.384868741035461426e-01 7.282466292381286621e-01 -1.305055975914001465e+00
1.241000000000000000e+03 3.339684677124023438e+01 1.175101089477539062e+01 9.179245829582214355e-01 1.418187332153320312e+01 4.529939174652099609e+00 -3.005717992782592773e+00
1.242000000000000000e+03 3.302421188354492188e+01 1.004786586761474609e+01 6.873726844787597656e-01 1.539598083496093750e+01 4.825006008148193359e+00 -2.984942197799682617e+00
1.243000000000000000e+03 3.369173431396484375e+01 1.017266368865966797e+01 7.656752467155456543e-01 1.469704818725585938e+01 4.638817310333251953e+00 -2.576451539993286133e+00
1.244000000000000000e+03 3.402433013916015625e+01 7.784702301025390625e+00 8.395668268203735352e-01 1.528960418701171875e+01 4.838751316070556641e+00 -1.852059602737426758e+00
1.245000000000000000e+03 3.159676551818847656e+01 1.547145748138427734e+01 1.351905703544616699e+00 1.226522541046142578e+01 4.085139274597167969e+00 -4.039588928222656250e+00
1.246000000000000000e+03 3.254778289794921875e+01 1.489852714538574219e+01 1.197251081466674805e+00 1.242028331756591797e+01 4.085260391235351562e+00 -3.374580144882202148e+00
1.247000000000000000e+03 2.785460853576660156e+01 -8.477944374084472656e+00 -1.748175144195556641e+00 -6.578776985406875610e-02 -5.441888570785522461e-01 -1.596160829067230225e-01
1.248000000000000000e+03 3.708946228027343750e+01 9.190032958984375000e+00 1.083518981933593750e+00 1.281014156341552734e+01 4.168098449707031250e+00 -7.382206916809082031e-01
1.249000000000000000e+03 3.355260467529296875e+01 1.096207904815673828e+01 7.314634919166564941e-01 1.446132564544677734e+01 4.557837009429931641e+00 -2.760960817337036133e+00
1.250000000000000000e+03 3.279183578491210938e+01 1.412722778320312500e+01 1.205558896064758301e+00 1.300403118133544922e+01 4.262876987457275391e+00 -3.259391069412231445e+00
1.251000000000000000e+03 1.520177650451660156e+01 -1.372409820556640625e+01 1.176267981529235840e+00 2.518448829650878906e+00 1.108415126800537109e+00 1.225530862808227539e+00
1.252000000000000000e+03 1.708219718933105469e+01 -1.183358764648437500e+01 1.608438372611999512e+00 1.361470818519592285e+00 8.909727334976196289e-01 1.001401782035827637e+00
1.253000000000000000e+03 1.361827182769775391e+01 1.833877944946289062e+01 -6.620661914348602295e-02 -2.642836421728134155e-02 -2.779049612581729889e-02 -6.638090312480926514e-02
1.254000000000000000e+03 1.492538070678710938e+01 1.974312782287597656e+01 -1.668480336666107178e-01 -1.416381448507308960e-01 -9.254585206508636475e-02 -1.331422179937362671e-01
1.255000000000000000e+03 3.629512405395507812e+01 -2.276132774353027344e+01 1.482098937034606934e+00 8.334444999694824219e+00 2.944962978363037109e+00 1.195503473281860352e+00
1.256000000000000000e+03 3.523079681396484375e+01 -2.161997032165527344e+01 5.054598450660705566e-01 9.750226020812988281e+00 3.076705694198608398e+00 1.458284974098205566e+00
1.257000000000000000e+03 2.391366958618164062e+01 -3.098849678039550781e+01 -3.246828317642211914e-01 1.594333648681640625e-01 -4.957483708858489990e-02 -1.894233375787734985e-01
1.258000000000000000e+03 3.466694641113281250e+01 -2.503417968750000000e+01 1.505114912986755371e+00 5.926056385040283203e+00 2.229351282119750977e+00 2.312965869903564453e+00
1.259000000000000000e+03 2.676472473144531250e+01 -2.955235099792480469e+01 -9.375153183937072754e-01 1.597406528890132904e-02 -2.764623761177062988e-01 1.989087276160717010e-02
1.260000000000000000e+03 2.061461257934570312e+01 -1.158877182006835938e+01 1.101628422737121582e+00 6.716515123844146729e-02 3.506380617618560791e-01 3.162899613380432129e-01
1.261000000000000000e+03 1.955839729309082031e+01 -1.109747314453125000e+01 1.293397068977355957e+00 2.543610632419586182e-01 4.643274545669555664e-01 6.324139833450317383e-01
1.262000000000000000e+03 1.471513462066650391e+01 -1.439684867858886719e+01 9.929914474487304688e-01 2.934245109558105469e+00 1.178171038627624512e+00 1.069731116294860840e+00
1.263000000000000000e+03 2.357153129577636719e+01 -9.106513977050781250e+00 2.099041938781738281e-01 2.349729388952255249e-01 1.334631443023681641e-01 4.399763047695159912e-01
1.264000000000000000e+03 2.149329757690429688e+01 -2.979743766784667969e+01 -3.357650041580200195e-01 4.373048841953277588e-01 3.046196512877941132e-02 -2.948879897594451904e-01
1.265000000000000000e+03 3.398517227172851562e+01 -1.200416851043701172e+01 1.947856664657592773e+00 8.896691322326660156e+00 3.253364324569702148e+00 -3.850855588912963867e+00
1.266000000000000000e+03 3.565746307373046875e+01 -1.234853458404541016e+01 9.304218292236328125e-01 9.241395950317382812e+00 3.051545381546020508e+00 -2.052359580993652344e+00
1.267000000000000000e+03 1.631640052795410156e+01 -1.238166713714599609e+01 1.540751695632934570e+00 1.661849617958068848e+00 9.607803821563720703e-01 1.163802742958068848e+00
1.268000000000000000e+03 2.641154670715332031e+01 -9.203460693359375000e+00 -2.040484100580215454e-01 1.015295982360839844e-01 -3.075564466416835785e-02 9.126455336809158325e-02
1.269000000000000000e+03 2.533089256286621094e+01 -9.052327156066894531e+00 -1.171813532710075378e-01 2.291566729545593262e-01 3.359259292483329773e-02 2.881449460983276367e-01
1.270000000000000000e+03 3.353749847412109375e+01 -2.530620384216308594e+01 2.022518634796142578e+00 3.645643949508666992e+00 1.700448751449584961e+00 2.626414299011230469e+00
1.271000000000000000e+03 2.815083694458007812e+01 -7.541382312774658203e+00 -1.853739142417907715e+00 4.055826738476753235e-02 -5.439542531967163086e-01 9.469162821769714355e-01
1.272000000000000000e+03 3.189845657348632812e+01 -9.449418067932128906e+00 -7.034725546836853027e-01 1.109103798866271973e+00 1.216893866658210754e-01 -3.438606262207031250e-01
1.273000000000000000e+03 1.877840614318847656e+01 -1.127460670471191406e+01 1.487376213073730469e+00 5.569841861724853516e-01 6.133081316947937012e-01 8.143492937088012695e-01
1.274000000000000000e+03 3.524318313598632812e+01 -1.337385368347167969e+01 1.413962602615356445e+00 1.028056621551513672e+01 3.508358478546142578e+00 -2.742555856704711914e+00
1.275000000000000000e+03 1.572737216949462891e+01 -1.305900764465332031e+01 1.371305704116821289e+00 2.159612894058227539e+00 1.059275507926940918e+00 1.269727349281311035e+00
1.276000000000000000e+03 1.571016788482666016e+01 -1.411329555511474609e+01 1.401695966720581055e+00 2.899982213973999023e+00 1.290503501892089844e+00 1.776641488075256348e+00
1.277000000000000000e+03 2.493807220458984375e+01 -8.458193778991699219e+00 -1.733829975128173828e-01 3.120968937873840332e-01 4.161417484283447266e-02 4.354024529457092285e-01
1.278000000000000000e+03 3.462431335449218750e+01 -1.171171188354492188e+01 1.040973067283630371e+00 8.745335578918457031e+00 2.935892581939697266e+00 -2.484761476516723633e+00
1.279000000000000000e+03 2.702021408081054688e+01 -3.063535499572753906e+01 -2.733874619007110596e-01 1.732350438833236694e-01 -3.004572354257106781e-02 2.621399462223052979e-01
1.280000000000000000e+03 2.877863502502441406e+01 -3.023891830444335938e+01 -3.527206182479858398e-02 6.321471929550170898e-01 1.790625452995300293e-01 6.610212326049804688e-01
1.281000000000000000e+03 3.546882629394531250e+01 -1.420571708679199219e+01 1.210323333740234375e+00 1.070407104492187500e+01 3.574318408966064453e+00 -2.617664337158203125e+00
1.282000000000000000e+03 3.496800231933593750e+01 -1.253730297088623047e+01 1.316327929496765137e+00 9.666433334350585938e+00 3.294828414916992188e+00 -2.676263570785522461e+00
1.283000000000000000e+03 3.583480834960937500e+01 -2.174912071228027344e+01 9.192639589309692383e-01 9.249769210815429688e+00 3.050709962844848633e+00 1.055544376373291016e+00
1.284000000000000000e+03 2.533211326599121094e+01 -3.072430801391601562e+01 -3.792644143104553223e-01 5.122927948832511902e-02 -9.841053932905197144e-02 1.772778481245040894e-02
1.285000000000000000e+03 3.125461006164550781e+01 -7.660892009735107422e+00 -1.847133755683898926e+00 1.611277222633361816e+00 -7.075698673725128174e-02 -6.227057576179504395e-01
1.286000000000000000e+03 2.364654541015625000e+01 -1.072268104553222656e+01 4.865565299987792969e-01 8.547899127006530762e-02 1.716106683015823364e-01 2.579475939273834229e-01
1.287000000000000000e+03 3.589419174194335938e+01 -1.672390174865722656e+01 7.072372436523437500e-01 1.041890239715576172e+01 3.337841749191284180e+00 -1.653153538703918457e+00
1.288000000000000000e+03 3.537026596069335938e+01 -1.918028640747070312e+01 1.758716851472854614e-01 9.921022415161132812e+00 3.029068231582641602e+00 -2.978085875511169434e-01
1.289000000000000000e+03 1.219982910156250000e+01 -1.747304153442382812e+01 6.142940521240234375e-01 2.160588264465332031e+00 8.324646949768066406e-01 1.316901594400405884e-01
1.290000000000000000e+03 2.106863021850585938e+01 -1.073979949951171875e+01 8.586707711219787598e-01 1.350086480379104614e-01 2.981038093566894531e-01 4.522945582866668701e-01
1.291000000000000000e+03 2.138700103759765625e+01 -1.142096042633056641e+01 9.039677381515502930e-01 8.140801638364791870e-02 2.956127226352691650e-01 2.779244780540466309e-01
1.292000000000000000e+03 2.615516471862792969e+01 -3.069783592224121094e+01 -3.512575924396514893e-01 1.067158058285713196e-01 -7.336253672838211060e-02 1.114132106304168701e-01
1.293000000000000000e+03 2.789734077453613281e+01 -3.048303222656250000e+01 -1.675943881273269653e-01 3.444775342941284180e-01 5.306494608521461487e-02 4.356677532196044922e-01
1.294000000000000000e+03 2.210702514648437500e+01 -3.043961715698242188e+01 -2.796594202518463135e-01 3.811294734477996826e-01 3.044101223349571228e-02 -3.586000204086303711e-01
1.295000000000000000e+03 2.003519058227539062e+01 -2.781457710266113281e+01 1.029626578092575073e-01 4.834674298763275146e-01 1.759290248155593872e-01 -3.335295915603637695e-01
1.296000000000000000e+03 1.815962409973144531e+01 -2.515536880493164062e+01 6.269173622131347656e-01 8.459598422050476074e-01 4.418631494045257568e-01 -6.929128766059875488e-01
1.297000000000000000e+03 1.547817420959472656e+01 -2.324859809875488281e+01 5.481447577476501465e-01 1.749429702758789062e+00 6.892723441123962402e-01 -9.551647305488586426e-01
1.298000000000000000e+03 1.600767326354980469e+01 -2.385715293884277344e+01 5.282547473907470703e-01 1.522804498672485352e+00 6.153177618980407715e-01 -8.277661204338073730e-01
1.299000000000000000e+03 3.600614166259765625e+01 -1.838986015319824219e+01 4.257000088691711426e-01 9.931797981262207031e+00 3.107249498367309570e+00 -7.226436734199523926e-01
1.300000000000000000e+03 1.996729660034179688e+01 -2.674109077453613281e+01 3.442573249340057373e-01 3.910661637783050537e-01 2.205970436334609985e-01 -3.820897042751312256e-01
1.301000000000000000e+03 2.055600547790527344e+01 -2.836871910095214844e+01 -3.492392599582672119e-02 4.413592219352722168e-01 1.219305917620658875e-01 -2.664905190467834473e-01
1.302000000000000000e+03 3.565419006347656250e+01 -1.504009437561035156e+01 1.055792689323425293e+00 1.083931541442871094e+01 3.568532466888427734e+00 -2.255279302597045898e+00
1.303000000000000000e+03 3.482916259765625000e+01 -1.432950305938720703e+01 9.556897878646850586e-01 1.178338432312011719e+01 3.821722030639648438e+00 -2.945305585861206055e+00
1.304000000000000000e+03 3.602297973632812500e+01 -1.922493743896484375e+01 4.510647654533386230e-01 9.765380859375000000e+00 3.064933776855468750e+00 -3.943759500980377197e-01
1.305000000000000000e+03 3.566046524047851562e+01 -2.259538459777832031e+01 1.200358986854553223e+00 8.756869316101074219e+00 2.987168550491333008e+00 1.731725692749023438e+00
1.306000000000000000e+03 3.541697692871093750e+01 -2.343921852111816406e+01 1.650120019912719727e+00 7.848550796508789062e+00 2.849601268768310547e+00 2.052445411682128906e+00
1.307000000000000000e+03 3.600697326660156250e+01 -2.006139183044433594e+01 5.685204267501831055e-01 9.766957283020019531e+00 3.100643396377563477e+00 1.525907665491104126e-01
1.308000000000000000e+03 3.136107444763183594e+01 -2.776808547973632812e+01 1.210594534873962402e+00 1.744542479515075684e+00 8.865411281585693359e-01 1.413706183433532715e+00
1.309000000000000000e+03 2.602928543090820312e+01 -8.662824630737304688e+00 -4.148863554000854492e-01 3.007040023803710938e-01 -3.425469994544982910e-02 2.509366273880004883e-01
1.310000000000000000e+03 1.883628273010253906e+01 -2.687672996520996094e+01 2.446709126234054565e-01 6.897128224372863770e-01 2.803151309490203857e-01 -4.690340459346771240e-01
1.311000000000000000e+03 1.945348930358886719e+01 -2.734594345092773438e+01 1.844731271266937256e-01 5.847935080528259277e-01 2.307799905538558960e-01 -4.056469798088073730e-01
1.312000000000000000e+03 3.248086929321289062e+01 -8.887778282165527344e+00 -1.462894916534423828e+00 3.415594339370727539e+00 5.858098268508911133e-01 -9.025648236274719238e-01
1.313000000000000000e+03 3.305643081665039062e+01 -9.542391777038574219e+00 -9.470671415328979492e-01 4.715092182159423828e+00 1.130407452583312988e+00 -1.428235650062561035e+00
1.314000000000000000e+03 3.208435440063476562e+01 -2.848273849487304688e+01 8.197159767150878906e-01 2.519454717636108398e+00 1.001751184463500977e+00 1.515977978706359863e+00
1.315000000000000000e+03 1.706147193908691406e+01 -2.512155342102050781e+01 4.502433240413665771e-01 1.117793798446655273e+00 4.704111218452453613e-01 -6.766664981842041016e-01
1.316000000000000000e+03 1.374267101287841797e+01 -1.980570030212402344e+01 4.970249235630035400e-01 3.327778339385986328e+00 1.147440910339355469e+00 -4.677410125732421875e-01
1.317000000000000000e+03 3.366313171386718750e+01 -2.639854812622070312e+01 1.338552713394165039e+00 3.930146932601928711e+00 1.580609917640686035e+00 2.195547580718994141e+00
1.318000000000000000e+03 3.261433029174804688e+01 -2.770537185668945312e+01 1.075177192687988281e+00 2.871866941452026367e+00 1.184113264083862305e+00 1.781119704246520996e+00
1.319000000000000000e+03 3.313992691040039062e+01 -2.703178596496582031e+01 1.203434228897094727e+00 3.291962385177612305e+00 1.348618984222412109e+00 1.973948478698730469e+00
1.320000000000000000e+03 1.377839946746826172e+01 -1.896112251281738281e+01 1.923605054616928101e-01 3.370660781860351562e+00 1.068906426429748535e+00 -1.056019514799118042e-01
1.321000000000000000e+03 1.376430416107177734e+01 -1.728109931945800781e+01 3.983257114887237549e-01 3.320158720016479492e+00 1.115545272827148438e+00 3.987740278244018555e-01
1.322000000000000000e+03 4.009052515029907227e-01 3.485372161865234375e+01 -2.374703530222177505e-03 -4.330158233642578125e-01 -1.306171566247940063e-01 9.468470700085163116e-03
1.323000000000000000e+03 3.856819272041320801e-01 3.405075454711914062e+01 2.695791423320770264e-03 -4.132064878940582275e-01 -1.231532022356987000e-01 9.748976677656173706e-03
1.324000000000000000e+03 3.974509537220001221e-01 2.843967628479003906e+01 -8.459904929623007774e-04 -2.489109635353088379e-01 -7.492708414793014526e-02 1.293720118701457977e-02
1.325000000000000000e+03 3.914847075939178467e-01 2.763139343261718750e+01 6.202061194926500320e-04 -2.227146476507186890e-01 -6.662833690643310547e-02 1.274269167333841324e-02
1.326000000000000000e+03 3.674033582210540771e-01 2.119253349304199219e+01 -3.887041530106216669e-04 -4.475668072700500488e-02 -1.354361511766910553e-02 6.685727275907993317e-03
1.327000000000000000e+03 1.105994224548339844e+00 2.198620033264160156e+01 -2.073627663776278496e-03 -5.913601443171501160e-02 -1.836289279162883759e-02 2.226545475423336029e-02
1.328000000000000000e+03 1.135841727256774902e+00 2.600760078430175781e+01 -1.609260216355323792e-03 -1.522535234689712524e-01 -4.615883529186248779e-02 3.457112610340118408e-02
1.329000000000000000e+03 1.126117706298828125e+00 2.520091819763183594e+01 -1.024669152684509754e-03 -1.312444210052490234e-01 -3.968072682619094849e-02 3.256684914231300354e-02
1.330000000000000000e+03 3.796760439872741699e-01 2.601763534545898438e+01 3.116997686447575688e-05 -1.699806898832321167e-01 -5.098485946655273438e-02 1.208688132464885712e-02
1.331000000000000000e+03 1.150402903556823730e+00 2.681751823425292969e+01 -6.577711610589176416e-05 -1.741752475500106812e-01 -5.227230489253997803e-02 3.577453270554542542e-02
1.332000000000000000e+03 1.170035958290100098e+00 2.763183975219726562e+01 -4.954627947881817818e-04 -1.964732259511947632e-01 -5.909060686826705933e-02 3.711796924471855164e-02
1.333000000000000000e+03 2.835162878036499023e+00 3.019532966613769531e+01 6.731640081852674484e-03 -1.912475377321243286e-01 -5.535477027297019958e-02 7.042606920003890991e-02
1.334000000000000000e+03 1.155353426933288574e+00 3.246456146240234375e+01 -1.190737937577068806e-03 -3.233652710914611816e-01 -9.736680239439010620e-02 2.975801378488540649e-02
1.335000000000000000e+03 1.163534522056579590e+00 3.168229675292968750e+01 3.326738253235816956e-03 -3.050180077552795410e-01 -9.050738066434860229e-02 3.034451417624950409e-02
1.336000000000000000e+03 3.833771049976348877e-01 3.245502090454101562e+01 2.424446167424321175e-03 -3.709633648395538330e-01 -1.105616763234138489e-01 9.968233294785022736e-03
1.337000000000000000e+03 1.145135045051574707e+00 3.324264526367187500e+01 2.679090015590190887e-03 -3.419191539287567139e-01 -1.017720252275466919e-01 2.807209268212318420e-02
1.338000000000000000e+03 1.280143618583679199e+00 3.561660003662109375e+01 -3.262739337515085936e-04 -3.762811720371246338e-01 -1.129822358489036560e-01 2.675511687994003296e-02
1.339000000000000000e+03 2.803557395935058594e+00 3.879102706909179688e+01 1.573054492473602295e-02 -2.853877544403076172e-01 -8.089716732501983643e-02 3.733732178807258606e-02
1.340000000000000000e+03 1.823029041290283203e+00 3.960109329223632812e+01 2.283792709931731224e-03 -4.008094072341918945e-01 -1.195576861500740051e-01 9.659798815846443176e-03
1.341000000000000000e+03 1.146670222282409668e+00 3.951710510253906250e+01 -6.504175835289061069e-04 -4.408501386642456055e-01 -1.324501782655715942e-01 5.398370791226625443e-03
1.342000000000000000e+03 3.939088284969329834e-01 3.962870025634765625e+01 -6.704409606754779816e-03 -5.017200112342834473e-01 -1.525273323059082031e-01 2.241163514554500580e-03
1.343000000000000000e+03 1.666114568710327148e+00 4.078217697143554688e+01 5.352504551410675049e-03 -4.119149148464202881e-01 -1.219687238335609436e-01 -4.003026406280696392e-04
1.344000000000000000e+03 1.591541051864624023e+00 4.182030868530273438e+01 1.209338661283254623e-03 -4.156737923622131348e-01 -1.243393346667289734e-01 -5.713961087167263031e-03
1.345000000000000000e+03 4.460000991821289062e-01 -3.795736694335937500e+01 -7.581947371363639832e-03 -6.684007644653320312e-01 -2.027948200702667236e-01 1.000446733087301254e-02
1.346000000000000000e+03 1.124955058097839355e+00 -3.699164199829101562e+01 -1.122384890913963318e-02 -6.416670680046081543e-01 -1.958672702312469482e-01 3.209717944264411926e-02
1.347000000000000000e+03 1.079018950462341309e+00 -9.024506568908691406e+00 3.494434058666229248e-03 -9.363143444061279297e-01 -2.798459827899932861e-01 -1.871034801006317139e-01
1.348000000000000000e+03 1.081671595573425293e+00 -1.547434520721435547e+01 1.743834093213081360e-02 -1.712554693222045898e+00 -5.085349082946777344e-01 -7.740791141986846924e-02
1.349000000000000000e+03 3.653517663478851318e-01 1.958524513244628906e+01 -3.294042253401130438e-04 -2.006702497601509094e-02 -6.118929013609886169e-03 4.568358417600393295e-03
1.350000000000000000e+03 1.110468029975891113e+00 2.279034805297851562e+01 -2.458520466461777687e-03 -7.470042258501052856e-02 -2.314768359065055847e-02 2.525671198964118958e-02
1.351000000000000000e+03 3.643423318862915039e-01 1.476139926910400391e+01 -1.011968925013206899e-05 8.439921773970127106e-03 2.528940793126821518e-03 4.145797283854335546e-04
1.352000000000000000e+03 3.645783066749572754e-01 1.395657253265380859e+01 -2.550016215536743402e-04 9.038925170898437500e-03 2.635176992043852806e-03 1.139297310146503150e-04
1.353000000000000000e+03 3.810252845287322998e-01 7.512802600860595703e+00 -1.500255712016951293e-05 3.630306571722030640e-03 1.084591145627200603e-03 -3.660926595330238342e-04
1.354000000000000000e+03 3.834697008132934570e-01 6.705222129821777344e+00 3.866004772135056555e-05 2.882516477257013321e-03 8.763530058786273003e-04 -3.362829738762229681e-04
1.355000000000000000e+03 1.105055570602416992e+00 -2.190914535522460938e+01 1.141531765460968018e-02 -1.694480657577514648e+00 -5.049195885658264160e-01 7.891065627336502075e-02
1.356000000000000000e+03 1.158748745918273926e+00 -2.912528228759765625e+01 -5.722593050450086594e-03 -1.082232713699340820e+00 -3.263865709304809570e-01 1.087868660688400269e-01
1.357000000000000000e+03 1.100326299667358398e+00 -3.635604858398437500e+01 -7.794990669935941696e-04 -6.696301698684692383e-01 -2.011228948831558228e-01 4.299389570951461792e-02
1.358000000000000000e+03 4.011049866676330566e-01 2.689520835876464844e+00 9.864443200058303773e-06 3.907031205017119646e-04 1.201702762045897543e-04 -1.398346066707745194e-04
1.359000000000000000e+03 4.541232109069824219e+00 1.864406108856201172e+00 8.558165864087641239e-04 -2.115325878548901528e-05 2.503989962860941887e-04 -5.978146800771355629e-04
1.360000000000000000e+03 6.109888076782226562e+00 2.590457201004028320e+00 1.141319517046213150e-03 -2.830131561495363712e-04 2.574919199105352163e-04 -5.720552289858460426e-04
1.361000000000000000e+03 3.883827030658721924e-01 5.093811035156250000e+00 3.416933395783416927e-05 1.629206235520541668e-03 4.990127054043114185e-04 -2.590695803519338369e-04
1.362000000000000000e+03 1.141954064369201660e+00 7.478256225585937500e+00 1.323541800957173109e-04 2.787767210975289345e-03 8.760364726185798645e-04 -9.959342423826456070e-04
1.363000000000000000e+03 2.618191957473754883e+00 1.069357299804687500e+01 -2.881225373130291700e-04 1.393965212628245354e-03 3.317527880426496267e-04 -1.419371110387146473e-03
1.364000000000000000e+03 1.133265495300292969e+00 9.098141670227050781e+00 1.210752961924299598e-04 3.920968156307935715e-03 1.212613075040280819e-03 -1.121898298151791096e-03
1.365000000000000000e+03 1.866541862487792969e+00 1.069309329986572266e+01 -3.558228490874171257e-04 3.182750893756747246e-03 8.480784599669277668e-04 -1.327493344433605671e-03
1.366000000000000000e+03 1.098858118057250977e+00 1.233336830139160156e+01 -1.232313370564952493e-04 5.692095961421728134e-03 1.670659403316676617e-03 -5.804162938147783279e-04
1.367000000000000000e+03 3.674146234989166260e-01 1.234621620178222656e+01 -1.732948294375091791e-04 8.625204674899578094e-03 2.535572974011301994e-03 -2.588581119198352098e-04
1.368000000000000000e+03 1.092780351638793945e+00 1.314180850982666016e+01 -5.676477449014782906e-04 5.709765013307332993e-03 1.542635262012481689e-03 -1.199834223370999098e-04
1.369000000000000000e+03 1.810656428337097168e+00 1.313631916046142578e+01 -8.321217610500752926e-04 3.001129487529397011e-03 6.507023354060947895e-04 1.524787949165329337e-04
1.370000000000000000e+03 2.511899471282958984e+00 1.554626464843750000e+01 -4.184680525213479996e-03 -2.359866397455334663e-03 -1.963363960385322571e-03 6.061451975256204605e-03
1.371000000000000000e+03 1.089316010475158691e+00 1.636241149902343750e+01 -1.469876966439187527e-03 2.914021024480462074e-05 -4.322210443206131458e-04 4.024465102702379227e-03
1.372000000000000000e+03 1.090028405189514160e+00 1.716655731201171875e+01 -1.281877863220870495e-03 -3.755960380658507347e-03 -1.511351438239216805e-03 5.859964527189731598e-03
1.373000000000000000e+03 1.090960979461669922e+00 1.797051048278808594e+01 -2.012694953009486198e-03 -8.651317097246646881e-03 -3.199203638359904289e-03 7.963636890053749084e-03
1.374000000000000000e+03 1.092032790184020996e+00 1.877416419982910156e+01 -1.765261054970324039e-03 -1.525612175464630127e-02 -5.106415133923292160e-03 1.048929709941148758e-02
1.375000000000000000e+03 1.093610405921936035e+00 1.957696723937988281e+01 -2.427888568490743637e-03 -2.333532273769378662e-02 -7.728963624686002731e-03 1.315701194107532501e-02
1.376000000000000000e+03 1.804867506027221680e+00 -3.911814880371093750e+01 -6.452896166592836380e-03 -5.337744355201721191e-01 -1.620682030916213989e-01 2.802046015858650208e-02
1.377000000000000000e+03 2.511870622634887695e+00 -3.780573272705078125e+01 -2.096809633076190948e-02 -4.851528108119964600e-01 -1.518362760543823242e-01 6.020168960094451904e-02
1.378000000000000000e+03 1.557185411453247070e+00 -3.835076141357421875e+01 -1.299384329468011856e-02 -5.746264457702636719e-01 -1.762860864400863647e-01 2.961983717978000641e-02
1.379000000000000000e+03 1.226231813430786133e+00 -3.561410903930664062e+01 -1.087483577430248260e-02 -6.885424256324768066e-01 -2.098251730203628540e-01 5.042659863829612732e-02
1.380000000000000000e+03 1.976531267166137695e+00 -3.062921714782714844e+01 -1.295082923024892807e-02 -8.366276025772094727e-01 -2.548735141754150391e-01 1.518844962120056152e-01
1.381000000000000000e+03 1.252120137214660645e+00 -3.233171081542968750e+01 -1.011980511248111725e-02 -8.390842676162719727e-01 -2.547612190246582031e-01 8.454986661672592163e-02
1.382000000000000000e+03 3.997164368629455566e-01 -3.080802345275878906e+01 -1.307301135966554284e-04 -1.061069011688232422e+00 -3.183599114418029785e-01 3.535711392760276794e-02
1.383000000000000000e+03 1.221652746200561523e+00 -3.153129386901855469e+01 -5.118521396070718765e-03 -8.930640816688537598e-01 -2.694547772407531738e-01 9.303027391433715820e-02
1.384000000000000000e+03 1.194156408309936523e+00 -3.072875022888183594e+01 -7.837702520191669464e-03 -9.525077939033508301e-01 -2.881036698818206787e-01 9.797165542840957642e-02
1.385000000000000000e+03 1.148130655288696289e+00 -2.832438087463378906e+01 -2.797985216602683067e-03 -1.152176380157470703e+00 -3.464922904968261719e-01 1.135599389672279358e-01
1.386000000000000000e+03 1.892658710479736328e+00 -2.744767761230468750e+01 -4.114525858312845230e-03 -1.065818786621093750e+00 -3.209799826145172119e-01 1.774774491786956787e-01
1.387000000000000000e+03 1.125450491905212402e+00 -2.512091827392578125e+01 3.006395418196916580e-03 -1.442023634910583496e+00 -4.317051768302917480e-01 1.143659576773643494e-01
1.388000000000000000e+03 1.129899024963378906e+00 -2.592164611816406250e+01 2.237579610664397478e-04 -1.369653463363647461e+00 -4.108289182186126709e-01 1.170773208141326904e-01
1.389000000000000000e+03 3.719917833805084229e-01 -2.357792663574218750e+01 9.574911673553287983e-04 -1.808124542236328125e+00 -5.421501398086547852e-01 3.765731304883956909e-02
1.390000000000000000e+03 1.120983481407165527e+00 -2.431927680969238281e+01 3.835705108940601349e-03 -1.511877059936523438e+00 -4.524123966693878174e-01 1.098240166902542114e-01
1.391000000000000000e+03 1.839992642402648926e+00 -2.184548950195312500e+01 2.623858116567134857e-02 -1.452903151512145996e+00 -4.279993772506713867e-01 1.175553202629089355e-01
1.392000000000000000e+03 1.100268006324768066e+00 -2.110538482666015625e+01 1.152008585631847382e-02 -1.739458203315734863e+00 -5.183814167976379395e-01 6.411903351545333862e-02
1.393000000000000000e+03 1.090594410896301270e+00 -1.869329071044921875e+01 1.661796495318412781e-02 -1.808676719665527344e+00 -5.376176238059997559e-01 8.506954647600650787e-03
1.394000000000000000e+03 1.093316197395324707e+00 -1.949778747558593750e+01 1.375131122767925262e-02 -1.797567248344421387e+00 -5.351448059082031250e-01 2.853283099830150604e-02
1.395000000000000000e+03 3.621931672096252441e-01 -1.714561843872070312e+01 2.283188048750162125e-03 -2.073470354080200195e+00 -6.213561296463012695e-01 -9.237442165613174438e-03
1.396000000000000000e+03 1.083705186843872070e+00 -1.627870750427246094e+01 1.588623411953449249e-02 -1.757709264755249023e+00 -5.225468873977661133e-01 -5.603994429111480713e-02
1.397000000000000000e+03 1.079694867134094238e+00 -1.467001342773437500e+01 1.471488550305366516e-02 -1.652982354164123535e+00 -4.914802610874176025e-01 -9.844591468572616577e-02
1.398000000000000000e+03 1.078990817070007324e+00 -1.144992351531982422e+01 8.760524913668632507e-03 -1.292960524559020996e+00 -3.852599859237670898e-01 -1.639813035726547241e-01
1.399000000000000000e+03 1.078344225883483887e+00 -1.225628471374511719e+01 1.210070680826902390e-02 -1.398953676223754883e+00 -4.160558879375457764e-01 -1.504537016153335571e-01
1.400000000000000000e+03 3.611733317375183105e-01 -9.904834747314453125e+00 2.111125970259308815e-03 -1.212651610374450684e+00 -3.631621599197387695e-01 -6.264609098434448242e-02
1.401000000000000000e+03 1.791307926177978516e+00 -8.146050453186035156e+00 -6.015484686940908432e-04 -7.117489576339721680e-01 -2.137051522731781006e-01 -2.893571257591247559e-01
1.402000000000000000e+03 3.383205652236938477e+00 -2.604979991912841797e+00 -1.649681627750396729e-01 -9.657362103462219238e-02 -7.846253365278244019e-02 -2.357877194881439209e-01
1.403000000000000000e+03 1.084169983863830566e+00 -4.231254577636718750e+00 -1.684691756963729858e-02 -2.528538405895233154e-01 -8.091022819280624390e-02 -1.343212723731994629e-01
1.404000000000000000e+03 1.075587987899780273e+00 -5.815295696258544922e+00 -8.814495056867599487e-03 -4.532324075698852539e-01 -1.386140733957290649e-01 -1.679020822048187256e-01
1.405000000000000000e+03 1.095144987106323242e+00 -3.444440364837646484e+00 -2.184329554438591003e-02 -1.721870005130767822e-01 -5.820908769965171814e-02 -1.109976619482040405e-01
1.406000000000000000e+03 3.630369603633880615e-01 -3.487018346786499023e+00 -4.028109833598136902e-03 -1.422941386699676514e-01 -4.389667138457298279e-02 -3.800405934453010559e-02
1.407000000000000000e+03 1.632105064392089844e+01 2.276077079772949219e+01 -3.265858292579650879e-01 -1.521831285208463669e-02 -1.025412455201148987e-01 -1.193661522120237350e-02
1.408000000000000000e+03 1.298570919036865234e+01 1.738871192932128906e+01 -3.912518918514251709e-02 -1.201693061739206314e-02 -1.534263603389263153e-02 -3.874647617340087891e-02
1.409000000000000000e+03 1.375460147857666016e+01 1.759752845764160156e+01 -1.877781003713607788e-02 -3.491633012890815735e-02 -1.610824093222618103e-02 -3.529214859008789062e-02
1.410000000000000000e+03 1.469721794128417969e+01 1.189354038238525391e+01 -2.410059387329965830e-04 7.061255630105733871e-03 2.046074951067566872e-03 -5.242172846919856966e-05
1.411000000000000000e+03 1.655063819885253906e+01 1.002483177185058594e+01 2.713352732826024294e-04 2.416384173557162285e-03 8.063158602453768253e-04 -1.589475898072123528e-03
1.412000000000000000e+03 2.021847915649414062e+01 2.295360565185546875e+01 -3.375527858734130859e-01 -2.070996537804603577e-02 -1.074788197875022888e-01 -1.649312078952789307e-01
1.413000000000000000e+03 1.525884532928466797e+01 2.136127281188964844e+01 -3.671598136425018311e-01 -1.183689292520284653e-02 -1.136990115046501160e-01 -6.079158931970596313e-02
1.414000000000000000e+03 1.439136219024658203e+01 2.130272293090820312e+01 -2.862298488616943359e-01 3.368591517210006714e-02 -7.576318085193634033e-02 -2.171228639781475067e-02
1.415000000000000000e+03 1.654472732543945312e+01 9.012255668640136719e+00 -2.147005143342539668e-04 1.963973976671695709e-03 5.247820517979562283e-04 -6.544167990796267986e-04
1.416000000000000000e+03 1.934647941589355469e+01 2.203594207763671875e+01 -7.110900878906250000e-01 -3.981712087988853455e-02 -2.252721637487411499e-01 -1.490426659584045410e-01
1.417000000000000000e+03 1.940098953247070312e+01 2.288066482543945312e+01 -3.879877328872680664e-01 -2.547200955450534821e-02 -1.240379214286804199e-01 -1.428548842668533325e-01
1.418000000000000000e+03 1.793252754211425781e+01 3.981568336486816406e+00 -8.403237188758794218e-06 4.880858177784830332e-04 1.439047773601487279e-04 7.977022323757410049e-05
1.419000000000000000e+03 1.935899734497070312e+01 3.577598571777343750e+00 -3.122205089312046766e-05 -1.678451735642738640e-05 -1.440196956536965445e-05 2.781807415885850787e-05
1.420000000000000000e+03 1.444334602355957031e+01 1.272894668579101562e+01 3.441555309109389782e-04 8.332344703376293182e-03 2.602950204163789749e-03 -3.850218126899562776e-05
1.421000000000000000e+03 1.875275993347167969e+01 7.640595912933349609e+00 -1.853872963692992926e-04 3.758153252420015633e-05 -4.434173024492338300e-05 -3.525009087752550840e-04
1.422000000000000000e+03 1.779165458679199219e+01 2.271863937377929688e+01 -4.044577181339263916e-01 -5.421587452292442322e-02 -1.376020759344100952e-01 -1.069466844201087952e-01
1.423000000000000000e+03 1.704386138916015625e+01 2.269017982482910156e+01 -3.363501131534576416e-01 -5.624194070696830750e-02 -1.177776157855987549e-01 -5.235198140144348145e-02
1.424000000000000000e+03 1.311238670349121094e+01 1.663143730163574219e+01 -1.432337146252393723e-02 -1.653720997273921967e-02 -9.258174337446689606e-03 -2.199048921465873718e-02
1.425000000000000000e+03 1.458842277526855469e+01 1.697565078735351562e+01 -2.324105938896536827e-03 4.459955263882875443e-03 6.407547625713050365e-04 -5.438780877739191055e-03
1.426000000000000000e+03 1.392068195343017578e+01 1.602989959716796875e+01 -2.687161089852452278e-03 -1.064715208485722542e-03 -1.125562936067581177e-03 -6.875810679048299789e-03
1.427000000000000000e+03 1.506014156341552734e+01 1.109411621093750000e+01 2.939770929515361786e-04 5.766964517533779144e-03 1.818282413296401501e-03 3.688758079078979790e-05
1.428000000000000000e+03 1.602071189880371094e+01 9.669183731079101562e+00 1.256692485185340047e-04 3.170324722304940224e-03 9.887982159852981567e-04 -4.310082003939896822e-04
1.429000000000000000e+03 1.881252098083496094e+01 6.689703464508056641e+00 -1.440902851754799485e-04 1.367518270853906870e-04 -2.201536290158401243e-06 -2.099675039062276483e-04
1.430000000000000000e+03 2.113068008422851562e+01 5.487916946411132812e+00 -1.554873742861673236e-04 -1.247385516762733459e-04 -8.406777487834915519e-05 -9.552665142109617591e-05
1.431000000000000000e+03 2.152601623535156250e+01 3.342594861984252930e+00 -4.594707570504397154e-05 -4.062638254254125059e-05 -2.597203820187132806e-05 -1.599934535079228226e-06
1.432000000000000000e+03 1.804112625122070312e+01 3.398675203323364258e+00 -1.748607610352337360e-05 8.975757373264059424e-05 2.168144965253304690e-05 1.769557857187464833e-04
1.433000000000000000e+03 1.985743522644042969e+01 4.251797199249267578e+00 -3.540485340636223555e-05 -5.798900747322477400e-05 -2.801815753628034145e-05 -1.005533158604521304e-05
1.434000000000000000e+03 6.201475620269775391e+00 1.862241506576538086e+00 1.194768003188073635e-03 -1.450912095606327057e-04 3.149030380882322788e-04 -4.259929410181939602e-04
1.435000000000000000e+03 1.936493158340454102e+00 5.002874374389648438e+00 2.645120839588344097e-04 9.911925299093127251e-04 3.767113958019763231e-04 -1.010775333270430565e-03
1.436000000000000000e+03 1.173834085464477539e+00 4.244586944580078125e+00 1.230997877428308129e-04 9.828242473304271698e-04 3.317772352602332830e-04 -6.005215109325945377e-04
1.437000000000000000e+03 2.017394304275512695e+00 2.639091730117797852e+00 2.326730027562007308e-04 3.652415471151471138e-04 1.793743722373619676e-04 -5.852109170518815517e-04
1.438000000000000000e+03 3.644852638244628906e+00 2.608450174331665039e+00 5.836341297253966331e-04 9.130791295319795609e-05 2.024826244451105595e-04 -7.740280707366764545e-04
1.439000000000000000e+03 2.059321403503417969e+00 1.877084970474243164e+00 3.085541538894176483e-04 1.985976996365934610e-04 1.521455560578033328e-04 -4.182527191005647182e-04
1.440000000000000000e+03 9.396591186523437500e+00 2.579464673995971680e+00 1.251078443601727486e-03 -3.356507222633808851e-04 2.746283134911209345e-04 1.985934213735163212e-04
1.441000000000000000e+03 6.936855316162109375e+00 2.587265014648437500e+00 1.143601839430630207e-03 -3.362497955095022917e-04 2.422056277282536030e-04 -3.667874843813478947e-04
1.442000000000000000e+03 7.032634735107421875e+00 1.861292719841003418e+00 1.370583078823983669e-03 -2.035394572885707021e-04 3.501130850054323673e-04 -3.022962773684412241e-04
1.443000000000000000e+03 5.284534454345703125e+00 2.594046831130981445e+00 9.177363244816660881e-04 -1.712280936772003770e-04 2.239524765172973275e-04 -6.825618911534547806e-04
1.444000000000000000e+03 1.018330955505371094e+01 2.579368829727172852e+00 1.070737489499151707e-03 -2.931447816081345081e-04 2.332777949050068855e-04 4.183783312328159809e-04
1.445000000000000000e+03 6.828578186035156250e+01 -1.487159824371337891e+01 -2.341406792402267456e-01 -1.954381912946701050e-02 -7.610534876585006714e-02 1.201742365956306458e-01
1.446000000000000000e+03 6.898563385009765625e+01 -1.390781021118164062e+01 -4.414600133895874023e-01 6.683986634016036987e-02 -1.123860478401184082e-01 1.038135513663291931e-01
1.447000000000000000e+03 6.877419281005859375e+01 -1.890123748779296875e+01 -3.774446086026728153e-04 2.395730232819914818e-03 6.054856348782777786e-04 1.240464509464800358e-03
1.448000000000000000e+03 6.161686706542968750e+01 2.180647468566894531e+01 -2.167481631040573120e-01 2.540971040725708008e+00 6.972668766975402832e-01 -6.534560322761535645e-01
1.449000000000000000e+03 3.659715890884399414e+00 -4.185242462158203125e+01 -2.509025856852531433e-02 -4.096515178680419922e-01 -1.304225325584411621e-01 -4.879956599324941635e-03
1.450000000000000000e+03 2.087389755249023438e+01 3.210341691970825195e+00 8.142516162479296327e-05 6.454992399085313082e-05 4.379252641228958964e-05 1.129256452259141952e-05
1.451000000000000000e+03 1.886193847656250000e+01 2.872904300689697266e+00 -8.428638466284610331e-06 1.027311373036354780e-05 5.533426019610487856e-07 7.622010161867365241e-05
1.452000000000000000e+03 1.953650856018066406e+01 2.973280429840087891e+00 6.601940549444407225e-05 1.714313693810254335e-04 7.123523391783237457e-05 2.409558692306745797e-05
1.453000000000000000e+03 7.310885620117187500e+01 -1.885848045349121094e+01 1.850922417361289263e-04 -8.966601453721523285e-04 -2.134703681804239750e-04 1.554977061459794641e-04
1.454000000000000000e+03 7.394946289062500000e+01 -1.952061843872070312e+01 -9.604985825717449188e-04 -1.123663038015365601e-03 -6.252484745346009731e-04 -3.026023041456937790e-04
1.455000000000000000e+03 1.679074668884277344e+01 2.685199260711669922e+00 1.483858795836567879e-04 2.916842349804937840e-04 1.320210285484790802e-04 2.337324258405715227e-04
1.456000000000000000e+03 6.774795532226562500e+01 -1.182137489318847656e+01 -9.965025782585144043e-01 1.882131099700927734e-01 -2.424868345260620117e-01 -1.062168031930923462e-01
1.457000000000000000e+03 6.827278900146484375e+01 -1.375548362731933594e+01 -5.368578433990478516e-01 2.923101931810379028e-02 -1.522880494594573975e-01 1.439005583524703979e-01
1.458000000000000000e+03 5.850497436523437500e+01 -1.231592273712158203e+01 -3.700486421585083008e-01 3.973934352397918701e-01 8.203438483178615570e-03 5.160619616508483887e-01
1.459000000000000000e+03 2.563056564331054688e+01 -8.089451789855957031e+00 -4.983996152877807617e-01 3.454264700412750244e-01 -4.589194431900978088e-02 5.187439322471618652e-01
1.460000000000000000e+03 2.218207168579101562e+01 -9.634981155395507812e+00 4.927812814712524414e-01 2.065286934375762939e-01 2.097930014133453369e-01 4.879465401172637939e-01
1.461000000000000000e+03 5.623612594604492188e+01 2.242511177062988281e+01 -7.206008434295654297e-01 1.587336882948875427e-02 -2.114182412624359131e-01 -2.655153870582580566e-01
1.462000000000000000e+03 5.525765991210937500e+01 2.338537406921386719e+01 -3.907276988029479980e-01 9.167684614658355713e-02 -8.971525728702545166e-02 -1.816648095846176147e-01
1.463000000000000000e+03 2.108193778991699219e+01 4.570166110992431641e+00 -8.346268441528081894e-05 -9.878929995466023684e-05 -5.467559458338655531e-05 -6.954491254873573780e-05
1.464000000000000000e+03 7.260713195800781250e+01 -1.961609649658203125e+01 -1.048474921844899654e-03 -1.245351042598485947e-03 -6.881477893330156803e-04 3.078971058130264282e-04
1.465000000000000000e+03 7.073725891113281250e+01 -2.028239822387695312e+01 -1.968087628483772278e-03 -1.477971789427101612e-03 -1.033817767165601254e-03 1.158873084932565689e-03
1.466000000000000000e+03 1.391889858245849609e+01 2.592018127441406250e+00 5.211009411141276360e-04 1.612177875358611345e-04 2.046956215053796768e-04 5.774143501184880733e-04
1.467000000000000000e+03 1.234948348999023438e+01 3.272517442703247070e+00 5.686220829375088215e-04 -1.300323347095400095e-04 1.315769331995397806e-04 8.336223545484244823e-04
1.468000000000000000e+03 1.828343200683593750e+01 6.275364875793457031e+00 -5.238414087216369808e-05 6.096568540669977665e-04 1.671818172326311469e-04 3.898150680470280349e-05
1.469000000000000000e+03 2.056479644775390625e+01 5.116096973419189453e+00 9.221863729180768132e-05 1.404517388436943293e-04 6.980111356824636459e-05 1.132108300225809216e-04
1.470000000000000000e+03 2.253896331787109375e+01 -1.030113887786865234e+01 5.479893684387207031e-01 1.276999413967132568e-01 2.027067989110946655e-01 3.812842071056365967e-01
1.471000000000000000e+03 2.001919364929199219e+01 -1.027325820922851562e+01 9.082087874412536621e-01 3.068085610866546631e-01 3.645052015781402588e-01 6.647862792015075684e-01
1.472000000000000000e+03 2.325849533081054688e+01 -1.004197978973388672e+01 4.259202480316162109e-01 1.670899242162704468e-01 1.779030561447143555e-01 3.519421815872192383e-01
1.473000000000000000e+03 1.528486728668212891e+01 3.316576480865478516e+00 7.894269947428256273e-05 2.138555864803493023e-04 8.783948578638955951e-05 6.105864304117858410e-04
1.474000000000000000e+03 1.599477386474609375e+01 3.323707818984985352e+00 1.552832254674285650e-04 4.060197388753294945e-04 1.683908922132104635e-04 3.869499196298420429e-04
1.475000000000000000e+03 7.668723297119140625e+01 -2.080941009521484375e+01 -1.614268170669674873e-03 -7.638770621269941330e-04 -7.134435581974685192e-04 -6.770144682377576828e-04
1.476000000000000000e+03 7.327223205566406250e+01 -1.954235267639160156e+01 -7.886033854447305202e-04 -1.764402259141206741e-03 -7.659016991965472698e-04 3.451801603659987450e-04
1.477000000000000000e+03 5.990930175781250000e+01 -1.264410209655761719e+01 -6.789917945861816406e-01 2.721683382987976074e-01 -1.220470368862152100e-01 1.354904919862747192e-01
1.478000000000000000e+03 5.891124343872070312e+01 1.198719620704650879e+00 1.052793979644775391e+00 2.656472921371459961e+00 1.112780094146728516e+00 1.677385091781616211e+00
1.479000000000000000e+03 6.055466461181640625e+01 -1.242409896850585938e+01 -8.711507320404052734e-01 2.568708658218383789e-01 -1.842839568853378296e-01 9.714706987142562866e-02
1.480000000000000000e+03 6.010689163208007812e+01 -1.331590080261230469e+01 -6.583248972892761230e-01 1.111734509468078613e-01 -1.641454398632049561e-01 -1.834162324666976929e-02
1.481000000000000000e+03 1.152754974365234375e+01 3.967908382415771484e+00 5.745735252276062965e-04 -3.576941671781241894e-04 6.506381032522767782e-05 9.079897427000105381e-04
1.482000000000000000e+03 1.309206199645996094e+01 3.278889179229736328e+00 5.533534567803144455e-04 1.034932938637211919e-04 1.970540179172530770e-04 7.344834739342331886e-04
1.483000000000000000e+03 1.085146713256835938e+01 3.283706665039062500e+00 8.238803129643201828e-04 -3.613524895627051592e-04 1.387583470204845071e-04 6.603861111216247082e-04
1.484000000000000000e+03 7.744786834716796875e+01 -1.379127597808837891e+01 -4.765691608190536499e-02 -3.981494158506393433e-02 -2.624155767261981964e-02 -6.035828962922096252e-02
1.485000000000000000e+03 6.164886093139648438e+01 7.238725662231445312e+00 6.880449056625366211e-01 4.949702262878417969e+00 1.691324114799499512e+00 1.532353043556213379e+00
1.486000000000000000e+03 4.516577148437500000e+01 -6.262078285217285156e+00 -2.391421556472778320e+00 1.539041280746459961e+00 -2.557140588760375977e-01 -6.013354063034057617e-01
1.487000000000000000e+03 4.539038085937500000e+01 -5.576372146606445312e+00 -3.137681484222412109e+00 8.588185310363769531e-01 -6.836588978767395020e-01 -1.398239880800247192e-01
1.488000000000000000e+03 5.187017440795898438e+01 -1.447306823730468750e+01 2.491396665573120117e+00 3.136439919471740723e-01 8.415122032165527344e-01 9.785716533660888672e-01
1.489000000000000000e+03 5.025867843627929688e+01 -1.237963771820068359e+01 1.750169038772583008e+00 1.333604454994201660e+00 9.251320362091064453e-01 2.008830547332763672e+00
1.490000000000000000e+03 5.728297805786132812e+01 -1.394962120056152344e+01 1.533444505184888840e-02 1.088645309209823608e-01 3.725969046354293823e-02 3.128654062747955322e-01
1.491000000000000000e+03 2.441510963439941406e+01 -1.014363527297973633e+00 6.771293282508850098e-02 5.484014283865690231e-03 2.195908501744270325e-02 3.269963860511779785e-01
1.492000000000000000e+03 2.607824325561523438e+01 -2.242975950241088867e+00 4.720010459423065186e-01 -3.344900906085968018e-02 1.315656155347824097e-01 6.080154180526733398e-01
1.493000000000000000e+03 7.740921020507812500e+01 -1.896486854553222656e+01 1.933214516611769795e-04 1.940850197570398450e-04 1.162219414254650474e-04 -1.487378729507327080e-03
1.494000000000000000e+03 1.179984855651855469e+01 -3.222500562667846680e+00 -7.428702712059020996e-01 1.109819337725639343e-01 -1.895665079355239868e-01 -2.587814629077911377e-01
1.495000000000000000e+03 1.414275646209716797e+01 -2.474721431732177734e+00 -9.510985016822814941e-01 9.156340360641479492e-02 -2.578605413436889648e-01 -6.083220988512039185e-02
1.496000000000000000e+03 8.763164520263671875e+00 -2.554154634475708008e+00 -6.567831039428710938e-01 2.064615301787853241e-02 -1.908410936594009399e-01 -3.481442332267761230e-01
1.497000000000000000e+03 9.488802909851074219e+00 -3.244802951812744141e+00 -6.141499280929565430e-01 5.513351410627365112e-02 -1.677049249410629272e-01 -3.846308290958404541e-01
1.498000000000000000e+03 7.021221160888671875e+01 -1.945372390747070312e+01 3.969774697907269001e-04 2.670761023182421923e-04 1.992160687223076820e-04 1.345005468465387821e-03
1.499000000000000000e+03 6.880851745605468750e+01 -2.152905464172363281e+01 -2.630962757393717766e-03 1.771912793628871441e-03 -2.577149425633251667e-04 -1.593596243765205145e-05
1.500000000000000000e+03 6.245895004272460938e+01 1.041277694702148438e+01 4.451910555362701416e-01 5.228108406066894531e+00 1.701989769935607910e+00 8.684691190719604492e-01
1.501000000000000000e+03 6.281605911254882812e+01 1.437326335906982422e+01 1.181605383753776550e-01 5.146626472473144531e+00 1.579436182975769043e+00 8.534507453441619873e-02
1.502000000000000000e+03 1.443164443969726562e+01 -2.325774765014648438e+01 2.790906429290771484e-01 2.137787580490112305e+00 7.250634431838989258e-01 -4.474836587905883789e-01
1.503000000000000000e+03 5.428736114501953125e+01 -4.326133251190185547e+00 4.055250883102416992e-01 1.872184038162231445e+00 6.833127140998840332e-01 1.247141361236572266e+00
1.504000000000000000e+03 5.480020523071289062e+01 -3.760298252105712891e+00 6.419371366500854492e-01 1.945787310600280762e+00 7.763173580169677734e-01 1.361773967742919922e+00
1.505000000000000000e+03 2.031914520263671875e+01 -1.092463302612304688e+01 1.048197507858276367e+00 1.777627468109130859e-01 3.677880465984344482e-01 4.920538067817687988e-01
1.506000000000000000e+03 1.927145195007324219e+01 -1.045957279205322266e+01 1.019845843315124512e+00 5.003885030746459961e-01 4.560703039169311523e-01 7.556676268577575684e-01
1.507000000000000000e+03 4.687604141235351562e+01 -6.033211231231689453e+00 -3.270577430725097656e+00 1.597706526517868042e-01 -9.332420229911804199e-01 5.042993426322937012e-01
1.508000000000000000e+03 7.444526672363281250e+01 -1.308636188507080078e+01 -1.861323863267898560e-01 -1.145054353401064873e-03 -5.618323013186454773e-02 -1.454269438982009888e-01
1.509000000000000000e+03 7.894517517089843750e+01 -1.144858455657958984e+01 -1.143302861601114273e-02 -1.252445876598358154e-01 -4.100328683853149414e-02 -6.488040089607238770e-02
1.510000000000000000e+03 2.113976669311523438e+01 -9.210530281066894531e+00 5.130437612533569336e-01 2.927826941013336182e-01 2.417479306459426880e-01 6.206258535385131836e-01
1.511000000000000000e+03 7.887724304199218750e+01 -2.063533020019531250e+01 -2.345466928090900183e-04 2.028050366789102554e-03 5.380511283874511719e-04 -1.040925737470388412e-03
1.512000000000000000e+03 7.475557708740234375e+01 -2.022690391540527344e+01 -1.917043817229568958e-03 -1.286856015212833881e-03 -9.611699497327208519e-04 -5.234018899500370026e-04
1.513000000000000000e+03 7.601225280761718750e+01 -1.954240417480468750e+01 -3.217546036466956139e-04 -8.973396616056561470e-04 -3.657282795757055283e-04 -9.666396654210984707e-04
1.514000000000000000e+03 1.569494056701660156e+01 -3.076431512832641602e+00 -7.758791446685791016e-01 1.673959046602249146e-01 -1.825449615716934204e-01 9.980461001396179199e-02
1.515000000000000000e+03 1.335025882720947266e+01 -3.179863691329956055e+00 -7.893056273460388184e-01 1.401495784521102905e-01 -1.947468221187591553e-01 -1.316123008728027344e-01
1.516000000000000000e+03 1.727052497863769531e+01 -2.294510364532470703e+00 -8.451899290084838867e-01 1.094737648963928223e-01 -2.207148522138595581e-01 2.007203698158264160e-01
1.517000000000000000e+03 7.992098808288574219e+00 -2.558014869689941406e+00 -5.842697620391845703e-01 5.138743203133344650e-03 -1.737393140792846680e-01 -3.575199842453002930e-01
1.518000000000000000e+03 1.023171806335449219e+01 -3.927006006240844727e+00 -5.547056198120117188e-01 1.097700670361518860e-01 -1.334806680679321289e-01 -3.912912607192993164e-01
1.519000000000000000e+03 5.750976562500000000e+01 -3.111869430541992188e+01 -6.340979337692260742e-01 -3.699760884046554565e-02 -2.013286650180816650e-01 -2.184632048010826111e-02
1.520000000000000000e+03 5.680888652801513672e+00 -2.575121164321899414e+00 -3.621528446674346924e-01 -4.368502274155616760e-02 -1.217513605952262878e-01 -3.343491256237030029e-01
1.521000000000000000e+03 4.146525859832763672e+00 -2.592635393142700195e+00 -2.256276607513427734e-01 -7.931261509656906128e-02 -9.148208051919937134e-02 -2.760955095291137695e-01
1.522000000000000000e+03 5.628261089324951172e+00 -3.291297435760498047e+00 -3.137688934803009033e-01 -6.649401038885116577e-02 -1.140788719058036804e-01 -3.946220278739929199e-01
1.523000000000000000e+03 7.942707538604736328e+00 -3.258494138717651367e+00 -4.989362359046936035e-01 9.443962946534156799e-03 -1.468476802110671997e-01 -4.181679189205169678e-01
1.524000000000000000e+03 6.398945808410644531e+00 -3.279022455215454102e+00 -3.752581477165222168e-01 -4.030343890190124512e-02 -1.246684789657592773e-01 -4.120211601257324219e-01
1.525000000000000000e+03 7.170507431030273438e+00 -3.267680644989013672e+00 -4.371691644191741943e-01 -1.515446975827217102e-02 -1.356970816850662231e-01 -4.202940165996551514e-01
1.526000000000000000e+03 1.864469289779663086e+00 -2.638818264007568359e+00 -6.302195787429809570e-02 -1.166198328137397766e-01 -5.389253422617912292e-02 -1.365035623311996460e-01
1.527000000000000000e+03 4.061376571655273438e+00 -4.064490318298339844e+00 -1.652304828166961670e-01 -1.634417921304702759e-01 -9.860168397426605225e-02 -3.772587776184082031e-01
1.528000000000000000e+03 1.112276434898376465e+00 -2.661272525787353516e+00 -2.586608938872814178e-02 -1.069293320178985596e-01 -3.983862698078155518e-02 -8.248025923967361450e-02
1.529000000000000000e+03 1.078048110008239746e+00 -5.021368503570556641e+00 -1.323164533823728561e-02 -3.475314974784851074e-01 -1.082289367914199829e-01 -1.537152528762817383e-01
1.530000000000000000e+03 2.425347709655761719e+01 -8.799109458923339844e+00 1.049456000328063965e-02 2.490514367818832397e-01 7.786379754543304443e-02 4.515954256057739258e-01
1.531000000000000000e+03 3.415571212768554688e+01 6.195764541625976562e+00 3.383919596672058105e-01 1.559442234039306641e+01 4.779844284057617188e+00 -1.181433796882629395e+00
1.532000000000000000e+03 3.883740234375000000e+01 7.028345108032226562e+00 9.671964049339294434e-01 1.497051239013671875e+01 4.781312465667724609e+00 6.184425354003906250e-01
1.533000000000000000e+03 1.808232498168945312e+01 -2.899082660675048828e+00 -6.586779952049255371e-01 1.683989912271499634e-01 -1.470837146043777466e-01 3.234660327434539795e-01
1.534000000000000000e+03 1.648960494995117188e+01 -3.026207923889160156e+00 -7.478834390640258789e-01 1.694952696561813354e-01 -1.735164523124694824e-01 1.822784543037414551e-01
1.535000000000000000e+03 5.429756164550781250e+01 -1.360304737091064453e+01 1.082095980644226074e+00 2.833233177661895752e-01 4.096257686614990234e-01 9.576782584190368652e-01
1.536000000000000000e+03 3.665927505493164062e+01 -1.842811012268066406e+01 7.318227887153625488e-01 9.758418083190917969e+00 3.147072076797485352e+00 -9.045026898384094238e-01
1.537000000000000000e+03 3.661720657348632812e+01 -1.757505416870117188e+01 8.230304718017578125e-01 9.854969024658203125e+00 3.203399658203125000e+00 -1.309189558029174805e+00
1.538000000000000000e+03 2.962162590026855469e+01 -3.227313995361328125e+01 4.740222170948982239e-02 1.638418436050415039e+00 5.057461857795715332e-01 1.022228240966796875e+00
1.539000000000000000e+03 3.012592315673828125e+01 -3.095216178894042969e+01 9.323225915431976318e-02 1.656458616256713867e+00 5.249072313308715820e-01 1.153389453887939453e+00
1.540000000000000000e+03 5.792044448852539062e+01 -1.312732887268066406e+01 -1.790048182010650635e-01 2.412462681531906128e-01 1.867243647575378418e-02 4.184894561767578125e-01
1.541000000000000000e+03 5.579034423828125000e+01 -1.349314689636230469e+01 4.897176623344421387e-01 2.541731297969818115e-01 2.231672406196594238e-01 7.272098064422607422e-01
1.542000000000000000e+03 6.356331253051757812e+01 1.496898937225341797e+01 2.849368453025817871e-01 4.551137447357177734e+00 1.450822234153747559e+00 2.226859889924526215e-02
1.543000000000000000e+03 1.257484149932861328e+01 -3.204617261886596680e+00 -7.709009051322937012e-01 1.262121647596359253e-01 -1.934066116809844971e-01 -2.007133513689041138e-01
1.544000000000000000e+03 3.325669860839843750e+01 1.507990837097167969e+01 1.156589388847351074e+00 1.182862758636474609e+01 3.895565271377563477e+00 -2.786695241928100586e+00
1.545000000000000000e+03 3.177591323852539062e+01 1.716376686096191406e+01 2.069286346435546875e+00 1.090534114837646484e+01 3.892388343811035156e+00 -3.777416944503784180e+00
1.546000000000000000e+03 2.202754592895507812e+01 2.373492240905761719e+01 2.085935920476913452e-01 1.682187467813491821e-01 1.130437031388282776e-01 -4.696828722953796387e-01
1.547000000000000000e+03 1.823536491394042969e+01 7.235172748565673828e+00 1.029358609230257571e-04 6.946283974684774876e-04 2.392692840658128262e-04 -2.371824848523829132e-05
1.548000000000000000e+03 7.763009548187255859e+00 2.583808898925781250e+00 1.286311424337327480e-03 -3.742449916899204254e-04 2.736199239734560251e-04 -2.000482782023027539e-04
1.549000000000000000e+03 6.916295623779296875e+01 -2.078966712951660156e+01 1.419191394234076142e-04 2.037438098341226578e-03 6.538071320392191410e-04 2.665247011464089155e-04
1.550000000000000000e+03 4.804212570190429688e+01 -7.187689304351806641e+00 -1.790249824523925781e+00 2.383315116167068481e-01 -4.655755162239074707e-01 1.032940387725830078e+00
1.551000000000000000e+03 3.991606521606445312e+01 1.212986373901367188e+01 6.671048402786254883e-01 7.228481769561767578e+00 2.368675947189331055e+00 1.629058599472045898e+00
1.552000000000000000e+03 2.288221168518066406e+01 -9.382518768310546875e+00 3.341258466243743896e-01 1.958049833774566650e-01 1.589792519807815552e-01 4.765151441097259521e-01
1.553000000000000000e+03 7.284573364257812500e+01 -1.378920173645019531e+01 -2.543029785156250000e-01 3.688568994402885437e-02 -6.522519141435623169e-02 -9.502826631069183350e-02
1.554000000000000000e+03 7.135066986083984375e+01 -1.246361255645751953e+01 -4.324815869331359863e-01 1.229839175939559937e-01 -9.284930676221847534e-02 -1.538089811801910400e-01
1.555000000000000000e+03 7.287386322021484375e+01 -1.311447715759277344e+01 -2.787964940071105957e-01 4.989802092313766479e-02 -6.866954267024993896e-02 -1.336981952190399170e-01
1.556000000000000000e+03 4.502291107177734375e+01 1.660925292968750000e+01 5.228457450866699219e-01 9.878549575805664062e-01 4.532102048397064209e-01 7.386818528175354004e-01
1.557000000000000000e+03 6.626956176757812500e+01 -1.166550064086914062e+01 -1.367882966995239258e+00 2.378867706283926964e-03 -4.096512198448181152e-01 -1.516897678375244141e-01
1.558000000000000000e+03 4.330643463134765625e+01 1.601444435119628906e+01 6.955848932266235352e-01 2.125979423522949219e+00 8.464692831039428711e-01 1.195612430572509766e+00
1.559000000000000000e+03 5.377062988281250000e+01 -4.908747673034667969e+00 -2.088149935007095337e-01 1.876964688301086426e+00 5.004448890686035156e-01 1.203932523727416992e+00
1.560000000000000000e+03 4.100938796997070312e+01 1.354346847534179688e+01 7.788732051849365234e-01 4.762867927551269531e+00 1.662522435188293457e+00 1.653416991233825684e+00
1.561000000000000000e+03 7.802801513671875000e+01 -3.161408615112304688e+01 -3.271307796239852905e-03 -5.073209479451179504e-02 -1.620102114975452423e-02 2.689161896705627441e-02
1.562000000000000000e+03 7.818392181396484375e+01 -2.691670417785644531e+01 -3.175728954374790192e-03 -1.122359931468963623e-02 -4.319798666983842850e-03 1.029881834983825684e-02
1.563000000000000000e+03 7.675656127929687500e+01 -3.851331710815429688e+01 2.047454565763473511e-02 -1.130773946642875671e-01 -2.778085321187973022e-02 3.282541409134864807e-02
1.564000000000000000e+03 7.707697296142578125e+01 -4.009734344482421875e+01 9.926060214638710022e-03 -1.267763674259185791e-01 -3.505508974194526672e-02 1.594413071870803833e-02
1.565000000000000000e+03 7.886626434326171875e+01 -3.881163024902343750e+01 2.426621736958622932e-03 -1.541353017091751099e-01 -4.551260173320770264e-02 1.103644911199808121e-02
1.566000000000000000e+03 7.670443725585937500e+01 -3.651383972167968750e+01 8.393460884690284729e-03 -9.115411341190338135e-02 -2.482819557189941406e-02 4.371805116534233093e-02
1.567000000000000000e+03 7.818449401855468750e+01 -2.378609657287597656e+01 -1.800770289264619350e-03 -1.084852498024702072e-03 -8.656868012621998787e-04 2.409376669675111771e-03
1.568000000000000000e+03 7.789347076416015625e+01 -3.321139144897460938e+01 -2.346229972317814827e-03 -6.818053871393203735e-02 -2.115803025662899017e-02 3.205492347478866577e-02
1.569000000000000000e+03 7.541649627685546875e+01 -2.020869827270507812e+01 -1.476531266234815121e-03 -1.393608632497489452e-03 -8.610419463366270065e-04 -3.862148732878267765e-04
1.570000000000000000e+03 7.672428131103515625e+01 -1.959272766113281250e+01 -3.412670339457690716e-04 -3.359547990839928389e-04 -2.031665499089285731e-04 -1.350040780380368233e-03
1.571000000000000000e+03 7.890419006347656250e+01 -2.776846504211425781e+01 -1.515632611699402332e-03 -1.466538105159997940e-02 -4.854303784668445587e-03 8.203622885048389435e-03
1.572000000000000000e+03 7.812362670898437500e+01 -3.003646850585937500e+01 -3.572854679077863693e-03 -3.446080908179283142e-02 -1.141009945422410965e-02 2.140344865620136261e-02
1.573000000000000000e+03 7.805965423583984375e+01 -2.132721519470214844e+01 -8.837590576149523258e-04 6.474551046267151833e-04 -7.089119026204571128e-05 -8.317097672261297703e-04
1.574000000000000000e+03 7.814598083496093750e+01 -2.299293518066406250e+01 -1.459244522266089916e-03 -1.722288725432008505e-04 -4.894420271739363670e-04 9.041884914040565491e-04
1.575000000000000000e+03 7.748184204101562500e+01 -2.375552940368652344e+01 -3.181514097377657890e-03 -2.342154970392584801e-03 -1.657100743614137173e-03 3.102380782365798950e-03
1.576000000000000000e+03 7.819384765625000000e+01 -2.457115745544433594e+01 -2.104013226926326752e-03 -2.567704999819397926e-03 -1.401515444740653038e-03 3.709709737449884415e-03
1.577000000000000000e+03 7.819113922119140625e+01 -2.535490417480468750e+01 -2.547300886362791061e-03 -4.735012073069810867e-03 -2.184693934395909309e-03 5.817183759063482285e-03
1.578000000000000000e+03 7.818710327148437500e+01 -2.613681983947753906e+01 -2.758692484349012375e-03 -7.513506338000297546e-03 -3.081659786403179169e-03 7.685207296162843704e-03
1.579000000000000000e+03 7.817488861083984375e+01 -2.846953582763671875e+01 -3.590015461668372154e-03 -2.095841430127620697e-02 -7.364529184997081757e-03 1.555758994072675705e-02
1.580000000000000000e+03 7.668918609619140625e+01 -2.602052307128906250e+01 -8.322036825120449066e-03 -7.757404353469610214e-03 -4.823832307010889053e-03 1.266120560467243195e-02
1.581000000000000000e+03 7.818160247802734375e+01 -2.769333648681640625e+01 -3.208701964467763901e-03 -1.549561228603124619e-02 -5.611294414848089218e-03 1.248547714203596115e-02
1.582000000000000000e+03 7.740972137451171875e+01 -2.992591094970703125e+01 -6.003037560731172562e-03 -3.121206350624561310e-02 -1.116453018039464951e-02 2.706368453800678253e-02
1.583000000000000000e+03 7.796733856201171875e+01 -3.240849685668945312e+01 -2.469830214977264404e-03 -5.933474749326705933e-02 -1.854137331247329712e-02 2.915836311876773834e-02
1.584000000000000000e+03 7.865969848632812500e+01 -3.491072463989257812e+01 6.999441538937389851e-04 -9.992533922195434570e-02 -2.976761944591999054e-02 2.251415513455867767e-02
1.585000000000000000e+03 7.770501708984375000e+01 -3.483705902099609375e+01 -5.509631591849029064e-04 -8.649242669343948364e-02 -2.611301653087139130e-02 3.518788889050483704e-02
1.586000000000000000e+03 7.779495239257812500e+01 -3.402283859252929688e+01 -5.679620662704110146e-04 -7.758671045303344727e-02 -2.344640158116817474e-02 3.391075134277343750e-02
1.587000000000000000e+03 7.855114746093750000e+01 -4.011402893066406250e+01 1.475934870541095734e-03 -1.538948118686676025e-01 -4.572566226124763489e-02 8.497161790728569031e-03
1.588000000000000000e+03 7.743874359130859375e+01 -1.967547798156738281e+01 -4.566569623420946300e-05 6.302316614892333746e-05 5.207240519666811451e-06 -1.359460060484707355e-03
1.589000000000000000e+03 3.332834243774414062e+01 -2.815644645690917969e+01 7.577102780342102051e-01 3.527749061584472656e+00 1.285637855529785156e+00 1.730858564376831055e+00
1.590000000000000000e+03 2.940777778625488281e+01 -6.750641345977783203e+00 -8.579562902450561523e-01 -1.643718779087066650e-02 -2.623180449008941650e-01 6.743893027305603027e-01
1.591000000000000000e+03 1.965011215209960938e+01 -2.029247522354125977e+00 -6.269091367721557617e-01 1.129609048366546631e-01 -1.541844755411148071e-01 3.421643078327178955e-01
1.592000000000000000e+03 2.387292098999023438e+01 -8.182236671447753906e+00 -7.923780009150505066e-03 3.002647757530212402e-01 8.770229667425155640e-02 5.643179416656494141e-01
1.593000000000000000e+03 2.283470916748046875e+01 -1.419006109237670898e+00 -1.935434490442276001e-01 6.556273996829986572e-02 -3.839421272277832031e-02 3.806554973125457764e-01
1.594000000000000000e+03 1.969456481933593750e+01 -2.701884984970092773e+00 -5.332720875740051270e-01 1.613040417432785034e-01 -1.115904152393341064e-01 4.303877651691436768e-01
1.595000000000000000e+03 4.790478515625000000e+01 -1.402266120910644531e+01 2.825650930404663086e+00 3.574517250061035156e+00 1.920050382614135742e+00 2.073009490966796875e+00
1.596000000000000000e+03 2.449876594543457031e+01 -1.736758708953857422e+00 1.103986874222755432e-01 1.357305049896240234e-02 3.719152137637138367e-02 4.606643617153167725e-01
1.597000000000000000e+03 6.321216201782226562e+01 1.102464294433593750e+01 4.477865695953369141e-01 4.734561920166015625e+00 1.554704546928405762e+00 6.335951089859008789e-01
1.598000000000000000e+03 5.722511672973632812e+01 -1.326139259338378906e+01 1.120313256978988647e-02 2.595703005790710449e-01 8.123203366994857788e-02 5.131905674934387207e-01
1.599000000000000000e+03 5.487541198730468750e+01 -3.145619583129882812e+01 -3.855627477169036865e-01 8.651195466518402100e-02 -8.971524238586425781e-02 -2.142046540975570679e-01
1.600000000000000000e+03 5.758852767944335938e+01 -3.213236236572265625e+01 -3.344567418098449707e-01 6.544153206050395966e-03 -9.837377071380615234e-02 -1.136884093284606934e-02
1.601000000000000000e+03 1.662940025329589844e+01 3.995547056198120117e+00 4.465269375941716135e-05 5.437289364635944366e-04 1.765144843375310302e-04 2.907523012254387140e-04
1.602000000000000000e+03 3.456646347045898438e+01 2.285075426101684570e+00 1.971001505851745605e+00 1.271305751800537109e+01 4.405217647552490234e+00 2.875642180442810059e-01
1.603000000000000000e+03 6.595146942138671875e+01 -2.669452667236328125e+01 -1.053723543882369995e-01 6.610906217247247696e-03 -2.962843328714370728e-02 -2.845834195613861084e-02
1.604000000000000000e+03 6.292933273315429688e+01 9.405234336853027344e+00 6.177843213081359863e-01 4.671396255493164062e+00 1.586754202842712402e+00 8.910021781921386719e-01
1.605000000000000000e+03 6.231230163574218750e+01 9.612358093261718750e+00 4.939319193363189697e-01 5.264835834503173828e+00 1.727630257606506348e+00 9.658451080322265625e-01
1.606000000000000000e+03 6.536408996582031250e+01 -2.728499794006347656e+01 -1.345911771059036255e-01 9.807636030018329620e-03 -3.743506595492362976e-02 -3.628658130764961243e-02
1.607000000000000000e+03 2.808595657348632812e+01 -8.866572976112365723e-01 9.140448570251464844e-01 2.321018651127815247e-02 2.811765074729919434e-01 2.967578768730163574e-01
1.608000000000000000e+03 3.428276824951171875e+01 4.587799549102783203e+00 1.028929352760314941e+00 1.537328815460205078e+01 4.920665264129638672e+00 -4.891411215066909790e-02
1.609000000000000000e+03 4.398964309692382812e+01 -2.292335700988769531e+01 1.834253072738647461e+00 1.187882900238037109e+01 4.113924503326416016e+00 -1.270924806594848633e+00
1.610000000000000000e+03 6.030281066894531250e+01 3.201060056686401367e+00 1.039282321929931641e+00 3.276718139648437500e+00 1.294800162315368652e+00 1.617202758789062500e+00
1.611000000000000000e+03 6.075017929077148438e+01 3.907766342163085938e+00 1.037549376487731934e+00 3.582395076751708984e+00 1.385983347892761230e+00 1.547010540962219238e+00
1.612000000000000000e+03 4.414350509643554688e+01 -2.075594902038574219e+01 1.433122038841247559e+00 1.203139019012451172e+01 4.039353847503662109e+00 3.066349625587463379e-01
1.613000000000000000e+03 3.000322914123535156e+01 -7.650545597076416016e+00 -2.697752237319946289e+00 -3.542407751083374023e-01 -9.155979156494140625e-01 5.651960372924804688e-01
1.614000000000000000e+03 3.187971115112304688e+01 -8.265246391296386719e+00 -2.219904422760009766e+00 2.522026777267456055e+00 9.063666313886642456e-02 -6.197604537010192871e-01
1.615000000000000000e+03 1.292537879943847656e+01 -1.978571891784667969e+01 6.536098122596740723e-01 2.492692232131958008e+00 9.438905715942382812e-01 -2.035193145275115967e-01
1.616000000000000000e+03 1.300223922729492188e+01 -1.897791099548339844e+01 4.566372632980346680e-01 2.798081159591674805e+00 9.764155745506286621e-01 -1.476824134588241577e-01
1.617000000000000000e+03 3.435895156860351562e+01 -2.690368270874023438e+01 9.427406787872314453e-01 4.693383693695068359e+00 1.690837383270263672e+00 1.949169754981994629e+00
1.618000000000000000e+03 6.645950317382812500e+01 -2.723732948303222656e+01 -1.158745735883712769e-01 2.163891866803169250e-02 -2.827069722115993500e-02 -1.631856150925159454e-02
1.619000000000000000e+03 4.395921707153320312e+01 -2.013596534729003906e+01 1.849428534507751465e+00 1.162911415100097656e+01 4.043562889099121094e+00 4.151369333267211914e-01
1.620000000000000000e+03 1.427238273620605469e+01 -2.206368064880371094e+01 5.131493806838989258e-01 2.739676237106323242e+00 9.758476614952087402e-01 -4.355486333370208740e-01
1.621000000000000000e+03 1.874694633483886719e+01 2.457709693908691406e+01 8.912273682653903961e-03 6.121064350008964539e-02 2.103687636554241180e-02 -1.638828217983245850e-01
1.622000000000000000e+03 7.893744659423828125e+01 -1.123327016830444336e+00 3.288522129878401756e-03 -1.341393470764160156e+00 -4.014315009117126465e-01 -1.617278903722763062e-01
1.623000000000000000e+03 7.824802398681640625e+01 -2.816268444061279297e+00 1.059029716998338699e-03 -9.829432368278503418e-01 -2.945652604103088379e-01 -2.564053535461425781e-01
1.624000000000000000e+03 7.894962310791015625e+01 6.146853923797607422e+00 1.095845736563205719e-02 -2.150718927383422852e+00 -6.419281363487243652e-01 -7.455319166183471680e-02
1.625000000000000000e+03 7.822611999511718750e+01 4.548925876617431641e+00 2.324350178241729736e-02 -1.760052800178527832e+00 -5.210427641868591309e-01 -1.614815592765808105e-01
1.626000000000000000e+03 7.895001220703125000e+01 7.746778964996337891e+00 1.140903495252132416e-02 -2.240273714065551758e+00 -6.686594486236572266e-01 -4.619231447577476501e-02
1.627000000000000000e+03 7.825251007080078125e+01 6.956772804260253906e+00 2.683197148144245148e-02 -1.919261574745178223e+00 -5.677288770675659180e-01 -9.661518037319183350e-02
1.628000000000000000e+03 7.894022369384765625e+01 1.493140697479248047e+01 8.932199329137802124e-03 -2.116115570068359375e+00 -6.321550011634826660e-01 8.936540782451629639e-02
1.629000000000000000e+03 7.890541839599609375e+01 2.210558509826660156e+01 -7.217309321276843548e-04 -1.311072707176208496e+00 -3.935383260250091553e-01 1.560917496681213379e-01
1.630000000000000000e+03 7.881974029541015625e+01 2.932838249206542969e+01 -7.680212147533893585e-03 -4.753751456737518311e-01 -1.449166089296340942e-01 1.120131760835647583e-01
1.631000000000000000e+03 7.893201446533203125e+01 3.642426681518554688e+01 -4.623604007065296173e-03 -7.653193920850753784e-02 -2.434666268527507782e-02 3.187533095479011536e-02
1.632000000000000000e+03 7.869193267822265625e+01 3.945044708251953125e+01 -4.558486863970756531e-03 -2.230196259915828705e-03 -2.036605030298233032e-03 2.321795560419559479e-02
1.633000000000000000e+03 7.824767303466796875e+01 1.175154972076416016e+01 2.971184067428112030e-02 -1.976144075393676758e+00 -5.839296579360961914e-01 4.677900671958923340e-02
1.634000000000000000e+03 7.749837493896484375e+01 1.814156913757324219e+01 2.821787446737289429e-02 -1.307182550430297852e+00 -3.836894035339355469e-01 2.742070555686950684e-01
1.635000000000000000e+03 7.737563323974609375e+01 2.524822616577148438e+01 -2.231903001666069031e-02 -6.114910244941711426e-01 -1.901430189609527588e-01 3.018376529216766357e-01
1.636000000000000000e+03 7.716083526611328125e+01 3.247468185424804688e+01 -3.815127909183502197e-02 -9.309599548578262329e-02 -3.937418386340141296e-02 1.595001667737960815e-01
1.637000000000000000e+03 7.803222656250000000e+01 3.013732719421386719e+01 -2.008510567247867584e-02 -3.129318952560424805e-01 -9.990509599447250366e-02 1.640067845582962036e-01
1.638000000000000000e+03 7.811640167236328125e+01 2.527581977844238281e+01 -1.124176196753978729e-02 -7.594211697578430176e-01 -2.311988770961761475e-01 2.318246960639953613e-01
1.639000000000000000e+03 7.821269226074218750e+01 1.812467956542968750e+01 1.532541681081056595e-02 -1.554967761039733887e+00 -4.618926942348480225e-01 2.080101966857910156e-01
1.640000000000000000e+03 7.598044586181640625e+01 -1.306513023376464844e+01 -1.105140373110771179e-01 -4.036134108901023865e-02 -4.526261240243911743e-02 -1.256319731473922729e-01
1.641000000000000000e+03 7.822905731201171875e+01 -1.148789787292480469e+01 -2.831855230033397675e-02 -1.303750276565551758e-01 -4.760807380080223083e-02 -1.040838956832885742e-01
1.642000000000000000e+03 7.820727539062500000e+01 -1.302868270874023438e+01 -2.787170745432376862e-02 -6.268904358148574829e-02 -2.716822549700737000e-02 -6.033852323889732361e-02
1.643000000000000000e+03 7.752326965332031250e+01 -7.647193431854248047e+00 -3.746658936142921448e-02 -3.852351605892181396e-01 -1.268105357885360718e-01 -2.717957794666290283e-01
1.644000000000000000e+03 7.895137786865234375e+01 -5.114835739135742188e+00 -2.972365356981754303e-03 -7.788377404212951660e-01 -2.345430403947830200e-01 -1.549840122461318970e-01
1.645000000000000000e+03 7.823934173583984375e+01 -7.573308467864990234e+00 -1.920416764914989471e-02 -4.343261420726776123e-01 -1.360590904951095581e-01 -2.064232677221298218e-01
1.646000000000000000e+03 7.891784667968750000e+01 4.916610419750213623e-01 5.008375272154808044e-03 -1.557744264602661133e+00 -4.658207893371582031e-01 -1.521834880113601685e-01
1.647000000000000000e+03 7.820497894287109375e+01 -4.049984812736511230e-01 1.180192176252603531e-02 -1.265114665031433105e+00 -3.759938180446624756e-01 -2.518038749694824219e-01
1.648000000000000000e+03 7.827204895019531250e+01 3.708296203613281250e+01 -7.374273613095283508e-03 -2.377144806087017059e-02 -9.343716315925121307e-03 4.750227555632591248e-02
1.649000000000000000e+03 7.771419525146484375e+01 3.934538650512695312e+01 -1.201537810266017914e-02 4.250065982341766357e-02 9.145583957433700562e-03 3.367609903216362000e-02
1.650000000000000000e+03 7.628598022460937500e+01 3.799091720581054688e+01 -4.165958613157272339e-02 1.417629718780517578e-01 3.003101609647274017e-02 5.734284222126007080e-02
1.651000000000000000e+03 7.819963836669921875e+01 3.569899368286132812e+01 -1.218950096517801285e-02 -5.829297378659248352e-02 -2.114474214613437653e-02 5.820110067725181580e-02
1.652000000000000000e+03 7.802376556396484375e+01 3.505448532104492188e+01 -1.744396425783634186e-02 -6.001944467425346375e-02 -2.323902212083339691e-02 7.905104011297225952e-02
1.653000000000000000e+03 7.881388092041015625e+01 3.012689590454101562e+01 -6.725181359797716141e-03 -4.086455702781677246e-01 -1.246112212538719177e-01 1.047261878848075867e-01
1.654000000000000000e+03 7.793846130371093750e+01 3.251495361328125000e+01 -2.122022397816181183e-02 -1.608971506357192993e-01 -5.463521182537078857e-02 1.269267946481704712e-01
1.655000000000000000e+03 7.729286193847656250e+01 3.013538742065429688e+01 -3.654651343822479248e-02 -2.298581600189208984e-01 -7.992140203714370728e-02 2.088893949985504150e-01
1.656000000000000000e+03 7.801377868652343750e+01 2.856130981445312500e+01 -1.937126182019710541e-02 -4.411917924880981445e-01 -1.381689161062240601e-01 1.909112632274627686e-01
1.657000000000000000e+03 7.802424621582031250e+01 2.773748397827148438e+01 -1.780353672802448273e-02 -5.078250765800476074e-01 -1.576885879039764404e-01 2.059982866048812866e-01
1.658000000000000000e+03 7.816978454589843750e+01 2.288603782653808594e+01 -3.775487886741757393e-03 -1.028104186058044434e+00 -3.095639050006866455e-01 2.430715113878250122e-01
1.659000000000000000e+03 7.808688354492187500e+01 2.608666992187500000e+01 -1.518640480935573578e-02 -6.714106798171997070e-01 -2.059791386127471924e-01 2.246918678283691406e-01
1.660000000000000000e+03 7.744543457031250000e+01 2.287519073486328125e+01 -5.158373620361089706e-03 -8.482543230056762695e-01 -2.560238242149353027e-01 3.198736310005187988e-01
1.661000000000000000e+03 7.818518066406250000e+01 2.130256462097167969e+01 2.081229584291577339e-03 -1.209665179252624512e+00 -3.622751832008361816e-01 2.418338209390640259e-01
1.662000000000000000e+03 7.819216918945312500e+01 2.051175689697265625e+01 6.361409090459346771e-03 -1.298954010009765625e+00 -3.877777755260467529e-01 2.382349669933319092e-01
1.663000000000000000e+03 7.823115539550781250e+01 1.573725318908691406e+01 2.215502411127090454e-02 -1.769705772399902344e+00 -5.242652297019958496e-01 1.591033339500427246e-01
1.664000000000000000e+03 7.820545959472656250e+01 1.892340469360351562e+01 1.267748605459928513e-02 -1.472553968429565430e+00 -4.379629492759704590e-01 2.210541516542434692e-01
1.665000000000000000e+03 7.752513122558593750e+01 1.575848770141601562e+01 4.229538887739181519e-02 -1.498865008354187012e+00 -4.369708895683288574e-01 2.085170000791549683e-01
1.666000000000000000e+03 7.824066162109375000e+01 1.413855457305908203e+01 2.499717287719249725e-02 -1.878317952156066895e+00 -5.559962391853332520e-01 1.173213645815849304e-01
1.667000000000000000e+03 7.824454498291015625e+01 1.334346103668212891e+01 2.803592197597026825e-02 -1.920554518699645996e+00 -5.677555799484252930e-01 9.418340772390365601e-02
1.668000000000000000e+03 7.825239562988281250e+01 8.562987327575683594e+00 2.878820337355136871e-02 -1.976077198982238770e+00 -5.841866731643676758e-01 -5.031124502420425415e-02
1.669000000000000000e+03 7.825124359130859375e+01 1.015362167358398438e+01 3.011969290673732758e-02 -1.995415449142456055e+00 -5.895887017250061035e-01 -2.518999390304088593e-03
1.670000000000000000e+03 7.755208587646484375e+01 1.098719692230224609e+01 5.465238541364669800e-02 -1.702753305435180664e+00 -4.944302737712860107e-01 3.058860637247562408e-02
1.671000000000000000e+03 7.825022888183593750e+01 6.157926082611083984e+00 2.590922638773918152e-02 -1.877249598503112793e+00 -5.554021000862121582e-01 -1.188188493251800537e-01
1.672000000000000000e+03 7.814974212646484375e+01 1.241843461990356445e+00 1.473985239863395691e-02 -1.435592651367187500e+00 -4.262558221817016602e-01 -2.343531101942062378e-01
1.673000000000000000e+03 7.820484161376953125e+01 3.727533578872680664e+00 2.486857771873474121e-02 -1.686650872230529785e+00 -4.985346794128417969e-01 -1.818457543849945068e-01
1.674000000000000000e+03 7.817624664306640625e+01 2.901344060897827148e+00 2.158189937472343445e-02 -1.607283473014831543e+00 -4.757104516029357910e-01 -2.028348147869110107e-01
1.675000000000000000e+03 7.747558593750000000e+01 3.760832071304321289e+00 4.166005924344062805e-02 -1.448540091514587402e+00 -4.220640063285827637e-01 -2.384368032217025757e-01
1.676000000000000000e+03 7.822586822509765625e+01 -1.216048598289489746e+00 6.637814454734325409e-03 -1.172757267951965332e+00 -3.498358428478240967e-01 -2.545953392982482910e-01
1.677000000000000000e+03 7.824861907958984375e+01 -5.991123199462890625e+00 -1.237336266785860062e-02 -6.035673022270202637e-01 -1.847821921110153198e-01 -2.336686551570892334e-01
1.678000000000000000e+03 7.825180053710937500e+01 -3.608953952789306641e+00 -2.693529240787029266e-03 -8.866299390792846680e-01 -2.667970359325408936e-01 -2.549252808094024658e-01
1.679000000000000000e+03 7.825296020507812500e+01 -4.402925968170166016e+00 -5.118570290505886078e-03 -7.901666164398193359e-01 -2.385855466127395630e-01 -2.501989901065826416e-01
1.680000000000000000e+03 7.825199890136718750e+01 -5.197554111480712891e+00 -9.376681409776210785e-03 -6.952376961708068848e-01 -2.113843113183975220e-01 -2.438046634197235107e-01
1.681000000000000000e+03 7.524396514892578125e+01 -1.236967277526855469e+01 -1.537319272756576538e-01 -3.489784896373748779e-02 -5.658893287181854248e-02 -1.748858392238616943e-01
1.682000000000000000e+03 7.747425079345703125e+01 -1.304097461700439453e+01 -5.090202391147613525e-02 -6.229041516780853271e-02 -3.395773097872734070e-02 -8.490636944770812988e-02
1.683000000000000000e+03 7.676528167724609375e+01 -1.157204723358154297e+01 -8.321255445480346680e-02 -1.060966923832893372e-01 -5.679277330636978149e-02 -1.699578464031219482e-01
1.684000000000000000e+03 3.152554702758789062e+01 1.790865898132324219e+01 2.233252525329589844e+00 1.035538101196289062e+01 3.776590108871459961e+00 -3.664946556091308594e+00
1.685000000000000000e+03 2.614946746826171875e+01 -1.466157436370849609e+00 4.744710028171539307e-01 -4.668737947940826416e-02 1.283350884914398193e-01 4.224223792552947998e-01
1.686000000000000000e+03 6.710633087158203125e+01 -1.303713417053222656e+01 -9.210501909255981445e-01 -3.192070499062538147e-02 -2.858912646770477295e-01 2.181727290153503418e-01
1.687000000000000000e+03 1.832658195495605469e+01 -2.761610221862792969e+01 5.580594763159751892e-02 8.298947811126708984e-01 2.657102048397064209e-01 -4.282830059528350830e-01
1.688000000000000000e+03 1.898843002319335938e+01 -2.803276634216308594e+01 1.833685487508773804e-02 7.008295655250549316e-01 2.157499194145202637e-01 -3.878303170204162598e-01
1.689000000000000000e+03 5.984466171264648438e+01 2.520866632461547852e+00 1.019078612327575684e+00 3.021272420883178711e+00 1.212105274200439453e+00 1.637742638587951660e+00
1.690000000000000000e+03 4.811955261230468750e+01 1.925727653503417969e+01 -8.876723051071166992e-02 4.015720486640930176e-01 9.384144842624664307e-02 2.777678966522216797e-01
1.691000000000000000e+03 6.446623992919921875e+01 1.633846092224121094e+01 5.237478613853454590e-01 3.721860408782958984e+00 1.273682475090026855e+00 -2.402878738939762115e-02
1.692000000000000000e+03 6.372006225585937500e+01 1.652265930175781250e+01 5.264485478401184082e-01 4.109541416168212891e+00 1.390797019004821777e+00 -1.824824064970016479e-01
1.693000000000000000e+03 3.594809341430664062e+01 -2.090317153930664062e+01 8.129132986068725586e-01 9.417551040649414062e+00 3.069139242172241211e+00 6.272581219673156738e-01
1.694000000000000000e+03 1.420185279846191406e+01 -1.507557868957519531e+01 8.371902704238891602e-01 3.002630949020385742e+00 1.151946306228637695e+00 7.378290891647338867e-01
1.695000000000000000e+03 3.417444992065429688e+01 -1.093697452545166016e+01 4.936223626136779785e-01 7.614688873291015625e+00 2.432493448257446289e+00 -2.207976579666137695e+00
1.696000000000000000e+03 4.572444534301757812e+01 1.815199661254882812e+01 3.496513068675994873e-01 1.051680922508239746e+00 4.203996658325195312e-01 7.163140773773193359e-01
1.697000000000000000e+03 1.477828979492187500e+01 2.234572410583496094e+01 -2.870160937309265137e-01 3.572925925254821777e-02 -7.538605481386184692e-02 5.428086500614881516e-03
1.698000000000000000e+03 5.208679962158203125e+01 -3.131249046325683594e+01 2.507098317146301270e-01 7.443720698356628418e-01 2.985245585441589355e-01 -9.347664117813110352e-01
1.699000000000000000e+03 5.276165008544921875e+01 -3.277081298828125000e+01 1.912422180175781250e-01 9.825378656387329102e-01 3.521340191364288330e-01 -9.157791733741760254e-01
1.700000000000000000e+03 1.332739734649658203e+01 1.505449295043945312e+01 -2.276203362271189690e-03 -2.304714638739824295e-03 -1.374275423586368561e-03 -4.617991391569375992e-03
1.701000000000000000e+03 6.156877899169921875e+01 -3.089245796203613281e+01 -3.497101664543151855e-01 2.992613613605499268e-02 -9.593521058559417725e-02 5.841166153550148010e-02
1.702000000000000000e+03 6.423593902587890625e+01 -2.853149223327636719e+01 -2.280570715665817261e-01 2.402099035680294037e-02 -6.121082603931427002e-02 -2.699214592576026917e-02
1.703000000000000000e+03 5.641062164306640625e+01 -3.212972879409790039e+00 6.986814141273498535e-01 2.101170539855957031e+00 8.399555683135986328e-01 1.283597588539123535e+00
1.704000000000000000e+03 1.999218940734863281e+01 5.620441436767578125e+00 -1.044951131916604936e-04 -5.556074756896123290e-05 -4.801675822818651795e-05 -1.112659228965640068e-04
1.705000000000000000e+03 1.371376228332519531e+01 -1.638919067382812500e+01 7.037627696990966797e-01 3.017039775848388672e+00 1.116240739822387695e+00 4.985941648483276367e-01
1.706000000000000000e+03 1.296563911437988281e+01 -1.735648155212402344e+01 5.840830206871032715e-01 2.636017799377441406e+00 9.660302400588989258e-01 2.331347167491912842e-01
1.707000000000000000e+03 3.875613403320312500e+01 6.193676948547363281e+00 7.126758098602294922e-01 1.543418979644775391e+01 4.844059944152832031e+00 2.041911482810974121e-01
1.708000000000000000e+03 3.743002319335937500e+01 6.325455665588378906e+00 1.194159150123596191e+00 1.462143993377685547e+01 4.744679450988769531e+00 -5.184180736541748047e-01
1.709000000000000000e+03 1.364807128906250000e+00 3.642887496948242188e+01 5.182655062526464462e-03 -3.846654593944549561e-01 -1.138448417186737061e-01 2.553270943462848663e-02
1.710000000000000000e+03 2.584799289703369141e+00 3.992182922363281250e+01 1.666981168091297150e-02 -3.271189332008361816e-01 -9.313473105430603027e-02 2.448386885225772858e-02
1.711000000000000000e+03 1.194749236106872559e+00 3.481782913208007812e+01 3.467187983915209770e-03 -3.688720762729644775e-01 -1.096214726567268372e-01 2.716142497956752777e-02
1.712000000000000000e+03 1.190565109252929688e+00 2.845067787170410156e+01 1.415987149812281132e-03 -2.191410809755325317e-01 -6.531752645969390869e-02 3.650300204753875732e-02
1.713000000000000000e+03 2.014526844024658203e+00 2.928648948669433594e+01 3.051612526178359985e-03 -2.079782783985137939e-01 -6.147800013422966003e-02 5.568473413586616516e-02
1.714000000000000000e+03 2.620615959167480469e+00 2.434614181518554688e+01 -8.501176722347736359e-03 -8.393193781375885010e-02 -2.772993594408035278e-02 6.187577918171882629e-02
1.715000000000000000e+03 1.942666769027709961e+00 3.170910072326660156e+01 3.176421625539660454e-03 -2.633314728736877441e-01 -7.804651558399200439e-02 4.910114407539367676e-02
1.716000000000000000e+03 1.873914957046508789e+00 2.517989540100097656e+01 -4.131317138671875000e-03 -1.154303848743438721e-01 -3.586851060390472412e-02 5.066828057169914246e-02
1.717000000000000000e+03 1.948324084281921387e+00 3.247875213623046875e+01 3.877450246363878250e-03 -2.790175974369049072e-01 -8.254203945398330688e-02 4.475485906004905701e-02
1.718000000000000000e+03 1.297740936279296875e+00 -3.396064758300781250e+01 -1.098666805773973465e-02 -7.450193762779235840e-01 -2.268018126487731934e-01 6.794255971908569336e-02
1.719000000000000000e+03 2.092686891555786133e+00 -3.222000122070312500e+01 -1.656732894480228424e-02 -7.332917451858520508e-01 -2.249577194452285767e-01 1.346394121646881104e-01
1.720000000000000000e+03 1.100867033004760742e+00 2.118154716491699219e+01 -2.593107288703322411e-03 -4.521429166197776794e-02 -1.434221956878900528e-02 1.916659250855445862e-02
1.721000000000000000e+03 1.843010783195495605e+00 2.196508789062500000e+01 -6.113520357757806778e-03 -5.431418120861053467e-02 -1.812831126153469086e-02 3.473836556077003479e-02
1.722000000000000000e+03 2.602061510086059570e+00 2.273600769042968750e+01 -1.054292637854814529e-02 -5.815807357430458069e-02 -2.061030082404613495e-02 5.141038447618484497e-02
1.723000000000000000e+03 1.867253184318542480e+00 2.437478637695312500e+01 -3.854890586808323860e-03 -9.865040332078933716e-02 -3.075158782303333282e-02 4.719441011548042297e-02
1.724000000000000000e+03 1.979591369628906250e+00 2.844657135009765625e+01 8.660083403810858727e-04 -1.884314864873886108e-01 -5.626964569091796875e-02 5.809227004647254944e-02
1.725000000000000000e+03 1.937072753906250000e+00 2.761505508422851562e+01 5.696780281141400337e-04 -1.698250025510787964e-01 -5.077660083770751953e-02 5.652882158756256104e-02
1.726000000000000000e+03 1.905248045921325684e+00 2.679678153991699219e+01 -2.207315992563962936e-03 -1.515932828187942505e-01 -4.614018276333808899e-02 5.540360510349273682e-02
1.727000000000000000e+03 1.149431347846984863e+00 3.402663040161132812e+01 -1.295127905905246735e-03 -3.565108776092529297e-01 -1.073418036103248596e-01 2.742055803537368774e-02
1.728000000000000000e+03 2.000036239624023438e+00 3.011571884155273438e+01 3.672789898701012135e-04 -2.245182991027832031e-01 -6.724530458450317383e-02 5.431647598743438721e-02
1.729000000000000000e+03 1.884399771690368652e+00 3.399364852905273438e+01 4.135611001402139664e-03 -3.053839206695556641e-01 -9.037449210882186890e-02 4.014676436781883240e-02
1.730000000000000000e+03 1.911093235015869141e+00 3.324266433715820312e+01 5.359068163670599461e-04 -2.912648916244506836e-01 -8.721869438886642456e-02 4.276655614376068115e-02
1.731000000000000000e+03 1.954538226127624512e+00 3.473680496215820312e+01 3.967141674365848303e-04 -3.100859820842742920e-01 -9.290678054094314575e-02 3.990267217159271240e-02
1.732000000000000000e+03 1.279232978820800781e+00 4.014097976684570312e+01 4.294247832149267197e-03 -4.325802922248840332e-01 -1.284858137369155884e-01 5.266517866402864456e-03
1.733000000000000000e+03 2.181116580963134766e+00 -3.713479614257812500e+01 -2.000086568295955658e-02 -5.533609390258789062e-01 -1.720085442066192627e-01 6.422927230596542358e-02
1.734000000000000000e+03 2.143461942672729492e+00 -3.572706985473632812e+01 -1.630130223929882050e-02 -5.919356942176818848e-01 -1.824710965156555176e-01 7.730603963136672974e-02
1.735000000000000000e+03 1.832773566246032715e+00 2.116157722473144531e+01 -5.501974374055862427e-03 -4.260470345616340637e-02 -1.443200372159481049e-02 3.002137318253517151e-02
1.736000000000000000e+03 2.500695705413818359e+00 -1.294351673126220703e+01 5.546244978904724121e-02 -1.086440920829772949e+00 -3.092935383319854736e-01 -2.753443419933319092e-01
1.737000000000000000e+03 1.078103780746459961e+00 -8.216534614562988281e+00 -6.040149601176381111e-04 -8.110635280609130859e-01 -2.435002624988555908e-01 -1.884496659040451050e-01
1.738000000000000000e+03 1.911061048507690430e+00 6.620670318603515625e+00 2.715709561016410589e-04 1.571520464494824409e-03 5.529274349100887775e-04 -1.282195444218814373e-03
1.739000000000000000e+03 1.089235663414001465e+00 1.475362014770507812e+01 -9.631271241232752800e-04 4.302897024899721146e-03 1.001931028440594673e-03 1.408707350492477417e-03
1.740000000000000000e+03 1.805402278900146484e+00 1.474594211578369141e+01 -1.676358864642679691e-03 1.211322378367185593e-03 -1.395109284203499556e-04 2.572076627984642982e-03
1.741000000000000000e+03 1.906090855598449707e+00 8.255445480346679688e+00 2.160641743103042245e-04 2.245206153020262718e-03 7.383810589089989662e-04 -1.498836558312177658e-03
1.742000000000000000e+03 1.840570569038391113e+00 1.151116466522216797e+01 -2.707821258809417486e-04 3.270548768341541290e-03 8.999300189316272736e-04 -1.054543536156415939e-03
1.743000000000000000e+03 2.549826622009277344e+00 -2.018572616577148438e+01 6.338196992874145508e-02 -1.279932618141174316e+00 -3.649652004241943359e-01 8.267264813184738159e-02
1.744000000000000000e+03 1.806238770484924316e+00 -1.702174186706542969e+01 4.106795415282249451e-02 -1.528711915016174316e+00 -4.462931752204895020e-01 -5.748040229082107544e-02
1.745000000000000000e+03 1.141105175018310547e+00 -2.752369880676269531e+01 -3.008528612554073334e-03 -1.223520278930664062e+00 -3.679586350917816162e-01 1.160168051719665527e-01
1.746000000000000000e+03 2.572004556655883789e+00 -2.178333282470703125e+01 5.084769055247306824e-02 -1.223966956138610840e+00 -3.519358038902282715e-01 1.466525793075561523e-01
1.747000000000000000e+03 1.806896209716796875e+00 1.715757369995117188e+01 -4.059641622006893158e-03 -6.241811439394950867e-03 -3.090435871854424477e-03 9.444792754948139191e-03
1.748000000000000000e+03 1.117628335952758789e+00 1.071201896667480469e+01 4.711114161182194948e-05 4.999878816306591034e-03 1.514097093604505062e-03 -1.045987475663423538e-03
1.749000000000000000e+03 2.518614292144775391e+00 1.314183616638183594e+01 -2.137648174539208412e-03 1.068439101800322533e-03 -3.207627160008996725e-04 6.315459031611680984e-04
1.750000000000000000e+03 3.461741209030151367e+00 6.521705627441406250e+00 5.635545239783823490e-04 2.438960073050111532e-04 2.422351681161671877e-04 -1.572000095620751381e-03
1.751000000000000000e+03 1.859100699424743652e+00 -2.345252609252929688e+01 1.620780117809772491e-02 -1.356893658638000488e+00 -4.022057652473449707e-01 1.539689153432846069e-01
1.752000000000000000e+03 1.096426606178283691e+00 -2.030172920227050781e+01 1.455897651612758636e-02 -1.774688124656677246e+00 -5.280387401580810547e-01 4.678974300622940063e-02
1.753000000000000000e+03 1.819721817970275879e+00 -1.943794441223144531e+01 3.774954006075859070e-02 -1.538310289382934570e+00 -4.501682221889495850e-01 3.874748945236206055e-02
1.754000000000000000e+03 1.077932238578796387e+00 -1.306139087677001953e+01 1.208604313433170319e-02 -1.495055198669433594e+00 -4.448907375335693359e-01 -1.352314054965972900e-01
1.755000000000000000e+03 1.790990591049194336e+00 -1.219415760040283203e+01 2.651903219521045685e-02 -1.201713442802429199e+00 -3.525583148002624512e-01 -2.347669601440429688e-01
1.756000000000000000e+03 3.308609008789062500e+00 -4.098394870758056641e+00 -1.199501231312751770e-01 -1.973666995763778687e-01 -9.519504755735397339e-02 -3.305031359195709229e-01
1.757000000000000000e+03 3.273157835006713867e+00 -5.645641803741455078e+00 -7.070212066173553467e-02 -3.178530335426330566e-01 -1.165665462613105774e-01 -3.995541632175445557e-01
1.758000000000000000e+03 2.561095952987670898e+00 -4.137736797332763672e+00 -7.791402190923690796e-02 -2.268066108226776123e-01 -9.141618758440017700e-02 -2.741988003253936768e-01
1.759000000000000000e+03 1.787946224212646484e+00 -9.767889976501464844e+00 1.265858020633459091e-02 -9.194952249526977539e-01 -2.720510065555572510e-01 -2.815175056457519531e-01
1.760000000000000000e+03 1.798643112182617188e+00 -1.541049957275390625e+01 3.982549533247947693e-02 -1.464097499847412109e+00 -4.272816181182861328e-01 -1.243690997362136841e-01
1.761000000000000000e+03 1.110444068908691406e+00 -2.271285438537597656e+01 7.997610606253147125e-03 -1.639910459518432617e+00 -4.895738363265991211e-01 9.214099496603012085e-02
1.762000000000000000e+03 1.173194646835327148e+00 -2.992631912231445312e+01 -4.014338366687297821e-03 -1.015902757644653320e+00 -3.059751391410827637e-01 1.044170558452606201e-01
1.763000000000000000e+03 1.915406942367553711e+00 -2.903892326354980469e+01 -9.676505811512470245e-03 -9.492125511169433594e-01 -2.876667082309722900e-01 1.671976447105407715e-01
1.764000000000000000e+03 1.148127913475036621e+00 6.664066314697265625e+00 2.676526128198020160e-05 2.261475194245576859e-03 6.864721071906387806e-04 -9.012528462335467339e-04
1.765000000000000000e+03 2.692045688629150391e+00 5.764058589935302734e+00 4.243691801093518734e-04 7.431230624206364155e-04 3.502476611174643040e-04 -1.350285485386848450e-03
1.766000000000000000e+03 1.904940605163574219e+00 7.438531875610351562e+00 6.693144678138196468e-05 1.906942226924002171e-03 5.921620759181678295e-04 -1.382835092954337597e-03
1.767000000000000000e+03 1.127131700515747070e+00 9.903586387634277344e+00 -1.171652984339743853e-04 4.515791777521371841e-03 1.319587929174304008e-03 -1.080492860637605190e-03
1.768000000000000000e+03 1.905937790870666504e+00 9.066820144653320312e+00 -6.172536086523905396e-05 2.571579767391085625e-03 7.529563736170530319e-04 -1.483313273638486862e-03
1.769000000000000000e+03 1.806078195571899414e+00 1.394166564941406250e+01 -1.653199549764394760e-03 2.442270284518599510e-03 2.367212437093257904e-04 1.210783724673092365e-03
1.770000000000000000e+03 1.089669227600097656e+00 1.394802856445312500e+01 -3.921241150237619877e-04 5.228029564023017883e-03 1.450771582312881947e-03 5.122380098327994347e-04
1.771000000000000000e+03 1.805158019065856934e+00 1.635385322570800781e+01 -2.794083440676331520e-03 -3.014783142134547234e-03 -1.742659951560199261e-03 6.674267351627349854e-03
1.772000000000000000e+03 1.809320330619812012e+00 1.796108627319335938e+01 -4.047961905598640442e-03 -1.092546060681343079e-02 -4.492026753723621368e-03 1.280517689883708954e-02
1.773000000000000000e+03 2.516795635223388672e+00 1.795162010192871094e+01 -8.381138555705547333e-03 -1.084981113672256470e-02 -5.769284907728433609e-03 1.681079715490341187e-02
1.774000000000000000e+03 1.096378445625305176e+00 2.037871170043945312e+01 -2.071973634883761406e-03 -3.342404961585998535e-02 -1.064880751073360443e-02 1.615516468882560730e-02
1.775000000000000000e+03 1.823743581771850586e+00 2.036187744140625000e+01 -6.078266538679599762e-03 -3.223958238959312439e-02 -1.149535458534955978e-02 2.521661855280399323e-02
1.776000000000000000e+03 1.328387260437011719e+00 -3.763490295410156250e+01 -9.765904396772384644e-04 -6.136005520820617676e-01 -1.843731403350830078e-01 3.236119821667671204e-02
1.777000000000000000e+03 2.147575855255126953e+00 -3.303369140625000000e+01 -2.304270304739475250e-02 -6.888594627380371094e-01 -2.135706543922424316e-01 1.215748041868209839e-01
1.778000000000000000e+03 2.739332437515258789e+00 -3.050677490234375000e+01 -2.832307852804660797e-02 -7.171797752380371094e-01 -2.236508578062057495e-01 1.924611330032348633e-01
1.779000000000000000e+03 1.901817679405212402e+00 -2.824453353881835938e+01 -9.766248054802417755e-03 -1.006760001182556152e+00 -3.049578666687011719e-01 1.722838133573532104e-01
1.780000000000000000e+03 2.622294902801513672e+00 -2.498775100708007812e+01 1.427739299833774567e-02 -1.049453735351562500e+00 -3.105528950691223145e-01 2.209382355213165283e-01
1.781000000000000000e+03 1.874140977859497070e+00 -2.505389213562011719e+01 5.894706584513187408e-03 -1.244311332702636719e+00 -3.715249896049499512e-01 1.737644672393798828e-01
1.782000000000000000e+03 1.115851521492004395e+00 -2.351634025573730469e+01 7.187737151980400085e-03 -1.578899383544921875e+00 -4.715134799480438232e-01 1.019663363695144653e-01
1.783000000000000000e+03 1.849619865417480469e+00 -2.264895820617675781e+01 2.310057170689105988e-02 -1.408357143402099609e+00 -4.155769646167755127e-01 1.371966153383255005e-01
1.784000000000000000e+03 1.831580400466918945e+00 -2.104304122924804688e+01 3.182974830269813538e-02 -1.490922570228576660e+00 -4.377278387546539307e-01 9.358131140470504761e-02
1.785000000000000000e+03 1.085727095603942871e+00 -1.708326721191406250e+01 1.791348867118358612e-02 -1.789249897003173828e+00 -5.314009189605712891e-01 -3.398148715496063232e-02
1.786000000000000000e+03 1.815051913261413574e+00 -1.863321876525878906e+01 3.819311782717704773e-02 -1.545918941497802734e+00 -4.523177444934844971e-01 8.527747355401515961e-03
1.787000000000000000e+03 1.795201420783996582e+00 -1.460642910003662109e+01 3.910100460052490234e-02 -1.414604306221008301e+00 -4.126510024070739746e-01 -1.556092798709869385e-01
1.788000000000000000e+03 1.078242778778076172e+00 -1.386575984954833984e+01 1.527098659425973892e-02 -1.580438971519470215e+00 -4.695503711700439453e-01 -1.174312010407447815e-01
1.789000000000000000e+03 1.792592048645019531e+00 -1.380300903320312500e+01 3.426164388656616211e-02 -1.353275418281555176e+00 -3.957041203975677490e-01 -1.851550936698913574e-01
1.790000000000000000e+03 1.079015135765075684e+00 -9.833830833435058594e+00 4.620309919118881226e-03 -1.059702277183532715e+00 -3.165245950222015381e-01 -1.826466321945190430e-01
1.791000000000000000e+03 1.788640499114990234e+00 -1.057821750640869141e+01 1.710786856710910797e-02 -1.018998861312866211e+00 -3.005672991275787354e-01 -2.702313065528869629e-01
1.792000000000000000e+03 1.790156841278076172e+00 -1.138686752319335938e+01 2.329611964523792267e-02 -1.113801479339599609e+00 -3.271515965461730957e-01 -2.543122172355651855e-01
1.793000000000000000e+03 1.837362408638000488e+00 -3.407247066497802734e+00 -5.309760197997093201e-02 -1.767914146184921265e-01 -6.896670907735824585e-02 -1.752439141273498535e-01
1.794000000000000000e+03 1.187737107276916504e+00 3.448422670364379883e+00 7.290282519534230232e-05 6.835579988546669483e-04 2.269382384838536382e-04 -5.060376133769750595e-04
1.795000000000000000e+03 2.830147504806518555e+00 2.621720075607299805e+00 4.742894961964339018e-04 2.178577560698613524e-04 2.076441742246970534e-04 -7.067955448292195797e-04
1.796000000000000000e+03 2.192458868026733398e+00 -3.388338088989257812e+01 -1.814087294042110443e-02 -6.456842422485351562e-01 -1.991475373506546021e-01 1.132859736680984497e-01
1.797000000000000000e+03 2.209132671356201172e+00 -3.477999877929687500e+01 -2.293692342936992645e-02 -6.066588759422302246e-01 -1.888787448406219482e-01 9.466408193111419678e-02
1.798000000000000000e+03 1.783144831657409668e+00 -3.654161453247070312e+01 -1.416793651878833771e-02 -5.991277098655700684e-01 -1.839886903762817383e-01 6.128443405032157898e-02
1.799000000000000000e+03 1.552135944366455078e+01 1.035773563385009766e+01 -4.394325660541653633e-04 4.563177004456520081e-03 1.237123389728367329e-03 -7.020835182629525661e-04
1.800000000000000000e+03 1.709562301635742188e+01 8.387967109680175781e+00 1.036014800774864852e-04 1.538928132504224777e-03 4.927588743157684803e-04 -2.061239647446200252e-04
1.801000000000000000e+03 1.399790382385253906e+01 1.522619438171386719e+01 -7.203327841125428677e-04 5.710217170417308807e-03 1.496965298429131508e-03 -2.286830684170126915e-03
1.802000000000000000e+03 6.707612609863281250e+01 -2.545136642456054688e+01 -6.023104861378669739e-02 3.871385939419269562e-03 -1.690789870917797089e-02 -1.748756133019924164e-02
1.803000000000000000e+03 5.937655258178710938e+01 1.853075146675109863e+00 1.026315569877624512e+00 2.824542760848999023e+00 1.155257463455200195e+00 1.658192157745361328e+00
1.804000000000000000e+03 5.534879302978515625e+01 -3.234768390655517578e+00 8.809689283370971680e-01 2.061259269714355469e+00 8.826684355735778809e-01 1.419561743736267090e+00
1.805000000000000000e+03 1.653158569335937500e+01 -2.448238182067871094e+01 4.893486201763153076e-01 1.262961268424987793e+00 5.256929397583007812e-01 -7.724897861480712891e-01
1.806000000000000000e+03 1.650116920471191406e+01 -2.567289924621582031e+01 2.496909350156784058e-01 1.182991504669189453e+00 4.298047423362731934e-01 -5.698620080947875977e-01
1.807000000000000000e+03 2.515350341796875000e+01 2.267527008056640625e+01 1.085576772689819336e+00 5.938895940780639648e-01 5.038399100303649902e-01 -9.759642481803894043e-01
1.808000000000000000e+03 2.443573760986328125e+01 2.374591255187988281e+01 7.811625003814697266e-01 7.249895930290222168e-01 4.518456161022186279e-01 -1.062421441078186035e+00
1.809000000000000000e+03 3.392776107788085938e+01 1.268080425262451172e+01 1.048434138298034668e+00 1.300835323333740234e+01 4.217036247253417969e+00 -2.550271272659301758e+00
1.810000000000000000e+03 1.410252952575683594e+01 1.440328884124755859e+01 7.136604399420320988e-04 8.013050071895122528e-03 2.618013182654976845e-03 -6.348705501295626163e-04
1.811000000000000000e+03 3.725565338134765625e+01 -8.286151289939880371e-01 1.102440476417541504e+00 1.186224365234375000e+01 3.889405250549316406e+00 -1.140583157539367676e+00
1.812000000000000000e+03 6.037116622924804688e+01 -1.178703403472900391e+01 -8.104208707809448242e-01 3.905285596847534180e-01 -1.259676963090896606e-01 2.827647328376770020e-01
1.813000000000000000e+03 2.187553405761718750e+01 2.299472999572753906e+01 -7.186307758092880249e-02 2.284420840442180634e-02 -1.470566075295209885e-02 -2.936228811740875244e-01
1.814000000000000000e+03 2.117640686035156250e+01 2.378338050842285156e+01 7.168778032064437866e-02 7.737558335065841675e-02 4.471901059150695801e-02 -3.489912152290344238e-01
1.815000000000000000e+03 2.147138404846191406e+01 -9.866196632385253906e+00 6.106190681457519531e-01 2.017280757427215576e-01 2.437041401863098145e-01 5.353740453720092773e-01
1.816000000000000000e+03 3.943162918090820312e+01 9.506738662719726562e+00 1.089509248733520508e+00 1.112856197357177734e+01 3.665421485900878906e+00 1.842009425163269043e+00
1.817000000000000000e+03 4.959132385253906250e+01 -1.374846744537353516e+01 2.786194086074829102e+00 1.692750334739685059e+00 1.343683362007141113e+00 2.012962818145751953e+00
1.818000000000000000e+03 4.905882263183593750e+01 -1.135872077941894531e+01 1.127563953399658203e+00 1.906168222427368164e+00 9.101196527481079102e-01 1.808088183403015137e+00
1.819000000000000000e+03 4.883094406127929688e+01 -8.465890884399414062e+00 -6.082292199134826660e-01 6.896168589591979980e-01 2.441628836095333099e-02 1.554628133773803711e+00
1.820000000000000000e+03 3.448356246948242188e+01 9.484862327575683594e+00 8.818662762641906738e-01 1.435650825500488281e+01 4.571512222290039062e+00 -2.070673942565917969e+00
1.821000000000000000e+03 4.268403244018554688e+01 1.436737823486328125e+01 8.792315125465393066e-01 2.339167118072509766e+00 9.655196070671081543e-01 1.353982806205749512e+00
1.822000000000000000e+03 3.916497039794921875e+01 8.695631980895996094e+00 1.265475749969482422e+00 1.277688503265380859e+01 4.212707996368408203e+00 1.534558653831481934e+00
1.823000000000000000e+03 6.246733093261718750e+01 -2.908296012878417969e+01 -3.595131337642669678e-01 -1.910697482526302338e-02 -1.135860309004783630e-01 -5.406697094440460205e-02
1.824000000000000000e+03 6.478682708740234375e+01 -2.789329147338867188e+01 -1.823691576719284058e-01 1.513696089386940002e-02 -5.016966164112091064e-02 -3.400372713804244995e-02
1.825000000000000000e+03 3.945801925659179688e+01 1.135166168212890625e+01 6.150020956993103027e-01 8.596776962280273438e+00 2.763533592224121094e+00 1.475291371345520020e+00
1.826000000000000000e+03 6.117918777465820312e+01 4.648235321044921875e+00 1.105572223663330078e+00 3.819952487945556641e+00 1.477657437324523926e+00 1.447534680366516113e+00
1.827000000000000000e+03 6.102541351318359375e+01 5.714529037475585938e+00 1.272480368614196777e+00 4.434869289398193359e+00 1.712204933166503906e+00 1.719972133636474609e+00
1.828000000000000000e+03 4.829179382324218750e+01 2.268791961669921875e+01 -3.373828902840614319e-02 9.975231885910034180e-01 2.891354560852050781e-01 7.211704850196838379e-01
1.829000000000000000e+03 6.070655059814453125e+01 -3.146854782104492188e+01 -3.458430171012878418e-01 2.891684696078300476e-02 -9.507784992456436157e-02 7.430112361907958984e-02
1.830000000000000000e+03 3.129943847656250000e+01 1.864029502868652344e+01 2.505130290985107422e+00 9.704101562500000000e+00 3.662769794464111328e+00 -3.724610328674316406e+00
1.831000000000000000e+03 1.349446487426757812e+01 -1.553721141815185547e+01 8.046073913574218750e-01 2.647785663604736328e+00 1.035717844963073730e+00 4.506942629814147949e-01
1.832000000000000000e+03 1.283348178863525391e+01 -1.653839874267578125e+01 6.692541837692260742e-01 2.397639513015747070e+00 9.200680851936340332e-01 2.749516665935516357e-01
1.833000000000000000e+03 3.382910919189453125e+01 -2.751608467102050781e+01 8.976836204528808594e-01 4.070645809173583984e+00 1.490498900413513184e+00 1.892454028129577637e+00
1.834000000000000000e+03 4.574951553344726562e+01 -1.507093429565429688e+01 2.408664464950561523e+00 6.587510585784912109e+00 2.698852539062500000e+00 1.473770260810852051e+00
1.835000000000000000e+03 4.574794006347656250e+01 -1.621509933471679688e+01 2.791116476058959961e+00 7.912919044494628906e+00 3.211210727691650391e+00 2.284227371215820312e+00
1.836000000000000000e+03 1.497157287597656250e+01 -2.379400634765625000e+01 2.789449691772460938e-01 1.942572593688964844e+00 6.664552688598632812e-01 -6.737441420555114746e-01
1.837000000000000000e+03 1.548796749114990234e+01 -2.437626075744628906e+01 3.247983157634735107e-01 1.558598875999450684e+00 5.650191307067871094e-01 -6.747217774391174316e-01
1.838000000000000000e+03 2.535221481323242188e+01 2.351633644104003906e+01 1.026094794273376465e+00 1.113666534423828125e+00 6.419283747673034668e-01 -1.365388751029968262e+00
1.839000000000000000e+03 5.392367553710937500e+01 -3.282513046264648438e+01 1.056986525654792786e-01 5.412766933441162109e-01 1.940926015377044678e-01 -5.918540358543395996e-01
1.840000000000000000e+03 5.845489883422851562e+01 5.545590519905090332e-01 1.139932155609130859e+00 2.532654285430908203e+00 1.101776003837585449e+00 1.661795020103454590e+00
1.841000000000000000e+03 6.372541046142578125e+01 -1.168917846679687500e+01 -1.840153217315673828e+00 -4.467468857765197754e-01 -6.860700249671936035e-01 8.197653293609619141e-02
1.842000000000000000e+03 1.425045490264892578e+01 1.356753063201904297e+01 -2.701009798329323530e-04 9.156650863587856293e-03 2.665964886546134949e-03 1.889613922685384750e-04
1.843000000000000000e+03 6.250561523437500000e+01 7.775772094726562500e+00 6.908461451530456543e-01 4.558407306671142578e+00 1.574776053428649902e+00 1.145375847816467285e+00
1.844000000000000000e+03 1.345229434967041016e+01 1.423208618164062500e+01 -1.351584680378437042e-03 2.131029265001416206e-03 2.338333579245954752e-04 -6.853108061477541924e-04
1.845000000000000000e+03 3.579539871215820312e+01 -1.588211059570312500e+01 9.571520090103149414e-01 1.065919208526611328e+01 3.484903097152709961e+00 -1.911469101905822754e+00
1.846000000000000000e+03 3.631968688964843750e+01 -1.497479438781738281e+01 1.252601385116577148e+00 9.998003959655761719e+00 3.375181674957275391e+00 -2.123794555664062500e+00
1.847000000000000000e+03 6.363259124755859375e+01 1.574961948394775391e+01 3.911173641681671143e-01 4.421993732452392578e+00 1.443933367729187012e+00 -1.520600169897079468e-01
1.848000000000000000e+03 6.915344238281250000e+01 -1.247170448303222656e+01 -6.802388429641723633e-01 1.772467792034149170e-01 -1.508976221084594727e-01 -5.882428213953971863e-02
1.849000000000000000e+03 1.821283721923828125e+01 -2.635141944885253906e+01 3.093485832214355469e-01 8.374195098876953125e-01 3.440304398536682129e-01 -5.212823748588562012e-01
1.850000000000000000e+03 3.274644851684570312e+01 1.659873390197753906e+01 1.557561755180358887e+00 1.080645561218261719e+01 3.709205150604248047e+00 -3.017935991287231445e+00
1.851000000000000000e+03 3.228322219848632812e+01 1.806943702697753906e+01 2.010007143020629883e+00 9.722057342529296875e+00 3.519619226455688477e+00 -2.947923660278320312e+00
1.852000000000000000e+03 6.853025817871093750e+01 -2.338757133483886719e+01 -1.847261749207973480e-02 2.252758480608463287e-03 -4.865957889705896378e-03 -7.701226044446229935e-03
1.853000000000000000e+03 6.756205749511718750e+01 -2.367649269104003906e+01 -1.944076642394065857e-02 -3.643112722784280777e-04 -5.941523239016532898e-03 -1.020347047597169876e-02
1.854000000000000000e+03 5.651536178588867188e+01 -1.339484405517578125e+01 2.290638238191604614e-01 2.390984445810317993e-01 1.404486894607543945e-01 6.228625178337097168e-01
1.855000000000000000e+03 5.169451522827148438e+01 -3.237705612182617188e+01 2.921238243579864502e-01 1.447938323020935059e+00 5.220186710357666016e-01 -1.321299433708190918e+00
1.856000000000000000e+03 2.695520973205566406e+01 2.303795051574707031e+01 1.502533912658691406e+00 2.228353738784790039e+00 1.119266271591186523e+00 -2.156085014343261719e+00
1.857000000000000000e+03 2.617501831054687500e+01 2.324410057067871094e+01 1.312992811203002930e+00 1.481052994728088379e+00 8.382137417793273926e-01 -1.699295878410339355e+00
1.858000000000000000e+03 5.592395019531250000e+01 -2.693090915679931641e+00 9.779957532882690430e-01 2.184799432754516602e+00 9.488385915756225586e-01 1.453930258750915527e+00
1.859000000000000000e+03 5.701566696166992188e+01 -1.410779356956481934e+00 1.195271134376525879e+00 2.361069202423095703e+00 1.066902160644531250e+00 1.503801345825195312e+00
1.860000000000000000e+03 5.362200927734375000e+01 -1.298091411590576172e+01 1.174263000488281250e+00 4.374381601810455322e-01 4.835103750228881836e-01 1.320691347122192383e+00
1.861000000000000000e+03 5.274918365478515625e+01 -1.370161437988281250e+01 1.768054842948913574e+00 3.731937110424041748e-01 6.423745751380920410e-01 1.194984078407287598e+00
1.862000000000000000e+03 3.551121139526367188e+01 5.622986316680908203e+00 1.228336215019226074e+00 1.470282936096191406e+01 4.779349803924560547e+00 -8.257513642311096191e-01
1.863000000000000000e+03 3.362908172607421875e+01 -1.022202014923095703e+01 -1.941981315612792969e-01 6.216293334960937500e+00 1.806628584861755371e+00 -1.858323097229003906e+00
1.864000000000000000e+03 3.364333724975585938e+01 -9.099213600158691406e+00 -1.551723957061767578e+00 6.120994567871093750e+00 1.370781183242797852e+00 -1.328668355941772461e+00
1.865000000000000000e+03 4.753524398803710938e+01 1.981990623474121094e+01 4.246917087584733963e-03 7.195218801498413086e-01 2.171306312084197998e-01 5.103580951690673828e-01
1.866000000000000000e+03 6.844107818603515625e+01 -2.226330566406250000e+01 -4.849860444664955139e-03 2.233040751889348030e-03 -7.850458496250212193e-04 -3.528106492012739182e-03
1.867000000000000000e+03 6.935873413085937500e+01 -2.198931884765625000e+01 -5.836398806422948837e-03 8.020196692086756229e-04 -1.510313712060451508e-03 -2.959261182695627213e-03
1.868000000000000000e+03 4.815170288085937500e+01 2.047357559204101562e+01 -1.071741357445716858e-01 6.595767140388488770e-01 1.657207757234573364e-01 4.828276336193084717e-01
1.869000000000000000e+03 1.921303987503051758e+00 5.808434486389160156e+00 1.296253758482635021e-04 1.279809745028614998e-03 4.228305479045957327e-04 -1.142083667218685150e-03
1.870000000000000000e+03 4.391719818115234375e+00 3.348252534866333008e+00 6.802175776101648808e-04 -8.075347432168200612e-05 1.798392186174169183e-04 -9.121977491304278374e-04
1.871000000000000000e+03 5.952105045318603516e+00 4.069950580596923828e+00 1.018815557472407818e-03 -5.819302750751376152e-04 1.310655788984149694e-04 -8.087095920927822590e-04
1.872000000000000000e+03 1.984222769737243652e+00 3.415774106979370117e+00 2.723001234699040651e-04 5.309419357217848301e-04 2.409726293990388513e-04 -7.243177969940006733e-04
1.873000000000000000e+03 6.023577690124511719e+00 3.326345920562744141e+00 9.434919920749962330e-04 -4.160396056249737740e-04 1.582357217557728291e-04 -6.541292532347142696e-04
1.874000000000000000e+03 8.585289955139160156e+00 2.580388784408569336e+00 1.196542172692716122e-03 -3.714502090588212013e-04 2.475276123732328415e-04 4.862200148636475205e-05
1.875000000000000000e+03 6.846267700195312500e+00 3.319247007369995117e+00 1.149178366176784039e-03 -5.200571031309664249e-04 1.887363760033622384e-04 -4.898037295788526535e-04
1.876000000000000000e+03 8.490862846374511719e+00 3.305089712142944336e+00 1.188961556181311607e-03 -5.669586244039237499e-04 1.866008824435994029e-04 -7.363996246567694470e-06
1.877000000000000000e+03 1.008521747589111328e+01 3.291699409484863281e+00 1.071672770194709301e-03 -4.281941510271281004e-04 1.930435973918065429e-04 4.173087072558701038e-04
1.878000000000000000e+03 9.298519134521484375e+00 3.298144578933715820e+00 1.016639173030853271e-03 -5.406279815360903740e-04 1.428033720003440976e-04 2.895978977903723717e-04
1.879000000000000000e+03 2.459204483032226562e+01 -3.078076171875000000e+01 -3.212144672870635986e-01 8.235172182321548462e-02 -7.165882736444473267e-02 -1.088692396879196167e-01
1.880000000000000000e+03 2.544125938415527344e+01 -3.181984519958496094e+01 -6.722789257764816284e-02 2.513490617275238037e-01 5.523634701967239380e-02 4.685306921601295471e-02
1.881000000000000000e+03 1.765086364746093750e+01 -2.705743789672851562e+01 1.168313026428222656e-01 9.268079400062561035e-01 3.130917847156524658e-01 -4.668830633163452148e-01
1.882000000000000000e+03 4.489144515991210938e+01 -2.578757286071777344e+01 2.239929676055908203e+00 1.098273849487304688e+01 3.966800451278686523e+00 -2.118442773818969727e+00
1.883000000000000000e+03 7.366237640380859375e+01 -1.309872722625732422e+01 -2.325552552938461304e-01 2.209970168769359589e-02 -6.313666701316833496e-02 -1.458780616521835327e-01
1.884000000000000000e+03 2.630108070373535156e+01 -3.186398696899414062e+01 -1.083091739565134048e-02 3.052781522274017334e-01 8.833417296409606934e-02 2.321208864450454712e-01
1.885000000000000000e+03 6.910312652587890625e+01 -1.316749286651611328e+01 -6.105504035949707031e-01 1.276430189609527588e-01 -1.448722034692764282e-01 2.967804111540317535e-02
1.886000000000000000e+03 6.979877471923828125e+01 -1.318312168121337891e+01 -5.178608894348144531e-01 1.351455301046371460e-01 -1.148146018385887146e-01 -6.552297621965408325e-03
1.887000000000000000e+03 3.891267395019531250e+01 2.059124946594238281e+00 1.689193248748779297e+00 1.710411453247070312e+01 5.637992382049560547e+00 -2.708950519561767578e+00
1.888000000000000000e+03 6.273610305786132812e+01 8.589532852172851562e+00 6.465768814086914062e-01 4.606793880462646484e+00 1.576011300086975098e+00 9.677748084068298340e-01
1.889000000000000000e+03 3.442929458618164062e+01 3.030382394790649414e+00 2.226907730102539062e+00 1.321941566467285156e+01 4.633897304534912109e+00 4.152007997035980225e-01
1.890000000000000000e+03 3.658506774902343750e+01 -2.100866317749023438e+01 1.090238928794860840e+00 9.188437461853027344e+00 3.083602905273437500e+00 4.265091419219970703e-01
1.891000000000000000e+03 4.331761932373046875e+01 -4.163644790649414062e+00 -2.085226774215698242e+00 1.773315787315368652e+00 -9.357325732707977295e-02 -1.333701252937316895e+00
1.892000000000000000e+03 4.463075256347656250e+01 -5.326514720916748047e+00 -2.782860517501831055e+00 1.325209259986877441e+00 -4.372953474521636963e-01 -5.715998411178588867e-01
1.893000000000000000e+03 3.508713912963867188e+01 -2.426234817504882812e+01 1.683183670043945312e+00 6.998717308044433594e+00 2.604570388793945312e+00 2.154794216156005859e+00
1.894000000000000000e+03 3.827360534667968750e+01 1.975266575813293457e+00 1.975266695022583008e+00 1.547495269775390625e+01 5.235065937042236328e+00 -2.381647109985351562e+00
1.895000000000000000e+03 3.896883010864257812e+01 7.864435195922851562e+00 1.177572250366210938e+00 1.414785003662109375e+01 4.597626686096191406e+00 1.155978918075561523e+00
1.896000000000000000e+03 5.429579925537109375e+01 -3.409593582153320312e+01 1.928017735481262207e-01 6.827603578567504883e-01 2.626686394214630127e-01 -5.905119776725769043e-01
1.897000000000000000e+03 1.888624000549316406e+01 -2.809544801712036133e+00 -5.964868068695068359e-01 1.634443104267120361e-01 -1.299127489328384399e-01 3.777158558368682861e-01
1.898000000000000000e+03 3.544072723388671875e+01 7.202133178710937500e+00 1.088533282279968262e+00 1.449560356140136719e+01 4.675240993499755859e+00 -1.356531977653503418e+00
1.899000000000000000e+03 5.588982772827148438e+01 -3.217203521728515625e+01 -2.416615784168243408e-01 5.363740772008895874e-02 -5.640725046396255493e-02 -1.557170152664184570e-01
1.900000000000000000e+03 3.653354644775390625e+01 4.358372688293457031e+00 1.656895756721496582e+00 1.444299030303955078e+01 4.829966068267822266e+00 -1.082497715950012207e+00
1.901000000000000000e+03 3.407632064819335938e+01 1.325084686279296875e+00 1.550412535667419434e+00 1.037557411193847656e+01 3.577795982360839844e+00 1.043438553810119629e+00
1.902000000000000000e+03 3.645554351806640625e+01 -1.585400867462158203e+01 1.143124580383300781e+00 9.997457504272460938e+00 3.342174530029296875e+00 -1.955784559249877930e+00
1.903000000000000000e+03 4.553257369995117188e+01 -2.733720207214355469e+01 1.794253587722778320e+00 9.215056419372558594e+00 3.302793264389038086e+00 -2.460462808609008789e+00
1.904000000000000000e+03 3.661609268188476562e+01 -1.314312171936035156e+01 1.010089993476867676e+00 9.188890457153320312e+00 3.059694051742553711e+00 -1.911971092224121094e+00
1.905000000000000000e+03 1.945770072937011719e+01 5.202131271362304688e+00 1.441043241356965154e-05 2.915131917688995600e-04 9.177708852803334594e-05 3.515911885187961161e-05
1.906000000000000000e+03 1.870338058471679688e+01 3.476824998855590820e+00 4.351783354650251567e-05 3.075762651860713959e-04 1.053282321663573384e-04 6.119794124970212579e-05
1.907000000000000000e+03 4.465834045410156250e+01 -1.832222557067871094e+01 3.204894781112670898e+00 1.084007740020751953e+01 4.213491916656494141e+00 1.485396623611450195e+00
1.908000000000000000e+03 1.703410911560058594e+01 -2.638545608520507812e+01 1.766702383756637573e-01 1.073721408843994141e+00 3.751174807548522949e-01 -5.049891471862792969e-01
1.909000000000000000e+03 5.648438262939453125e+01 -2.072347879409790039e+00 1.114880561828613281e+00 2.280657291412353516e+00 1.018661379814147949e+00 1.471287727355957031e+00
1.910000000000000000e+03 1.585384941101074219e+01 6.059785366058349609e+00 -2.491847844794392586e-04 1.228087348863482475e-03 2.936707751359790564e-04 4.472618165891617537e-04
1.911000000000000000e+03 3.870656204223632812e+01 1.170031547546386719e+01 5.284982323646545410e-01 9.409737586975097656e+00 2.981470823287963867e+00 7.285301089286804199e-01
1.912000000000000000e+03 3.667178344726562500e+01 -1.928500175476074219e+01 7.988829612731933594e-01 9.615736007690429688e+00 3.124385595321655273e+00 -3.925413489341735840e-01
1.913000000000000000e+03 4.833975219726562500e+01 -6.504930019378662109e+00 -2.687880277633666992e+00 -2.196753919124603271e-01 -8.722666501998901367e-01 1.098176360130310059e+00
1.914000000000000000e+03 3.480743789672851562e+01 6.306050777435302734e+00 8.321611881256103516e-01 1.503545761108398438e+01 4.760285854339599609e+00 -1.187410950660705566e+00
1.915000000000000000e+03 1.602045440673828125e+01 8.627250671386718750e+00 -3.597305912990123034e-04 2.288032555952668190e-03 5.784906097687780857e-04 8.030593744479119778e-05
1.916000000000000000e+03 3.654863357543945312e+01 -1.672307014465332031e+01 9.462002515792846680e-01 9.976787567138671875e+00 3.276896238327026367e+00 -1.678457021713256836e+00
1.917000000000000000e+03 3.802227020263671875e+01 5.388649463653564453e+00 8.800876140594482422e-01 1.537911128997802734e+01 4.877759456634521484e+00 -6.208781003952026367e-01
1.918000000000000000e+03 3.485670471191406250e+01 -1.054365444183349609e+01 -4.530698060989379883e-01 8.152806282043457031e+00 2.309920787811279297e+00 -1.559810042381286621e+00
1.919000000000000000e+03 3.199495124816894531e+01 -3.021974372863769531e+01 2.287554144859313965e-01 2.759257316589355469e+00 8.964038491249084473e-01 1.443905472755432129e+00
1.920000000000000000e+03 1.281689643859863281e+01 1.811669921875000000e+01 -6.743878871202468872e-02 -5.184545647352933884e-03 -2.178700082004070282e-02 -4.441234841942787170e-02
1.921000000000000000e+03 1.515697288513183594e+01 -1.265329933166503906e+01 1.127653598785400391e+00 1.933422327041625977e+00 9.183228015899658203e-01 8.367024064064025879e-01
1.922000000000000000e+03 3.910757064819335938e+01 -1.604202628135681152e+00 1.320575356483459473e+00 1.253672981262207031e+01 4.157191753387451172e+00 -2.441642522811889648e+00
1.923000000000000000e+03 4.976707839965820312e+01 -7.058088779449462891e+00 -1.790176391601562500e+00 1.081312298774719238e-01 -5.046135187149047852e-01 1.860088706016540527e+00
1.924000000000000000e+03 6.339045715332031250e+01 1.262181568145751953e+01 3.340360820293426514e-01 4.730687618255615234e+00 1.519417166709899902e+00 3.559858500957489014e-01
1.925000000000000000e+03 6.267387008666992188e+01 1.906670570373535156e+01 7.433856725692749023e-01 3.845335245132446289e+00 1.376616239547729492e+00 -5.284004211425781250e-01
1.926000000000000000e+03 6.368501281738281250e+01 -2.919065093994140625e+01 -2.772075235843658447e-01 2.811523899435997009e-02 -7.472768425941467285e-02 -2.592172473669052124e-03
1.927000000000000000e+03 4.785449981689453125e+01 -2.937241172790527344e+01 1.522981405258178711e+00 5.141469001770019531e+00 1.999335169792175293e+00 -2.648673057556152344e+00
1.928000000000000000e+03 4.993252182006835938e+01 -3.151619720458984375e+01 4.773986637592315674e-01 2.604478120803833008e+00 9.245630502700805664e-01 -1.862262487411499023e+00
1.929000000000000000e+03 5.026588821411132812e+01 2.197893142700195312e+01 -2.853202223777770996e-01 3.888222575187683105e-01 3.105061128735542297e-02 3.412365317344665527e-01
1.930000000000000000e+03 2.156126022338867188e+01 -3.155492019653320312e+01 -2.308792918920516968e-01 5.161401033401489258e-01 8.557824790477752686e-02 -3.554913401603698730e-01
1.931000000000000000e+03 3.613334655761718750e+01 -1.410547637939453125e+01 1.289956212043762207e+00 9.889653205871582031e+00 3.353882789611816406e+00 -2.245166778564453125e+00
1.932000000000000000e+03 3.591078948974609375e+01 -1.323858642578125000e+01 1.195466041564941406e+00 9.636197090148925781e+00 3.249499082565307617e+00 -2.226091384887695312e+00
1.933000000000000000e+03 1.394534206390380859e+01 2.099272918701171875e+01 -2.851029932498931885e-01 3.665245696902275085e-02 -7.453516125679016113e-02 -4.720241948962211609e-02
1.934000000000000000e+03 3.439827728271484375e+01 6.009529232978820801e-01 1.231514215469360352e+00 1.019868850708007812e+01 3.429060935974121094e+00 7.723175883293151855e-01
1.935000000000000000e+03 6.236134338378906250e+01 -3.036644935607910156e+01 -3.455124795436859131e-01 2.946455404162406921e-02 -9.481437504291534424e-02 3.834592923521995544e-02
1.936000000000000000e+03 6.807775115966796875e+01 -2.409183502197265625e+01 -3.050416894257068634e-02 2.236942760646343231e-03 -8.480167947709560394e-03 -9.340817108750343323e-03
1.937000000000000000e+03 2.772868347167968750e+01 2.289963912963867188e+01 1.420357227325439453e+00 3.256853342056274414e+00 1.403163194656372070e+00 -2.480028629302978516e+00
1.938000000000000000e+03 4.909639358520507812e+01 -3.109484100341796875e+01 5.836868882179260254e-01 3.546897649765014648e+00 1.239175319671630859e+00 -2.078608512878417969e+00
1.939000000000000000e+03 5.218138122558593750e+01 -3.395837783813476562e+01 1.412859857082366943e-01 1.546443819999694824e+00 5.063189268112182617e-01 -1.098539590835571289e+00
1.940000000000000000e+03 6.308683776855468750e+01 1.021960449218750000e+01 5.013399124145507812e-01 4.747087001800537109e+00 1.574528098106384277e+00 7.640767693519592285e-01
1.941000000000000000e+03 2.745472526550292969e+01 -7.901741027832031250e+00 -1.444262742996215820e+00 2.593223154544830322e-01 -3.554821312427520752e-01 4.900987148284912109e-01
1.942000000000000000e+03 2.588878250122070312e+01 -7.123055458068847656e+00 -5.813826322555541992e-01 3.388536870479583740e-01 -7.275867462158203125e-02 8.590568304061889648e-01
1.943000000000000000e+03 1.713925552368164062e+01 7.396795749664306641e+00 -1.771370880305767059e-04 1.231163158081471920e-03 3.162078210152685642e-04 5.036949005443602800e-06
1.944000000000000000e+03 1.948780632019042969e+01 2.374253845214843750e+01 -1.285839527845382690e-01 1.159672625362873077e-02 -3.509616851806640625e-02 -1.763901263475418091e-01
1.945000000000000000e+03 1.866044425964355469e+01 2.369655609130859375e+01 -1.725065410137176514e-01 -7.878055330365896225e-04 -5.198830366134643555e-02 -1.299216151237487793e-01
1.946000000000000000e+03 2.699879837036132812e+01 -7.316435813903808594e+00 -1.044661521911621094e+00 2.866715788841247559e-01 -2.273969948291778564e-01 9.151700139045715332e-01
1.947000000000000000e+03 2.919259834289550781e+01 -3.126264190673828125e+01 8.490374684333801270e-02 1.194411039352416992e+00 3.837944269180297852e-01 9.368389248847961426e-01
1.948000000000000000e+03 2.825996017456054688e+01 -3.165139961242675781e+01 6.646831333637237549e-02 8.110712766647338867e-01 2.632618844509124756e-01 6.570376157760620117e-01
1.949000000000000000e+03 4.790225219726562500e+01 2.177524375915527344e+01 -2.569738589227199554e-02 9.848527908325195312e-01 2.877466380596160889e-01 7.047111988067626953e-01
1.950000000000000000e+03 6.192646026611328125e+01 6.193099975585937500e+00 1.017441153526306152e+00 4.203933238983154297e+00 1.566412329673767090e+00 1.363572001457214355e+00
1.951000000000000000e+03 4.142715454101562500e+01 -4.187077045440673828e+00 -1.726274013519287109e+00 7.367413997650146484e+00 1.692342042922973633e+00 -2.965276241302490234e+00
1.952000000000000000e+03 3.155469131469726562e+01 -8.398329615592956543e-01 1.666396737098693848e+00 3.203710794448852539e+00 1.461032271385192871e+00 1.815199255943298340e+00
1.953000000000000000e+03 2.967487716674804688e+01 2.088597297668457031e+01 2.956318140029907227e+00 6.491793632507324219e+00 2.834433555603027344e+00 -2.963705778121948242e+00
1.954000000000000000e+03 1.372664737701416016e+01 -1.449498653411865234e+01 9.070300459861755371e-01 2.349707126617431641e+00 9.770211577415466309e-01 5.068050026893615723e-01
1.955000000000000000e+03 3.292467498779296875e+01 -2.895023918151855469e+01 5.339391231536865234e-01 3.253027200698852539e+00 1.136089920997619629e+00 1.570214390754699707e+00
1.956000000000000000e+03 4.632489013671875000e+01 -3.028066253662109375e+01 2.967539429664611816e-01 6.465410232543945312e+00 2.028649330139160156e+00 -1.843370556831359863e+00
1.957000000000000000e+03 2.626264572143554688e+01 -3.313476562500000000e+01 1.601025611162185669e-01 5.325334668159484863e-01 2.077908217906951904e-01 2.895331084728240967e-01
1.958000000000000000e+03 3.606871795654296875e+01 -2.365571403503417969e+01 1.589060425758361816e+00 7.698552608489990234e+00 2.786283969879150391e+00 1.444675803184509277e+00
1.959000000000000000e+03 2.211192321777343750e+01 -2.283194303512573242e+00 -2.584323585033416748e-01 1.087701097130775452e-01 -4.489867761731147766e-02 4.982618391513824463e-01
1.960000000000000000e+03 4.760074996948242188e+01 -6.277750015258789062e+00 -3.083048820495605469e+00 -1.121401563286781311e-01 -9.585567116737365723e-01 7.623677849769592285e-01
1.961000000000000000e+03 3.922127532958984375e+01 1.256708335876464844e+01 5.206184983253479004e-01 8.085843086242675781e+00 2.581938505172729492e+00 1.073778510093688965e+00
1.962000000000000000e+03 6.527458953857421875e+01 -2.837716484069824219e+01 -1.828914135694503784e-01 3.350885212421417236e-02 -4.481476917862892151e-02 -1.033978816121816635e-02
1.963000000000000000e+03 1.548356246948242188e+01 9.287747383117675781e+00 -6.273306789807975292e-04 3.084831638261675835e-03 7.372502586804330349e-04 1.066429977072402835e-04
1.964000000000000000e+03 4.026850128173828125e+01 -3.264095544815063477e+00 -8.393813371658325195e-01 1.021131610870361328e+01 2.811580419540405273e+00 -2.624254703521728516e+00
1.965000000000000000e+03 4.386632537841796875e+01 -5.062753677368164062e+00 -2.439297914505004883e+00 1.982984542846679688e+00 -1.368940323591232300e-01 -1.273386955261230469e+00
1.966000000000000000e+03 3.646679687500000000e+01 -2.188051414489746094e+01 1.277764916419982910e+00 8.816422462463378906e+00 3.028256177902221680e+00 8.803694248199462891e-01
1.967000000000000000e+03 3.488343429565429688e+01 -2.620472335815429688e+01 1.044947147369384766e+00 5.459629058837890625e+00 1.951372981071472168e+00 1.887063860893249512e+00
1.968000000000000000e+03 3.537849807739257812e+01 -2.541348266601562500e+01 1.229628324508666992e+00 6.320385456085205078e+00 2.265004158020019531e+00 1.725520730018615723e+00
1.969000000000000000e+03 5.860489273071289062e+01 -3.199939918518066406e+01 -3.473129272460937500e-01 2.608909504488110542e-03 -1.034112051129341125e-01 3.495301678776741028e-02
1.970000000000000000e+03 5.968154907226562500e+01 -3.184455299377441406e+01 -3.550893068313598633e-01 2.932670526206493378e-02 -9.772877395153045654e-02 6.725409626960754395e-02
1.971000000000000000e+03 4.059766006469726562e+01 -4.083406448364257812e+00 -1.780701398849487305e+00 9.181433677673339844e+00 2.220219850540161133e+00 -2.715855598449707031e+00
1.972000000000000000e+03 6.139850234985351562e+01 2.061578178405761719e+01 4.713584780693054199e-01 2.883263826370239258e+00 1.006386637687683105e+00 -1.003198981285095215e+00
1.973000000000000000e+03 5.356567382812500000e+01 2.266951370239257812e+01 -5.103256702423095703e-01 6.661109626293182373e-02 -1.331143677234649658e-01 -9.896878153085708618e-03
1.974000000000000000e+03 1.785553550720214844e+01 2.366355705261230469e+01 -1.833056956529617310e-01 -9.692776016891002655e-03 -5.789953842759132385e-02 -6.910800933837890625e-02
1.975000000000000000e+03 1.633863639831542969e+01 2.373904037475585938e+01 -1.786571741104125977e-01 1.285641454160213470e-02 -4.974022880196571350e-02 -3.549127373844385147e-03
1.976000000000000000e+03 2.032755279541015625e+01 2.377986717224121094e+01 -4.360010847449302673e-02 3.757279738783836365e-02 -1.808192464523017406e-03 -2.493338286876678467e-01
1.977000000000000000e+03 3.882168197631835938e+01 -6.509242057800292969e-01 1.969764113426208496e+00 1.360958576202392578e+01 4.673804759979248047e+00 -2.791854143142700195e+00
1.978000000000000000e+03 3.904559707641601562e+01 -3.086546897888183594e+00 -8.039129972457885742e-01 1.121228790283203125e+01 3.122512340545654297e+00 -1.685372352600097656e+00
1.979000000000000000e+03 2.764364242553710938e+01 -6.918117523193359375e+00 -7.999370694160461426e-01 8.414324373006820679e-02 -2.147381454706192017e-01 1.084835052490234375e+00
1.980000000000000000e+03 7.122089385986328125e+01 -2.099866867065429688e+01 -3.662703791633248329e-03 -1.259887474589049816e-03 -1.476777368225157261e-03 -3.089498204644769430e-04
1.981000000000000000e+03 1.899401855468750000e+01 -9.818304061889648438e+00 7.550812959671020508e-01 6.217106580734252930e-01 4.130375683307647705e-01 7.716959714889526367e-01
1.982000000000000000e+03 1.678368949890136719e+01 -1.113514518737792969e+01 1.099083304405212402e+00 1.330759644508361816e+00 7.289528846740722656e-01 7.764762043952941895e-01
1.983000000000000000e+03 5.889313888549804688e+01 2.264457893371582031e+01 -2.418696135282516479e-01 6.922358274459838867e-01 1.351098567247390747e-01 -8.511911630630493164e-01
1.984000000000000000e+03 5.816412353515625000e+01 2.501026153564453125e+01 -1.908654868602752686e-01 7.591035962104797363e-01 1.704714447259902954e-01 -6.274005174636840820e-01
1.985000000000000000e+03 4.520645523071289062e+01 -2.654868507385253906e+01 2.009449243545532227e+00 1.029734134674072266e+01 3.692037105560302734e+00 -2.368102788925170898e+00
1.986000000000000000e+03 6.395829391479492188e+01 1.801768112182617188e+01 6.624348759651184082e-01 3.590646505355834961e+00 1.275924444198608398e+00 -1.742259263992309570e-01
1.987000000000000000e+03 6.335132980346679688e+01 1.891742134094238281e+01 7.066057324409484863e-01 3.750896215438842773e+00 1.337250590324401855e+00 -2.609051764011383057e-01
1.988000000000000000e+03 3.577711105346679688e+01 -2.455314826965332031e+01 1.467925071716308594e+00 6.991310596466064453e+00 2.537770748138427734e+00 1.579283356666564941e+00
1.989000000000000000e+03 2.228838729858398438e+01 -3.192874145507812500e+01 -1.677905619144439697e-01 4.213492870330810547e-01 7.606761902570724487e-02 -3.132857382297515869e-01
1.990000000000000000e+03 2.467545318603515625e+01 -3.181067657470703125e+01 -1.293671280145645142e-01 2.374121099710464478e-01 3.241349384188652039e-02 -7.989862561225891113e-02
1.991000000000000000e+03 1.399569129943847656e+01 1.159333324432373047e+01 -1.110458615585230291e-04 4.279363900423049927e-03 1.250495435670018196e-03 1.507641281932592392e-03
1.992000000000000000e+03 4.416506958007812500e+01 -1.768846321105957031e+01 2.647875785827636719e+00 9.828414916992187500e+00 3.742887258529663086e+00 5.261924862861633301e-01
1.993000000000000000e+03 4.446552658081054688e+01 -1.932457923889160156e+01 2.339422702789306641e+00 1.162177085876464844e+01 4.188358306884765625e+00 1.084500074386596680e+00
1.994000000000000000e+03 2.282468986511230469e+01 2.363414573669433594e+01 3.373412191867828369e-01 2.424941956996917725e-01 1.739506274461746216e-01 -5.832075476646423340e-01
1.995000000000000000e+03 2.874085426330566406e+01 -1.314818620681762695e+00 1.229237914085388184e+00 1.771889925003051758e-01 4.219280481338500977e-01 5.443027019500732422e-01
1.996000000000000000e+03 4.421775054931640625e+01 -2.426358604431152344e+01 2.243597984313964844e+00 1.153227806091308594e+01 4.132762908935546875e+00 -1.602738022804260254e+00
1.997000000000000000e+03 1.206822037696838379e+00 2.660996913909912109e+00 1.313565589953213930e-04 4.277561092749238014e-04 1.677338004810735583e-04 -3.815568343270570040e-04
1.998000000000000000e+03 2.718169021606445312e+01 -6.404055356979370117e-01 5.918394327163696289e-01 -2.752016671001911163e-02 1.692957729101181030e-01 2.224045395851135254e-01
1.999000000000000000e+03 2.910229873657226562e+01 2.251355361938476562e+01 1.269966602325439453e+00 4.961305618286132812e+00 1.869381785392761230e+00 -2.574353933334350586e+00
2.000000000000000000e+03 1.548756599426269531e+01 2.206174468994140625e+01 -3.298000693321228027e-01 -1.053263247013092041e-02 -1.020998060703277588e-01 -1.783086918294429779e-02
2.001000000000000000e+03 1.849582099914550781e+01 -1.065253257751464844e+01 1.089758872985839844e+00 7.534124255180358887e-01 5.529513955116271973e-01 8.297314047813415527e-01
2.002000000000000000e+03 1.767226409912109375e+01 -1.087426471710205078e+01 1.126477837562561035e+00 1.078709125518798828e+00 6.615560650825500488e-01 8.347815275192260742e-01
2.003000000000000000e+03 3.815375900268554688e+01 2.822667837142944336e+00 1.727709531784057617e+00 1.563619136810302734e+01 5.209170341491699219e+00 -2.085471391677856445e+00
2.004000000000000000e+03 3.806134796142578125e+01 3.671215534210205078e+00 1.306565165519714355e+00 1.567761230468750000e+01 5.095253467559814453e+00 -1.660018682479858398e+00
2.005000000000000000e+03 3.521038055419921875e+01 3.184314250946044922e+00 2.041802883148193359e+00 1.354799461364746094e+01 4.676939487457275391e+00 -3.033541738986968994e-01
2.006000000000000000e+03 6.329970932006835938e+01 -1.108462333679199219e+01 -1.272144436836242676e+00 -1.877384781837463379e-01 -4.379648566246032715e-01 1.520030349493026733e-01
2.007000000000000000e+03 5.259788513183593750e+01 -5.895619392395019531e+00 -1.216136693954467773e+00 1.597088098526000977e+00 1.142854392528533936e-01 1.622464895248413086e+00
2.008000000000000000e+03 3.109497642517089844e+01 2.095892143249511719e+01 1.955317735671997070e+00 7.407008171081542969e+00 2.808697700500488281e+00 -2.260555028915405273e+00
2.009000000000000000e+03 3.030178260803222656e+01 2.166111755371093750e+01 1.595241189002990723e+00 6.630418300628662109e+00 2.467697858810424805e+00 -2.289607763290405273e+00
2.010000000000000000e+03 3.252522277832031250e+01 -1.205426931381225586e+00 9.929708838462829590e-01 5.228435039520263672e+00 1.866421818733215332e+00 1.590494513511657715e+00
2.011000000000000000e+03 5.189609146118164062e+01 -5.947079658508300781e+00 -1.528072834014892578e+00 1.159474492073059082e+00 -1.105794832110404968e-01 1.881127357482910156e+00
2.012000000000000000e+03 1.339589977264404297e+01 1.905317115783691406e+01 -1.143520250916481018e-01 -1.729207579046487808e-03 -3.482436761260032654e-02 -6.616603583097457886e-02
2.013000000000000000e+03 1.439480972290039062e+01 2.038792610168457031e+01 -2.455345094203948975e-01 -1.594177260994911194e-02 -7.844288647174835205e-02 -9.538282454013824463e-02
2.014000000000000000e+03 2.916298103332519531e+01 -1.787697792053222656e+00 1.288032650947570801e+00 5.610700249671936035e-01 5.547307729721069336e-01 8.350396156311035156e-01
2.015000000000000000e+03 2.025884819030761719e+01 -2.949127578735351562e+01 -2.281953692436218262e-01 5.910637378692626953e-01 1.088605001568794250e-01 -3.329133093357086182e-01
2.016000000000000000e+03 3.105707931518554688e+01 -3.062399101257324219e+01 1.516268700361251831e-01 2.157754421234130859e+00 6.928143501281738281e-01 1.296697020530700684e+00
2.017000000000000000e+03 4.521475219726562500e+01 -1.676462173461914062e+01 2.740215301513671875e+00 8.817394256591796875e+00 3.467282772064208984e+00 1.807933807373046875e+00
2.018000000000000000e+03 4.469027709960937500e+01 -1.725445747375488281e+01 2.567163228988647461e+00 9.755913734436035156e+00 3.696923017501831055e+00 1.303685307502746582e+00
2.019000000000000000e+03 2.903362083435058594e+01 -3.514892339706420898e+00 7.507075071334838867e-01 6.379715204238891602e-01 4.166037142276763916e-01 9.447484016418457031e-01
2.020000000000000000e+03 3.115449333190917969e+01 -1.354080438613891602e+00 1.437271714210510254e+00 2.524324178695678711e+00 1.188478708267211914e+00 1.368297457695007324e+00
2.021000000000000000e+03 6.088871383666992188e+01 2.130573654174804688e+01 1.419277489185333252e-01 2.287599086761474609e+00 7.288580536842346191e-01 -8.943381309509277344e-01
2.022000000000000000e+03 1.380644416809082031e+01 2.003502273559570312e+01 -2.122095078229904175e-01 -1.432030345313251019e-03 -6.409246474504470825e-02 -8.152444660663604736e-02
2.023000000000000000e+03 1.308380317687988281e+01 1.975837516784667969e+01 -1.658217608928680420e-01 2.047377079725265503e-02 -4.360439628362655640e-02 -5.860252678394317627e-02
2.024000000000000000e+03 6.513003540039062500e+01 -1.069301223754882812e+01 -1.142915368080139160e+00 -1.968784332275390625e-01 -4.019381403923034668e-01 -2.114182263612747192e-01
2.025000000000000000e+03 4.618457031250000000e+01 -2.913928794860839844e+01 8.807415962219238281e-01 7.282008171081542969e+00 2.448824882507324219e+00 -2.139003276824951172e+00
2.026000000000000000e+03 6.203507995605468750e+01 2.303941535949707031e+01 -4.488104879856109619e-01 2.294902563095092773e+00 5.538275837898254395e-01 -4.904765188694000244e-01
2.027000000000000000e+03 6.275707626342773438e+01 1.970949745178222656e+01 4.860011339187622070e-01 3.555640220642089844e+00 1.212492465972900391e+00 -4.052264392375946045e-01
2.028000000000000000e+03 6.205339431762695312e+01 2.108048820495605469e+01 1.513468939810991287e-02 2.963387012481689453e+00 8.935565352439880371e-01 -5.157282352447509766e-01
2.029000000000000000e+03 5.882249450683593750e+01 2.368679428100585938e+01 -2.565215229988098145e-01 8.224443197250366211e-01 1.697768419981002808e-01 -7.826715707778930664e-01
2.030000000000000000e+03 5.794736480712890625e+01 2.260677146911621094e+01 -3.284856677055358887e-01 1.611021310091018677e-01 -5.021505802869796753e-02 -5.647438764572143555e-01
2.031000000000000000e+03 5.102821826934814453e+00 -3.858401870727539062e+01 -7.066997140645980835e-02 -2.423420846462249756e-01 -9.390361607074737549e-02 7.340461015701293945e-02
2.032000000000000000e+03 2.319702911376953125e+01 -8.469719886779785156e+00 1.156954988837242126e-01 2.635542452335357666e-01 1.137749180197715759e-01 5.750679969787597656e-01
2.033000000000000000e+03 2.532450675964355469e+01 -2.317119121551513672e+00 2.990113198757171631e-01 -1.340241543948650360e-02 8.568266779184341431e-02 5.986585617065429688e-01
2.034000000000000000e+03 7.226515197753906250e+01 -2.045207023620605469e+01 -2.686172258108854294e-03 -1.489886781200766563e-03 -1.252817688509821892e-03 9.981489711208269000e-05
2.035000000000000000e+03 7.021489715576171875e+01 -2.074238395690917969e+01 -1.650461228564381599e-03 -4.378658486530184746e-04 -6.264981348067522049e-04 2.684155515453312546e-05
2.036000000000000000e+03 5.925548171997070312e+01 -1.286017894744873047e+01 -5.283665657043457031e-01 2.666983604431152344e-01 -7.850046455860137939e-02 2.340375632047653198e-01
2.037000000000000000e+03 5.877108383178710938e+01 -1.175916385650634766e+01 -4.463096261024475098e-01 5.004627108573913574e-01 1.624592021107673645e-02 5.792106986045837402e-01
2.038000000000000000e+03 6.120304870605468750e+01 -1.216540527343750000e+01 -1.044527530670166016e+00 2.275429368019104004e-01 -2.450953871011734009e-01 4.393346607685089111e-02
2.039000000000000000e+03 5.909579849243164062e+01 -1.223367214202880859e+01 -5.134213566780090332e-01 4.073651731014251709e-01 -3.181685134768486023e-02 3.939430117607116699e-01
2.040000000000000000e+03 1.887778282165527344e+01 5.755215167999267578e+00 -6.263385148486122489e-05 1.353242259938269854e-04 2.180711271648760885e-05 -8.717077434994280338e-05
2.041000000000000000e+03 7.343354797363281250e+01 -2.020100212097167969e+01 -2.442894037812948227e-03 -1.459701103158295155e-03 -1.170778530649840832e-03 4.674983938457444310e-05
2.042000000000000000e+03 7.196242523193359375e+01 -1.975557708740234375e+01 -1.246352097950875759e-03 -1.817835960537195206e-03 -9.192564175464212894e-04 1.002423465251922607e-03
2.043000000000000000e+03 1.654412651062011719e+01 -2.869713211059570312e+01 -1.447502374649047852e-01 1.010451197624206543e+00 2.597102820873260498e-01 -3.328452110290527344e-01
2.044000000000000000e+03 1.957444381713867188e+01 -2.835070800781250000e+01 -2.581372484564781189e-02 6.253033280372619629e-01 1.798468828201293945e-01 -3.554685711860656738e-01
2.045000000000000000e+03 1.837195396423339844e+01 4.582931041717529297e+00 -4.860873013967648149e-05 4.881537170149385929e-04 1.318635040661320090e-04 5.019559466745704412e-06
2.046000000000000000e+03 2.632244110107421875e+01 -7.705316066741943359e+00 -7.567027807235717773e-01 3.715678453445434570e-01 -1.155404895544052124e-01 6.339451670646667480e-01
2.047000000000000000e+03 7.408354949951171875e+01 -2.020735549926757812e+01 -1.798551878891885281e-03 -1.903233351185917854e-03 -1.110535580664873123e-03 1.678526459727436304e-04
2.048000000000000000e+03 5.972056961059570312e+01 -1.194655227661132812e+01 -6.866452097892761230e-01 4.070972502231597900e-01 -8.386439830064773560e-02 3.532136976718902588e-01
2.049000000000000000e+03 1.770372962951660156e+01 6.818377017974853516e+00 -2.182730822823941708e-04 6.104250205680727959e-04 1.176455771201290190e-04 -1.389321696478873491e-04
2.050000000000000000e+03 1.365929412841796875e+01 4.713144779205322266e+00 2.492842577339615673e-05 1.979773660423234105e-04 6.687173299724236131e-05 1.094862236641347408e-03
2.051000000000000000e+03 2.001067161560058594e+01 3.667207002639770508e+00 7.032382563920691609e-05 1.918403431773185730e-04 7.864925282774493098e-05 1.717874147288966924e-05
2.052000000000000000e+03 2.003577804565429688e+01 4.742739200592041016e+00 1.576846079842653126e-05 -3.255534102208912373e-05 -5.036064521846128628e-06 -5.764753950643353164e-05
2.053000000000000000e+03 2.215942192077636719e+01 -8.075816154479980469e+00 1.716526746749877930e-01 3.000214695930480957e-01 1.415022462606430054e-01 6.701054573059082031e-01
2.054000000000000000e+03 2.043924903869628906e+01 -9.429343223571777344e+00 6.101782917976379395e-01 3.378360271453857422e-01 2.844042778015136719e-01 6.798699498176574707e-01
2.055000000000000000e+03 1.300699520111083984e+01 3.969540834426879883e+00 3.047691134270280600e-04 -2.328394293726887554e-05 8.444554987363517284e-05 9.926393395289778709e-04
2.056000000000000000e+03 2.045470619201660156e+01 4.318576812744140625e+00 4.103610626771114767e-05 2.053774223895743489e-04 7.392405677819624543e-05 5.672223051078617573e-05
2.057000000000000000e+03 5.994190597534179688e+01 1.473295807838439941e+00 9.151381254196166992e-01 2.729912042617797852e+00 1.093515038490295410e+00 1.461071491241455078e+00
2.058000000000000000e+03 2.825030708312988281e+01 -6.497277736663818359e+00 -7.169070839881896973e-01 2.791350707411766052e-02 -2.066980600357055664e-01 1.016213178634643555e+00
2.059000000000000000e+03 1.737319374084472656e+01 3.356917381286621094e+00 6.339966057566925883e-05 3.965153009630739689e-04 1.379744790028780699e-04 1.688794436631724238e-04
2.060000000000000000e+03 1.855563163757324219e+01 4.057517528533935547e+00 -1.682146466919220984e-05 3.749328607227653265e-05 6.201546511874767020e-06 9.596215386409312487e-05
2.061000000000000000e+03 5.799459838867187500e+01 -9.148693829774856567e-02 1.210730433464050293e+00 2.443153381347656250e+00 1.096165060997009277e+00 1.618920326232910156e+00
2.062000000000000000e+03 5.900716400146484375e+01 1.642999947071075439e-01 1.015967130661010742e+00 2.426442384719848633e+00 1.032722830772399902e+00 1.477757096290588379e+00
2.063000000000000000e+03 1.073341464996337891e+01 4.669498443603515625e+00 5.853273323737084866e-04 -6.906686467118561268e-04 -3.160239793942309916e-05 8.905628346838057041e-04
2.064000000000000000e+03 1.714784812927246094e+01 6.379480361938476562e+00 -2.230971585959196091e-04 9.803115390241146088e-04 2.271643170388415456e-04 1.231233472935855389e-04
2.065000000000000000e+03 1.972556495666503906e+01 -9.630969047546386719e+00 7.028908133506774902e-01 4.627708792686462402e-01 3.496985137462615967e-01 7.222629785537719727e-01
2.066000000000000000e+03 7.615056610107421875e+01 -2.076052665710449219e+01 -1.771359704434871674e-03 -1.216186676174402237e-03 -8.962638676166534424e-04 -3.398377448320388794e-04
2.067000000000000000e+03 1.456384849548339844e+01 3.307847976684570312e+00 3.134271828457713127e-04 3.179061168339103460e-04 1.893999869935214520e-04 6.147747044451534748e-04
2.068000000000000000e+03 1.522030258178710938e+01 4.018296241760253906e+00 1.192749114125035703e-04 5.309139960445463657e-04 1.950566802406683564e-04 5.812824820168316364e-04
2.069000000000000000e+03 2.075104331970214844e+01 -1.007775402069091797e+01 7.662923336029052734e-01 2.446693778038024902e-01 3.032885193824768066e-01 5.689602494239807129e-01
2.070000000000000000e+03 1.593501377105712891e+01 4.007099628448486328e+00 -9.155948646366596222e-05 3.300153184682130814e-04 7.153674960136413574e-05 5.518992547877132893e-04
2.071000000000000000e+03 5.116635894775390625e+01 -1.377339076995849609e+01 2.581229686737060547e+00 6.064729690551757812e-01 9.563108086585998535e-01 1.565278172492980957e+00
2.072000000000000000e+03 5.195813369750976562e+01 -1.373873138427734375e+01 2.151719808578491211e+00 4.391665160655975342e-01 7.772659063339233398e-01 1.329281091690063477e+00
2.073000000000000000e+03 7.673822784423828125e+01 -2.024204826354980469e+01 -6.860737339593470097e-04 -6.956572760827839375e-04 -4.145193088334053755e-04 -9.793428471311926842e-04
2.074000000000000000e+03 4.388675308227539062e+01 -3.246272659301757812e+01 -7.663540840148925781e-01 6.691149711608886719e+00 1.777438640594482422e+00 -5.751499533653259277e-01
2.075000000000000000e+03 4.585955810546875000e+01 -2.818242454528808594e+01 1.390288710594177246e+00 8.247701644897460938e+00 2.891396999359130859e+00 -2.283754825592041016e+00
2.076000000000000000e+03 1.077814197540283203e+01 3.982486009597778320e+00 8.880062960088253021e-04 -4.510013968683779240e-04 1.311014639213681221e-04 6.512620020657777786e-04
2.077000000000000000e+03 7.673199462890625000e+01 -1.305332374572753906e+01 -7.892935723066329956e-02 -5.434955283999443054e-02 -3.998367115855216980e-02 -1.072849780321121216e-01
2.078000000000000000e+03 4.658813476562500000e+01 -6.710275173187255859e+00 -2.298991918563842773e+00 7.005457878112792969e-01 -4.795338213443756104e-01 1.944906115531921387e-01
2.079000000000000000e+03 4.614422988891601562e+01 -5.799228191375732422e+00 -3.266011714935302734e+00 5.515385270118713379e-01 -8.143419623374938965e-01 1.871958673000335693e-01
2.080000000000000000e+03 4.439393234252929688e+01 -5.973282337188720703e+00 -2.352298736572265625e+00 2.186454772949218750e+00 -4.975316300988197327e-02 -1.151165485382080078e+00
2.081000000000000000e+03 1.178295612335205078e+01 -3.906520128250122070e+00 -6.187898516654968262e-01 1.632981598377227783e-01 -1.366475075483322144e-01 -2.844311892986297607e-01
2.082000000000000000e+03 1.025892448425292969e+01 -3.239305257797241211e+00 -6.635354757308959961e-01 7.537716627120971680e-02 -1.764474958181381226e-01 -3.518350720405578613e-01
2.083000000000000000e+03 8.716147422790527344e+00 -3.251183032989501953e+00 -5.577821135520935059e-01 3.250586614012718201e-02 -1.575828790664672852e-01 -4.059252738952636719e-01
2.084000000000000000e+03 1.100446701049804688e+01 -3.918960571289062500e+00 -5.890771150588989258e-01 1.380107104778289795e-01 -1.353199332952499390e-01 -3.419605791568756104e-01
2.085000000000000000e+03 7.521859741210937500e+01 -1.307584762573242188e+01 -1.474885642528533936e-01 -2.307080291211605072e-02 -5.116780847311019897e-02 -1.397310942411422729e-01
2.086000000000000000e+03 5.482563018798828125e+01 -4.705699443817138672e+00 7.191157341003417969e-02 1.963843107223510742e+00 6.107264161109924316e-01 1.259307503700256348e+00
2.087000000000000000e+03 5.525214767456054688e+01 -4.137037277221679688e+00 4.251359403133392334e-01 1.987413167953491211e+00 7.237647175788879395e-01 1.282533288002014160e+00
2.088000000000000000e+03 5.352994155883789062e+01 -1.365521717071533203e+01 1.404240131378173828e+00 3.089731633663177490e-01 5.139639973640441895e-01 1.069074869155883789e+00
2.089000000000000000e+03 5.505041503906250000e+01 -1.355336093902587891e+01 7.684547305107116699e-01 2.478842288255691528e-01 3.049016892910003662e-01 8.393291831016540527e-01
2.090000000000000000e+03 1.412585639953613281e+01 -3.151270151138305664e+00 -7.969322204589843750e-01 1.526634842157363892e-01 -1.932806074619293213e-01 -5.983245000243186951e-02
2.091000000000000000e+03 1.569941043853759766e+01 -3.730856895446777344e+00 -6.469166874885559082e-01 2.408506274223327637e-01 -1.218198239803314209e-01 1.286698281764984131e-01
2.092000000000000000e+03 2.370410346984863281e+01 -1.922994852066040039e+00 -1.870876178145408630e-02 4.396974667906761169e-02 7.578295655548572540e-03 4.843812882900238037e-01
2.093000000000000000e+03 2.460393714904785156e+01 -3.183518648147583008e+00 1.385463625192642212e-01 4.676793888211250305e-02 5.559429153800010681e-02 7.323585748672485352e-01
2.094000000000000000e+03 6.386592864990234375e+01 1.084727001190185547e+01 5.210587978363037109e-01 4.253378391265869141e+00 1.432331204414367676e+00 5.859497785568237305e-01
2.095000000000000000e+03 7.823219299316406250e+01 -1.071319484710693359e+01 -2.772651240229606628e-02 -1.754639297723770142e-01 -6.095713376998901367e-02 -1.263391971588134766e-01
2.096000000000000000e+03 4.978768920898437500e+01 -1.296325683593750000e+01 2.202341556549072266e+00 1.575900793075561523e+00 1.133472681045532227e+00 1.994217395782470703e+00
2.097000000000000000e+03 1.412190151214599609e+01 -3.815889596939086914e+00 -6.640217304229736328e-01 2.225530594587326050e-01 -1.324405968189239502e-01 -5.405203998088836670e-02
2.098000000000000000e+03 3.486803817749023438e+01 5.511415004730224609e+00 9.095019102096557617e-01 1.511472892761230469e+01 4.807269096374511719e+00 -7.595689892768859863e-01
2.099000000000000000e+03 7.823364257812500000e+01 -9.152318000793457031e+00 -2.453528717160224915e-02 -2.896530628204345703e-01 -9.425650537014007568e-02 -1.694978624582290649e-01
2.100000000000000000e+03 7.813698577880859375e+01 -2.053015708923339844e+01 -2.090686029987409711e-04 7.709661149419844151e-04 1.685692550381645560e-04 -1.116150990128517151e-03
2.101000000000000000e+03 4.098490238189697266e+00 -3.324238300323486328e+00 -1.972068846225738525e-01 -1.194598004221916199e-01 -9.500000625848770142e-02 -3.308328986167907715e-01
2.102000000000000000e+03 4.820419788360595703e+00 -4.037124633789062500e+00 -2.140071541070938110e-01 -1.273902654647827148e-01 -1.024192199110984802e-01 -4.161645770072937012e-01
2.103000000000000000e+03 5.586756229400634766e+00 -4.014112949371337891e+00 -2.643594741821289062e-01 -9.114357084035873413e-02 -1.066509112715721130e-01 -4.443531632423400879e-01
2.104000000000000000e+03 6.360372543334960938e+00 -3.993285417556762695e+00 -3.160131871700286865e-01 -5.492623150348663330e-02 -1.112818270921707153e-01 -4.633394479751586914e-01
2.105000000000000000e+03 7.909259319305419922e+00 -3.956107139587402344e+00 -4.188252687454223633e-01 1.470085605978965759e-02 -1.212373226881027222e-01 -4.670950472354888916e-01
2.106000000000000000e+03 8.686165809631347656e+00 -3.944816350936889648e+00 -4.682435989379882812e-01 4.762507230043411255e-02 -1.261855661869049072e-01 -4.528959095478057861e-01
2.107000000000000000e+03 1.794135332107543945e+00 -7.341624259948730469e+00 -8.811897598206996918e-03 -6.086614727973937988e-01 -1.852420121431350708e-01 -2.856092453002929688e-01
2.108000000000000000e+03 2.586467266082763672e+00 -3.374750852584838867e+00 -9.541226178407669067e-02 -1.651027351617813110e-01 -7.815449684858322144e-02 -2.340013086795806885e-01
2.109000000000000000e+03 1.807453513145446777e+00 -4.962602138519287109e+00 -3.295066207647323608e-02 -3.268502056598663330e-01 -1.079402640461921692e-01 -2.370980381965637207e-01
2.110000000000000000e+03 7.742220306396484375e+01 -2.038643074035644531e+01 -6.768826860934495926e-04 8.764498488744720817e-05 -1.767713110893964767e-04 -1.211934373714029789e-03
2.111000000000000000e+03 1.100120925903320312e+01 -4.606003761291503906e+00 -4.828451573848724365e-01 1.879473328590393066e-01 -8.846934884786605835e-02 -3.680165708065032959e-01
2.112000000000000000e+03 1.728475189208984375e+01 -2.969038486480712891e+00 -7.064602971076965332e-01 1.685517132282257080e-01 -1.613725721836090088e-01 2.531213462352752686e-01
2.113000000000000000e+03 1.730278015136718750e+01 -3.634331703186035156e+00 -5.857765078544616699e-01 2.354090213775634766e-01 -1.051102355122566223e-01 3.038719892501831055e-01
2.114000000000000000e+03 1.256519412994384766e+01 -3.884727239608764648e+00 -6.410904526710510254e-01 1.855987012386322021e-01 -1.366475224494934082e-01 -2.135855704545974731e-01
2.115000000000000000e+03 7.053942871093750000e+01 -1.317358207702636719e+01 -4.574892818927764893e-01 1.226872056722640991e-01 -1.004406213760375977e-01 -5.811695754528045654e-02
2.116000000000000000e+03 6.849211120605468750e+01 -1.249927902221679688e+01 -7.993876338005065918e-01 1.667892485857009888e-01 -1.897795200347900391e-01 -3.015051409602165222e-02
2.117000000000000000e+03 6.223559570312500000e+01 6.975336551666259766e+00 8.495259881019592285e-01 4.362188816070556641e+00 1.563514471054077148e+00 1.307117462158203125e+00
2.118000000000000000e+03 5.782897949218750000e+01 -1.237016582489013672e+01 -2.049381434917449951e-01 4.167970716953277588e-01 6.355767697095870972e-02 6.162343025207519531e-01
2.119000000000000000e+03 1.334472274780273438e+01 -3.852797508239746094e+00 -6.561795473098754883e-01 2.050004154443740845e-01 -1.353537440299987793e-01 -1.390883624553680420e-01
2.120000000000000000e+03 6.052293014526367188e+01 1.106657624244689941e+00 8.315504789352416992e-01 2.601119518280029297e+00 1.029801011085510254e+00 1.245132923126220703e+00
2.121000000000000000e+03 4.277094650268554688e+01 1.652026176452636719e+01 6.524674296379089355e-01 2.712769746780395508e+00 1.009571194648742676e+00 1.303331494331359863e+00
2.122000000000000000e+03 6.350785446166992188e+01 1.419353199005126953e+01 3.003959953784942627e-01 4.645470142364501953e+00 1.483759880065917969e+00 1.537895649671554565e-01
2.123000000000000000e+03 6.427363586425781250e+01 1.479064941406250000e+01 4.175254702568054199e-01 4.059978008270263672e+00 1.343250989913940430e+00 8.996745944023132324e-02
2.124000000000000000e+03 7.676871490478515625e+01 -2.906135368347167969e+01 -9.639959782361984253e-03 -2.203374914824962616e-02 -9.502112865447998047e-03 2.762188017368316650e-02
2.125000000000000000e+03 7.815581512451171875e+01 -2.925054359436035156e+01 -3.327647456899285316e-03 -2.710387669503688812e-02 -9.129457175731658936e-03 1.801821030676364899e-02
2.126000000000000000e+03 7.695055389404296875e+01 -2.163280296325683594e+01 -2.385632134974002838e-03 -7.999035879038274288e-04 -9.556607110425829887e-04 9.863223385764285922e-05
2.127000000000000000e+03 7.806072998046875000e+01 -2.216449165344238281e+01 -1.138019142672419548e-03 2.531811478547751904e-04 -2.654513809829950333e-04 1.609768514754250646e-04
2.128000000000000000e+03 7.746085357666015625e+01 -2.529759216308593750e+01 -4.604162648320198059e-03 -5.663536954671144485e-03 -3.080309834331274033e-03 7.572807371616363525e-03
2.129000000000000000e+03 7.560533142089843750e+01 -2.204829597473144531e+01 -4.053131677210330963e-03 -2.122012898325920105e-03 -1.852543326094746590e-03 1.352280029095709324e-03
2.130000000000000000e+03 7.745839691162109375e+01 -2.762132644653320312e+01 -6.089593283832073212e-03 -1.529001723974943161e-02 -6.413883063942193985e-03 1.684672199189662933e-02
2.131000000000000000e+03 7.745130920410156250e+01 -2.607680130004882812e+01 -5.222330335527658463e-03 -8.280537091195583344e-03 -4.050860181450843811e-03 1.063357666134834290e-02
2.132000000000000000e+03 7.745102691650390625e+01 -2.685214614868164062e+01 -5.658356938511133194e-03 -1.126417890191078186e-02 -5.076760891824960709e-03 1.327382214367389679e-02
2.133000000000000000e+03 7.678399658203125000e+01 -2.301732254028320312e+01 -3.888945328071713448e-03 -2.145665232092142105e-03 -1.810383168049156666e-03 2.245957264676690102e-03
2.134000000000000000e+03 7.747607421875000000e+01 -2.452017593383789062e+01 -3.932015504688024521e-03 -3.738101338967680931e-03 -2.301034983247518539e-03 5.439888685941696167e-03
2.135000000000000000e+03 7.769860076904296875e+01 -3.565909576416015625e+01 2.536707324907183647e-03 -9.565833956003189087e-02 -2.793649025261402130e-02 3.476613387465476990e-02
2.136000000000000000e+03 7.726210784912109375e+01 -3.148540687561035156e+01 -5.059230141341686249e-03 -4.539944604039192200e-02 -1.513760350644588470e-02 3.414708375930786133e-02
2.137000000000000000e+03 7.708647155761718750e+01 -3.305944442749023438e+01 -3.902232740074396133e-03 -5.912419036030769348e-02 -1.890792697668075562e-02 4.014445468783378601e-02
2.138000000000000000e+03 7.691244506835937500e+01 -3.385617828369140625e+01 -2.325812587514519691e-03 -6.552875787019729614e-02 -2.035637199878692627e-02 4.413300007581710815e-02
2.139000000000000000e+03 7.633733367919921875e+01 -3.288115310668945312e+01 -5.807895213365554810e-03 -5.137839913368225098e-02 -1.715588755905628204e-02 4.659625887870788574e-02
2.140000000000000000e+03 7.808073425292968750e+01 -3.082401657104492188e+01 -2.993661444634199142e-03 -4.232808947563171387e-02 -1.359652448445558548e-02 2.378281950950622559e-02
2.141000000000000000e+03 7.734370422363281250e+01 -3.070393943786621094e+01 -5.798775237053632736e-03 -3.820379450917243958e-02 -1.320077013224363327e-02 3.131017088890075684e-02
2.142000000000000000e+03 7.661808776855468750e+01 -3.918104934692382812e+01 1.916409283876419067e-02 -1.153980642557144165e-01 -2.887019142508506775e-02 2.505264058709144592e-02
2.143000000000000000e+03 2.355936813354492188e+01 2.510255622863769531e+01 5.622390508651733398e-01 8.264383077621459961e-01 4.166032075881958008e-01 -1.049232959747314453e+00
2.144000000000000000e+03 2.357308197021484375e+01 2.370411872863769531e+01 5.627393126487731934e-01 4.983093142509460449e-01 3.183145821094512939e-01 -8.158875107765197754e-01
2.145000000000000000e+03 3.730478286743164062e+01 -1.847961807250976562e+01 1.075887918472290039e+00 9.497516632080078125e+00 3.172021389007568359e+00 -9.249815940856933594e-01
2.146000000000000000e+03 3.726572799682617188e+01 -1.761524963378906250e+01 1.087268114089965820e+00 9.562503814697265625e+00 3.194931507110595703e+00 -1.339571952819824219e+00
2.147000000000000000e+03 7.208372497558593750e+01 -1.313387393951416016e+01 -3.363167643547058105e-01 7.652918994426727295e-02 -7.793627679347991943e-02 -1.185228601098060608e-01
2.148000000000000000e+03 2.050296592712402344e+01 -2.580328226089477539e+00 -4.487795233726501465e-01 1.478081643581390381e-01 -9.029141068458557129e-02 4.628126323223114014e-01
2.149000000000000000e+03 2.482206535339355469e+01 -6.920704364776611328e+00 -3.049585521221160889e-01 3.199850916862487793e-01 4.507968667894601822e-03 8.270205855369567871e-01
2.150000000000000000e+03 3.809206008911132812e+01 6.250555992126464844e+00 9.947466850280761719e-01 1.496156406402587891e+01 4.786893367767333984e+00 -1.898425966501235962e-01
2.151000000000000000e+03 2.291014099121093750e+01 -2.108080387115478516e+00 -1.557398885488510132e-01 8.600509166717529297e-02 -2.092043682932853699e-02 4.969168603420257568e-01
2.152000000000000000e+03 2.376600265502929688e+01 -2.631254911422729492e+00 -1.034483575494959950e-04 6.690613180398941040e-02 2.004080452024936676e-02 6.062135696411132812e-01
2.153000000000000000e+03 2.217299652099609375e+01 -2.972734212875366211e+00 -2.195888012647628784e-01 1.415649801492691040e-01 -2.340714633464813232e-02 5.968129634857177734e-01
2.154000000000000000e+03 2.455257797241210938e+01 -2.461607456207275391e+00 1.503574550151824951e-01 1.668310910463333130e-02 5.011216923594474792e-02 6.005184650421142578e-01
2.155000000000000000e+03 4.157204437255859375e+01 1.419481468200683594e+01 7.901267409324645996e-01 3.873245239257812500e+00 1.399011611938476562e+00 1.579694390296936035e+00
2.156000000000000000e+03 2.055361366271972656e+01 -3.252692699432373047e+00 -3.778623640537261963e-01 1.923263072967529297e-01 -5.566081404685974121e-02 5.462729930877685547e-01
2.157000000000000000e+03 4.272090530395507812e+01 1.543337535858154297e+01 7.532188296318054199e-01 2.571059703826904297e+00 9.972835779190063477e-01 1.324783921241760254e+00
2.158000000000000000e+03 4.363630294799804688e+01 -5.706416606903076172e+00 -2.222311019897460938e+00 2.979901313781738281e+00 2.272770851850509644e-01 -1.703955292701721191e+00
2.159000000000000000e+03 6.707253265380859375e+01 -2.662611198425292969e+01 -9.469679743051528931e-02 1.750459149479866028e-02 -2.315766178071498871e-02 -1.291567552834749222e-02
2.160000000000000000e+03 4.321522521972656250e+01 -2.266794586181640625e+01 1.901182532310485840e+00 1.095172023773193359e+01 3.855870723724365234e+00 -8.883012533187866211e-01
2.161000000000000000e+03 4.413605880737304688e+01 -2.213086318969726562e+01 1.211733937263488770e+00 1.246557617187500000e+01 4.103193283081054688e+00 -9.688568711280822754e-01
2.162000000000000000e+03 4.299130630493164062e+01 -2.129355430603027344e+01 1.919679522514343262e+00 1.093507957458496094e+01 3.856427669525146484e+00 -3.666708469390869141e-01
2.163000000000000000e+03 4.357077789306640625e+01 -2.084633064270019531e+01 1.635334014892578125e+00 1.167856597900390625e+01 3.994170188903808594e+00 -2.836637385189533234e-02
2.164000000000000000e+03 4.355821228027343750e+01 -2.140044403076171875e+01 1.634743571281433105e+00 1.150675773620605469e+01 3.942450284957885742e+00 -3.747103214263916016e-01
2.165000000000000000e+03 7.825248718261718750e+01 7.760251045227050781e+00 2.698550373315811157e-02 -1.951688289642333984e+00 -5.774108171463012695e-01 -7.407673448324203491e-02
2.166000000000000000e+03 7.817522430419921875e+01 4.151647388935089111e-01 1.501041743904352188e-02 -1.354530811309814453e+00 -4.018561244010925293e-01 -2.433032542467117310e-01
2.167000000000000000e+03 7.821985626220703125e+01 3.640182113647460938e+01 -9.920003823935985565e-03 -4.340021312236785889e-02 -1.599606499075889587e-02 5.451092123985290527e-02
2.168000000000000000e+03 7.609226226806640625e+01 3.312938690185546875e+01 -6.309221684932708740e-02 3.809584677219390869e-02 -7.498911116272211075e-03 1.906903088092803955e-01
2.169000000000000000e+03 7.803672027587890625e+01 2.935367202758789062e+01 -1.766447164118289948e-02 -3.811711668968200684e-01 -1.196506917476654053e-01 1.801961958408355713e-01
2.170000000000000000e+03 7.659163665771484375e+01 2.602213096618652344e+01 -3.839388489723205566e-02 -3.951054215431213379e-01 -1.300497949123382568e-01 3.500550091266632080e-01
2.171000000000000000e+03 7.817840576171875000e+01 2.209408950805664062e+01 -6.400820711860433221e-05 -1.118657708168029785e+00 -3.356165289878845215e-01 2.447815388441085815e-01
2.172000000000000000e+03 7.677230072021484375e+01 1.896607971191406250e+01 3.659940510988235474e-02 -1.000919818878173828e+00 -2.892961204051971436e-01 3.506159782409667969e-01
2.173000000000000000e+03 7.823606872558593750e+01 1.493787670135498047e+01 2.482820488512516022e-02 -1.828094244003295898e+00 -5.409798026084899902e-01 1.381684690713882446e-01
2.174000000000000000e+03 7.755047607421875000e+01 1.178694725036621094e+01 5.343827605247497559e-02 -1.687585353851318359e+00 -4.902441203594207764e-01 6.372988969087600708e-02
2.175000000000000000e+03 7.815133666992187500e+01 2.071448564529418945e+00 1.834402605891227722e-02 -1.521540999412536621e+00 -4.509590864181518555e-01 -2.220125496387481689e-01
2.176000000000000000e+03 7.747306823730468750e+01 -5.183296203613281250e-01 1.735980808734893799e-02 -1.081030607223510742e+00 -3.191012442111968994e-01 -3.311337828636169434e-01
2.177000000000000000e+03 7.735292053222656250e+01 1.172403693199157715e+00 3.070069849491119385e-02 -1.217032313346862793e+00 -3.558994829654693604e-01 -3.128480017185211182e-01
2.178000000000000000e+03 7.741308593750000000e+01 3.152911663055419922e-01 2.772013098001480103e-02 -1.146881699562072754e+00 -3.357484638690948486e-01 -3.270689547061920166e-01
2.179000000000000000e+03 7.824392700195312500e+01 -6.782165527343750000e+00 -1.642496325075626373e-02 -5.163121819496154785e-01 -1.598211377859115601e-01 -2.219116240739822388e-01
2.180000000000000000e+03 7.825200653076171875e+01 9.358941078186035156e+00 2.773246727883815765e-02 -1.990024209022521973e+00 -5.886874794960021973e-01 -2.669725380837917328e-02
2.181000000000000000e+03 7.755657196044921875e+01 7.801666259765625000e+00 5.106987804174423218e-02 -1.678909659385681152e+00 -4.883519411087036133e-01 -9.469009190797805786e-02
2.182000000000000000e+03 7.751479339599609375e+01 4.590089797973632812e+00 4.457882791757583618e-02 -1.517585992813110352e+00 -4.419021606445312500e-01 -2.111740261316299438e-01
2.183000000000000000e+03 7.755092620849609375e+01 6.202010154724121094e+00 4.850929975509643555e-02 -1.618074655532836914e+00 -4.708696007728576660e-01 -1.540033519268035889e-01
2.184000000000000000e+03 7.755712127685546875e+01 -3.708161830902099609e+00 -4.654923919588327408e-03 -7.724922299385070801e-01 -2.331441491842269897e-01 -3.332113623619079590e-01
2.185000000000000000e+03 7.755795288085937500e+01 -4.496431827545166016e+00 -1.205180119723081589e-02 -6.904339790344238281e-01 -2.107457220554351807e-01 -3.282924294471740723e-01
2.186000000000000000e+03 7.754356384277343750e+01 -6.072268009185791016e+00 -2.526392601430416107e-02 -5.307232737541198730e-01 -1.667961627244949341e-01 -3.070464730262756348e-01
2.187000000000000000e+03 7.755306243896484375e+01 -5.284908294677734375e+00 -1.744794473052024841e-02 -6.094204187393188477e-01 -1.880605071783065796e-01 -3.186191618442535400e-01
2.188000000000000000e+03 7.753707885742187500e+01 5.404660701751708984e+00 4.552982747554779053e-02 -1.572970747947692871e+00 -4.582322835922241211e-01 -1.819541752338409424e-01
2.189000000000000000e+03 7.755545806884765625e+01 8.602936744689941406e+00 5.174549669027328491e-02 -1.695763707160949707e+00 -4.932054579257965088e-01 -6.450145691633224487e-02
2.190000000000000000e+03 7.755625152587890625e+01 6.997944355010986328e+00 4.879208654165267944e-02 -1.652782678604125977e+00 -4.811971485614776611e-01 -1.250744014978408813e-01
2.191000000000000000e+03 7.755147552490234375e+01 -2.921298265457153320e+00 -5.105998716317117214e-04 -8.538464903831481934e-01 -2.563071250915527344e-01 -3.362662792205810547e-01
2.192000000000000000e+03 7.751262664794921875e+01 -1.331194639205932617e+00 1.031351648271083832e-02 -1.010581254959106445e+00 -3.000803291797637939e-01 -3.338340222835540771e-01
2.193000000000000000e+03 7.824659729003906250e+01 1.255032539367675781e+01 2.731952816247940063e-02 -1.952706933021545410e+00 -5.776162147521972656e-01 7.156004756689071655e-02
2.194000000000000000e+03 7.753787994384765625e+01 -2.131063461303710938e+00 6.338776089251041412e-03 -9.335592985153198242e-01 -2.781661748886108398e-01 -3.359770178794860840e-01
2.195000000000000000e+03 7.754501342773437500e+01 1.337465953826904297e+01 5.007424950599670410e-02 -1.635300636291503906e+00 -4.755679368972778320e-01 1.256636083126068115e-01
2.196000000000000000e+03 7.822556304931640625e+01 1.653120803833007812e+01 2.054845727980136871e-02 -1.704706192016601562e+00 -5.052472949028015137e-01 1.767278015613555908e-01
2.197000000000000000e+03 7.753318786621093750e+01 1.496246528625488281e+01 4.477178677916526794e-02 -1.551435708999633789e+00 -4.519991874694824219e-01 1.829788982868194580e-01
2.198000000000000000e+03 7.754831695556640625e+01 1.258510684967041016e+01 5.217674374580383301e-02 -1.665545940399169922e+00 -4.840107560157775879e-01 9.478596597909927368e-02
2.199000000000000000e+03 7.748786163330078125e+01 1.893964195251464844e+01 2.321552857756614685e-02 -1.233913540840148926e+00 -3.632094264030456543e-01 2.892036139965057373e-01
2.200000000000000000e+03 7.753990936279296875e+01 1.416544818878173828e+01 4.785686358809471130e-02 -1.597692370414733887e+00 -4.649506509304046631e-01 1.540767550468444824e-01
2.201000000000000000e+03 7.750923156738281250e+01 -9.996769905090332031e+00 -4.950933158397674561e-02 -2.079588621854782104e-01 -7.724045962095260620e-02 -1.957751810550689697e-01
2.202000000000000000e+03 7.815659332275390625e+01 2.367765808105468750e+01 -5.584972444921731949e-03 -9.373874664306640625e-01 -2.828917205333709717e-01 2.424392700195312500e-01
2.203000000000000000e+03 7.745262145996093750e+01 2.209333610534667969e+01 -1.208505709655582905e-03 -9.265626668930053711e-01 -2.783313691616058350e-01 3.188434243202209473e-01
2.204000000000000000e+03 7.819879150390625000e+01 1.972024726867675781e+01 9.091558866202831268e-03 -1.387108922004699707e+00 -4.134052097797393799e-01 2.304130196571350098e-01
2.205000000000000000e+03 7.677822113037109375e+01 -1.006039047241210938e+01 -7.987064123153686523e-02 -1.780351698398590088e-01 -7.737174630165100098e-02 -2.370241135358810425e-01
2.206000000000000000e+03 7.746736145019531250e+01 2.052510452270507812e+01 1.120066270232200623e-02 -1.081671476364135742e+00 -3.211412429809570312e-01 3.119775950908660889e-01
2.207000000000000000e+03 7.733384704589843750e+01 2.605988502502441406e+01 -2.537300251424312592e-02 -5.368433594703674316e-01 -1.686649173498153687e-01 2.923123538494110107e-01
2.208000000000000000e+03 7.745860290527343750e+01 2.130978393554687500e+01 4.830027930438518524e-03 -1.003182053565979004e+00 -2.995056211948394775e-01 3.185213208198547363e-01
2.209000000000000000e+03 7.751161193847656250e+01 -9.219910621643066406e+00 -4.691596701741218567e-02 -2.606648206710815430e-01 -9.227423369884490967e-02 -2.237491309642791748e-01
2.210000000000000000e+03 7.823299407958984375e+01 -9.934900283813476562e+00 -2.652886137366294861e-02 -2.286890447139739990e-01 -7.656536996364593506e-02 -1.488187462091445923e-01
2.211000000000000000e+03 7.747754669189453125e+01 1.973651885986328125e+01 1.776553504168987274e-02 -1.158180475234985352e+00 -3.421244919300079346e-01 3.031339347362518311e-01
2.212000000000000000e+03 7.798789978027343750e+01 3.092958450317382812e+01 -2.260296046733856201e-02 -2.637105286121368408e-01 -8.589404076337814331e-02 1.474173963069915771e-01
2.213000000000000000e+03 7.726220703125000000e+01 2.943318557739257812e+01 -3.516254574060440063e-02 -2.669852674007415771e-01 -9.064434468746185303e-02 2.321932464838027954e-01
2.214000000000000000e+03 7.675216674804687500e+01 -1.231528186798095703e+01 -8.147695660591125488e-02 -7.761096209287643433e-02 -4.772637784481048584e-02 -1.372891515493392944e-01
2.215000000000000000e+03 7.805393981933593750e+01 2.690793800354003906e+01 -1.599795185029506683e-02 -5.883772969245910645e-01 -1.813125759363174438e-01 2.152298092842102051e-01
2.216000000000000000e+03 7.723278808593750000e+01 2.774654197692871094e+01 -3.138805180788040161e-02 -3.845440149307250977e-01 -1.247796192765235901e-01 2.693527340888977051e-01
2.217000000000000000e+03 7.785940551757812500e+01 3.337137603759765625e+01 -2.258953452110290527e-02 -1.149294748902320862e-01 -4.125570505857467651e-02 1.104822531342506409e-01
2.218000000000000000e+03 7.696958923339843750e+01 3.332548904418945312e+01 -3.921700641512870789e-02 -4.423578828573226929e-02 -2.503583766520023346e-02 1.509834080934524536e-01
2.219000000000000000e+03 7.717709350585937500e+01 2.863924407958984375e+01 -3.565382212400436401e-02 -3.112951815128326416e-01 -1.040847003459930420e-01 2.561054527759552002e-01
2.220000000000000000e+03 7.728495788574218750e+01 2.689187431335449219e+01 -2.980990894138813019e-02 -4.584950208663940430e-01 -1.464914828538894653e-01 2.829197943210601807e-01
2.221000000000000000e+03 7.783206939697265625e+01 3.428382110595703125e+01 -2.025110460817813873e-02 -7.999823242425918579e-02 -3.007480129599571228e-02 9.819404780864715576e-02
2.222000000000000000e+03 7.753748321533203125e+01 3.559636688232421875e+01 -2.337246760725975037e-02 -1.355382800102233887e-02 -1.107788924127817154e-02 8.650495857000350952e-02
2.223000000000000000e+03 7.751082611083984375e+01 3.643975067138671875e+01 -1.845667138695716858e-02 1.208322495222091675e-02 -1.912033767439424992e-03 7.327976822853088379e-02
2.224000000000000000e+03 7.682386779785156250e+01 3.435305786132812500e+01 -3.901766985654830933e-02 8.263720199465751648e-03 -9.226185269653797150e-03 1.315711736679077148e-01
2.225000000000000000e+03 1.164981174468994141e+01 1.620842933654785156e+01 -2.727469801902770996e-02 -4.951057955622673035e-03 -9.667727164924144745e-03 -1.746350713074207306e-02
2.226000000000000000e+03 3.350119400024414062e+01 1.429826068878173828e+01 1.130649566650390625e+00 1.220357227325439453e+01 4.000266551971435547e+00 -2.608957767486572266e+00
2.227000000000000000e+03 3.229189682006835938e+01 1.565951156616210938e+01 1.309376358985900879e+00 1.199210166931152344e+01 3.990443229675292969e+00 -3.552498102188110352e+00
2.228000000000000000e+03 4.633088684082031250e+01 1.868070602416992188e+01 2.344597578048706055e-01 9.092968702316284180e-01 3.431269824504852295e-01 6.272092461585998535e-01
2.229000000000000000e+03 4.464516067504882812e+01 1.913646125793457031e+01 3.634519279003143311e-01 1.837146997451782227e+00 6.601796746253967285e-01 1.050496816635131836e+00
2.230000000000000000e+03 1.959307861328125000e+01 2.460938262939453125e+01 6.951036304235458374e-02 9.188962727785110474e-02 4.841999709606170654e-02 -2.528330683708190918e-01
2.231000000000000000e+03 1.223756885528564453e+01 -1.896518516540527344e+01 6.047248840332031250e-01 2.172620534896850586e+00 8.332036137580871582e-01 -2.021137624979019165e-02
2.232000000000000000e+03 3.425918960571289062e+01 1.107632923126220703e+01 8.678514957427978516e-01 1.374251651763916016e+01 4.383110523223876953e+00 -2.401425361633300781e+00
2.233000000000000000e+03 3.437916564941406250e+01 1.028223228454589844e+01 8.053308129310607910e-01 1.407441997528076172e+01 4.463925361633300781e+00 -2.255396366119384766e+00
2.234000000000000000e+03 1.491423416137695312e+01 -2.265512657165527344e+01 4.575197994709014893e-01 2.480775594711303711e+00 8.814886212348937988e-01 -9.200738668441772461e-01
2.235000000000000000e+03 4.693393707275390625e+01 1.922875022888183594e+01 1.148082017898559570e-01 8.027529716491699219e-01 2.752683460712432861e-01 5.585954785346984863e-01
2.236000000000000000e+03 1.490497207641601562e+01 -3.775711774826049805e+00 -6.600645780563354492e-01 2.351187765598297119e-01 -1.274837404489517212e-01 3.322355076670646667e-02
2.237000000000000000e+03 1.650031852722167969e+01 -3.684434652328491211e+00 -6.203781366348266602e-01 2.397519350051879883e-01 -1.141878589987754822e-01 2.164882123470306396e-01
2.238000000000000000e+03 2.770986366271972656e+01 -1.713617086410522461e+00 8.953072428703308105e-01 4.779742285609245300e-02 2.829313874244689941e-01 5.620731711387634277e-01
2.239000000000000000e+03 3.749385356903076172e+00 3.710289001464843750e+01 1.089831721037626266e-02 -2.014837563037872314e-01 -5.717563256621360779e-02 3.818334266543388367e-02
2.240000000000000000e+03 1.802413344383239746e+00 -1.621576499938964844e+01 4.267085716128349304e-02 -1.502932310104370117e+00 -4.380784332752227783e-01 -9.103510528802871704e-02
2.241000000000000000e+03 2.505965471267700195e+00 -1.454768562316894531e+01 6.842793524265289307e-02 -1.195266604423522949e+00 -3.380515873432159424e-01 -2.050534784793853760e-01
2.242000000000000000e+03 2.559520006179809570e+00 -2.098385620117187500e+01 5.632754787802696228e-02 -1.254987239837646484e+00 -3.595978915691375732e-01 1.169373393058776855e-01
2.243000000000000000e+03 1.937826395034790039e+00 -2.983256149291992188e+01 -1.494430657476186752e-02 -8.921419978141784668e-01 -2.721258699893951416e-01 1.583423316478729248e-01
2.244000000000000000e+03 2.645920991897583008e+00 -2.816247749328613281e+01 -1.270623132586479187e-02 -8.589307665824890137e-01 -2.614910900592803955e-01 2.213938236236572266e-01
2.245000000000000000e+03 2.626598834991455078e+00 -2.578127861022949219e+01 4.147773142904043198e-03 -1.002003312110900879e+00 -2.993566691875457764e-01 2.267637848854064941e-01
2.246000000000000000e+03 2.502666473388671875e+00 -1.374593353271484375e+01 6.333345919847488403e-02 -1.145425319671630859e+00 -3.246275484561920166e-01 -2.416756451129913330e-01
2.247000000000000000e+03 3.267651796340942383e+00 -3.581996917724609375e+01 -4.141525179147720337e-02 -4.636393189430236816e-01 -1.515163630247116089e-01 1.070049852132797241e-01
2.248000000000000000e+03 1.812422275543212891e+00 1.876384353637695312e+01 -5.302848294377326965e-03 -1.649663411080837250e-02 -6.539844442158937454e-03 1.652106828987598419e-02
2.249000000000000000e+03 2.551501274108886719e+00 2.033689308166503906e+01 -9.976009838283061981e-03 -2.887047268450260162e-02 -1.165394484996795654e-02 3.302202746272087097e-02
2.250000000000000000e+03 1.821890711784362793e+00 1.232637310028076172e+01 -8.652195683680474758e-04 3.341549308970570564e-03 7.428989629261195660e-04 -5.515771917998790741e-04
2.251000000000000000e+03 2.512901067733764648e+00 1.474401569366455078e+01 -3.808375913649797440e-03 -6.271562888287007809e-04 -1.330659608356654644e-03 3.781761508435010910e-03
2.252000000000000000e+03 1.892099618911743164e+00 9.877386093139648438e+00 8.227054058806970716e-05 2.822954440489411354e-03 8.715675212442874908e-04 -1.510816509835422039e-03
2.253000000000000000e+03 2.680550575256347656e+00 9.861610412597656250e+00 -2.908056194428354502e-04 1.426850678399205208e-03 3.408135380595922470e-04 -1.602389267645776272e-03
2.254000000000000000e+03 2.525813102722167969e+00 1.875145149230957031e+01 -8.528835140168666840e-03 -1.593222655355930328e-02 -7.338318973779678345e-03 2.177595347166061401e-02
2.255000000000000000e+03 1.817031264305114746e+00 1.956408119201660156e+01 -5.054043140262365341e-03 -2.380560711026191711e-02 -8.657895028591156006e-03 2.080832235515117645e-02
2.256000000000000000e+03 2.537973165512084961e+00 1.954671287536621094e+01 -1.035928819328546524e-02 -2.155159413814544678e-02 -9.573264978826045990e-03 2.708786912262439728e-02
2.257000000000000000e+03 3.262079715728759766e+00 1.952376747131347656e+01 -1.471677329391241074e-02 -1.801477000117301941e-02 -9.819462895393371582e-03 3.235153481364250183e-02
2.258000000000000000e+03 3.348326206207275391e+00 1.074286365509033203e+01 -9.197741746902465820e-04 1.672461512498557568e-04 -2.257583983009681106e-04 -1.341933151707053185e-03
2.259000000000000000e+03 2.510390520095825195e+00 1.634904670715332031e+01 -5.967117380350828171e-03 -4.249345976859331131e-03 -3.064938820898532867e-03 9.012268856167793274e-03
2.260000000000000000e+03 1.805053353309631348e+00 1.555004596710205078e+01 -2.740300958976149559e-03 -3.794937510974705219e-04 -9.359383839182555676e-04 4.399901721626520157e-03
2.261000000000000000e+03 2.709277391433715820e+00 9.032334327697753906e+00 1.870895794127136469e-04 1.238939468748867512e-03 4.278087290003895760e-04 -1.746116904541850090e-03
2.262000000000000000e+03 2.500782251358032227e+00 -8.088202476501464844e+00 -3.910798579454421997e-03 -6.154925823211669922e-01 -1.858210116624832153e-01 -3.731604814529418945e-01
2.263000000000000000e+03 1.789158344268798828e+00 -8.955844879150390625e+00 5.116414278745651245e-03 -8.156408667564392090e-01 -2.431573420763015747e-01 -2.884787023067474365e-01
2.264000000000000000e+03 3.178151369094848633e+00 -9.666832923889160156e+00 2.998363971710205078e-02 -6.668382287025451660e-01 -1.910563707351684570e-01 -4.287954270839691162e-01
2.265000000000000000e+03 1.810431599617004395e+00 -1.782768440246582031e+01 4.198044538497924805e-02 -1.544076204299926758e+00 -4.506287276744842529e-01 -2.401492372155189514e-02
2.266000000000000000e+03 2.516026973724365234e+00 -1.615803337097167969e+01 7.520169764757156372e-02 -1.267793774604797363e+00 -3.577776253223419189e-01 -1.218513995409011841e-01
2.267000000000000000e+03 3.241868495941162109e+00 -1.773157691955566406e+01 1.170501932501792908e-01 -1.075875043869018555e+00 -2.876474857330322266e-01 -4.511403664946556091e-02
2.268000000000000000e+03 2.677842378616333008e+00 7.388427257537841797e+00 3.966571821365505457e-04 1.024470315314829350e-03 4.263382288627326488e-04 -1.621591974981129169e-03
2.269000000000000000e+03 1.885329961776733398e+00 2.598653221130371094e+01 -1.980752917006611824e-03 -1.335316896438598633e-01 -4.065373167395591736e-02 5.300485715270042419e-02
2.270000000000000000e+03 2.685158729553222656e+00 2.757665252685546875e+01 -1.476357923820614815e-03 -1.440690159797668457e-01 -4.366361349821090698e-02 7.328912615776062012e-02
2.271000000000000000e+03 2.488100528717041016e+00 -9.710785865783691406e+00 1.982548460364341736e-02 -7.883523106575012207e-01 -2.305580526590347290e-01 -3.631125092506408691e-01
2.272000000000000000e+03 2.490132808685302734e+00 -1.052083683013916016e+01 3.135834261775016785e-02 -8.711861968040466309e-01 -2.519483566284179688e-01 -3.490094542503356934e-01
2.273000000000000000e+03 2.491568326950073242e+00 -8.898373603820800781e+00 9.304657578468322754e-03 -7.031738162040710449e-01 -2.081607580184936523e-01 -3.708808422088623047e-01
2.274000000000000000e+03 2.522117614746093750e+00 -1.696624946594238281e+01 7.722014933824539185e-02 -1.290356159210205078e+00 -3.639407753944396973e-01 -7.833487540483474731e-02
2.275000000000000000e+03 2.510557174682617188e+00 -1.535117149353027344e+01 7.443124055862426758e-02 -1.237158775329589844e+00 -3.488182723522186279e-01 -1.642294228076934814e-01
2.276000000000000000e+03 4.037023067474365234e+00 -4.823023319244384766e+00 -1.332996487617492676e-01 -2.100772261619567871e-01 -1.030130609869956970e-01 -4.184699058532714844e-01
2.277000000000000000e+03 3.659930229187011719e+00 2.914737892150878906e+01 6.765475962311029434e-03 -1.351369023323059082e-01 -3.851142898201942444e-02 8.824036270380020142e-02
2.278000000000000000e+03 2.615467786788940430e+00 2.354014205932617188e+01 -8.787808008491992950e-03 -7.063146680593490601e-02 -2.382578141987323761e-02 5.673570930957794189e-02
2.279000000000000000e+03 2.646759510040283203e+00 2.676461982727050781e+01 -1.883791643194854259e-03 -1.290876716375350952e-01 -3.929143771529197693e-02 7.102631777524948120e-02
2.280000000000000000e+03 2.622127294540405273e+00 2.515326118469238281e+01 -5.819754675030708313e-03 -9.882462024688720703e-02 -3.139331191778182983e-02 6.539235264062881470e-02
2.281000000000000000e+03 2.628526210784912109e+00 2.595919799804687500e+01 -5.541632883250713348e-03 -1.135095581412315369e-01 -3.571535646915435791e-02 6.905587762594223022e-02
2.282000000000000000e+03 1.801146388053894043e+00 -5.750270843505859375e+00 -2.445559017360210419e-02 -4.149532318115234375e-01 -1.318226456642150879e-01 -2.596701979637145996e-01
2.283000000000000000e+03 1.797214508056640625e+00 -6.543036460876464844e+00 -1.561963558197021484e-02 -5.094954967498779297e-01 -1.575345396995544434e-01 -2.749884426593780518e-01
2.284000000000000000e+03 1.867533683776855469e+00 -2.425452995300292969e+01 1.252769678831100464e-02 -1.302251458168029785e+00 -3.869171440601348877e-01 1.655211001634597778e-01
2.285000000000000000e+03 2.586591005325317383e+00 -2.258611297607421875e+01 4.096846655011177063e-02 -1.184950232505798340e+00 -3.431945145130157471e-01 1.735906898975372314e-01
2.286000000000000000e+03 3.256918668746948242e+00 -6.436654090881347656e+00 -4.842168837785720825e-02 -3.826269507408142090e-01 -1.293145865201950073e-01 -4.209553897380828857e-01
2.287000000000000000e+03 1.861142396926879883e+00 2.357138252258300781e+01 -5.393572617322206497e-03 -8.240135759115219116e-02 -2.633847855031490326e-02 4.368228837847709656e-02
2.288000000000000000e+03 5.204186916351318359e+00 3.335485458374023438e+00 9.473518002778291702e-04 -2.756641770247370005e-04 2.015062927966937423e-04 -8.448024746030569077e-04
2.289000000000000000e+03 3.585642099380493164e+00 3.365957498550415039e+00 6.289723678492009640e-04 1.125074704759754241e-04 2.224439522251486778e-04 -9.406313183717429638e-04
2.290000000000000000e+03 2.678358316421508789e+00 6.573546886444091797e+00 2.062254061456769705e-04 9.023276506923139095e-04 3.325659199617803097e-04 -1.458992133848369122e-03
2.291000000000000000e+03 1.852947473526000977e+00 2.276897048950195312e+01 -5.126823671162128448e-03 -6.779374927282333374e-02 -2.187617309391498566e-02 3.929639607667922974e-02
2.292000000000000000e+03 2.583662271499633789e+00 2.193092918395996094e+01 -1.023866236209869385e-02 -4.703841730952262878e-02 -1.718312315642833710e-02 4.534531384706497192e-02
2.293000000000000000e+03 2.601405382156372070e+00 -2.339010810852050781e+01 3.315811976790428162e-02 -1.142526507377624512e+00 -3.328105211257934570e-01 1.945435106754302979e-01
2.294000000000000000e+03 1.879286170005798340e+00 -2.585148239135742188e+01 3.149372059851884842e-03 -1.185537219047546387e+00 -3.547163605690002441e-01 1.775566488504409790e-01
2.295000000000000000e+03 3.342402935028076172e+00 -2.333266067504882812e+01 5.047747865319252014e-02 -9.316788911819458008e-01 -2.643604278564453125e-01 2.279642075300216675e-01
2.296000000000000000e+03 1.885475516319274902e+00 -2.664947700500488281e+01 -2.308126306161284447e-03 -1.125734567642211914e+00 -3.384128212928771973e-01 1.785314828157424927e-01
2.297000000000000000e+03 2.636281013488769531e+00 -2.737017250061035156e+01 -9.687013924121856689e-03 -9.059925079345703125e-01 -2.747038602828979492e-01 2.250213325023651123e-01
2.298000000000000000e+03 2.629951477050781250e+00 -2.657521438598632812e+01 -7.270071655511856079e-04 -9.535405039787292480e-01 -2.862802445888519287e-01 2.281831353902816772e-01
2.299000000000000000e+03 2.031286716461181641e+00 -3.142559623718261719e+01 -1.962404698133468628e-02 -7.836669683456420898e-01 -2.409873008728027344e-01 1.414747387170791626e-01
2.300000000000000000e+03 2.682401180267333984e+00 -2.972503662109375000e+01 -2.142343856394290924e-02 -7.665091753005981445e-01 -2.363797873258590698e-01 2.043736726045608521e-01
2.301000000000000000e+03 2.633140802383422852e+00 3.458184432983398438e+01 6.532249040901660919e-03 -2.629610002040863037e-01 -7.692862302064895630e-02 4.722135141491889954e-02
2.302000000000000000e+03 3.466099977493286133e+00 -3.036431121826171875e+01 -3.958709910511970520e-02 -5.970603227615356445e-01 -1.909942328929901123e-01 2.271382808685302734e-01
2.303000000000000000e+03 2.657640933990478516e+00 -2.894624900817871094e+01 -2.107315883040428162e-02 -8.126753568649291992e-01 -2.501245439052581787e-01 2.122275382280349731e-01
2.304000000000000000e+03 3.024859666824340820e+00 -3.289486312866210938e+01 -3.137829899787902832e-02 -5.800370573997497559e-01 -1.834246069192886353e-01 1.624319106340408325e-01
2.305000000000000000e+03 2.680520772933959961e+00 3.098712348937988281e+01 4.054300952702760696e-03 -2.093405723571777344e-01 -6.158588081598281860e-02 6.476048380136489868e-02
2.306000000000000000e+03 2.807467699050903320e+00 3.248962402343750000e+01 5.805061664432287216e-03 -2.270098179578781128e-01 -6.636142730712890625e-02 6.099801883101463318e-02
2.307000000000000000e+03 2.683958292007446289e+00 3.329952621459960938e+01 6.996034178882837296e-03 -2.476755678653717041e-01 -7.220385968685150146e-02 5.386831983923912048e-02
2.308000000000000000e+03 3.125362157821655273e+00 3.419555282592773438e+01 6.544874049723148346e-03 -2.293868362903594971e-01 -6.685259193181991577e-02 5.563626810908317566e-02
2.309000000000000000e+03 3.184726715087890625e+00 -3.471116256713867188e+01 -3.563294932246208191e-02 -5.037928819656372070e-01 -1.618277430534362793e-01 1.333645582199096680e-01
2.310000000000000000e+03 2.856724739074707031e+00 2.929876327514648438e+01 3.614974208176136017e-03 -1.717723608016967773e-01 -5.044721812009811401e-02 7.561152428388595581e-02
2.311000000000000000e+03 3.103929996490478516e+00 -3.376405715942382812e+01 -3.954540938138961792e-02 -5.400537252426147461e-01 -1.738797426223754883e-01 1.455612033605575562e-01
2.312000000000000000e+03 1.949967741966247559e+00 3.092469978332519531e+01 5.734971258789300919e-03 -2.438645064830780029e-01 -7.143886387348175049e-02 5.193711072206497192e-02
2.313000000000000000e+03 6.722509002685546875e+01 -1.157325077056884766e+01 -1.086806058883666992e+00 1.380265206098556519e-01 -2.846338748931884766e-01 -1.723341792821884155e-01
2.314000000000000000e+03 6.087407684326171875e+01 2.853069305419921875e+00 8.947228789329528809e-01 3.135832548141479492e+00 1.209166646003723145e+00 1.344000697135925293e+00
2.315000000000000000e+03 6.345359420776367188e+01 1.341429424285888672e+01 3.258241713047027588e-01 4.658824920654296875e+00 1.495394706726074219e+00 2.756412327289581299e-01
2.316000000000000000e+03 6.420436096191406250e+01 1.401980495452880859e+01 4.008581638336181641e-01 4.124387264251708984e+00 1.357573628425598145e+00 2.037858366966247559e-01
2.317000000000000000e+03 3.301823806762695312e+01 1.334162807464599609e+01 1.216807723045349121e+00 1.343695354461669922e+01 4.396128177642822266e+00 -3.079649686813354492e+00
2.318000000000000000e+03 3.036226511001586914e+00 -3.850081634521484375e+01 -3.316454216837882996e-02 -4.420519173145294189e-01 -1.425649374723434448e-01 4.676210507750511169e-02
2.319000000000000000e+03 4.159246444702148438e+00 -3.754046630859375000e+01 -5.288771539926528931e-02 -3.436103165149688721e-01 -1.189494132995605469e-01 8.864533901214599609e-02
2.320000000000000000e+03 3.312228775024414062e+01 -8.343540191650390625e+00 -2.036219596862792969e+00 5.182573795318603516e+00 9.439061284065246582e-01 -1.138941645622253418e+00
2.321000000000000000e+03 5.947314071655273438e+01 8.122376799583435059e-01 9.705616235733032227e-01 2.565334558486938477e+00 1.060768842697143555e+00 1.482271194458007812e+00
2.322000000000000000e+03 5.751768112182617188e+01 -7.461987137794494629e-01 1.254393815994262695e+00 2.400921106338500977e+00 1.096594452857971191e+00 1.543970823287963867e+00
2.323000000000000000e+03 3.450255584716796875e+01 -2.809441184997558594e+01 5.483683943748474121e-01 4.625661373138427734e+00 1.552209019660949707e+00 1.664477109909057617e+00
2.324000000000000000e+03 3.418794250488281250e+01 1.697641372680664062e+01 1.225933074951171875e+00 9.630531311035156250e+00 3.256939411163330078e+00 -1.711559057235717773e+00
2.325000000000000000e+03 3.193931770324707031e+01 2.024744033813476562e+01 1.773316621780395508e+00 7.951377391815185547e+00 2.917408227920532227e+00 -2.091033935546875000e+00
2.326000000000000000e+03 5.579007339477539062e+01 -1.288575839996337891e+01 4.081971049308776855e-01 3.576097488403320312e-01 2.297420650720596313e-01 9.309133887290954590e-01
2.327000000000000000e+03 4.511526107788085938e+01 1.763072013854980469e+01 4.526560306549072266e-01 1.234984040260314941e+00 5.062920451164245605e-01 8.226307630538940430e-01
2.328000000000000000e+03 4.398017501831054688e+01 1.762401008605957031e+01 5.320384502410888672e-01 1.953565955162048340e+00 7.456812858581542969e-01 1.102536320686340332e+00
2.329000000000000000e+03 6.583937835693359375e+01 -2.779505538940429688e+01 -1.510714888572692871e-01 2.662865258753299713e-02 -3.733285143971443176e-02 -1.335829682648181915e-02
2.330000000000000000e+03 6.041307830810546875e+01 2.153928041458129883e+00 9.057902693748474121e-01 2.922425031661987305e+00 1.148464560508728027e+00 1.412919759750366211e+00
2.331000000000000000e+03 5.577524566650390625e+01 -3.718458414077758789e+00 5.385532975196838379e-01 2.034544944763183594e+00 7.719294428825378418e-01 1.308853507041931152e+00
2.332000000000000000e+03 1.150790691375732422e+01 -1.888125610351562500e+01 6.178271174430847168e-01 1.765968799591064453e+00 7.151387333869934082e-01 3.789720684289932251e-02
2.333000000000000000e+03 5.753454971313476562e+01 -1.808126807212829590e+00 1.011874794960021973e+00 2.217991352081298828e+00 9.689598679542541504e-01 1.330806970596313477e+00
2.334000000000000000e+03 6.175274276733398438e+01 4.338706970214843750e+00 9.751997590065002441e-01 3.512677669525146484e+00 1.346363306045532227e+00 1.182389378547668457e+00
2.335000000000000000e+03 4.783467483520507812e+01 -7.819348812103271484e+00 -1.237691760063171387e+00 6.347824335098266602e-01 -1.808727979660034180e-01 9.206444025039672852e-01
2.336000000000000000e+03 3.251360321044921875e+01 -7.646253585815429688e+00 -1.854933023452758789e+00 4.107159137725830078e+00 6.756678223609924316e-01 -1.048775434494018555e+00
2.337000000000000000e+03 1.416828441619873047e+01 -1.392635631561279297e+01 9.312950372695922852e-01 2.378493547439575195e+00 9.929365515708923340e-01 6.241959929466247559e-01
2.338000000000000000e+03 1.920023345947265625e+01 4.209273338317871094e+00 5.027529550716280937e-05 3.371046914253383875e-04 1.162139888037927449e-04 5.200898885959759355e-05
2.339000000000000000e+03 6.221364593505859375e+01 -3.171000289916992188e+01 -2.583494186401367188e-01 4.934569820761680603e-02 -6.270111352205276489e-02 1.148731783032417297e-01
2.340000000000000000e+03 6.307503890991210938e+01 -2.982329750061035156e+01 -3.120301663875579834e-01 3.044167719781398773e-02 -8.447654545307159424e-02 1.590036414563655853e-02
2.341000000000000000e+03 3.458747100830078125e+01 8.690744400024414062e+00 9.671400189399719238e-01 1.454635143280029297e+01 4.654047489166259766e+00 -1.921614885330200195e+00
2.342000000000000000e+03 3.908893966674804688e+01 1.054084587097167969e+01 7.092998027801513672e-01 1.005949687957763672e+01 3.230639219284057617e+00 1.161053299903869629e+00
2.343000000000000000e+03 3.613095474243164062e+01 6.450238704681396484e+00 1.261884212493896484e+00 1.446543025970458984e+01 4.718194484710693359e+00 -9.847048521041870117e-01
2.344000000000000000e+03 5.711843872070312500e+01 -1.258088111877441406e+01 -2.244930341839790344e-02 3.948851525783538818e-01 1.117307543754577637e-01 7.303177118301391602e-01
2.345000000000000000e+03 5.645383453369140625e+01 -1.277390193939208984e+01 1.918855011463165283e-01 3.807936012744903564e-01 1.718037277460098267e-01 8.195101618766784668e-01
2.346000000000000000e+03 3.759797668457031250e+01 1.352861213684082031e+01 5.468301773071289062e-01 9.197882652282714844e+00 2.923413753509521484e+00 2.521726116538047791e-02
2.347000000000000000e+03 7.670098781585693359e+00 3.312559843063354492e+00 1.068511395715177059e-03 -5.776172038167715073e-04 1.472682633902877569e-04 -2.004665439017117023e-04
2.348000000000000000e+03 5.277869415283203125e+01 2.235610771179199219e+01 -5.508579015731811523e-01 1.054147183895111084e-01 -1.336329579353332520e-01 3.746453672647476196e-02
2.349000000000000000e+03 7.447386169433593750e+01 -1.239437007904052734e+01 -1.988694220781326294e-01 -8.034082129597663879e-03 -6.207105144858360291e-02 -1.860499978065490723e-01
2.350000000000000000e+03 7.369572448730468750e+01 -1.241555213928222656e+01 -2.448197156190872192e-01 2.385661005973815918e-02 -6.628893315792083740e-02 -1.867140531539916992e-01
2.351000000000000000e+03 2.467103767395019531e+01 2.476818656921386719e+01 7.107165455818176270e-01 1.195098280906677246e+00 5.717444419860839844e-01 -1.309638381004333496e+00
2.352000000000000000e+03 4.045140457153320312e+01 1.286110401153564453e+01 7.452603578567504883e-01 5.896129131317138672e+00 1.992416739463806152e+00 1.677263498306274414e+00
2.353000000000000000e+03 3.485439682006835938e+01 1.198376655578613281e+01 9.045780301094055176e-01 1.269507026672363281e+01 4.079894542694091797e+00 -1.997216820716857910e+00
2.354000000000000000e+03 3.399372482299804688e+01 -2.853790664672851562e+01 4.841158390045166016e-01 4.095280647277832031e+00 1.373818993568420410e+00 1.653966784477233887e+00
2.355000000000000000e+03 4.577354431152343750e+01 1.917529296875000000e+01 2.676021456718444824e-01 1.273523211479187012e+00 4.623376131057739258e-01 8.204822540283203125e-01
2.356000000000000000e+03 3.665143585205078125e+01 -2.014361763000488281e+01 9.646791815757751465e-01 9.361817359924316406e+00 3.097949028015136719e+00 1.736610010266304016e-02
2.357000000000000000e+03 3.732132720947265625e+01 -1.935152626037597656e+01 1.146120309829711914e+00 9.348867416381835938e+00 3.148496389389038086e+00 -5.201811790466308594e-01
2.358000000000000000e+03 4.685361480712890625e+01 -1.500583934783935547e+01 3.162780046463012695e+00 5.163540840148925781e+00 2.497896194458007812e+00 2.209256649017333984e+00
2.359000000000000000e+03 1.599845314025878906e+01 -2.499985885620117188e+01 2.952946424484252930e-01 1.393908023834228516e+00 5.067607760429382324e-01 -6.209256649017333984e-01
2.360000000000000000e+03 6.435951232910156250e+01 1.556553745269775391e+01 4.666866660118103027e-01 3.868505954742431641e+00 1.300557732582092285e+00 2.754224091768264771e-02
2.361000000000000000e+03 1.548167324066162109e+01 -2.547439575195312500e+01 1.487632989883422852e-01 1.393234133720397949e+00 4.625992476940155029e-01 -4.899785220623016357e-01
2.362000000000000000e+03 1.784759712219238281e+01 -2.851697349548339844e+01 -9.511279314756393433e-02 8.726373314857482910e-01 2.332573682069778442e-01 -3.886336684226989746e-01
2.363000000000000000e+03 3.467521667480468750e+00 7.323874950408935547e+00 2.217357978224754333e-04 2.372763119637966156e-04 1.377036387566477060e-04 -1.602846663445234299e-03
2.364000000000000000e+03 2.746141433715820312e+00 4.170270919799804688e+00 4.332298412919044495e-04 4.538112843874841928e-04 2.661123289726674557e-04 -1.035964232869446278e-03
2.365000000000000000e+03 2.783691406250000000e+00 3.388624191284179688e+00 3.540841862559318542e-04 3.453592071309685707e-04 2.098330151056870818e-04 -8.767120307311415672e-04
2.366000000000000000e+03 6.771729469299316406e+00 4.053576946258544922e+00 9.407733450643718243e-04 -7.400281028822064400e-04 6.022357047186233103e-05 -5.084922304376959801e-04
2.367000000000000000e+03 7.597348690032958984e+00 4.038640022277832031e+00 1.127199269831180573e-03 -7.956025656312704086e-04 9.947901708073914051e-05 -2.991090586874634027e-04
2.368000000000000000e+03 5.614565277099609375e+01 2.362935638427734375e+01 -2.858397066593170166e-01 1.317450404167175293e-01 -4.622839391231536865e-02 -3.062747716903686523e-01
2.369000000000000000e+03 6.397555541992187500e+01 1.165263748168945312e+01 4.817697405815124512e-01 4.246394157409667969e+00 1.418449163436889648e+00 4.738713502883911133e-01
2.370000000000000000e+03 6.406383514404296875e+01 1.245295047760009766e+01 4.314166605472564697e-01 4.232972145080566406e+00 1.399316668510437012e+00 3.976247012615203857e-01
2.371000000000000000e+03 1.590497589111328125e+01 4.697957992553710938e+00 -3.866637052851729095e-05 7.627045852132141590e-04 2.172114764107391238e-04 4.808970843441784382e-04
2.372000000000000000e+03 6.520223236083984375e+01 1.617164421081542969e+01 5.558261275291442871e-01 3.241392612457275391e+00 1.139165639877319336e+00 1.093229278922080994e-01
2.373000000000000000e+03 6.382783126831054688e+01 1.727423286437988281e+01 5.913037657737731934e-01 3.953480958938598633e+00 1.363435387611389160e+00 -1.773161292076110840e-01
2.374000000000000000e+03 6.763386535644531250e+01 -2.593942832946777344e+01 -6.897187232971191406e-02 1.319376099854707718e-02 -1.673343405127525330e-02 -1.184655353426933289e-02
2.375000000000000000e+03 5.076314926147460938e+01 -3.197485733032226562e+01 3.878893256187438965e-01 1.906860113143920898e+00 6.884248256683349609e-01 -1.606306433677673340e+00
2.376000000000000000e+03 1.810943603515625000e+01 -3.568191528320312500e+00 -5.411571264266967773e-01 2.278099358081817627e-01 -9.400416165590286255e-02 3.743425607681274414e-01
2.377000000000000000e+03 1.892254066467285156e+01 -3.478405952453613281e+00 -4.970171749591827393e-01 2.210280448198318481e-01 -8.279673755168914795e-02 4.454650580883026123e-01
2.378000000000000000e+03 3.510767745971679688e+01 -2.754270362854003906e+01 6.184101104736328125e-01 5.199327468872070312e+00 1.745321273803710938e+00 1.635461091995239258e+00
2.379000000000000000e+03 6.251831817626953125e+01 5.914986610412597656e+00 9.671861529350280762e-01 3.780456066131591797e+00 1.424292683601379395e+00 1.102457165718078613e+00
2.380000000000000000e+03 1.237046718597412109e+01 1.068443107604980469e+01 -1.053509302437305450e-03 -7.008659886196255684e-04 -5.263125640340149403e-04 2.394970040768384933e-03
2.381000000000000000e+03 1.377719211578369141e+01 1.251508426666259766e+01 -7.692349026910960674e-04 4.501446615904569626e-03 1.119663473218679428e-03 1.446643378585577011e-03
2.382000000000000000e+03 3.595595550537109375e+01 3.343728542327880859e+00 2.072615146636962891e+00 1.364900207519531250e+01 4.716485500335693359e+00 -9.180343151092529297e-01
2.383000000000000000e+03 3.877730178833007812e+01 9.708183288574218750e+00 9.187083840370178223e-01 1.142860603332519531e+01 3.704194307327270508e+00 8.317551612854003906e-01
2.384000000000000000e+03 4.741753387451171875e+01 2.100478363037109375e+01 -3.798223333433270454e-03 9.976506233215332031e-01 2.981557250022888184e-01 7.034892439842224121e-01
2.385000000000000000e+03 6.257469940185546875e+01 -1.147370433807373047e+01 -1.403545498847961426e+00 -1.428541168570518494e-02 -4.253492653369903564e-01 1.974302381277084351e-01
2.386000000000000000e+03 3.536096572875976562e+01 -1.140953445434570312e+01 2.070446163415908813e-01 8.764118194580078125e+00 2.691348791122436523e+00 -1.723929047584533691e+00
2.387000000000000000e+03 3.423888778686523438e+01 -8.718264579772949219e+00 -2.007651567459106445e+00 7.013917446136474609e+00 1.501879692077636719e+00 -1.227796792984008789e+00
2.388000000000000000e+03 7.291279602050781250e+01 -1.243413448333740234e+01 -3.023570775985717773e-01 5.592220649123191833e-02 -7.393045723438262939e-02 -1.843160092830657959e-01
2.389000000000000000e+03 1.565874671936035156e+01 -1.197318840026855469e+01 1.129342913627624512e+00 1.686453223228454590e+00 8.447388410568237305e-01 7.793447971343994141e-01
2.390000000000000000e+03 1.393556404113769531e+01 -2.487146759033203125e+01 7.456672936677932739e-02 1.609131813049316406e+00 5.051095485687255859e-01 -2.363896071910858154e-01
2.391000000000000000e+03 1.498491477966308594e+01 -2.488736724853515625e+01 1.456510871648788452e-01 1.622734427452087402e+00 5.305156707763671875e-01 -4.912334680557250977e-01
2.392000000000000000e+03 3.194518661499023438e+01 -2.979199290275573730e-01 1.716166019439697266e+00 4.129065990447998047e+00 1.753569602966308594e+00 1.991095304489135742e+00
2.393000000000000000e+03 3.328084182739257812e+01 8.437912166118621826e-02 1.054231286048889160e+00 7.708388328552246094e+00 2.628785848617553711e+00 1.644720315933227539e+00
2.394000000000000000e+03 1.973848724365234375e+01 -3.370712995529174805e+00 -4.362231492996215820e-01 2.060607522726058960e-01 -6.904871761798858643e-02 4.961034357547760010e-01
2.395000000000000000e+03 2.833147811889648438e+01 -2.027261734008789062e+00 9.907105565071105957e-01 2.109502404928207397e-01 3.604982495307922363e-01 6.879818439483642578e-01
2.396000000000000000e+03 1.001429080963134766e+01 3.995442152023315430e+00 8.152400841936469078e-04 -6.584179936908185482e-04 4.704663660959340632e-05 5.800528451800346375e-04
2.397000000000000000e+03 9.229102134704589844e+00 4.008333206176757812e+00 1.074610627256333828e-03 -7.274207891896367073e-04 1.041569485096260905e-04 2.548008633311837912e-04
2.398000000000000000e+03 1.657519912719726562e+01 7.996660232543945312e+00 -3.878500428982079029e-04 1.541743753477931023e-03 3.461681189946830273e-04 -1.549257140140980482e-04
2.399000000000000000e+03 6.771326446533203125e+01 -1.120855903625488281e+01 -9.096416234970092773e-01 1.713021099567413330e-01 -2.215018570423126221e-01 -2.434469610452651978e-01
2.400000000000000000e+03 2.847459030151367188e+01 2.274563407897949219e+01 1.388368487358093262e+00 4.236840248107910156e+00 1.687562584877014160e+00 -2.571013450622558594e+00
2.401000000000000000e+03 2.881622505187988281e+01 2.370623207092285156e+01 6.312698125839233398e-01 4.452144622802734375e+00 1.525024294853210449e+00 -2.206062078475952148e+00
2.402000000000000000e+03 2.565759849548339844e+01 2.436800003051757812e+01 8.898366093635559082e-01 1.612663507461547852e+00 7.507500052452087402e-01 -1.630558729171752930e+00
2.403000000000000000e+03 3.202707290649414062e+01 -1.382566452026367188e+00 1.097928404808044434e+00 4.385942459106445312e+00 1.645161271095275879e+00 1.593721628189086914e+00
2.404000000000000000e+03 3.818825149536132812e+01 7.114733695983886719e+00 1.200738906860351562e+00 1.436150646209716797e+01 4.668673515319824219e+00 1.445515155792236328e-01
2.405000000000000000e+03 1.205512619018554688e+01 1.788498878479003906e+01 -6.692519038915634155e-02 3.919647540897130966e-03 -1.890166290104389191e-02 -3.686413913965225220e-02
2.406000000000000000e+03 3.706967163085937500e+01 9.956462979316711426e-01 1.965689897537231445e+00 1.308859539031982422e+01 4.516285419464111328e+00 -1.591728448867797852e+00
2.407000000000000000e+03 2.641976737976074219e+01 2.398635673522949219e+01 1.013163089752197266e+00 2.024418354034423828e+00 9.112744331359863281e-01 -1.879828214645385742e+00
2.408000000000000000e+03 6.567929840087890625e+01 -1.119975376129150391e+01 -1.267084956169128418e+00 -1.249535456299781799e-01 -4.176115691661834717e-01 -1.998468488454818726e-01
2.409000000000000000e+03 6.449306488037109375e+01 -1.123766326904296875e+01 -1.430915355682373047e+00 -4.555326998233795166e-01 -5.659344196319580078e-01 -8.802680671215057373e-02
2.410000000000000000e+03 4.318191146850585938e+01 -2.433239364624023438e+01 2.242865324020385742e+00 1.021024322509765625e+01 3.735932350158691406e+00 -1.022056579589843750e+00
2.411000000000000000e+03 4.363705444335937500e+01 -2.368961906433105469e+01 2.153205156326293945e+00 1.112382793426513672e+01 3.983109951019287109e+00 -1.254749774932861328e+00
2.412000000000000000e+03 3.985808181762695312e+01 1.332093715667724609e+01 5.984732508659362793e-01 6.632013320922851562e+00 2.169146060943603516e+00 1.356744050979614258e+00
2.413000000000000000e+03 2.727583885192871094e+01 -3.187749290466308594e+01 5.543497577309608459e-02 5.238095521926879883e-01 1.737733483314514160e-01 4.401591420173645020e-01
2.414000000000000000e+03 2.883460807800292969e+01 -3.272285079956054688e+01 8.757786452770233154e-02 1.320531606674194336e+00 4.224328696727752686e-01 7.952694892883300781e-01
2.415000000000000000e+03 1.883229064941406250e+01 2.542866706848144531e+01 1.278323531150817871e-01 1.473300158977508545e-01 8.254871517419815063e-02 -2.280786186456680298e-01
2.416000000000000000e+03 3.701430511474609375e+01 -1.494009876251220703e+01 1.318827986717224121e+00 9.436623573303222656e+00 3.226635456085205078e+00 -1.988804578781127930e+00
2.417000000000000000e+03 5.439301681518554688e+01 2.303367614746093750e+01 -4.616089165210723877e-01 8.821485191583633423e-02 -1.120182201266288757e-01 -9.624101966619491577e-02
2.418000000000000000e+03 3.682869338989257812e+01 -1.403130245208740234e+01 1.227171897888183594e+00 9.335493087768554688e+00 3.168799400329589844e+00 -1.989736080169677734e+00
2.419000000000000000e+03 3.509444808959960938e+01 1.036865425109863281e+01 8.956374526023864746e-01 1.338992595672607422e+01 4.285668849945068359e+00 -1.887799143791198730e+00
2.420000000000000000e+03 4.628857040405273438e+01 -1.562398242950439453e+01 3.178353309631347656e+00 6.420830249786376953e+00 2.879755020141601562e+00 2.489899396896362305e+00
2.421000000000000000e+03 4.474999618530273438e+01 -1.618590545654296875e+01 2.331618309020996094e+00 8.378104209899902344e+00 3.212916851043701172e+00 1.050462245941162109e+00
2.422000000000000000e+03 4.745895385742187500e+01 -1.451815509796142578e+01 3.019090890884399414e+00 4.246297836303710938e+00 2.179616689682006836e+00 2.120178461074829102e+00
2.423000000000000000e+03 1.792813873291015625e+01 2.456860733032226562e+01 -4.101102054119110107e-02 5.825084820389747620e-02 5.171949043869972229e-03 -1.054496541619300842e-01
2.424000000000000000e+03 1.708535385131835938e+01 2.367399406433105469e+01 -2.079062759876251221e-01 1.239430531859397888e-02 -5.865358933806419373e-02 -3.527682647109031677e-02
2.425000000000000000e+03 6.312186813354492188e+01 7.539258003234863281e+00 7.750499248504638672e-01 4.035863399505615234e+00 1.443274021148681641e+00 9.472521543502807617e-01
2.426000000000000000e+03 6.336204147338867188e+01 8.370412826538085938e+00 7.087645530700683594e-01 4.132700443267822266e+00 1.452439427375793457e+00 8.470077514648437500e-01
2.427000000000000000e+03 4.983190155029296875e+01 -1.178517627716064453e+01 1.426842451095581055e+00 1.497624993324279785e+00 8.773401975631713867e-01 2.008096218109130859e+00
2.428000000000000000e+03 3.184829330444335938e+01 -7.031095504760742188e+00 -1.508111238479614258e+00 2.868679761886596680e+00 4.081705808639526367e-01 -5.995480418205261230e-01
2.429000000000000000e+03 5.687818145751953125e+01 -3.353073883056640625e+01 -7.860815152525901794e-03 1.567574143409729004e-01 4.466897994279861450e-02 -1.356574594974517822e-01
2.430000000000000000e+03 1.592527866363525391e+01 -2.615562057495117188e+01 9.610451757907867432e-02 1.278695225715637207e+00 4.124399125576019287e-01 -4.565276205539703369e-01
2.431000000000000000e+03 1.637135505676269531e+01 -2.700609397888183594e+01 1.992756500840187073e-02 1.120569109916687012e+00 3.421489894390106201e-01 -4.221729934215545654e-01
2.432000000000000000e+03 6.686122894287109375e+01 -1.208686447143554688e+01 -1.239292502403259277e+00 1.043964773416519165e-01 -3.404687941074371338e-01 2.862002328038215637e-02
2.433000000000000000e+03 6.675376129150390625e+01 -1.115065670013427734e+01 -1.087221026420593262e+00 7.603047788143157959e-02 -3.033571541309356689e-01 -2.270280867815017700e-01
2.434000000000000000e+03 6.459008026123046875e+01 1.710317802429199219e+01 6.028752923011779785e-01 3.419451951980590820e+00 1.206698179244995117e+00 -2.457620948553085327e-02
2.435000000000000000e+03 5.118172073364257812e+01 2.199548339843750000e+01 -4.176208972930908203e-01 2.336117327213287354e-01 -5.520274862647056580e-02 1.852160990238189697e-01
2.436000000000000000e+03 4.927701187133789062e+01 2.222935676574707031e+01 -1.501946896314620972e-01 6.509491205215454102e-01 1.502263396978378296e-01 5.175843238830566406e-01
2.437000000000000000e+03 1.838512039184570312e+01 5.360376358032226562e+00 -9.029628563439473510e-05 4.830687248613685369e-04 1.178317324956879020e-04 5.448960655485279858e-05
2.438000000000000000e+03 1.889857292175292969e+01 4.833921909332275391e+00 -5.675740976585075259e-05 8.066056034294888377e-05 7.170945082179969177e-06 1.731257907522376627e-05
2.439000000000000000e+03 6.356301879882812500e+01 9.202343940734863281e+00 6.519158482551574707e-01 4.178269386291503906e+00 1.449055552482604980e+00 7.442693710327148438e-01
2.440000000000000000e+03 5.804399108886718750e+01 -1.135692238807678223e+00 1.056081891059875488e+00 2.264227628707885742e+00 9.960928559303283691e-01 1.386059999465942383e+00
2.441000000000000000e+03 1.703429794311523438e+01 -2.782276535034179688e+01 -4.940786212682723999e-02 1.028386831283569336e+00 2.936936914920806885e-01 -3.968127369880676270e-01
2.442000000000000000e+03 6.438922119140625000e+01 -2.980986213684082031e+01 -2.316907793283462524e-01 4.979908838868141174e-02 -5.456750839948654175e-02 4.014430195093154907e-02
2.443000000000000000e+03 6.747371673583984375e+01 -1.244218921661376953e+01 -9.426794052124023438e-01 9.948257356882095337e-02 -2.529590427875518799e-01 5.855339765548706055e-02
2.444000000000000000e+03 7.148812866210937500e+01 -1.108564949035644531e+01 -4.485593438148498535e-01 1.383834034204483032e-01 -9.305277466773986816e-02 -2.893643081188201904e-01
2.445000000000000000e+03 6.146758651733398438e+01 -3.244508743286132812e+01 -2.096608430147171021e-01 5.756005272269248962e-02 -4.563023522496223450e-02 1.251615732908248901e-01
2.446000000000000000e+03 4.934568405151367188e+01 -7.828249931335449219e+00 -1.072804331779479980e+00 3.265967667102813721e-01 -2.238622903823852539e-01 1.759305953979492188e+00
2.447000000000000000e+03 3.752186203002929688e+01 7.206003189086914062e+00 1.276489496231079102e+00 1.409733867645263672e+01 4.612148284912109375e+00 -3.895234167575836182e-01
2.448000000000000000e+03 3.832368087768554688e+01 7.984172344207763672e+00 1.295137524604797363e+00 1.358096313476562500e+01 4.462830066680908203e+00 3.225431144237518311e-01
2.449000000000000000e+03 2.603368186950683594e+01 -3.581403970718383789e+00 3.319497406482696533e-01 3.990744054317474365e-02 1.115571558475494385e-01 8.838806748390197754e-01
2.450000000000000000e+03 5.872946166992187500e+01 -3.306385803222656250e+01 -1.670427024364471436e-01 4.654177650809288025e-02 -3.615027666091918945e-02 4.279256612062454224e-02
2.451000000000000000e+03 5.979567718505859375e+01 -3.293338775634765625e+01 -1.755115389823913574e-01 6.189450994133949280e-02 -3.408510610461235046e-02 8.425691723823547363e-02
2.452000000000000000e+03 6.413807678222656250e+01 1.324376392364501953e+01 4.102686643600463867e-01 4.205216407775878906e+00 1.384645581245422363e+00 2.777215242385864258e-01
2.453000000000000000e+03 4.044967651367187500e+01 1.400897598266601562e+01 6.453602910041809082e-01 5.537568092346191406e+00 1.854878544807434082e+00 1.478357791900634766e+00
2.454000000000000000e+03 4.457958984375000000e+01 -2.503266906738281250e+01 2.377960920333862305e+00 1.150973892211914062e+01 4.166309833526611328e+00 -1.926477909088134766e+00
2.455000000000000000e+03 4.447227859497070312e+01 -2.681799316406250000e+01 1.719011068344116211e+00 9.632149696350097656e+00 3.405348300933837891e+00 -1.493612170219421387e+00
2.456000000000000000e+03 2.141534042358398438e+01 -3.806035041809082031e+00 -2.450455278158187866e-01 2.051208168268203735e-01 -1.197741180658340454e-02 6.521443724632263184e-01
2.457000000000000000e+03 5.699794769287109375e+01 -2.502922296524047852e+00 8.565575480461120605e-01 2.165273904800415039e+00 9.065494537353515625e-01 1.309087991714477539e+00
2.458000000000000000e+03 2.136622047424316406e+01 -3.121818780899047852e+00 -2.931589186191558838e-01 1.635175794363021851e-01 -3.889239579439163208e-02 5.727769732475280762e-01
2.459000000000000000e+03 1.495467376708984375e+01 9.977195739746093750e+00 -5.687780794687569141e-04 3.677115542814135551e-03 9.325012215413153172e-04 7.611286710016429424e-04
2.460000000000000000e+03 1.441172313690185547e+01 9.524024009704589844e+00 -7.339304429478943348e-04 3.081545233726501465e-03 7.042844081297516823e-04 1.292820670641958714e-03
2.461000000000000000e+03 3.478611373901367188e+01 1.528631567955017090e+00 1.793034315109252930e+00 1.169578361511230469e+01 4.046645164489746094e+00 2.988575994968414307e-01
2.462000000000000000e+03 1.651699638366699219e+01 -4.949962139129638672e+00 -4.057925939559936523e-01 3.941866755485534668e-01 -3.481769002974033356e-03 2.743449509143829346e-01
2.463000000000000000e+03 3.694390487670898438e+01 1.833897113800048828e+00 2.069922208786010742e+00 1.351405048370361328e+01 4.675191879272460938e+00 -1.630996346473693848e+00
2.464000000000000000e+03 1.341172313690185547e+01 2.069411277770996094e+01 -2.274769991636276245e-01 4.595360159873962402e-02 -5.445702001452445984e-02 -3.765519335865974426e-02
2.465000000000000000e+03 5.668069839477539062e+01 -3.210993957519531250e+01 -3.130795657634735107e-01 2.020242437720298767e-02 -8.786313980817794800e-02 -6.689434498548507690e-02
2.466000000000000000e+03 5.628704071044921875e+01 -3.285743713378906250e+01 -9.070579707622528076e-02 1.013806387782096863e-01 3.202452557161450386e-03 -1.553665995597839355e-01
2.467000000000000000e+03 3.681045913696289062e+01 2.660902500152587891e+00 2.076446294784545898e+00 1.384430122375488281e+01 4.776224136352539062e+00 -1.498983025550842285e+00
2.468000000000000000e+03 3.727993774414062500e+01 4.507375717163085938e+00 1.374222993850708008e+00 1.495247840881347656e+01 4.898010253906250000e+00 -1.158870100975036621e+00
2.469000000000000000e+03 3.720617294311523438e+01 -1.675443840026855469e+01 1.185430765151977539e+00 9.552814483642578125e+00 3.221473693847656250e+00 -1.648385763168334961e+00
2.470000000000000000e+03 3.713377380371093750e+01 -1.586291027069091797e+01 1.263951539993286133e+00 9.520350456237792969e+00 3.235290765762329102e+00 -1.872707843780517578e+00
2.471000000000000000e+03 3.196603202819824219e+01 1.949927520751953125e+01 1.941815495491027832e+00 8.612201690673828125e+00 3.166205167770385742e+00 -2.414595603942871094e+00
2.472000000000000000e+03 3.696051025390625000e+01 -2.290165901184082031e+01 1.605900764465332031e+00 8.165285110473632812e+00 2.931355714797973633e+00 8.532744050025939941e-01
2.473000000000000000e+03 6.948230743408203125e+01 -2.313871955871582031e+01 -1.695215329527854919e-02 2.165051875635981560e-03 -4.436130635440349579e-03 -5.132997408509254456e-03
2.474000000000000000e+03 5.114844131469726562e+01 -3.345869827270507812e+01 1.284419149160385132e-01 2.111096858978271484e+00 6.718616485595703125e-01 -1.432030797004699707e+00
2.475000000000000000e+03 1.260102081298828125e+01 -2.147711372375488281e+01 6.200289130210876465e-01 2.031535625457763672e+00 7.954693436622619629e-01 -4.514601454138755798e-02
2.476000000000000000e+03 1.280111122131347656e+01 -2.061862182617187500e+01 6.494219899177551270e-01 2.270469665527343750e+00 8.759675025939941406e-01 -1.177664846181869507e-01
2.477000000000000000e+03 5.199884033203125000e+01 2.212157058715820312e+01 -5.009016394615173340e-01 1.445596814155578613e-01 -1.069025918841362000e-01 9.325090795755386353e-02
2.478000000000000000e+03 4.860125732421875000e+01 2.373974800109863281e+01 -2.189020253717899323e-02 1.055487751960754395e+00 3.100792765617370605e-01 7.317082285881042480e-01
2.479000000000000000e+03 3.735228347778320312e+01 -1.308106613159179688e+01 8.192977905273437500e-01 8.867285728454589844e+00 2.905975103378295898e+00 -1.715853929519653320e+00
2.480000000000000000e+03 1.442732620239257812e+01 4.759100914001464844e+00 7.088715938152745366e-05 6.103969644755125046e-04 2.043852291535586119e-04 7.961974479258060455e-04
2.481000000000000000e+03 3.712658309936523438e+01 -2.200361251831054688e+01 1.515620350837707520e+00 8.593957901000976562e+00 3.032873392105102539e+00 5.705670714378356934e-01
2.482000000000000000e+03 1.558175373077392578e+01 2.292274665832519531e+01 -2.821587920188903809e-01 1.044688979163765907e-03 -8.433423191308975220e-02 1.054803561419248581e-02
2.483000000000000000e+03 1.149980926513671875e+01 1.693883705139160156e+01 -4.410981759428977966e-02 1.122067566029727459e-03 -1.289632450789213181e-02 -2.374895848333835602e-02
2.484000000000000000e+03 6.277149581909179688e+01 2.151025581359863281e+01 -1.457697451114654541e-01 2.823888063430786133e+00 8.034354448318481445e-01 -2.528740763664245605e-01
2.485000000000000000e+03 1.494272422790527344e+01 8.871947288513183594e+00 -6.966555956751108170e-04 2.452416811138391495e-03 5.267283995635807514e-04 8.772546425461769104e-04
2.486000000000000000e+03 1.547920894622802734e+01 8.219207763671875000e+00 -6.765301222912967205e-04 2.187542850151658058e-03 4.533038299996405840e-04 4.780457529705017805e-04
2.487000000000000000e+03 6.985382843017578125e+01 -1.247313213348388672e+01 -6.008030772209167480e-01 1.724440604448318481e-01 -1.285077035427093506e-01 -1.021584868431091309e-01
2.488000000000000000e+03 6.132203292846679688e+01 3.579995870590209961e+00 9.394415020942687988e-01 3.334311723709106445e+00 1.282125949859619141e+00 1.255500793457031250e+00
2.489000000000000000e+03 6.347520828247070312e+01 6.462890625000000000e+00 8.606101274490356445e-01 3.504096269607543945e+00 1.309411883354187012e+00 8.195178508758544922e-01
2.490000000000000000e+03 5.500595092773437500e+01 -5.668930053710937500e+00 -3.699617385864257812e-01 1.931776881217956543e+00 4.685445129871368408e-01 1.372007012367248535e+00
2.491000000000000000e+03 2.728993988037109375e+01 -3.320225143432617188e+01 1.553524136543273926e-01 7.576701641082763672e-01 2.739067673683166504e-01 4.497307240962982178e-01
2.492000000000000000e+03 3.640792465209960938e+01 -1.223717594146728516e+01 5.692828297615051270e-01 9.001508712768554688e+00 2.871237277984619141e+00 -1.699212074279785156e+00
2.493000000000000000e+03 3.851895141601562500e+01 8.853670120239257812e+00 1.178849816322326660e+00 1.260630130767822266e+01 4.135545253753662109e+00 5.544832348823547363e-01
2.494000000000000000e+03 3.537964630126953125e+01 8.016471862792968750e+00 1.076027035713195801e+00 1.427831172943115234e+01 4.606301784515380859e+00 -1.532655358314514160e+00
2.495000000000000000e+03 2.463218688964843750e+01 -3.283655548095703125e+01 3.228965401649475098e-02 3.593290448188781738e-01 1.174856126308441162e-01 -6.416978687047958374e-02
2.496000000000000000e+03 2.313180541992187500e+01 2.428015136718750000e+01 5.395925641059875488e-01 5.078940391540527344e-01 3.142459690570831299e-01 -8.432059884071350098e-01
2.497000000000000000e+03 2.225051307678222656e+01 2.450314140319824219e+01 3.896857798099517822e-01 3.654007911682128906e-01 2.265259623527526855e-01 -6.680634617805480957e-01
2.498000000000000000e+03 3.421187591552734375e+01 -9.810464859008789062e+00 -1.137847542762756348e+00 7.143883705139160156e+00 1.801810860633850098e+00 -1.482875108718872070e+00
2.499000000000000000e+03 6.848822021484375000e+01 -1.309443664550781250e+01 -6.560839414596557617e-01 1.134147644042968750e-01 -1.628007590770721436e-01 8.095668256282806396e-02
2.500000000000000000e+03 3.730761337280273438e+01 -2.022843551635742188e+01 1.251496434211730957e+00 9.181643486022949219e+00 3.129941940307617188e+00 -1.074201911687850952e-01
2.501000000000000000e+03 4.354567718505859375e+01 -1.902215385437011719e+01 2.558049201965332031e+00 1.033008098602294922e+01 3.866439104080200195e+00 5.376337170600891113e-01
2.502000000000000000e+03 4.228662872314453125e+01 -4.491487503051757812e+00 -1.837760329246520996e+00 4.907526969909667969e+00 9.209300279617309570e-01 -2.738134860992431641e+00
2.503000000000000000e+03 5.540668106079101562e+01 -3.344676589965820312e+01 7.089705020189285278e-02 2.918273210525512695e-01 1.088173091411590576e-01 -3.206288516521453857e-01
2.504000000000000000e+03 4.821850967407226562e+01 -3.071772003173828125e+01 6.277094483375549316e-01 4.590456008911132812e+00 1.565449714660644531e+00 -2.235005140304565430e+00
2.505000000000000000e+03 1.320352363586425781e+01 1.143890571594238281e+01 -1.222251798026263714e-03 1.609370228834450245e-03 1.161355467047542334e-04 2.333195181563496590e-03
2.506000000000000000e+03 1.311911773681640625e+01 1.057464408874511719e+01 -6.536357977893203497e-05 1.590163446962833405e-03 4.574399499688297510e-04 2.082763938233256340e-03
2.507000000000000000e+03 5.046179962158203125e+01 2.305401992797851562e+01 -1.681613326072692871e-01 5.315444469451904297e-01 1.090149357914924622e-01 4.290557205677032471e-01
2.508000000000000000e+03 2.167880821228027344e+01 -3.266484832763671875e+01 -9.017395228147506714e-02 5.400691032409667969e-01 1.349685341119766235e-01 -3.272314667701721191e-01
2.509000000000000000e+03 6.895441436767578125e+01 -2.268142509460449219e+01 -1.232630107551813126e-02 9.628228144720196724e-04 -3.409043420106172562e-03 -3.985789138823747635e-03
2.510000000000000000e+03 7.167616271972656250e+01 -2.165439033508300781e+01 -7.927064783871173859e-03 -1.495383912697434425e-03 -2.826734445989131927e-03 4.035767051391303539e-04
2.511000000000000000e+03 5.014496994018554688e+01 -3.299380874633789062e+01 1.043492034077644348e-01 2.699480533599853516e+00 8.411489129066467285e-01 -1.692899823188781738e+00
2.512000000000000000e+03 6.480854034423828125e+01 -2.903719329833984375e+01 -2.176063954830169678e-01 4.215000942349433899e-02 -5.263691395521163940e-02 1.046345848590135574e-02
2.513000000000000000e+03 4.773240661621093750e+01 -3.170736885070800781e+01 -1.295883790589869022e-03 5.058249473571777344e+00 1.517086148262023926e+00 -1.914614200592041016e+00
2.514000000000000000e+03 1.937910461425781250e+01 -2.896596336364746094e+01 -1.427690237760543823e-01 6.740319728851318359e-01 1.593788862228393555e-01 -3.557666838169097900e-01
2.515000000000000000e+03 1.947625160217285156e+01 -3.048810958862304688e+01 -2.087488174438476562e-01 6.930026412010192871e-01 1.452761441469192505e-01 -3.902321159839630127e-01
2.516000000000000000e+03 3.515851974487304688e+01 9.572804450988769531e+00 9.437150955200195312e-01 1.371752738952636719e+01 4.398372650146484375e+00 -1.788158059120178223e+00
2.517000000000000000e+03 6.301488494873046875e+01 -3.124567413330078125e+01 -2.476940602064132690e-01 5.226282030344009399e-02 -5.862937122583389282e-02 9.624511003494262695e-02
2.518000000000000000e+03 4.210813522338867188e+01 -5.191843986511230469e+00 -2.217500209808349609e+00 5.817881107330322266e+00 1.080114364624023438e+00 -2.734071493148803711e+00
2.519000000000000000e+03 6.079442214965820312e+01 2.346170234680175781e+01 -4.250330030918121338e-01 1.832793593406677246e+00 4.223282039165496826e-01 -7.623368501663208008e-01
2.520000000000000000e+03 4.477042388916015625e+01 -2.756361770629882812e+01 1.341544389724731445e+00 9.068671226501464844e+00 3.123064517974853516e+00 -1.537421107292175293e+00
2.521000000000000000e+03 1.522661590576171875e+01 -1.112775707244873047e+01 7.611899971961975098e-01 1.491294026374816895e+00 6.757451891899108887e-01 4.593297541141510010e-01
2.522000000000000000e+03 6.215469741821289062e+01 5.120588779449462891e+00 1.008681535720825195e+00 3.652494668960571289e+00 1.398352861404418945e+00 1.119946002960205078e+00
2.523000000000000000e+03 6.861862182617187500e+01 -2.451652526855468750e+01 -3.623761981725692749e-02 6.128317210823297501e-03 -9.032790549099445343e-03 -8.596566505730152130e-03
2.524000000000000000e+03 6.906169891357421875e+01 -2.381675338745117188e+01 -2.699793316423892975e-02 3.486577188596129417e-03 -7.053406909108161926e-03 -5.796431563794612885e-03
2.525000000000000000e+03 4.287685775756835938e+01 -5.441678047180175781e+00 -2.168730735778808594e+00 4.176495075225830078e+00 6.023293733596801758e-01 -2.318401098251342773e+00
2.526000000000000000e+03 3.820347213745117188e+01 -2.757587432861328125e+00 -4.837529361248016357e-01 1.130917549133300781e+01 3.247626543045043945e+00 -1.210277676582336426e+00
2.527000000000000000e+03 4.361672592163085938e+01 -2.474275207519531250e+01 2.273514032363891602e+00 1.042325019836425781e+01 3.809029102325439453e+00 -1.180429935455322266e+00
2.528000000000000000e+03 4.388759231567382812e+01 -2.538732910156250000e+01 2.200412750244140625e+00 1.029486751556396484e+01 3.748584032058715820e+00 -1.232270836830139160e+00
2.529000000000000000e+03 7.075183868408203125e+01 -2.140502166748046875e+01 -6.074005737900733948e-03 -1.500580692663788795e-03 -2.272375859320163727e-03 -8.250448445323854685e-05
2.530000000000000000e+03 7.822126770019531250e+01 -1.225966167449951172e+01 -2.860421314835548401e-02 -9.281501173973083496e-02 -3.642576560378074646e-02 -8.185148239135742188e-02
2.531000000000000000e+03 6.410140991210937500e+01 1.877831840515136719e+01 6.087321639060974121e-01 3.263378620147705078e+00 1.161633253097534180e+00 7.227678783237934113e-03
2.532000000000000000e+03 4.059917831420898438e+01 -4.887604236602783203e+00 -2.427502393722534180e+00 8.633118629455566406e+00 1.861685037612915039e+00 -2.598245382308959961e+00
2.533000000000000000e+03 3.961928176879882812e+01 -2.485976696014404297e+00 3.715513348579406738e-01 1.161451148986816406e+01 3.595818758010864258e+00 -2.340101957321166992e+00
2.534000000000000000e+03 3.737661743164062500e+01 3.606555461883544922e+00 1.676533222198486328e+00 1.483491611480712891e+01 4.953434944152832031e+00 -1.558211803436279297e+00
2.535000000000000000e+03 6.398814010620117188e+01 -1.064830684661865234e+01 -1.118283748626708984e+00 -2.757018208503723145e-01 -4.181956648826599121e-01 5.950304865837097168e-02
2.536000000000000000e+03 6.153339004516601562e+01 -1.127687549591064453e+01 -1.081392049789428711e+00 2.673574686050415039e-01 -2.442103624343872070e-01 2.994392216205596924e-01
2.537000000000000000e+03 7.815995788574218750e+01 -1.976712608337402344e+01 -1.567902509123086929e-04 8.462459663860499859e-04 2.068367175525054336e-04 -1.401051296852529049e-03
2.538000000000000000e+03 3.432043075561523438e+01 -2.944327926635742188e+01 2.881825864315032959e-01 4.487137794494628906e+00 1.432596087455749512e+00 1.582698106765747070e+00
2.539000000000000000e+03 4.289960479736328125e+01 -2.337605285644531250e+01 2.136077404022216797e+00 1.041139125823974609e+01 3.764240503311157227e+00 -8.785602450370788574e-01
2.540000000000000000e+03 4.220391464233398438e+01 -2.312218475341796875e+01 2.112634897232055664e+00 9.871912956237792969e+00 3.595364332199096680e+00 -6.615931987762451172e-01
2.541000000000000000e+03 1.818901896476745605e+00 -4.181718349456787109e+00 -4.324167594313621521e-02 -2.473022043704986572e-01 -8.716316521167755127e-02 -2.095767855644226074e-01
2.542000000000000000e+03 1.942548561096191406e+01 -3.159320259094238281e+01 -2.150909304618835449e-01 7.111740708351135254e-01 1.488249450922012329e-01 -4.034005701541900635e-01
2.543000000000000000e+03 2.057743072509765625e+01 -3.159386444091796875e+01 -2.063693851232528687e-01 5.785720348358154297e-01 1.116608008742332458e-01 -3.938666284084320068e-01
2.544000000000000000e+03 2.338435173034667969e+01 -3.156416702270507812e+01 -2.090664803981781006e-01 2.023662030696868896e-01 -2.010083291679620743e-03 -2.159950882196426392e-01
2.545000000000000000e+03 1.410297393798828125e+01 2.184018516540527344e+01 -2.741434276103973389e-01 5.649725720286369324e-02 -6.529384851455688477e-02 -2.599345498310867697e-05
2.546000000000000000e+03 3.563241577148437500e+01 -2.670720291137695312e+01 8.117130994796752930e-01 5.904091358184814453e+00 2.014741420745849609e+00 1.523514389991760254e+00
2.547000000000000000e+03 3.656526184082031250e+01 -2.481814193725585938e+01 1.379404306411743164e+00 7.137766838073730469e+00 2.555151462554931641e+00 1.155117392539978027e+00
2.548000000000000000e+03 6.989366149902343750e+01 -2.249397659301757812e+01 -1.235102489590644836e-02 2.143699384760111570e-04 -3.640996525064110756e-03 -2.434712601825594902e-03
2.549000000000000000e+03 2.599622344970703125e+01 -3.465574264526367188e+01 1.866707950830459595e-01 7.973563671112060547e-01 2.952081561088562012e-01 2.605657577514648438e-01
2.550000000000000000e+03 2.398590850830078125e+01 -3.182333183288574219e+01 -1.225393638014793396e-01 2.321895956993103027e-01 3.289506956934928894e-02 -1.559189260005950928e-01
2.551000000000000000e+03 3.824869155883789062e+01 -1.766374111175537109e+00 6.213928461074829102e-01 1.195997238159179688e+01 3.774409532546997070e+00 -1.526098489761352539e+00
2.552000000000000000e+03 3.381541442871093750e+01 3.598228394985198975e-01 1.301380753517150879e+00 8.816964149475097656e+00 3.035503387451171875e+00 1.346766710281372070e+00
2.553000000000000000e+03 2.969328498840332031e+01 2.149103164672851562e+01 1.962161302566528320e+00 6.072128772735595703e+00 2.410287141799926758e+00 -2.596545934677124023e+00
2.554000000000000000e+03 5.141634750366210938e+01 -6.836091041564941406e+00 -1.576190352439880371e+00 7.018169760704040527e-01 -2.623120248317718506e-01 2.119974136352539062e+00
2.555000000000000000e+03 5.115777969360351562e+01 -7.425782203674316406e+00 -1.224525213241577148e+00 6.347098350524902344e-01 -1.769445985555648804e-01 2.263553142547607422e+00
2.556000000000000000e+03 2.714525794982910156e+01 -6.332091808319091797e+00 -5.430254936218261719e-01 1.740665286779403687e-01 -1.106876879930496216e-01 1.085548281669616699e+00
2.557000000000000000e+03 6.347262954711914062e+01 1.969598388671875000e+01 4.134115278720855713e-01 3.258369684219360352e+00 1.101534366607666016e+00 -8.986592292785644531e-02
2.558000000000000000e+03 1.304325103759765625e+01 2.132831382751464844e+01 -2.303998321294784546e-01 7.051811367273330688e-02 -4.796451702713966370e-02 1.207284163683652878e-03
2.559000000000000000e+03 2.134614562988281250e+01 2.459633636474609375e+01 2.553168237209320068e-01 2.306932210922241211e-01 1.458030045032501221e-01 -4.963993728160858154e-01
2.560000000000000000e+03 3.105335617065429688e+01 2.184687614440917969e+01 1.173744201660156250e+00 6.798136234283447266e+00 2.391564130783081055e+00 -1.819905638694763184e+00
2.561000000000000000e+03 4.517459106445312500e+01 -2.930184173583984375e+01 5.208390355110168457e-01 7.722961902618408203e+00 2.473140239715576172e+00 -1.423913478851318359e+00
2.562000000000000000e+03 1.636089515686035156e+01 2.469544029235839844e+01 -7.071642577648162842e-02 7.358169555664062500e-02 8.595793042331933975e-04 -6.211149040609598160e-03
2.563000000000000000e+03 1.559094715118408203e+01 2.383593368530273438e+01 -1.664174050092697144e-01 4.642217978835105896e-02 -3.599856421351432800e-02 3.559095039963722229e-02
2.564000000000000000e+03 1.661100006103515625e+01 -1.036389732360839844e+01 7.114863991737365723e-01 1.223022460937500000e+00 5.803526639938354492e-01 5.962536931037902832e-01
2.565000000000000000e+03 1.591513061523437500e+01 -1.123189735412597656e+01 9.455841779708862305e-01 1.479379534721374512e+00 7.274891138076782227e-01 6.461651325225830078e-01
2.566000000000000000e+03 4.676166152954101562e+01 -3.123272514343261719e+01 -5.808199942111968994e-02 5.854150772094726562e+00 1.738820552825927734e+00 -1.749073386192321777e+00
2.567000000000000000e+03 3.157158470153808594e+01 -3.182351112365722656e+01 -1.484690146753564477e-04 2.665247917175292969e+00 7.995298504829406738e-01 1.358836174011230469e+00
2.568000000000000000e+03 6.312221527099609375e+01 2.082409667968750000e+01 7.081975042819976807e-02 3.026131868362426758e+00 9.290854930877685547e-01 -1.675493717193603516e-01
2.569000000000000000e+03 6.248365020751953125e+01 2.038697814941406250e+01 2.872963547706604004e-01 3.203397750854492188e+00 1.047208309173583984e+00 -3.881346583366394043e-01
2.570000000000000000e+03 5.384802246093750000e+01 -5.948294162750244141e+00 -7.192187905311584473e-01 1.844652891159057617e+00 3.376302123069763184e-01 1.549706578254699707e+00
2.571000000000000000e+03 5.322357940673828125e+01 -5.492105007171630859e+00 -7.875369191169738770e-01 1.855004549026489258e+00 3.202403187751770020e-01 1.481171607971191406e+00
2.572000000000000000e+03 3.254850387573242188e+01 -3.145725250244140625e+01 -1.598950475454330444e-02 3.198866605758666992e+00 9.548631906509399414e-01 1.419403076171875000e+00
2.573000000000000000e+03 3.294145202636718750e+01 -2.993734359741210938e+01 2.528369724750518799e-01 3.334337949752807617e+00 1.076152563095092773e+00 1.539616703987121582e+00
2.574000000000000000e+03 5.436984252929687500e+01 -1.294648551940917969e+01 8.892564773559570312e-01 3.934842050075531006e-01 3.848221898078918457e-01 1.186127424240112305e+00
2.575000000000000000e+03 1.312511825561523438e+01 -2.254257583618164062e+01 3.917416036128997803e-01 2.059740781784057617e+00 7.354446649551391602e-01 -9.289524704217910767e-02
2.576000000000000000e+03 1.382397651672363281e+01 -2.282453727722167969e+01 3.696629106998443604e-01 2.129944562911987305e+00 7.498822808265686035e-01 -2.722963094711303711e-01
2.577000000000000000e+03 2.954947090148925781e+01 -3.117553710937500000e+00 9.466620087623596191e-01 1.013330221176147461e+00 5.879976749420166016e-01 9.824492335319519043e-01
2.578000000000000000e+03 3.009688186645507812e+01 -1.488417625427246094e+00 1.416037917137145996e+00 1.224617481231689453e+00 7.921966314315795898e-01 9.696485400199890137e-01
2.579000000000000000e+03 3.749063873291015625e+01 2.748821020126342773e+00 1.916915416717529297e+00 1.465299797058105469e+01 4.970973968505859375e+00 -1.840492010116577148e+00
2.580000000000000000e+03 3.535375213623046875e+01 2.428285837173461914e+00 2.172038793563842773e+00 1.270748233795166016e+01 4.463856220245361328e+00 -4.325951933860778809e-01
2.581000000000000000e+03 3.086130523681640625e+01 2.278371620178222656e+01 6.776562929153442383e-01 6.337670326232910156e+00 2.104598045349121094e+00 -1.703411221504211426e+00
2.582000000000000000e+03 2.894248008728027344e+01 2.182516670227050781e+01 2.179062128067016602e+00 5.077116012573242188e+00 2.176853418350219727e+00 -2.998284339904785156e+00
2.583000000000000000e+03 1.259168434143066406e+01 1.882487297058105469e+01 -1.044360399246215820e-01 8.652809076011180878e-03 -2.873496897518634796e-02 -5.056787654757499695e-02
2.584000000000000000e+03 5.271937179565429688e+01 -6.527787685394287109e+00 -1.149522066116333008e+00 1.594564080238342285e+00 1.335126012563705444e-01 1.922164440155029297e+00
2.585000000000000000e+03 5.194751739501953125e+01 -6.548650264739990234e+00 -1.554822921752929688e+00 1.082616806030273438e+00 -1.416618227958679199e-01 2.011848688125610352e+00
2.586000000000000000e+03 6.168284606933593750e+01 2.393851280212402344e+01 -4.864438474178314209e-01 2.003418445587158203e+00 4.550924003124237061e-01 -5.472720265388488770e-01
2.587000000000000000e+03 4.422809219360351562e+01 -1.665703010559082031e+01 2.411688804626464844e+00 8.765365600585937500e+00 3.353116273880004883e+00 5.192052125930786133e-01
2.588000000000000000e+03 4.408890914916992188e+01 -1.869294166564941406e+01 2.902471542358398438e+00 1.085740947723388672e+01 4.127964496612548828e+00 8.363376259803771973e-01
2.589000000000000000e+03 5.708250808715820312e+01 2.508207702636718750e+01 -1.134119629859924316e-01 5.254952907562255859e-01 1.236250028014183044e-01 -4.833678305149078369e-01
2.590000000000000000e+03 5.797911834716796875e+01 2.372367286682128906e+01 -2.157432436943054199e-01 5.106935501098632812e-01 8.848509192466735840e-02 -6.865884661674499512e-01
2.591000000000000000e+03 3.521360158920288086e+00 -3.944667434692382812e+01 -3.256771340966224670e-02 -3.799224197864532471e-01 -1.237470433115959167e-01 4.103396087884902954e-02
2.592000000000000000e+03 7.548660278320312500e+01 -3.897323608398437500e+01 3.226259723305702209e-02 -9.366300702095031738e-02 -1.842012442648410797e-02 3.763734549283981323e-02
2.593000000000000000e+03 7.685866546630859375e+01 -3.737314987182617188e+01 8.471621200442314148e-03 -9.997620433568954468e-02 -2.745137549936771393e-02 3.923964127898216248e-02
2.594000000000000000e+03 7.753036499023437500e+01 4.106785583496093750e+01 -1.233328599482774734e-02 6.147333979606628418e-02 1.474201586097478867e-02 2.009390480816364288e-02
2.595000000000000000e+03 4.101635932922363281e+00 3.841348266601562500e+01 1.967238634824752808e-02 -1.706509739160537720e-01 -4.529357701539993286e-02 2.919074892997741699e-02
2.596000000000000000e+03 2.344716072082519531e+00 3.634008407592773438e+01 4.643817897886037827e-03 -2.988751828670501709e-01 -8.826941251754760742e-02 3.754227608442306519e-02
2.597000000000000000e+03 4.348532676696777344e+00 3.544041442871093750e+01 1.743506826460361481e-02 -1.603464782238006592e-01 -4.287342354655265808e-02 5.523242056369781494e-02
2.598000000000000000e+03 2.147924232482910156e+01 -8.317565917968750000e+00 2.938306629657745361e-01 3.256365358829498291e-01 1.858401596546173096e-01 6.679908633232116699e-01
2.599000000000000000e+03 2.454871559143066406e+01 -7.859271049499511719e+00 -2.252607941627502441e-01 3.237023949623107910e-01 2.953247725963592529e-02 6.224614977836608887e-01
2.600000000000000000e+03 5.659207916259765625e+01 -7.327896595001220703e+00 -4.181401431560516357e-01 1.586866140365600586e+00 3.506177961826324463e-01 1.366141438484191895e+00
2.601000000000000000e+03 7.214278411865234375e+01 -2.135985755920410156e+01 -5.442721769213676453e-03 -1.494141761213541031e-03 -2.081058919429779053e-03 -1.463786611566320062e-04
2.602000000000000000e+03 6.624255371093750000e+01 -1.067731857299804688e+01 -1.046225666999816895e+00 1.623431593179702759e-02 -3.089973926544189453e-01 -2.998248338699340820e-01
2.603000000000000000e+03 2.665026283264160156e+01 -2.981977701187133789e+00 5.292240381240844727e-01 2.251797169446945190e-02 1.655226051807403564e-01 8.008661866188049316e-01
2.604000000000000000e+03 6.094980239868164062e+01 -1.162289810180664062e+01 -1.016056895256042480e+00 3.427320420742034912e-01 -2.019974589347839355e-01 2.390015572309494019e-01
2.605000000000000000e+03 7.306703948974609375e+01 -2.088157653808593750e+01 -4.043515305966138840e-03 -1.636903733015060425e-03 -1.704125665128231049e-03 2.183491596952080727e-04
2.606000000000000000e+03 7.282791900634765625e+01 -2.028015899658203125e+01 -2.597815124318003654e-03 -2.029198221862316132e-03 -1.388104050420224667e-03 5.934631917625665665e-04
2.607000000000000000e+03 7.355607604980468750e+01 -2.081865882873535156e+01 -3.391224425286054611e-03 -2.166837686672806740e-03 -1.667418633587658405e-03 5.069398321211338043e-04
2.608000000000000000e+03 3.652997207641601562e+01 -2.539516925811767578e+00 -4.717704057693481445e-01 1.030975532531738281e+01 2.951395273208618164e+00 -4.480436444282531738e-01
2.609000000000000000e+03 3.280850219726562500e+01 -2.226259559392929077e-01 1.310082554817199707e+00 6.466581344604492188e+00 2.332999229431152344e+00 2.149664640426635742e+00
2.610000000000000000e+03 2.989950180053710938e+01 -2.680454254150390625e+00 1.085335373878479004e+00 1.274832963943481445e+00 7.080504894256591797e-01 9.884834289550781250e-01
2.611000000000000000e+03 3.162741470336914062e+01 -1.883109450340270996e+00 1.066903710365295410e+00 3.424072980880737305e+00 1.347293019294738770e+00 1.452448487281799316e+00
2.612000000000000000e+03 6.055030059814453125e+01 -1.121070671081542969e+01 -8.526471853256225586e-01 4.400497972965240479e-01 -1.237792223691940308e-01 4.268315434455871582e-01
2.613000000000000000e+03 1.660405349731445312e+01 6.995707988739013672e+00 -3.721179673448204994e-04 1.161926775239408016e-03 2.369426510995253921e-04 1.053321175277233124e-04
2.614000000000000000e+03 1.249645614624023438e+01 2.106639671325683594e+01 -1.998529881238937378e-01 7.136759907007217407e-02 -3.854561969637870789e-02 1.432514400221407413e-03
2.615000000000000000e+03 2.183025741577148438e+01 -8.976768493652343750e+00 3.772239685058593750e-01 2.584124505519866943e-01 1.906909197568893433e-01 6.029462218284606934e-01
2.616000000000000000e+03 2.080871391296386719e+01 -8.561769485473632812e+00 3.657758831977844238e-01 3.561856448650360107e-01 2.165884673595428467e-01 6.992490291595458984e-01
2.617000000000000000e+03 1.775333404541015625e+01 5.819623947143554688e+00 -1.061190123436972499e-04 5.262025515548884869e-04 1.260250573977828026e-04 3.228718924219720066e-05
2.618000000000000000e+03 1.729547119140625000e+01 3.980104923248291016e+00 -8.356527541764080524e-05 2.291514392709359527e-04 4.367584915598854423e-05 3.180199419148266315e-04
2.619000000000000000e+03 6.350770950317382812e+01 -1.008013343811035156e+01 -8.654532432556152344e-01 -5.045153200626373291e-02 -2.747714519500732422e-01 1.557377129793167114e-01
2.620000000000000000e+03 7.416994476318359375e+01 -2.091081619262695312e+01 -3.907159436494112015e-03 -1.584012759849429131e-03 -1.647351658903062344e-03 1.304831675952300429e-04
2.621000000000000000e+03 1.292091274261474609e+01 1.321141719818115234e+01 -1.782580860890448093e-03 1.751271338434889913e-04 -4.822360933758318424e-04 7.328611100092530251e-04
2.622000000000000000e+03 1.375031185150146484e+01 4.000444889068603516e+00 3.102390037383884192e-04 3.014235117007046938e-04 1.834987633628770709e-04 8.085694862529635429e-04
2.623000000000000000e+03 1.147479629516601562e+01 4.644628524780273438e+00 6.864696624688804150e-04 -3.718874359037727118e-04 9.437467087991535664e-05 8.720718906261026859e-04
2.624000000000000000e+03 1.548083972930908203e+01 7.138913154602050781e+00 -5.749692209064960480e-04 1.544117811135947704e-03 2.907445596065372229e-04 6.054355762898921967e-04
2.625000000000000000e+03 1.449068069458007812e+01 4.022156715393066406e+00 3.997015301138162613e-05 2.430567692499607801e-04 8.490807522321119905e-05 8.343147346749901772e-04
2.626000000000000000e+03 2.251598358154296875e+01 -8.730621337890625000e+00 2.766941785812377930e-01 2.649227380752563477e-01 1.624850779771804810e-01 5.681843161582946777e-01
2.627000000000000000e+03 2.351094055175781250e+01 -7.569573879241943359e+00 -6.363459676504135132e-02 3.053819239139556885e-01 7.252419739961624146e-02 6.937005519866943359e-01
2.628000000000000000e+03 1.145459842681884766e+01 5.310787200927734375e+00 3.284435952082276344e-04 -6.062335451133549213e-04 -8.333698497153818607e-05 1.193328527733683586e-03
2.629000000000000000e+03 1.787333106994628906e+01 4.517566204071044922e+00 -6.842746370239183307e-05 1.901168288895860314e-04 3.650681173894554377e-05 2.136707771569490433e-04
2.630000000000000000e+03 2.013598632812500000e+01 -8.794897079467773438e+00 4.562632441520690918e-01 4.349412322044372559e-01 2.673613429069519043e-01 7.114413976669311523e-01
2.631000000000000000e+03 1.226774501800537109e+01 3.959417343139648438e+00 6.101016188040375710e-04 -7.752488454570993781e-05 1.597730297362431884e-04 8.318797335959970951e-04
2.632000000000000000e+03 1.291793823242187500e+01 4.632297992706298828e+00 3.718494263011962175e-04 1.087808486772701144e-04 1.441890781279653311e-04 9.530815295875072479e-04
2.633000000000000000e+03 7.677810668945312500e+01 -2.370677566528320312e+01 -4.845377523452043533e-03 -2.910110633820295334e-03 -2.326646354049444199e-03 4.282875452190637589e-03
2.634000000000000000e+03 5.048642349243164062e+01 -1.301820659637451172e+01 2.172466993331909180e+00 1.145640611648559570e+00 9.954322576522827148e-01 1.936684727668762207e+00
2.635000000000000000e+03 5.127799987792968750e+01 -1.296488666534423828e+01 1.984447598457336426e+00 8.261811137199401855e-01 8.431886434555053711e-01 1.817259669303894043e+00
2.636000000000000000e+03 6.099905014038085938e+01 1.800688982009887695e+00 8.000687360763549805e-01 2.769865274429321289e+00 1.070980191230773926e+00 1.186249732971191406e+00
2.637000000000000000e+03 2.703579902648925781e+01 -3.744726419448852539e+00 4.718807339668273926e-01 8.499313890933990479e-02 1.670621633529663086e-01 9.623410105705261230e-01
2.638000000000000000e+03 5.596988677978515625e+01 2.508322525024414062e+01 -9.444104135036468506e-02 3.775054514408111572e-01 8.491932600736618042e-02 -2.967911660671234131e-01
2.639000000000000000e+03 4.340201568603515625e+01 -6.365183830261230469e+00 -2.089866876602172852e+00 3.884927511215209961e+00 5.385181903839111328e-01 -1.944255232810974121e+00
2.640000000000000000e+03 4.602513504028320312e+01 -7.123992919921875000e+00 -1.842556834220886230e+00 1.342022299766540527e+00 -1.501603424549102783e-01 -2.275879234075546265e-01
2.641000000000000000e+03 1.178744506835937500e+01 -4.591496944427490234e+00 -5.057777762413024902e-01 2.233326733112335205e-01 -8.473353832960128784e-02 -2.996177375316619873e-01
2.642000000000000000e+03 1.447644424438476562e+01 -2.434026336669921875e+01 1.620066165924072266e-01 1.769462108612060547e+00 5.794405937194824219e-01 -3.853825330734252930e-01
2.643000000000000000e+03 9.460290908813476562e+00 -3.935200214385986328e+00 -5.127919316291809082e-01 7.937791943550109863e-02 -1.300242096185684204e-01 -4.269486069679260254e-01
2.644000000000000000e+03 9.452999114990234375e+00 -4.627879142761230469e+00 -4.209046959877014160e-01 1.077461615204811096e-01 -9.394755214452743530e-02 -4.616356492042541504e-01
2.645000000000000000e+03 6.004703903198242188e+01 4.378771781921386719e-01 8.530189394950866699e-01 2.448051452636718750e+00 9.903210997581481934e-01 1.281509876251220703e+00
2.646000000000000000e+03 5.853301620483398438e+01 -4.818541705608367920e-01 1.074920654296875000e+00 2.327799320220947266e+00 1.020815968513488770e+00 1.433431267738342285e+00
2.647000000000000000e+03 5.581975555419921875e+01 -4.331610679626464844e+00 2.630629539489746094e-01 2.004210472106933594e+00 6.801820397377014160e-01 1.225432276725769043e+00
2.648000000000000000e+03 7.664846801757812500e+01 -3.563493347167968750e+01 1.673079328611493111e-03 -7.986361533403396606e-02 -2.345716208219528198e-02 4.672849923372268677e-02
2.649000000000000000e+03 7.490176391601562500e+01 -3.708390045166015625e+01 1.500662602484226227e-02 -7.210628688335418701e-02 -1.712989807128906250e-02 5.422904342412948608e-02
2.650000000000000000e+03 7.488455963134765625e+01 -2.099454116821289062e+01 -3.005164675414562225e-03 -1.940820831805467606e-03 -1.483795698732137680e-03 4.135423805564641953e-04
2.651000000000000000e+03 7.607163238525390625e+01 -2.018339157104492188e+01 -1.219573547132313251e-03 -9.450973593629896641e-04 -6.494012777693569660e-04 -9.175362647511065006e-04
2.652000000000000000e+03 7.450327301025390625e+01 -1.169330883026123047e+01 -2.025115340948104858e-01 -1.733766868710517883e-02 -6.595475971698760986e-02 -2.267301976680755615e-01
2.653000000000000000e+03 2.772754287719726562e+01 -5.906202316284179688e+00 -2.852040827274322510e-01 1.313469409942626953e-01 -4.615714028477668762e-02 1.181093215942382812e+00
2.654000000000000000e+03 4.315711975097656250e+01 -7.035417079925537109e+00 -1.931077837944030762e+00 4.665180683135986328e+00 8.202309012413024902e-01 -2.018511533737182617e+00
2.655000000000000000e+03 3.288261890411376953e+00 -4.865487575531005859e+00 -9.463579952716827393e-02 -2.552939057350158691e-01 -1.049789115786552429e-01 -3.688596487045288086e-01
2.656000000000000000e+03 4.793448448181152344e+00 -4.786878108978271484e+00 -1.730404645204544067e-01 -1.643224060535430908e-01 -1.012088581919670105e-01 -4.573084712028503418e-01
2.657000000000000000e+03 1.024147224426269531e+01 -5.316090106964111328e+00 -3.582504391670227051e-01 1.928420811891555786e-01 -4.962250962853431702e-02 -4.436339735984802246e-01
2.658000000000000000e+03 2.544900894165039062e+00 -4.911485671997070312e+00 -6.125663220882415771e-02 -2.954554557800292969e-01 -1.070136278867721558e-01 -3.087196052074432373e-01
2.659000000000000000e+03 2.533694744110107422e+00 -5.693549633026123047e+00 -4.511646553874015808e-02 -3.688922226428985596e-01 -1.242026090621948242e-01 -3.352569043636322021e-01
2.660000000000000000e+03 7.134659290313720703e+00 -3.972699165344238281e+00 -3.682588934898376465e-01 -1.952161081135272980e-02 -1.163341477513313293e-01 -4.706272482872009277e-01
2.661000000000000000e+03 7.900393962860107422e+00 -4.655776977539062500e+00 -3.449949920177459717e-01 2.252117171883583069e-02 -9.674213826656341553e-02 -5.063124299049377441e-01
2.662000000000000000e+03 5.561817169189453125e+00 -4.752105712890625000e+00 -2.148281186819076538e-01 -1.168636679649353027e-01 -9.950753301382064819e-02 -4.872998595237731934e-01
2.663000000000000000e+03 6.343106746673583984e+00 -4.716312408447265625e+00 -2.585747241973876953e-01 -6.925009191036224365e-02 -9.834744036197662354e-02 -5.053980350494384766e-01
2.664000000000000000e+03 5.208218002319335938e+01 -1.300246906280517578e+01 1.757732868194580078e+00 5.838935971260070801e-01 7.024879455566406250e-01 1.619866013526916504e+00
2.665000000000000000e+03 5.100676345825195312e+01 -7.973993778228759766e+00 -9.489933252334594727e-01 6.657673716545104980e-01 -8.496777713298797607e-02 2.272225141525268555e+00
2.666000000000000000e+03 1.813911628723144531e+01 -4.233398437500000000e+00 -4.385668337345123291e-01 2.935132980346679688e-01 -4.351606220006942749e-02 4.267501235008239746e-01
2.667000000000000000e+03 7.745042419433593750e+01 -2.915247535705566406e+01 -6.388148292899131775e-03 -2.517860755324363708e-02 -9.470026940107345581e-03 2.383972518146038055e-02
2.668000000000000000e+03 7.649797058105468750e+01 -3.133383369445800781e+01 -8.033460937440395355e-03 -3.914396464824676514e-02 -1.415322814136743546e-02 4.150700941681861877e-02
2.669000000000000000e+03 1.336297512054443359e+01 -4.519742488861083984e+00 -5.390108227729797363e-01 2.778380513191223145e-01 -7.835183292627334595e-02 -1.380323767662048340e-01
2.670000000000000000e+03 5.385850524902343750e+01 -1.164760112762451172e+01 6.519145965576171875e-01 6.931781172752380371e-01 4.035278260707855225e-01 1.691055059432983398e+00
2.671000000000000000e+03 5.509526062011718750e+01 -1.292153930664062500e+01 6.487274169921875000e-01 3.786152303218841553e-01 3.082028031349182129e-01 1.055710911750793457e+00
2.672000000000000000e+03 7.718009185791015625e+01 -3.227015686035156250e+01 -4.851402249187231064e-03 -5.238198488950729370e-02 -1.717001572251319885e-02 3.744666650891304016e-02
2.673000000000000000e+03 8.421054840087890625e+00 4.023157119750976562e+00 9.648567065596580505e-04 -8.286372176371514797e-04 4.086585249751806259e-05 6.417742406483739614e-05
2.674000000000000000e+03 3.731074142456054688e+01 5.431958675384521484e+00 1.199990630149841309e+00 1.489828014373779297e+01 4.829481124877929688e+00 -8.368437886238098145e-01
2.675000000000000000e+03 7.749182128906250000e+01 -1.228712177276611328e+01 -5.243348330259323120e-02 -8.998160064220428467e-02 -4.272452741861343384e-02 -1.113608181476593018e-01
2.676000000000000000e+03 7.750212860107421875e+01 -1.152934169769287109e+01 -5.247665569186210632e-02 -1.228383705019950867e-01 -5.259450525045394897e-02 -1.389346271753311157e-01
2.677000000000000000e+03 7.745176696777343750e+01 -2.300627708435058594e+01 -2.594046294689178467e-03 -1.397095271386206150e-03 -1.197342528030276299e-03 1.938060624524950981e-03
2.678000000000000000e+03 7.287703704833984375e+01 -2.264421463012695312e+01 -1.123890560120344162e-02 -7.513804011978209019e-04 -3.597085829824209213e-03 1.450717798434197903e-03
2.679000000000000000e+03 3.371072769165039062e+01 -2.912940788269042969e+01 4.239187836647033691e-01 3.926377296447753906e+00 1.305088758468627930e+00 1.619123220443725586e+00
2.680000000000000000e+03 3.468439483642578125e+01 -2.881781387329101562e+01 3.640251457691192627e-01 4.748861312866210938e+00 1.533865928649902344e+00 1.620758175849914551e+00
2.681000000000000000e+03 1.491932678222656250e+01 -4.409411430358886719e+00 -5.456417798995971680e-01 3.130785822868347168e-01 -6.976897269487380981e-02 5.009030550718307495e-02
2.682000000000000000e+03 1.823156738281250000e+01 -1.000295829772949219e+01 7.773736119270324707e-01 8.536254763603210449e-01 4.892997145652770996e-01 7.713086009025573730e-01
2.683000000000000000e+03 7.730866241455078125e+01 -2.109479904174804688e+01 -9.134655119851231575e-04 -4.319699655752629042e-04 -4.036306345369666815e-04 -6.701414240524172783e-04
2.684000000000000000e+03 7.612651824951171875e+01 -2.292647171020507812e+01 -5.032921675592660904e-03 -2.437092829495668411e-03 -2.241004491224884987e-03 2.874533412978053093e-03
2.685000000000000000e+03 7.733132171630859375e+01 -2.225276184082031250e+01 -1.999181928113102913e-03 -9.318538359366357327e-04 -8.793107117526233196e-04 4.212558851577341557e-04
2.686000000000000000e+03 7.676065826416015625e+01 -2.831995964050292969e+01 -9.759897366166114807e-03 -1.775107719004154205e-02 -8.253293111920356750e-03 2.422801591455936432e-02
2.687000000000000000e+03 7.611958312988281250e+01 -2.899878692626953125e+01 -1.346511300653219223e-02 -1.897501572966575623e-02 -9.732038713991641998e-03 3.203147277235984802e-02
2.688000000000000000e+03 7.672358703613281250e+01 -2.980685424804687500e+01 -9.441657923161983490e-03 -2.745193243026733398e-02 -1.106807775795459747e-02 3.266307339072227478e-02
2.689000000000000000e+03 7.746369171142578125e+01 -2.838578605651855469e+01 -6.185932550579309464e-03 -1.959204673767089844e-02 -7.733393926173448563e-03 1.971164159476757050e-02
2.690000000000000000e+03 7.612689971923828125e+01 -3.354297637939453125e+01 -4.791048821061849594e-03 -5.574340373277664185e-02 -1.816033571958541870e-02 5.055868625640869141e-02
2.691000000000000000e+03 7.664964294433593750e+01 -3.472278213500976562e+01 2.112689981004223228e-05 -7.229223102331161499e-02 -2.168133109807968140e-02 4.623900353908538818e-02
2.692000000000000000e+03 7.671305084228515625e+01 -2.523245620727539062e+01 -7.285466417670249939e-03 -5.687125492841005325e-03 -3.891777480021119118e-03 9.635522961616516113e-03
2.693000000000000000e+03 7.674974822998046875e+01 -2.445257568359375000e+01 -6.184855010360479355e-03 -4.009665455669164658e-03 -3.058356000110507011e-03 6.262298207730054855e-03
2.694000000000000000e+03 2.297156906127929688e+01 -2.806488275527954102e+00 -1.060521528124809265e-01 9.961473196744918823e-02 -1.931225531734526157e-03 6.054614782333374023e-01
2.695000000000000000e+03 2.222717857360839844e+01 -3.675917148590087891e+00 -1.606695950031280518e-01 1.638870984315872192e-01 9.652503649704158306e-04 6.745173931121826172e-01
2.696000000000000000e+03 6.695122528076171875e+01 -2.784996414184570312e+01 -1.271251589059829712e-01 3.385425731539726257e-02 -2.798127010464668274e-02 6.183410529047250748e-03
2.697000000000000000e+03 1.728512954711914062e+01 4.608238220214843750e+00 -3.577819734346121550e-05 6.368046160787343979e-04 1.803079212550073862e-04 1.517585042165592313e-04
2.698000000000000000e+03 1.257842826843261719e+01 -4.564507961273193359e+00 -5.243006348609924316e-01 2.527343034744262695e-01 -8.146989345550537109e-02 -2.243908047676086426e-01
2.699000000000000000e+03 7.592778015136718750e+01 -3.038604927062988281e+01 -1.261891610920429230e-02 -2.728746458888053894e-02 -1.197191420942544937e-02 4.173987731337547302e-02
2.700000000000000000e+03 3.546812820434570312e+01 6.400038719177246094e+00 1.067940354347229004e+00 1.472408294677734375e+01 4.737607002258300781e+00 -1.107490539550781250e+00
2.701000000000000000e+03 2.753777980804443359e+00 2.841170692443847656e+01 2.899172017350792885e-03 -1.574082076549530029e-01 -4.635271057486534119e-02 7.379762083292007446e-02
2.702000000000000000e+03 4.028066635131835938e+00 2.984355545043945312e+01 8.989680558443069458e-03 -1.352659761905670166e-01 -3.788288682699203491e-02 9.087192267179489136e-02
2.703000000000000000e+03 7.714768218994140625e+01 3.174746894836425781e+01 -3.644611686468124390e-02 -1.240581572055816650e-01 -4.815128073096275330e-02 1.840514987707138062e-01
2.704000000000000000e+03 6.764888000488281250e+01 -2.721435737609863281e+01 -9.889419376850128174e-02 2.754921838641166687e-02 -2.140349335968494415e-02 1.300701871514320374e-03
2.705000000000000000e+03 7.664367675781250000e+01 2.521139907836914062e+01 -3.382646292448043823e-02 -4.660208523273468018e-01 -1.499541848897933960e-01 3.605205118656158447e-01
2.706000000000000000e+03 4.343598556518554688e+01 1.817602729797363281e+01 4.980022013187408447e-01 2.423513650894165039e+00 8.764547705650329590e-01 1.213873386383056641e+00
2.707000000000000000e+03 3.501030731201171875e+01 1.117403411865234375e+01 8.829182982444763184e-01 1.303815555572509766e+01 4.176321983337402344e+00 -1.971282243728637695e+00
2.708000000000000000e+03 2.252153205871582031e+01 -7.192833900451660156e+00 9.912353940308094025e-03 3.109232783317565918e-01 9.625068306922912598e-02 7.429957985877990723e-01
2.709000000000000000e+03 7.662463378906250000e+01 -3.056195068359375000e+01 -8.845713920891284943e-03 -3.296673670411109924e-02 -1.254373509436845779e-02 3.660497069358825684e-02
2.710000000000000000e+03 7.601106262207031250e+01 2.288362693786621094e+01 -9.801593609154224396e-03 -4.870276153087615967e-01 -1.490487605333328247e-01 4.406026601791381836e-01
2.711000000000000000e+03 7.740798187255859375e+01 2.445122909545898438e+01 -1.613185741007328033e-02 -6.913572549819946289e-01 -2.122467458248138428e-01 3.106019794940948486e-01
2.712000000000000000e+03 5.653088760375976562e+01 -4.491220474243164062e+00 1.982482224702835083e-01 1.968908667564392090e+00 6.501470804214477539e-01 1.193576574325561523e+00
2.713000000000000000e+03 7.678611755371093750e+01 1.816936492919921875e+01 4.439464211463928223e-02 -1.065657973289489746e+00 -3.063789904117584229e-01 3.299349546432495117e-01
2.714000000000000000e+03 7.672348785400390625e+01 2.210433006286621094e+01 -1.827586907893419266e-03 -7.307652235031127930e-01 -2.197778373956680298e-01 3.865766227245330811e-01
2.715000000000000000e+03 6.111387252807617188e+01 -1.074827480316162109e+01 -8.742709159851074219e-01 4.049066007137298584e-01 -1.408092826604843140e-01 4.288199841976165771e-01
2.716000000000000000e+03 7.611528778076171875e+01 1.583067798614501953e+01 9.425090253353118896e-02 -9.838550686836242676e-01 -2.668812572956085205e-01 2.932111620903015137e-01
2.717000000000000000e+03 7.750816345214843750e+01 1.734614372253417969e+01 3.377384692430496216e-02 -1.376280903816223145e+00 -4.027521312236785889e-01 2.541750371456146240e-01
2.718000000000000000e+03 7.682987213134765625e+01 1.499917030334472656e+01 7.131379842758178711e-02 -1.285070657730102539e+00 -3.641270697116851807e-01 2.220734655857086182e-01
2.719000000000000000e+03 7.685357666015625000e+01 1.104888153076171875e+01 8.537207543849945068e-02 -1.423995733261108398e+00 -4.015870988368988037e-01 4.233921319246292114e-02
2.720000000000000000e+03 7.685212707519531250e+01 1.184382152557373047e+01 8.467850834131240845e-02 -1.410871505737304688e+00 -3.978579044342041016e-01 8.012983947992324829e-02
2.721000000000000000e+03 7.615364837646484375e+01 1.033380699157714844e+01 1.214681714773178101e-01 -1.163507699966430664e+00 -3.126118481159210205e-01 1.153708994388580322e-02
2.722000000000000000e+03 7.755310821533203125e+01 1.019341659545898438e+01 5.363221094012260437e-02 -1.707634210586547852e+00 -4.962006211280822754e-01 -1.205230830237269402e-03
2.723000000000000000e+03 7.687186431884765625e+01 -3.813076496124267578e+00 -1.049170643091201782e-02 -6.611877083778381348e-01 -2.015038132667541504e-01 -4.001474678516387939e-01
2.724000000000000000e+03 7.686389923095703125e+01 -3.036091089248657227e+00 1.369979145238175988e-04 -7.294179797172546387e-01 -2.187842875719070435e-01 -4.023976624011993408e-01
2.725000000000000000e+03 5.907930374145507812e+01 2.467704582214355469e+01 -2.660902142524719238e-01 1.006870746612548828e+00 2.222341746091842651e-01 -7.125764489173889160e-01
2.726000000000000000e+03 7.686083221435546875e+01 7.867951869964599609e+00 7.957298308610916138e-02 -1.416561007499694824e+00 -4.010964035987854004e-01 -1.092566698789596558e-01
2.727000000000000000e+03 7.687007904052734375e+01 -4.591115474700927734e+00 -1.847927086055278778e-02 -5.921223759651184082e-01 -1.831804811954498291e-01 -3.926477134227752686e-01
2.728000000000000000e+03 7.674552917480468750e+01 3.845741033554077148e+00 6.576519459486007690e-02 -1.224449992179870605e+00 -3.476054370403289795e-01 -2.825642824172973633e-01
2.729000000000000000e+03 7.680453491210937500e+01 4.672317981719970703e+00 7.000715285539627075e-02 -1.286734461784362793e+00 -3.650181889533996582e-01 -2.476101070642471313e-01
2.730000000000000000e+03 7.753283691406250000e+01 -6.859033107757568359e+00 -3.067867644131183624e-02 -4.557924270629882812e-01 -1.459413319826126099e-01 -2.904653847217559814e-01
2.731000000000000000e+03 7.648934173583984375e+01 1.077507376670837402e+00 5.087467283010482788e-02 -9.733945727348327637e-01 -2.767559587955474854e-01 -3.845766484737396240e-01
2.732000000000000000e+03 7.741159057617187500e+01 2.914594650268554688e+00 4.335210472345352173e-02 -1.364781260490417480e+00 -3.964287638664245605e-01 -2.672719955444335938e-01
2.733000000000000000e+03 7.674088287353515625e+01 -6.671033501625061035e-01 2.312118560075759888e-02 -9.075931310653686523e-01 -2.653415799140930176e-01 -3.965851664543151855e-01
2.734000000000000000e+03 7.735116577148437500e+01 2.045735359191894531e+00 3.357622399926185608e-02 -1.284793496131896973e+00 -3.753651678562164307e-01 -2.931087315082550049e-01
2.735000000000000000e+03 7.648722076416015625e+01 2.049312829971313477e+00 6.073300912976264954e-02 -1.034377217292785645e+00 -2.920932471752166748e-01 -3.594313859939575195e-01
2.736000000000000000e+03 7.663857269287109375e+01 2.986360788345336914e+00 6.599690765142440796e-02 -1.139560222625732422e+00 -3.220689892768859863e-01 -3.186431825160980225e-01
2.737000000000000000e+03 7.755400848388671875e+01 9.399554252624511719e+00 5.346122384071350098e-02 -1.706186413764953613e+00 -4.958175718784332275e-01 -3.284588828682899475e-02
2.738000000000000000e+03 7.685569000244140625e+01 9.462275505065917969e+00 8.341129124164581299e-02 -1.432609796524047852e+00 -4.047595560550689697e-01 -3.502747789025306702e-02
2.739000000000000000e+03 7.683557891845703125e+01 -6.148383617401123047e+00 -3.961543738842010498e-02 -4.551647901535034180e-01 -1.484340727329254150e-01 -3.683142066001892090e-01
2.740000000000000000e+03 7.685406494140625000e+01 1.025680160522460938e+01 8.552345633506774902e-02 -1.432776331901550293e+00 -4.041758775711059570e-01 3.261411795392632484e-03
2.741000000000000000e+03 7.751671600341796875e+01 1.655173873901367188e+01 3.731403499841690063e-02 -1.439794301986694336e+00 -4.207440614700317383e-01 2.337101548910140991e-01
2.742000000000000000e+03 7.680987548828125000e+01 1.658322715759277344e+01 5.968910083174705505e-02 -1.184777855873107910e+00 -3.375266194343566895e-01 2.819800376892089844e-01
2.743000000000000000e+03 7.679875946044921875e+01 1.737614822387695312e+01 5.203442648053169250e-02 -1.126840710639953613e+00 -3.224418759346008301e-01 3.092186450958251953e-01
2.744000000000000000e+03 7.743125915527343750e+01 2.366034126281738281e+01 -1.192926615476608276e-02 -7.689952850341796875e-01 -2.342773675918579102e-01 3.149751424789428711e-01
2.745000000000000000e+03 7.671770477294921875e+01 2.364365196228027344e+01 -1.599432900547981262e-02 -6.026042699813842773e-01 -1.855795681476593018e-01 3.796181976795196533e-01
2.746000000000000000e+03 7.668694305419921875e+01 2.442401504516601562e+01 -2.749196812510490417e-02 -5.308210253715515137e-01 -1.674938946962356567e-01 3.710467517375946045e-01
2.747000000000000000e+03 7.750708007812500000e+01 -1.076622867584228516e+01 -5.204078927636146545e-02 -1.623209267854690552e-01 -6.430851668119430542e-02 -1.679034829139709473e-01
2.748000000000000000e+03 7.685164642333984375e+01 6.279304981231689453e+00 7.523062080144882202e-02 -1.369809389114379883e+00 -3.883736133575439453e-01 -1.797323673963546753e-01
2.749000000000000000e+03 7.712364196777343750e+01 3.095019149780273438e+01 -3.862998262047767639e-02 -1.666048467159271240e-01 -6.157045066356658936e-02 2.013443112373352051e-01
2.750000000000000000e+03 7.668031311035156250e+01 2.989700126647949219e+01 -4.981468617916107178e-02 -1.734033972024917603e-01 -6.696542352437973022e-02 2.538315057754516602e-01
2.751000000000000000e+03 7.577106475830078125e+01 3.174801063537597656e+01 -7.416170090436935425e-02 3.075133264064788818e-02 -1.302311103790998459e-02 2.372890114784240723e-01
2.752000000000000000e+03 7.685986328125000000e+01 7.069484233856201172e+00 7.804458588361740112e-02 -1.397619962692260742e+00 -3.958726227283477783e-01 -1.450536400079727173e-01
2.753000000000000000e+03 7.680307769775390625e+01 -1.471123814582824707e+00 1.724955439567565918e-02 -8.542810082435607910e-01 -2.511094212532043457e-01 -4.011217653751373291e-01
2.754000000000000000e+03 7.684352111816406250e+01 1.342413520812988281e+01 7.850564271211624146e-02 -1.360502123832702637e+00 -3.845989406108856201e-01 1.540297418832778931e-01
2.755000000000000000e+03 4.249269104003906250e+01 -2.237979316711425781e+01 2.076760292053222656e+00 1.029598808288574219e+01 3.711824417114257812e+00 -6.123163104057312012e-01
2.756000000000000000e+03 4.343901443481445312e+01 -2.200767898559570312e+01 1.750259041786193848e+00 1.141903877258300781e+01 3.950789213180541992e+00 -6.473830342292785645e-01
2.757000000000000000e+03 7.683764648437500000e+01 1.420860481262207031e+01 7.504338026046752930e-02 -1.325828313827514648e+00 -3.752354681491851807e-01 1.890260130167007446e-01
2.758000000000000000e+03 7.751614379882812500e+01 -8.435639381408691406e+00 -4.183709248900413513e-02 -3.198757767677307129e-01 -1.085138618946075439e-01 -2.484566718339920044e-01
2.759000000000000000e+03 7.678280639648437500e+01 -9.288495063781738281e+00 -7.384223490953445435e-02 -2.227975428104400635e-01 -8.899193257093429565e-02 -2.688485085964202881e-01
2.760000000000000000e+03 7.678978729248046875e+01 -8.505770683288574219e+00 -6.834096461534500122e-02 -2.738160789012908936e-01 -1.026471108198165894e-01 -3.002221584320068359e-01
2.761000000000000000e+03 7.681585693359375000e+01 -6.931011199951171875e+00 -5.105390772223472595e-02 -3.907127976417541504e-01 -1.325300037860870361e-01 -3.504407107830047607e-01
2.762000000000000000e+03 7.680040740966796875e+01 -7.717712402343750000e+00 -5.882775038480758667e-02 -3.300922214984893799e-01 -1.166759878396987915e-01 -3.265213072299957275e-01
2.763000000000000000e+03 4.307919311523437500e+01 -2.078224754333496094e+01 2.005048751831054688e+00 1.076152610778808594e+01 3.829972267150878906e+00 -1.759541928768157959e-01
2.764000000000000000e+03 7.673973083496093750e+01 2.055055046081542969e+01 1.877467893064022064e-02 -8.644253611564636230e-01 -2.536951899528503418e-01 3.771817982196807861e-01
2.765000000000000000e+03 7.677338409423828125e+01 -1.082104301452636719e+01 -8.164130896329879761e-02 -1.389303207397460938e-01 -6.617148965597152710e-02 -2.025890350341796875e-01
2.766000000000000000e+03 4.085906982421875000e+00 -2.954268074035644531e+01 -4.283283278346061707e-02 -5.145842432975769043e-01 -1.672251224517822266e-01 2.575384080410003662e-01
2.767000000000000000e+03 2.945851564407348633e+00 -3.207056045532226562e+01 -3.788570687174797058e-02 -6.213012933731079102e-01 -1.977560967206954956e-01 1.705689728260040283e-01
2.768000000000000000e+03 7.672644805908203125e+01 2.133059883117675781e+01 7.189213298261165619e-03 -7.980805039405822754e-01 -2.372673898935317993e-01 3.836410939693450928e-01
2.769000000000000000e+03 7.647122955322265625e+01 2.772200202941894531e+01 -4.786217212677001953e-02 -2.643057107925415039e-01 -9.365036338567733765e-02 3.221871554851531982e-01
2.770000000000000000e+03 7.635675048828125000e+01 2.861479568481445312e+01 -5.590942129492759705e-02 -1.891666650772094727e-01 -7.352282106876373291e-02 3.003114461898803711e-01
2.771000000000000000e+03 3.313300132751464844e+00 3.129846382141113281e+01 9.710408747196197510e-03 -1.891888529062271118e-01 -5.384353175759315491e-02 7.456621527671813965e-02
2.772000000000000000e+03 5.403812408447265625e+01 2.404810333251953125e+01 -2.204306423664093018e-01 1.998793929815292358e-01 -6.165375467389822006e-03 2.023741370067000389e-03
2.773000000000000000e+03 3.401217222213745117e+00 -2.961692810058593750e+01 -3.604456037282943726e-02 -6.399004459381103516e-01 -2.027834951877593994e-01 2.387693077325820923e-01
2.774000000000000000e+03 6.498678588867187500e+01 1.462966823577880859e+01 4.911217391490936279e-01 3.561612844467163086e+00 1.215820312500000000e+00 1.801198720932006836e-01
2.775000000000000000e+03 3.374827861785888672e+00 -2.492663764953613281e+01 2.104054577648639679e-02 -8.552504181861877441e-01 -2.502629458904266357e-01 2.591473162174224854e-01
2.776000000000000000e+03 2.566169023513793945e+00 2.112946128845214844e+01 -1.120704319328069687e-02 -3.701535984873771667e-02 -1.446672063320875168e-02 3.897202387452125549e-02
2.777000000000000000e+03 3.361731052398681641e+00 2.268969917297363281e+01 -1.566415093839168549e-02 -4.650767520070075989e-02 -1.865154877305030823e-02 6.139940023422241211e-02
2.778000000000000000e+03 3.382664442062377930e+00 2.431589698791503906e+01 -1.205550972372293472e-02 -6.825347989797592163e-02 -2.409269660711288452e-02 7.350271195173263550e-02
2.779000000000000000e+03 3.297562599182128906e+00 -2.172823524475097656e+01 7.808982580900192261e-02 -1.003878355026245117e+00 -2.777365446090698242e-01 1.701413691043853760e-01
2.780000000000000000e+03 3.318825721740722656e+00 -2.252821159362792969e+01 6.719558686017990112e-02 -9.710338711738586426e-01 -2.711514830589294434e-01 2.015911042690277100e-01
2.781000000000000000e+03 3.501604795455932617e+00 8.139142990112304688e+00 4.333885153755545616e-04 1.281053700949996710e-04 1.684481685515493155e-04 -1.751040923409163952e-03
2.782000000000000000e+03 2.695094585418701172e+00 8.208341598510742188e+00 4.460307536646723747e-05 1.132568577304482460e-03 3.531514666974544525e-04 -1.677256543189287186e-03
2.783000000000000000e+03 4.804769897460937500e+01 -1.507302665710449219e+01 4.175524234771728516e+00 3.515354633331298828e+00 2.307263612747192383e+00 2.520921468734741211e+00
2.784000000000000000e+03 4.856851959228515625e+01 -1.438448333740234375e+01 3.379350185394287109e+00 2.740854263305664062e+00 1.836061358451843262e+00 2.269520282745361328e+00
2.785000000000000000e+03 4.622705841064453125e+01 -1.442681121826171875e+01 2.281534433364868164e+00 5.573688983917236328e+00 2.356566905975341797e+00 1.527589440345764160e+00
2.786000000000000000e+03 7.579923248291015625e+01 3.424622726440429688e+01 -6.663279235363006592e-02 1.065756976604461670e-01 1.198287215083837509e-02 1.700350046157836914e-01
2.787000000000000000e+03 3.215298175811767578e+00 -1.530397319793701172e+01 1.135419681668281555e-01 -1.025877356529235840e+00 -2.737006247043609619e-01 -1.981026977300643921e-01
2.788000000000000000e+03 2.528913259506225586e+00 -1.777322578430175781e+01 7.430211454629898071e-02 -1.300463080406188965e+00 -3.678482770919799805e-01 -3.515038639307022095e-02
2.789000000000000000e+03 3.222258090972900391e+00 -1.611285781860351562e+01 1.180066466331481934e-01 -1.051842689514160156e+00 -2.801508009433746338e-01 -1.469741761684417725e-01
2.790000000000000000e+03 2.523725271224975586e+00 -6.483233928680419922e+00 -3.065951354801654816e-02 -4.474826157093048096e-01 -1.434426456689834595e-01 -3.557131588459014893e-01
2.791000000000000000e+03 2.513682842254638672e+00 1.394317054748535156e+01 -2.392517635598778725e-03 2.751818101387470961e-04 -6.352007039822638035e-04 1.922677154652774334e-03
2.792000000000000000e+03 3.212527751922607422e+00 1.555387115478515625e+01 -7.392648607492446899e-03 -2.913324860855937004e-03 -3.091792110353708267e-03 7.544720545411109924e-03
2.793000000000000000e+03 3.202560424804687500e+00 1.715043258666992188e+01 -1.087994687259197235e-02 -6.649577990174293518e-03 -5.258857738226652145e-03 1.506367232650518417e-02
2.794000000000000000e+03 3.502716302871704102e+00 9.886160850524902344e+00 -1.603180135134607553e-04 -1.492063893238082528e-04 -9.285732085118070245e-05 -1.580732292495667934e-03
2.795000000000000000e+03 2.512919902801513672e+00 -7.282862663269042969e+00 -1.638571918010711670e-02 -5.303941369056701660e-01 -1.640339642763137817e-01 -3.673344254493713379e-01
2.796000000000000000e+03 3.216271638870239258e+00 1.475404453277587891e+01 -5.158098414540290833e-03 -2.004339592531323433e-03 -2.148731378838419914e-03 4.717611242085695267e-03
2.797000000000000000e+03 2.565150976181030273e+00 1.151916122436523438e+01 -9.923521429300308228e-04 1.560363103635609150e-03 1.704033056739717722e-04 -1.004591234959661961e-03
2.798000000000000000e+03 2.533590316772460938e+00 1.233509159088134766e+01 -1.114009181037545204e-03 1.343419076874852180e-03 6.882298475829884410e-05 -3.762012638617306948e-04
2.799000000000000000e+03 3.217548608779907227e+00 1.395707511901855469e+01 -4.439984913915395737e-03 -9.653444867581129074e-04 -1.621598727069795132e-03 2.717504044994711876e-03
2.800000000000000000e+03 3.266247987747192383e+00 1.155905818939208984e+01 -1.151361619122326374e-03 2.630971539474558085e-05 -3.375155793037265539e-04 -8.580884314142167568e-04
2.801000000000000000e+03 3.211270332336425781e+00 -1.450138187408447266e+01 1.063674613833427429e-01 -9.931914806365966797e-01 -2.660472095012664795e-01 -2.453902214765548706e-01
2.802000000000000000e+03 4.583847522735595703e+00 1.865551757812500000e+01 -2.571944892406463623e-02 -4.861403722316026688e-03 -9.174255654215812683e-03 2.952781878411769867e-02
2.803000000000000000e+03 2.511490345001220703e+00 1.715078926086425781e+01 -6.368264090269804001e-03 -7.378334179520606995e-03 -4.123979248106479645e-03 1.258130464702844620e-02
2.804000000000000000e+03 3.232116460800170898e+00 1.873547554016113281e+01 -1.454002130776643753e-02 -1.308643911033868790e-02 -8.287938311696052551e-03 2.582707628607749939e-02
2.805000000000000000e+03 2.494642496109008789e+00 -1.133019828796386719e+01 3.962256014347076416e-02 -9.483744502067565918e-01 -2.726255655288696289e-01 -3.295002281665802002e-01
2.806000000000000000e+03 3.183277130126953125e+00 -1.047315216064453125e+01 4.558143764734268188e-02 -7.321598529815673828e-01 -2.059735357761383057e-01 -4.133624732494354248e-01
2.807000000000000000e+03 2.535982131958007812e+00 -1.857985115051269531e+01 7.252871245145797729e-02 -1.303514361381530762e+00 -3.692956864833831787e-01 6.265235133469104767e-03
2.808000000000000000e+03 4.604039669036865234e+00 -1.607932090759277344e+01 2.166657000780105591e-01 -6.560513973236083984e-01 -1.318157017230987549e-01 -1.788578182458877563e-01
2.809000000000000000e+03 2.498384714126586914e+00 -1.213861465454101562e+01 4.899085685610771179e-02 -1.020840644836425781e+00 -2.915549278259277344e-01 -3.044900596141815186e-01
2.810000000000000000e+03 3.192850828170776367e+00 -1.128228664398193359e+01 6.141187623143196106e-02 -7.947392463684082031e-01 -2.199982106685638428e-01 -3.907328844070434570e-01
2.811000000000000000e+03 2.542588472366333008e+00 -1.938492393493652344e+01 6.698349863290786743e-02 -1.295047521591186523e+00 -3.684192001819610596e-01 4.662996903061866760e-02
2.812000000000000000e+03 3.390183210372924805e+00 -2.886008453369140625e+01 -2.449098043143749237e-02 -6.760171055793762207e-01 -2.101524323225021362e-01 2.490623295307159424e-01
2.813000000000000000e+03 3.496187210083007812e+00 2.831727981567382812e+01 1.309515791945159435e-03 -1.304059773683547974e-01 -3.872893750667572021e-02 8.821652829647064209e-02
2.814000000000000000e+03 3.251785993576049805e+00 -1.853940391540527344e+01 1.112752184271812439e-01 -1.073819756507873535e+00 -2.887633442878723145e-01 5.041485652327537537e-03
2.815000000000000000e+03 3.474990367889404297e+00 5.720919609069824219e+00 3.760928811971098185e-04 2.197267895098775625e-04 1.787459041224792600e-04 -1.384587143547832966e-03
2.816000000000000000e+03 3.411354064941406250e+00 2.751726531982421875e+01 3.890952575602568686e-05 -1.184690669178962708e-01 -3.552904725074768066e-02 8.601389825344085693e-02
2.817000000000000000e+03 2.715072393417358398e+00 4.962705135345458984e+00 2.785110846161842346e-04 6.030711228959262371e-04 2.644746564328670502e-04 -1.186129171401262283e-03
2.818000000000000000e+03 4.292716503143310547e+00 4.889464855194091797e+00 5.615971167571842670e-04 -1.830340479500591755e-04 1.135689162765629590e-04 -1.191066578030586243e-03
2.819000000000000000e+03 3.538573026657104492e+00 4.139986038208007812e+00 4.674365627579391003e-04 1.643282012082636356e-04 1.895294262794777751e-04 -1.090280362404882908e-03
2.820000000000000000e+03 4.333773612976074219e+00 4.112453937530517578e+00 7.682968862354755402e-04 -1.314871187787503004e-04 1.910429418785497546e-04 -1.085170893929898739e-03
2.821000000000000000e+03 2.613803386688232422e+00 -2.419144439697265625e+01 2.151002176105976105e-02 -1.096085667610168457e+00 -3.223727047443389893e-01 2.109731584787368774e-01
2.822000000000000000e+03 4.081170558929443359e+00 -2.327826309204101562e+01 7.586133480072021484e-02 -7.280258536338806152e-01 -1.956493556499481201e-01 2.537941634654998779e-01
2.823000000000000000e+03 3.375491380691528320e+00 -2.571615791320800781e+01 1.086047384887933731e-02 -8.181943297386169434e-01 -2.422001510858535767e-01 2.660518586635589600e-01
2.824000000000000000e+03 3.327983379364013672e+00 2.188172340393066406e+01 -1.728716678917407990e-02 -3.743515908718109131e-02 -1.641669869422912598e-02 5.386817082762718201e-02
2.825000000000000000e+03 3.206165552139282227e+00 1.635402870178222656e+01 -8.226429112255573273e-03 -4.863199777901172638e-03 -3.926888573914766312e-03 1.088551338762044907e-02
2.826000000000000000e+03 4.022925376892089844e+00 -5.606226444244384766e+00 -9.953144192695617676e-02 -2.610308527946472168e-01 -1.081686839461326599e-01 -4.526666104793548584e-01
2.827000000000000000e+03 3.209196090698242188e+00 -1.370082569122314453e+01 9.579778462648391724e-02 -9.516598582267761230e-01 -2.567586302757263184e-01 -2.889138460159301758e-01
2.828000000000000000e+03 3.206475257873535156e+00 -1.289945507049560547e+01 8.616841584444046021e-02 -9.049028158187866211e-01 -2.456203252077102661e-01 -3.274655938148498535e-01
2.829000000000000000e+03 2.835347652435302734e+00 -3.128671836853027344e+01 -2.786194533109664917e-02 -6.652697920799255371e-01 -2.079395204782485962e-01 1.855737864971160889e-01
2.830000000000000000e+03 3.619721174240112305e+00 -3.109688377380371094e+01 -4.485050961375236511e-02 -5.499511361122131348e-01 -1.784404963254928589e-01 2.134108394384384155e-01
2.831000000000000000e+03 2.732217550277709961e+00 3.169869804382324219e+01 9.362207725644111633e-03 -2.184891402721405029e-01 -6.273808330297470093e-02 6.294581294059753418e-02
2.832000000000000000e+03 4.647483825683593750e+00 3.018652153015136719e+01 1.265480555593967438e-02 -1.070483624935150146e-01 -2.831806614995002747e-02 9.772133082151412964e-02
2.833000000000000000e+03 3.451021909713745117e+00 3.352584075927734375e+01 8.119370788335800171e-03 -2.022912353277206421e-01 -5.825155600905418396e-02 6.176708638668060303e-02
2.834000000000000000e+03 3.280717372894287109e+00 -2.093489837646484375e+01 8.870135247707366943e-02 -1.032230377197265625e+00 -2.830587029457092285e-01 1.342378109693527222e-01
2.835000000000000000e+03 3.268473148345947266e+00 -2.014340972900390625e+01 9.710320085287094116e-02 -1.053039193153381348e+00 -2.867807745933532715e-01 9.600675851106643677e-02
2.836000000000000000e+03 3.184971570968627930e+00 -8.858436584472656250e+00 1.194722577929496765e-02 -5.954970717430114746e-01 -1.750649511814117432e-01 -4.383220076560974121e-01
2.837000000000000000e+03 3.206311941146850586e+00 -8.049119949340820312e+00 -6.381232291460037231e-03 -5.239745378494262695e-01 -1.591067314147949219e-01 -4.403116405010223389e-01
2.838000000000000000e+03 4.137694835662841797e+00 2.262331008911132812e+01 -2.321667410433292389e-02 -3.389519825577735901e-02 -1.713356189429759979e-02 6.982239335775375366e-02
2.839000000000000000e+03 3.371613264083862305e+00 -2.650525474548339844e+01 -3.145438153296709061e-03 -7.815884947776794434e-01 -2.354201674461364746e-01 2.678314745426177979e-01
2.840000000000000000e+03 3.383045673370361328e+00 2.350059127807617188e+01 -1.504692249000072479e-02 -5.671983957290649414e-02 -2.153002843260765076e-02 6.826688349246978760e-02
2.841000000000000000e+03 6.465147399902343750e+01 1.149156093597412109e+01 5.435456037521362305e-01 3.780674695968627930e+00 1.297266006469726562e+00 4.518626928329467773e-01
2.842000000000000000e+03 3.384742736816406250e+01 -7.977256298065185547e+00 -2.137461900711059570e+00 6.441645145416259766e+00 1.291254878044128418e+00 -1.183622479438781738e+00
2.843000000000000000e+03 3.386402368545532227e+00 -2.808568572998046875e+01 -2.368986792862415314e-02 -7.058344483375549316e-01 -2.188573032617568970e-01 2.553260624408721924e-01
2.844000000000000000e+03 3.374213933944702148e+00 -2.729615974426269531e+01 -1.122578885406255722e-02 -7.413927912712097168e-01 -2.257855832576751709e-01 2.654894590377807617e-01
2.845000000000000000e+03 1.732169532775878906e+01 -4.290894985198974609e+00 -4.735127985477447510e-01 3.055723011493682861e-01 -5.038214847445487976e-02 3.397254049777984619e-01
2.846000000000000000e+03 3.843693733215332031e+00 -3.187706565856933594e+01 -4.971496388316154480e-02 -4.953626096248626709e-01 -1.635232716798782349e-01 2.090217322111129761e-01
2.847000000000000000e+03 4.105566787719726562e+01 1.581145191192626953e+01 6.359880566596984863e-01 4.451307296752929688e+00 1.526188611984252930e+00 1.400051236152648926e+00
2.848000000000000000e+03 4.337066650390625000e+01 1.708798027038574219e+01 6.013119816780090332e-01 2.294553041458129883e+00 8.687595129013061523e-01 1.206457972526550293e+00
2.849000000000000000e+03 4.102531433105468750e+01 1.466546535491943359e+01 6.946831345558166504e-01 4.604174613952636719e+00 1.589657306671142578e+00 1.495909214019775391e+00
2.850000000000000000e+03 4.214270782470703125e+01 1.482663154602050781e+01 7.932648062705993652e-01 3.139346361160278320e+00 1.179783344268798828e+00 1.462118268013000488e+00
2.851000000000000000e+03 3.685050010681152344e+00 3.471125030517578125e+01 1.008855924010276794e-02 -1.948387622833251953e-01 -5.542505905032157898e-02 5.467327311635017395e-02
2.852000000000000000e+03 2.960190534591674805e+00 3.523110961914062500e+01 5.338907707482576370e-03 -2.472274750471115112e-01 -7.256656885147094727e-02 4.907301440834999084e-02
2.853000000000000000e+03 7.212686157226562500e+01 -1.245047473907470703e+01 -3.588200807571411133e-01 9.125925600528717041e-02 -8.026824891567230225e-02 -1.687041670083999634e-01
2.854000000000000000e+03 3.368317604064941406e+00 3.605244445800781250e+01 1.471686456352472305e-02 -2.230025678873062134e-01 -6.248571351170539856e-02 4.271059110760688782e-02
2.855000000000000000e+03 6.625859832763671875e+01 -2.831696128845214844e+01 -1.559873372316360474e-01 3.982387855648994446e-02 -3.484903648495674133e-02 4.518094006925821304e-03
2.856000000000000000e+03 1.317236709594726562e+01 -1.412640476226806641e+01 8.308732509613037109e-01 1.968814730644226074e+00 8.399063944816589355e-01 2.767142951488494873e-01
2.857000000000000000e+03 1.228289985656738281e+01 -1.822377395629882812e+01 5.853376388549804688e-01 2.260611772537231445e+00 8.537848591804504395e-01 3.026157617568969727e-02
2.858000000000000000e+03 6.842916107177734375e+01 -1.183031082153320312e+01 -8.279750347137451172e-01 1.910917460918426514e-01 -1.910649836063385010e-01 -1.210275739431381226e-01
2.859000000000000000e+03 3.806836700439453125e+01 -7.789272069931030273e-01 1.509225487709045410e+00 1.272067260742187500e+01 4.268969535827636719e+00 -1.891921877861022949e+00
2.860000000000000000e+03 5.689676284790039062e+01 -1.194555568695068359e+01 -1.159175112843513489e-02 5.347791910171508789e-01 1.569562405347824097e-01 9.300077557563781738e-01
2.861000000000000000e+03 5.579656219482421875e+01 -1.232898712158203125e+01 3.218347728252410889e-01 4.881560206413269043e-01 2.429972440004348755e-01 1.090207099914550781e+00
2.862000000000000000e+03 3.633518934249877930e+00 3.050255775451660156e+01 9.288560599088668823e-03 -1.535898298025131226e-01 -4.329038038849830627e-02 8.521944284439086914e-02
2.863000000000000000e+03 4.619054412841796875e+01 2.079826736450195312e+01 1.319073736667633057e-01 1.411348462104797363e+00 4.629767239093780518e-01 9.003749489784240723e-01
2.864000000000000000e+03 4.423527240753173828e+00 -3.548283767700195312e+01 -6.046689301729202271e-02 -3.398964107036590576e-01 -1.201089918613433838e-01 1.311699599027633667e-01
2.865000000000000000e+03 3.917520284652709961e+00 -3.273740386962890625e+01 -5.670501664280891418e-02 -4.592441916465759277e-01 -1.547847688198089600e-01 1.920567899942398071e-01
2.866000000000000000e+03 1.360049247741699219e+01 1.338562870025634766e+01 1.399517896061297506e-05 3.629066050052642822e-03 1.092918333597481251e-03 6.952489493414759636e-04
2.867000000000000000e+03 1.194740200042724609e+01 -2.050032997131347656e+01 6.276221275329589844e-01 1.850897789001464844e+00 7.435559630393981934e-01 -6.784632802009582520e-03
2.868000000000000000e+03 1.321831226348876953e+01 1.585264873504638672e+01 -7.414082530885934830e-03 -6.132269743829965591e-03 -4.063905682414770126e-03 -9.807627648115158081e-03
2.869000000000000000e+03 4.205048370361328125e+01 -1.843110466003417969e+01 2.455637454986572266e+00 9.274454116821289062e+00 3.519027233123779297e+00 -4.484177529811859131e-01
2.870000000000000000e+03 2.448928642272949219e+01 2.644858360290527344e+01 4.488131105899810791e-01 1.490549921989440918e+00 5.818089246749877930e-01 -1.279255032539367676e+00
2.871000000000000000e+03 1.571110343933105469e+01 -4.361320018768310547e+00 -5.326763391494750977e-01 3.191622793674468994e-01 -6.405422091484069824e-02 1.497111618518829346e-01
2.872000000000000000e+03 3.993451690673828125e+01 1.571273612976074219e+01 5.735936164855957031e-01 5.714697837829589844e+00 1.886487364768981934e+00 1.189108014106750488e+00
2.873000000000000000e+03 6.376603317260742188e+01 7.304231166839599609e+00 8.034523129463195801e-01 3.599484443664550781e+00 1.320881009101867676e+00 7.602694034576416016e-01
2.874000000000000000e+03 6.284047317504882812e+01 6.718456268310546875e+00 8.699706792831420898e-01 3.932346582412719727e+00 1.440695166587829590e+00 1.037808537483215332e+00
2.875000000000000000e+03 3.563033676147460938e+01 4.875859260559082031e+00 1.504312872886657715e+00 1.450061225891113281e+01 4.801477432250976562e+00 -7.830632328987121582e-01
2.876000000000000000e+03 3.628193664550781250e+01 5.084541797637939453e+00 1.429918050765991211e+00 1.460032272338867188e+01 4.809072494506835938e+00 -8.865149021148681641e-01
2.877000000000000000e+03 6.146523666381835938e+01 2.517358541488647461e+00 8.192893862724304199e-01 2.935069561004638672e+00 1.126307606697082520e+00 1.102760791778564453e+00
2.878000000000000000e+03 6.508267211914062500e+01 1.539954662322998047e+01 5.098428726196289062e-01 3.461867094039916992e+00 1.191513061523437500e+00 1.251396834850311279e-01
2.879000000000000000e+03 1.401493549346923828e+01 -2.383381652832031250e+01 2.071247398853302002e-01 1.883315443992614746e+00 6.271320581436157227e-01 -3.297231197357177734e-01
2.880000000000000000e+03 6.191838836669921875e+01 3.262022018432617188e+00 8.375148773193359375e-01 3.087864398956298828e+00 1.177613735198974609e+00 1.019473433494567871e+00
2.881000000000000000e+03 1.743030166625976562e+01 -1.019140911102294922e+01 7.625773549079895020e-01 1.072874307632446289e+00 5.506355166435241699e-01 7.201306223869323730e-01
2.882000000000000000e+03 5.699765396118164062e+01 -3.658334732055664062e+00 4.537205696105957031e-01 2.016227483749389648e+00 7.409843802452087402e-01 1.173124790191650391e+00
2.883000000000000000e+03 4.459061813354492188e+01 1.813391685485839844e+01 4.570517838001251221e-01 1.669946193695068359e+00 6.380993723869323730e-01 9.919980764389038086e-01
2.884000000000000000e+03 6.728526115417480469e+00 4.782842636108398438e+00 1.051719416864216328e-03 -9.534782147966325283e-04 2.947236680483911186e-05 -6.478404975496232510e-04
2.885000000000000000e+03 5.137845039367675781e+00 4.089180469512939453e+00 7.519326754845678806e-04 -3.786026500165462494e-04 1.119990192819386721e-04 -9.389086626470088959e-04
2.886000000000000000e+03 5.094826698303222656e+00 4.853480815887451172e+00 8.801820804364979267e-04 -5.084557924419641495e-04 1.115178820327855647e-04 -1.114859827794134617e-03
2.887000000000000000e+03 3.302912521362304688e+01 -6.947008132934570312e+00 -1.890759587287902832e+00 5.168397903442382812e+00 9.832915663719177246e-01 -8.647527694702148438e-01
2.888000000000000000e+03 5.907454490661621094e+00 4.817780494689941406e+00 7.937095360830426216e-04 -7.950943545438349247e-04 -4.154470332196069648e-07 -8.357895421795547009e-04
2.889000000000000000e+03 4.318733215332031250e+00 8.027158737182617188e+00 1.051687067956663668e-04 -6.332129705697298050e-04 -1.584132842253893614e-04 -1.530905137769877911e-03
2.890000000000000000e+03 4.569882965087890625e+01 2.020391464233398438e+01 2.074830234050750732e-01 1.511523365974426270e+00 5.157018899917602539e-01 9.246530532836914062e-01
2.891000000000000000e+03 4.519052124023437500e+01 1.864560127258300781e+01 3.675062060356140137e-01 1.441926240921020508e+00 5.428297519683837891e-01 8.976552486419677734e-01
2.892000000000000000e+03 6.821691131591796875e+01 -2.641485595703125000e+01 -7.708087563514709473e-02 1.893894746899604797e-02 -1.744257844984531403e-02 -1.436368213035166264e-03
2.893000000000000000e+03 6.814523315429687500e+01 -2.522732734680175781e+01 -5.277426913380622864e-02 8.634453639388084412e-03 -1.324194483458995819e-02 -9.084654971957206726e-03
2.894000000000000000e+03 4.308739852905273438e+01 -1.851865768432617188e+01 2.673003196716308594e+00 9.828518867492675781e+00 3.750456571578979492e+00 5.897357687354087830e-02
2.895000000000000000e+03 3.601893997192382812e+01 -2.818875885009765625e+01 4.151492118835449219e-01 5.711791038513183594e+00 1.838082075119018555e+00 1.378706336021423340e+00
2.896000000000000000e+03 6.372951507568359375e+01 1.003103733062744141e+01 6.100858449935913086e-01 4.211677074432373047e+00 1.446528911590576172e+00 6.731556653976440430e-01
2.897000000000000000e+03 6.453083038330078125e+01 1.067881488800048828e+01 6.048913598060607910e-01 3.773753166198730469e+00 1.313593387603759766e+00 5.098117589950561523e-01
2.898000000000000000e+03 7.296208953857421875e+01 -1.174686431884765625e+01 -3.087899982929229736e-01 5.831914022564888000e-02 -7.514125853776931763e-02 -2.334812730550765991e-01
2.899000000000000000e+03 3.346805953979492188e+01 1.678536605834960938e+01 1.376311779022216797e+00 1.017714309692382812e+01 3.466036319732666016e+00 -2.305402517318725586e+00
2.900000000000000000e+03 3.526339340209960938e+01 8.800839424133300781e+00 1.039677977561950684e+00 1.404002380371093750e+01 4.523910522460937500e+00 -1.665442824363708496e+00
2.901000000000000000e+03 3.837143325805664062e+01 1.079170799255371094e+01 6.446975469589233398e-01 1.063991832733154297e+01 3.385384798049926758e+00 4.018914103507995605e-01
2.902000000000000000e+03 1.061764335632324219e+01 1.740899467468261719e+01 -5.728246644139289856e-02 1.134592294692993164e-02 -1.378096267580986023e-02 -1.591820083558559418e-02
2.903000000000000000e+03 1.250851535797119141e+01 1.565645313262939453e+01 -1.103416364639997482e-02 -9.220244362950325012e-03 -6.076322402805089951e-03 -1.269720122218132019e-02
2.904000000000000000e+03 1.978279113769531250e+01 -4.034485340118408203e+00 -3.560204505920410156e-01 2.594488263130187988e-01 -2.897149138152599335e-02 5.613793134689331055e-01
2.905000000000000000e+03 1.319043827056884766e+01 -1.481446456909179688e+01 8.557468056678771973e-01 2.197535753250122070e+00 9.159847497940063477e-01 3.551604449748992920e-01
2.906000000000000000e+03 4.885367965698242188e+01 -1.357281112670898438e+01 2.651394367218017578e+00 2.320519924163818359e+00 1.491574287414550781e+00 2.061691045761108398e+00
2.907000000000000000e+03 3.787021255493164062e+01 -1.682778167724609375e+01 1.358149647712707520e+00 9.254367828369140625e+00 3.183755397796630859e+00 -1.570626020431518555e+00
2.908000000000000000e+03 6.285400009155273438e+01 -1.050440311431884766e+01 -1.016129374504089355e+00 2.000254765152931213e-02 -2.988380491733551025e-01 2.689745128154754639e-01
2.909000000000000000e+03 2.045984077453613281e+01 2.462603378295898438e+01 1.536474078893661499e-01 1.419696360826492310e-01 8.868511021137237549e-02 -3.570265471935272217e-01
2.910000000000000000e+03 1.976818656921386719e+01 2.639263534545898438e+01 2.615219354629516602e-01 3.453747928142547607e-01 1.820690184831619263e-01 -4.166153669357299805e-01
2.911000000000000000e+03 2.691667556762695312e+01 2.457646369934082031e+01 7.065605521202087402e-01 2.686844587326049805e+00 1.018021583557128906e+00 -1.955462217330932617e+00
2.912000000000000000e+03 3.781982803344726562e+01 -2.211765670776367188e+01 1.694987297058105469e+00 8.478311538696289062e+00 3.051989555358886719e+00 3.359419107437133789e-01
2.913000000000000000e+03 6.075875091552734375e+01 -3.331031036376953125e+01 -1.199209615588188171e-01 7.203129678964614868e-02 -1.436689961701631546e-02 1.367537826299667358e-01
2.914000000000000000e+03 1.533327865600585938e+01 -2.647342300415039062e+01 9.756235405802726746e-03 1.283818960189819336e+00 3.880725800991058350e-01 -3.805390894412994385e-01
2.915000000000000000e+03 5.908275985717773438e+01 -8.590312600135803223e-01 9.041054844856262207e-01 2.222610712051391602e+00 9.380148649215698242e-01 1.266352653503417969e+00
2.916000000000000000e+03 3.735598373413085938e+01 1.011478042602539062e+01 8.773658275604248047e-01 1.194442844390869141e+01 3.846538066864013672e+00 -5.131493806838989258e-01
2.917000000000000000e+03 3.209653091430664062e+01 1.878669548034667969e+01 2.086848497390747070e+00 9.069727897644042969e+00 3.346972942352294922e+00 -2.659997701644897461e+00
2.918000000000000000e+03 3.197026824951171875e+01 2.107970237731933594e+01 1.340015292167663574e+00 7.399582386016845703e+00 2.621879339218139648e+00 -1.641908526420593262e+00
2.919000000000000000e+03 1.453394603729248047e+01 -1.224394893646240234e+01 8.902048468589782715e-01 1.752819180488586426e+00 7.929072380065917969e-01 4.742030203342437744e-01
2.920000000000000000e+03 1.465234565734863281e+01 -1.329822921752929688e+01 1.009178638458251953e+00 2.228468418121337891e+00 9.712941646575927734e-01 7.821274399757385254e-01
2.921000000000000000e+03 6.593540191650390625e+01 1.601688957214355469e+01 5.489464998245239258e-01 2.892080307006835938e+00 1.032307982444763184e+00 2.190742641687393188e-01
2.922000000000000000e+03 9.193847656250000000e+00 4.704764366149902344e+00 8.132281946018338203e-04 -1.024070545099675655e-03 -6.325270078377798200e-05 4.050461575388908386e-04
2.923000000000000000e+03 7.059215545654296875e+01 -1.247126674652099609e+01 -5.015555024147033691e-01 1.528324484825134277e-01 -1.046169251203536987e-01 -1.234500929713249207e-01
2.924000000000000000e+03 3.610028076171875000e+01 2.553770303726196289e+00 2.083685398101806641e+00 1.329591274261474609e+01 4.613879680633544922e+00 -1.075090765953063965e+00
2.925000000000000000e+03 3.857547760009765625e+01 -1.858757972717285156e+01 1.615002036094665527e+00 9.091497421264648438e+00 3.211949825286865234e+00 -9.558917880058288574e-01
2.926000000000000000e+03 5.303335189819335938e+01 -3.502388000488281250e+01 1.425516605377197266e-01 1.402830839157104492e+00 4.636147618293762207e-01 -7.988973855972290039e-01
2.927000000000000000e+03 1.451474571228027344e+01 -2.540563583374023438e+01 4.968244954943656921e-02 1.497087478637695312e+00 4.640309810638427734e-01 -3.182220757007598877e-01
2.928000000000000000e+03 1.501185607910156250e+01 -2.589838027954101562e+01 4.549326747655868530e-02 1.431497335433959961e+00 4.430971741676330566e-01 -3.845486342906951904e-01
2.929000000000000000e+03 7.141313171386718750e+01 -1.177378463745117188e+01 -4.429389238357543945e-01 1.359048187732696533e-01 -9.211023151874542236e-02 -2.170243859291076660e-01
2.930000000000000000e+03 6.842519378662109375e+01 -1.108503150939941406e+01 -8.422491550445556641e-01 2.177249193191528320e-01 -1.873572617769241333e-01 -2.675838172435760498e-01
2.931000000000000000e+03 3.622719955444335938e+01 -1.127287387847900391e+01 -1.935989558696746826e-01 8.822340965270996094e+00 2.588622808456420898e+00 -1.458955168724060059e+00
2.932000000000000000e+03 3.626838302612304688e+01 -1.031886196136474609e+01 -1.003420591354370117e+00 8.744447708129882812e+00 2.322308063507080078e+00 -1.256434559822082520e+00
2.933000000000000000e+03 2.523148155212402344e+01 2.573288345336914062e+01 5.295652151107788086e-01 1.731294155120849609e+00 6.782578229904174805e-01 -1.472244262695312500e+00
2.934000000000000000e+03 2.152084159851074219e+01 -6.705214500427246094e+00 3.568516811355948448e-03 3.406899571418762207e-01 1.032775416970252991e-01 7.592207193374633789e-01
2.935000000000000000e+03 3.316910171508789062e+01 -1.255407691001892090e+00 7.269849777221679688e-01 6.640783309936523438e+00 2.210330486297607422e+00 1.406434774398803711e+00
2.936000000000000000e+03 3.356828308105468750e+01 -5.062009692192077637e-01 9.749903082847595215e-01 7.665731906890869141e+00 2.592216730117797852e+00 1.422348022460937500e+00
2.937000000000000000e+03 7.373477935791015625e+01 -1.172395801544189453e+01 -2.560092508792877197e-01 1.859973371028900146e-02 -7.122285664081573486e-02 -2.356281280517578125e-01
2.938000000000000000e+03 3.724495315551757812e+01 -2.111388587951660156e+01 1.392420172691345215e+00 8.908001899719238281e+00 3.090126514434814453e+00 2.605727016925811768e-01
2.939000000000000000e+03 3.794573593139648438e+01 -1.853561019897460938e+01 1.373678088188171387e+00 9.250976562500000000e+00 3.187396526336669922e+00 -9.667236208915710449e-01
2.940000000000000000e+03 1.896148109436035156e+01 -4.143450260162353516e+00 -3.954681158065795898e-01 2.775866091251373291e-01 -3.536446020007133484e-02 4.930012524127960205e-01
2.941000000000000000e+03 5.435229110717773438e+01 -5.313911914825439453e+00 -3.165800571441650391e-01 1.957823395729064941e+00 4.923730194568634033e-01 1.364057302474975586e+00
2.942000000000000000e+03 5.592225646972656250e+01 -6.993351936340332031e+00 -4.688691496849060059e-01 1.714045763015747070e+00 3.735529780387878418e-01 1.459614634513854980e+00
2.943000000000000000e+03 1.800566482543945312e+01 4.968053340911865234e+00 -5.298896212480030954e-05 4.510091384872794151e-04 1.194060605484992266e-04 1.148843803093768656e-04
2.944000000000000000e+03 5.956980895996093750e+01 -2.133504748344421387e-01 9.025802612304687500e-01 2.320432424545288086e+00 9.669037461280822754e-01 1.283882141113281250e+00
2.945000000000000000e+03 6.541200256347656250e+01 -2.936973381042480469e+01 -1.946313530206680298e-01 4.837632551789283752e-02 -4.387650638818740845e-02 2.920233272016048431e-02
2.946000000000000000e+03 6.571852874755859375e+01 -2.879113769531250000e+01 -1.823940128087997437e-01 4.309660941362380981e-02 -4.178921878337860107e-02 1.177803799510002136e-02
2.947000000000000000e+03 3.618072128295898438e+01 1.431926155090332031e+01 7.468114495277404785e-01 1.008139991760253906e+01 3.248463630676269531e+00 -7.960768938064575195e-01
2.948000000000000000e+03 3.690649032592773438e+01 8.219572067260742188e+00 1.221032142639160156e+00 1.349381828308105469e+01 4.414455413818359375e+00 -8.220301270484924316e-01
2.949000000000000000e+03 4.688631439208984375e+01 2.033430862426757812e+01 7.586546242237091064e-02 1.060437679290771484e+00 3.408909440040588379e-01 7.147911190986633301e-01
2.950000000000000000e+03 1.370881366729736328e+01 -2.822977638244628906e+01 -1.965366601943969727e-01 1.101513385772705078e+00 2.714930474758148193e-01 -1.142095550894737244e-01
2.951000000000000000e+03 2.619782257080078125e+01 2.519082260131835938e+01 6.082804203033447266e-01 2.275796651840209961e+00 8.652231097221374512e-01 -1.764077305793762207e+00
2.952000000000000000e+03 2.884599113464355469e+01 -6.021096706390380859e+00 -4.148147106170654297e-01 1.713371127843856812e-01 -7.304327934980392456e-02 1.015515804290771484e+00
2.953000000000000000e+03 3.063354682922363281e+01 -6.968803405761718750e+00 -1.172429561614990234e+00 8.608881235122680664e-01 -9.346244484186172485e-02 -3.165761008858680725e-02
2.954000000000000000e+03 5.253327941894531250e+01 2.316763305664062500e+01 -3.214507699012756348e-01 2.035042941570281982e-01 -3.538394719362258911e-02 1.426350772380828857e-01
2.955000000000000000e+03 6.401091766357421875e+01 8.156377792358398438e+00 7.428818941116333008e-01 3.664913892745971680e+00 1.322338819503784180e+00 6.944195628166198730e-01
2.956000000000000000e+03 6.474972534179687500e+01 1.229503250122070312e+01 5.160201787948608398e-01 3.766454458236694336e+00 1.284742355346679688e+00 3.673088252544403076e-01
2.957000000000000000e+03 4.663595962524414062e+01 2.145687866210937500e+01 8.384008705615997314e-02 1.355324149131774902e+00 4.317492842674255371e-01 8.837077021598815918e-01
2.958000000000000000e+03 6.248134994506835938e+01 -3.329132461547851562e+01 -9.300678968429565430e-02 6.437818706035614014e-02 -8.588579483330249786e-03 1.569904237985610962e-01
2.959000000000000000e+03 3.763883972167968750e+01 8.108251571655273438e+00 1.280104517936706543e+00 1.341092205047607422e+01 4.407308101654052734e+00 -2.804341018199920654e-01
2.960000000000000000e+03 3.086606407165527344e+01 -3.343103027343750000e+01 -7.678163796663284302e-02 2.469483613967895508e+00 7.178105711936950684e-01 1.153706073760986328e+00
2.961000000000000000e+03 3.714682769775390625e+01 1.084518283605575562e-01 1.615873694419860840e+00 1.246982860565185547e+01 4.225710868835449219e+00 -1.433977484703063965e+00
2.962000000000000000e+03 3.761789703369140625e+01 1.900315761566162109e+00 2.086248159408569336e+00 1.436802673339843750e+01 4.936282634735107422e+00 -2.012218236923217773e+00
2.963000000000000000e+03 6.421353149414062500e+01 9.006948471069335938e+00 7.015401124954223633e-01 3.718592643737792969e+00 1.326039791107177734e+00 6.358308196067810059e-01
2.964000000000000000e+03 2.060172271728515625e+01 2.549431228637695312e+01 2.664823234081268311e-01 2.911827564239501953e-01 1.672995239496231079e-01 -4.630788266658782959e-01
2.965000000000000000e+03 4.731152343750000000e+01 2.308031654357910156e+01 3.114496357738971710e-02 1.361921548843383789e+00 4.179199635982513428e-01 8.765755295753479004e-01
2.966000000000000000e+03 3.755076599121093750e+01 -1.396999168395996094e+01 1.138462066650390625e+00 8.938570022583007812e+00 3.023109674453735352e+00 -1.829713582992553711e+00
2.967000000000000000e+03 5.754843139648437500e+01 -2.882648229598999023e+00 7.037277221679687500e-01 2.061370372772216797e+00 8.295294046401977539e-01 1.180165886878967285e+00
2.968000000000000000e+03 5.807338333129882812e+01 -2.173366785049438477e+00 8.058426380157470703e-01 2.108812808990478516e+00 8.743966221809387207e-01 1.202506065368652344e+00
2.969000000000000000e+03 5.047716522216796875e+01 -7.261685371398925781e+00 -1.411103367805480957e+00 3.494543731212615967e-01 -3.184947073459625244e-01 2.060823202133178711e+00
2.970000000000000000e+03 1.438710212707519531e+01 8.430827140808105469e+00 -8.023168193176388741e-04 2.120029646903276443e-03 3.953138948418200016e-04 1.322734868153929710e-03
2.971000000000000000e+03 1.284657001495361328e+01 -2.629344177246093750e+01 -9.037443250417709351e-02 1.257815122604370117e+00 3.502322137355804443e-01 -1.774636656045913696e-02
2.972000000000000000e+03 3.667824935913085938e+01 3.495763540267944336e+00 1.867169141769409180e+00 1.423338794708251953e+01 4.830167293548583984e+00 -1.289353609085083008e+00
2.973000000000000000e+03 4.160201644897460938e+01 1.530715942382812500e+01 7.005205750465393066e-01 3.847478628158569336e+00 1.364399790763854980e+00 1.466409564018249512e+00
2.974000000000000000e+03 1.603649520874023438e+01 7.587857723236083984e+00 -4.485224199015647173e-04 1.629645237699151039e-03 3.543368657119572163e-04 3.459867439232766628e-04
2.975000000000000000e+03 1.588880729675292969e+01 5.381857395172119141e+00 -3.046730998903512955e-04 5.652859108522534370e-04 7.818384619895368814e-05 5.913368659093976021e-04
2.976000000000000000e+03 2.889366912841796875e+01 -2.385324954986572266e+00 1.107357740402221680e+00 4.593482017517089844e-01 4.700118005275726318e-01 8.593039512634277344e-01
2.977000000000000000e+03 2.744865036010742188e+01 -2.462204933166503906e+00 7.575020194053649902e-01 6.506056338548660278e-02 2.467687726020812988e-01 7.185636162757873535e-01
2.978000000000000000e+03 6.917735290527343750e+01 -2.493893623352050781e+01 -4.408833384513854980e-02 8.837178349494934082e-03 -1.057534664869308472e-02 -3.702896181493997574e-03
2.979000000000000000e+03 3.775472640991210938e+01 1.037841916084289551e+00 2.043558359146118164e+00 1.395046043395996094e+01 4.798205375671386719e+00 -2.122030735015869141e+00
2.980000000000000000e+03 4.337104797363281250e+01 -2.037313461303710938e+01 1.927261471748352051e+00 1.112935733795166016e+01 3.916985511779785156e+00 1.885723918676376343e-01
2.981000000000000000e+03 3.855395889282226562e+01 -1.692760086059570312e+01 1.547172427177429199e+00 9.003325462341308594e+00 3.165149450302124023e+00 -1.473268032073974609e+00
2.982000000000000000e+03 4.958339309692382812e+01 2.335871887207031250e+01 -9.834685921669006348e-02 7.480129003524780273e-01 1.948998123407363892e-01 5.686915516853332520e-01
2.983000000000000000e+03 4.413930511474609375e+01 -6.620103836059570312e+00 -2.019276142120361328e+00 2.941561222076416016e+00 2.766855657100677490e-01 -1.458727002143859863e+00
2.984000000000000000e+03 3.580086898803710938e+01 4.125123977661132812e+00 1.784762024879455566e+00 1.417339706420898438e+01 4.787447452545166016e+00 -7.102442383766174316e-01
2.985000000000000000e+03 3.678202819824218750e+01 6.413783073425292969e+00 1.255607843399047852e+00 1.446940040588378906e+01 4.717502593994140625e+00 -8.121020197868347168e-01
2.986000000000000000e+03 1.202406215667724609e+01 2.026428222656250000e+01 -1.636573076248168945e-01 5.758038908243179321e-02 -3.182307630777359009e-02 -1.431922614574432373e-02
2.987000000000000000e+03 1.230950641632080078e+01 1.953681373596191406e+01 -1.383484154939651489e-01 3.476254642009735107e-02 -3.107576258480548859e-02 -3.687319904565811157e-02
2.988000000000000000e+03 1.554929351806640625e+01 -2.734951972961425781e+01 -7.995148748159408569e-02 1.190458297729492188e+00 3.331520557403564453e-01 -3.250627517700195312e-01
2.989000000000000000e+03 1.561290168762207031e+01 -2.848171615600585938e+01 -1.655139476060867310e-01 1.094483852386474609e+00 2.786909937858581543e-01 -2.928018271923065186e-01
2.990000000000000000e+03 7.123280334472656250e+01 -2.201675987243652344e+01 -8.654537610709667206e-03 -5.999644054099917412e-04 -2.776350593194365501e-03 -9.963951306417584419e-04
2.991000000000000000e+03 3.503017425537109375e+01 7.961959242820739746e-01 1.297592878341674805e+00 1.098900318145751953e+01 3.685978651046752930e+00 2.374484203755855560e-02
2.992000000000000000e+03 4.872044754028320312e+01 -7.451570987701416016e+00 -1.499805569648742676e+00 2.027952224016189575e-01 -3.891031146049499512e-01 1.411733746528625488e+00
2.993000000000000000e+03 4.728050613403320312e+01 -7.006816864013671875e+00 -2.041274547576904297e+00 4.491273760795593262e-01 -4.776441752910614014e-01 5.263600349426269531e-01
2.994000000000000000e+03 3.783897018432617188e+01 -1.592479610443115234e+01 1.382367730140686035e+00 9.143404960632324219e+00 3.157731771469116211e+00 -1.766167521476745605e+00
2.995000000000000000e+03 5.858427429199218750e+01 -1.506449580192565918e+00 9.066504836082458496e-01 2.151944160461425781e+00 9.175783991813659668e-01 1.230648398399353027e+00
2.996000000000000000e+03 2.515867996215820312e+01 -4.954335212707519531e+00 -8.196138776838779449e-03 1.445842534303665161e-01 4.091643169522285461e-02 9.657536745071411133e-01
2.997000000000000000e+03 3.797700881958007812e+01 -1.941077804565429688e+01 1.433527946472167969e+00 9.173953056335449219e+00 3.182244300842285156e+00 -5.814142227172851562e-01
2.998000000000000000e+03 5.618764877319335938e+01 -3.594332122802734375e+01 2.266688793897628784e-01 5.851695537567138672e-01 2.435515224933624268e-01 -3.091515600681304932e-01
2.999000000000000000e+03 3.690681076049804688e+01 -2.630753517150878906e+01 9.815422296524047852e-01 6.696382999420166016e+00 2.303377628326416016e+00 1.112417340278625488e+00
3.000000000000000000e+03 1.307058525085449219e+01 1.234789848327636719e+01 -2.561562578193843365e-04 1.160209532827138901e-03 2.712159766815602779e-04 1.582896686159074306e-03
3.001000000000000000e+03 1.281821346282958984e+01 9.868534088134765625e+00 -1.184686319902539253e-03 3.699449298437684774e-04 -2.444224082864820957e-04 2.569412812590599060e-03
3.002000000000000000e+03 1.723822593688964844e+01 2.550963020324707031e+01 4.045495763421058655e-02 1.220123916864395142e-01 4.874020442366600037e-02 -8.652447909116744995e-02
3.003000000000000000e+03 1.713792800903320312e+01 2.460799980163574219e+01 -4.705743491649627686e-02 4.652493447065353394e-02 -1.597491936990991235e-04 -5.184525251388549805e-02
3.004000000000000000e+03 3.624665451049804688e+01 1.765167355537414551e+00 2.047179937362670898e+00 1.278357219696044922e+01 4.449225902557373047e+00 -1.120722055435180664e+00
3.005000000000000000e+03 3.419378662109375000e+01 -3.050814437866210938e+01 -5.327711347490549088e-03 4.150712490081787109e+00 1.243615388870239258e+00 1.475694179534912109e+00
3.006000000000000000e+03 3.793687057495117188e+01 -2.121418190002441406e+01 1.630555152893066406e+00 8.763971328735351562e+00 3.118357896804809570e+00 6.687167286872863770e-02
3.007000000000000000e+03 3.676819992065429688e+01 -2.382700920104980469e+01 1.594038367271423340e+00 7.683323860168457031e+00 2.783208608627319336e+00 1.003608345985412598e+00
3.008000000000000000e+03 2.538008499145507812e+01 -3.291166305541992188e+01 7.284497469663619995e-02 4.810263812541961670e-01 1.661614179611206055e-01 1.225856691598892212e-01
3.009000000000000000e+03 3.782682800292968750e+01 9.018537521362304688e+00 1.127654433250427246e+00 1.263201427459716797e+01 4.127900600433349609e+00 -1.713837683200836182e-01
3.010000000000000000e+03 3.684414291381835938e+01 7.276109218597412109e+00 1.282898902893066406e+00 1.407391166687011719e+01 4.607043266296386719e+00 -7.799617052078247070e-01
3.011000000000000000e+03 3.581364822387695312e+01 9.629916191101074219e+00 9.951168298721313477e-01 1.323772525787353516e+01 4.269852638244628906e+00 -1.489197850227355957e+00
3.012000000000000000e+03 4.626095199584960938e+01 -7.916300296783447266e+00 -1.222206473350524902e+00 1.692680597305297852e+00 1.411422491073608398e-01 -6.615076959133148193e-02
3.013000000000000000e+03 1.455227756500244141e+01 6.210967063903808594e+00 -2.990308857988566160e-04 1.166232395917177200e-03 2.601604501251131296e-04 9.371563792228698730e-04
3.014000000000000000e+03 6.414969635009765625e+01 6.201099395751953125e+00 8.290092945098876953e-01 3.116509199142456055e+00 1.183655500411987305e+00 6.128026843070983887e-01
3.015000000000000000e+03 3.719267654418945312e+01 -1.220300292968750000e+01 3.190362453460693359e-01 8.797307968139648438e+00 2.734903335571289062e+00 -1.549120545387268066e+00
3.016000000000000000e+03 4.427679443359375000e+01 -1.563224220275878906e+01 2.106177806854248047e+00 7.816834449768066406e+00 2.976903676986694336e+00 3.834164738655090332e-01
3.017000000000000000e+03 4.525703811645507812e+01 -1.565629005432128906e+01 2.472572326660156250e+00 7.425672531127929688e+00 2.969473361968994141e+00 1.365164637565612793e+00
3.018000000000000000e+03 5.880181503295898438e+01 -3.428134918212890625e+01 4.344803839921951294e-02 1.408711820840835571e-01 5.529576912522315979e-02 1.041395124047994614e-02
3.019000000000000000e+03 6.164112854003906250e+01 -3.427711486816406250e+01 -1.190793979912996292e-02 7.549048215150833130e-02 1.907476410269737244e-02 1.455422639846801758e-01
3.020000000000000000e+03 3.372489547729492188e+01 1.349643135070800781e+01 1.138557314872741699e+00 1.257872200012207031e+01 4.115183830261230469e+00 -2.581360340118408203e+00
3.021000000000000000e+03 5.120637130737304688e+01 2.285186004638671875e+01 -2.595299184322357178e-01 3.591497540473937988e-01 2.988594956696033478e-02 2.958498299121856689e-01
3.022000000000000000e+03 6.383135604858398438e+01 -3.067215919494628906e+01 -2.471892982721328735e-01 5.406847223639488220e-02 -5.793624743819236755e-02 7.978782802820205688e-02
3.023000000000000000e+03 6.493843078613281250e+01 -3.140829467773437500e+01 -1.716820895671844482e-01 5.753621459007263184e-02 -3.424376249313354492e-02 1.095939651131629944e-01
3.024000000000000000e+03 3.798434448242187500e+01 -2.030380821228027344e+01 1.534767985343933105e+00 9.000947952270507812e+00 3.160714864730834961e+00 -2.529630362987518311e-01
3.025000000000000000e+03 3.324251174926757812e+01 1.751318931579589844e+01 1.566413283348083496e+00 9.716315269470214844e+00 3.384818553924560547e+00 -2.308806896209716797e+00
3.026000000000000000e+03 3.278216934204101562e+01 2.026110649108886719e+01 1.327470660209655762e+00 7.842349052429199219e+00 2.750945806503295898e+00 -1.448531031608581543e+00
3.027000000000000000e+03 6.240556335449218750e+01 2.224619674682617188e+01 -3.313419520854949951e-01 2.599802732467651367e+00 6.805382370948791504e-01 -3.755834698677062988e-01
3.028000000000000000e+03 3.711443710327148438e+01 -1.131838035583496094e+01 -3.551157414913177490e-01 8.784215927124023438e+00 2.528730154037475586e+00 -1.389868021011352539e+00
3.029000000000000000e+03 5.697592544555664062e+01 -3.503243255615234375e+01 1.665254831314086914e-01 3.195791542530059814e-01 1.458313912153244019e-01 -1.872624307870864868e-01
3.030000000000000000e+03 5.771874237060546875e+01 -3.314216232299804688e+01 -1.179653704166412354e-01 6.463417410850524902e-02 -1.599936001002788544e-02 -1.784077286720275879e-02
3.031000000000000000e+03 6.218474578857421875e+01 -1.090082073211669922e+01 -1.078753829002380371e+00 1.496526747941970825e-01 -2.787303626537322998e-01 2.967749834060668945e-01
3.032000000000000000e+03 5.108020401000976562e+01 -3.460638809204101562e+01 -1.433138083666563034e-02 2.393093109130859375e+00 7.136285305023193359e-01 -1.341263532638549805e+00
3.033000000000000000e+03 5.153839492797851562e+01 2.356159210205078125e+01 -1.735205501317977905e-01 4.043884277343750000e-01 6.926035881042480469e-02 3.169939219951629639e-01
3.034000000000000000e+03 3.737154388427734375e+01 -1.755711555480957031e+00 2.745425403118133545e-01 1.133698272705078125e+01 3.483457565307617188e+00 -9.422332644462585449e-01
3.035000000000000000e+03 5.511339187622070312e+01 -3.515429306030273438e+01 2.109071910381317139e-01 6.995369791984558105e-01 2.731332480907440186e-01 -4.567101895809173584e-01
3.036000000000000000e+03 4.416349029541015625e+01 -2.610068321228027344e+01 2.008652687072753906e+00 1.009153652191162109e+01 3.630056858062744141e+00 -1.382164835929870605e+00
3.037000000000000000e+03 4.370435333251953125e+01 -2.716300201416015625e+01 1.376595377922058105e+00 9.002724647521972656e+00 3.113795995712280273e+00 -8.475755453109741211e-01
3.038000000000000000e+03 6.548329925537109375e+01 1.771733856201171875e+01 5.517780184745788574e-01 2.851790428161621094e+00 1.021070480346679688e+00 1.841529309749603271e-01
3.039000000000000000e+03 6.486444091796875000e+01 1.864033699035644531e+01 5.243828296661376953e-01 2.983698368072509766e+00 1.052424430847167969e+00 1.388799846172332764e-01
3.040000000000000000e+03 6.310461044311523438e+01 -3.225359344482421875e+01 -1.776670366525650024e-01 5.581656843423843384e-02 -3.655514121055603027e-02 1.390052884817123413e-01
3.041000000000000000e+03 2.742453765869140625e+01 -3.458883666992187500e+01 1.555927693843841553e-01 1.120267152786254883e+00 3.827579617500305176e-01 4.318332970142364502e-01
3.042000000000000000e+03 2.825122833251953125e+01 -3.368781661987304688e+01 1.106957644224166870e-01 1.270572900772094727e+00 4.143805801868438721e-01 6.229017972946166992e-01
3.043000000000000000e+03 6.961070251464843750e+01 -2.425478363037109375e+01 -3.070254437625408173e-02 5.767045076936483383e-03 -7.480649743229150772e-03 -4.334735684096813202e-03
3.044000000000000000e+03 1.784928894042968750e+01 -3.047660255432128906e+01 -2.162298709154129028e-01 8.428277373313903809e-01 1.879793554544448853e-01 -3.742196559906005859e-01
3.045000000000000000e+03 1.874000740051269531e+01 -2.993615341186523438e+01 -2.064446359872817993e-01 7.807906866073608398e-01 1.723038256168365479e-01 -3.741014599800109863e-01
3.046000000000000000e+03 3.808127975463867188e+01 9.912663459777832031e+00 8.710433244705200195e-01 1.168230724334716797e+01 3.766005039215087891e+00 9.510524570941925049e-02
3.047000000000000000e+03 4.310937500000000000e+01 -2.570142555236816406e+01 1.974982142448425293e+00 9.536030769348144531e+00 3.453304052352905273e+00 -7.731956243515014648e-01
3.048000000000000000e+03 1.389962291717529297e+01 9.027217864990234375e+00 -6.659054779447615147e-04 1.568094943650066853e-03 2.706568629946559668e-04 1.784437336027622223e-03
3.049000000000000000e+03 6.235519409179687500e+01 4.035172462463378906e+00 8.921971917152404785e-01 3.211749553680419922e+00 1.231184005737304688e+00 9.398598670959472656e-01
3.050000000000000000e+03 6.276730346679687500e+01 4.830972194671630859e+00 9.148466587066650391e-01 3.311281681060791016e+00 1.267838478088378906e+00 8.936734199523925781e-01
3.051000000000000000e+03 2.773832130432128906e+01 2.601315879821777344e+01 1.832520216703414917e-01 3.387111663818359375e+00 1.071109056472778320e+00 -1.780841708183288574e+00
3.052000000000000000e+03 3.697068023681640625e+01 1.203265285491943359e+01 6.922107338905334473e-01 1.090636444091796875e+01 3.479572534561157227e+00 -6.209613680839538574e-01
3.053000000000000000e+03 3.584519958496093750e+01 1.039988994598388672e+01 8.929392695426940918e-01 1.282142734527587891e+01 4.114309787750244141e+00 -1.482815623283386230e+00
3.054000000000000000e+03 5.446680450439453125e+01 -1.228831291198730469e+01 6.822918653488159180e-01 5.360938310623168945e-01 3.655157089233398438e-01 1.378335237503051758e+00
3.055000000000000000e+03 5.286040878295898438e+01 -1.300429344177246094e+01 1.458748579025268555e+00 4.873928725719451904e-01 5.838423967361450195e-01 1.457382917404174805e+00
3.056000000000000000e+03 4.133459472656250000e+01 -4.991758346557617188e+00 -2.332512378692626953e+00 7.430558204650878906e+00 1.529413700103759766e+00 -2.748477458953857422e+00
3.057000000000000000e+03 4.267041778564453125e+01 -6.115350246429443359e+00 -2.196552991867065430e+00 5.001742839813232422e+00 8.415570259094238281e-01 -2.380411863327026367e+00
3.058000000000000000e+03 2.058325004577636719e+01 -3.320072174072265625e+01 -1.235086917877197266e-01 6.397104859352111816e-01 1.548605412244796753e-01 -3.607276380062103271e-01
3.059000000000000000e+03 5.300229644775390625e+01 -1.231640815734863281e+01 1.150333881378173828e+00 6.075314283370971680e-01 5.273596048355102539e-01 1.668835520744323730e+00
3.060000000000000000e+03 5.043811035156250000e+01 -7.950779438018798828e+00 -9.889644384384155273e-01 4.991396665573120117e-01 -1.469474434852600098e-01 2.145264148712158203e+00
3.061000000000000000e+03 3.990966796875000000e+01 1.452371025085449219e+01 5.857771039009094238e-01 6.102749824523925781e+00 2.006558179855346680e+00 1.251282572746276855e+00
3.062000000000000000e+03 4.860654449462890625e+01 -3.285112762451171875e+01 -1.478558927774429321e-01 3.975868463516235352e+00 1.148403763771057129e+00 -1.758549571037292480e+00
3.063000000000000000e+03 4.909467697143554688e+01 -3.385200119018554688e+01 -2.104377597570419312e-01 3.528953075408935547e+00 9.955545663833618164e-01 -1.612001180648803711e+00
3.064000000000000000e+03 4.733511352539062500e+01 -3.300798034667968750e+01 -4.655828177928924561e-01 4.962483882904052734e+00 1.349070310592651367e+00 -1.482300758361816406e+00
3.065000000000000000e+03 4.759315872192382812e+01 -3.452349090576171875e+01 -6.172617077827453613e-01 4.579836368560791016e+00 1.188772439956665039e+00 -1.276188373565673828e+00
3.066000000000000000e+03 3.008511734008789062e+01 2.245374870300292969e+01 1.012846589088439941e+00 6.026574134826660156e+00 2.111826181411743164e+00 -2.079192161560058594e+00
3.067000000000000000e+03 4.973271179199218750e+01 -3.499412918090820312e+01 -2.381739020347595215e-01 3.214199066162109375e+00 8.928075432777404785e-01 -1.412668466567993164e+00
3.068000000000000000e+03 4.867571640014648438e+01 -3.194426918029785156e+01 1.387327462434768677e-01 4.015448093414306641e+00 1.246254324913024902e+00 -1.943642139434814453e+00
3.069000000000000000e+03 2.666953277587890625e+01 -5.753397464752197266e+00 -1.827721595764160156e-01 1.691505312919616699e-01 -4.086488857865333557e-03 1.141269922256469727e+00
3.070000000000000000e+03 4.194815826416015625e+01 -5.895650386810302734e+00 -2.366214752197265625e+00 6.251031875610351562e+00 1.165445089340209961e+00 -2.573421001434326172e+00
3.071000000000000000e+03 1.944964408874511719e+01 -8.997775077819824219e+00 5.012074708938598633e-01 5.373508334159851074e-01 3.115675151348114014e-01 7.391943335533142090e-01
3.072000000000000000e+03 1.651262664794921875e+01 -4.325695037841796875e+00 -5.078840851783752441e-01 3.145087063312530518e-01 -5.801261961460113525e-02 2.521609961986541748e-01
3.073000000000000000e+03 4.369006347656250000e+01 -1.708574104309082031e+01 2.465701341629028320e+00 9.073363304138183594e+00 3.461719274520874023e+00 2.522836923599243164e-01
3.074000000000000000e+03 2.299013519287109375e+01 -3.250029754638671875e+01 -5.463667958974838257e-02 3.762318491935729980e-01 9.647855162620544434e-02 -2.525976598262786865e-01
3.075000000000000000e+03 3.764648818969726562e+01 -2.570632362365722656e+01 1.209762811660766602e+00 7.164615631103515625e+00 2.512313365936279297e+00 8.294890522956848145e-01
3.076000000000000000e+03 3.617706680297851562e+01 -2.580330467224121094e+01 1.081992983818054199e+00 6.588016510009765625e+00 2.301002740859985352e+00 1.334159493446350098e+00
3.077000000000000000e+03 7.208593750000000000e+01 -2.226552009582519531e+01 -9.820081293582916260e-03 -7.298209820874035358e-04 -3.164970781654119492e-03 1.820911961658566725e-06
3.078000000000000000e+03 2.152940368652343750e+01 2.542968559265136719e+01 3.510413765907287598e-01 4.164698123931884766e-01 2.302533537149429321e-01 -6.279238462448120117e-01
3.079000000000000000e+03 1.970040130615234375e+01 2.548431396484375000e+01 1.981999874114990234e-01 2.006054073572158813e-01 1.196416169404983521e-01 -3.305583000183105469e-01
3.080000000000000000e+03 3.967166137695312500e+01 -3.607794761657714844e+00 -1.368769407272338867e+00 1.068637657165527344e+01 2.795282125473022461e+00 -2.089082956314086914e+00
3.081000000000000000e+03 1.484564399719238281e+01 2.310518836975097656e+01 -2.254418432712554932e-01 5.516365915536880493e-02 -5.108345299959182739e-02 4.536162689328193665e-02
3.082000000000000000e+03 7.643223571777343750e+01 -2.121028709411621094e+01 -1.613335218280553818e-03 -1.244974671863019466e-03 -8.574929670430719852e-04 -4.481534706428647041e-04
3.083000000000000000e+03 4.253615951538085938e+01 -2.412337303161621094e+01 2.204850673675537109e+00 9.816926002502441406e+00 3.606532812118530273e+00 -7.545693516731262207e-01
3.084000000000000000e+03 4.299917602539062500e+01 -2.498011016845703125e+01 2.140599727630615234e+00 9.721984863281250000e+00 3.558775424957275391e+00 -8.243541717529296875e-01
3.085000000000000000e+03 7.411138153076171875e+01 -2.316561889648437500e+01 -1.078856643289327621e-02 -1.758279511705040932e-03 -3.764053806662559509e-03 4.221019335091114044e-03
3.086000000000000000e+03 1.182105064392089844e+01 1.859391021728515625e+01 -9.427696466445922852e-02 2.041531167924404144e-02 -2.215849608182907104e-02 -3.194695338606834412e-02
3.087000000000000000e+03 2.957242202758789062e+01 -2.004542589187622070e+00 1.275881052017211914e+00 8.545395135879516602e-01 6.391261816024780273e-01 9.020925164222717285e-01
3.088000000000000000e+03 3.927874755859375000e+01 -4.744580268859863281e+00 -2.329766988754272461e+00 1.021448135375976562e+01 2.365414142608642578e+00 -1.784519314765930176e+00
3.089000000000000000e+03 3.474298858642578125e+01 -9.377926826477050781e+00 -1.565151214599609375e+00 7.721687793731689453e+00 1.846961021423339844e+00 -1.263553977012634277e+00
3.090000000000000000e+03 4.592839813232421875e+01 -6.456998348236083984e+00 -2.467309713363647461e+00 1.046336054801940918e+00 -4.262921214103698730e-01 -1.923366338014602661e-01
3.091000000000000000e+03 5.517581939697265625e+01 -1.229270362854003906e+01 4.799203574657440186e-01 4.942264556884765625e-01 2.922440469264984131e-01 1.226100802421569824e+00
3.092000000000000000e+03 2.417111396789550781e+01 -7.267259120941162109e+00 -1.534268110990524292e-01 3.233826756477355957e-01 5.098675563931465149e-02 7.273677587509155273e-01
3.093000000000000000e+03 3.874422073364257812e+01 -3.859901428222656250e+00 -1.694240689277648926e+00 1.072703933715820312e+01 2.709839582443237305e+00 -1.458015561103820801e+00
3.094000000000000000e+03 3.820040512084960938e+01 -2.391287994384765625e+01 1.680112719535827637e+00 7.875260829925537109e+00 2.866611957550048828e+00 4.441308379173278809e-01
3.095000000000000000e+03 6.423931121826171875e+01 1.954647064208984375e+01 4.202772676944732666e-01 3.077376604080200195e+00 1.049296140670776367e+00 1.082917228341102600e-01
3.096000000000000000e+03 2.138997650146484375e+01 -3.487014007568359375e+01 9.832282550632953644e-03 6.627771258354187012e-01 2.017828226089477539e-01 -2.499888688325881958e-01
3.097000000000000000e+03 3.345356369018554688e+01 -3.101125144958496094e+01 -2.816780097782611847e-02 3.711456298828125000e+00 1.104986548423767090e+00 1.450896382331848145e+00
3.098000000000000000e+03 3.375728607177734375e+01 -2.977825927734375000e+01 2.545081973075866699e-01 3.973187923431396484e+00 1.268308877944946289e+00 1.571067929267883301e+00
3.099000000000000000e+03 1.241153907775878906e+01 -1.405872249603271484e+01 7.829062938690185547e-01 1.661419749259948730e+00 7.332978248596191406e-01 9.919934719800949097e-02
3.100000000000000000e+03 1.491509342193603516e+01 -1.002613735198974609e+01 4.485963582992553711e-01 1.222005367279052734e+00 5.011805295944213867e-01 2.555921673774719238e-01
3.101000000000000000e+03 5.662955760955810547e+00 2.440018653869628906e+01 -2.925492078065872192e-02 -1.731215231120586395e-02 -1.397012174129486084e-02 1.003915444016456604e-01
3.102000000000000000e+03 1.356227207183837891e+01 2.163994979858398438e+01 -2.371583282947540283e-01 6.966119259595870972e-02 -5.024914070963859558e-02 1.608163118362426758e-02
3.103000000000000000e+03 4.418470382690429688e+01 -3.024268150329589844e+01 -5.184829607605934143e-02 7.517194271087646484e+00 2.239603757858276367e+00 -7.612504959106445312e-01
3.104000000000000000e+03 6.437732696533203125e+01 2.029538154602050781e+01 2.061087042093276978e-01 2.844799995422363281e+00 9.152725934982299805e-01 1.649312674999237061e-01
3.105000000000000000e+03 1.557378387451171875e+01 2.479251670837402344e+01 -7.579480111598968506e-02 7.706165313720703125e-02 3.800569393206387758e-04 2.508880943059921265e-02
3.106000000000000000e+03 1.339777088165283203e+01 2.349450874328613281e+01 -1.647193431854248047e-01 1.028194129467010498e-01 -1.856997795403003693e-02 7.796549797058105469e-02
3.107000000000000000e+03 1.210690689086914062e+01 -1.971358871459960938e+01 6.083361506462097168e-01 2.057978630065917969e+00 7.998944520950317383e-01 -2.981673181056976318e-02
3.108000000000000000e+03 1.234684944152832031e+01 -2.235840606689453125e+01 4.490100741386413574e-01 1.787852525711059570e+00 6.710587739944458008e-01 7.058130949735641479e-02
3.109000000000000000e+03 7.521704101562500000e+01 3.781713104248046875e+01 -6.748366355895996094e-02 2.212654948234558105e-01 4.613455012440681458e-02 9.303367137908935547e-02
3.110000000000000000e+03 2.370284461975097656e+01 -3.418136215209960938e+01 1.186807975172996521e-01 5.270112156867980957e-01 1.937076151371002197e-01 -9.760250896215438843e-02
3.111000000000000000e+03 5.296590423583984375e+01 2.150857925415039062e+01 -8.241454362869262695e-01 2.715961635112762451e-02 -2.390957474708557129e-01 -9.981283545494079590e-02
3.112000000000000000e+03 3.193993759155273438e+01 2.201041984558105469e+01 8.700055480003356934e-01 6.979416370391845703e+00 2.354826688766479492e+00 -1.371292829513549805e+00
3.113000000000000000e+03 3.057112693786621094e+01 -3.208726119995117188e+01 3.068860620260238647e-02 2.101598024368286133e+00 6.396859884262084961e-01 1.196873426437377930e+00
3.114000000000000000e+03 4.333977890014648438e+01 -2.859087181091308594e+01 5.910733342170715332e-01 8.169409751892089844e+00 2.628144979476928711e+00 -4.894328713417053223e-01
3.115000000000000000e+03 7.614434051513671875e+01 -4.174064636230468750e+01 1.597763784229755402e-02 -1.187947392463684082e-01 -3.084513172507286072e-02 4.499080125242471695e-03
3.116000000000000000e+03 1.948920440673828125e+01 -2.968604660034179688e+01 -1.904539465904235840e-01 7.012567520141601562e-01 1.532408446073532104e-01 -4.045200943946838379e-01
3.117000000000000000e+03 1.727597808837890625e+01 -2.934976577758789062e+01 -1.846766769886016846e-01 9.321126341819763184e-01 2.242307811975479126e-01 -3.563051521778106689e-01
3.118000000000000000e+03 7.594757080078125000e+01 4.148364257812500000e+01 -3.304003551602363586e-02 1.522442847490310669e-01 3.576127439737319946e-02 4.533158149570226669e-03
3.119000000000000000e+03 3.741176605224609375e+00 4.164392089843750000e+01 1.484538707882165909e-02 -2.543346285820007324e-01 -7.184677571058273315e-02 1.471715979278087616e-02
3.120000000000000000e+03 4.336200714111328125e+01 -3.001871299743652344e+01 -1.469183620065450668e-02 7.683043956756591797e+00 2.300505638122558594e+00 -5.180031061172485352e-01
3.121000000000000000e+03 4.521043395996093750e+01 -3.042358970642089844e+01 -3.892179578542709351e-02 7.091050624847412109e+00 2.115638732910156250e+00 -1.249639034271240234e+00
3.122000000000000000e+03 5.236515998840332031e+00 -3.640957641601562500e+01 -7.814063131809234619e-02 -2.552401423454284668e-01 -1.000142320990562439e-01 1.170306727290153503e-01
3.123000000000000000e+03 3.808999061584472656e+00 -4.059148406982421875e+01 -3.323000296950340271e-02 -3.494400680065155029e-01 -1.148010194301605225e-01 1.564121618866920471e-02
3.124000000000000000e+03 7.709809875488281250e+01 3.761008453369140625e+01 -2.217320352792739868e-02 7.178909331560134888e-02 1.488476712256669998e-02 5.881245434284210205e-02
3.125000000000000000e+03 7.554158020019531250e+01 -4.026901245117187500e+01 2.917170897126197815e-02 -1.057399883866310120e-01 -2.297048456966876984e-02 1.835730858147144318e-02
3.126000000000000000e+03 5.099088191986083984e+00 3.639458465576171875e+01 2.770272642374038696e-02 -1.042093262076377869e-01 -2.295197919011116028e-02 4.217503592371940613e-02
3.127000000000000000e+03 4.165129661560058594e+00 3.996020126342773438e+01 2.432968094944953918e-02 -1.784323453903198242e-01 -4.623079672455787659e-02 2.459746226668357849e-02
3.128000000000000000e+03 7.041193389892578125e+01 -2.300087547302246094e+01 -1.606391556560993195e-02 1.550236600451171398e-03 -4.354103468358516693e-03 -2.655852818861603737e-03
3.129000000000000000e+03 7.600309753417968750e+01 -1.234292507171630859e+01 -1.163841560482978821e-01 -5.933712050318717957e-02 -5.271638184785842896e-02 -1.596456319093704224e-01
3.130000000000000000e+03 3.378812408447265625e+01 -1.114781141281127930e+00 4.856851696968078613e-01 7.757699489593505859e+00 2.473015308380126953e+00 9.604259729385375977e-01
3.131000000000000000e+03 1.193564891815185547e+01 1.467082405090332031e+01 -8.190643973648548126e-03 -6.404781714081764221e-03 -4.378627985715866089e-03 -6.617167033255100250e-03
3.132000000000000000e+03 1.263836956024169922e+01 1.486624908447265625e+01 -6.394224241375923157e-03 -4.429172724485397339e-03 -3.247019136324524879e-03 -5.651820916682481766e-03
3.133000000000000000e+03 2.443960189819335938e+01 -6.359277725219726562e+00 -1.620938479900360107e-01 2.813891172409057617e-01 3.578858077526092529e-02 8.748568892478942871e-01
3.134000000000000000e+03 2.602149391174316406e+01 -2.952752828598022461e+00 4.063886106014251709e-01 1.232812646776437759e-03 1.222864314913749695e-01 7.645606994628906250e-01
3.135000000000000000e+03 2.534142684936523438e+01 -3.047718524932861328e+00 2.786284983158111572e-01 1.334448810666799545e-02 8.759189397096633911e-02 7.442286610603332520e-01
3.136000000000000000e+03 7.261876678466796875e+01 -2.110794830322265625e+01 -5.318293813616037369e-03 -1.843866775743663311e-03 -2.148648258298635483e-03 6.587929674424231052e-04
3.137000000000000000e+03 1.262964630126953125e+01 -1.573112010955810547e+01 7.860983014106750488e-01 2.139126777648925781e+00 8.775674700736999512e-01 2.313220202922821045e-01
3.138000000000000000e+03 3.791928863525390625e+01 -1.767674255371093750e+01 1.343604087829589844e+00 9.289487838745117188e+00 3.189927577972412109e+00 -1.302373886108398438e+00
3.139000000000000000e+03 4.362266540527343750e+01 -1.809853744506835938e+01 2.791984319686889648e+00 9.716039657592773438e+00 3.752407312393188477e+00 3.375539183616638184e-01
3.140000000000000000e+03 3.552249145507812500e+01 1.669880986213684082e+00 1.906167507171630859e+00 1.223626041412353516e+01 4.242728233337402344e+00 -6.225574612617492676e-01
3.141000000000000000e+03 3.569925308227539062e+01 9.314802289009094238e-01 1.604479193687438965e+00 1.172909259796142578e+01 4.000071525573730469e+00 -5.161445736885070801e-01
3.142000000000000000e+03 3.411071014404296875e+01 -2.846359312534332275e-01 7.673470377922058105e-01 8.919046401977539062e+00 2.905918121337890625e+00 9.223173260688781738e-01
3.143000000000000000e+03 5.373552322387695312e+01 -1.230911445617675781e+01 9.064934849739074707e-01 5.606065392494201660e-01 4.401299953460693359e-01 1.530363202095031738e+00
3.144000000000000000e+03 1.874219894409179688e+01 -9.171162605285644531e+00 5.281032919883728027e-01 6.966558098793029785e-01 3.674277365207672119e-01 7.324724197387695312e-01
3.145000000000000000e+03 1.722141456604003906e+01 -9.484556198120117188e+00 4.969632625579833984e-01 1.007825732231140137e+00 4.514366984367370605e-01 6.019627451896667480e-01
3.146000000000000000e+03 5.198303604125976562e+01 -7.105491161346435547e+00 -1.158557295799255371e+00 1.143324375152587891e+00 -4.569875076413154602e-03 2.234150409698486328e+00
3.147000000000000000e+03 4.986526870727539062e+01 -8.346116065979003906e+00 -6.863129138946533203e-01 5.553750991821289062e-01 -3.928134217858314514e-02 2.009618759155273438e+00
3.148000000000000000e+03 2.112355422973632812e+01 -7.650619029998779297e+00 1.655361801385879517e-01 3.640527129173278809e-01 1.588766723871231079e-01 7.246387600898742676e-01
3.149000000000000000e+03 1.661402702331542969e+01 4.672462463378906250e+00 -2.154683752451092005e-04 4.238705732859671116e-04 6.252065941225737333e-05 4.067982663400471210e-04
3.150000000000000000e+03 1.608100318908691406e+01 6.598507404327392578e+00 -4.456409078557044268e-04 1.150297350250184536e-03 2.113969385391101241e-04 5.096695967949926853e-04
3.151000000000000000e+03 1.347266483306884766e+01 5.311375617980957031e+00 1.234674273291602731e-04 2.950288180727511644e-04 1.255488750757649541e-04 1.078231842257082462e-03
3.152000000000000000e+03 1.518046569824218750e+01 4.724074363708496094e+00 -1.635728112887591124e-04 4.103815881535410881e-04 7.404263305943459272e-05 7.759114960208535194e-04
3.153000000000000000e+03 4.377796173095703125e+01 -1.608090782165527344e+01 2.125798702239990234e+00 8.330303192138671875e+00 3.136830806732177734e+00 1.526716351509094238e-01
3.154000000000000000e+03 4.324186325073242188e+01 -1.648928260803222656e+01 2.186475038528442383e+00 8.584380149841308594e+00 3.231256484985351562e+00 -2.410847991704940796e-01
3.155000000000000000e+03 2.284066200256347656e+01 -7.832664012908935547e+00 8.952099829912185669e-02 3.026386201381683350e-01 1.176478862762451172e-01 6.575269699096679688e-01
3.156000000000000000e+03 2.182081031799316406e+01 -7.406209945678710938e+00 1.167364194989204407e-01 3.333520591259002686e-01 1.350265443325042725e-01 7.175321578979492188e-01
3.157000000000000000e+03 1.282890129089355469e+01 5.243627548217773438e+00 5.556516043725423515e-05 -3.490484959911555052e-05 6.198093615239486098e-06 1.291736261919140816e-03
3.158000000000000000e+03 1.664560317993164062e+01 5.376786231994628906e+00 -9.898251300910487771e-05 9.337202063761651516e-04 2.504213189240545034e-04 3.153898578602820635e-04
3.159000000000000000e+03 1.653013420104980469e+01 6.059922218322753906e+00 -3.629495331551879644e-04 7.334809051826596260e-04 1.111594028770923615e-04 3.161753702443093061e-04
3.160000000000000000e+03 1.215696811676025391e+01 5.266003131866455078e+00 4.580350650940090418e-04 -1.696981198620051146e-04 8.650108793517574668e-05 1.055707107298076153e-03
3.161000000000000000e+03 1.219937610626220703e+01 4.623985290527343750e+00 3.156754828523844481e-04 -2.557465049903839827e-04 1.797869481379166245e-05 1.134981052018702030e-03
3.162000000000000000e+03 2.046701812744140625e+01 -7.925518989562988281e+00 2.506612241268157959e-01 4.162701964378356934e-01 2.000794261693954468e-01 7.173344492912292480e-01
3.163000000000000000e+03 2.724112129211425781e+01 -3.138344287872314453e+00 6.417816877365112305e-01 5.934057012200355530e-02 2.103366702795028687e-01 8.568545579910278320e-01
3.164000000000000000e+03 2.804722785949707031e+01 -2.716390132904052734e+00 8.938074111938476562e-01 1.893504410982131958e-01 3.249473571777343750e-01 8.050374388694763184e-01
3.165000000000000000e+03 1.335268592834472656e+01 6.268669128417968750e+00 -1.514840405434370041e-04 6.358783575706183910e-04 1.453182921977713704e-04 1.293000881560146809e-03
3.166000000000000000e+03 6.062759399414062500e+01 -1.022519493103027344e+01 -7.355803251266479492e-01 5.448930859565734863e-01 -5.720616877079010010e-02 5.696890950202941895e-01
3.167000000000000000e+03 1.519011306762695312e+01 6.111615657806396484e+00 -4.522962844930589199e-04 7.924551027826964855e-04 1.020476483972743154e-04 8.051876793615520000e-04
3.168000000000000000e+03 7.412014770507812500e+01 -2.163291549682617188e+01 -5.250854883342981339e-03 -2.049390459433197975e-03 -2.190073719248175621e-03 1.144903362728655338e-03
3.169000000000000000e+03 6.574817657470703125e+01 -1.016573619842529297e+01 -8.944287300109863281e-01 -2.998171001672744751e-02 -2.773231267929077148e-01 -2.865045964717864990e-01
3.170000000000000000e+03 5.152308273315429688e+01 -1.216513729095458984e+01 1.475773096084594727e+00 8.846341371536254883e-01 7.081221342086791992e-01 1.959383249282836914e+00
3.171000000000000000e+03 1.072159194946289062e+01 5.348133563995361328e+00 7.557168137282133102e-04 -7.624689023941755295e-04 -2.025633193625253625e-06 8.601071895100176334e-04
3.172000000000000000e+03 9.974629402160644531e+00 4.688031196594238281e+00 9.327219449914991856e-04 -8.032073383219540119e-04 3.885438491124659777e-05 5.541877471841871738e-04
3.173000000000000000e+03 7.488317871093750000e+01 -2.178273582458496094e+01 -5.436985287815332413e-03 -1.791559276171028614e-03 -2.168563427403569221e-03 9.311783360317349434e-04
3.174000000000000000e+03 7.557514190673828125e+01 -2.092491722106933594e+01 -2.434642985463142395e-03 -1.474716584198176861e-03 -1.172807882539927959e-03 -3.482488391455262899e-04
3.175000000000000000e+03 4.221907424926757812e+01 1.704685783386230469e+01 5.979717969894409180e-01 3.282474994659423828e+00 1.164134025573730469e+00 1.352461934089660645e+00
3.176000000000000000e+03 4.163251876831054688e+01 1.643789291381835938e+01 6.220930218696594238e-01 3.813930034637451172e+00 1.330806851387023926e+00 1.400934457778930664e+00
3.177000000000000000e+03 1.181832313537597656e+01 -5.285087108612060547e+00 -4.014994800090789795e-01 2.919999361038208008e-01 -3.284987062215805054e-02 -3.123318850994110107e-01
3.178000000000000000e+03 1.022462081909179688e+01 -4.616521835327148438e+00 -4.528695642948150635e-01 1.490646749734878540e-01 -9.114146977663040161e-02 -4.202525913715362549e-01
3.179000000000000000e+03 4.546326065063476562e+01 -7.997859001159667969e+00 -1.216394543647766113e+00 2.383916616439819336e+00 3.502565920352935791e-01 -5.428356528282165527e-01
3.180000000000000000e+03 4.517391967773437500e+01 -1.457431888580322266e+01 1.913979649543762207e+00 6.549827575683593750e+00 2.539142131805419922e+00 8.045630455017089844e-01
3.181000000000000000e+03 3.338024902343750000e+01 -6.222451686859130859e+00 -1.666791915893554688e+00 5.841393470764160156e+00 1.252380371093750000e+00 -6.579146981239318848e-01
3.182000000000000000e+03 3.287009048461914062e+01 -5.921277523040771484e+00 -1.348624467849731445e+00 4.947400093078613281e+00 1.079632639884948730e+00 -4.991065859794616699e-01
3.183000000000000000e+03 8.679005622863769531e+00 -4.640472412109375000e+00 -3.834241032600402832e-01 6.590054929256439209e-02 -9.525706619024276733e-02 -4.892834722995758057e-01
3.184000000000000000e+03 1.837165069580078125e+01 -7.845980644226074219e+00 1.749484241008758545e-01 6.830086112022399902e-01 2.573871016502380371e-01 6.329410076141357422e-01
3.185000000000000000e+03 6.062780761718750000e+01 6.945011019706726074e-02 7.618072032928466797e-01 2.315270662307739258e+00 9.231233596801757812e-01 1.079707145690917969e+00
3.186000000000000000e+03 4.783650398254394531e+00 -5.568202972412109375e+00 -1.325070858001708984e-01 -2.013306617736816406e-01 -1.001513227820396423e-01 -4.933229088783264160e-01
3.187000000000000000e+03 5.562103748321533203e+00 -5.511411190032958984e+00 -1.660985201597213745e-01 -1.434188038110733032e-01 -9.285520017147064209e-02 -5.216650366783142090e-01
3.188000000000000000e+03 7.554288482666015625e+01 -3.201996612548828125e+01 -1.009655557572841644e-02 -3.757963702082633972e-02 -1.430285722017288208e-02 5.239182338118553162e-02
3.189000000000000000e+03 7.123518466949462891e+00 -4.681821823120117188e+00 -3.021377623081207275e-01 -2.197176218032836914e-02 -9.723286330699920654e-02 -5.120908021926879883e-01
3.190000000000000000e+03 7.921678543090820312e+00 -5.365272045135498047e+00 -2.726860940456390381e-01 3.408887982368469238e-02 -7.157916575670242310e-02 -5.370710492134094238e-01
3.191000000000000000e+03 6.356853485107421875e+00 -5.445976257324218750e+00 -2.026404142379760742e-01 -8.029972016811370850e-02 -8.488204330205917358e-02 -5.408417582511901855e-01
3.192000000000000000e+03 7.144556999206542969e+00 -5.396567344665527344e+00 -2.399709075689315796e-01 -2.084068767726421356e-02 -7.824347913265228271e-02 -5.443458557128906250e-01
3.193000000000000000e+03 5.544866943359375000e+01 -5.015853881835937500e+00 -4.808692634105682373e-02 1.979125142097473145e+00 5.793114304542541504e-01 1.288654565811157227e+00
3.194000000000000000e+03 5.632108688354492188e+01 -1.222737598419189453e+01 1.370387673377990723e-01 4.875311851501464844e-01 1.873709857463836670e-01 9.871557950973510742e-01
3.195000000000000000e+03 5.569073104858398438e+01 -5.991062164306640625e+00 -3.413565754890441895e-01 1.882331967353820801e+00 4.622926414012908936e-01 1.376154541969299316e+00
3.196000000000000000e+03 1.187578487396240234e+01 -5.993623733520507812e+00 -2.960386276245117188e-01 3.720479309558868408e-01 2.280278876423835754e-02 -3.171750307083129883e-01
3.197000000000000000e+03 8.696789741516113281e+00 -5.346403121948242188e+00 -3.051348626613616943e-01 8.824297040700912476e-02 -6.506756693124771118e-02 -5.183671712875366211e-01
3.198000000000000000e+03 1.102198791503906250e+01 -5.301795005798339844e+00 -3.804684877395629883e-01 2.453158497810363770e-01 -4.054579138755798340e-02 -3.848544955253601074e-01
3.199000000000000000e+03 1.419081497192382812e+01 -5.096422195434570312e+00 -4.421454966068267822e-01 3.801242411136627197e-01 -1.860637404024600983e-02 -3.600263595581054688e-02
3.200000000000000000e+03 1.413949108123779297e+01 -4.464998245239257812e+00 -5.450614690780639648e-01 2.986181974411010742e-01 -7.393299043178558350e-02 -4.905009642243385315e-02
3.201000000000000000e+03 1.544799423217773438e+01 -8.992792129516601562e+00 2.526046335697174072e-01 1.041233539581298828e+00 3.881514668464660645e-01 2.770859897136688232e-01
3.202000000000000000e+03 2.382462882995605469e+01 -3.335073232650756836e+00 2.242659591138362885e-02 8.736158907413482666e-02 3.293645381927490234e-02 7.207814455032348633e-01
3.203000000000000000e+03 2.678641319274902344e+01 -4.300683975219726562e+00 2.721835076808929443e-01 9.462162852287292480e-02 1.100415438413619995e-01 1.009824872016906738e+00
3.204000000000000000e+03 7.518782043457031250e+01 3.279183578491210938e+01 -8.884654939174652100e-02 1.293934732675552368e-01 1.216407399624586105e-02 2.219059914350509644e-01
3.205000000000000000e+03 5.939491653442382812e+01 -1.132040214538574219e+01 -6.085855960845947266e-01 5.555543899536132812e-01 -1.590935513377189636e-02 5.720143318176269531e-01
3.206000000000000000e+03 7.672568511962890625e+01 -2.756915855407714844e+01 -9.478502906858921051e-03 -1.356241106986999512e-02 -6.912274286150932312e-03 1.980270817875862122e-02
3.207000000000000000e+03 4.603263854980468750e+00 3.307263946533203125e+01 1.852074265480041504e-02 -1.318459361791610718e-01 -3.399755805730819702e-02 7.534323632717132568e-02
3.208000000000000000e+03 7.241174316406250000e+01 -2.286117362976074219e+01 -1.408151537179946899e-02 -2.445789868943393230e-04 -4.297828301787376404e-03 1.998066669330000877e-03
3.209000000000000000e+03 6.463174438476562500e+01 -1.015902900695800781e+01 -8.954037427902221680e-01 -2.028892338275909424e-01 -3.294878900051116943e-01 -1.156267225742340088e-01
3.210000000000000000e+03 6.303235626220703125e+01 -9.518947601318359375e+00 -7.171515226364135742e-01 1.528332680463790894e-01 -1.692954748868942261e-01 2.589854001998901367e-01
3.211000000000000000e+03 1.262292957305908203e+01 -5.252090454101562500e+00 -4.167815744876861572e-01 3.298038542270660400e-01 -2.609331347048282623e-02 -2.239797711372375488e-01
3.212000000000000000e+03 1.341741657257080078e+01 -5.186055660247802734e+00 -4.281520545482635498e-01 3.578190803527832031e-01 -2.109988592565059662e-02 -1.338220387697219849e-01
3.213000000000000000e+03 7.605346679687500000e+01 2.951762962341308594e+01 -6.552875787019729614e-02 -1.037304624915122986e-01 -5.077776685357093811e-02 2.923396229743957520e-01
3.214000000000000000e+03 7.673899841308593750e+01 -2.241889190673828125e+01 -3.385877236723899841e-03 -1.705217640846967697e-03 -1.527328393422067165e-03 1.523602288216352463e-03
3.215000000000000000e+03 7.478971862792968750e+01 -2.254084777832031250e+01 -6.838611327111721039e-03 -2.274525584653019905e-03 -2.733941189944744110e-03 2.685159677639603615e-03
3.216000000000000000e+03 7.669441986083984375e+01 -2.680142211914062500e+01 -8.994531817734241486e-03 -1.063343416899442673e-02 -5.888389889150857925e-03 1.659901812672615051e-02
3.217000000000000000e+03 7.607517242431640625e+01 -2.968349456787109375e+01 -1.314851082861423492e-02 -2.301672287285327911e-02 -1.084957085549831390e-02 3.594807162880897522e-02
3.218000000000000000e+03 7.589372253417968750e+01 -2.678230285644531250e+01 -1.319552771747112274e-02 -8.497330360114574432e-03 -6.507857702672481537e-03 1.880098134279251099e-02
3.219000000000000000e+03 7.647213745117187500e+01 -2.196088027954101562e+01 -2.657455159351229668e-03 -1.752872951328754425e-03 -1.323098433203995228e-03 6.205107201822102070e-04
3.220000000000000000e+03 7.638775634765625000e+01 -3.212211227416992188e+01 -6.720425561070442200e-03 -4.591566324234008789e-02 -1.579082757234573364e-02 4.431168362498283386e-02
3.221000000000000000e+03 4.126183986663818359e+00 -2.881191062927246094e+01 -3.885507583618164062e-02 -5.191212296485900879e-01 -1.673928797245025635e-01 2.722673416137695312e-01
3.222000000000000000e+03 6.718600463867187500e+01 -2.860686874389648438e+01 -1.326162666082382202e-01 4.274458810687065125e-02 -2.696150355041027069e-02 2.370095811784267426e-02
3.223000000000000000e+03 6.833945465087890625e+01 -2.770410728454589844e+01 -9.973099082708358765e-02 3.134163469076156616e-02 -2.051680535078048706e-02 1.566174626350402832e-02
3.224000000000000000e+03 5.873291015625000000e+01 -3.465106725692749023e+00 4.150170683860778809e-01 1.864179253578186035e+00 6.837589144706726074e-01 9.810737371444702148e-01
3.225000000000000000e+03 7.653099060058593750e+01 2.686272621154785156e+01 -4.476753994822502136e-02 -3.309687972068786621e-01 -1.127208992838859558e-01 3.358262181282043457e-01
3.226000000000000000e+03 4.386573791503906250e+00 2.889710998535156250e+01 6.846455391496419907e-03 -1.021367087960243225e-01 -2.858707681298255920e-02 1.000906899571418762e-01
3.227000000000000000e+03 7.606398010253906250e+01 -2.830384445190429688e+01 -1.367671974003314972e-02 -1.477210782468318939e-02 -8.534648455679416656e-03 2.712079137563705444e-02
3.228000000000000000e+03 7.526618957519531250e+01 -1.165492630004882812e+01 -1.594086140394210815e-01 -5.207574740052223206e-02 -6.344530731439590454e-02 -2.151836454868316650e-01
3.229000000000000000e+03 7.586297607421875000e+01 2.597351837158203125e+01 -5.191126838326454163e-02 -2.579559385776519775e-01 -9.296015650033950806e-02 3.994239568710327148e-01
3.230000000000000000e+03 7.591677856445312500e+01 2.516348457336425781e+01 -4.549459740519523621e-02 -3.176280558109283447e-01 -1.089367941021919250e-01 4.100177884101867676e-01
3.231000000000000000e+03 7.602333831787109375e+01 -2.435322570800781250e+01 -8.323483169078826904e-03 -3.701737616211175919e-03 -3.607566468417644501e-03 7.318724412471055984e-03
3.232000000000000000e+03 7.595230102539062500e+01 -2.514806365966796875e+01 -1.069708354771137238e-02 -4.692909307777881622e-03 -4.616997670382261276e-03 1.040239818394184113e-02
3.233000000000000000e+03 7.597633361816406250e+01 2.213622283935546875e+01 -5.682130344212055206e-03 -5.354641079902648926e-01 -1.623438596725463867e-01 4.413623213768005371e-01
3.234000000000000000e+03 1.816906166076660156e+01 -4.903829097747802734e+00 -3.337747156620025635e-01 3.604942262172698975e-01 8.015850558876991272e-03 4.626832306385040283e-01
3.235000000000000000e+03 7.606140136718750000e+01 1.899529457092285156e+01 5.139251425862312317e-02 -7.738456726074218750e-01 -2.167359441518783569e-01 4.010341465473175049e-01
3.236000000000000000e+03 7.607948303222656250e+01 1.820098876953125000e+01 6.290370225906372070e-02 -8.321822285652160645e-01 -2.307835519313812256e-01 3.812099993228912354e-01
3.237000000000000000e+03 7.533621978759765625e+01 2.922686576843261719e+01 -8.548130840063095093e-02 -1.181111764162778854e-02 -2.918772771954536438e-02 3.316940069198608398e-01
3.238000000000000000e+03 7.597911071777343750e+01 2.136146163940429688e+01 1.193356607109308243e-02 -5.846629738807678223e-01 -1.718188226222991943e-01 4.418312907218933105e-01
3.239000000000000000e+03 7.612267303466796875e+01 1.504401779174804688e+01 1.007080525159835815e-01 -1.023746490478515625e+00 -2.769115269184112549e-01 2.584841251373291016e-01
3.240000000000000000e+03 7.672691345214843750e+01 2.287130737304687500e+01 -9.282170794904232025e-03 -6.679545044898986816e-01 -2.031709998846054077e-01 3.814269602298736572e-01
3.241000000000000000e+03 7.597248840332031250e+01 2.438641357421875000e+01 -3.901533409953117371e-02 -3.769985735416412354e-01 -1.248041763901710510e-01 4.187622666358947754e-01
3.242000000000000000e+03 7.684842681884765625e+01 1.263820266723632812e+01 8.172111213207244873e-02 -1.388583779335021973e+00 -3.920588195323944092e-01 1.190364360809326172e-01
3.243000000000000000e+03 7.614796447753906250e+01 1.191608142852783203e+01 1.204977333545684814e-01 -1.139135956764221191e+00 -3.055914640426635742e-01 1.000101268291473389e-01
3.244000000000000000e+03 7.615207672119140625e+01 1.112624835968017578e+01 1.225658282637596130e-01 -1.156239032745361328e+00 -3.101019859313964844e-01 5.499612540006637573e-02
3.245000000000000000e+03 7.682017517089843750e+01 1.579113864898681641e+01 6.539790332317352295e-02 -1.236763715744018555e+00 -3.514097332954406738e-01 2.542670965194702148e-01
3.246000000000000000e+03 7.609368896484375000e+01 1.740901756286621094e+01 7.373540848493576050e-02 -8.864641189575195312e-01 -2.438186109066009521e-01 3.538533449172973633e-01
3.247000000000000000e+03 7.612820434570312500e+01 1.426090335845947266e+01 1.077620759606361389e-01 -1.060881614685058594e+00 -2.859358787536621094e-01 2.210049629211425781e-01
3.248000000000000000e+03 7.615939331054687500e+01 8.747029304504394531e+00 1.167183816432952881e-01 -1.168288111686706543e+00 -3.154709041118621826e-01 -7.548066228628158569e-02
3.249000000000000000e+03 7.618923187255859375e+01 -3.158069372177124023e+00 -3.791918046772480011e-03 -6.097320318222045898e-01 -1.840571761131286621e-01 -4.586855471134185791e-01
3.250000000000000000e+03 7.620129394531250000e+01 -3.917014837265014648e+00 -1.403214316815137863e-02 -5.546836853027343750e-01 -1.706147491931915283e-01 -4.538725614547729492e-01
3.251000000000000000e+03 7.683412933349609375e+01 5.484311103820800781e+00 7.297719269990921021e-02 -1.332992792129516602e+00 -3.780046701431274414e-01 -2.139459103345870972e-01
3.252000000000000000e+03 7.616384887695312500e+01 -5.441026687622070312e+00 -4.283073544502258301e-02 -4.366115331649780273e-01 -1.438326835632324219e-01 -4.361688792705535889e-01
3.253000000000000000e+03 7.608975219726562500e+01 4.797902107238769531e+00 1.000065878033638000e-01 -1.061136484146118164e+00 -2.883389592170715332e-01 -2.732846736907958984e-01
3.254000000000000000e+03 7.601529693603515625e+01 3.988149881362915039e+00 9.720633178949356079e-02 -1.007343649864196777e+00 -2.730411887168884277e-01 -3.120511770248413086e-01
3.255000000000000000e+03 1.495355415344238281e+01 -5.013368129730224609e+00 -4.421865344047546387e-01 3.950529396533966064e-01 -1.414008066058158875e-02 6.638908386230468750e-02
3.256000000000000000e+03 7.545452117919921875e+01 8.835937500000000000e+00 1.558589786291122437e-01 -9.148732423782348633e-01 -2.277042716741561890e-01 -7.219038903713226318e-02
3.257000000000000000e+03 7.685855102539062500e+01 8.666507720947265625e+00 8.225104957818984985e-02 -1.428853511810302734e+00 -4.039807617664337158e-01 -7.215338200330734253e-02
3.258000000000000000e+03 7.563299560546875000e+01 2.266953706741333008e+00 9.110735356807708740e-02 -8.205854296684265137e-01 -2.188434153795242310e-01 -3.964595198631286621e-01
3.259000000000000000e+03 7.616233825683593750e+01 7.164229393005371094e+00 1.116073802113533020e-01 -1.150494813919067383e+00 -3.116662502288818359e-01 -1.575027853250503540e-01
3.260000000000000000e+03 7.612590026855468750e+01 -6.211302757263183594e+00 -5.977911502122879028e-02 -3.782801032066345215e-01 -1.314177662134170532e-01 -4.216662943363189697e-01
3.261000000000000000e+03 7.664006042480468750e+01 1.701558977365493774e-01 3.747578710317611694e-02 -9.458433985710144043e-01 -2.725102901458740234e-01 -3.917693793773651123e-01
3.262000000000000000e+03 7.586997985839843750e+01 -6.586806476116180420e-02 4.529844224452972412e-02 -7.652015089988708496e-01 -2.159709185361862183e-01 -4.481524229049682617e-01
3.263000000000000000e+03 7.587687683105468750e+01 3.154493570327758789e+00 9.051527827978134155e-02 -9.368405342102050781e-01 -2.538975775241851807e-01 -3.495924472808837891e-01
3.264000000000000000e+03 7.513497161865234375e+01 1.482662677764892578e+00 9.347644448280334473e-02 -6.668034791946411133e-01 -1.719981133937835693e-01 -4.431721270084381104e-01
3.265000000000000000e+03 7.563057708740234375e+01 7.727357745170593262e-01 6.920696049928665161e-02 -7.520638108253479004e-01 -2.048570662736892700e-01 -4.412541091442108154e-01
3.266000000000000000e+03 7.685621643066406250e+01 -5.369098663330078125e+00 -3.050619177520275116e-02 -5.226398706436157227e-01 -1.659438163042068481e-01 -3.834839165210723877e-01
3.267000000000000000e+03 7.619332122802734375e+01 -4.678009510040283203e+00 -2.969278395175933838e-02 -4.960858821868896484e-01 -1.577336043119430542e-01 -4.480586647987365723e-01
3.268000000000000000e+03 7.675662994384765625e+01 1.976261329650878906e+01 2.717135474085807800e-02 -9.328431487083435059e-01 -2.717015445232391357e-01 3.646930158138275146e-01
3.269000000000000000e+03 7.613082122802734375e+01 5.595477581024169922e+00 1.049198359251022339e-01 -1.100896716117858887e+00 -2.987930774688720703e-01 -2.354462295770645142e-01
3.270000000000000000e+03 7.628886413574218750e+01 3.078008842468261719e+01 -6.020622327923774719e-02 -6.833624094724655151e-02 -3.856273740530014038e-02 2.496766597032546997e-01
3.271000000000000000e+03 7.495175933837890625e+01 3.127799606323242188e+01 -1.003936156630516052e-01 1.183182224631309509e-01 5.377382505685091019e-03 2.793479263782501221e-01
3.272000000000000000e+03 7.684321594238281250e+01 -2.257983446121215820e+00 6.446820683777332306e-03 -7.942210435867309570e-01 -2.363322675228118896e-01 -4.032614529132843018e-01
3.273000000000000000e+03 7.615711975097656250e+01 -2.401145219802856445e+00 1.017408352345228195e-02 -6.610667109489440918e-01 -1.952677816152572632e-01 -4.584673345088958740e-01
3.274000000000000000e+03 7.615317535400390625e+01 6.381576538085937500e+00 1.076357290148735046e-01 -1.130065202713012695e+00 -3.067288398742675781e-01 -1.965421885251998901e-01
3.275000000000000000e+03 7.614086914062500000e+01 1.270265960693359375e+01 1.162401735782623291e-01 -1.117805719375610352e+00 -3.004696369171142578e-01 1.408389657735824585e-01
3.276000000000000000e+03 7.600998687744140625e+01 -8.641123175621032715e-01 3.501322120428085327e-02 -7.403311729431152344e-01 -2.115953862667083740e-01 -4.528943598270416260e-01
3.277000000000000000e+03 7.605044555664062500e+01 -9.355401992797851562e+00 -1.086068004369735718e-01 -1.784534305334091187e-01 -8.611807227134704590e-02 -3.083769381046295166e-01
3.278000000000000000e+03 7.613376617431640625e+01 1.348295116424560547e+01 1.120205447077751160e-01 -1.091787338256835938e+00 -2.939300239086151123e-01 1.820969879627227783e-01
3.279000000000000000e+03 7.603661346435546875e+01 1.978933525085449219e+01 3.925913572311401367e-02 -7.123146653175354004e-01 -2.019166648387908936e-01 4.207246899604797363e-01
3.280000000000000000e+03 7.603270721435546875e+01 -1.087517356872558594e+01 -1.185003519058227539e-01 -1.088404953479766846e-01 -6.820225715637207031e-02 -2.328712195158004761e-01
3.281000000000000000e+03 7.602012634277343750e+01 -1.161385536193847656e+01 -1.176034212112426758e-01 -8.127655833959579468e-02 -5.966399237513542175e-02 -1.945234090089797974e-01
3.282000000000000000e+03 7.605942535400390625e+01 -8.573224067687988281e+00 -9.694761782884597778e-02 -2.220678478479385376e-01 -9.570463746786117554e-02 -3.424299955368041992e-01
3.283000000000000000e+03 7.531751251220703125e+01 -9.421211242675781250e+00 -1.444516777992248535e-01 -1.295490711927413940e-01 -8.220022171735763550e-02 -3.379701375961303711e-01
3.284000000000000000e+03 4.179812240600585938e+01 -2.216827011108398438e+01 2.134333848953247070e+00 9.730652809143066406e+00 3.559496164321899414e+00 -5.077964067459106445e-01
3.285000000000000000e+03 4.279609298706054688e+01 -2.178317832946777344e+01 1.949544191360473633e+00 1.056865119934082031e+01 3.755458593368530273e+00 -5.543787479400634766e-01
3.286000000000000000e+03 7.609401702880859375e+01 -6.992113590240478516e+00 -7.203169167041778564e-02 -3.228392302989959717e-01 -1.184612810611724854e-01 -3.999704420566558838e-01
3.287000000000000000e+03 7.607260131835937500e+01 -7.781712532043457031e+00 -8.707195520401000977e-02 -2.704379558563232422e-01 -1.072529703378677368e-01 -3.746739327907562256e-01
3.288000000000000000e+03 3.584257888793945312e+01 1.126047039031982422e+01 8.222130537033081055e-01 1.229652404785156250e+01 3.935621023178100586e+00 -1.423093318939208984e+00
3.289000000000000000e+03 3.564143753051757812e+01 1.212360858917236328e+01 8.391780257225036621e-01 1.191203975677490234e+01 3.825365304946899414e+00 -1.472460150718688965e+00
3.290000000000000000e+03 4.117398262023925781e+00 2.512131309509277344e+01 -1.372963842004537582e-02 -6.223019585013389587e-02 -2.278795093297958374e-02 8.900289982557296753e-02
3.291000000000000000e+03 7.577194213867187500e+01 2.683761024475097656e+01 -6.396861374378204346e-02 -1.865941286087036133e-01 -7.516882568597793579e-02 3.830039501190185547e-01
3.292000000000000000e+03 7.497601318359375000e+01 -3.085045814514160156e+01 -1.657557487487792969e-02 -2.361636236310005188e-02 -1.205758098512887955e-02 5.050101876258850098e-02
3.293000000000000000e+03 7.600638580322265625e+01 2.057792472839355469e+01 2.543547563254833221e-02 -6.472990512847900391e-01 -1.865590810775756836e-01 4.326868355274200439e-01
3.294000000000000000e+03 4.010188579559326172e+00 -2.168430137634277344e+01 1.104946583509445190e-01 -7.943779826164245605e-01 -2.051649987697601318e-01 1.889920085668563843e-01
3.295000000000000000e+03 4.737192630767822266e+00 -3.023143768310546875e+01 -6.676612049341201782e-02 -3.860791623592376709e-01 -1.358535885810852051e-01 2.544429004192352295e-01
3.296000000000000000e+03 4.945101737976074219e+00 -2.483530807495117188e+01 4.278294742107391357e-02 -4.548593461513519287e-01 -1.236229240894317627e-01 3.147282898426055908e-01
3.297000000000000000e+03 3.376640796661376953e+00 2.672988510131835938e+01 -5.414868704974651337e-03 -1.062783002853393555e-01 -3.350795060396194458e-02 8.492860943078994751e-02
3.298000000000000000e+03 4.915300369262695312e+01 -1.200940036773681641e+01 1.517240762710571289e+00 1.937099456787109375e+00 1.036302089691162109e+00 1.901031732559204102e+00
3.299000000000000000e+03 3.259810209274291992e+00 -1.934579086303710938e+01 1.059680953621864319e-01 -1.068370938301086426e+00 -2.887208461761474609e-01 5.132412537932395935e-02
3.300000000000000000e+03 3.303941726684570312e+00 2.108469772338867188e+01 -1.638405211269855499e-02 -2.966638468205928802e-02 -1.381513103842735291e-02 4.651201516389846802e-02
3.301000000000000000e+03 4.067151546478271484e+00 2.181782150268554688e+01 -2.402665838599205017e-02 -2.589451149106025696e-02 -1.497635152190923691e-02 6.136913597583770752e-02
3.302000000000000000e+03 3.363179206848144531e+00 -2.413341903686523438e+01 3.711138293147087097e-02 -8.934276700019836426e-01 -2.568948864936828613e-01 2.462335526943206787e-01
3.303000000000000000e+03 1.237984180450439453e+01 1.642340850830078125e+01 -2.515205927193164825e-02 -7.272128015756607056e-03 -9.727256372570991516e-03 -2.222157083451747894e-02
3.304000000000000000e+03 1.132394599914550781e+01 1.764564514160156250e+01 -6.278246641159057617e-02 9.957734495401382446e-03 -1.584741845726966858e-02 -2.337727881968021393e-02
3.305000000000000000e+03 4.020006656646728516e+00 1.086696720123291016e+01 -1.035134424455463886e-03 -1.025595935061573982e-03 -6.182190845720469952e-04 -1.125240582041442394e-03
3.306000000000000000e+03 3.564163923263549805e+00 8.997249603271484375e+00 -1.694044913165271282e-04 -2.083591789414640516e-05 -5.707212403649464250e-05 -1.681539579294621944e-03
3.307000000000000000e+03 3.911503791809082031e+00 -1.527612495422363281e+01 1.599837392568588257e-01 -8.300763368606567383e-01 -2.010277807712554932e-01 -2.240720093250274658e-01
3.308000000000000000e+03 4.286280155181884766e+00 7.246028900146484375e+00 6.390277412720024586e-04 -4.978051292710006237e-04 4.236679160385392606e-05 -1.639815978705883026e-03
3.309000000000000000e+03 3.910991668701171875e+00 1.558086585998535156e+01 -9.504658170044422150e-03 -3.284644335508346558e-03 -3.836790798231959343e-03 8.493643254041671753e-03
3.310000000000000000e+03 4.642547130584716797e+00 -1.770931434631347656e+01 2.130241543054580688e-01 -6.595399975776672363e-01 -1.339547634124755859e-01 -5.610529333353042603e-02
3.311000000000000000e+03 3.932004451751708984e+00 -1.690018844604492188e+01 1.653949320316314697e-01 -8.591391444206237793e-01 -2.081232666969299316e-01 -1.083633825182914734e-01
3.312000000000000000e+03 3.918641805648803711e+00 -1.608568000793457031e+01 1.648158282041549683e-01 -8.471077084541320801e-01 -2.046875655651092529e-01 -1.665482968091964722e-01
3.313000000000000000e+03 3.231408357620239258e+00 -1.692408752441406250e+01 1.175948753952980042e-01 -1.066343069076538086e+00 -2.846244573593139648e-01 -9.562980383634567261e-02
3.314000000000000000e+03 5.210598468780517578e+00 1.110233020782470703e+01 -1.739066443406045437e-03 -2.667592139914631844e-03 -1.321997493505477905e-03 -8.857842185534536839e-04
3.315000000000000000e+03 3.934458494186401367e+00 1.162789344787597656e+01 -2.117176074534654617e-03 -9.583282517269253731e-04 -9.226513211615383625e-04 -6.073635304346680641e-04
3.316000000000000000e+03 3.923800945281982422e+00 1.478070068359375000e+01 -8.148547261953353882e-03 -2.258003456518054008e-03 -3.121965099126100540e-03 5.629132501780986786e-03
3.317000000000000000e+03 3.883816480636596680e+00 -1.124422550201416016e+01 8.388724923133850098e-02 -6.485582590103149414e-01 -1.694013178348541260e-01 -4.400636851787567139e-01
3.318000000000000000e+03 3.867186546325683594e+00 -1.043661785125732422e+01 6.293648481369018555e-02 -6.021041870117187500e-01 -1.617503166198730469e-01 -4.643373787403106689e-01
3.319000000000000000e+03 4.576095104217529297e+00 1.243632221221923828e+01 -4.213400185108184814e-03 -1.998381689190864563e-03 -1.863534562289714813e-03 4.322953172959387302e-04
3.320000000000000000e+03 3.230250120162963867e+00 1.236415576934814453e+01 -2.303136745467782021e-03 -4.579234155244193971e-05 -7.046787068247795105e-04 -4.527042619884014130e-05
3.321000000000000000e+03 3.857443809509277344e+00 -9.638188362121582031e+00 3.957755118608474731e-02 -5.504036545753479004e-01 -1.532478183507919312e-01 -4.812574088573455811e-01
3.322000000000000000e+03 4.429192543029785156e+00 8.831480026245117188e+00 2.345411339774727821e-04 -9.497289429418742657e-04 -2.145563485100865364e-04 -1.657365588471293449e-03
3.323000000000000000e+03 3.886488914489746094e+00 1.793358802795410156e+01 -1.749082282185554504e-02 -7.031664717942476273e-03 -7.356746122241020203e-03 2.216760627925395966e-02
3.324000000000000000e+03 3.287483215332031250e+00 2.030367279052734375e+01 -1.708210632205009460e-02 -2.290084399282932281e-02 -1.199488528072834015e-02 3.898273035883903503e-02
3.325000000000000000e+03 4.048304557800292969e+00 2.103703498840332031e+01 -2.525729313492774963e-02 -1.976140588521957397e-02 -1.350560970604419708e-02 5.103541910648345947e-02
3.326000000000000000e+03 3.210356473922729492e+00 1.794302368164062500e+01 -1.166168693453073502e-02 -9.849151596426963806e-03 -6.453251466155052185e-03 2.000520750880241394e-02
3.327000000000000000e+03 3.219335556030273438e+00 1.316219329833984375e+01 -2.790458500385284424e-03 -5.211904062889516354e-04 -9.934946428984403610e-04 1.041801762767136097e-03
3.328000000000000000e+03 3.911177158355712891e+00 1.240510368347167969e+01 -2.779851201921701431e-03 -1.258342876099050045e-03 -1.211458235047757626e-03 1.710515207378193736e-04
3.329000000000000000e+03 3.234516859054565430e+00 -7.240478515625000000e+00 -2.720787748694419861e-02 -4.511503875255584717e-01 -1.435074806213378906e-01 -4.359841644763946533e-01
3.330000000000000000e+03 3.912362098693847656e+00 -1.447416210174560547e+01 1.476867049932479858e-01 -8.018593788146972656e-01 -1.962518095970153809e-01 -2.779247164726257324e-01
3.331000000000000000e+03 3.996305465698242188e+00 1.948852539062500000e+01 -2.280160225927829742e-02 -1.207332406193017960e-02 -1.046247780323028564e-02 3.632102161645889282e-02
3.332000000000000000e+03 4.142614364624023438e+00 -2.487469863891601562e+01 3.297841176390647888e-02 -6.571059226989746094e-01 -1.872382462024688721e-01 2.879329025745391846e-01
3.333000000000000000e+03 4.040375709533691406e+00 -2.247656059265136719e+01 9.399557858705520630e-02 -7.620901465415954590e-01 -2.004283666610717773e-01 2.232630103826522827e-01
3.334000000000000000e+03 3.925843000411987305e+00 1.870860481262207031e+01 -1.886558718979358673e-02 -9.601391851902008057e-03 -8.540093898773193359e-03 2.853776700794696808e-02
3.335000000000000000e+03 3.201086997985839844e+00 -1.209335899353027344e+01 7.366418093442916870e-02 -8.519474864006042480e-01 -2.334849983453750610e-01 -3.618342876434326172e-01
3.336000000000000000e+03 3.893837451934814453e+00 1.637684249877929688e+01 -1.268683932721614838e-02 -3.877690760418772697e-03 -4.969358909875154495e-03 1.243956945836544037e-02
3.337000000000000000e+03 3.880534648895263672e+00 1.716077804565429688e+01 -1.385860145092010498e-02 -5.817345343530178070e-03 -5.902784410864114761e-03 1.685256324708461761e-02
3.338000000000000000e+03 3.366864681243896484e+00 2.593552207946777344e+01 -6.599479820579290390e-03 -9.390984475612640381e-02 -3.015279769897460938e-02 8.158761262893676758e-02
3.339000000000000000e+03 4.201941967010498047e+00 2.818369102478027344e+01 2.966819563880562782e-03 -9.931226074695587158e-02 -2.890363335609436035e-02 9.882878512144088745e-02
3.340000000000000000e+03 3.371973514556884766e+00 2.512954139709472656e+01 -1.072460506111383438e-02 -8.031859993934631348e-02 -2.731296233832836151e-02 7.872789353132247925e-02
3.341000000000000000e+03 4.102994441986083984e+00 2.670928192138671875e+01 -5.634880159050226212e-03 -8.462165296077728271e-02 -2.707696147263050079e-02 9.501470625400543213e-02
3.342000000000000000e+03 4.118632316589355469e+00 2.745471954345703125e+01 -2.914966549724340439e-03 -9.354440122842788696e-02 -2.893781103193759918e-02 9.771253913640975952e-02
3.343000000000000000e+03 4.232204437255859375e+00 3.395984649658203125e+01 1.465451065450906754e-02 -1.640241444110870361e-01 -4.481089115142822266e-02 6.398108601570129395e-02
3.344000000000000000e+03 3.712644100189208984e+00 3.267689895629882812e+01 1.276169531047344208e-02 -1.828866750001907349e-01 -5.103749036788940430e-02 6.909569352865219116e-02
3.345000000000000000e+03 4.740502357482910156e+00 -3.296837234497070312e+01 -7.306445389986038208e-02 -3.413536846637725830e-01 -1.243254467844963074e-01 1.957767009735107422e-01
3.346000000000000000e+03 3.899384260177612305e+00 -1.205897617340087891e+01 1.038851365447044373e-01 -6.935037970542907715e-01 -1.768856048583984375e-01 -4.073585569858551025e-01
3.347000000000000000e+03 4.041728973388671875e+00 3.176819419860839844e+01 1.609290204942226410e-02 -1.508892029523849487e-01 -4.043889045715332031e-02 8.026228100061416626e-02
3.348000000000000000e+03 4.906923770904541016e+00 3.214254760742187500e+01 2.439761161804199219e-02 -1.129996702075004578e-01 -2.658061869442462921e-02 8.602407574653625488e-02
3.349000000000000000e+03 4.138832092285156250e+00 -2.802527999877929688e+01 -3.169738501310348511e-02 -5.430667400360107422e-01 -1.724292486906051636e-01 2.875513434410095215e-01
3.350000000000000000e+03 4.111320018768310547e+00 -2.644822120666503906e+01 1.337465015240013599e-03 -6.088680624961853027e-01 -1.822591722011566162e-01 3.002264201641082764e-01
3.351000000000000000e+03 3.968792915344238281e+00 -1.932663345336914062e+01 1.477946043014526367e-01 -8.509303331375122070e-01 -2.109407186508178711e-01 5.869033932685852051e-02
3.352000000000000000e+03 3.914798021316528320e+00 -1.367250919342041016e+01 1.344236433506011963e-01 -7.693992853164672852e-01 -1.904926896095275879e-01 -3.259826898574829102e-01
3.353000000000000000e+03 4.045499801635742188e+00 -3.357301712036132812e+01 -5.379169434309005737e-02 -4.174984991550445557e-01 -1.413870602846145630e-01 1.719586998224258423e-01
3.354000000000000000e+03 6.112699985504150391e+00 -3.242256546020507812e+01 -1.092980355024337769e-01 -1.348102688789367676e-01 -7.323249429464340210e-02 2.144657522439956665e-01
3.355000000000000000e+03 3.990848302841186523e+00 -2.090159797668457031e+01 1.239688917994499207e-01 -8.203179240226745605e-01 -2.089046984910964966e-01 1.501195430755615234e-01
3.356000000000000000e+03 3.978242158889770508e+00 -2.011993026733398438e+01 1.369368731975555420e-01 -8.392816781997680664e-01 -2.107034325599670410e-01 1.052455380558967590e-01
3.357000000000000000e+03 7.574606323242187500e+01 2.767900085449218750e+01 -6.838557124137878418e-02 -1.406592279672622681e-01 -6.271343678236007690e-02 3.605130910873413086e-01
3.358000000000000000e+03 7.507625579833984375e+01 2.797322273254394531e+01 -9.066534042358398438e-02 -6.389931775629520416e-03 -2.911658212542533875e-02 3.793266415596008301e-01
3.359000000000000000e+03 4.789869308471679688e+00 -6.394132614135742188e+00 -8.966860175132751465e-02 -2.417304664850234985e-01 -9.941972047090530396e-02 -5.220052599906921387e-01
3.360000000000000000e+03 3.867135763168334961e+00 -8.840561866760253906e+00 1.648500375449657440e-02 -4.959256947040557861e-01 -1.438322067260742188e-01 -4.910256266593933105e-01
3.361000000000000000e+03 3.905037641525268555e+00 -8.036312103271484375e+00 -9.522110223770141602e-03 -4.328686594963073730e-01 -1.327172368764877319e-01 -4.956509172916412354e-01
3.362000000000000000e+03 5.006633758544921875e+00 2.340834426879882812e+01 -3.029951639473438263e-02 -2.269925177097320557e-02 -1.589963026344776154e-02 8.524198085069656372e-02
3.363000000000000000e+03 4.172945976257324219e+00 2.345431327819824219e+01 -2.065409161150455475e-02 -4.139402136206626892e-02 -1.861443370580673218e-02 7.675897330045700073e-02
3.364000000000000000e+03 4.151550292968750000e+00 2.429549026489257812e+01 -1.881689392030239105e-02 -5.052879080176353455e-02 -2.080370485782623291e-02 8.408755809068679810e-02
3.365000000000000000e+03 7.573539733886718750e+01 -3.114688301086425781e+01 -1.189115177839994431e-02 -3.167327120900154114e-02 -1.306932698935270309e-02 4.659700021147727966e-02
3.366000000000000000e+03 4.197887420654296875e+00 -3.448781585693359375e+01 -6.345243752002716064e-02 -3.957929313182830811e-01 -1.377736032009124756e-01 1.493163555860519409e-01
3.367000000000000000e+03 5.218593120574951172e+00 -3.206750488281250000e+01 -8.478533476591110229e-02 -2.667070329189300537e-01 -1.054477170109748840e-01 2.179832309484481812e-01
3.368000000000000000e+03 4.908487701416015625e+01 -1.277154731750488281e+01 2.044149637222290039e+00 2.099543809890747070e+00 1.243108034133911133e+00 1.989223241806030273e+00
3.369000000000000000e+03 1.200957012176513672e+01 -1.670873451232910156e+01 6.939246058464050293e-01 1.957617998123168945e+00 7.954627871513366699e-01 1.191654875874519348e-01
3.370000000000000000e+03 1.085134601593017578e+01 -1.787823867797851562e+01 6.538013219833374023e-01 1.406410932540893555e+00 6.180636882781982422e-01 3.762803226709365845e-02
3.371000000000000000e+03 4.100979328155517578e+00 -2.722855186462402344e+01 -1.940714381635189056e-02 -5.810385346412658691e-01 -1.801337003707885742e-01 2.963677346706390381e-01
3.372000000000000000e+03 3.611495590209960938e+01 5.712741374969482422e+00 1.316074848175048828e+00 1.456913185119628906e+01 4.765562057495117188e+00 -9.072606563568115234e-01
3.373000000000000000e+03 6.693434906005859375e+01 -3.076737022399902344e+01 -1.323110610246658325e-01 5.152001976966857910e-02 -2.423731237649917603e-02 8.449595421552658081e-02
3.374000000000000000e+03 7.436140060424804688e+00 -3.596065902709960938e+01 -1.256261020898818970e-01 -6.058623082935810089e-03 -3.950541839003562927e-02 1.158889383077621460e-01
3.375000000000000000e+03 4.408913135528564453e+00 3.092029571533203125e+01 1.690987683832645416e-02 -1.259502917528152466e-01 -3.271212428808212280e-02 9.097993373870849609e-02
3.376000000000000000e+03 7.031252288818359375e+01 -2.190661430358886719e+01 -7.254058960825204849e-03 -2.280138724017888308e-04 -2.244621748104691505e-03 -1.946147764101624489e-03
3.377000000000000000e+03 6.490876007080078125e+01 1.386118316650390625e+01 4.792177975177764893e-01 3.681260347366333008e+00 1.248143434524536133e+00 2.265724390745162964e-01
3.378000000000000000e+03 6.580839538574218750e+01 1.524957466125488281e+01 5.475172996520996094e-01 3.013771057128906250e+00 1.068386554718017578e+00 2.122371792793273926e-01
3.379000000000000000e+03 3.371362686157226562e+01 1.603681373596191406e+01 1.229807496070861816e+00 1.066922664642333984e+01 3.569710254669189453e+00 -2.285172700881958008e+00
3.380000000000000000e+03 6.990546417236328125e+01 -1.177615737915039062e+01 -6.102566719055175781e-01 1.933014839887619019e-01 -1.250865608453750610e-01 -1.860256195068359375e-01
3.381000000000000000e+03 7.065461730957031250e+01 -1.177689075469970703e+01 -5.325344204902648926e-01 1.690530478954315186e-01 -1.090444028377532959e-01 -2.088412791490554810e-01
3.382000000000000000e+03 1.172323703765869141e+01 -1.589418220520019531e+01 7.242731451988220215e-01 1.684898853302001953e+00 7.227516174316406250e-01 8.019826561212539673e-02
3.383000000000000000e+03 6.207051086425781250e+01 2.184184074401855469e+00 7.350797653198242188e-01 2.718235254287719727e+00 1.035994529724121094e+00 8.919181227684020996e-01
3.384000000000000000e+03 1.572497367858886719e+01 -4.963789939880371094e+00 -4.292041957378387451e-01 3.961417675018310547e-01 -9.918734431266784668e-03 1.734544634819030762e-01
3.385000000000000000e+03 1.733328056335449219e+01 -4.943854331970214844e+00 -3.716097176074981689e-01 3.800960481166839600e-01 2.545898547396063805e-03 3.800894021987915039e-01
3.386000000000000000e+03 3.614403152465820312e+01 -3.000223636627197266e-01 1.131696343421936035e+00 1.124621295928955078e+01 3.713372707366943359e+00 -5.529343485832214355e-01
3.387000000000000000e+03 4.633753967285156250e+01 1.973109817504882812e+01 1.657392829656600952e-01 1.147536277770996094e+00 3.939826786518096924e-01 7.586265802383422852e-01
3.388000000000000000e+03 5.727775955200195312e+01 -4.767560482025146484e+00 9.379925578832626343e-02 1.873848438262939453e+00 5.902943015098571777e-01 1.111902117729187012e+00
3.389000000000000000e+03 5.454795074462890625e+01 -6.318069934844970703e+00 -6.009939312934875488e-01 1.867059469223022461e+00 3.798196613788604736e-01 1.573984384536743164e+00
3.390000000000000000e+03 4.218259429931640625e+01 1.592593860626220703e+01 6.917442679405212402e-01 3.224648475646972656e+00 1.174917817115783691e+00 1.392954468727111816e+00
3.391000000000000000e+03 4.282074737548828125e+01 1.763304519653320312e+01 5.499019026756286621e-01 2.811985492706298828e+00 1.008566260337829590e+00 1.289403080940246582e+00
3.392000000000000000e+03 4.154745101928710938e+01 -2.289118385314941406e+01 2.161121606826782227e+00 9.457949638366699219e+00 3.485721588134765625e+00 -4.860083460807800293e-01
3.393000000000000000e+03 6.010574722290039062e+01 -9.642262458801269531e+00 -6.002129316329956055e-01 7.207872271537780762e-01 3.617228195071220398e-02 6.937476396560668945e-01
3.394000000000000000e+03 5.436967086791992188e+01 -8.122727394104003906e+00 -5.756691694259643555e-01 1.517146468162536621e+00 2.824431657791137695e-01 1.901429653167724609e+00
3.395000000000000000e+03 3.861077117919921875e+01 -1.776016616821289062e+01 1.579549312591552734e+00 9.048018455505371094e+00 3.188270092010498047e+00 -1.247145414352416992e+00
3.396000000000000000e+03 6.883805847167968750e+01 -2.683337402343750000e+01 -7.520215958356857300e-02 2.217228896915912628e-02 -1.590896025300025940e-02 6.712810136377811432e-03
3.397000000000000000e+03 6.871545410156250000e+01 -2.565775680541992188e+01 -5.616185441613197327e-02 1.330035272985696793e-02 -1.285845041275024414e-02 -4.323488567024469376e-03
3.398000000000000000e+03 2.065606498718261719e+01 -5.910540580749511719e+00 -7.713662832975387573e-02 3.506498336791992188e-01 8.205396682024002075e-02 7.241612672805786133e-01
3.399000000000000000e+03 2.060058593750000000e+01 -3.922094345092773438e+00 -2.960269451141357422e-01 2.305525988340377808e-01 -1.964230462908744812e-02 6.051368117332458496e-01
3.400000000000000000e+03 3.398892211914062500e+01 1.769260215759277344e+01 1.310850262641906738e+00 9.170738220214843750e+00 3.144476413726806641e+00 -1.617844700813293457e+00
3.401000000000000000e+03 3.303865051269531250e+01 1.822855567932128906e+01 1.660308003425598145e+00 9.175599098205566406e+00 3.250771999359130859e+00 -2.152067899703979492e+00
3.402000000000000000e+03 6.533878326416015625e+01 1.133958530426025391e+01 6.030458807945251465e-01 3.340755939483642578e+00 1.183140516281127930e+00 3.983100354671478271e-01
3.403000000000000000e+03 6.483325195312500000e+01 1.308591651916503906e+01 4.864974617958068848e-01 3.722536802291870117e+00 1.262710213661193848e+00 3.138965368270874023e-01
3.404000000000000000e+03 7.559916496276855469e+00 4.751778602600097656e+00 9.020629222504794598e-04 -1.100861001759767532e-03 -5.963942021480761468e-05 -2.380170335527509451e-04
3.405000000000000000e+03 5.164724826812744141e+00 7.179787158966064453e+00 4.033795848954468966e-04 -1.212286064401268959e-03 -2.426719438517466187e-04 -1.251151203177869320e-03
3.406000000000000000e+03 8.386990547180175781e+00 4.725393295288085938e+00 1.067496486939489841e-03 -1.045271521434187889e-03 6.667500656476477161e-06 -3.365815359757107217e-07
3.407000000000000000e+03 6.731095790863037109e+00 5.497165203094482422e+00 7.974203326739370823e-04 -1.287049846723675728e-03 -1.468888513045385480e-04 -5.834718467667698860e-04
3.408000000000000000e+03 1.351641464233398438e+01 -2.353171157836914062e+01 2.201226204633712769e-01 1.894329428672790527e+00 6.343355774879455566e-01 -1.704662144184112549e-01
3.409000000000000000e+03 4.273297786712646484e+00 5.675796508789062500e+00 7.314565009437501431e-04 -2.620812738314270973e-04 1.408125681336969137e-04 -1.379472552798688412e-03
3.410000000000000000e+03 4.547464752197265625e+01 2.121437072753906250e+01 1.727763116359710693e-01 1.773098111152648926e+00 5.837623476982116699e-01 1.044012069702148438e+00
3.411000000000000000e+03 4.518524551391601562e+01 1.965629577636718750e+01 2.690164446830749512e-01 1.648868680000305176e+00 5.753655433654785156e-01 9.784583449363708496e-01
3.412000000000000000e+03 7.006591796875000000e+01 -1.041002559661865234e+01 -5.650475025177001953e-01 2.029453217983245850e-01 -1.086306646466255188e-01 -3.502660691738128662e-01
3.413000000000000000e+03 7.218442535400390625e+01 -1.176377964019775391e+01 -3.777332007884979248e-01 9.695367515087127686e-02 -8.423385769128799438e-02 -2.313803583383560181e-01
3.414000000000000000e+03 3.788446044921875000e+01 1.277574920654296875e+01 5.240936279296875000e-01 9.507079124450683594e+00 3.009351730346679688e+00 1.718482524156570435e-01
3.415000000000000000e+03 1.233048629760742188e+01 1.222802734375000000e+01 -1.783878775313496590e-03 -1.295022084377706051e-03 -9.236703044734895229e-04 1.604552147909998894e-03
3.416000000000000000e+03 4.048282623291015625e+01 1.517020416259765625e+01 6.119977831840515137e-01 5.218781471252441406e+00 1.749233722686767578e+00 1.368455648422241211e+00
3.417000000000000000e+03 4.049531555175781250e+01 1.633946990966796875e+01 5.754059553146362305e-01 4.980394840240478516e+00 1.666740179061889648e+00 1.300898313522338867e+00
3.418000000000000000e+03 1.245157432556152344e+01 -1.491860294342041016e+01 8.037479519844055176e-01 1.913323998451232910e+00 8.151215910911560059e-01 1.668045520782470703e-01
3.419000000000000000e+03 2.302975463867187500e+01 -3.513445138931274414e+00 -9.985565394163131714e-02 1.379417628049850464e-01 1.142583228647708893e-02 6.991845965385437012e-01
3.420000000000000000e+03 6.174790573120117188e+01 -1.033762359619140625e+01 -8.752983808517456055e-01 3.158559501171112061e-01 -1.678327322006225586e-01 4.240352511405944824e-01
3.421000000000000000e+03 3.464572143554687500e+01 1.280871677398681641e+01 9.668797254562377930e-01 1.223305606842041016e+01 3.959980726242065430e+00 -2.032062292098999023e+00
3.422000000000000000e+03 2.227992057800292969e+01 -4.408447742462158203e+00 -1.426598727703094482e-01 2.108893841505050659e-01 2.046885341405868530e-02 7.489434480667114258e-01
3.423000000000000000e+03 6.444819641113281250e+01 7.070639133453369141e+00 7.957110404968261719e-01 3.181231737136840820e+00 1.193082809448242188e+00 5.889098644256591797e-01
3.424000000000000000e+03 2.942486763000488281e+01 -2.558257341384887695e+00 1.060706734657287598e+00 8.487219810485839844e-01 5.728285908699035645e-01 9.175158739089965820e-01
3.425000000000000000e+03 3.966312026977539062e+01 -1.890455818176269531e+01 1.985681414604187012e+00 8.928937911987304688e+00 3.274385929107666016e+00 -8.373144865036010742e-01
3.426000000000000000e+03 4.405612564086914062e+01 1.865679931640625000e+01 4.483464658260345459e-01 2.109496831893920898e+00 7.673529982566833496e-01 1.128697991371154785e+00
3.427000000000000000e+03 6.608483886718750000e+01 1.679117965698242188e+01 5.509432554244995117e-01 2.695788145065307617e+00 9.740194678306579590e-01 2.389087975025177002e-01
3.428000000000000000e+03 3.614657592773437500e+01 7.275615692138671875e+00 1.197338938713073730e+00 1.421534824371337891e+01 4.623805999755859375e+00 -1.100027680397033691e+00
3.429000000000000000e+03 7.566386222839355469e+00 5.443284988403320312e+00 1.032619853504002094e-03 -1.325321034528315067e-03 -8.781033102422952652e-05 -3.384144802112132311e-04
3.430000000000000000e+03 6.562477874755859375e+01 1.372102642059326172e+01 5.339164137840270996e-01 3.218398332595825195e+00 1.125694513320922852e+00 2.738500833511352539e-01
3.431000000000000000e+03 2.377271461486816406e+01 2.700855064392089844e+01 3.916545510292053223e-01 1.312740802764892578e+00 5.113186240196228027e-01 -1.140206217765808105e+00
3.432000000000000000e+03 2.366196632385253906e+01 2.607780075073242188e+01 5.255135297775268555e-01 1.109770655632019043e+00 4.905852675437927246e-01 -1.163027405738830566e+00
3.433000000000000000e+03 5.768016433715820312e+01 -3.960298061370849609e+00 3.333254456520080566e-01 1.914373278617858887e+00 6.743096113204956055e-01 1.083962798118591309e+00
3.434000000000000000e+03 7.073151397705078125e+01 -1.109051704406738281e+01 -5.158087015151977539e-01 1.745618581771850586e-01 -1.023740544915199280e-01 -2.800765037536621094e-01
3.435000000000000000e+03 1.353960609436035156e+01 -2.551447677612304688e+01 -8.249310776591300964e-03 1.475392103195190430e+00 4.401428401470184326e-01 -1.244305372238159180e-01
3.436000000000000000e+03 1.412399005889892578e+01 -2.598396682739257812e+01 -2.958061546087265015e-02 1.422347664833068848e+00 4.178301095962524414e-01 -2.322257459163665771e-01
3.437000000000000000e+03 3.595261383056640625e+01 8.957625389099121094e+00 1.071854472160339355e+00 1.351413536071777344e+01 4.375797271728515625e+00 -1.364696741104125977e+00
3.438000000000000000e+03 7.453320312500000000e+01 -1.097719097137451172e+01 -2.054347395896911621e-01 -3.321053460240364075e-02 -7.159358263015747070e-02 -2.732956409454345703e-01
3.439000000000000000e+03 7.377759552001953125e+01 -1.101798152923583984e+01 -2.529708445072174072e-01 9.705010801553726196e-03 -7.297974824905395508e-02 -2.821873128414154053e-01
3.440000000000000000e+03 4.555493545532226562e+01 -1.397040653228759766e+01 1.729215502738952637e+00 5.913067817687988281e+00 2.292685031890869141e+00 8.305708765983581543e-01
3.441000000000000000e+03 1.264386177062988281e+01 2.192904663085937500e+01 -1.964626312255859375e-01 8.565902709960937500e-02 -3.324108198285102844e-02 3.914861008524894714e-02
3.442000000000000000e+03 1.184477138519287109e+01 2.101781654357910156e+01 -1.742066740989685059e-01 7.453674077987670898e-02 -2.990097925066947937e-02 1.462080888450145721e-02
3.443000000000000000e+03 1.900583076477050781e+01 -4.810288906097412109e+00 -3.056318461894989014e-01 3.400332927703857422e-01 1.032044272869825363e-02 5.449321269989013672e-01
3.444000000000000000e+03 1.983012771606445312e+01 -4.691033840179443359e+00 -2.660389542579650879e-01 3.096259832382202148e-01 1.307611353695392609e-02 6.045660376548767090e-01
3.445000000000000000e+03 6.357933425903320312e+01 2.187600326538085938e+01 -2.131066918373107910e-01 2.661407709121704102e+00 7.344903349876403809e-01 -2.981135994195938110e-02
3.446000000000000000e+03 6.544738006591796875e+01 1.214896488189697266e+01 5.633178353309631348e-01 3.319008827209472656e+00 1.164698004722595215e+00 3.628455698490142822e-01
3.447000000000000000e+03 3.483163833618164062e+01 -8.390817642211914062e+00 -2.166473865509033203e+00 7.750989913940429688e+00 1.675354838371276855e+00 -1.168074965476989746e+00
3.448000000000000000e+03 9.967219352722167969e+00 5.371765136718750000e+00 6.075006094761192799e-04 -1.121789333410561085e-03 -1.542866230010986328e-04 7.787818321958184242e-04
3.449000000000000000e+03 9.192712783813476562e+00 5.387722969055175781e+00 9.577677119523286819e-04 -1.198534155264496803e-03 -7.222993008326739073e-05 3.673136816360056400e-04
3.450000000000000000e+03 2.666402053833007812e+01 2.607283020019531250e+01 3.245086073875427246e-01 2.703557729721069336e+00 9.084199070930480957e-01 -1.718294143676757812e+00
3.451000000000000000e+03 2.788626480102539062e+01 2.382130813598632812e+01 8.680667281150817871e-01 3.490817308425903320e+00 1.307665228843688965e+00 -2.238653659820556641e+00
3.452000000000000000e+03 4.052695846557617188e+01 -5.625166893005371094e+00 -2.605895042419433594e+00 8.529760360717773438e+00 1.777159690856933594e+00 -2.470250844955444336e+00
3.453000000000000000e+03 2.267537117004394531e+01 2.618936347961425781e+01 4.653764069080352783e-01 7.827489972114562988e-01 3.744376301765441895e-01 -9.238645434379577637e-01
3.454000000000000000e+03 2.249766731262207031e+01 2.531033515930175781e+01 4.308878183364868164e-01 5.912231206893920898e-01 3.066332936286926270e-01 -8.135188817977905273e-01
3.455000000000000000e+03 7.301835632324218750e+01 -1.104880619049072266e+01 -3.134969174861907959e-01 5.256644263863563538e-02 -7.827913761138916016e-02 -2.905892133712768555e-01
3.456000000000000000e+03 1.469969654083251953e+01 -2.644031143188476562e+01 -4.772685095667839050e-02 1.338153839111328125e+00 3.871280848979949951e-01 -2.690548300743103027e-01
3.457000000000000000e+03 4.317950057983398438e+01 -1.944285011291503906e+01 2.343763589859008789e+00 1.048135757446289062e+01 3.847536325454711914e+00 1.280739307403564453e-01
3.458000000000000000e+03 4.184676742553710938e+01 -2.142785644531250000e+01 2.141706705093383789e+00 9.849125862121582031e+00 3.597249984741210938e+00 -4.721265435218811035e-01
3.459000000000000000e+03 2.144873428344726562e+01 -4.496113777160644531e+00 -1.790910363197326660e-01 2.372976839542388916e-01 1.746199280023574829e-02 6.975013613700866699e-01
3.460000000000000000e+03 7.081256866455078125e+01 -2.246379470825195312e+01 -1.285646110773086548e-02 -2.417149808024987578e-04 -3.929452504962682724e-03 -8.368917042389512062e-04
3.461000000000000000e+03 7.127373504638671875e+01 -2.296998977661132812e+01 -1.535619422793388367e-02 9.530518436804413795e-04 -4.320942796766757965e-03 -6.026691407896578312e-04
3.462000000000000000e+03 3.863294601440429688e+01 -4.607429027557373047e+00 -2.192000389099121094e+00 1.038474369049072266e+01 2.457823038101196289e+00 -1.439693331718444824e+00
3.463000000000000000e+03 3.993379974365234375e+01 -4.177719593048095703e+00 -1.920749425888061523e+00 1.012613582611083984e+01 2.461615800857543945e+00 -2.262232542037963867e+00
3.464000000000000000e+03 3.933447265625000000e+01 -1.799508857727050781e+01 1.814358234405517578e+00 8.901440620422363281e+00 3.214739561080932617e+00 -1.114153623580932617e+00
3.465000000000000000e+03 1.495205307006835938e+01 -1.167181015014648438e+01 8.234063386917114258e-01 1.580734372138977051e+00 7.212422490119934082e-01 4.792483150959014893e-01
3.466000000000000000e+03 1.463613319396972656e+01 -2.730384063720703125e+01 -1.199159026145935059e-01 1.234291791915893555e+00 3.343127667903900146e-01 -2.375099956989288330e-01
3.467000000000000000e+03 3.570299911499023438e+01 -8.696713447570800781e+00 -2.147084474563598633e+00 8.509338378906250000e+00 1.908676147460937500e+00 -1.139160752296447754e+00
3.468000000000000000e+03 6.533927154541015625e+01 1.694386863708496094e+01 5.658415555953979492e-01 3.074791669845581055e+00 1.092190027236938477e+00 1.483968347311019897e-01
3.469000000000000000e+03 1.956799125671386719e+01 2.720059776306152344e+01 2.757334411144256592e-01 4.239902198314666748e-01 2.099170982837677002e-01 -4.277163743972778320e-01
3.470000000000000000e+03 2.545935249328613281e+01 -6.538783073425292969e+00 -3.032345175743103027e-01 2.848603129386901855e-01 -5.512258503586053848e-03 9.345645904541015625e-01
3.471000000000000000e+03 2.607626533508300781e+01 -6.141203880310058594e+00 -3.378772139549255371e-01 2.332614362239837646e-01 -3.138473629951477051e-02 1.033641695976257324e+00
3.472000000000000000e+03 3.613211822509765625e+01 8.174641609191894531e+00 1.172042727470397949e+00 1.380270099639892578e+01 4.492423057556152344e+00 -1.213911294937133789e+00
3.473000000000000000e+03 1.882660293579101562e+01 2.695392417907714844e+01 2.293516248464584351e-01 3.115174770355224609e-01 1.622607260942459106e-01 -3.208681941032409668e-01
3.474000000000000000e+03 1.801070976257324219e+01 2.541882514953613281e+01 8.460216224193572998e-02 1.136621683835983276e-01 5.947929993271827698e-02 -1.495777517557144165e-01
3.475000000000000000e+03 1.642043685913085938e+01 -9.619376182556152344e+00 4.741389453411102295e-01 1.095981597900390625e+00 4.710361659526824951e-01 4.946532547473907471e-01
3.476000000000000000e+03 6.930159759521484375e+01 -2.605750656127929688e+01 -6.151284277439117432e-02 1.616884395480155945e-02 -1.360319927334785461e-02 3.433877136558294296e-03
3.477000000000000000e+03 3.501701593399047852e+00 4.926021575927734375e+00 5.948497564531862736e-04 1.872362481663003564e-04 2.346258115721866488e-04 -1.266817096620798111e-03
3.478000000000000000e+03 1.108913040161132812e+01 1.834182929992675781e+01 -8.286610245704650879e-02 2.136439085006713867e-02 -1.845051348209381104e-02 -2.113653346896171570e-02
3.479000000000000000e+03 2.829821777343750000e+01 -5.409762382507324219e+00 1.336917281150817871e-02 1.775910854339599609e-01 5.728808045387268066e-02 1.071390151977539062e+00
3.480000000000000000e+03 3.004117012023925781e+01 -6.187519550323486328e+00 -6.709487438201904297e-01 4.804408252239227295e-01 -5.715236440300941467e-02 4.501932561397552490e-01
3.481000000000000000e+03 6.438524627685546875e+01 9.850334167480468750e+00 6.442493200302124023e-01 3.753722906112670898e+00 1.319391608238220215e+00 5.734171271324157715e-01
3.482000000000000000e+03 5.492287445068359375e+01 2.469345855712890625e+01 -1.222644895315170288e-01 2.844885289669036865e-01 4.866720736026763916e-02 -1.362486928701400757e-01
3.483000000000000000e+03 5.283477401733398438e+01 2.427430915832519531e+01 -1.578496247529983521e-01 3.258556127548217773e-01 5.040179193019866943e-02 1.556549370288848877e-01
3.484000000000000000e+03 3.864535522460937500e+01 1.319513511657714844e+01 5.050859451293945312e-01 8.426991462707519531e+00 2.679623126983642578e+00 6.678240299224853516e-01
3.485000000000000000e+03 3.931365966796875000e+01 1.386611747741699219e+01 5.253666639328002930e-01 7.141787052154541016e+00 2.300146102905273438e+00 1.076563000679016113e+00
3.486000000000000000e+03 3.774902343750000000e+01 -1.493534851074218750e+01 1.320125460624694824e+00 9.028676986694335938e+00 3.104640722274780273e+00 -1.838709592819213867e+00
3.487000000000000000e+03 6.643328094482421875e+01 1.435490608215332031e+01 5.588946938514709473e-01 2.736400842666625977e+00 9.885886311531066895e-01 2.779714167118072510e-01
3.488000000000000000e+03 6.133725357055664062e+01 2.499420928955078125e+01 -4.874443411827087402e-01 1.719242334365844727e+00 3.695393800735473633e-01 -5.616543292999267578e-01
3.489000000000000000e+03 6.041560745239257812e+01 2.446547508239746094e+01 -4.084211885929107666e-01 1.508022665977478027e+00 3.298804461956024170e-01 -7.403259277343750000e-01
3.490000000000000000e+03 3.285843276977539062e+01 1.893037605285644531e+01 1.661561250686645508e+00 8.784372329711914062e+00 3.133780002593994141e+00 -2.038361072540283203e+00
3.491000000000000000e+03 3.293912124633789062e+01 2.109868812561035156e+01 1.020950913429260254e+00 7.393488407135009766e+00 2.524331808090209961e+00 -1.145762443542480469e+00
3.492000000000000000e+03 3.560395812988281250e+01 -2.934784317016601562e+01 1.517068296670913696e-01 5.248376846313476562e+00 1.620025157928466797e+00 1.407106161117553711e+00
3.493000000000000000e+03 3.703162765502929688e+01 -2.750916099548339844e+01 6.036869287490844727e-01 6.358129978179931641e+00 2.088545083999633789e+00 1.121585845947265625e+00
3.494000000000000000e+03 4.531700515747070312e+01 -7.328389644622802734e+00 -1.642799258232116699e+00 2.102901220321655273e+00 1.380305737257003784e-01 -6.408309936523437500e-01
3.495000000000000000e+03 4.998262786865234375e+01 -1.071635627746582031e+01 8.027723431587219238e-01 1.289713263511657715e+00 6.277456879615783691e-01 2.064766883850097656e+00
3.496000000000000000e+03 6.468759155273437500e+01 7.954663276672363281e+00 7.633845210075378418e-01 3.238989591598510742e+00 1.200712203979492188e+00 5.556998848915100098e-01
3.497000000000000000e+03 2.293225288391113281e+01 -6.391207218170166016e+00 -7.959208637475967407e-02 2.908571958541870117e-01 6.337953358888626099e-02 8.054621815681457520e-01
3.498000000000000000e+03 2.310957336425781250e+01 -4.225346565246582031e+00 -6.068457663059234619e-02 1.644346863031387329e-01 3.112503141164779663e-02 7.768107056617736816e-01
3.499000000000000000e+03 6.916896057128906250e+01 -1.178180599212646484e+01 -7.294763922691345215e-01 2.075884342193603516e-01 -1.565663963556289673e-01 -1.722208410501480103e-01
3.500000000000000000e+03 6.314270019531250000e+01 5.640603065490722656e+00 9.076899886131286621e-01 3.414574384689331055e+00 1.296679258346557617e+00 8.506446480751037598e-01
3.501000000000000000e+03 6.341323089599609375e+01 4.533366680145263672e+00 8.437920212745666504e-01 2.992033958435058594e+00 1.150747776031494141e+00 6.817378997802734375e-01
3.502000000000000000e+03 1.179332447052001953e+01 1.545142173767089844e+01 -1.714972965419292450e-02 -5.456151906400918961e-03 -6.781764328479766846e-03 -1.216945797204971313e-02
3.503000000000000000e+03 1.464019107818603516e+01 -2.840448760986328125e+01 -1.965495944023132324e-01 1.115547895431518555e+00 2.756994664669036865e-01 -1.902475357055664062e-01
3.504000000000000000e+03 5.913624191284179688e+01 -1.866284966468811035e+00 7.286602854728698730e-01 2.052156925201416016e+00 8.342451453208923340e-01 1.090765714645385742e+00
3.505000000000000000e+03 3.422821044921875000e+01 1.446886634826660156e+01 1.062531232833862305e+00 1.149703979492187500e+01 3.767871379852294922e+00 -2.112818956375122070e+00
3.506000000000000000e+03 1.649009132385253906e+01 -2.972455406188964844e+01 -2.253844738006591797e-01 9.653370380401611328e-01 2.219857573509216309e-01 -3.137614130973815918e-01
3.507000000000000000e+03 6.572464752197265625e+01 9.523498535156250000e+00 6.883332729339599609e-01 2.937925100326538086e+00 1.087877511978149414e+00 3.989473581314086914e-01
3.508000000000000000e+03 6.505112457275390625e+01 9.681523323059082031e+00 6.836730837821960449e-01 3.331268787384033203e+00 1.204482555389404297e+00 4.806797206401824951e-01
3.509000000000000000e+03 1.491363525390625000e+01 7.790553092956542969e+00 -5.771427531726658344e-04 1.621446805074810982e-03 3.132912388537079096e-04 9.781204862520098686e-04
3.510000000000000000e+03 3.829669189453125000e+01 -1.387815380096435547e+01 1.017075777053833008e+00 8.654118537902832031e+00 2.901358366012573242e+00 -1.697593569755554199e+00
3.511000000000000000e+03 3.553451538085937500e+01 -5.237584710121154785e-01 8.064362406730651855e-01 1.039806747436523438e+01 3.361351251602172852e+00 -1.283307075500488281e-01
3.512000000000000000e+03 5.813751220703125000e+01 -3.198958635330200195e+00 5.226275324821472168e-01 1.965770363807678223e+00 7.465193867683410645e-01 1.067812561988830566e+00
3.513000000000000000e+03 5.863000869750976562e+01 -2.509229183197021484e+00 6.780658960342407227e-01 2.000022649765014648e+00 8.034265637397766113e-01 1.084885478019714355e+00
3.514000000000000000e+03 3.809864044189453125e+01 -1.302212333679199219e+01 6.667181849479675293e-01 8.611069679260253906e+00 2.783336162567138672e+00 -1.618175029754638672e+00
3.515000000000000000e+03 1.676585578918457031e+01 -3.098845481872558594e+01 -2.469069808721542358e-01 8.749792575836181641e-01 1.884216815233230591e-01 -2.959039807319641113e-01
3.516000000000000000e+03 3.877740097045898438e+01 -1.561342811584472656e+01 1.447565078735351562e+00 8.747079849243164062e+00 3.058393478393554688e+00 -1.656556725502014160e+00
3.517000000000000000e+03 3.852429962158203125e+01 -1.481788825988769531e+01 1.297690033912658691e+00 8.707730293273925781e+00 3.001626014709472656e+00 -1.728056192398071289e+00
3.518000000000000000e+03 3.673852157592773438e+01 1.119954872131347656e+01 7.409507036209106445e-01 1.162288188934326172e+01 3.709149599075317383e+00 -8.569335341453552246e-01
3.519000000000000000e+03 3.785599899291992188e+01 1.190632629394531250e+01 5.589911341667175293e-01 1.014108371734619141e+01 3.210022449493408203e+00 7.713104039430618286e-02
3.520000000000000000e+03 2.723687744140625000e+01 -5.369455337524414062e+00 -5.402488261461257935e-02 1.279743164777755737e-01 2.218483202159404755e-02 1.112600445747375488e+00
3.521000000000000000e+03 1.747019577026367188e+01 2.637992095947265625e+01 1.341428309679031372e-01 1.870751827955245972e-01 9.636540710926055908e-02 -1.485499739646911621e-01
3.522000000000000000e+03 3.867504882812500000e+01 -2.130659866333007812e+01 1.840581297874450684e+00 8.718766212463378906e+00 3.167804241180419922e+00 -1.065311208367347717e-01
3.523000000000000000e+03 5.753329467773437500e+01 2.814380073547363281e+01 -9.163474291563034058e-02 9.044433832168579102e-01 2.438425868749618530e-01 -3.491136431694030762e-01
3.524000000000000000e+03 5.830917358398437500e+01 2.637611579895019531e+01 -1.699953973293304443e-01 8.950772285461425781e-01 2.175245434045791626e-01 -5.331414341926574707e-01
3.525000000000000000e+03 5.458261871337890625e+01 -1.163735008239746094e+01 4.512086212635040283e-01 6.769643425941467285e-01 3.384518921375274658e-01 1.545266747474670410e+00
3.526000000000000000e+03 5.995110702514648438e+01 -3.397590255737304688e+01 -3.068652004003524780e-02 1.221428886055946350e-01 2.743691205978393555e-02 9.898991882801055908e-02
3.527000000000000000e+03 5.607325363159179688e+01 -3.427833557128906250e+01 1.424546539783477783e-01 3.076035678386688232e-01 1.350174695253372192e-01 -2.682197690010070801e-01
3.528000000000000000e+03 3.644679260253906250e+01 2.172030508518218994e-01 1.450199246406555176e+00 1.183565616607666016e+01 3.985756635665893555e+00 -9.348552823066711426e-01
3.529000000000000000e+03 1.517610454559326172e+01 5.421921253204345703e+00 -1.519116340205073357e-04 9.806646266952157021e-04 2.486259036231786013e-04 6.883624009788036346e-04
3.530000000000000000e+03 6.364471817016601562e+01 -3.413761520385742188e+01 -2.367291040718555450e-02 5.153958499431610107e-02 8.360002189874649048e-03 1.629470884799957275e-01
3.531000000000000000e+03 3.719474029541015625e+01 1.417553901672363281e+01 6.403818726539611816e-01 9.223372459411621094e+00 2.959126234054565430e+00 -1.547749489545822144e-01
3.532000000000000000e+03 3.467707061767578125e+01 1.546653747558593750e+01 1.030126690864562988e+00 1.039143562316894531e+01 3.426468849182128906e+00 -1.635649561882019043e+00
3.533000000000000000e+03 3.359307861328125000e+01 1.912432289123535156e+01 1.342099785804748535e+00 8.315128326416015625e+00 2.897168397903442383e+00 -1.401370763778686523e+00
3.534000000000000000e+03 1.377519416809082031e+01 8.002326965332031250e+00 -4.177676746621727943e-04 9.355824440717697144e-04 1.553444308228790760e-04 1.688096323050558567e-03
3.535000000000000000e+03 1.335134792327880859e+01 5.790442466735839844e+00 -6.325532012851908803e-05 1.208755566040053964e-04 1.728607094264589250e-05 1.289084437303245068e-03
3.536000000000000000e+03 4.701361465454101562e+01 2.220680427551269531e+01 4.463295266032218933e-02 1.334760069847106934e+00 4.138179123401641846e-01 8.779113888740539551e-01
3.537000000000000000e+03 4.891199111938476562e+01 2.488476753234863281e+01 2.658168785274028778e-03 1.118243455886840820e+00 3.362704813480377197e-01 7.186937928199768066e-01
3.538000000000000000e+03 3.444533920288085938e+01 1.364583492279052734e+01 1.018382787704467773e+00 1.185456848144531250e+01 3.861885309219360352e+00 -2.044943094253540039e+00
3.539000000000000000e+03 3.533157730102539062e+01 1.294219493865966797e+01 8.709970712661743164e-01 1.163206577301025391e+01 3.750918865203857422e+00 -1.562456250190734863e+00
3.540000000000000000e+03 3.638325881958007812e+01 9.840841889381408691e-01 1.825188040733337402e+00 1.235590648651123047e+01 4.254328250885009766e+00 -1.159921169281005859e+00
3.541000000000000000e+03 4.854705810546875000e+01 -1.134173870086669922e+01 1.076715469360351562e+00 2.147419452667236328e+00 9.672405123710632324e-01 1.706053376197814941e+00
3.542000000000000000e+03 4.836865234375000000e+01 -8.031184196472167969e+00 -9.740391373634338379e-01 5.827767252922058105e-01 -1.173787266016006470e-01 1.289522767066955566e+00
3.543000000000000000e+03 3.883784484863281250e+01 -1.292333793640136719e+01 5.039639472961425781e-01 8.402774810791015625e+00 2.672021627426147461e+00 -1.552524328231811523e+00
3.544000000000000000e+03 3.795977401733398438e+01 -1.219371223449707031e+01 1.580375880002975464e-01 8.621210098266601562e+00 2.633774518966674805e+00 -1.507344365119934082e+00
3.545000000000000000e+03 6.624303436279296875e+01 1.756915283203125000e+01 5.163191556930541992e-01 2.538541555404663086e+00 9.164582490921020508e-01 3.075203597545623779e-01
3.546000000000000000e+03 6.472425079345703125e+01 1.786635017395019531e+01 5.995535850524902344e-01 3.205318212509155273e+00 1.141461491584777832e+00 7.983012497425079346e-02
3.547000000000000000e+03 2.961692428588867188e+01 2.322756195068359375e+01 6.848644614219665527e-01 5.343270778656005859e+00 1.808440566062927246e+00 -2.109590768814086914e+00
3.548000000000000000e+03 2.891790390014648438e+01 2.609365844726562500e+01 -9.026190638542175293e-02 4.174165725708007812e+00 1.225171089172363281e+00 -1.648688435554504395e+00
3.549000000000000000e+03 3.868655014038085938e+01 -2.035028457641601562e+01 1.762712836265563965e+00 8.926209449768066406e+00 3.206676721572875977e+00 -3.735384345054626465e-01
3.550000000000000000e+03 1.800025939941406250e+01 -9.331989288330078125e+00 5.221888422966003418e-01 8.554249405860900879e-01 4.132841527462005615e-01 7.019160985946655273e-01
3.551000000000000000e+03 1.984129333496093750e+01 -8.186690330505371094e+00 2.936303019523620605e-01 4.772590100765228271e-01 2.312667965888977051e-01 7.266692519187927246e-01
3.552000000000000000e+03 2.622940254211425781e+01 -5.129933834075927734e+00 -5.455071106553077698e-03 1.314443200826644897e-01 3.779677674174308777e-02 1.061910033226013184e+00
3.553000000000000000e+03 3.314910888671875000e+01 -1.907401442527770996e+00 3.803296089172363281e-01 6.304364204406738281e+00 2.005408287048339844e+00 1.122058153152465820e+00
3.554000000000000000e+03 1.337802124023437500e+01 8.585926055908203125e+00 -7.144456612877547741e-04 1.035032444633543491e-03 9.617605246603488922e-05 1.895004068501293659e-03
3.555000000000000000e+03 1.338488101959228516e+01 9.525568962097167969e+00 -4.972216556780040264e-04 1.449438859708607197e-03 2.856651553884148598e-04 1.830160617828369141e-03
3.556000000000000000e+03 6.974972534179687500e+01 -2.534986305236816406e+01 -4.499452933669090271e-02 1.085403375327587128e-02 -1.024214923381805420e-02 5.640223971568048000e-04
3.557000000000000000e+03 3.764806365966796875e+01 -2.300677680969238281e+01 1.706577420234680176e+00 8.131610870361328125e+00 2.951456546783447266e+00 5.388901233673095703e-01
3.558000000000000000e+03 3.856296539306640625e+01 -2.224227714538574219e+01 1.844668030738830566e+00 8.464515686035156250e+00 3.092755317687988281e+00 1.030177250504493713e-01
3.559000000000000000e+03 6.053390884399414062e+01 -3.512037658691406250e+01 8.167459815740585327e-02 1.277706176042556763e-01 6.283356249332427979e-02 1.169003695249557495e-01
3.560000000000000000e+03 6.253288269042968750e+01 2.942384958267211914e+00 7.770033478736877441e-01 2.829229354858398438e+00 1.081869840621948242e+00 8.046132922172546387e-01
3.561000000000000000e+03 6.298305511474609375e+01 3.726491451263427734e+00 8.034639954566955566e-01 2.918048620223999023e+00 1.116453766822814941e+00 7.356806993484497070e-01
3.562000000000000000e+03 3.239149093627929688e+01 -6.447721004486083984e+00 -1.420716166496276855e+00 4.037246704101562500e+00 7.849591970443725586e-01 -6.448379158973693848e-01
3.563000000000000000e+03 3.791936492919921875e+01 -1.137670516967773438e+01 -3.908616304397583008e-01 8.651642799377441406e+00 2.478234529495239258e+00 -1.429688930511474609e+00
3.564000000000000000e+03 4.584128189086914062e+01 2.184219169616699219e+01 1.090670526027679443e-01 1.709391951560974121e+00 5.455377101898193359e-01 1.024160504341125488e+00
3.565000000000000000e+03 4.390451812744140625e+01 -7.308527469635009766e+00 -1.690272331237792969e+00 3.730761766433715820e+00 6.121468544006347656e-01 -1.577320098876953125e+00
3.566000000000000000e+03 3.753332519531250000e+01 -3.251158142089843750e+01 -5.948045849800109863e-01 5.705647945404052734e+00 1.533253073692321777e+00 9.517919421195983887e-01
3.567000000000000000e+03 3.750030136108398438e+01 -2.913758850097656250e+01 1.669282615184783936e-01 6.277776718139648438e+00 1.933411598205566406e+00 1.073827385902404785e+00
3.568000000000000000e+03 4.547676563262939453e+00 1.718985939025878906e+01 -1.965481787919998169e-02 -3.129381453618407249e-03 -6.835259497165679932e-03 1.830158568918704987e-02
3.569000000000000000e+03 5.040924072265625000e+01 -1.131825828552246094e+01 1.121247649192810059e+00 1.217485904693603516e+00 7.016200423240661621e-01 2.098736286163330078e+00
3.570000000000000000e+03 3.749395751953125000e+01 -2.390503692626953125e+01 1.621858596801757812e+00 7.750834465026855469e+00 2.811807870864868164e+00 7.181712388992309570e-01
3.571000000000000000e+03 3.963727569580078125e+01 -2.357092857360839844e+01 1.913748383522033691e+00 8.380529403686523438e+00 3.088283300399780273e+00 2.131903544068336487e-02
3.572000000000000000e+03 6.486888122558593750e+01 5.927085399627685547e+00 7.877048254013061523e-01 2.732245922088623047e+00 1.055985212326049805e+00 4.474615156650543213e-01
3.573000000000000000e+03 3.759720611572265625e+01 1.100501060485839844e+01 6.721692681312561035e-01 1.107368469238281250e+01 3.523756265640258789e+00 -2.081094384193420410e-01
3.574000000000000000e+03 1.239659404754638672e+01 1.142329311370849609e+01 -6.254237960092723370e-04 -6.056394777260720730e-04 -3.693189646583050489e-04 1.873305998742580414e-03
3.575000000000000000e+03 1.126201629638671875e+01 7.963689804077148438e+00 7.206341706478269771e-06 -1.146441441960632801e-03 -3.417705302126705647e-04 1.487277098931372166e-03
3.576000000000000000e+03 5.085835266113281250e+01 2.406128311157226562e+01 -1.049583405256271362e-01 5.888172388076782227e-01 1.451576650142669678e-01 4.241342544555664062e-01
3.577000000000000000e+03 4.753746795654296875e+01 2.410137748718261719e+01 1.757220551371574402e-02 1.409661769866943359e+00 4.281701743602752686e-01 8.840467929840087891e-01
3.578000000000000000e+03 2.973372840881347656e+01 -3.330099487304687500e+01 1.710603572428226471e-02 1.916893601417541504e+00 5.801998972892761230e-01 9.638793468475341797e-01
3.579000000000000000e+03 3.187377929687500000e+01 -2.899350166320800781e+00 4.726142585277557373e-01 4.003174781799316406e+00 1.342736601829528809e+00 9.923352599143981934e-01
3.580000000000000000e+03 2.782268142700195312e+01 -3.373929500579833984e+00 6.822957396507263184e-01 1.840770542621612549e-01 2.599118351936340332e-01 9.386330842971801758e-01
3.581000000000000000e+03 5.944050216674804688e+01 -1.021630764007568359e+01 -5.765498280525207520e-01 7.229235768318176270e-01 4.391211643815040588e-02 7.377415895462036133e-01
3.582000000000000000e+03 1.924120140075683594e+01 -3.301572799682617188e+01 -1.541009247303009033e-01 6.752274632453918457e-01 1.563379466533660889e-01 -3.651925623416900635e-01
3.583000000000000000e+03 5.755773162841796875e+01 -3.767146301269531250e+01 2.475661635398864746e-01 6.032850146293640137e-01 2.552553713321685791e-01 -1.378606706857681274e-01
3.584000000000000000e+03 3.742545318603515625e+01 -2.485161399841308594e+01 1.424988269805908203e+00 7.357541561126708984e+00 2.634758949279785156e+00 8.178159594535827637e-01
3.585000000000000000e+03 3.985290908813476562e+01 -5.543231010437011719e+00 -2.697806596755981445e+00 9.310331344604492188e+00 1.983757495880126953e+00 -2.182971239089965820e+00
3.586000000000000000e+03 3.712967300415039062e+01 -3.513808727264404297e+00 -1.296288013458251953e+00 1.041151332855224609e+01 2.734567642211914062e+00 -7.005383968353271484e-01
3.587000000000000000e+03 3.641983032226562500e+01 9.463077545166015625e+00 1.027978181838989258e+00 1.298964881896972656e+01 4.205288410186767578e+00 -1.135933399200439453e+00
3.588000000000000000e+03 4.245756149291992188e+01 -2.678135108947753906e+01 1.432360410690307617e+00 8.692322731018066406e+00 3.037405014038085938e+00 -3.427300751209259033e-01
3.589000000000000000e+03 6.625776672363281250e+01 -3.004883956909179688e+01 -1.639894992113113403e-01 5.466471239924430847e-02 -3.279743343591690063e-02 6.397213041782379150e-02
3.590000000000000000e+03 6.530781555175781250e+01 -3.023848724365234375e+01 -1.920871883630752563e-01 5.609206482768058777e-02 -4.079853743314743042e-02 6.303647160530090332e-02
3.591000000000000000e+03 4.474273300170898438e+01 -1.513006973266601562e+01 1.988022685050964355e+00 7.325649738311767578e+00 2.794101715087890625e+00 6.453193426132202148e-01
3.592000000000000000e+03 4.334846878051757812e+01 -1.552690410614013672e+01 1.867748022079467773e+00 7.952478408813476562e+00 2.946067810058593750e+00 -3.007876873016357422e-01
3.593000000000000000e+03 5.256746292114257812e+01 -7.916336536407470703e+00 -7.870524525642395020e-01 1.257201433181762695e+00 1.410446912050247192e-01 2.265847921371459961e+00
3.594000000000000000e+03 5.534228897094726562e+01 -1.165647029876708984e+01 2.739863991737365723e-01 6.520681977272033691e-01 2.778163850307464600e-01 1.352980375289916992e+00
3.595000000000000000e+03 2.243766784667968750e+01 -3.361166763305664062e+01 9.240516374120488763e-05 5.150688886642456055e-01 1.545483767986297607e-01 -2.400160133838653564e-01
3.596000000000000000e+03 2.326658058166503906e+01 -3.595947265625000000e+01 1.313522011041641235e-01 6.951123476028442383e-01 2.479393631219863892e-01 -5.109272524714469910e-02
3.597000000000000000e+03 1.646364784240722656e+01 2.567346572875976562e+01 3.627556562423706055e-02 1.134630218148231506e-01 4.492157697677612305e-02 -4.437075927853584290e-02
3.598000000000000000e+03 1.163533210754394531e+01 2.227002143859863281e+01 -1.607635468244552612e-01 9.256549924612045288e-02 -2.045941539108753204e-02 6.014557182788848877e-02
3.599000000000000000e+03 2.222957229614257812e+01 -5.160274982452392578e+00 -9.887563437223434448e-02 2.465253621339797974e-01 4.429491981863975525e-02 7.740871906280517578e-01
3.600000000000000000e+03 1.247093486785888672e+01 9.291371345520019531e+00 -2.366347507631871849e-05 -9.695727931102737784e-05 -3.618622577050700784e-05 1.784277032129466534e-03
3.601000000000000000e+03 3.377455902099609375e+01 -7.182149887084960938e+00 -2.065898180007934570e+00 6.243603706359863281e+00 1.253311634063720703e+00 -9.958519339561462402e-01
3.602000000000000000e+03 1.152639770507812500e+01 -2.219272613525390625e+01 4.501752853393554688e-01 1.497050285339355469e+00 5.841676592826843262e-01 1.340790390968322754e-01
3.603000000000000000e+03 2.937393188476562500e+01 -3.455615615844726562e+01 1.375008467584848404e-02 1.924312710762023926e+00 5.814188718795776367e-01 8.035948276519775391e-01
3.604000000000000000e+03 3.208324050903320312e+01 -3.327919769287109375e+01 -1.761964261531829834e-01 3.039774894714355469e+00 8.590735197067260742e-01 1.249115467071533203e+00
3.605000000000000000e+03 1.111650371551513672e+01 -2.036319732666015625e+01 5.767112970352172852e-01 1.479358315467834473e+00 6.168208718299865723e-01 8.654883503913879395e-02
3.606000000000000000e+03 1.211756229400634766e+01 -2.327303314208984375e+01 2.595463395118713379e-01 1.586578011512756348e+00 5.538372993469238281e-01 8.425796777009963989e-02
3.607000000000000000e+03 1.406734848022460938e+01 -1.284761238098144531e+01 8.786371350288391113e-01 1.846324920654296875e+00 8.174886107444763184e-01 4.169071018695831299e-01
3.608000000000000000e+03 1.438017559051513672e+01 -1.128375339508056641e+01 6.487855315208435059e-01 1.455022931098937988e+00 6.311425566673278809e-01 2.646759450435638428e-01
3.609000000000000000e+03 4.185932159423828125e+01 -2.389912986755371094e+01 2.176292896270751953e+00 9.397466659545898438e+00 3.472127914428710938e+00 -5.532500147819519043e-01
3.610000000000000000e+03 4.993934631347656250e+01 -3.636225128173828125e+01 -3.502879142761230469e-01 3.105241298675537109e+00 8.264859914779663086e-01 -1.127930164337158203e+00
3.611000000000000000e+03 6.432527923583984375e+01 -3.277283477783203125e+01 -1.130699440836906433e-01 5.486813187599182129e-02 -1.746054366230964661e-02 1.469941437244415283e-01
3.612000000000000000e+03 3.796501922607421875e+01 -3.696366548538208008e+00 -1.565104842185974121e+00 1.067442035675048828e+01 2.732794523239135742e+00 -1.075347781181335449e+00
3.613000000000000000e+03 3.732658386230468750e+01 -2.640940904617309570e+00 -4.525557458400726318e-01 1.092362308502197266e+01 3.141320228576660156e+00 -7.708516716957092285e-01
3.614000000000000000e+03 4.122875213623046875e+01 -5.730746746063232422e+00 -2.507462024688720703e+00 7.445229053497314453e+00 1.481330037117004395e+00 -2.589073896408081055e+00
3.615000000000000000e+03 4.244976043701171875e+01 -6.790349006652832031e+00 -2.148111581802368164e+00 5.578434944152832031e+00 1.029097080230712891e+00 -2.312008380889892578e+00
3.616000000000000000e+03 7.341802215576171875e+01 -2.243569183349609375e+01 -9.732253849506378174e-03 -1.574248541146516800e-03 -3.391950624063611031e-03 2.294065197929739952e-03
3.617000000000000000e+03 7.001750183105468750e+01 -2.360581970214843750e+01 -2.401134371757507324e-02 3.071766579523682594e-03 -6.281873211264610291e-03 -2.779481932520866394e-03
3.618000000000000000e+03 4.222693634033203125e+01 -2.500155639648437500e+01 2.029059648513793945e+00 9.191846847534179688e+00 3.366271972656250000e+00 -5.076379776000976562e-01
3.619000000000000000e+03 4.333261489868164062e+01 -2.648653602600097656e+01 1.684013485908508301e+00 9.226352691650390625e+00 3.273109912872314453e+00 -7.125319838523864746e-01
3.620000000000000000e+03 1.104842185974121094e+01 -1.849844169616699219e+01 6.411250233650207520e-01 1.531575202941894531e+00 6.518100500106811523e-01 2.859061583876609802e-02
3.621000000000000000e+03 5.325789642333984375e+01 2.353681945800781250e+01 -2.883173525333404541e-01 1.967316120862960815e-01 -2.747572399675846100e-02 6.004045531153678894e-02
3.622000000000000000e+03 3.646586227416992188e+01 -9.410288810729980469e+00 -1.814933061599731445e+00 8.809344291687011719e+00 2.098323583602905273e+00 -1.200164556503295898e+00
3.623000000000000000e+03 3.571762847900390625e+01 -9.311212539672851562e+00 -1.773405313491821289e+00 8.504055023193359375e+00 2.019194841384887695e+00 -1.145401358604431152e+00
3.624000000000000000e+03 6.500305175781250000e+01 1.942007827758789062e+01 4.017229080200195312e-01 2.757562160491943359e+00 9.477854967117309570e-01 2.441779822111129761e-01
3.625000000000000000e+03 6.563280487060546875e+01 1.850184440612792969e+01 4.888235032558441162e-01 2.662350177764892578e+00 9.453520774841308594e-01 2.827873229980468750e-01
3.626000000000000000e+03 3.807648468017578125e+01 -2.637466430664062500e+01 1.027868270874023438e+00 7.094808578491210938e+00 2.436803102493286133e+00 7.717168331146240234e-01
3.627000000000000000e+03 2.170752716064453125e+01 2.629127502441406250e+01 3.859339952468872070e-01 6.384814381599426270e-01 3.073246181011199951e-01 -7.347989082336425781e-01
3.628000000000000000e+03 1.485402297973632812e+01 2.393430137634277344e+01 -1.634923964738845825e-01 6.507425755262374878e-02 -2.952544018626213074e-02 5.513555929064750671e-02
3.629000000000000000e+03 1.411473274230957031e+01 2.328343963623046875e+01 -1.948183178901672363e-01 7.870789617300033569e-02 -3.483312577009201050e-02 5.596115812659263611e-02
3.630000000000000000e+03 4.383339309692382812e+01 -3.127311325073242188e+01 -4.256225824356079102e-01 7.158901691436767578e+00 2.019983768463134766e+00 -5.947250723838806152e-01
3.631000000000000000e+03 4.854473114013671875e+01 -3.582706451416015625e+01 -5.548717379570007324e-01 3.890280246734619141e+00 1.000622510910034180e+00 -1.160807251930236816e+00
3.632000000000000000e+03 6.378008270263671875e+01 2.112659454345703125e+01 -4.709514975547790527e-02 2.767227888107299805e+00 8.160398006439208984e-01 5.041303485631942749e-02
3.633000000000000000e+03 6.488526916503906250e+01 2.160590934753417969e+01 -1.115057170391082764e-01 2.462456226348876953e+00 7.052851915359497070e-01 2.436813116073608398e-01
3.634000000000000000e+03 3.747094345092773438e+01 -2.685804557800292969e+01 8.327158689498901367e-01 6.744366645812988281e+00 2.273124694824218750e+00 9.519878625869750977e-01
3.635000000000000000e+03 3.845129776000976562e+01 -2.537416839599609375e+01 1.414176225662231445e+00 7.553400039672851562e+00 2.690272808074951172e+00 5.405212044715881348e-01
3.636000000000000000e+03 1.479248619079589844e+01 2.482798385620117188e+01 -7.826836407184600830e-02 1.009588092565536499e-01 6.807133089751005173e-03 5.435984209179878235e-02
3.637000000000000000e+03 6.512067413330078125e+01 2.019217872619628906e+01 2.176949828863143921e-01 2.617275714874267578e+00 8.504912257194519043e-01 3.007481396198272705e-01
3.638000000000000000e+03 2.897716712951660156e+01 2.484363365173339844e+01 2.063652426004409790e-01 4.415165901184082031e+00 1.386459350585937500e+00 -1.897494912147521973e+00
3.639000000000000000e+03 4.346973419189453125e+01 -2.926526641845703125e+01 2.790922522544860840e-01 7.902012348175048828e+00 2.454331398010253906e+00 -5.145822167396545410e-01
3.640000000000000000e+03 4.401685714721679688e+01 -2.777208900451660156e+01 1.108494043350219727e+00 8.721484184265136719e+00 2.948993444442749023e+00 -9.798671007156372070e-01
3.641000000000000000e+03 7.378560638427734375e+01 3.714527130126953125e+01 -1.030358076095581055e-01 3.214274644851684570e-01 6.551750004291534424e-02 1.210633143782615662e-01
3.642000000000000000e+03 3.179911804199218750e+01 2.301305580139160156e+01 3.477952778339385986e-01 6.424034118652343750e+00 2.031548976898193359e+00 -1.201048493385314941e+00
3.643000000000000000e+03 2.546954536437988281e+01 -3.646367645263671875e+01 1.741244792938232422e-01 9.847520589828491211e-01 3.476629555225372314e-01 1.841192841529846191e-01
3.644000000000000000e+03 5.988322830200195312e+01 2.553398513793945312e+01 -3.385274708271026611e-01 1.246422767639160156e+00 2.723685801029205322e-01 -6.463748216629028320e-01
3.645000000000000000e+03 3.677335739135742188e+01 -3.023346138000488281e+01 -7.729821652173995972e-02 5.715297222137451172e+00 1.691399693489074707e+00 1.185675024986267090e+00
3.646000000000000000e+03 3.423898315429687500e+01 -3.205912017822265625e+01 -2.283316552639007568e-01 4.159610271453857422e+00 1.179383516311645508e+00 1.366610050201416016e+00
3.647000000000000000e+03 3.156684684753417969e+01 2.406923675537109375e+01 -9.117052890360355377e-03 5.960905551910400391e+00 1.785536527633666992e+00 -1.148043990135192871e+00
3.648000000000000000e+03 3.048268318176269531e+01 2.378682136535644531e+01 2.372783124446868896e-01 5.632484912872314453e+00 1.760928988456726074e+00 -1.641816854476928711e+00
3.649000000000000000e+03 4.426380157470703125e+01 -2.930802154541015625e+01 3.014973700046539307e-01 7.895717620849609375e+00 2.459164619445800781e+00 -8.981114625930786133e-01
3.650000000000000000e+03 4.297106552124023438e+01 -3.079998970031738281e+01 -3.241530060768127441e-01 7.325468063354492188e+00 2.100394487380981445e+00 -2.977771759033203125e-01
3.651000000000000000e+03 7.575023651123046875e+01 -3.609243392944335938e+01 6.875632796436548233e-03 -7.415650039911270142e-02 -2.018425986170768738e-02 5.266207829117774963e-02
3.652000000000000000e+03 7.597025299072265625e+01 -3.793920516967773438e+01 1.649576053023338318e-02 -9.040106087923049927e-02 -2.217159047722816467e-02 4.489981755614280701e-02
3.653000000000000000e+03 4.486598587036132812e+01 -3.163991737365722656e+01 -4.875670671463012695e-01 6.723622798919677734e+00 1.870816707611083984e+00 -1.006897211074829102e+00
3.654000000000000000e+03 7.560418701171875000e+01 3.560195922851562500e+01 -6.594287604093551636e-02 1.517609506845474243e-01 2.574542351067066193e-02 1.377686262130737305e-01
3.655000000000000000e+03 7.476567840576171875e+01 3.399054718017578125e+01 -9.320472925901412964e-02 1.863733977079391479e-01 2.795059978961944580e-02 2.009299546480178833e-01
3.656000000000000000e+03 6.992600917816162109e+00 -4.155376815795898438e+01 -8.947689831256866455e-02 -4.846758395433425903e-02 -4.138334468007087708e-02 2.174913696944713593e-02
3.657000000000000000e+03 5.909107208251953125e+01 -3.569813156127929688e+01 1.527674645185470581e-01 2.614107131958007812e-01 1.242534518241882324e-01 2.248012460768222809e-03
3.658000000000000000e+03 5.396435546875000000e+01 -3.630630493164062500e+01 1.921105384826660156e-01 1.161287426948547363e+00 4.060193598270416260e-01 -5.706080198287963867e-01
3.659000000000000000e+03 6.448999881744384766e+00 -3.737672424316406250e+01 -9.887688606977462769e-02 -1.104992553591728210e-01 -6.281284242868423462e-02 9.862206131219863892e-02
3.660000000000000000e+03 7.255027770996093750e+01 -2.200312042236328125e+01 -9.348416700959205627e-03 -1.404001028276979923e-03 -3.225725376978516579e-03 1.211169990710914135e-03
3.661000000000000000e+03 6.681542205810546875e+01 -1.020373630523681641e+01 -8.494165539741516113e-01 1.049127206206321716e-01 -2.233511507511138916e-01 -3.479697406291961670e-01
3.662000000000000000e+03 6.637612915039062500e+01 -9.670229911804199219e+00 -7.752143144607543945e-01 9.209952503442764282e-02 -2.049344331026077271e-01 -3.550918400287628174e-01
3.663000000000000000e+03 7.017548370361328125e+01 -2.469050788879394531e+01 -3.685431182384490967e-02 7.423817180097103119e-03 -8.829147554934024811e-03 -2.030147152254357934e-05
3.664000000000000000e+03 7.520269012451171875e+01 -2.502334022521972656e+01 -1.339361630380153656e-02 -3.285868791863322258e-03 -5.003845784813165665e-03 1.105153374373912811e-02
3.665000000000000000e+03 6.001207733154296875e+01 -1.077558326721191406e+01 -7.191819548606872559e-01 5.702169537544250488e-01 -4.468949511647224426e-02 5.474312901496887207e-01
3.666000000000000000e+03 5.639623641967773438e+01 -6.309766292572021484e+00 -3.335102498531341553e-01 1.775323867797851562e+00 4.325441122055053711e-01 1.303666472434997559e+00
3.667000000000000000e+03 2.075112342834472656e+01 -6.973870754241943359e+00 7.862465828657150269e-02 3.870300650596618652e-01 1.396964192390441895e-01 7.309631109237670898e-01
3.668000000000000000e+03 3.657749557495117188e+01 -1.767521142959594727e+00 1.710081547498703003e-01 1.077144145965576172e+01 3.282735109329223633e+00 -5.106224417686462402e-01
3.669000000000000000e+03 3.675024032592773438e+01 -4.281692981719970703e+00 -1.808350801467895508e+00 9.897468566894531250e+00 2.426735401153564453e+00 -6.790477037429809570e-01
3.670000000000000000e+03 2.382360649108886719e+01 -6.695190906524658203e+00 -1.518336683511734009e-01 2.996485829353332520e-01 4.434447363018989563e-02 8.118812441825866699e-01
3.671000000000000000e+03 2.216628265380859375e+01 -5.883009433746337891e+00 -7.711949199438095093e-02 2.959706783294677734e-01 6.565535068511962891e-02 7.969442605972290039e-01
3.672000000000000000e+03 5.761265563964843750e+01 -1.159051036834716797e+01 -2.438207566738128662e-01 5.909467339515686035e-01 1.041377931833267212e-01 8.467250466346740723e-01
3.673000000000000000e+03 1.488929462432861328e+01 6.728853225708007812e+00 -3.681841481011360884e-04 1.036777975969016552e-03 2.005781425395980477e-04 9.893195237964391708e-04
3.674000000000000000e+03 2.463070487976074219e+01 -5.448391437530517578e+00 -7.607942819595336914e-02 2.086041271686553955e-01 3.975740820169448853e-02 9.448654651641845703e-01
3.675000000000000000e+03 2.007852745056152344e+01 -7.322366237640380859e+00 1.196125820279121399e-01 4.533904194831848145e-01 1.719008982181549072e-01 7.199068665504455566e-01
3.676000000000000000e+03 1.221300125122070312e+01 1.305121707916259766e+01 -1.971950754523277283e-03 -2.818956971168518066e-03 -1.437272294424474239e-03 -1.618425885681062937e-04
3.677000000000000000e+03 1.279617595672607422e+01 5.808160305023193359e+00 1.488797279307618737e-04 2.141393633792176843e-04 1.089057259378023446e-04 1.226027379743754864e-03
3.678000000000000000e+03 1.446128177642822266e+01 5.499472618103027344e+00 -2.332260191906243563e-04 4.268910561222583055e-04 5.809951471746899188e-05 1.044871052727103233e-03
3.679000000000000000e+03 1.385379505157470703e+01 5.683012962341308594e+00 -1.080896181520074606e-04 8.018335793167352676e-04 2.081231941701844335e-04 1.096626161597669125e-03
3.680000000000000000e+03 1.431294631958007812e+01 7.348453998565673828e+00 -6.308160373009741306e-04 1.375106163322925568e-03 2.232870610896497965e-04 1.226566731929779053e-03
3.681000000000000000e+03 1.216977691650390625e+01 5.897897720336914062e+00 8.392719610128551722e-05 -4.284885944798588753e-04 -1.033684166031889617e-04 1.460217987187206745e-03
3.682000000000000000e+03 1.264266681671142578e+01 7.091311454772949219e+00 -6.971495895413681865e-05 -2.545453025959432125e-04 -9.727807628223672509e-05 1.759429345838725567e-03
3.683000000000000000e+03 1.920185089111328125e+01 -6.168128967285156250e+00 -1.034792140126228333e-01 4.568352103233337402e-01 1.060068011283874512e-01 6.376502513885498047e-01
3.684000000000000000e+03 5.075374221801757812e+01 -8.410078048706054688e+00 -5.668088197708129883e-01 6.973967552185058594e-01 3.917638212442398071e-02 2.266761779785156250e+00
3.685000000000000000e+03 1.477358818054199219e+01 -1.086717700958251953e+01 6.210122704505920410e-01 1.359989166259765625e+00 5.943003892898559570e-01 3.016951680183410645e-01
3.686000000000000000e+03 1.398009777069091797e+01 -1.015557098388671875e+01 4.020749330520629883e-01 1.193443059921264648e+00 4.786553978919982910e-01 6.471782922744750977e-02
3.687000000000000000e+03 7.346765136718750000e+01 -2.136070632934570312e+01 -6.181299220770597458e-03 -1.757484278641641140e-03 -2.381635131314396858e-03 8.109773043543100357e-04
3.688000000000000000e+03 7.306404113769531250e+01 -2.174261856079101562e+01 -6.638041697442531586e-03 -1.636593369767069817e-03 -2.482390496879816055e-03 4.969547735527157784e-04
3.689000000000000000e+03 7.620740509033203125e+01 -2.235501098632812500e+01 -4.392201080918312073e-03 -1.883010962046682835e-03 -1.882563694380223751e-03 1.463589142076671124e-03
3.690000000000000000e+03 3.517467498779296875e+01 1.378592681884765625e+01 9.081048369407653809e-01 1.116484928131103516e+01 3.621886014938354492e+00 -1.554323673248291016e+00
3.691000000000000000e+03 3.497937774658203125e+01 1.465070915222167969e+01 9.299430847167968750e-01 1.075897026062011719e+01 3.506674051284790039e+00 -1.521309018135070801e+00
3.692000000000000000e+03 6.656304931640625000e+01 -2.889041900634765625e+01 -1.560412645339965820e-01 4.726486280560493469e-02 -3.263292089104652405e-02 2.687178179621696472e-02
3.693000000000000000e+03 4.430447006225585938e+01 -1.319011116027832031e+01 1.034053921699523926e+00 6.238213539123535156e+00 2.181680202484130859e+00 -1.549559831619262695e-01
3.694000000000000000e+03 6.194140625000000000e+01 -9.373702049255371094e+00 -6.635559797286987305e-01 4.119486510753631592e-01 -7.548220455646514893e-02 4.483156800270080566e-01
3.695000000000000000e+03 7.548565673828125000e+01 -2.953999137878417969e+01 -1.674827001988887787e-02 -1.859960146248340607e-02 -1.060436107218265533e-02 3.974662348628044128e-02
3.696000000000000000e+03 9.469336509704589844e+00 -5.331079006195068359e+00 -3.318785727024078369e-01 1.415299624204635620e-01 -5.710458382964134216e-02 -4.859117567539215088e-01
3.697000000000000000e+03 1.106451702117919922e+01 -6.010308265686035156e+00 -2.817902565002441406e-01 3.054414391517639160e-01 7.095360662788152695e-03 -3.966557979583740234e-01
3.698000000000000000e+03 2.277557373046875000e+01 -5.838045120239257812e+00 -7.278037816286087036e-02 2.718966901302337646e-01 5.973489210009574890e-02 8.030861616134643555e-01
3.699000000000000000e+03 2.318844223022460938e+01 -6.968987941741943359e+00 -4.143585264682769775e-02 3.073956370353698730e-01 7.978793233633041382e-02 7.536921501159667969e-01
3.700000000000000000e+03 7.289151000976562500e+01 -3.163933563232421875e+01 -2.788865007460117340e-02 -7.178897969424724579e-03 -1.052026450634002686e-02 7.098857313394546509e-02
3.701000000000000000e+03 5.319849491119384766e+00 2.942596244812011719e+01 1.074465457350015640e-02 -7.117560505867004395e-02 -1.812928542494773865e-02 1.062743365764617920e-01
3.702000000000000000e+03 4.614765167236328125e+00 2.955063056945800781e+01 1.104638166725635529e-02 -9.803646057844161987e-02 -2.609702385962009430e-02 1.009835451841354370e-01
3.703000000000000000e+03 1.092840385437011719e+01 -2.117134857177734375e+01 5.290262699127197266e-01 1.348320007324218750e+00 5.632038712501525879e-01 1.281919777393341064e-01
3.704000000000000000e+03 1.127866077423095703e+01 -1.957266616821289062e+01 6.288754940032958984e-01 1.603857040405273438e+00 6.698197722434997559e-01 3.908378258347511292e-02
3.705000000000000000e+03 5.606643676757812500e+00 -6.297319412231445312e+00 -1.171193122863769531e-01 -1.653003841638565063e-01 -8.472590893507003784e-02 -5.513921976089477539e-01
3.706000000000000000e+03 6.415159225463867188e+00 -6.167001724243164062e+00 -1.512935459613800049e-01 -8.419086039066314697e-02 -7.064532488584518433e-02 -5.672069787979125977e-01
3.707000000000000000e+03 7.196999073028564453e+00 -6.114789009094238281e+00 -1.790853738784790039e-01 -1.597995124757289886e-02 -5.851959809660911560e-02 -5.689476728439331055e-01
3.708000000000000000e+03 1.112557983398437500e+01 -6.728649139404296875e+00 -1.884886175394058228e-01 3.741917312145233154e-01 5.571093410253524780e-02 -3.991804122924804688e-01
3.709000000000000000e+03 7.969727993011474609e+00 -6.091077327728271484e+00 -2.044764012098312378e-01 5.053304508328437805e-02 -4.618300497531890869e-02 -5.600608587265014648e-01
3.710000000000000000e+03 7.192051696777343750e+01 3.220394897460937500e+01 -1.946312189102172852e-01 4.988799393177032471e-01 9.127461165189743042e-02 2.670935094356536865e-01
3.711000000000000000e+03 7.460707092285156250e+01 2.931332778930664062e+01 -1.107321083545684814e-01 1.063352599740028381e-01 -1.319055096246302128e-03 3.543903529644012451e-01
3.712000000000000000e+03 7.524778747558593750e+01 -3.012826347351074219e+01 -1.720686443150043488e-02 -2.113231830298900604e-02 -1.150175463408231735e-02 4.414261877536773682e-02
3.713000000000000000e+03 5.639427185058593750e+01 -8.744246482849121094e+00 -3.914411365985870361e-01 1.332224607467651367e+00 2.822350561618804932e-01 1.461533784866333008e+00
3.714000000000000000e+03 8.740191459655761719e+00 -6.073111057281494141e+00 -2.250712513923645020e-01 1.164169982075691223e-01 -3.259627893567085266e-02 -5.383661985397338867e-01
3.715000000000000000e+03 4.811808109283447266e+00 -2.894850540161132812e+01 -5.243872478604316711e-02 -3.783388435840606689e-01 -1.292332708835601807e-01 2.862572669982910156e-01
3.716000000000000000e+03 4.876080703735351562e+01 -9.604982376098632812e+00 1.220343858003616333e-01 1.258469104766845703e+00 4.141510426998138428e-01 1.565489053726196289e+00
3.717000000000000000e+03 6.600562286376953125e+01 -2.929743957519531250e+01 -1.766089648008346558e-01 5.021400377154350281e-02 -3.791848942637443542e-02 3.316890448331832886e-02
3.718000000000000000e+03 7.421581268310546875e+01 -3.042160415649414062e+01 -2.311707288026809692e-02 -1.526113320142030716e-02 -1.151346135884523392e-02 5.270694941282272339e-02
3.719000000000000000e+03 7.528576660156250000e+01 -1.092765140533447266e+01 -1.574429571628570557e-01 -7.239370048046112061e-02 -6.895099580287933350e-02 -2.547268867492675781e-01
3.720000000000000000e+03 4.845288276672363281e+00 2.805347251892089844e+01 1.989675918594002724e-03 -7.643233984708786011e-02 -2.233279868960380554e-02 1.061260625720024109e-01
3.721000000000000000e+03 5.129100799560546875e+01 -9.552012443542480469e+00 9.643149375915527344e-02 9.327387213706970215e-01 3.087510764598846436e-01 2.301827192306518555e+00
3.722000000000000000e+03 7.607720184326171875e+01 -2.360637855529785156e+01 -6.898848339915275574e-03 -2.837506588548421860e-03 -2.920906525105237961e-03 4.400649107992649078e-03
3.723000000000000000e+03 7.588875579833984375e+01 -2.596700477600097656e+01 -1.210518460720777512e-02 -6.506704725325107574e-03 -5.583566613495349884e-03 1.507733669131994247e-02
3.724000000000000000e+03 4.814752197265625000e+01 -1.333930683135986328e+01 2.315674543380737305e+00 3.119768619537353516e+00 1.630632996559143066e+00 1.962446689605712891e+00
3.725000000000000000e+03 4.684068679809570312e+00 -3.146732521057128906e+01 -6.691040098667144775e-02 -3.739650249481201172e-01 -1.322626322507858276e-01 2.264775782823562622e-01
3.726000000000000000e+03 5.226538848876953125e+01 -1.228106021881103516e+01 1.352979660034179688e+00 7.010656595230102539e-01 6.162136197090148926e-01 1.820489883422851562e+00
3.727000000000000000e+03 7.596235656738281250e+01 -2.153428268432617188e+01 -3.492047777399420738e-03 -1.482172287069261074e-03 -1.492265961132943630e-03 5.654487758874893188e-04
3.728000000000000000e+03 7.557354736328125000e+01 3.038885498046875000e+01 -8.284699916839599609e-02 1.092184986919164658e-02 -2.157754451036453247e-02 2.860733568668365479e-01
3.729000000000000000e+03 7.597126007080078125e+01 -2.756789588928222656e+01 -1.382840611040592194e-02 -1.167019270360469818e-02 -7.649579551070928574e-03 2.361665852367877960e-02
3.730000000000000000e+03 7.552389526367187500e+01 -2.899930381774902344e+01 -1.709209755063056946e-02 -1.543985400348901749e-02 -9.759585373103618622e-03 3.412638977169990540e-02
3.731000000000000000e+03 7.559878540039062500e+01 2.844454383850097656e+01 -7.828101515769958496e-02 -6.919711083173751831e-02 -4.424344003200531006e-02 3.431592881679534912e-01
3.732000000000000000e+03 7.517908477783203125e+01 2.510961151123046875e+01 -5.803204700350761414e-02 -1.617503464221954346e-01 -6.593471765518188477e-02 4.567043781280517578e-01
3.733000000000000000e+03 7.525080871582031250e+01 2.432317352294921875e+01 -4.671020060777664185e-02 -2.216432839632034302e-01 -8.050604909658432007e-02 4.630454480648040771e-01
3.734000000000000000e+03 7.602019500732421875e+01 2.362610435485839844e+01 -2.643824554979801178e-02 -4.285393953323364258e-01 -1.364932954311370850e-01 4.304311871528625488e-01
3.735000000000000000e+03 7.465642547607421875e+01 -2.404788589477539062e+01 -1.225450541824102402e-02 -2.193072112277150154e-03 -4.334273282438516617e-03 7.146220654249191284e-03
3.736000000000000000e+03 7.502410888671875000e+01 -2.681706619262695312e+01 -1.909725554287433624e-02 -5.647206213325262070e-03 -7.423338945955038071e-03 2.191588096320629120e-02
3.737000000000000000e+03 1.429563331604003906e+01 -5.716204166412353516e+00 -3.391521275043487549e-01 4.696933031082153320e-01 3.916234895586967468e-02 -1.368315611034631729e-02
3.738000000000000000e+03 7.517504882812500000e+01 2.221869087219238281e+01 -7.723120506852865219e-03 -3.105213344097137451e-01 -9.547334164381027222e-02 4.966946244239807129e-01
3.739000000000000000e+03 7.537910461425781250e+01 1.822864532470703125e+01 8.317849040031433105e-02 -6.059045791625976562e-01 -1.568178236484527588e-01 4.215455055236816406e-01
3.740000000000000000e+03 7.539363098144531250e+01 1.744157600402832031e+01 9.736349433660507202e-02 -6.531513333320617676e-01 -1.667363494634628296e-01 3.965096473693847656e-01
3.741000000000000000e+03 7.540353393554687500e+01 1.665660858154296875e+01 1.117834895849227905e-01 -6.967186927795410156e-01 -1.754805594682693481e-01 3.623728752136230469e-01
3.742000000000000000e+03 7.610569000244140625e+01 1.661870193481445312e+01 8.376660197973251343e-02 -9.360121488571166992e-01 -2.556736767292022705e-01 3.272340297698974609e-01
3.743000000000000000e+03 7.347350311279296875e+01 -2.368217658996582031e+01 -1.513806451112031937e-02 -4.068266716785728931e-04 -4.663467407226562500e-03 5.586467217653989792e-03
3.744000000000000000e+03 7.503643798828125000e+01 -2.590038681030273438e+01 -1.725603081285953522e-02 -3.900275332853198051e-03 -6.346891634166240692e-03 1.582728885114192963e-02
3.745000000000000000e+03 7.521218109130859375e+01 2.138745498657226562e+01 1.533992681652307510e-02 -3.689680397510528564e-01 -1.060884296894073486e-01 4.924031496047973633e-01
3.746000000000000000e+03 7.399150085449218750e+01 1.598042774200439453e+01 1.903823763132095337e-01 -2.503823041915893555e-01 -1.799997314810752869e-02 3.863319754600524902e-01
3.747000000000000000e+03 7.515027618408203125e+01 2.591888999938964844e+01 -7.161843776702880859e-02 -1.097540035843849182e-01 -5.441173166036605835e-02 4.360838830471038818e-01
3.748000000000000000e+03 7.529225158691406250e+01 2.295785140991210938e+01 -2.090217545628547668e-02 -2.922913432121276855e-01 -9.395805746316909790e-02 4.839887917041778564e-01
3.749000000000000000e+03 7.496585845947265625e+01 2.994988822937011719e+01 -1.014681309461593628e-01 7.672988623380661011e-02 -7.421473506838083267e-03 3.174844086170196533e-01
3.750000000000000000e+03 7.540416717529296875e+01 1.431782150268554688e+01 1.432583630084991455e-01 -7.965418696403503418e-01 -1.959850490093231201e-01 2.506137490272521973e-01
3.751000000000000000e+03 7.544682312011718750e+01 1.120828342437744141e+01 1.627521663904190063e-01 -8.891288638114929199e-01 -2.179130166769027710e-01 7.269698381423950195e-02
3.752000000000000000e+03 7.545189666748046875e+01 1.041751670837402344e+01 1.640506535768508911e-01 -9.063883423805236816e-01 -2.227013111114501953e-01 2.249640226364135742e-02
3.753000000000000000e+03 7.535569763183593750e+01 1.901611137390136719e+01 6.839402019977569580e-02 -5.542501211166381836e-01 -1.457568258047103882e-01 4.474645555019378662e-01
3.754000000000000000e+03 7.546318817138671875e+01 7.271747112274169922e+00 1.491900533437728882e-01 -9.085863828659057617e-01 -2.278189063072204590e-01 -1.624014973640441895e-01
3.755000000000000000e+03 7.615563201904296875e+01 9.539125442504882812e+00 1.202096268534660339e-01 -1.170249700546264648e+00 -3.150120079517364502e-01 -3.241325169801712036e-02
3.756000000000000000e+03 7.540852355957031250e+01 1.587498569488525391e+01 1.235968172550201416e-01 -7.319281697273254395e-01 -1.824994087219238281e-01 3.302457630634307861e-01
3.757000000000000000e+03 7.552582550048828125e+01 -3.289442539215087891e+00 -4.675811622291803360e-03 -4.958302676677703857e-01 -1.501518189907073975e-01 -5.028737187385559082e-01
3.758000000000000000e+03 7.554945373535156250e+01 -4.015996932983398438e+00 -2.249715849757194519e-02 -4.526170194149017334e-01 -1.425342559814453125e-01 -4.996227324008941650e-01
3.759000000000000000e+03 7.528041839599609375e+01 4.181160926818847656e+00 1.306036859750747681e-01 -7.916252613067626953e-01 -1.983064711093902588e-01 -3.278073072433471680e-01
3.760000000000000000e+03 7.512297821044921875e+01 3.408681392669677734e+00 1.252882182598114014e-01 -7.174602150917053223e-01 -1.776515990495681763e-01 -3.674095869064331055e-01
3.761000000000000000e+03 7.616301727294921875e+01 7.954346179962158203e+00 1.140747293829917908e-01 -1.163151502609252930e+00 -3.147230446338653564e-01 -1.163151040673255920e-01
3.762000000000000000e+03 7.553244781494140625e+01 -4.747997283935546875e+00 -3.793185949325561523e-02 -4.042277932167053223e-01 -1.326479017734527588e-01 -4.913997650146484375e-01
3.763000000000000000e+03 4.702171802520751953e+00 -2.165387153625488281e+01 1.454971879720687866e-01 -5.982928276062011719e-01 -1.358387023210525513e-01 2.057456374168395996e-01
3.764000000000000000e+03 7.545194244384765625e+01 9.623922348022460938e+00 1.607144176959991455e-01 -9.096294045448303223e-01 -2.246744930744171143e-01 -2.705606259405612946e-02
3.765000000000000000e+03 7.543461608886718750e+01 1.199108123779296875e+01 1.596391052007675171e-01 -8.720071315765380859e-01 -2.137104123830795288e-01 1.166338473558425903e-01
3.766000000000000000e+03 7.485634613037109375e+01 2.661487102508544922e+00 1.311094462871551514e-01 -6.163690090179443359e-01 -1.455778628587722778e-01 -4.128559529781341553e-01
3.767000000000000000e+03 4.768095970153808594e+00 2.173117637634277344e+01 -3.226112946867942810e-02 -1.583583839237689972e-02 -1.442909054458141327e-02 6.447483599185943604e-02
3.768000000000000000e+03 7.609865570068359375e+01 -1.639249444007873535e+00 1.937975920736789703e-02 -7.048708200454711914e-01 -2.056473046541213989e-01 -4.577390551567077637e-01
3.769000000000000000e+03 7.547282409667968750e+01 -2.567224979400634766e+00 8.215262554585933685e-03 -5.309482812881469727e-01 -1.568199098110198975e-01 -5.060495734214782715e-01
3.770000000000000000e+03 4.834418106079101562e+01 -1.262469100952148438e+01 1.811123490333557129e+00 2.711412668228149414e+00 1.356760740280151367e+00 1.810567855834960938e+00
3.771000000000000000e+03 4.724111557006835938e+01 -1.144285583496093750e+01 8.961226940155029297e-01 3.194401264190673828e+00 1.227157115936279297e+00 1.076224803924560547e+00
3.772000000000000000e+03 7.537259674072265625e+01 4.958236217498779297e+00 1.363268792629241943e-01 -8.380017876625061035e-01 -2.105024755001068115e-01 -2.887105643749237061e-01
3.773000000000000000e+03 7.486492156982421875e+01 2.984973490238189697e-01 8.226879686117172241e-02 -5.381988883018493652e-01 -1.367790251970291138e-01 -4.925664961338043213e-01
3.774000000000000000e+03 7.444883728027343750e+01 1.987757325172424316e+00 1.315285116434097290e-01 -5.008260011672973633e-01 -1.107892468571662903e-01 -4.482748210430145264e-01
3.775000000000000000e+03 7.446906280517578125e+01 8.971295952796936035e-01 1.050660163164138794e-01 -4.713090658187866211e-01 -1.098729148507118225e-01 -4.864893257617950439e-01
3.776000000000000000e+03 7.541263580322265625e+01 -6.253096103668212891e+00 -7.826267182826995850e-02 -3.011143505573272705e-01 -1.138131096959114075e-01 -4.648427367210388184e-01
3.777000000000000000e+03 7.545456695556640625e+01 6.500808238983154297e+00 1.445987224578857422e-01 -8.959739804267883301e-01 -2.254125773906707764e-01 -2.051836252212524414e-01
3.778000000000000000e+03 7.542697906494140625e+01 5.731772422790527344e+00 1.406020075082778931e-01 -8.735722899436950684e-01 -2.198910862207412720e-01 -2.467088401317596436e-01
3.779000000000000000e+03 7.540750885009765625e+01 1.354488945007324219e+01 1.509346812963485718e-01 -8.238083720207214355e-01 -2.018621116876602173e-01 2.088796645402908325e-01
3.780000000000000000e+03 7.541939544677734375e+01 1.276958084106445312e+01 1.566848307847976685e-01 -8.505166172981262207e-01 -2.081495374441146851e-01 1.637249588966369629e-01
3.781000000000000000e+03 4.122464656829833984e+00 -2.407966232299804688e+01 5.042946338653564453e-02 -6.886410117149353027e-01 -1.914634555578231812e-01 2.761675417423248291e-01
3.782000000000000000e+03 4.814203262329101562e+00 -2.321452713012695312e+01 9.919939190149307251e-02 -5.198647975921630859e-01 -1.261996179819107056e-01 2.708809077739715576e-01
3.783000000000000000e+03 7.511865997314453125e+01 -3.868306279182434082e-01 5.880472436547279358e-02 -5.760244727134704590e-01 -1.551659256219863892e-01 -4.989911019802093506e-01
3.784000000000000000e+03 7.528025054931640625e+01 -1.110551714897155762e+00 3.981250524520874023e-02 -5.770757198333740234e-01 -1.611789613962173462e-01 -5.026813149452209473e-01
3.785000000000000000e+03 4.915202617645263672e+00 2.430898284912109375e+01 -2.334089018404483795e-02 -3.425117954611778259e-02 -1.727762073278427124e-02 9.298329800367355347e-02
3.786000000000000000e+03 5.613413619995117188e+01 -5.283554077148437500e+00 -1.173909008502960205e-01 1.917958378791809082e+00 5.401702523231506348e-01 1.233106493949890137e+00
3.787000000000000000e+03 5.686452102661132812e+01 -5.567259788513183594e+00 -1.255168616771697998e-01 1.843651771545410156e+00 5.154404640197753906e-01 1.194263935089111328e+00
3.788000000000000000e+03 7.530318450927734375e+01 -1.018361854553222656e+01 -1.552324593067169189e-01 -9.880229085683822632e-02 -7.621042430400848389e-02 -2.980791628360748291e-01
3.789000000000000000e+03 7.536612701416015625e+01 -7.039693832397460938e+00 -9.933415055274963379e-02 -2.531358301639556885e-01 -1.057409942150115967e-01 -4.433861374855041504e-01
3.790000000000000000e+03 7.534219360351562500e+01 -7.839948654174804688e+00 -1.147013604640960693e-01 -2.079502493143081665e-01 -9.679548442363739014e-02 -4.138085246086120605e-01
3.791000000000000000e+03 4.932796859741210938e+01 -8.981784820556640625e+00 -2.488486170768737793e-01 8.251363635063171387e-01 1.728863269090652466e-01 1.789867520332336426e+00
3.792000000000000000e+03 1.270952415466308594e+01 -5.961581707000732422e+00 -3.113391399383544922e-01 4.199600815773010254e-01 3.258628025650978088e-02 -2.199037969112396240e-01
3.793000000000000000e+03 1.352778053283691406e+01 -5.865753173828125000e+00 -3.287223279476165771e-01 4.498137831687927246e-01 3.632743656635284424e-02 -1.161409392952919006e-01
3.794000000000000000e+03 7.532902526855468750e+01 -8.638786315917968750e+00 -1.341210007667541504e-01 -1.654918044805526733e-01 -8.988384157419204712e-02 -3.794341385364532471e-01
3.795000000000000000e+03 5.084835529327392578e+00 2.869986152648925781e+01 7.544635329395532608e-03 -7.210096716880798340e-02 -1.936689950525760651e-02 1.064023524522781372e-01
3.796000000000000000e+03 3.959410429000854492e+00 -1.851910400390625000e+01 1.585876047611236572e-01 -8.609061241149902344e-01 -2.106955498456954956e-01 3.567357081919908524e-03
3.797000000000000000e+03 4.953837394714355469e+00 2.250596237182617188e+01 -3.178382292389869690e-02 -1.675355993211269379e-02 -1.456121541559696198e-02 7.495672255754470825e-02
3.798000000000000000e+03 5.479802608489990234e+00 -3.120446968078613281e+01 -9.028700739145278931e-02 -2.259044796228408813e-01 -9.485744684934616089e-02 2.492866665124893188e-01
3.799000000000000000e+03 7.526866912841796875e+01 2.059170341491699219e+01 3.426882624626159668e-02 -4.339377880096435547e-01 -1.199006885290145874e-01 4.831361174583435059e-01
3.800000000000000000e+03 7.531907653808593750e+01 1.980431938171386719e+01 5.216195434331893921e-02 -4.956639707088470459e-01 -1.330506056547164917e-01 4.656376242637634277e-01
3.801000000000000000e+03 4.133529663085937500e+00 -2.566457366943359375e+01 1.503486372530460358e-02 -6.335418224334716797e-01 -1.855520755052566528e-01 2.957459688186645508e-01
3.802000000000000000e+03 4.902863979339599609e+00 -2.401978874206542969e+01 7.351737469434738159e-02 -4.851707816123962402e-01 -1.234960258007049561e-01 2.959219515323638916e-01
3.803000000000000000e+03 7.604224395751953125e+01 -1.012288951873779297e+01 -1.135067939758300781e-01 -1.406221240758895874e-01 -7.623867690563201904e-02 -2.696416676044464111e-01
3.804000000000000000e+03 5.598204803466796875e+01 -1.182930374145507812e+01 1.646852791309356689e-01 5.969533920288085938e-01 2.284916043281555176e-01 1.180945873260498047e+00
3.805000000000000000e+03 5.716525650024414062e+01 -1.096490478515625000e+01 -2.402370125055313110e-01 7.707131505012512207e-01 1.591428369283676147e-01 1.072304844856262207e+00
3.806000000000000000e+03 5.137318134307861328e+00 7.925286769866943359e+00 5.941565614193677902e-04 -1.515551470220088959e-03 -2.764184609986841679e-04 -1.458197366446256638e-03
3.807000000000000000e+03 6.997389984130859375e+01 -1.108917999267578125e+01 -6.151514649391174316e-01 2.049677520990371704e-01 -1.230551078915596008e-01 -2.781586349010467529e-01
3.808000000000000000e+03 4.272898197174072266e+00 6.464900016784667969e+00 4.313689714763313532e-04 -3.939987800549715757e-04 1.121105469792382792e-05 -1.426927046850323677e-03
3.809000000000000000e+03 5.109107017517089844e+00 6.398864269256591797e+00 8.117258548736572266e-04 -8.822489180602133274e-04 -2.115693496307358146e-05 -1.332296291366219521e-03
3.810000000000000000e+03 5.721167087554931641e+00 -2.392002868652343750e+01 9.717608988285064697e-02 -2.523292899131774902e-01 -4.654596000909805298e-02 3.154392242431640625e-01
3.811000000000000000e+03 5.773635482788085938e+01 -7.087966442108154297e+00 -3.416821360588073730e-01 1.500771522521972656e+00 3.477267920970916748e-01 1.151453495025634766e+00
3.812000000000000000e+03 4.122451782226562500e+00 -3.021441650390625000e+01 -5.587710067629814148e-02 -5.013466477394104004e-01 -1.671671122312545776e-01 2.464604377746582031e-01
3.813000000000000000e+03 4.354974746704101562e+00 -3.079333305358886719e+01 -5.779635161161422729e-02 -4.361927211284637451e-01 -1.481967121362686157e-01 2.418044358491897583e-01
3.814000000000000000e+03 4.597773075103759766e+00 -1.527349090576171875e+01 2.104826718568801880e-01 -6.417199969291687012e-01 -1.293711960315704346e-01 -2.427102774381637573e-01
3.815000000000000000e+03 3.946658611297607422e+00 -1.770976257324218750e+01 1.626569032669067383e-01 -8.600303530693054199e-01 -2.092120349407196045e-01 -5.196405947208404541e-02
3.816000000000000000e+03 5.903022289276123047e+00 5.562885284423828125e+00 9.497362188994884491e-04 -9.889382636174559593e-04 -1.176061687147011980e-05 -1.009360072202980518e-03
3.817000000000000000e+03 6.369981288909912109e+00 -3.133669853210449219e+01 -1.123597696423530579e-01 -8.786477148532867432e-02 -6.006736308336257935e-02 2.406984865665435791e-01
3.818000000000000000e+03 7.471572875976562500e+01 2.731987762451171875e+01 -9.835800528526306152e-02 3.533967584371566772e-02 -1.890549995005130768e-02 4.096845090389251709e-01
3.819000000000000000e+03 4.611098289489746094e+00 1.563575458526611328e+01 -1.368796639144420624e-02 -2.287136390805244446e-03 -4.792531020939350128e-03 9.371114894747734070e-03
3.820000000000000000e+03 5.315903663635253906e+00 -1.690049552917480469e+01 2.663272321224212646e-01 -4.672575294971466064e-01 -6.027908250689506531e-02 -1.230479106307029724e-01
3.821000000000000000e+03 4.572405338287353516e+00 1.169807434082031250e+01 -2.240297151729464531e-03 -2.013208577409386635e-03 -1.276051742024719715e-03 -4.609074967447668314e-04
3.822000000000000000e+03 4.736896514892578125e+00 9.531757354736328125e+00 -5.912886699661612511e-04 -1.629201578907668591e-03 -6.661470979452133179e-04 -1.317422604188323021e-03
3.823000000000000000e+03 4.564885139465332031e+00 -1.121529960632324219e+01 1.095814257860183716e-01 -5.105075240135192871e-01 -1.202778369188308716e-01 -4.778982996940612793e-01
3.824000000000000000e+03 4.541092395782470703e+00 -1.041067123413085938e+01 7.942425459623336792e-02 -4.758136272430419922e-01 -1.189168095588684082e-01 -5.036455988883972168e-01
3.825000000000000000e+03 3.927646398544311523e+00 1.398349666595458984e+01 -5.611392669379711151e-03 -1.991916680708527565e-03 -2.280992921441793442e-03 3.155344864353537560e-03
3.826000000000000000e+03 4.654372215270996094e+00 1.401729583740234375e+01 -8.177993819117546082e-03 -2.189578255638480186e-03 -3.110271645709872246e-03 3.661851165816187859e-03
3.827000000000000000e+03 4.641428947448730469e+00 1.482920551300048828e+01 -1.004255004227161407e-02 -2.538672648370265961e-03 -3.774366807192564011e-03 5.893749650567770004e-03
3.828000000000000000e+03 4.883870124816894531e+00 2.024139785766601562e+01 -3.376828506588935852e-02 -6.071781739592552185e-03 -1.195202022790908813e-02 4.752845689654350281e-02
3.829000000000000000e+03 4.610947132110595703e+00 -1.447198867797851562e+01 1.941061913967132568e-01 -6.197108030319213867e-01 -1.276813894510269165e-01 -3.014725148677825928e-01
3.830000000000000000e+03 4.527171134948730469e+00 -9.623741149902343750e+00 5.163304135203361511e-02 -4.410656392574310303e-01 -1.168297752737998962e-01 -5.207383632659912109e-01
3.831000000000000000e+03 4.229763507843017578e+00 1.010516929626464844e+01 -6.741741090081632137e-04 -8.610007353127002716e-04 -4.605524591170251369e-04 -1.424140180461108685e-03
3.832000000000000000e+03 6.354215145111083984e+00 7.693957805633544922e+00 3.472778480499982834e-04 -2.274266444146633148e-03 -5.780966021120548248e-04 -8.169001666828989983e-04
3.833000000000000000e+03 4.624972820281982422e+00 1.321463489532470703e+01 -5.493509117513895035e-03 -2.204687101766467094e-03 -2.309459028765559196e-03 1.642380491830408573e-03
3.834000000000000000e+03 3.919012069702148438e+00 1.319199275970458984e+01 -4.602464381605386734e-03 -1.449561677873134613e-03 -1.815607771277427673e-03 1.559293596073985100e-03
3.835000000000000000e+03 4.049616813659667969e+00 2.026611709594726562e+01 -2.244603075087070465e-02 -1.652450114488601685e-02 -1.169115956872701645e-02 4.391169920563697815e-02
3.836000000000000000e+03 5.368468284606933594e+00 2.140217018127441406e+01 -3.808021545410156250e-02 -4.064933396875858307e-03 -1.264354493468999863e-02 6.297919899225234985e-02
3.837000000000000000e+03 5.224152088165283203e+00 8.591182708740234375e+00 -1.214792209793813527e-04 -1.876497874036431313e-03 -5.993930972181260586e-04 -1.316282898187637329e-03
3.838000000000000000e+03 4.575841426849365234e+00 1.642662620544433594e+01 -1.561957132071256638e-02 -3.117653774097561836e-03 -5.621167831122875214e-03 1.323647983372211456e-02
3.839000000000000000e+03 7.507432460784912109e+00 2.088387298583984375e+01 -7.077711820602416992e-02 2.851444296538829803e-02 -1.267880294471979141e-02 5.723812058568000793e-02
3.840000000000000000e+03 1.819985580444335938e+01 -5.597203254699707031e+00 -2.366082817316055298e-01 4.348365068435668945e-01 5.946846678853034973e-02 5.092568993568420410e-01
3.841000000000000000e+03 3.910915851593017578e+00 -1.286909198760986328e+01 1.191110238432884216e-01 -7.328050732612609863e-01 -1.841082125902175903e-01 -3.689070641994476318e-01
3.842000000000000000e+03 4.592566967010498047e+00 -1.203277969360351562e+01 1.351580172777175903e-01 -5.404689908027648926e-01 -1.215932965278625488e-01 -4.430597722530364990e-01
3.843000000000000000e+03 4.624672412872314453e+00 -1.689409065246582031e+01 2.156757265329360962e-01 -6.568291187286376953e-01 -1.323460042476654053e-01 -1.166976243257522583e-01
3.844000000000000000e+03 4.623021125793457031e+00 -1.366413688659667969e+01 1.750682294368743896e-01 -5.932520031929016113e-01 -1.254551261663436890e-01 -3.527934253215789795e-01
3.845000000000000000e+03 4.540107727050781250e+00 1.792498397827148438e+01 -2.078655175864696503e-02 -4.924720618873834610e-03 -7.713381666690111160e-03 2.346785552799701691e-02
3.846000000000000000e+03 6.735504913330078125e+01 -9.797320365905761719e+00 -7.626519203186035156e-01 1.698843091726303101e-01 -1.778302788734436035e-01 -3.906187415122985840e-01
3.847000000000000000e+03 6.732536315917968750e+01 -1.068407249450683594e+01 -9.189587235450744629e-01 1.578667610883712769e-01 -2.283275872468948364e-01 -3.241323530673980713e-01
3.848000000000000000e+03 4.099512100219726562e+00 2.592814445495605469e+01 -1.070168055593967438e-02 -7.332658022642135620e-02 -2.520847693085670471e-02 9.343402087688446045e-02
3.849000000000000000e+03 3.963286161422729492e+00 -7.221258640289306641e+00 -3.886713460087776184e-02 -3.728247582912445068e-01 -1.235075667500495911e-01 -4.895173013210296631e-01
3.850000000000000000e+03 4.709583282470703125e+00 -7.244655609130859375e+00 -4.852479696273803711e-02 -2.904297709465026855e-01 -1.016863733530044556e-01 -5.362896919250488281e-01
3.851000000000000000e+03 4.688553333282470703e+00 -2.088864326477050781e+01 1.638161838054656982e-01 -6.173358559608459473e-01 -1.360559016466140747e-01 1.607072055339813232e-01
3.852000000000000000e+03 4.680984020233154297e+00 -2.011912918090820312e+01 1.767960637807846069e-01 -6.314955949783325195e-01 -1.364098489284515381e-01 1.174817681312561035e-01
3.853000000000000000e+03 4.742021083831787109e+00 -2.242660522460937500e+01 1.228326484560966492e-01 -5.636072158813476562e-01 -1.322323679924011230e-01 2.437670677900314331e-01
3.854000000000000000e+03 4.535964012145996094e+00 -8.846775054931640625e+00 2.098642475903034210e-02 -3.980436623096466064e-01 -1.131171733140945435e-01 -5.320301055908203125e-01
3.855000000000000000e+03 4.585528850555419922e+00 -8.064289093017578125e+00 -9.838238358497619629e-03 -3.522236049175262451e-01 -1.086185500025749207e-01 -5.363522171974182129e-01
3.856000000000000000e+03 4.814615249633789062e+00 2.594071769714355469e+01 -1.277665514498949051e-02 -5.339579284191131592e-02 -1.985173299908638000e-02 1.013836711645126343e-01
3.857000000000000000e+03 5.863597393035888672e+00 -8.909267425537109375e+00 3.630702197551727295e-02 -2.034082561731338501e-01 -5.013037100434303284e-02 -5.826392173767089844e-01
3.858000000000000000e+03 4.809400558471679688e+00 2.744213485717773438e+01 -2.454155124723911285e-03 -7.012155652046203613e-02 -2.177271433174610138e-02 1.062846854329109192e-01
3.859000000000000000e+03 6.228253364562988281e+00 2.276182937622070312e+01 -4.657068103551864624e-02 6.576869636774063110e-03 -1.199814397841691971e-02 8.502992242574691772e-02
3.860000000000000000e+03 1.920615386962890625e+01 -8.381587982177734375e+00 3.360714018344879150e-01 5.859997868537902832e-01 2.766213715076446533e-01 7.083990573883056641e-01
3.861000000000000000e+03 1.501683521270751953e+01 -5.582853317260742188e+00 -3.506091237068176270e-01 4.741432368755340576e-01 3.706023842096328735e-02 8.855706453323364258e-02
3.862000000000000000e+03 3.668130111694335938e+01 1.294232368469238281e+01 6.726868748664855957e-01 1.049344253540039062e+01 3.349838733673095703e+00 -6.471379995346069336e-01
3.863000000000000000e+03 7.487752532958984375e+01 -3.341905975341796875e+01 -6.522389128804206848e-03 -4.298803210258483887e-02 -1.485312636941671371e-02 6.208212301135063171e-02
3.864000000000000000e+03 7.561226654052734375e+01 -3.291409683227539062e+01 -6.775550544261932373e-03 -4.488999396562576294e-02 -1.549966353923082352e-02 5.417552590370178223e-02
3.865000000000000000e+03 4.243989944458007812e+01 -2.127948570251464844e+01 2.115550279617309570e+00 1.019385528564453125e+01 3.692821741104125977e+00 -4.019047021865844727e-01
3.866000000000000000e+03 4.115973663330078125e+01 -2.204021072387695312e+01 2.155318498611450195e+00 9.319701194763183594e+00 3.442505836486816406e+00 -4.301657378673553467e-01
3.867000000000000000e+03 4.821776866912841797e+00 -2.789427375793457031e+01 -4.420097544789314270e-02 -4.040561020374298096e-01 -1.344771236181259155e-01 3.053776919841766357e-01
3.868000000000000000e+03 4.217360687255859375e+01 -7.471722602844238281e+00 -2.020208120346069336e+00 6.120564460754394531e+00 1.230106949806213379e+00 -2.179400205612182617e+00
3.869000000000000000e+03 5.152846813201904297e+00 -3.461188507080078125e+01 -8.315766602754592896e-02 -2.664428353309631348e-01 -1.048801541328430176e-01 1.610860973596572876e-01
3.870000000000000000e+03 6.764975070953369141e+00 -3.398827743530273438e+01 -1.221008375287055969e-01 -5.439841002225875854e-02 -5.294977501034736633e-02 1.699390262365341187e-01
3.871000000000000000e+03 7.165782928466796875e+01 -2.257111167907714844e+01 -1.328220870345830917e-02 -3.720660170074552298e-04 -4.096282646059989929e-03 6.612042780034244061e-04
3.872000000000000000e+03 5.270296096801757812e+00 3.121652984619140625e+01 2.395660057663917542e-02 -8.239979296922683716e-02 -1.753295771777629852e-02 9.684164822101593018e-02
3.873000000000000000e+03 2.467422103881835938e+01 -3.914831161499023438e+00 1.106485202908515930e-01 8.383575826883316040e-02 5.834528058767318726e-02 8.472468256950378418e-01
3.874000000000000000e+03 2.389464187622070312e+01 -4.001299858093261719e+00 -9.256022982299327850e-03 1.270401924848556519e-01 3.533525019884109497e-02 8.007220029830932617e-01
3.875000000000000000e+03 1.126263713836669922e+01 -1.696108055114746094e+01 6.762199401855468750e-01 1.598485827445983887e+00 6.824117302894592285e-01 5.478685349225997925e-02
3.876000000000000000e+03 4.313327407836914062e+01 -1.750483322143554688e+01 2.466873884201049805e+00 9.225763320922851562e+00 3.507791280746459961e+00 -1.591550707817077637e-01
3.877000000000000000e+03 5.169582843780517578e+00 1.857437133789062500e+01 -2.837218530476093292e-02 -2.170089399442076683e-03 -9.162682108581066132e-03 2.955090813338756561e-02
3.878000000000000000e+03 1.076646804809570312e+01 1.671770477294921875e+01 -4.280525073409080505e-02 4.174053203314542770e-03 -1.158935949206352234e-02 -1.543081644922494888e-02
3.879000000000000000e+03 2.575571632385253906e+01 -4.483700752258300781e+00 1.491071879863739014e-01 9.914547950029373169e-02 7.447580248117446899e-02 9.973475933074951172e-01
3.880000000000000000e+03 3.883574676513671875e+01 1.568907737731933594e+01 5.516736507415771484e-01 6.869239330291748047e+00 2.226274013519287109e+00 8.009458780288696289e-01
3.881000000000000000e+03 7.468592834472656250e+01 -3.172311019897460938e+01 -1.488926075398921967e-02 -2.824826166033744812e-02 -1.294125709682703018e-02 5.763543397188186646e-02
3.882000000000000000e+03 4.285230636596679688e+01 -1.997379112243652344e+01 2.221722126007080078e+00 1.029716777801513672e+01 3.755666971206665039e+00 -1.613979041576385498e-02
3.883000000000000000e+03 1.749790000915527344e+01 -7.315058231353759766e+00 2.357236109673976898e-02 6.650832295417785645e-01 2.065966874361038208e-01 5.017706751823425293e-01
3.884000000000000000e+03 6.912441253662109375e+01 -2.802746772766113281e+01 -8.701051026582717896e-02 2.995519526302814484e-02 -1.711659319698810577e-02 2.721616066992282867e-02
3.885000000000000000e+03 5.548797607421875000e+01 -7.659821033477783203e+00 -5.072462558746337891e-01 1.598292112350463867e+00 3.273137807846069336e-01 1.607810735702514648e+00
3.886000000000000000e+03 3.441279983520507812e+01 1.623606491088867188e+01 1.110780835151672363e+00 1.001194858551025391e+01 3.336818695068359375e+00 -1.680414199829101562e+00
3.887000000000000000e+03 3.433834838867187500e+01 1.933337593078613281e+01 1.028167009353637695e+00 8.024570465087890625e+00 2.715821266174316406e+00 -8.788585066795349121e-01
3.888000000000000000e+03 6.239622497558593750e+01 -9.934951782226562500e+00 -7.980352640151977539e-01 2.236768305301666260e-01 -1.723075360059738159e-01 3.507584929466247559e-01
3.889000000000000000e+03 6.128831481933593750e+01 -9.780796051025390625e+00 -7.054623961448669434e-01 4.925461411476135254e-01 -6.387487053871154785e-02 5.155007839202880859e-01
3.890000000000000000e+03 1.560747337341308594e+01 -9.748009681701660156e+00 4.282887578010559082e-01 1.178592920303344727e+00 4.820645153522491455e-01 3.557030558586120605e-01
3.891000000000000000e+03 6.219977951049804688e+01 1.103030681610107422e+00 6.535828113555908203e-01 2.390072822570800781e+00 9.130966663360595703e-01 7.747118473052978516e-01
3.892000000000000000e+03 6.061418056488037109e+00 7.033303260803222656e+00 7.852044655010104179e-04 -1.553122652694582939e-03 -2.303754299646243453e-04 -1.127059455029666424e-03
3.893000000000000000e+03 1.573316287994384766e+01 -5.531684875488281250e+00 -3.396909534931182861e-01 4.726800918579101562e-01 3.989674150943756104e-02 1.906378418207168579e-01
3.894000000000000000e+03 1.649360275268554688e+01 -5.561183452606201172e+00 -3.054373264312744141e-01 4.718522429466247559e-01 4.992447793483734131e-02 2.963883280754089355e-01
3.895000000000000000e+03 7.616230964660644531e+00 6.107064723968505859e+00 7.351604290306568146e-04 -1.752500305883586407e-03 -3.052019455935806036e-04 -1.735576224746182561e-04
3.896000000000000000e+03 1.402394771575927734e+01 2.476879882812500000e+01 -9.115840494632720947e-02 1.089195087552070618e-01 5.328331142663955688e-03 7.645149528980255127e-02
3.897000000000000000e+03 1.415922069549560547e+01 2.401775360107421875e+01 -1.480356603860855103e-01 9.256750345230102539e-02 -1.664044894278049469e-02 7.268098741769790649e-02
3.898000000000000000e+03 5.084720134735107422e+00 5.624509334564208984e+00 6.242821691557765007e-04 -6.975693395361304283e-04 -2.198615402448922396e-05 -1.148052397184073925e-03
3.899000000000000000e+03 6.653636932373046875e+01 1.511243343353271484e+01 5.503116846084594727e-01 2.658670663833618164e+00 9.626947045326232910e-01 2.761399149894714355e-01
3.900000000000000000e+03 4.286896133422851562e+01 1.881978607177734375e+01 4.429834187030792236e-01 2.895118236541748047e+00 1.001430511474609375e+00 1.288158059120178223e+00
3.901000000000000000e+03 4.164033508300781250e+01 1.758922004699707031e+01 5.298395752906799316e-01 3.798363685607910156e+00 1.298460960388183594e+00 1.368576765060424805e+00
3.902000000000000000e+03 4.354924392700195312e+01 1.924278259277343750e+01 3.990200757980346680e-01 2.524464130401611328e+00 8.770452737808227539e-01 1.216488003730773926e+00
3.903000000000000000e+03 7.225240325927734375e+01 -1.107203674316406250e+01 -3.712660670280456543e-01 9.695930033922195435e-02 -8.229202777147293091e-02 -2.882932126522064209e-01
3.904000000000000000e+03 2.064153099060058594e+01 -4.585957527160644531e+00 -2.320072054862976074e-01 2.747026681900024414e-01 1.280863396823406219e-02 6.659284830093383789e-01
3.905000000000000000e+03 6.570865631103515625e+01 1.448654460906982422e+01 5.311938524246215820e-01 3.157664775848388672e+00 1.106657505035400391e+00 2.280481010675430298e-01
3.906000000000000000e+03 2.886595153808593750e+01 -4.802443981170654297e+00 2.730341851711273193e-01 4.547238349914550781e-01 2.183274030685424805e-01 9.784322381019592285e-01
3.907000000000000000e+03 1.207691192626953125e+01 1.386909008026123047e+01 -5.184135399758815765e-03 -3.858475014567375183e-03 -2.712783170863986015e-03 -2.390803303569555283e-03
3.908000000000000000e+03 1.119678688049316406e+01 2.011521530151367188e+01 -1.367250531911849976e-01 5.489971488714218140e-02 -2.454760298132896423e-02 9.791322518140077591e-04
3.909000000000000000e+03 4.184788894653320312e+01 -2.026058769226074219e+01 2.255985975265502930e+00 9.653074264526367188e+00 3.572718143463134766e+00 -3.517090082168579102e-01
3.910000000000000000e+03 8.391734123229980469e+00 5.407907009124755859e+00 7.992383325472474098e-04 -1.408750540576875210e-03 -1.828536624088883400e-04 1.459538179915398359e-04
3.911000000000000000e+03 5.807131958007812500e+01 -5.022455692291259766e+00 4.343055561184883118e-02 1.751301765441894531e+00 5.384196639060974121e-01 1.028358936309814453e+00
3.912000000000000000e+03 1.277521038055419922e+01 1.405069923400878906e+01 -2.151184016838669777e-03 -2.572954399511218071e-03 -1.417241524904966354e-03 -1.925225136801600456e-03
3.913000000000000000e+03 4.162859344482421875e+01 -1.647572135925292969e+01 1.987328410148620605e+00 8.457906723022460938e+00 3.133570671081542969e+00 -9.455594420433044434e-01
3.914000000000000000e+03 3.214185333251953125e+01 -4.207087039947509766e+00 -2.726743519306182861e-01 4.268868446350097656e+00 1.198858261108398438e+00 3.898530602455139160e-01
3.915000000000000000e+03 3.125728225708007812e+01 -6.347715854644775391e+00 -1.056154966354370117e+00 2.219167947769165039e+00 3.489038646221160889e-01 -2.602443695068359375e-01
3.916000000000000000e+03 4.504212951660156250e+01 2.218327522277832031e+01 1.328604519367218018e-01 2.045556068420410156e+00 6.535249352455139160e-01 1.129409670829772949e+00
3.917000000000000000e+03 1.074122333526611328e+01 6.028593540191650391e+00 3.488041693344712257e-04 -1.081527210772037506e-03 -2.198169095208868384e-04 1.165386405773460865e-03
3.918000000000000000e+03 9.988705635070800781e+00 6.054644107818603516e+00 8.014377672225236893e-04 -1.237071002833545208e-03 -1.306899794144555926e-04 7.638010429218411446e-04
3.919000000000000000e+03 6.589334869384765625e+01 1.036147594451904297e+01 6.604877114295959473e-01 2.941087007522583008e+00 1.080472350120544434e+00 3.773262798786163330e-01
3.920000000000000000e+03 6.626209259033203125e+01 1.281096649169921875e+01 5.776967406272888184e-01 2.862515687942504883e+00 1.032063722610473633e+00 3.135398030281066895e-01
3.921000000000000000e+03 7.017973327636718750e+01 -9.739754676818847656e+00 -5.271983742713928223e-01 2.015450894832611084e-01 -9.769598394632339478e-02 -4.162337481975555420e-01
3.922000000000000000e+03 9.219171524047851562e+00 6.062886714935302734e+00 6.246432894840836525e-04 -1.608423190191388130e-03 -2.951339702121913433e-04 5.719333421438932419e-04
3.923000000000000000e+03 1.163538837432861328e+01 1.135379791259765625e+01 -1.571376109495759010e-03 -2.455597277730703354e-03 -1.208091969601809978e-03 1.749480026774108410e-03
3.924000000000000000e+03 7.307601928710937500e+01 -1.033610057830810547e+01 -2.989688515663146973e-01 4.211499541997909546e-02 -7.705616205930709839e-02 -3.416852355003356934e-01
3.925000000000000000e+03 3.126123619079589844e+01 -2.508758068084716797e+00 9.459362030029296875e-01 2.937816858291625977e+00 1.165125966072082520e+00 1.171892404556274414e+00
3.926000000000000000e+03 6.921023559570312500e+01 -1.108494949340820312e+01 -6.955498456954956055e-01 2.176412791013717651e-01 -1.433725804090499878e-01 -2.645331621170043945e-01
3.927000000000000000e+03 1.153099346160888672e+01 1.932031250000000000e+01 -1.182331368327140808e-01 3.658601269125938416e-02 -2.449413575232028961e-02 -2.223758772015571594e-02
3.928000000000000000e+03 1.040341377258300781e+01 1.807135391235351562e+01 -7.375659048557281494e-02 2.138273976743221283e-02 -1.571215689182281494e-02 -1.041202712804079056e-02
3.929000000000000000e+03 3.864130401611328125e+01 -1.943980407714843750e+01 1.689362287521362305e+00 9.032307624816894531e+00 3.216500997543334961e+00 -6.489443182945251465e-01
3.930000000000000000e+03 4.035692214965820312e+01 -1.786540603637695312e+01 2.064550638198852539e+00 8.804036140441894531e+00 3.260576009750366211e+00 -9.923372268676757812e-01
3.931000000000000000e+03 6.268237686157226562e+01 1.843971967697143555e+00 6.799937486648559570e-01 2.491783857345581055e+00 9.515333175659179688e-01 6.956791877746582031e-01
3.932000000000000000e+03 5.409290695190429688e+01 -6.961123943328857422e+00 -7.451061010360717773e-01 1.737115144729614258e+00 2.976027131080627441e-01 1.782620191574096680e+00
3.933000000000000000e+03 5.346260452270507812e+01 -7.274662017822265625e+00 -8.871492147445678711e-01 1.604795932769775391e+00 2.152940183877944946e-01 1.996894359588623047e+00
3.934000000000000000e+03 6.950498199462890625e+01 -2.717845535278320312e+01 -7.593519240617752075e-02 2.377144061028957367e-02 -1.564912497997283936e-02 1.568147167563438416e-02
3.935000000000000000e+03 4.106298828125000000e+01 1.696690940856933594e+01 5.737228989601135254e-01 4.337312221527099609e+00 1.473310470581054688e+00 1.347077250480651855e+00
3.936000000000000000e+03 3.920649719238281250e+01 -5.440126419067382812e+00 -2.658461809158325195e+00 9.863183021545410156e+00 2.161416292190551758e+00 -1.816150069236755371e+00
3.937000000000000000e+03 6.739772033691406250e+01 1.573988723754882812e+01 5.315628647804260254e-01 2.197494268417358398e+00 8.187171816825866699e-01 3.444326519966125488e-01
3.938000000000000000e+03 4.459230804443359375e+01 -1.412091255187988281e+01 1.506421446800231934e+00 6.650021076202392578e+00 2.446932792663574219e+00 2.376659661531448364e-01
3.939000000000000000e+03 1.359449291229248047e+01 -2.629111862182617188e+01 -7.063163816928863525e-02 1.332432031631469727e+00 3.785401284694671631e-01 -1.184561103582382202e-01
3.940000000000000000e+03 6.517712402343750000e+01 6.843983650207519531e+00 7.771506309509277344e-01 2.767341852188110352e+00 1.063347697257995605e+00 4.204963743686676025e-01
3.941000000000000000e+03 6.659474182128906250e+01 1.020009899139404297e+01 6.590961813926696777e-01 2.550128459930419922e+00 9.627674221992492676e-01 3.181501030921936035e-01
3.942000000000000000e+03 7.388375854492187500e+01 -8.777519226074218750e+00 -2.145908176898956299e-01 -5.021290853619575500e-02 -7.944111526012420654e-02 -4.285208880901336670e-01
3.943000000000000000e+03 1.907037353515625000e+01 -5.482994079589843750e+00 -2.022742629051208496e-01 4.002559185028076172e-01 5.939449369907379150e-02 5.842592716217041016e-01
3.944000000000000000e+03 1.988832092285156250e+01 -5.332304954528808594e+00 -1.831254363059997559e-01 3.583146929740905762e-01 5.255677923560142517e-02 6.536107063293457031e-01
3.945000000000000000e+03 3.956805038452148438e+01 -1.655860900878906250e+01 1.705638408660888672e+00 8.695884704589843750e+00 3.120456933975219727e+00 -1.397653579711914062e+00
3.946000000000000000e+03 3.451413726806640625e+01 -7.201605796813964844e+00 -2.297131776809692383e+00 7.480657577514648438e+00 1.555057764053344727e+00 -1.003601193428039551e+00
3.947000000000000000e+03 3.580188369750976562e+01 -2.456013441085815430e+00 -3.875933587551116943e-01 9.721096992492675781e+00 2.800051212310791016e+00 -9.951609373092651367e-02
3.948000000000000000e+03 4.043863677978515625e+01 -6.336260318756103516e+00 -2.663089752197265625e+00 8.377831459045410156e+00 1.714422464370727539e+00 -2.318264722824096680e+00
3.949000000000000000e+03 1.034445571899414062e+01 -6.763593196868896484e+00 -1.756655573844909668e-01 3.016984760761260986e-01 3.780987858772277832e-02 -4.633014798164367676e-01
3.950000000000000000e+03 4.436419296264648438e+01 2.110795783996582031e+01 2.183224558830261230e-01 2.301811695098876953e+00 7.560402750968933105e-01 1.180848598480224609e+00
3.951000000000000000e+03 4.478648757934570312e+01 2.158048439025878906e+01 1.683089882135391235e-01 2.114431619644165039e+00 6.848221421241760254e-01 1.126523852348327637e+00
3.952000000000000000e+03 5.836837387084960938e+01 -4.195487022399902344e+00 2.430669218301773071e-01 1.818207025527954102e+00 6.183821558952331543e-01 9.885371923446655273e-01
3.953000000000000000e+03 7.157140350341796875e+01 -1.039577579498291016e+01 -4.216437041759490967e-01 1.336364150047302246e-01 -8.640217781066894531e-02 -3.497806191444396973e-01
3.954000000000000000e+03 6.930210876464843750e+01 -1.039139270782470703e+01 -6.659460067749023438e-01 2.263498604297637939e-01 -1.318788379430770874e-01 -3.532386124134063721e-01
3.955000000000000000e+03 3.820191192626953125e+01 1.393329238891601562e+01 5.466229915618896484e-01 8.443104743957519531e+00 2.696918487548828125e+00 3.742112517356872559e-01
3.956000000000000000e+03 2.586492538452148438e+01 2.654534912109375000e+01 3.412724137306213379e-01 2.237729549407958984e+00 7.737005352973937988e-01 -1.555575847625732422e+00
3.957000000000000000e+03 3.071893692016601562e+01 -5.550176620483398438e+00 -2.856115102767944336e-01 1.707086205482482910e+00 4.264424145221710205e-01 2.321295291185379028e-01
3.958000000000000000e+03 6.554055023193359375e+01 1.294382953643798828e+01 5.458378791809082031e-01 3.292408466339111328e+00 1.151473879814147949e+00 3.039738535881042480e-01
3.959000000000000000e+03 2.607369613647460938e+01 2.810532760620117188e+01 5.150563269853591919e-02 2.538742303848266602e+00 7.770743370056152344e-01 -1.412054657936096191e+00
3.960000000000000000e+03 4.266228485107421875e+01 -1.687679290771484375e+01 2.258172750473022461e+00 8.677940368652343750e+00 3.280833959579467773e+00 -4.524355828762054443e-01
3.961000000000000000e+03 3.541251373291015625e+01 -9.976449012756347656e+00 -1.217195630073547363e+00 8.421018600463867188e+00 2.161146879196166992e+00 -1.284464597702026367e+00
3.962000000000000000e+03 3.716487503051757812e+01 -1.044481754302978516e+01 -9.991524219512939453e-01 8.825081825256347656e+00 2.347778797149658203e+00 -1.297793149948120117e+00
3.963000000000000000e+03 1.375905799865722656e+01 -2.719186592102050781e+01 -1.495859324932098389e-01 1.230037808418273926e+00 3.241355717182159424e-01 -1.204600557684898376e-01
3.964000000000000000e+03 1.149059963226318359e+01 -1.764171028137207031e+01 6.557248234748840332e-01 1.774707555770874023e+00 7.291297316551208496e-01 3.795708715915679932e-02
3.965000000000000000e+03 3.569746780395507812e+01 1.664095306396484375e+01 8.947294950485229492e-01 8.968891143798828125e+00 2.959086179733276367e+00 -7.348408699035644531e-01
3.966000000000000000e+03 2.325225830078125000e+01 -5.663482666015625000e+00 -9.467972069978713989e-02 2.462355047464370728e-01 4.546673223376274109e-02 8.400972485542297363e-01
3.967000000000000000e+03 1.287419986724853516e+01 -2.340950393676757812e+01 2.497376948595046997e-01 1.763684153556823730e+00 6.040265560150146484e-01 -2.407933771610260010e-02
3.968000000000000000e+03 3.880436706542968750e+01 1.448525524139404297e+01 5.265900492668151855e-01 7.500704288482666016e+00 2.408188343048095703e+00 7.722808718681335449e-01
3.969000000000000000e+03 6.604010772705078125e+01 1.119306564331054688e+01 6.236859560012817383e-01 2.922458171844482422e+00 1.063843250274658203e+00 3.605487942695617676e-01
3.970000000000000000e+03 5.348730468750000000e+01 -6.605356216430664062e+00 -9.726161956787109375e-01 1.758666753768920898e+00 2.358151376247406006e-01 1.788057327270507812e+00
3.971000000000000000e+03 5.158213424682617188e+01 -8.218947410583496094e+00 -7.362214326858520508e-01 8.986468315124511719e-01 4.872762039303779602e-02 2.377231359481811523e+00
3.972000000000000000e+03 1.175253868103027344e+01 -2.132725334167480469e+01 5.528334379196166992e-01 1.662868142127990723e+00 6.647105216979980469e-01 7.748262584209442139e-02
3.973000000000000000e+03 6.380622100830078125e+01 5.358018875122070312e+00 8.486206531524658203e-01 3.046666860580444336e+00 1.168586254119873047e+00 6.473574042320251465e-01
3.974000000000000000e+03 1.887923812866210938e+01 2.623546600341796875e+01 1.911177337169647217e-01 2.249806076288223267e-01 1.248295083642005920e-01 -2.688146531581878662e-01
3.975000000000000000e+03 1.455473995208740234e+01 -2.964551544189453125e+01 -2.466339468955993652e-01 1.004021763801574707e+00 2.272163480520248413e-01 -1.761352419853210449e-01
3.976000000000000000e+03 1.721712684631347656e+01 -3.255996704101562500e+01 -2.365133315324783325e-01 7.918732762336730957e-01 1.666079908609390259e-01 -3.081523180007934570e-01
3.977000000000000000e+03 1.128896808624267578e+01 -2.310163307189941406e+01 2.959190011024475098e-01 1.330246329307556152e+00 4.878495931625366211e-01 1.940805464982986450e-01
3.978000000000000000e+03 4.101985931396484375e+01 -1.941658210754394531e+01 2.248608112335205078e+00 9.210335731506347656e+00 3.437683105468750000e+00 -5.869317650794982910e-01
3.979000000000000000e+03 2.660304260253906250e+01 2.705036544799804688e+01 1.401421129703521729e-01 2.783245086669921875e+00 8.770161271095275879e-01 -1.584076404571533203e+00
3.980000000000000000e+03 6.487808990478515625e+01 8.827272415161132812e+00 7.149569988250732422e-01 3.289559125900268555e+00 1.201354861259460449e+00 5.178037285804748535e-01
3.981000000000000000e+03 2.653164863586425781e+01 -3.573875188827514648e+00 4.329726397991180420e-01 3.631424903869628906e-02 1.407860666513442993e-01 9.048333764076232910e-01
3.982000000000000000e+03 2.542357444763183594e+01 -3.789130449295043945e+00 2.055346518754959106e-01 5.382239818572998047e-02 7.780711352825164795e-02 8.698216676712036133e-01
3.983000000000000000e+03 1.339280319213867188e+01 2.272930908203125000e+01 -2.063018083572387695e-01 8.880778402090072632e-02 -3.524820879101753235e-02 5.145647376775741577e-02
3.984000000000000000e+03 3.293535614013671875e+01 2.211323928833007812e+01 5.426672697067260742e-01 6.880214214324951172e+00 2.226864576339721680e+00 -8.636794090270996094e-01
3.985000000000000000e+03 3.297677230834960938e+01 -2.586299657821655273e+00 1.912976056337356567e-01 5.675201416015625000e+00 1.759949684143066406e+00 8.603302836418151855e-01
3.986000000000000000e+03 1.739578247070312500e+01 5.251307010650634766e+00 -2.135929098585620522e-04 4.323519533500075340e-04 6.562771159224212170e-05 1.719555148156359792e-04
3.987000000000000000e+03 4.727066802978515625e+01 -1.385181427001953125e+01 2.375164031982421875e+00 4.259083271026611328e+00 1.990274190902709961e+00 1.779098629951477051e+00
3.988000000000000000e+03 3.476515197753906250e+01 1.787800216674804688e+01 1.109334707260131836e+00 8.721701622009277344e+00 2.949310779571533203e+00 -1.096129894256591797e+00
3.989000000000000000e+03 3.379317855834960938e+01 1.840297126770019531e+01 1.358779311180114746e+00 8.796176910400390625e+00 3.046486854553222656e+00 -1.556990981101989746e+00
3.990000000000000000e+03 5.522561645507812500e+01 -6.669507980346679688e+00 -5.241241455078125000e-01 1.803528308868408203e+00 3.838212788105010986e-01 1.518242597579956055e+00
3.991000000000000000e+03 5.473225784301757812e+01 -7.368559837341308594e+00 -6.338514089584350586e-01 1.685352444648742676e+00 3.154503107070922852e-01 1.732522487640380859e+00
3.992000000000000000e+03 2.372597503662109375e+01 -5.340287685394287109e+00 -5.751033127307891846e-02 2.207349091768264771e-01 4.896737635135650635e-02 8.853343129158020020e-01
3.993000000000000000e+03 5.969473648071289062e+01 -2.229747533798217773e+00 6.106806397438049316e-01 1.940749764442443848e+00 7.654291391372680664e-01 9.615958929061889648e-01
3.994000000000000000e+03 6.322684097290039062e+01 2.263936424255371094e+01 -3.792258799076080322e-01 2.478291511535644531e+00 6.297197341918945312e-01 -1.554319858551025391e-01
3.995000000000000000e+03 3.187609100341796875e+01 -5.833714008331298828e+00 -8.761135935783386230e-01 3.233068704605102539e+00 7.070865631103515625e-01 -2.824256420135498047e-01
3.996000000000000000e+03 6.539617919921875000e+01 7.784372329711914062e+00 7.458420991897583008e-01 2.841984748840332031e+00 1.076348066329956055e+00 4.151457548141479492e-01
3.997000000000000000e+03 6.554631042480468750e+01 8.677227973937988281e+00 7.257102727890014648e-01 2.922626256942749023e+00 1.094500899314880371e+00 4.138700366020202637e-01
3.998000000000000000e+03 1.555492401123046875e+01 -2.975136375427246094e+01 -2.417707443237304688e-01 9.825345277786254883e-01 2.222291380167007446e-01 -2.386466860771179199e-01
3.999000000000000000e+03 1.804701614379882812e+01 2.687693214416503906e+01 1.852897554636001587e-01 2.556695342063903809e-01 1.322877854108810425e-01 -2.239144891500473022e-01
4.000000000000000000e+03 1.811140060424804688e+01 2.618457984924316406e+01 1.482080370187759399e-01 1.815370023250579834e-01 9.892351180315017700e-02 -2.003809958696365356e-01
4.001000000000000000e+03 5.964153289794921875e+01 -1.229712724685668945e+00 7.787559628486633301e-01 2.113016843795776367e+00 8.675318956375122070e-01 1.103122115135192871e+00
4.002000000000000000e+03 6.170791244506835938e+01 3.899897336959838867e-01 6.595598459243774414e-01 2.279064893722534180e+00 8.815873861312866211e-01 8.411778211593627930e-01
4.003000000000000000e+03 6.071107482910156250e+01 -9.569156169891357422e-01 6.636516451835632324e-01 2.069921016693115234e+00 8.200718164443969727e-01 9.285683631896972656e-01
4.004000000000000000e+03 2.765747261047363281e+01 2.728430366516113281e+01 -7.815128564834594727e-02 3.310567140579223633e+00 9.697247743606567383e-01 -1.534797906875610352e+00
4.005000000000000000e+03 3.908233642578125000e+01 -1.372018051147460938e+01 8.993596434593200684e-01 8.392040252685546875e+00 2.787419795989990234e+00 -1.598126769065856934e+00
4.006000000000000000e+03 6.111375808715820312e+01 7.479239106178283691e-01 7.302002310752868652e-01 2.448181390762329102e+00 9.535144567489624023e-01 1.037800073623657227e+00
4.007000000000000000e+03 6.682506561279296875e+01 1.664013481140136719e+01 5.259308218955993652e-01 2.384721517562866211e+00 8.731957077980041504e-01 3.280790448188781738e-01
4.008000000000000000e+03 4.024163055419921875e+01 -1.571781921386718750e+01 1.623173475265502930e+00 8.422833442687988281e+00 3.013802051544189453e+00 -1.386000275611877441e+00
4.009000000000000000e+03 3.930155944824218750e+01 -1.456728649139404297e+01 1.199610948562622070e+00 8.408457756042480469e+00 2.882420539855957031e+00 -1.602031111717224121e+00
4.010000000000000000e+03 6.640524291992187500e+01 1.836105728149414062e+01 4.445813298225402832e-01 2.378098487854003906e+00 8.468039631843566895e-01 3.562557697296142578e-01
4.011000000000000000e+03 6.577913665771484375e+01 1.930051422119140625e+01 3.623943924903869629e-01 2.509605884552001953e+00 8.616001009941101074e-01 3.412406742572784424e-01
4.012000000000000000e+03 4.178126907348632812e+01 -6.570743083953857422e+00 -2.320659875869750977e+00 6.527854919433593750e+00 1.262158513069152832e+00 -2.420874118804931641e+00
4.013000000000000000e+03 3.865361785888671875e+01 -1.143857955932617188e+01 -4.173229038715362549e-01 8.447967529296875000e+00 2.409193277359008789e+00 -1.471627235412597656e+00
4.014000000000000000e+03 1.450217247009277344e+01 -6.327408790588378906e+00 -2.507147490978240967e-01 5.576133728027343750e-01 9.206958115100860596e-02 3.404270485043525696e-02
4.015000000000000000e+03 6.990009307861328125e+01 -2.641924858093261719e+01 -5.863259360194206238e-02 1.677727885544300079e-02 -1.255659479647874832e-02 1.006080675870180130e-02
4.016000000000000000e+03 2.844029808044433594e+01 -3.629712581634521484e+00 6.795418262481689453e-01 3.675235807895660400e-01 3.141196370124816895e-01 9.576728940010070801e-01
4.017000000000000000e+03 2.758713150024414062e+01 -3.986563682556152344e+00 4.647166430950164795e-01 1.482329368591308594e-01 1.838848739862442017e-01 9.940768480300903320e-01
4.018000000000000000e+03 3.585452651977539062e+01 2.593514621257781982e-01 1.247107267379760742e+00 1.132682037353515625e+01 3.772178173065185547e+00 -5.169690251350402832e-01
4.019000000000000000e+03 4.008519744873046875e+01 -2.009052467346191406e+01 2.084265232086181641e+00 9.011831283569335938e+00 3.328829050064086914e+00 -5.465133190155029297e-01
4.020000000000000000e+03 5.918704605102539062e+01 -2.830211162567138672e+00 5.242095589637756348e-01 1.902853012084960938e+00 7.281187772750854492e-01 9.688160419464111328e-01
4.021000000000000000e+03 5.970348739624023438e+01 -3.168325185775756836e+00 4.232959449291229248e-01 1.788037061691284180e+00 6.633998751640319824e-01 8.670970797538757324e-01
4.022000000000000000e+03 4.006149291992187500e+00 -6.407378673553466797e+00 -6.760073453187942505e-02 -3.163131475448608398e-01 -1.151741594076156616e-01 -4.768764674663543701e-01
4.023000000000000000e+03 3.453665924072265625e+01 -7.798285007476806641e+00 -2.251577615737915039e+00 7.433054924011230469e+00 1.554443240165710449e+00 -1.094121217727661133e+00
4.024000000000000000e+03 5.083408737182617188e+01 -9.230774879455566406e+00 -8.721221238374710083e-02 8.917247653007507324e-01 2.413537651300430298e-01 2.264850378036499023e+00
4.025000000000000000e+03 5.346156311035156250e+01 -9.620614051818847656e+00 -7.333941012620925903e-02 1.095864295959472656e+00 3.067574501037597656e-01 2.105911493301391602e+00
4.026000000000000000e+03 3.937730789184570312e+01 1.509277725219726562e+01 5.479037761688232422e-01 6.538659095764160156e+00 2.125968694686889648e+00 1.041005730628967285e+00
4.027000000000000000e+03 2.946291542053222656e+01 -5.457325935363769531e+00 -5.789141287095844746e-04 5.897356271743774414e-01 1.767470091581344604e-01 8.174327015876770020e-01
4.028000000000000000e+03 4.006135559082031250e+01 -1.236833667755126953e+01 1.679610908031463623e-01 7.976980686187744141e+00 2.443482398986816406e+00 -1.473454236984252930e+00
4.029000000000000000e+03 3.468384552001953125e+01 -7.233406603336334229e-02 9.581476449966430664e-01 9.769599914550781250e+00 3.218324184417724609e+00 4.325160384178161621e-01
4.030000000000000000e+03 2.282605552673339844e+01 2.717482185363769531e+01 4.046600162982940674e-01 1.093248724937438965e+00 4.493726193904876709e-01 -1.017454147338867188e+00
4.031000000000000000e+03 1.318100452423095703e+01 7.558024883270263672e+00 -4.244163574185222387e-04 7.292123627848923206e-04 9.143880015471950173e-05 1.574872178025543690e-03
4.032000000000000000e+03 1.299395465850830078e+01 9.007900238037109375e+00 -8.161892765201628208e-04 4.754175897687673569e-04 -1.022315118461847305e-04 2.353286137804389000e-03
4.033000000000000000e+03 3.411692810058593750e+01 -1.604793548583984375e+00 2.981964647769927979e-01 7.946214199066162109e+00 2.473323106765747070e+00 7.961298823356628418e-01
4.034000000000000000e+03 3.646421432495117188e+01 -9.603243470191955566e-01 7.128208279609680176e-01 1.106994056701660156e+01 3.534828424453735352e+00 -6.386873126029968262e-01
4.035000000000000000e+03 3.491550445556640625e+01 -3.010088920593261719e+01 6.533233076333999634e-02 4.741103172302246094e+00 1.441930651664733887e+00 1.405300259590148926e+00
4.036000000000000000e+03 2.727896690368652344e+01 -4.510733127593994141e+00 3.180900812149047852e-01 1.228501349687576294e-01 1.322820633649826050e-01 1.080385327339172363e+00
4.037000000000000000e+03 6.565600585937500000e+01 5.639342784881591797e+00 7.332980036735534668e-01 2.363777875900268555e+00 9.291228055953979492e-01 2.794035971164703369e-01
4.038000000000000000e+03 4.504974746704101562e+01 2.558107376098632812e+01 -5.799037590622901917e-02 2.362647294998168945e+00 6.913970708847045898e-01 1.091324567794799805e+00
4.039000000000000000e+03 4.000582885742187500e+01 -2.106431007385253906e+01 2.106264114379882812e+00 8.936624526977539062e+00 3.312866687774658203e+00 -4.112714529037475586e-01
4.040000000000000000e+03 5.186806488037109375e+01 2.607873535156250000e+01 1.879187487065792084e-02 7.278964519500732422e-01 2.240065038204193115e-01 3.271589577198028564e-01
4.041000000000000000e+03 4.994562911987304688e+01 2.446984291076660156e+01 -3.504086658358573914e-02 8.425387740135192871e-01 2.422493696212768555e-01 5.721115469932556152e-01
4.042000000000000000e+03 3.986431121826171875e+01 -1.342592906951904297e+01 7.137506604194641113e-01 8.103857994079589844e+00 2.645282745361328125e+00 -1.508920669555664062e+00
4.043000000000000000e+03 3.718073654174804688e+01 1.270795059204101562e+01 5.914724469184875488e-01 1.024007320404052734e+01 3.249463796615600586e+00 -3.532001674175262451e-01
4.044000000000000000e+03 3.753796768188476562e+01 -2.788095855712890625e+01 5.064618587493896484e-01 6.573151588439941406e+00 2.123884201049804688e+00 9.657716751098632812e-01
4.045000000000000000e+03 3.575504302978515625e+01 -1.146593093872070312e+00 4.419097602367401123e-01 1.026712799072265625e+01 3.212711334228515625e+00 -1.395777761936187744e-01
4.046000000000000000e+03 4.790803146362304688e+01 -8.396050453186035156e+00 -6.952174901962280273e-01 9.701837897300720215e-01 8.248988538980484009e-02 1.029201984405517578e+00
4.047000000000000000e+03 3.334672927856445312e+01 1.985692787170410156e+01 1.248379945755004883e+00 7.991284847259521484e+00 2.771899461746215820e+00 -1.275666713714599609e+00
4.048000000000000000e+03 4.416504669189453125e+01 -8.439110755920410156e+00 -1.200757741928100586e+00 3.989036083221435547e+00 8.364834785461425781e-01 -1.243446946144104004e+00
4.049000000000000000e+03 4.477602005004882812e+01 -8.072775840759277344e+00 -1.268852591514587402e+00 3.212132692337036133e+00 5.829839706420898438e-01 -1.040222883224487305e+00
4.050000000000000000e+03 3.834162521362304688e+01 -2.310627746582031250e+01 1.796937823295593262e+00 8.165900230407714844e+00 2.988851308822631836e+00 3.241237699985504150e-01
4.051000000000000000e+03 3.929790115356445312e+01 -2.253286743164062500e+01 1.965898394584655762e+00 8.515777587890625000e+00 3.144502639770507812e+00 -3.675665333867073059e-02
4.052000000000000000e+03 4.261217880249023438e+01 -1.899351119995117188e+01 2.468532323837280273e+00 9.670892715454101562e+00 3.641827344894409180e+00 -9.783971309661865234e-02
4.053000000000000000e+03 7.419821166992187500e+01 -3.256652832031250000e+01 -1.274080015718936920e-02 -2.836148813366889954e-02 -1.233068667352199554e-02 6.470263749361038208e-02
4.054000000000000000e+03 6.315708541870117188e+01 2.610248565673828125e+00 7.037023901939392090e-01 2.573264122009277344e+00 9.830899238586425781e-01 6.223703622817993164e-01
4.055000000000000000e+03 6.362670898437500000e+01 3.399772644042968750e+00 7.481145858764648438e-01 2.629986763000488281e+00 1.013430356979370117e+00 5.474066138267517090e-01
4.056000000000000000e+03 6.270107269287109375e+01 -3.539597702026367188e+01 7.023763656616210938e-02 7.756033539772033691e-02 4.433939233422279358e-02 1.553584039211273193e-01
4.057000000000000000e+03 6.503656768798828125e+01 -3.504162216186523438e+01 2.382338792085647583e-02 3.394807875156402588e-02 1.733144000172615051e-02 1.538673788309097290e-01
4.058000000000000000e+03 4.121906280517578125e+01 -2.361586952209472656e+01 2.103032350540161133e+00 9.042576789855957031e+00 3.343682765960693359e+00 -3.822859525680541992e-01
4.059000000000000000e+03 1.674461364746093750e+01 2.667787361145019531e+01 1.133313924074172974e-01 1.945813447237014771e-01 9.237382560968399048e-02 -1.035090759396553040e-01
4.060000000000000000e+03 1.226623535156250000e+01 1.006597328186035156e+01 -4.368310692370869219e-05 -3.091428661718964577e-04 -1.058477937476709485e-04 2.083678264170885086e-03
4.061000000000000000e+03 1.147704792022705078e+01 5.981261253356933594e+00 5.289842956699430943e-04 -5.576739204116165638e-04 -8.606893061369191855e-06 1.137807266786694527e-03
4.062000000000000000e+03 3.532797622680664062e+01 -3.317097091674804688e+01 -4.979390501976013184e-01 4.597464084625244141e+00 1.229857563972473145e+00 1.119657516479492188e+00
4.063000000000000000e+03 3.439416503906250000e+01 -5.948868274688720703e+00 -1.956909179687500000e+00 7.228736877441406250e+00 1.581548213958740234e+00 -6.936112642288208008e-01
4.064000000000000000e+03 6.255569076538085938e+01 2.432443809509277344e+01 -5.256989002227783203e-01 2.060430049896240234e+00 4.604193270206451416e-01 -3.529146611690521240e-01
4.065000000000000000e+03 3.660876083374023438e+01 1.030508422851562500e+01 8.787397146224975586e-01 1.236096572875976562e+01 3.971911668777465820e+00 -9.971523284912109375e-01
4.066000000000000000e+03 1.260844993591308594e+01 7.976342201232910156e+00 -3.968791570514440536e-04 -2.250634279334917665e-04 -1.865827798610553145e-04 2.065536333248019218e-03
4.067000000000000000e+03 7.519128417968750000e+01 -2.766710472106933594e+01 -1.883626542985439301e-02 -8.518127724528312683e-03 -8.206318132579326630e-03 2.694765850901603699e-02
4.068000000000000000e+03 3.534313583374023438e+01 1.571332836151123047e+01 9.182696938514709473e-01 9.792174339294433594e+00 3.213133096694946289e+00 -1.123687624931335449e+00
4.069000000000000000e+03 4.111587524414062500e+01 -6.416756629943847656e+00 -2.508809804916381836e+00 7.556267738342285156e+00 1.514237403869628906e+00 -2.444747447967529297e+00
4.070000000000000000e+03 4.261009979248046875e+01 -8.341546058654785156e+00 -1.564614534378051758e+00 5.701059341430664062e+00 1.240933418273925781e+00 -1.860954046249389648e+00
4.071000000000000000e+03 5.746834564208984375e+01 -3.956401824951171875e+01 2.695604264736175537e-01 7.076621055603027344e-01 2.931667566299438477e-01 -6.364761292934417725e-02
4.072000000000000000e+03 5.645146369934082031e+00 -3.351453399658203125e+01 -9.704935550689697266e-02 -1.987203657627105713e-01 -8.873091638088226318e-02 1.834409385919570923e-01
4.073000000000000000e+03 3.822407150268554688e+01 -2.467910766601562500e+01 1.552661538124084473e+00 7.665058135986328125e+00 2.765316009521484375e+00 5.314760208129882812e-01
4.074000000000000000e+03 4.234669494628906250e+01 -2.769844627380371094e+01 9.615750908851623535e-01 8.283253669738769531e+00 2.773448705673217773e+00 -1.845265626907348633e-01
4.075000000000000000e+03 2.105052757263183594e+01 2.734355545043945312e+01 3.364531993865966797e-01 6.509503722190856934e-01 2.962210774421691895e-01 -6.439161896705627441e-01
4.076000000000000000e+03 7.563864135742187500e+01 -3.428135681152343750e+01 -6.307244766503572464e-04 -5.870874971151351929e-02 -1.780184172093868256e-02 5.563905090093612671e-02
4.077000000000000000e+03 4.021726226806640625e+01 -2.394760322570800781e+01 1.935947656631469727e+00 8.498200416564941406e+00 3.130244255065917969e+00 -8.105477690696716309e-02
4.078000000000000000e+03 3.974965667724609375e+01 -2.455356979370117188e+01 1.767931342124938965e+00 8.188846588134765625e+00 2.987033367156982422e+00 1.191425696015357971e-01
4.079000000000000000e+03 6.626750946044921875e+01 -3.200778961181640625e+01 -1.123821809887886047e-01 4.960617423057556152e-02 -1.883280277252197266e-02 1.177349537611007690e-01
4.080000000000000000e+03 3.909995269775390625e+01 -3.308154678344726562e+01 -7.823334932327270508e-01 6.080858707427978516e+00 1.589557647705078125e+00 6.443110108375549316e-01
4.081000000000000000e+03 3.879636764526367188e+01 -2.602756690979003906e+01 1.234644055366516113e+00 7.501350879669189453e+00 2.620798349380493164e+00 5.488952994346618652e-01
4.082000000000000000e+03 2.891732788085937500e+01 2.740464782714843750e+01 -2.890782952308654785e-01 3.895896911621093750e+00 1.082045555114746094e+00 -1.397308707237243652e+00
4.083000000000000000e+03 4.196187973022460938e+01 -2.880614662170410156e+01 4.469237625598907471e-01 7.815940856933593750e+00 2.478859424591064453e+00 3.165856376290321350e-02
4.084000000000000000e+03 4.324377059936523438e+01 -2.781757545471191406e+01 9.785017371177673340e-01 8.509778976440429688e+00 2.846484184265136719e+00 -4.796313941478729248e-01
4.085000000000000000e+03 1.559463214874267578e+01 2.586156463623046875e+01 2.189162373542785645e-02 1.360043436288833618e-01 4.736879095435142517e-02 3.058153088204562664e-04
4.086000000000000000e+03 4.130005264282226562e+01 -2.635641288757324219e+01 1.448628187179565430e+00 8.307518005371093750e+00 2.926843881607055664e+00 -7.645838893949985504e-03
4.087000000000000000e+03 6.228153991699218750e+01 2.538461303710937500e+01 -5.135463476181030273e-01 1.823593139648437500e+00 3.930140733718872070e-01 -3.869952857494354248e-01
4.088000000000000000e+03 6.287840652465820312e+01 2.342986297607421875e+01 -4.670404791831970215e-01 2.298804759979248047e+00 5.495292544364929199e-01 -2.645967006683349609e-01
4.089000000000000000e+03 6.449191284179687500e+01 2.104041290283203125e+01 3.278000513091683388e-03 2.671353101730346680e+00 8.023893237113952637e-01 1.783083826303482056e-01
4.090000000000000000e+03 3.323905181884765625e+01 -3.281768035888671875e+01 -2.474558353424072266e-01 3.619539976119995117e+00 1.011625289916992188e+00 1.322941541671752930e+00
4.091000000000000000e+03 1.816935920715332031e+01 -3.436890792846679688e+01 -1.529706865549087524e-01 6.861667633056640625e-01 1.599588096141815186e-01 -2.937089204788208008e-01
4.092000000000000000e+03 5.419596481323242188e+01 2.578493499755859375e+01 -1.250781957060098648e-02 4.456395208835601807e-01 1.299395114183425903e-01 -1.613873802125453949e-02
4.093000000000000000e+03 5.346036529541015625e+01 2.490798377990722656e+01 -8.836476504802703857e-02 3.375002741813659668e-01 7.474065572023391724e-02 7.447963207960128784e-02
4.094000000000000000e+03 5.546903991699218750e+01 -3.730903244018554688e+01 2.172614336013793945e-01 9.188553094863891602e-01 3.408350050449371338e-01 -4.020650684833526611e-01
4.095000000000000000e+03 7.267346191406250000e+01 4.127938842773437500e+01 -1.025474146008491516e-01 4.173085093498229980e-01 9.442832320928573608e-02 2.867707982659339905e-02
4.096000000000000000e+03 7.438191986083984375e+01 3.544350051879882812e+01 -9.586665034294128418e-02 2.590950131416320801e-01 4.896851256489753723e-02 1.668160259723663330e-01
4.097000000000000000e+03 3.132651519775390625e+01 2.520541572570800781e+01 -2.800037860870361328e-01 5.480573177337646484e+00 1.560170769691467285e+00 -1.092538475990295410e+00
4.098000000000000000e+03 3.259334182739257812e+01 -3.510000610351562500e+01 -3.721668124198913574e-01 3.382825136184692383e+00 9.031975269317626953e-01 1.085430860519409180e+00
4.099000000000000000e+03 3.003891754150390625e+01 2.612902450561523438e+01 -2.725330889225006104e-01 4.663249015808105469e+00 1.317214727401733398e+00 -1.423925638198852539e+00
4.100000000000000000e+03 3.017100334167480469e+01 2.493346786499023438e+01 -3.624223917722702026e-02 5.073991298675537109e+00 1.511324644088745117e+00 -1.585638403892517090e+00
4.101000000000000000e+03 5.125151634216308594e+00 3.454069900512695312e+01 1.969246007502079010e-02 -1.081075891852378845e-01 -2.652453817427158356e-02 6.380906701087951660e-02
4.102000000000000000e+03 5.599840545654296875e+01 2.671601295471191406e+01 -2.172448486089706421e-02 6.264927983283996582e-01 1.814305037260055542e-01 -2.634571790695190430e-01
4.103000000000000000e+03 4.476025772094726562e+01 -3.389587402343750000e+01 -9.724612832069396973e-01 6.020000457763671875e+00 1.514261722564697266e+00 -7.604113817214965820e-01
4.104000000000000000e+03 4.265386199951171875e+01 -2.993594169616699219e+01 -3.225541440770030022e-03 7.590631008148193359e+00 2.276221513748168945e+00 -1.374054253101348877e-01
4.105000000000000000e+03 6.162724494934082031e+00 -3.523747253417968750e+01 -1.048236712813377380e-01 -1.317917555570602417e-01 -7.098463177680969238e-02 1.459497362375259399e-01
4.106000000000000000e+03 3.414740371704101562e+01 -3.440354156494140625e+01 -4.700507521629333496e-01 3.974267959594726562e+00 1.051265120506286621e+00 1.126053094863891602e+00
4.107000000000000000e+03 5.424661254882812500e+01 -3.911948394775390625e+01 5.455221980810165405e-02 1.577702999114990234e+00 4.896765649318695068e-01 -3.634580075740814209e-01
4.108000000000000000e+03 6.266696929931640625e+00 3.523281860351562500e+01 3.779753670096397400e-02 -4.281079396605491638e-02 -1.503976760432124138e-03 5.569840967655181885e-02
4.109000000000000000e+03 7.220354461669921875e+01 3.608579254150390625e+01 -1.463802605867385864e-01 4.506812989711761475e-01 9.129031002521514893e-02 1.511702984571456909e-01
4.110000000000000000e+03 5.720883560180664062e+01 2.655320167541503906e+01 -9.389661252498626709e-02 7.137222886085510254e-01 1.859477013349533081e-01 -4.340481758117675781e-01
4.111000000000000000e+03 2.853223609924316406e+01 -3.599740600585937500e+01 6.374429911375045776e-02 1.694818854331970215e+00 5.275689363479614258e-01 5.236902236938476562e-01
4.112000000000000000e+03 3.089006042480468750e+01 -3.509931182861328125e+01 -1.892825216054916382e-01 2.668772697448730469e+00 7.438470125198364258e-01 9.374012947082519531e-01
4.113000000000000000e+03 7.531375408172607422e+00 3.636018371582031250e+01 4.922857135534286499e-02 4.428544268012046814e-02 2.805420383810997009e-02 3.951417282223701477e-02
4.114000000000000000e+03 7.385037994384765625e+01 -3.605060195922851562e+01 1.526855211704969406e-02 -5.408412963151931763e-02 -1.164467260241508484e-02 6.780870258808135986e-02
4.115000000000000000e+03 1.105625820159912109e+01 -3.754632949829101562e+01 -1.525658369064331055e-01 3.413748145103454590e-01 5.664269626140594482e-02 -2.643055748194456100e-03
4.116000000000000000e+03 7.892920017242431641e+00 -3.853467559814453125e+01 -1.131822764873504639e-01 5.024360492825508118e-03 -3.244737535715103149e-02 6.070261821150779724e-02
4.117000000000000000e+03 2.352166557312011719e+01 -6.156152725219726562e+00 -8.633803576231002808e-02 2.751220464706420898e-01 5.663520470261573792e-02 8.400240540504455566e-01
4.118000000000000000e+03 2.408066749572753906e+01 -5.835302352905273438e+00 -1.364128440618515015e-01 2.518904209136962891e-01 3.464327007532119751e-02 8.879497647285461426e-01
4.119000000000000000e+03 3.011601066589355469e+01 -4.812869548797607422e+00 1.391989439725875854e-01 1.242019057273864746e+00 4.143653810024261475e-01 6.537945270538330078e-01
4.120000000000000000e+03 3.519829940795898438e+01 -8.955335617065429688e+00 -1.966883659362792969e+00 8.176304817199707031e+00 1.862826466560363770e+00 -1.149290323257446289e+00
4.121000000000000000e+03 3.799084091186523438e+01 -1.058071041107177734e+01 -9.778758883476257324e-01 8.693429946899414062e+00 2.314666271209716797e+00 -1.374711036682128906e+00
4.122000000000000000e+03 5.709114456176757812e+01 -6.659619331359863281e+00 -3.269127905368804932e-01 1.651327371597290039e+00 3.973243534564971924e-01 1.239717960357666016e+00
4.123000000000000000e+03 4.567807006835937500e+01 -9.113770484924316406e+00 -5.634718537330627441e-01 2.918908119201660156e+00 7.066308856010437012e-01 -2.838685810565948486e-01
4.124000000000000000e+03 1.274456787109375000e+01 -2.536212539672851562e+01 5.752593278884887695e-03 1.380393147468566895e+00 4.158437252044677734e-01 -9.664876386523246765e-03
4.125000000000000000e+03 7.092427062988281250e+01 -2.347920989990234375e+01 -2.164603956043720245e-02 2.242370042949914932e-03 -5.821100901812314987e-03 -1.827320520533248782e-04
4.126000000000000000e+03 7.407963562011718750e+01 -2.239869880676269531e+01 -8.517850190401077271e-03 -1.562241697683930397e-03 -3.024027450010180473e-03 1.853306079283356667e-03
4.127000000000000000e+03 3.296101379394531250e+01 -3.331760883331298828e+00 -1.971824467182159424e-01 5.565605163574218750e+00 1.610526800155639648e+00 5.665177702903747559e-01
4.128000000000000000e+03 3.527505493164062500e+01 1.083568930625915527e-01 1.174039363861083984e+00 1.070598602294921875e+01 3.564007520675659180e+00 -5.188534501940011978e-03
4.129000000000000000e+03 1.286073780059814453e+01 6.318242073059082031e+00 -2.700964978430420160e-05 -1.946348784258589149e-04 -6.649336137343198061e-05 1.551275490783154964e-03
4.130000000000000000e+03 7.546829986572265625e+01 -2.273601341247558594e+01 -6.779505871236324310e-03 -2.108162734657526016e-03 -2.666300628334283829e-03 2.579071791842579842e-03
4.131000000000000000e+03 4.283897399902343750e+01 -1.589192485809326172e+01 1.943421602249145508e+00 8.211241722106933594e+00 3.046399116516113281e+00 -4.832346737384796143e-01
4.132000000000000000e+03 3.967066192626953125e+01 -1.741320037841796875e+01 1.837641596794128418e+00 8.804888725280761719e+00 3.192759037017822266e+00 -1.225953221321105957e+00
4.133000000000000000e+03 7.056597137451171875e+01 -2.406363868713378906e+01 -2.652348391711711884e-02 4.613871686160564423e-03 -6.572883576154708862e-03 -8.249432430602610111e-04
4.134000000000000000e+03 7.263143920898437500e+01 -2.349409103393554688e+01 -1.671335287392139435e-02 5.768319242633879185e-04 -4.840956535190343857e-03 2.797861117869615555e-03
4.135000000000000000e+03 7.539707946777343750e+01 -2.345583915710449219e+01 -8.024898357689380646e-03 -2.709897002205252647e-03 -3.220438724383711815e-03 4.795286804437637329e-03
4.136000000000000000e+03 2.227736473083496094e+01 -6.551044940948486328e+00 -1.479051914066076279e-02 3.101775348186492920e-01 8.861610293388366699e-02 7.644926905632019043e-01
4.137000000000000000e+03 1.391674995422363281e+01 6.331454277038574219e+00 -3.648636629804968834e-04 5.006121355108916759e-04 4.072453157277777791e-05 1.320539973676204681e-03
4.138000000000000000e+03 1.368287372589111328e+01 6.985558509826660156e+00 -1.906091638375073671e-04 6.227737758308649063e-04 1.296493865083903074e-04 1.418960746377706528e-03
4.139000000000000000e+03 1.091987419128417969e+01 1.599362754821777344e+01 -3.018244728446006775e-02 -7.009375840425491333e-04 -9.265015833079814911e-03 -1.376071851700544357e-02
4.140000000000000000e+03 1.228269672393798828e+01 6.538823604583740234e+00 1.840589975472539663e-04 -5.665473145199939609e-05 3.822128201136365533e-05 1.322816824540495872e-03
4.141000000000000000e+03 6.589971923828125000e+01 2.010892868041992188e+01 2.185612618923187256e-01 2.365365266799926758e+00 7.751779556274414062e-01 3.962438404560089111e-01
4.142000000000000000e+03 6.433958530426025391e+00 -2.360334014892578125e+01 1.283953040838241577e-01 -8.047659695148468018e-02 1.437561120837926865e-02 3.183788955211639404e-01
4.143000000000000000e+03 1.153075408935546875e+01 7.351429939270019531e+00 2.547025796957314014e-04 -6.822955911047756672e-04 -1.282779121538624167e-04 1.598234986886382103e-03
4.144000000000000000e+03 4.725139617919921875e+01 -8.598380088806152344e+00 -6.313595175743103027e-01 1.467157602310180664e+00 2.507394254207611084e-01 6.230887174606323242e-01
4.145000000000000000e+03 5.345468521118164062e+01 -8.034713745117187500e+00 -6.880630850791931152e-01 1.421519041061401367e+00 2.200367748737335205e-01 2.106421947479248047e+00
4.146000000000000000e+03 6.527246093750000000e+01 -9.631431579589843750e+00 -7.710983157157897949e-01 -1.590715162456035614e-02 -2.361016422510147095e-01 -2.305972576141357422e-01
4.147000000000000000e+03 7.056376647949218750e+01 -2.939297485351562500e+01 -6.989537179470062256e-02 2.353203110396862030e-02 -1.390900276601314545e-02 5.208738148212432861e-02
4.148000000000000000e+03 7.502629852294921875e+01 -2.922267913818359375e+01 -2.147971838712692261e-02 -1.356260851025581360e-02 -1.051269844174385071e-02 3.937096148729324341e-02
4.149000000000000000e+03 4.358908843994140625e+01 -7.981890678405761719e+00 -1.476444125175476074e+00 4.473203659057617188e+00 8.990278840065002441e-01 -1.610679984092712402e+00
4.150000000000000000e+03 4.288158798217773438e+01 -7.696722984313964844e+00 -1.766229391098022461e+00 5.217817306518554688e+00 1.035476326942443848e+00 -1.980530500411987305e+00
4.151000000000000000e+03 6.084939193725585938e+01 -9.213198661804199219e+00 -5.922918319702148438e-01 6.572071313858032227e-01 1.947459205985069275e-02 6.151508092880249023e-01
4.152000000000000000e+03 6.049341583251953125e+01 -8.623426437377929688e+00 -4.933460354804992676e-01 7.929058670997619629e-01 8.986795693635940552e-02 6.817821264266967773e-01
4.153000000000000000e+03 3.397817230224609375e+01 2.111390495300292969e+01 7.272955775260925293e-01 7.218419551849365234e+00 2.383714675903320312e+00 -6.252011656761169434e-01
4.154000000000000000e+03 3.445172882080078125e+01 2.585318565368652344e+01 -5.549528002738952637e-01 5.452443122863769531e+00 1.469247102737426758e+00 -5.879715830087661743e-02
4.155000000000000000e+03 1.019233989715576172e+01 1.577620029449462891e+01 -2.876755222678184509e-02 3.017030248884111643e-04 -8.539754897356033325e-03 -8.700005710124969482e-03
4.156000000000000000e+03 5.451439380645751953e+00 3.028125953674316406e+01 1.902698725461959839e-02 -7.047321647405624390e-02 -1.543386839330196381e-02 1.024973765015602112e-01
4.157000000000000000e+03 7.993229866027832031e+00 -8.400949478149414062e+00 1.400940585881471634e-02 1.087311431765556335e-01 3.682216629385948181e-02 -5.877337455749511719e-01
4.158000000000000000e+03 1.347466564178466797e+01 -1.236753654479980469e+01 7.305477857589721680e-01 1.590287089347839355e+00 6.962504386901855469e-01 1.759401857852935791e-01
4.159000000000000000e+03 2.287192344665527344e+01 -5.287889480590820312e+00 -7.851925492286682129e-02 2.385262846946716309e-01 4.800210893154144287e-02 8.289899826049804688e-01
4.160000000000000000e+03 1.194538974761962891e+01 -6.707392215728759766e+00 -1.952178180217742920e-01 4.533430337905883789e-01 7.743757218122482300e-02 -3.167595565319061279e-01
4.161000000000000000e+03 1.028110408782958984e+01 -6.030488967895507812e+00 -2.662289142608642578e-01 2.451251298189163208e-01 -6.331139709800481796e-03 -4.556964337825775146e-01
4.162000000000000000e+03 5.893521118164062500e+01 -1.083151340484619141e+01 -5.498489141464233398e-01 6.777489185333251953e-01 3.836999088525772095e-02 7.151704430580139160e-01
4.163000000000000000e+03 5.872402954101562500e+01 -9.840649604797363281e+00 -4.772268235683441162e-01 8.711522221565246582e-01 1.181776151061058044e-01 9.044334292411804199e-01
4.164000000000000000e+03 1.003011608123779297e+01 6.753291606903076172e+00 3.622974036261439323e-04 -1.649026176892220974e-03 -3.860186261590570211e-04 1.017890870571136475e-03
4.165000000000000000e+03 5.338475227355957031e+00 -2.941111755371093750e+01 -6.814923137426376343e-02 -2.532398402690887451e-01 -9.641671925783157349e-02 2.882275283336639404e-01
4.166000000000000000e+03 4.724902153015136719e+00 -2.955279922485351562e+01 -5.539619550108909607e-02 -3.903003931045532227e-01 -1.337089836597442627e-01 2.663035690784454346e-01
4.167000000000000000e+03 6.840914916992187500e+01 -3.005686378479003906e+01 -1.071517392992973328e-01 4.173048958182334900e-02 -1.962637528777122498e-02 6.369328498840332031e-02
4.168000000000000000e+03 6.756800079345703125e+01 -2.973991584777832031e+01 -1.279731392860412598e-01 4.654555022716522217e-02 -2.442827820777893066e-02 5.491554364562034607e-02
4.169000000000000000e+03 1.396453094482421875e+01 -1.075453186035156250e+01 5.081439614295959473e-01 1.289257049560546875e+00 5.392202734947204590e-01 1.109214201569557190e-01
4.170000000000000000e+03 4.047019577026367188e+01 1.750776481628417969e+01 5.049152970314025879e-01 4.803631782531738281e+00 1.592564105987548828e+00 1.265694737434387207e+00
4.171000000000000000e+03 5.824263095855712891e+00 -2.883045196533203125e+01 -7.337234914302825928e-02 -1.857849806547164917e-01 -7.774719595909118652e-02 3.031542897224426270e-01
4.172000000000000000e+03 5.792756557464599609e+00 -6.970320701599121094e+00 -8.118562400341033936e-02 -1.673426479101181030e-01 -7.455848157405853271e-02 -5.715955495834350586e-01
4.173000000000000000e+03 6.508371829986572266e+00 -6.854815483093261719e+00 -1.044896617531776428e-01 -8.834306895732879639e-02 -5.784981697797775269e-02 -5.819524526596069336e-01
4.174000000000000000e+03 7.258574485778808594e+00 -6.834377288818359375e+00 -1.192712336778640747e-01 -7.254035212099552155e-03 -3.795758262276649475e-02 -5.872959494590759277e-01
4.175000000000000000e+03 2.504220581054687500e+01 -5.968689918518066406e+00 -2.033207714557647705e-01 2.437984496355056763e-01 1.214330270886421204e-02 9.528855085372924805e-01
4.176000000000000000e+03 4.952517318725585938e+01 -1.116431999206542969e+01 1.036226868629455566e+00 1.502178549766540527e+00 7.615216374397277832e-01 1.938061952590942383e+00
4.177000000000000000e+03 5.088675689697265625e+01 -1.183831882476806641e+01 1.391550064086914062e+00 1.072907805442810059e+00 7.393373847007751465e-01 2.055788040161132812e+00
4.178000000000000000e+03 9.509863853454589844e+00 -6.052264213562011719e+00 -2.482705265283584595e-01 1.805443465709686279e-01 -2.031785622239112854e-02 -5.054121017456054688e-01
4.179000000000000000e+03 7.536800384521484375e+01 -2.839194488525390625e+01 -1.815683580935001373e-02 -1.262775622308254242e-02 -9.235377423465251923e-03 3.162782266736030579e-02
4.180000000000000000e+03 7.397612762451171875e+01 -2.914322662353515625e+01 -2.997306920588016510e-02 -5.771580152213573456e-03 -1.072339434176683426e-02 4.328849911689758301e-02
4.181000000000000000e+03 1.043464279174804688e+01 -7.525505542755126953e+00 -8.312045782804489136e-02 3.720641732215881348e-01 8.668311685323715210e-02 -4.582152664661407471e-01
4.182000000000000000e+03 4.501568984985351562e+01 -9.496779441833496094e+00 -4.767824113368988037e-01 3.795871257781982422e+00 9.957266449928283691e-01 -5.892970561981201172e-01
4.183000000000000000e+03 9.666411399841308594e+00 -7.549284458160400391e+00 -7.796607166528701782e-02 2.847665250301361084e-01 6.204013526439666748e-02 -5.167431235313415527e-01
4.184000000000000000e+03 5.747300148010253906e+00 2.843256950378417969e+01 6.377257872372865677e-03 -4.762918129563331604e-02 -1.237557642161846161e-02 1.135834157466888428e-01
4.185000000000000000e+03 7.532095336914062500e+01 -2.421569252014160156e+01 -1.104265451431274414e-02 -2.813141793012619019e-03 -4.156738985329866409e-03 7.011821027845144272e-03
4.186000000000000000e+03 7.434480285644531250e+01 2.849663925170898438e+01 -1.154323816299438477e-01 1.362447440624237061e-01 6.243707612156867981e-03 3.826160728931427002e-01
4.187000000000000000e+03 5.513130664825439453e+00 -3.024071693420410156e+01 -8.303352445363998413e-02 -2.296307235956192017e-01 -9.379927814006805420e-02 2.697897255420684814e-01
4.188000000000000000e+03 7.441198730468750000e+01 2.507206916809082031e+01 -7.970703393220901489e-02 2.581184171140193939e-02 -1.616855710744857788e-02 4.938890337944030762e-01
4.189000000000000000e+03 7.451782226562500000e+01 2.419626045227050781e+01 -5.711765959858894348e-02 -3.634022176265716553e-02 -2.803736366331577301e-02 5.133839845657348633e-01
4.190000000000000000e+03 2.459783363342285156e+01 -4.569445610046386719e+00 2.756056562066078186e-02 1.369735598564147949e-01 4.936023429036140442e-02 9.158632755279541016e-01
4.191000000000000000e+03 2.562967872619628906e+01 -5.542772293090820312e+00 -9.202577918767929077e-02 1.884842664003372192e-01 2.893754653632640839e-02 1.039790272712707520e+00
4.192000000000000000e+03 1.156231021881103516e+01 -1.500463771820068359e+01 7.612394094467163086e-01 1.474801540374755859e+00 6.708122491836547852e-01 1.245841197669506073e-02
4.193000000000000000e+03 7.422631072998046875e+01 -2.563236236572265625e+01 -2.060546167194843292e-02 -1.081660157069563866e-03 -6.506136618554592133e-03 1.544069033116102219e-02
4.194000000000000000e+03 7.241083526611328125e+01 3.367335891723632812e+01 -1.672936826944351196e-01 4.424879848957061768e-01 8.255829662084579468e-02 2.189907282590866089e-01
4.195000000000000000e+03 7.379438018798828125e+01 2.981885337829589844e+01 -1.404759883880615234e-01 2.461355626583099365e-01 3.169786930084228516e-02 3.437223434448242188e-01
4.196000000000000000e+03 7.478449249267578125e+01 2.339551162719726562e+01 -3.682539984583854675e-02 -1.529665142297744751e-01 -5.693757161498069763e-02 5.089710950851440430e-01
4.197000000000000000e+03 7.536159515380859375e+01 2.360497856140136719e+01 -3.683450445532798767e-02 -2.807494699954986572e-01 -9.527519345283508301e-02 4.655764400959014893e-01
4.198000000000000000e+03 5.187254333496093750e+01 -1.146408557891845703e+01 9.840620160102844238e-01 8.819224834442138672e-01 5.597953796386718750e-01 2.065711259841918945e+00
4.199000000000000000e+03 5.033195495605468750e+01 -8.865493774414062500e+00 -3.167241513729095459e-01 7.826321721076965332e-01 1.397724002599716187e-01 2.135399341583251953e+00
4.200000000000000000e+03 1.524564170837402344e+01 -7.551759719848632812e+00 -3.460917621850967407e-02 7.678490281105041504e-01 2.199719548225402832e-01 1.756167411804199219e-01
4.201000000000000000e+03 7.439859008789062500e+01 -2.792898559570312500e+01 -2.488320879638195038e-02 -5.865756887942552567e-03 -9.224689565598964691e-03 3.155272454023361206e-02
4.202000000000000000e+03 5.366360664367675781e+00 -2.164112663269042969e+01 1.853716373443603516e-01 -4.041977226734161377e-01 -6.564782559871673584e-02 2.183651030063629150e-01
4.203000000000000000e+03 5.316099166870117188e+01 -1.164607620239257812e+01 8.184660077095031738e-01 7.256200909614562988e-01 4.632258117198944092e-01 1.835688471794128418e+00
4.204000000000000000e+03 5.468079376220703125e+01 -1.099716377258300781e+01 2.522030174732208252e-01 8.177612423896789551e-01 3.209892809391021729e-01 1.660926461219787598e+00
4.205000000000000000e+03 6.068235874176025391e+00 3.167059516906738281e+01 2.844154648482799530e-02 -5.092662945389747620e-02 -6.745525635778903961e-03 9.628722071647644043e-02
4.206000000000000000e+03 1.372026824951171875e+01 -6.581046581268310547e+00 -2.115574628114700317e-01 5.696886181831359863e-01 1.074393540620803833e-01 -8.784414827823638916e-02
4.207000000000000000e+03 7.213937377929687500e+01 2.645215797424316406e+01 -1.799887120723724365e-01 5.380674004554748535e-01 1.074236109852790833e-01 4.984254240989685059e-01
4.208000000000000000e+03 4.656598663330078125e+01 -1.366554069519042969e+01 2.001022338867187500e+00 4.837603092193603516e+00 2.051587581634521484e+00 1.366415262222290039e+00
4.209000000000000000e+03 4.745600891113281250e+01 -1.311135101318359375e+01 1.888035774230957031e+00 3.803363800048828125e+00 1.707419872283935547e+00 1.588545680046081543e+00
4.210000000000000000e+03 4.585988616943359375e+01 -1.330101680755615234e+01 1.504875183105468750e+00 5.259809970855712891e+00 2.029405355453491211e+00 8.393302559852600098e-01
4.211000000000000000e+03 7.469429779052734375e+01 1.747145652770996094e+01 1.255383938550949097e-01 -4.270882904529571533e-01 -9.046496450901031494e-02 4.288178980350494385e-01
4.212000000000000000e+03 7.470119476318359375e+01 1.669607162475585938e+01 1.412377208471298218e-01 -4.601850509643554688e-01 -9.568419307470321655e-02 3.964809477329254150e-01
4.213000000000000000e+03 7.413459014892578125e+01 2.308861351013183594e+01 -3.534598276019096375e-02 -9.532756172120571136e-03 -1.346362102776765823e-02 5.390046238899230957e-01
4.214000000000000000e+03 7.443582153320312500e+01 2.136246490478515625e+01 1.782945916056632996e-02 -1.619171947240829468e-01 -4.322632029652595520e-02 5.333742499351501465e-01
4.215000000000000000e+03 7.467892456054687500e+01 -2.866033172607421875e+01 -2.290774881839752197e-02 -8.842264302074909210e-03 -9.525003843009471893e-03 3.573477268218994141e-02
4.216000000000000000e+03 7.453242492675781250e+01 2.057203483581542969e+01 4.536947980523109436e-02 -2.250083833932876587e-01 -5.389167368412017822e-02 5.222606658935546875e-01
4.217000000000000000e+03 5.721955776214599609e+00 2.214084625244140625e+01 -4.341692104935646057e-02 -2.290352946147322655e-03 -1.371218264102935791e-02 7.505243271589279175e-02
4.218000000000000000e+03 7.468381500244140625e+01 1.515343093872070312e+01 1.709029972553253174e-01 -5.062540769577026367e-01 -1.006053164601325989e-01 3.216284513473510742e-01
4.219000000000000000e+03 5.650402069091796875e+01 -1.140745353698730469e+01 -2.824154496192932129e-02 6.743784546852111816e-01 1.938410848379135132e-01 1.143643140792846680e+00
4.220000000000000000e+03 5.414120197296142578e+00 -2.236690711975097656e+01 1.488108187913894653e-01 -3.812103569507598877e-01 -6.971986591815948486e-02 2.556807994842529297e-01
4.221000000000000000e+03 4.800747871398925781e+00 2.103621673583984375e+01 -3.263255208730697632e-02 -1.090949121862649918e-02 -1.306261308491230011e-02 5.706824734807014465e-02
4.222000000000000000e+03 7.397441864013671875e+01 1.826064491271972656e+01 1.309705227613449097e-01 -1.659666746854782104e-01 -1.049884594976902008e-02 4.902803003787994385e-01
4.223000000000000000e+03 7.449531555175781250e+01 -2.482061576843261719e+01 -1.662426628172397614e-02 -1.784001011401414871e-03 -5.522480234503746033e-03 9.975152090191841125e-03
4.224000000000000000e+03 7.540740203857421875e+01 1.509458827972412109e+01 1.363527029752731323e-01 -7.686433792114257812e-01 -1.896871924400329590e-01 2.913580536842346191e-01
4.225000000000000000e+03 7.465526580810546875e+01 1.360359954833984375e+01 1.954989135265350342e-01 -5.559700727462768555e-01 -1.081413403153419495e-01 2.350305914878845215e-01
4.226000000000000000e+03 7.469959259033203125e+01 1.592514038085937500e+01 1.565450578927993774e-01 -4.904016554355621338e-01 -1.001569777727127075e-01 3.577349483966827393e-01
4.227000000000000000e+03 7.475199127197265625e+01 1.050098514556884766e+01 2.124233394861221313e-01 -6.456957459449768066e-01 -1.299817264080047607e-01 3.850092738866806030e-02
4.228000000000000000e+03 7.474215698242187500e+01 9.712617874145507812e+00 2.062439769506454468e-01 -6.593483686447143555e-01 -1.359313130378723145e-01 -1.718375645577907562e-02
4.229000000000000000e+03 6.414244842529296875e+01 -9.616776466369628906e+00 -7.452853918075561523e-01 -4.627738520503044128e-02 -2.374688386917114258e-01 2.299362048506736755e-02
4.230000000000000000e+03 6.315676116943359375e+01 -8.531573295593261719e+00 -4.988839924335479736e-01 3.258146941661834717e-01 -5.192079022526741028e-02 2.303734868764877319e-01
4.231000000000000000e+03 7.473896789550781250e+01 1.128464984893798828e+01 2.025067210197448730e-01 -6.312928795814514160e-01 -1.286358386278152466e-01 8.928762376308441162e-02
4.232000000000000000e+03 7.448343658447265625e+01 2.669172668457031250e+01 -1.029202714562416077e-01 6.925794482231140137e-02 -1.009869761765003204e-02 4.433548748493194580e-01
4.233000000000000000e+03 7.486544799804687500e+01 -3.445144414901733398e+00 -1.229337789118289948e-02 -3.832965195178985596e-01 -1.186769679188728333e-01 -5.405858755111694336e-01
4.234000000000000000e+03 7.475445556640625000e+01 8.144948005676269531e+00 1.964763104915618896e-01 -6.672664880752563477e-01 -1.412370651960372925e-01 -1.143720373511314392e-01
4.235000000000000000e+03 7.546087646484375000e+01 8.051127433776855469e+00 1.533300429582595825e-01 -9.145278334617614746e-01 -2.283593416213989258e-01 -1.184059455990791321e-01
4.236000000000000000e+03 7.475728607177734375e+01 6.626773834228515625e+00 1.854146420955657959e-01 -6.670466065406799316e-01 -1.444895863533020020e-01 -2.055287808179855347e-01
4.237000000000000000e+03 7.405211639404296875e+01 8.215870857238769531e+00 2.401031702756881714e-01 -4.300191700458526611e-01 -5.697480216622352600e-02 -1.071986854076385498e-01
4.238000000000000000e+03 7.478086853027343750e+01 -2.768409967422485352e+00 8.085965178906917572e-03 -4.031240940093994141e-01 -1.185114383697509766e-01 -5.437167286872863770e-01
4.239000000000000000e+03 7.438362121582031250e+01 3.693154335021972656e+00 1.675680130720138550e-01 -5.094169378280639648e-01 -1.025546789169311523e-01 -3.767307400703430176e-01
4.240000000000000000e+03 7.412406158447265625e+01 3.026354074478149414e+00 1.691871434450149536e-01 -4.302782118320465088e-01 -7.832732051610946655e-02 -4.123230278491973877e-01
4.241000000000000000e+03 7.455353546142578125e+01 4.403366088867187500e+00 1.688890457153320312e-01 -5.717372298240661621e-01 -1.208544522523880005e-01 -3.340923488140106201e-01
4.242000000000000000e+03 7.473905944824218750e+01 8.926782608032226562e+00 1.986266523599624634e-01 -6.609179377555847168e-01 -1.386873871088027954e-01 -6.674470752477645874e-02
4.243000000000000000e+03 7.489708709716796875e+01 -4.787776470184326172e+00 -5.089006945490837097e-02 -3.173649013042449951e-01 -1.104764863848686218e-01 -5.286318063735961914e-01
4.244000000000000000e+03 7.376492309570312500e+01 2.412453651428222656e+00 1.713122576475143433e-01 -3.291196525096893311e-01 -4.734221845865249634e-02 -4.435247182846069336e-01
4.245000000000000000e+03 7.393862915039062500e+01 1.404363274574279785e+00 1.306809037923812866e-01 -3.632633090019226074e-01 -6.977472454309463501e-02 -4.812768101692199707e-01
4.246000000000000000e+03 7.384491729736328125e+01 4.115735888481140137e-01 1.135747283697128296e-01 -3.186020255088806152e-01 -6.150818988680839539e-02 -5.180255770683288574e-01
4.247000000000000000e+03 7.479756927490234375e+01 -5.496842384338378906e+00 -7.385168224573135376e-02 -2.706429660320281982e-01 -1.033483892679214478e-01 -5.173439383506774902e-01
4.248000000000000000e+03 7.547721099853515625e+01 -5.489736557006835938e+00 -6.050848215818405151e-02 -3.522036373615264893e-01 -1.238136366009712219e-01 -4.819656312465667725e-01
4.249000000000000000e+03 7.472779846191406250e+01 5.880992889404296875e+00 1.808823794126510620e-01 -6.498700976371765137e-01 -1.406963169574737549e-01 -2.507756948471069336e-01
4.250000000000000000e+03 7.466356658935546875e+01 5.138054847717285156e+00 1.754505336284637451e-01 -6.202383041381835938e-01 -1.334363371133804321e-01 -2.932953536510467529e-01
4.251000000000000000e+03 7.539214324951171875e+01 -1.841309666633605957e+00 2.569163963198661804e-02 -5.589956641197204590e-01 -1.599912047386169434e-01 -5.044390559196472168e-01
4.252000000000000000e+03 7.468120574951171875e+01 -2.077034950256347656e+00 2.636751905083656311e-02 -4.152348339557647705e-01 -1.166601926088333130e-01 -5.439260601997375488e-01
4.253000000000000000e+03 1.489110183715820312e+01 -6.918334007263183594e+00 -1.406414806842803955e-01 6.558742523193359375e-01 1.545698344707489014e-01 1.028071120381355286e-01
4.254000000000000000e+03 7.416666412353515625e+01 -1.291923820972442627e-01 8.921974152326583862e-02 -3.750417828559875488e-01 -8.574661612510681152e-02 -5.240990519523620605e-01
4.255000000000000000e+03 7.439205932617187500e+01 -7.320322394371032715e-01 6.456334888935089111e-02 -4.023404121398925781e-01 -1.013331189751625061e-01 -5.324921011924743652e-01
4.256000000000000000e+03 7.468058013916015625e+01 1.282771873474121094e+01 2.047532200813293457e-01 -5.804115533828735352e-01 -1.126974895596504211e-01 1.821547746658325195e-01
4.257000000000000000e+03 7.471071624755859375e+01 1.205641746520996094e+01 2.003612220287322998e-01 -6.056611537933349609e-01 -1.215899810194969177e-01 1.342916488647460938e-01
4.258000000000000000e+03 7.468856048583984375e+01 -6.264675617218017578e+00 -1.016676500439643860e-01 -2.250767797231674194e-01 -9.802333265542984009e-02 -5.024330615997314453e-01
4.259000000000000000e+03 1.404048156738281250e+01 -3.295175552368164062e+01 -2.630276978015899658e-01 7.420809864997863770e-01 1.437159776687622070e-01 -1.237435266375541687e-01
4.260000000000000000e+03 4.913102626800537109e+00 -2.564442634582519531e+01 2.247647382318973541e-02 -4.334205687046051025e-01 -1.232832297682762146e-01 3.216909170150756836e-01
4.261000000000000000e+03 5.490228652954101562e+00 -2.719212913513183594e+01 -3.364126384258270264e-02 -2.550630569458007812e-01 -8.661130070686340332e-02 3.246324062347412109e-01
4.262000000000000000e+03 4.849717617034912109e+00 2.673441696166992188e+01 -8.676079101860523224e-03 -6.128097325563430786e-02 -2.098711580038070679e-02 1.053994372487068176e-01
4.263000000000000000e+03 5.358032703399658203e+00 2.776910018920898438e+01 -2.908666501753032207e-04 -5.238530784845352173e-02 -1.580285094678401947e-02 1.107110828161239624e-01
4.264000000000000000e+03 4.844039916992187500e+00 2.514129829406738281e+01 -1.882338151335716248e-02 -4.428183287382125854e-02 -1.893156394362449646e-02 9.785498678684234619e-02
4.265000000000000000e+03 3.590144348144531250e+01 1.309797859191894531e+01 8.438695073127746582e-01 1.115453433990478516e+01 3.599521160125732422e+00 -1.258216381072998047e+00
4.266000000000000000e+03 7.458632659912109375e+01 -9.485383033752441406e+00 -1.889618039131164551e-01 -7.839574664831161499e-02 -8.020726591348648071e-02 -3.640649020671844482e-01
4.267000000000000000e+03 5.269824504852294922e+00 -1.530105972290039062e+01 2.633347213268280029e-01 -4.603742063045501709e-01 -5.911184847354888916e-02 -2.543198764324188232e-01
4.268000000000000000e+03 5.952436923980712891e+00 6.301177978515625000e+00 6.280913366936147213e-04 -1.338126137852668762e-03 -2.130104548996314406e-04 -9.228404378518462181e-04
4.269000000000000000e+03 6.900050640106201172e+00 6.836952209472656250e+00 5.913646891713142395e-04 -2.038254868239164352e-03 -4.340670420788228512e-04 -4.916721372865140438e-04
4.270000000000000000e+03 5.457039833068847656e+00 9.247778892517089844e+00 -1.410957793268607929e-05 -1.998651307076215744e-03 -6.038282881490886211e-04 -1.314008142799139023e-03
4.271000000000000000e+03 7.461219787597656250e+01 -7.899421691894531250e+00 -1.520491242408752441e-01 -1.407288461923599243e-01 -8.783338963985443115e-02 -4.477739930152893066e-01
4.272000000000000000e+03 7.462752532958984375e+01 -7.077152729034423828e+00 -1.231178194284439087e-01 -1.819419264793395996e-01 -9.151792526245117188e-02 -4.801247417926788330e-01
4.273000000000000000e+03 7.389189147949218750e+01 -7.974054813385009766e+00 -1.856028884649276733e-01 -7.690589874982833862e-02 -7.875263690948486328e-02 -4.685952663421630859e-01
4.274000000000000000e+03 4.657213211059570312e+00 -1.852299880981445312e+01 2.092211842536926270e-01 -6.520162820816040039e-01 -1.328385323286056519e-01 5.968396086245775223e-03
4.275000000000000000e+03 5.278346538543701172e+00 -1.608921623229980469e+01 2.725697755813598633e-01 -4.669027924537658691e-01 -5.829990655183792114e-02 -1.855108588933944702e-01
4.276000000000000000e+03 5.366244792938232422e+00 1.490927219390869141e+01 -1.375096850097179413e-02 -1.738611143082380295e-03 -4.646874032914638519e-03 6.299954373389482498e-03
4.277000000000000000e+03 5.890847206115722656e+00 1.735553169250488281e+01 -3.027951903641223907e-02 2.761925570666790009e-03 -8.255277760326862335e-03 1.962258480489253998e-02
4.278000000000000000e+03 6.151435852050781250e+01 -8.819993019104003906e+00 -5.450848937034606934e-01 5.889306664466857910e-01 1.315373275429010391e-02 5.203114151954650879e-01
4.279000000000000000e+03 7.460765075683593750e+01 1.979764556884765625e+01 6.738714128732681274e-02 -2.859907448291778564e-01 -6.558108329772949219e-02 5.051144957542419434e-01
4.280000000000000000e+03 5.172137260437011719e+00 1.173640441894531250e+01 -3.556388663128018379e-03 -2.328620525076985359e-03 -1.765502733178436756e-03 -6.448530621128156781e-05
4.281000000000000000e+03 4.631300926208496094e+00 1.101649761199951172e+01 -1.890772255137562752e-03 -1.626889104954898357e-03 -1.055298373103141785e-03 -7.567675202153623104e-04
4.282000000000000000e+03 4.765308856964111328e+00 1.042468738555908203e+01 -9.976370492950081825e-04 -2.087606349959969521e-03 -9.255729964934289455e-04 -1.160815707407891750e-03
4.283000000000000000e+03 1.014950942993164062e+01 1.188030338287353516e+01 -3.155434271320700645e-03 -4.541806876659393311e-03 -2.309172414243221283e-03 -3.207816189387813210e-05
4.284000000000000000e+03 4.669891357421875000e+00 -1.933029937744140625e+01 1.955921500921249390e-01 -6.464488506317138672e-01 -1.352570056915283203e-01 6.472858786582946777e-02
4.285000000000000000e+03 6.655635356903076172e+00 -1.782060813903808594e+01 3.687411248683929443e-01 -8.492929488420486450e-02 8.514355123043060303e-02 -4.003278166055679321e-02
4.286000000000000000e+03 5.411738395690917969e+00 1.404957103729248047e+01 -9.662315249443054199e-03 -2.505521988496184349e-03 -3.650351194664835930e-03 3.351983847096562386e-03
4.287000000000000000e+03 5.190285205841064453e+00 -9.622846603393554688e+00 6.382580846548080444e-02 -3.308992981910705566e-01 -8.012204617261886597e-02 -5.510722398757934570e-01
4.288000000000000000e+03 5.788722991943359375e+00 8.181975364685058594e+00 2.549497294239699841e-04 -1.680145738646388054e-03 -4.275588144082576036e-04 -1.120380009524524212e-03
4.289000000000000000e+03 4.738296508789062500e+00 1.940984153747558594e+01 -2.870120480656623840e-02 -5.142326466739177704e-03 -1.015305891633033752e-02 3.771422803401947021e-02
4.290000000000000000e+03 5.711757659912109375e+00 2.017762184143066406e+01 -4.121536388993263245e-02 3.124151611700654030e-03 -1.142736338078975677e-02 4.848698154091835022e-02
4.291000000000000000e+03 5.312858581542968750e+00 1.572714328765869141e+01 -1.635349355638027191e-02 -1.701634260825812817e-03 -5.416538566350936890e-03 9.303937666118144989e-03
4.292000000000000000e+03 5.202934265136718750e+00 1.242474842071533203e+01 -4.097755532711744308e-03 -2.727262908592820168e-03 -2.047505462542176247e-03 3.033300454262644053e-04
4.293000000000000000e+03 5.330311298370361328e+00 -1.772638511657714844e+01 2.715565562248229980e-01 -4.601532220840454102e-01 -5.657899752259254456e-02 -5.437467247247695923e-02
4.294000000000000000e+03 5.097800254821777344e+00 1.004598522186279297e+01 -6.018189014866948128e-04 -1.986285438761115074e-03 -7.764312904328107834e-04 -1.412688056007027626e-03
4.295000000000000000e+03 5.764245986938476562e+01 -5.881168842315673828e+00 -1.607769876718521118e-01 1.693380475044250488e+00 4.597810208797454834e-01 1.095548391342163086e+00
4.296000000000000000e+03 4.616665840148925781e+00 -1.285116100311279297e+01 1.582538932561874390e-01 -5.685878396034240723e-01 -1.231001764535903931e-01 -4.003574848175048828e-01
4.297000000000000000e+03 9.923927307128906250e+00 1.722110939025878906e+01 -5.282609164714813232e-02 1.261905115097761154e-02 -1.206211186945438385e-02 -7.493332028388977051e-03
4.298000000000000000e+03 6.108111858367919922e+00 1.503301715850830078e+01 -1.598792523145675659e-02 -1.279894495382905006e-03 -5.180345848202705383e-03 5.615068133920431137e-03
4.299000000000000000e+03 5.213367462158203125e+00 1.725174331665039062e+01 -2.352019399404525757e-02 -1.164744142442941666e-03 -7.405481301248073578e-03 1.895176619291305542e-02
4.300000000000000000e+03 1.039805316925048828e+01 -1.874027824401855469e+01 6.209808588027954102e-01 1.225500702857971191e+00 5.539444684982299805e-01 5.943753942847251892e-02
4.301000000000000000e+03 5.844105720520019531e+00 1.950600624084472656e+01 -4.029439389705657959e-02 4.433073569089174271e-03 -1.075839623808860779e-02 3.941571339964866638e-02
4.302000000000000000e+03 4.851960182189941406e+00 -2.642581939697265625e+01 -2.788776997476816177e-03 -4.293048381805419922e-01 -1.296280771493911743e-01 3.185879588127136230e-01
4.303000000000000000e+03 7.039113998413085938e+00 -2.409181594848632812e+01 1.141591668128967285e-01 7.287354767322540283e-02 5.610981583595275879e-02 3.349171876907348633e-01
4.304000000000000000e+03 5.204544544219970703e+00 -1.039460372924804688e+01 9.883733838796615601e-02 -3.575751781463623047e-01 -7.762135565280914307e-02 -5.312517285346984863e-01
4.305000000000000000e+03 5.526206016540527344e+00 -2.311228561401367188e+01 1.268460452556610107e-01 -3.373241722583770752e-01 -6.314343959093093872e-02 2.868750393390655518e-01
4.306000000000000000e+03 5.238489627838134766e+00 -8.139724731445312500e+00 -9.872256778180599213e-03 -2.703545391559600830e-01 -8.406803756952285767e-02 -5.642322301864624023e-01
4.307000000000000000e+03 5.309151649475097656e+00 -1.450467872619628906e+01 2.415473014116287231e-01 -4.414910078048706055e-01 -5.998311191797256470e-02 -3.105954825878143311e-01
4.308000000000000000e+03 5.340091705322265625e+00 -1.367963695526123047e+01 2.256596535444259644e-01 -4.238887727260589600e-01 -5.946873500943183899e-02 -3.710398674011230469e-01
4.309000000000000000e+03 6.031350612640380859e+00 -1.689997863769531250e+01 3.285124897956848145e-01 -2.617173492908477783e-01 2.003854140639305115e-02 -1.257192641496658325e-01
4.310000000000000000e+03 5.233858108520507812e+00 -1.119119071960449219e+01 1.331286430358886719e-01 -3.760978281497955322e-01 -7.289075851440429688e-02 -5.052385926246643066e-01
4.311000000000000000e+03 5.380278110504150391e+00 -2.090550994873046875e+01 2.005716562271118164e-01 -4.220294952392578125e-01 -6.643734872341156006e-02 1.775560677051544189e-01
4.312000000000000000e+03 5.385266780853271484e+00 -2.014410400390625000e+01 2.253621518611907959e-01 -4.347954988479614258e-01 -6.283000856637954712e-02 1.268510669469833374e-01
4.313000000000000000e+03 5.825351715087890625e+00 2.353871345520019531e+01 -3.764992579817771912e-02 -7.388216909021139145e-03 -1.351144257932901382e-02 9.223781526088714600e-02
4.314000000000000000e+03 5.357342720031738281e+00 -7.419771194458007812e+00 -4.994084686040878296e-02 -2.286128252744674683e-01 -8.356609940528869629e-02 -5.637094974517822266e-01
4.315000000000000000e+03 7.403152465820312500e+01 2.768915939331054688e+01 -1.245334669947624207e-01 1.743492931127548218e-01 1.494474709033966064e-02 4.206919074058532715e-01
4.316000000000000000e+03 1.107209396362304688e+01 2.379448509216308594e+01 -1.112588793039321899e-01 9.687402099370956421e-02 -4.315456841140985489e-03 9.797928482294082642e-02
4.317000000000000000e+03 6.366420745849609375e+00 2.450204086303710938e+01 -3.527117520570755005e-02 -3.763610147871077061e-04 -1.069426070898771286e-02 1.060701534152030945e-01
4.318000000000000000e+03 5.815920829772949219e+00 -2.481031608581542969e+01 5.894732102751731873e-02 -2.184659242630004883e-01 -4.785557836294174194e-02 3.295253217220306396e-01
4.319000000000000000e+03 6.070232391357421875e+00 -2.803139305114746094e+01 -5.896573141217231750e-02 -1.375377923250198364e-01 -5.895105749368667603e-02 3.153091073036193848e-01
4.320000000000000000e+03 3.138181877136230469e+01 -4.245035648345947266e+00 1.130781695246696472e-01 2.891282081604003906e+00 9.013080596923828125e-01 5.293946862220764160e-01
4.321000000000000000e+03 5.268311309814453125e+01 -7.217788219451904297e+00 -1.069804549217224121e+00 1.380499482154846191e+00 9.320846945047378540e-02 2.132064104080200195e+00
4.322000000000000000e+03 1.134185981750488281e+01 2.311530685424804688e+01 -1.340682953596115112e-01 9.380535036325454712e-02 -1.207888405770063400e-02 8.344466984272003174e-02
4.323000000000000000e+03 1.282742214202880859e+01 2.280437660217285156e+01 -1.784655302762985229e-01 9.716594964265823364e-02 -2.438987046480178833e-02 6.774058938026428223e-02
4.324000000000000000e+03 5.612401199340820312e+01 -1.038375186920166016e+01 -1.447975784540176392e-01 9.518603682518005371e-01 2.421188354492187500e-01 1.422546863555908203e+00
4.325000000000000000e+03 3.628970336914062500e+01 1.246352291107177734e+01 7.487065792083740234e-01 1.120141983032226562e+01 3.585037946701049805e+00 -1.024859309196472168e+00
4.326000000000000000e+03 4.251352691650390625e+01 -2.057932090759277344e+01 2.117548942565917969e+00 1.030529212951660156e+01 3.726852416992187500e+00 -2.992426156997680664e-01
4.327000000000000000e+03 1.626307296752929688e+01 -8.893178939819335938e+00 2.777521610260009766e-01 1.004752516746520996e+00 3.847514092922210693e-01 4.088631868362426758e-01
4.328000000000000000e+03 1.199337387084960938e+01 -7.403916835784912109e+00 -1.001189053058624268e-01 5.312252044677734375e-01 1.293318867683410645e-01 -3.119536638259887695e-01
4.329000000000000000e+03 4.101782226562500000e+01 -7.037128448486328125e+00 -2.414672851562500000e+00 7.555815696716308594e+00 1.542342901229858398e+00 -2.289749860763549805e+00
4.330000000000000000e+03 4.294968032836914062e+01 -1.500750637054443359e+01 1.597966432571411133e+00 7.753528118133544922e+00 2.805448532104492188e+00 -5.444490909576416016e-01
4.331000000000000000e+03 4.380611419677734375e+01 -1.510928344726562500e+01 1.759968400001525879e+00 7.634437561035156250e+00 2.818321704864501953e+00 -3.754400834441184998e-02
4.332000000000000000e+03 1.731968688964843750e+01 -5.608293533325195312e+00 -2.713486552238464355e-01 4.656749665737152100e-01 5.829789489507675171e-02 4.009089767932891846e-01
4.333000000000000000e+03 7.224494171142578125e+01 -3.061581230163574219e+01 -4.126817360520362854e-02 4.621211439371109009e-03 -1.099408790469169617e-02 6.549765914678573608e-02
4.334000000000000000e+03 3.419064331054687500e+01 -3.289528369903564453e+00 -5.944213271141052246e-01 7.485101222991943359e+00 2.067203998565673828e+00 2.933996319770812988e-01
4.335000000000000000e+03 3.397629547119140625e+01 -6.431636810302734375e+00 -1.996748805046081543e+00 6.603749752044677734e+00 1.382100343704223633e+00 -7.570390701293945312e-01
4.336000000000000000e+03 3.505313491821289062e+01 -7.490533828735351562e+00 -2.356752157211303711e+00 8.019852638244628906e+00 1.698930263519287109e+00 -1.057845115661621094e+00
4.337000000000000000e+03 4.411125946044921875e+01 1.961145973205566406e+01 3.275972902774810791e-01 2.172503232955932617e+00 7.500301599502563477e-01 1.145643711090087891e+00
4.338000000000000000e+03 6.540093421936035156e+00 3.251438522338867188e+01 4.363363236188888550e-02 -2.090456336736679077e-02 6.818721070885658264e-03 8.584541827440261841e-02
4.339000000000000000e+03 6.784279823303222656e+00 3.107094192504882812e+01 3.540365025401115417e-02 -1.635589823126792908e-02 5.714326165616512299e-03 9.949261695146560669e-02
4.340000000000000000e+03 1.954259681701660156e+01 -7.635129451751708984e+00 1.827695071697235107e-01 5.060741901397705078e-01 2.066531032323837280e-01 7.094511985778808594e-01
4.341000000000000000e+03 1.823950004577636719e+01 -6.340764999389648438e+00 -1.057005599141120911e-01 5.184246897697448730e-01 1.238172426819801331e-01 5.434634089469909668e-01
4.342000000000000000e+03 6.964550781250000000e+01 -2.922348785400390625e+01 -8.418748527765274048e-02 3.090409748256206512e-02 -1.598501577973365784e-02 4.869091138243675232e-02
4.343000000000000000e+03 4.071585464477539062e+01 -2.137709999084472656e+01 2.173859834671020508e+00 9.206666946411132812e+00 3.414158105850219727e+00 -4.319952428340911865e-01
4.344000000000000000e+03 4.150526809692382812e+01 -2.089463806152343750e+01 2.210914134979248047e+00 9.640964508056640625e+00 3.555563688278198242e+00 -4.295132160186767578e-01
4.345000000000000000e+03 7.353629302978515625e+01 -2.519779968261718750e+01 -2.458672039210796356e-02 1.485068118199706078e-03 -6.930495612323284149e-03 1.166927162557840347e-02
4.346000000000000000e+03 7.077026367187500000e+01 -2.512942886352539062e+01 -3.700433298945426941e-02 8.284036070108413696e-03 -8.616089820861816406e-03 4.325219430029392242e-03
4.347000000000000000e+03 1.908069801330566406e+01 -7.230486869812011719e+00 6.159973517060279846e-02 5.279396176338195801e-01 1.768617928028106689e-01 6.575893163681030273e-01
4.348000000000000000e+03 1.513584327697753906e+01 -6.106783390045166016e+00 -2.634740769863128662e-01 5.474145412445068359e-01 8.518213778734207153e-02 1.098236963152885437e-01
4.349000000000000000e+03 1.780880928039550781e+01 -8.652389526367187500e+00 3.220340609550476074e-01 8.181759715080261230e-01 3.420630097389221191e-01 6.230087876319885254e-01
4.350000000000000000e+03 3.706596374511718750e+01 1.327118873596191406e+01 5.622900724411010742e-01 9.912097930908203125e+00 3.142316341400146484e+00 -2.879204452037811279e-01
4.351000000000000000e+03 8.428504943847656250e+00 6.071498394012451172e+00 9.392480133101344109e-04 -1.584433135576546192e-03 -1.935555192176252604e-04 8.136222459143027663e-05
4.352000000000000000e+03 5.414178466796875000e+01 -9.618397712707519531e+00 -1.463508158922195435e-01 1.129315853118896484e+00 2.948895096778869629e-01 1.982436418533325195e+00
4.353000000000000000e+03 3.225447845458984375e+01 -2.337076425552368164e+00 5.481405854225158691e-01 4.710817337036132812e+00 1.577687263488769531e+00 1.176481723785400391e+00
4.354000000000000000e+03 3.271026229858398438e+01 -4.460593223571777344e+00 -6.322643756866455078e-01 5.063069343566894531e+00 1.329241514205932617e+00 1.469317227602005005e-01
4.355000000000000000e+03 7.487899780273437500e+01 -3.515095901489257812e+01 3.017175011336803436e-03 -5.794190242886543274e-02 -1.647741906344890594e-02 6.175664067268371582e-02
4.356000000000000000e+03 1.705143547058105469e+01 -8.782214164733886719e+00 3.111481666564941406e-01 9.066888689994812012e-01 3.653511106967926025e-01 5.321713685989379883e-01
4.357000000000000000e+03 6.788945674896240234e+00 6.187421798706054688e+00 9.483045432716608047e-04 -1.505701569840312004e-03 -1.672190992394462228e-04 -7.292066584341228008e-04
4.358000000000000000e+03 6.364783477783203125e+01 -9.071708679199218750e+00 -5.970306992530822754e-01 1.411859542131423950e-01 -1.367534250020980835e-01 1.283444613218307495e-01
4.359000000000000000e+03 6.256602859497070312e+01 -8.965183258056640625e+00 -5.780524015426635742e-01 3.545491397380828857e-01 -6.705097854137420654e-02 3.408675491809844971e-01
4.360000000000000000e+03 4.223675537109375000e+01 1.820720863342285156e+01 4.970311224460601807e-01 3.343619823455810547e+00 1.152195334434509277e+00 1.327186465263366699e+00
4.361000000000000000e+03 7.698662281036376953e+00 6.734904766082763672e+00 8.541740826331079006e-04 -1.855352194979786873e-03 -3.003534511663019657e-04 -2.830252924468368292e-04
4.362000000000000000e+03 4.091751098632812500e+01 -2.265707206726074219e+01 2.134936332702636719e+00 9.086452484130859375e+00 3.366416692733764648e+00 -3.733558058738708496e-01
4.363000000000000000e+03 4.030995178222656250e+01 -2.236196899414062500e+01 2.099160194396972656e+00 8.858044624328613281e+00 3.287161588668823242e+00 -2.572693526744842529e-01
4.364000000000000000e+03 7.030137634277343750e+01 -9.080179214477539062e+00 -4.533912241458892822e-01 1.890634596347808838e-01 -7.929833233356475830e-02 -4.666742980480194092e-01
4.365000000000000000e+03 6.280026626586914062e+01 7.407246232032775879e-01 5.950187444686889648e-01 2.188179969787597656e+00 8.349595665931701660e-01 5.945278406143188477e-01
4.366000000000000000e+03 3.512061691284179688e+01 -1.260065674781799316e+00 3.446292579174041748e-01 9.462079048156738281e+00 2.942012310028076172e+00 1.782078593969345093e-01
4.367000000000000000e+03 3.435498809814453125e+01 -8.710981011390686035e-01 6.152516007423400879e-01 8.767512321472167969e+00 2.814829349517822266e+00 7.042235732078552246e-01
4.368000000000000000e+03 4.159476089477539062e+01 1.877689933776855469e+01 4.305427670478820801e-01 3.811362266540527344e+00 1.272571563720703125e+00 1.344951987266540527e+00
4.369000000000000000e+03 3.774476242065429688e+01 1.459658145904541016e+01 6.003497838973999023e-01 8.466948509216308594e+00 2.720189332962036133e+00 1.793749630451202393e-01
4.370000000000000000e+03 6.476953125000000000e+01 -9.102345466613769531e+00 -6.097599267959594727e-01 3.778908029198646545e-02 -1.715912520885467529e-01 -1.235797181725502014e-01
4.371000000000000000e+03 5.123655319213867188e+01 -8.731674194335937500e+00 -4.104151129722595215e-01 8.511868119239807129e-01 1.322315186262130737e-01 2.311810493469238281e+00
4.372000000000000000e+03 6.993260955810546875e+01 -2.828263282775878906e+01 -7.754409313201904297e-02 2.619066648185253143e-02 -1.540602929890155792e-02 3.377575427293777466e-02
4.373000000000000000e+03 6.726851654052734375e+01 1.499114036560058594e+01 5.536051392555236816e-01 2.282599449157714844e+00 8.508614301681518555e-01 3.158908188343048096e-01
4.374000000000000000e+03 7.255543518066406250e+01 1.677371215820312500e+01 2.462495863437652588e-01 2.564967870712280273e-01 1.508239060640335083e-01 4.654559791088104248e-01
4.375000000000000000e+03 1.389155864715576172e+01 -1.176452636718750000e+01 6.762812137603759766e-01 1.510162591934204102e+00 6.559331417083740234e-01 1.931647807359695435e-01
4.376000000000000000e+03 8.482296943664550781e+00 6.715263843536376953e+00 5.988347111269831657e-04 -2.100707730278372765e-03 -4.505618999246507883e-04 2.666410291567444801e-04
4.377000000000000000e+03 4.218402862548828125e+01 1.944489097595214844e+01 3.876830637454986572e-01 3.402877569198608398e+00 1.137168169021606445e+00 1.308355808258056641e+00
4.378000000000000000e+03 3.491090393066406250e+01 1.716390037536621094e+01 1.048743963241577148e+00 9.012860298156738281e+00 3.018481254577636719e+00 -1.126044034957885742e+00
4.379000000000000000e+03 3.508242034912109375e+01 1.644380760192871094e+01 1.002685427665710449e+00 9.434987068176269531e+00 3.131301641464233398e+00 -1.178102970123291016e+00
4.380000000000000000e+03 4.825999069213867188e+01 -8.981329917907714844e+00 -2.898283898830413818e-01 1.152548313140869141e+00 2.588160037994384766e-01 1.269214391708374023e+00
4.381000000000000000e+03 4.677527999877929688e+01 -1.286460399627685547e+01 1.548976540565490723e+00 4.166604995727539062e+00 1.714674472808837891e+00 1.188591241836547852e+00
4.382000000000000000e+03 2.144466781616210938e+01 -5.203745365142822266e+00 -1.384358704090118408e-01 2.790098786354064941e-01 4.217219725251197815e-02 7.427026629447937012e-01
4.383000000000000000e+03 2.066913604736328125e+01 -5.248099803924560547e+00 -1.539428085088729858e-01 3.101825118064880371e-01 4.687191173434257507e-02 6.922502517700195312e-01
4.384000000000000000e+03 3.916755676269531250e+01 -1.865716743469238281e+01 1.785538792610168457e+00 8.991317749023437500e+00 3.233056783676147461e+00 -9.244751930236816406e-01
4.385000000000000000e+03 1.155120182037353516e+01 6.674531936645507812e+00 2.537792715884279460e-05 -8.108516922220587730e-04 -2.356421318836510181e-04 1.530191162601113319e-03
4.386000000000000000e+03 1.085582923889160156e+01 1.199897861480712891e+01 -3.166460664942860603e-03 -3.990852274000644684e-03 -2.147193998098373413e-03 5.175446276552975178e-04
4.387000000000000000e+03 1.997496223449707031e+01 -5.924580574035644531e+00 -9.447568655014038086e-02 3.808743357658386230e-01 8.591958880424499512e-02 6.787630915641784668e-01
4.388000000000000000e+03 2.776123619079589844e+01 -4.907903194427490234e+00 1.727226972579956055e-01 1.832832694053649902e-01 1.068017929792404175e-01 1.106531739234924316e+00
4.389000000000000000e+03 7.232444763183593750e+01 -1.037105464935302734e+01 -3.640147149562835693e-01 8.940473943948745728e-02 -8.238299190998077393e-02 -3.503445982933044434e-01
4.390000000000000000e+03 7.382062530517578125e+01 -1.029275798797607422e+01 -2.493220567703247070e-01 -6.163563113659620285e-03 -7.664568722248077393e-02 -3.342179059982299805e-01
4.391000000000000000e+03 4.257320785522460938e+01 -1.794020462036132812e+01 2.508885860443115234e+00 9.168408393859863281e+00 3.503188133239746094e+00 -3.225475549697875977e-01
4.392000000000000000e+03 4.227114486694335938e+01 -1.620809745788574219e+01 1.972947359085083008e+00 8.419912338256835938e+00 3.117857933044433594e+00 -7.375206947326660156e-01
4.393000000000000000e+03 7.091439056396484375e+01 -9.732249259948730469e+00 -4.520003795623779297e-01 1.651053428649902344e-01 -8.606851100921630859e-02 -4.114531278610229492e-01
4.394000000000000000e+03 3.915664672851562500e+01 -1.684199714660644531e+01 1.658837676048278809e+00 8.789001464843750000e+00 3.134351730346679688e+00 -1.412496805191040039e+00
4.395000000000000000e+03 4.024838256835937500e+01 -1.634410476684570312e+01 1.771626472473144531e+00 8.521922111511230469e+00 3.088064432144165039e+00 -1.320966243743896484e+00
4.396000000000000000e+03 7.239235687255859375e+01 -9.658747673034667969e+00 -3.341029882431030273e-01 7.676042616367340088e-02 -7.720276713371276855e-02 -4.025948345661163330e-01
4.397000000000000000e+03 3.876019287109375000e+01 -1.072698974609375000e+01 -8.759815096855163574e-01 8.494850158691406250e+00 2.285660505294799805e+00 -1.472768783569335938e+00
4.398000000000000000e+03 5.894900512695312500e+01 -5.069192409515380859e+00 2.910401299595832825e-02 1.628895759582519531e+00 4.973999261856079102e-01 9.099835753440856934e-01
4.399000000000000000e+03 1.158386325836181641e+01 1.211555004119873047e+01 -1.827172935009002686e-03 -3.190220566466450691e-03 -1.505217980593442917e-03 7.297023548744618893e-04
4.400000000000000000e+03 6.730753326416015625e+01 1.002254009246826172e+01 6.556847095489501953e-01 2.188198566436767578e+00 8.531649708747863770e-01 2.549700438976287842e-01
4.401000000000000000e+03 5.484262847900390625e+01 -9.675902366638183594e+00 -1.831194013357162476e-01 1.141339778900146484e+00 2.874661087989807129e-01 1.808515191078186035e+00
4.402000000000000000e+03 6.850849914550781250e+01 -1.034715080261230469e+01 -7.308577299118041992e-01 2.090962827205657959e-01 -1.565284430980682373e-01 -3.602432310581207275e-01
4.403000000000000000e+03 5.134611892700195312e+01 2.508166885375976562e+01 -3.217241540551185608e-02 6.625469326972961426e-01 1.891123503446578979e-01 3.927370309829711914e-01
4.404000000000000000e+03 5.218905639648437500e+01 2.393379974365234375e+01 -1.701388955116271973e-01 3.768905401229858398e-01 6.202549859881401062e-02 2.357468754053115845e-01
4.405000000000000000e+03 1.076719856262207031e+01 1.275658035278320312e+01 -4.487286321818828583e-03 -4.806061275303363800e-03 -2.788004465401172638e-03 -9.712231694720685482e-04
4.406000000000000000e+03 7.385793304443359375e+01 -9.547099113464355469e+00 -2.311911731958389282e-01 -2.619424648582935333e-02 -7.721562683582305908e-02 -3.803685307502746582e-01
4.407000000000000000e+03 3.001635932922363281e+01 -3.601216554641723633e+00 6.692391037940979004e-01 1.341781497001647949e+00 6.033061742782592773e-01 8.810276985168457031e-01
4.408000000000000000e+03 2.821789169311523438e+01 -4.310414314270019531e+00 4.799925684928894043e-01 2.995516061782836914e-01 2.338632494211196899e-01 1.045596122741699219e+00
4.409000000000000000e+03 1.078019332885742188e+01 1.904617500305175781e+01 -1.027159020304679871e-01 3.569755330681800842e-02 -2.010550536215305328e-02 -9.771395474672317505e-03
4.410000000000000000e+03 7.165341949462890625e+01 -9.702304840087890625e+00 -3.993528485298156738e-01 1.252156496047973633e-01 -8.224115520715713501e-02 -4.104190766811370850e-01
4.411000000000000000e+03 7.081976318359375000e+01 -1.040948772430419922e+01 -5.016275644302368164e-01 1.740477681159973145e-01 -9.827393293380737305e-02 -3.536108732223510742e-01
4.412000000000000000e+03 6.690002441406250000e+01 1.187740898132324219e+01 6.131883859634399414e-01 2.497931480407714844e+00 9.333359599113464355e-01 3.094468414783477783e-01
4.413000000000000000e+03 6.634772491455078125e+01 1.359025382995605469e+01 5.636768341064453125e-01 2.825991630554199219e+00 1.016900539398193359e+00 2.843181788921356201e-01
4.414000000000000000e+03 2.419863319396972656e+01 2.813452148437500000e+01 2.404464781284332275e-01 1.681281447410583496e+00 5.765183568000793457e-01 -1.156927704811096191e+00
4.415000000000000000e+03 2.516027832031250000e+01 2.931270027160644531e+01 1.068694051355123520e-02 2.202451467514038086e+00 6.639415025711059570e-01 -1.180914402008056641e+00
4.416000000000000000e+03 1.099640655517578125e+01 2.104241752624511719e+01 -1.485311388969421387e-01 7.278709113597869873e-02 -2.272321283817291260e-02 2.879512123763561249e-02
4.417000000000000000e+03 3.565135574340820312e+01 1.807241439819335938e+01 8.880070447921752930e-01 8.082725524902343750e+00 2.691219806671142578e+00 -4.751586914062500000e-01
4.418000000000000000e+03 3.455913925170898438e+01 1.858955192565917969e+01 1.079045057296752930e+00 8.364376068115234375e+00 2.833026170730590820e+00 -9.884690642356872559e-01
4.419000000000000000e+03 1.226871204376220703e+01 -2.668604469299316406e+01 -1.134365051984786987e-01 1.143105626106262207e+00 3.089007139205932617e-01 5.415374785661697388e-02
4.420000000000000000e+03 1.279029750823974609e+01 -2.793717002868652344e+01 -1.894768625497817993e-01 1.073646068572998047e+00 2.652507424354553223e-01 -1.499807462096214294e-02
4.421000000000000000e+03 3.924110412597656250e+01 -1.929710388183593750e+01 1.867437601089477539e+00 8.992058753967285156e+00 3.257848978042602539e+00 -7.213909626007080078e-01
4.422000000000000000e+03 4.054069900512695312e+01 -1.885992622375488281e+01 2.175433397293090820e+00 8.965411186218261719e+00 3.342253446578979492e+00 -7.575625181198120117e-01
4.423000000000000000e+03 1.000301551818847656e+01 1.652446937561035156e+01 -4.143842682242393494e-02 6.356496363878250122e-03 -1.052457932382822037e-02 -9.261037223041057587e-03
4.424000000000000000e+03 6.589800262451171875e+01 6.545959949493408203e+00 7.463181018829345703e-01 2.419575929641723633e+00 9.497682452201843262e-01 2.883157134056091309e-01
4.425000000000000000e+03 6.451792907714843750e+01 5.056280136108398438e+00 7.924844622611999512e-01 2.708938598632812500e+00 1.050426840782165527e+00 4.593785107135772705e-01
4.426000000000000000e+03 4.037977600097656250e+01 -7.041874885559082031e+00 -2.549805641174316406e+00 8.246932983398437500e+00 1.709138274192810059e+00 -2.176500558853149414e+00
4.427000000000000000e+03 3.936798477172851562e+01 1.628212165832519531e+01 5.508577823638916016e-01 6.135673046112060547e+00 2.005959272384643555e+00 1.010351061820983887e+00
4.428000000000000000e+03 7.199815368652343750e+01 -2.306059265136718750e+01 -1.476690359413623810e-02 4.550688900053501129e-04 -4.293550271540880203e-03 6.619939813390374184e-04
4.429000000000000000e+03 7.169869232177734375e+01 -2.338003730773925781e+01 -1.922318898141384125e-02 1.335983281023800373e-03 -5.366161465644836426e-03 1.629591337405145168e-03
4.430000000000000000e+03 3.992224502563476562e+01 -4.840121746063232422e+00 -2.424755573272705078e+00 9.736079216003417969e+00 2.193397045135498047e+00 -2.261434078216552734e+00
4.431000000000000000e+03 5.796164321899414062e+01 -9.640565872192382812e+00 -4.147894680500030518e-01 9.873278141021728516e-01 1.717614978551864624e-01 1.069553256034851074e+00
4.432000000000000000e+03 6.606927490234375000e+01 7.772024154663085938e+00 7.286778092384338379e-01 2.534741401672363281e+00 9.790257811546325684e-01 3.207509517669677734e-01
4.433000000000000000e+03 4.022650527954101562e+01 -2.155731201171875000e+01 2.114741802215576172e+00 8.959982872009277344e+00 3.322417259216308594e+00 -3.354819118976593018e-01
4.434000000000000000e+03 3.996669006347656250e+01 -2.294143486022949219e+01 2.028001070022583008e+00 8.618163108825683594e+00 3.193849325180053711e+00 -1.510635167360305786e-01
4.435000000000000000e+03 4.519772338867187500e+01 -1.296022129058837891e+01 1.157874584197998047e+00 5.536050796508789062e+00 2.008177518844604492e+00 3.184480369091033936e-01
4.436000000000000000e+03 4.520342254638671875e+01 -8.559604644775390625e+00 -9.344176054000854492e-01 2.999519824981689453e+00 6.195306181907653809e-01 -6.607908010482788086e-01
4.437000000000000000e+03 6.824025726318359375e+01 1.068620300292968750e+01 6.118379831314086914e-01 1.807971715927124023e+00 7.259429097175598145e-01 2.209690660238265991e-01
4.438000000000000000e+03 1.279651451110839844e+01 -2.434041213989257812e+01 1.039028614759445190e-01 1.581385016441345215e+00 5.055863857269287109e-01 -2.689548954367637634e-02
4.439000000000000000e+03 5.219839096069335938e+01 2.471446800231933594e+01 -8.015149831771850586e-02 4.642893075942993164e-01 1.152413412928581238e-01 2.614136338233947754e-01
4.440000000000000000e+03 2.516980361938476562e+01 2.732506179809570312e+01 2.725546061992645264e-01 2.030730724334716797e+00 6.909855604171752930e-01 -1.395121097564697266e+00
4.441000000000000000e+03 4.066913604736328125e+01 -1.507738590240478516e+01 1.415804743766784668e+00 8.176522254943847656e+00 2.877697944641113281e+00 -1.332946181297302246e+00
4.442000000000000000e+03 3.877384948730468750e+01 1.687345504760742188e+01 5.571035146713256836e-01 6.487704277038574219e+00 2.113442420959472656e+00 7.880119085311889648e-01
4.443000000000000000e+03 2.423292541503906250e+01 -5.014174461364746094e+00 -6.109989807009696960e-02 1.885302513837814331e-01 3.822910785675048828e-02 9.047445058822631836e-01
4.444000000000000000e+03 2.335231590270996094e+01 -4.838968753814697266e+00 -8.010076731443405151e-02 1.993081867694854736e-01 3.576222434639930725e-02 8.274503350257873535e-01
4.445000000000000000e+03 6.329425048828125000e+01 1.487890362739562988e+00 6.116440296173095703e-01 2.264706850051879883e+00 8.629052639007568359e-01 5.240141153335571289e-01
4.446000000000000000e+03 3.669483947753906250e+01 1.379909896850585938e+01 6.260819435119628906e-01 9.914475440979003906e+00 3.162167072296142578e+00 -4.782123565673828125e-01
4.447000000000000000e+03 1.841879653930664062e+01 2.890488243103027344e+01 2.371343076229095459e-01 5.192073583602905273e-01 2.269024997949600220e-01 -3.569485247135162354e-01
4.448000000000000000e+03 1.805713462829589844e+01 2.776052284240722656e+01 2.226578593254089355e-01 3.543536961078643799e-01 1.731034666299819946e-01 -2.758535444736480713e-01
4.449000000000000000e+03 7.021843719482421875e+01 -2.745073890686035156e+01 -6.693622469902038574e-02 2.145566046237945557e-02 -1.364416908472776413e-02 2.365239523351192474e-02
4.450000000000000000e+03 3.830089569091796875e+01 1.510949993133544922e+01 5.586701631546020508e-01 7.691602706909179688e+00 2.475081920623779297e+00 5.003179907798767090e-01
4.451000000000000000e+03 6.621289825439453125e+01 8.554424285888671875e+00 7.177563309669494629e-01 2.575436830520629883e+00 9.879579544067382812e-01 3.313504159450531006e-01
4.452000000000000000e+03 1.351800632476806641e+01 2.431088066101074219e+01 -1.183620393276214600e-01 1.103143617510795593e-01 -2.414304297417402267e-03 8.331438899040222168e-02
4.453000000000000000e+03 3.853084945678710938e+01 -2.969223594665527344e+01 2.284158952534198761e-02 6.539489746093750000e+00 1.968699336051940918e+00 8.500097990036010742e-01
4.454000000000000000e+03 3.806195068359375000e+01 -3.095645523071289062e+01 -2.982935607433319092e-01 6.150812149047851562e+00 1.755755543708801270e+00 9.200186729431152344e-01
4.455000000000000000e+03 6.640911102294921875e+01 9.363656044006347656e+00 6.930332183837890625e-01 2.572468757629394531e+00 9.796505570411682129e-01 3.209067285060882568e-01
4.456000000000000000e+03 6.050197219848632812e+01 -4.191349983215332031e+00 1.706924140453338623e-01 1.524295806884765625e+00 5.084964632987976074e-01 7.034384012222290039e-01
4.457000000000000000e+03 1.438280296325683594e+01 -3.111837959289550781e+01 -2.744344770908355713e-01 8.815213441848754883e-01 1.821260601282119751e-01 -1.482328176498413086e-01
4.458000000000000000e+03 5.908957672119140625e+01 -4.316090583801269531e+00 2.009705007076263428e-01 1.727898836135864258e+00 5.786607861518859863e-01 9.082230329513549805e-01
4.459000000000000000e+03 5.929973983764648438e+01 -3.670140743255615234e+00 3.297401070594787598e-01 1.772976040840148926e+00 6.308148503303527832e-01 9.018556475639343262e-01
4.460000000000000000e+03 3.997097015380859375e+01 -1.450484657287597656e+01 1.169790983200073242e+00 8.223031997680664062e+00 2.817847013473510742e+00 -1.504097938537597656e+00
4.461000000000000000e+03 2.030865478515625000e+01 2.791576576232910156e+01 3.125625550746917725e-01 6.029120683670043945e-01 2.746423780918121338e-01 -5.624591112136840820e-01
4.462000000000000000e+03 1.946824264526367188e+01 2.853445434570312500e+01 2.633503675460815430e-01 5.859168171882629395e-01 2.547801434993743896e-01 -4.640585482120513916e-01
4.463000000000000000e+03 3.727780151367187500e+01 -4.824772357940673828e+00 -2.156968593597412109e+00 1.000763511657714844e+01 2.355200052261352539e+00 -9.439150094985961914e-01
4.464000000000000000e+03 3.604334640502929688e+01 -3.959636926651000977e+00 -1.424256920814514160e+00 9.409918785095214844e+00 2.395698547363281250e+00 -3.879043161869049072e-01
4.465000000000000000e+03 6.408877563476562500e+01 4.214365482330322266e+00 7.622188925743103027e-01 2.665072441101074219e+00 1.028187394142150879e+00 4.936119019985198975e-01
4.466000000000000000e+03 7.317888641357421875e+01 3.479632949829101562e+01 -1.333081275224685669e-01 3.664504885673522949e-01 6.994271278381347656e-02 1.824423372745513916e-01
4.467000000000000000e+03 7.365907287597656250e+01 3.355836868286132812e+01 -1.289233267307281494e-01 3.053901791572570801e-01 5.294005200266838074e-02 2.309866398572921753e-01
4.468000000000000000e+03 4.022062683105468750e+01 -1.401214694976806641e+01 1.000811219215393066e+00 8.095098495483398438e+00 2.728772878646850586e+00 -1.462025761604309082e+00
4.469000000000000000e+03 5.945820331573486328e+00 -1.608576393127441406e+01 3.270097076892852783e-01 -2.847393155097961426e-01 1.268111634999513626e-02 -1.891644895076751709e-01
4.470000000000000000e+03 4.416814804077148438e+01 -1.182908248901367188e+01 3.959298133850097656e-01 5.606499671936035156e+00 1.800728917121887207e+00 -5.167465209960937500e-01
4.471000000000000000e+03 3.510074234008789062e+01 1.949000358581542969e+01 8.827325105667114258e-01 7.606162548065185547e+00 2.546668529510498047e+00 -5.022954344749450684e-01
4.472000000000000000e+03 3.410463714599609375e+01 2.016250610351562500e+01 9.917887449264526367e-01 7.611816883087158203e+00 2.581081628799438477e+00 -8.164969682693481445e-01
4.473000000000000000e+03 2.140673255920410156e+01 -5.954764842987060547e+00 -5.692273750901222229e-02 3.159466981887817383e-01 7.770718634128570557e-02 7.469978928565979004e-01
4.474000000000000000e+03 5.249071502685546875e+01 -1.159820556640625000e+01 9.632609486579895020e-01 7.931860089302062988e-01 5.269340872764587402e-01 1.965056777000427246e+00
4.475000000000000000e+03 6.013904190063476562e+01 -5.860477685928344727e-01 7.628785967826843262e-01 2.201203584671020508e+00 8.892246484756469727e-01 1.102417111396789551e+00
4.476000000000000000e+03 4.103003311157226562e+01 -2.057197189331054688e+01 2.243723630905151367e+00 9.316161155700683594e+00 3.467965364456176758e+00 -4.497230350971221924e-01
4.477000000000000000e+03 4.123097991943359375e+01 -2.004430770874023438e+01 2.259044408798217773e+00 9.363593101501464844e+00 3.486791133880615234e+00 -4.926130771636962891e-01
4.478000000000000000e+03 4.080274200439453125e+01 -2.435850906372070312e+01 1.953284978866577148e+00 8.634387969970703125e+00 3.176301956176757812e+00 -1.644762605428695679e-01
4.479000000000000000e+03 4.059619522094726562e+01 -2.329559135437011719e+01 2.075855731964111328e+00 8.803898811340332031e+00 3.263926506042480469e+00 -2.311257272958755493e-01
4.480000000000000000e+03 4.217821121215820312e+01 -1.955443191528320312e+01 2.355375766754150391e+00 9.751314163208007812e+00 3.632007122039794922e+00 -2.837688028812408447e-01
4.481000000000000000e+03 7.117520141601562500e+01 -3.282512283325195312e+01 -2.662487700581550598e-02 7.529658614657819271e-04 -7.761572953313589096e-03 9.022489935159683228e-02
4.482000000000000000e+03 4.409290695190429688e+01 2.172407531738281250e+01 1.875423192977905273e-01 2.502181529998779297e+00 8.069171309471130371e-01 1.232603311538696289e+00
4.483000000000000000e+03 4.531586074829101562e+01 2.279534912109375000e+01 1.074561178684234619e-01 2.029234647750854492e+00 6.410072445869445801e-01 1.125776529312133789e+00
4.484000000000000000e+03 1.437975120544433594e+01 -9.566050529479980469e+00 2.996565401554107666e-01 1.103174328804016113e+00 4.208492636680603027e-01 1.102713197469711304e-01
4.485000000000000000e+03 1.606427574157714844e+01 -7.455227851867675781e+00 -2.280041947960853577e-02 7.590235471725463867e-01 2.208669483661651611e-01 2.971630990505218506e-01
4.486000000000000000e+03 4.110803222656250000e+01 -7.578590393066406250e+00 -2.213061571121215820e+00 7.332611083984375000e+00 1.535864949226379395e+00 -2.198918819427490234e+00
4.487000000000000000e+03 3.867489624023437500e+01 -1.216950511932373047e+01 9.658908843994140625e-02 8.414320945739746094e+00 2.553273200988769531e+00 -1.510039567947387695e+00
4.488000000000000000e+03 3.400047302246093750e+01 2.217157936096191406e+01 3.598788976669311523e-01 6.740169048309326172e+00 2.130014419555664062e+00 -4.280115962028503418e-01
4.489000000000000000e+03 1.765621566772460938e+01 -7.972746372222900391e+00 1.625625044107437134e-01 7.348047494888305664e-01 2.692101597785949707e-01 5.722396373748779297e-01
4.490000000000000000e+03 1.571147060394287109e+01 -6.059533596038818359e+00 -2.551699280738830566e-01 5.457894206047058105e-01 8.718585222959518433e-02 2.108700275421142578e-01
4.491000000000000000e+03 6.378277969360351562e+01 2.256356239318847656e+00 6.482481956481933594e-01 2.323304891586303711e+00 8.914659023284912109e-01 4.515900015830993652e-01
4.492000000000000000e+03 4.523464584350585938e+01 2.438259696960449219e+01 4.882621113210916519e-03 2.213336467742919922e+00 6.654657125473022461e-01 1.114441633224487305e+00
4.493000000000000000e+03 1.278605079650878906e+01 8.506806373596191406e+00 -3.776649100473150611e-05 4.097674682270735502e-04 1.116002895287238061e-04 1.667648321017622948e-03
4.494000000000000000e+03 3.811416244506835938e+01 -2.833319282531738281e+01 4.609060883522033691e-01 6.740320682525634766e+00 2.160367965698242188e+00 9.110054969787597656e-01
4.495000000000000000e+03 1.043472766876220703e+01 -1.947059249877929688e+01 5.921214818954467773e-01 1.242683887481689453e+00 5.504415631294250488e-01 8.412525802850723267e-02
4.496000000000000000e+03 1.070614433288574219e+01 -2.200623893737792969e+01 4.256350100040435791e-01 1.210843801498413086e+00 4.909436404705047607e-01 1.943957805633544922e-01
4.497000000000000000e+03 1.703933334350585938e+01 2.779574775695800781e+01 1.803207397460937500e-01 2.993063628673553467e-01 1.438881307840347290e-01 -1.771074235439300537e-01
4.498000000000000000e+03 6.530012512207031250e+01 4.719863414764404297e+00 7.167242765426635742e-01 2.330235004425048828e+00 9.140877723693847656e-01 2.810941636562347412e-01
4.499000000000000000e+03 6.477375793457031250e+01 3.856757879257202148e+00 7.131959199905395508e-01 2.355491638183593750e+00 9.206062555313110352e-01 3.291445374488830566e-01
4.500000000000000000e+03 1.199326896667480469e+01 9.592469215393066406e+00 -8.200062438845634460e-04 -8.932239143177866936e-04 -5.139690474607050419e-04 2.517301356419920921e-03
4.501000000000000000e+03 7.095523834228515625e+01 3.768327331542968750e+01 -1.565186232328414917e-01 5.334225296974182129e-01 1.130711659789085388e-01 1.020250394940376282e-01
4.502000000000000000e+03 4.156809997558593750e+01 -7.202392101287841797e+00 -2.245691061019897461e+00 6.865082263946533203e+00 1.385817408561706543e+00 -2.294546604156494141e+00
4.503000000000000000e+03 6.700605773925781250e+01 1.268782806396484375e+01 5.933011770248413086e-01 2.475165843963623047e+00 9.205401539802551270e-01 2.984972298145294189e-01
4.504000000000000000e+03 6.708712768554687500e+01 1.347377967834472656e+01 5.750427246093750000e-01 2.425396680831909180e+00 9.001318216323852539e-01 3.038934171199798584e-01
4.505000000000000000e+03 3.859701538085937500e+01 -5.309393882751464844e+00 -2.547597169876098633e+00 1.002723503112792969e+01 2.243891239166259766e+00 -1.488677501678466797e+00
4.506000000000000000e+03 6.656237792968750000e+01 1.917480087280273438e+01 3.471886813640594482e-01 2.231594324111938477e+00 7.736349105834960938e-01 4.288720190525054932e-01
4.507000000000000000e+03 6.699625396728515625e+01 1.741816329956054688e+01 4.855103790760040283e-01 2.229194641113281250e+00 8.144115209579467773e-01 3.657531738281250000e-01
4.508000000000000000e+03 7.335356903076171875e+01 -2.747051811218261719e+01 -3.450670838356018066e-02 2.638557692989706993e-03 -9.560444392263889313e-03 2.921361476182937622e-02
4.509000000000000000e+03 7.033072662353515625e+01 -2.575338554382324219e+01 -4.901948943734169006e-02 1.237056497484445572e-02 -1.099467743188142776e-02 6.622258573770523071e-03
4.510000000000000000e+03 4.929139709472656250e+01 2.609600067138671875e+01 1.861059479415416718e-02 1.191548466682434082e+00 3.630477190017700195e-01 6.729930639266967773e-01
4.511000000000000000e+03 4.645250320434570312e+01 2.553729057312011719e+01 -1.958449557423591614e-02 1.890467047691345215e+00 5.612647533416748047e-01 9.851924777030944824e-01
4.512000000000000000e+03 4.539498519897460938e+01 2.347277069091796875e+01 6.346465647220611572e-02 2.092651605606079102e+00 6.468349099159240723e-01 1.115934729576110840e+00
4.513000000000000000e+03 4.847280120849609375e+01 -1.194636249542236328e+01 1.426156997680664062e+00 2.425960779190063477e+00 1.155635356903076172e+00 1.741319656372070312e+00
4.514000000000000000e+03 3.310250473022460938e+01 -5.015244960784912109e+00 -1.024614691734313965e+00 5.620511054992675781e+00 1.378768920898437500e+00 -1.352685987949371338e-01
4.515000000000000000e+03 3.584952545166015625e+01 -1.800679445266723633e+00 4.846470430493354797e-02 1.000147438049316406e+01 3.014981746673583984e+00 -1.660539060831069946e-01
4.516000000000000000e+03 2.628792381286621094e+01 -4.069363117218017578e+00 2.919047176837921143e-01 6.233422830700874329e-02 1.062716841697692871e-01 9.741207957267761230e-01
4.517000000000000000e+03 1.231429481506347656e+01 -1.318853282928466797e+01 7.172199487686157227e-01 1.441663742065429688e+00 6.476650834083557129e-01 5.815560463815927505e-03
4.518000000000000000e+03 1.156961917877197266e+01 -1.411105060577392578e+01 7.131196260452270508e-01 1.331878781318664551e+00 6.134995222091674805e-01 -6.029400974512100220e-02
4.519000000000000000e+03 1.107530307769775391e+01 1.524260711669921875e+01 -1.826766319572925568e-02 -4.759595263749361038e-03 -6.908177398145198822e-03 -9.746718220412731171e-03
4.520000000000000000e+03 1.148875236511230469e+01 1.290097522735595703e+01 -4.090979229658842087e-03 -3.847058862447738647e-03 -2.381411381065845490e-03 -4.113344184588640928e-04
4.521000000000000000e+03 3.634463882446289062e+01 -3.275624036788940430e+00 -9.802386760711669922e-01 9.877368927001953125e+00 2.669139146804809570e+00 -3.786008656024932861e-01
4.522000000000000000e+03 7.262563323974609375e+01 -3.703286361694335938e+01 2.885199338197708130e-02 -5.291643738746643066e-02 -7.219333201646804810e-03 7.127485424280166626e-02
4.523000000000000000e+03 7.247254180908203125e+01 -4.151316452026367188e+01 6.797490268945693970e-02 -7.389284670352935791e-02 -1.775383367203176022e-03 1.451233495026826859e-02
4.524000000000000000e+03 6.370316314697265625e+01 2.378366088867187500e+01 -4.747884869575500488e-01 2.210129261016845703e+00 5.206022262573242188e-01 -9.502277523279190063e-02
4.525000000000000000e+03 6.319587707519531250e+01 2.559880447387695312e+01 -5.302115082740783691e-01 1.855209231376647949e+00 3.974993228912353516e-01 -2.280375957489013672e-01
4.526000000000000000e+03 4.502801513671875000e+01 2.064927673339843750e+01 2.348939180374145508e-01 1.899882912635803223e+00 6.404330134391784668e-01 1.074681520462036133e+00
4.527000000000000000e+03 2.187984085083007812e+01 2.716633415222167969e+01 3.809007704257965088e-01 8.159372210502624512e-01 3.590514063835144043e-01 -7.940329909324645996e-01
4.528000000000000000e+03 3.825936508178710938e+01 1.627949142456054688e+01 5.803205370903015137e-01 7.156191349029541016e+00 2.320953607559204102e+00 5.602828264236450195e-01
4.529000000000000000e+03 6.723301410675048828e+00 3.378515625000000000e+01 4.333915561437606812e-02 -1.452746987342834473e-02 8.643506094813346863e-03 7.433025538921356201e-02
4.530000000000000000e+03 5.553215980529785156e+00 3.348514175415039062e+01 2.863625250756740570e-02 -8.855421841144561768e-02 -1.797538995742797852e-02 7.324539124965667725e-02
4.531000000000000000e+03 1.196305274963378906e+01 -2.422010040283203125e+01 1.346813589334487915e-01 1.396417498588562012e+00 4.593296647071838379e-01 1.096689030528068542e-01
4.532000000000000000e+03 1.155127429962158203e+01 -2.614444351196289062e+01 -5.986672267317771912e-02 1.079594612121582031e+00 3.059183359146118164e-01 1.355657130479812622e-01
4.533000000000000000e+03 3.106327629089355469e+01 2.645284080505371094e+01 -4.661125242710113525e-01 4.964453697204589844e+00 1.349502325057983398e+00 -1.070052266120910645e+00
4.534000000000000000e+03 3.024488830566406250e+01 2.726189041137695312e+01 -4.795049428939819336e-01 4.507993221282958984e+00 1.208546519279479980e+00 -1.186039924621582031e+00
4.535000000000000000e+03 4.080783843994140625e+01 -2.562557792663574219e+01 1.648193359375000000e+00 8.338367462158203125e+00 2.995968341827392578e+00 8.403474465012550354e-03
4.536000000000000000e+03 4.144968032836914062e+01 -2.478322410583496094e+01 1.960845112800598145e+00 8.834066390991210938e+00 3.238473415374755859e+00 -2.932704985141754150e-01
4.537000000000000000e+03 8.061180114746093750e+00 -3.447272109985351562e+01 -1.490313112735748291e-01 1.003613546490669250e-01 -1.460098754614591599e-02 1.284855753183364868e-01
4.538000000000000000e+03 3.986620330810546875e+01 -2.878486442565917969e+01 3.686469197273254395e-01 7.208499431610107422e+00 2.273143768310546875e+00 5.553224086761474609e-01
4.539000000000000000e+03 3.793177413940429688e+01 -2.732289505004882812e+01 6.954675316810607910e-01 6.813400268554687500e+00 2.252660512924194336e+00 8.707876205444335938e-01
4.540000000000000000e+03 6.570616149902343750e+01 -3.348708724975585938e+01 -5.507524311542510986e-02 3.806163370609283447e-02 -5.104082636535167694e-03 1.447969228029251099e-01
4.541000000000000000e+03 6.798374938964843750e+01 -3.121808624267578125e+01 -1.000081375241279602e-01 4.246012866497039795e-02 -1.726440340280532837e-02 9.266655892133712769e-02
4.542000000000000000e+03 6.141315460205078125e+01 -3.649549484252929688e+01 1.718021631240844727e-01 1.269570142030715942e-01 8.962775021791458130e-02 1.069739758968353271e-01
4.543000000000000000e+03 6.669369506835937500e+01 -3.584329223632812500e+01 4.980540275573730469e-02 7.911373861134052277e-03 1.731503382325172424e-02 1.345257163047790527e-01
4.544000000000000000e+03 2.243757057189941406e+01 2.969724655151367188e+01 1.982537358999252319e-01 1.337877035140991211e+00 4.608392417430877686e-01 -8.688741326332092285e-01
4.545000000000000000e+03 1.385755538940429688e+01 2.563004302978515625e+01 -3.578231856226921082e-02 1.318766921758651733e-01 2.882831357419490814e-02 7.059437781572341919e-02
4.546000000000000000e+03 1.274256610870361328e+01 2.478161430358886719e+01 -8.603040128946304321e-02 1.129870712757110596e-01 8.086999878287315369e-03 9.865054488182067871e-02
4.547000000000000000e+03 1.607419395446777344e+01 2.783892631530761719e+01 1.428530067205429077e-01 2.747619748115539551e-01 1.252844929695129395e-01 -1.021825745701789856e-01
4.548000000000000000e+03 1.585655593872070312e+01 2.687712287902832031e+01 9.082711488008499146e-02 1.928405314683914185e-01 8.510029315948486328e-02 -4.968452453613281250e-02
4.549000000000000000e+03 3.882030487060546875e+01 -2.393543434143066406e+01 1.756575465202331543e+00 8.042375564575195312e+00 2.939685344696044922e+00 2.800522744655609131e-01
4.550000000000000000e+03 6.716212463378906250e+01 -3.408378219604492188e+01 -2.333602681756019592e-02 2.418626099824905396e-02 2.550703065935522318e-04 1.338796615600585938e-01
4.551000000000000000e+03 4.077167510986328125e+01 -3.004955291748046875e+01 -5.752726644277572632e-02 7.201840400695800781e+00 2.143293857574462891e+00 3.621996641159057617e-01
4.552000000000000000e+03 4.167303085327148438e+01 -2.721133613586425781e+01 1.089548945426940918e+00 8.137643814086914062e+00 2.768157720565795898e+00 7.028822321444749832e-03
4.553000000000000000e+03 4.090205764770507812e+01 -2.877314186096191406e+01 4.365432262420654297e-01 7.607462882995605469e+00 2.413201808929443359e+00 2.860036492347717285e-01
4.554000000000000000e+03 3.844647979736328125e+01 -2.759726905822753906e+01 6.542913913726806641e-01 6.988207340240478516e+00 2.292749643325805664e+00 7.816799283027648926e-01
4.555000000000000000e+03 3.918600845336914062e+01 -2.764033699035644531e+01 7.300449609756469727e-01 7.261071205139160156e+00 2.397334814071655273e+00 6.299894452095031738e-01
4.556000000000000000e+03 6.450408172607421875e+01 2.416459083557128906e+01 -4.581216275691986084e-01 2.081411600112915039e+00 4.869869649410247803e-01 3.648863360285758972e-02
4.557000000000000000e+03 6.405252075195312500e+01 2.301994895935058594e+01 -3.792491853237152100e-01 2.358384847640991211e+00 5.937407016754150391e-01 1.114928722381591797e-02
4.558000000000000000e+03 4.073410415649414062e+01 -3.150666427612304688e+01 -4.994500577449798584e-01 6.779538154602050781e+00 1.884026408195495605e+00 3.541198074817657471e-01
4.559000000000000000e+03 7.295794677734375000e+01 -3.971246719360351562e+01 6.063501909375190735e-02 -6.981476396322250366e-02 -2.753923879936337471e-03 4.067783057689666748e-02
4.560000000000000000e+03 7.416615295410156250e+01 3.231216430664062500e+01 -1.213141009211540222e-01 2.302309721708297729e-01 3.267506137490272522e-02 2.573734223842620850e-01
4.561000000000000000e+03 5.632454299926757812e+01 2.830393409729003906e+01 -4.130349308252334595e-02 8.398945331573486328e-01 2.395773082971572876e-01 -2.360079288482666016e-01
4.562000000000000000e+03 6.877233123779296875e+01 -2.898744010925292969e+01 -9.988355636596679688e-02 3.597005829215049744e-02 -1.917404867708683014e-02 4.125384241342544556e-02
4.563000000000000000e+03 6.470991516113281250e+01 2.532069969177246094e+01 -4.896302819252014160e-01 1.868188381195068359e+00 4.135674238204956055e-01 2.451736479997634888e-02
4.564000000000000000e+03 3.964441680908203125e+01 -2.997316932678222656e+01 -3.774516656994819641e-02 6.889032840728759766e+00 2.055386304855346680e+00 6.266934871673583984e-01
4.565000000000000000e+03 4.202508926391601562e+01 -3.133520698547363281e+01 -4.686504304409027100e-01 7.081580638885498047e+00 1.983879089355468750e+00 1.955865323543548584e-02
4.566000000000000000e+03 7.343708801269531250e+01 -3.322487258911132812e+01 -1.076477859169244766e-02 -2.775459177792072296e-02 -1.155581139028072357e-02 7.399093359708786011e-02
4.567000000000000000e+03 5.038665390014648438e+01 2.558725547790527344e+01 9.113673120737075806e-03 8.910262584686279297e-01 2.700419723987579346e-01 5.319341421127319336e-01
4.568000000000000000e+03 7.207073211669921875e+00 4.137848663330078125e+01 4.129127413034439087e-02 6.343799084424972534e-02 3.141877800226211548e-02 -8.756047463975846767e-04
4.569000000000000000e+03 6.588623523712158203e+00 3.933641815185546875e+01 3.722673654556274414e-02 6.298878695815801620e-03 1.305768452584743500e-02 1.284041628241539001e-02
4.570000000000000000e+03 1.619929122924804688e+01 -3.521375274658203125e+01 -1.701688319444656372e-01 6.804848313331604004e-01 1.530947983264923096e-01 -2.145597636699676514e-01
4.571000000000000000e+03 3.284702682495117188e+01 2.317054176330566406e+01 1.596524864435195923e-01 6.487217426300048828e+00 1.994060873985290527e+00 -7.429137229919433594e-01
4.572000000000000000e+03 3.266624450683593750e+01 2.425779914855957031e+01 -1.726988703012466431e-01 6.047708034515380859e+00 1.762502789497375488e+00 -7.166513204574584961e-01
4.573000000000000000e+03 1.559969806671142578e+01 -3.121370697021484375e+01 -2.665848731994628906e-01 8.875637650489807129e-01 1.862936615943908691e-01 -2.330652326345443726e-01
4.574000000000000000e+03 1.354074573516845703e+01 -2.935991859436035156e+01 -2.445699423551559448e-01 9.889566302299499512e-01 2.233159989118576050e-01 -8.699827641248703003e-02
4.575000000000000000e+03 4.242432403564453125e+01 -3.294464111328125000e+01 -8.600053787231445312e-01 6.586699008941650391e+00 1.718008160591125488e+00 -1.322302222251892090e-01
4.576000000000000000e+03 5.298183822631835938e+01 -4.131539916992187500e+01 -1.091321632266044617e-01 2.068026065826416016e+00 5.876681804656982422e-01 -1.334202736616134644e-01
4.577000000000000000e+03 3.299136352539062500e+01 -4.070150375366210938e+01 -6.193910241127014160e-01 3.502637147903442383e+00 8.649738430976867676e-01 2.532674968242645264e-01
4.578000000000000000e+03 5.967157745361328125e+01 -3.731423568725585938e+01 2.450371980667114258e-01 2.899469435214996338e-01 1.604952365159988403e-01 3.746229037642478943e-02
4.579000000000000000e+03 7.146097564697265625e+01 -2.389340209960937500e+01 -2.276157774031162262e-02 3.064724616706371307e-03 -5.909055937081575394e-03 1.872449298389256001e-03
4.580000000000000000e+03 7.115616607666015625e+01 -2.449905395507812500e+01 -3.090505488216876984e-02 5.414571147412061691e-03 -7.647145073860883713e-03 2.931026509031653404e-03
4.581000000000000000e+03 3.583338165283203125e+01 1.374263954162597656e+01 7.818663120269775391e-01 1.069844245910644531e+01 3.444092512130737305e+00 -1.122549295425415039e+00
4.582000000000000000e+03 1.078326320648193359e+01 6.716802597045898438e+00 5.992121296003460884e-04 -1.123346271924674511e-03 -1.572402397869154811e-04 1.143447705544531345e-03
4.583000000000000000e+03 1.093964004516601562e+01 1.047960662841796875e+01 -1.070133992470800877e-03 -2.988849068060517311e-03 -1.217694953083992004e-03 1.549841370433568954e-03
4.584000000000000000e+03 6.704327392578125000e+01 -9.268126487731933594e+00 -6.580710411071777344e-01 1.607152223587036133e-01 -1.492067426443099976e-01 -3.970121443271636963e-01
4.585000000000000000e+03 6.595062255859375000e+01 -9.070753097534179688e+00 -6.170943379402160645e-01 1.075847744941711426e-01 -1.528528779745101929e-01 -3.119189143180847168e-01
4.586000000000000000e+03 5.974512100219726562e+01 -8.951941490173339844e+00 -4.997839629650115967e-01 8.813672661781311035e-01 1.144749820232391357e-01 7.948195338249206543e-01
4.587000000000000000e+03 5.830829238891601562e+01 -6.329177379608154297e+00 -2.002729326486587524e-01 1.547385215759277344e+00 4.041337072849273682e-01 1.023073196411132812e+00
4.588000000000000000e+03 6.906327247619628906e+00 -1.526468372344970703e+01 3.908750712871551514e-01 -3.184431046247482300e-02 1.077092289924621582e-01 -2.570242881774902344e-01
4.589000000000000000e+03 7.463804721832275391e+00 -1.570727920532226562e+01 4.396403133869171143e-01 1.322807073593139648e-01 1.715763062238693237e-01 -2.140184342861175537e-01
4.590000000000000000e+03 4.765560913085937500e+01 -1.240656375885009766e+01 1.513566493988037109e+00 3.272772789001464844e+00 1.435901761054992676e+00 1.495768070220947266e+00
4.591000000000000000e+03 1.216874885559082031e+01 7.563071250915527344e+00 -1.741225714795291424e-04 -2.873835328500717878e-04 -1.384518254781141877e-04 1.523229526355862617e-03
4.592000000000000000e+03 3.596284103393554688e+01 1.601047134399414062e+01 8.365603685379028320e-01 9.122511863708496094e+00 2.987721681594848633e+00 -7.069507837295532227e-01
4.593000000000000000e+03 3.991844177246093750e+01 1.688473701477050781e+01 5.489204525947570801e-01 5.430976867675781250e+00 1.793969154357910156e+00 1.156860589981079102e+00
4.594000000000000000e+03 7.459779357910156250e+01 -2.972431755065917969e+01 -2.236025035381317139e-02 -1.318589504808187485e-02 -1.066384371370077133e-02 4.594471305608749390e-02
4.595000000000000000e+03 5.397266006469726562e+01 -1.099503707885742188e+01 3.798914253711700439e-01 8.272053003311157227e-01 3.621290028095245361e-01 1.822686553001403809e+00
4.596000000000000000e+03 7.585991382598876953e+00 3.053446197509765625e+01 3.670676797628402710e-02 1.367431413382291794e-02 1.511432509869337082e-02 1.065762713551521301e-01
4.597000000000000000e+03 6.681126403808593750e+01 2.087549972534179688e+01 7.837611436843872070e-02 1.992171168327331543e+00 6.211642026901245117e-01 4.880788326263427734e-01
4.598000000000000000e+03 6.203990936279296875e+00 -2.293374824523925781e+01 1.560538113117218018e-01 -1.648897528648376465e-01 -2.650783862918615341e-03 2.857451736927032471e-01
4.599000000000000000e+03 1.196579551696777344e+01 8.139242172241210938e+00 2.087913162540644407e-04 -6.675029289908707142e-04 -1.376134750898927450e-04 1.878195558674633503e-03
4.600000000000000000e+03 1.313972377777099609e+01 6.700236797332763672e+00 -2.376569900661706924e-04 4.544152179732918739e-04 6.502747419290244579e-05 1.492484472692012787e-03
4.601000000000000000e+03 6.295730590820312500e+01 -2.542390346527099609e+00 3.073513209819793701e-01 1.464463233947753906e+00 5.315443873405456543e-01 3.507583439350128174e-01
4.602000000000000000e+03 6.025229644775390625e+01 -2.628569126129150391e+00 4.635068774223327637e-01 1.814914464950561523e+00 6.835263967514038086e-01 8.276261687278747559e-01
4.603000000000000000e+03 6.777837753295898438e+00 8.225594520568847656e+00 4.312204255256801844e-04 -2.398729557171463966e-03 -5.902527482248842716e-04 -7.960055372677743435e-04
4.604000000000000000e+03 1.136487293243408203e+01 1.369203758239746094e+01 -6.063075270503759384e-03 -5.257238633930683136e-03 -3.396094311028718948e-03 -2.983351470902562141e-03
4.605000000000000000e+03 5.764869689941406250e+01 -1.034337234497070312e+01 -3.543232083320617676e-01 8.706021308898925781e-01 1.548836827278137207e-01 1.044646382331848145e+00
4.606000000000000000e+03 5.892268753051757812e+01 -9.059339523315429688e+00 -4.824261367321014404e-01 9.878032207489013672e-01 1.516131311655044556e-01 9.261292815208435059e-01
4.607000000000000000e+03 4.807288360595703125e+01 -1.114375209808349609e+01 8.849237561225891113e-01 2.311228990554809570e+00 9.588458538055419922e-01 1.422389984130859375e+00
4.608000000000000000e+03 4.491943740844726562e+01 -1.356260490417480469e+01 1.360306143760681152e+00 6.055896759033203125e+00 2.224860906600952148e+00 3.209307491779327393e-01
4.609000000000000000e+03 5.221375656127929688e+01 -8.551582336425781250e+00 -5.567125082015991211e-01 1.094982385635375977e+00 1.614809632301330566e-01 2.335482120513916016e+00
4.610000000000000000e+03 5.172250366210937500e+01 -9.069739341735839844e+00 -2.022452950477600098e-01 9.447344541549682617e-01 2.227467447519302368e-01 2.351838588714599609e+00
4.611000000000000000e+03 9.575382232666015625e+00 -6.795287132263183594e+00 -1.611512750387191772e-01 2.309160083532333374e-01 2.092942036688327789e-02 -5.137571096420288086e-01
4.612000000000000000e+03 4.676879501342773438e+01 -9.652468681335449219e+00 -6.248578056693077087e-02 2.462176799774169922e+00 7.199073433876037598e-01 5.213779211044311523e-01
4.613000000000000000e+03 9.257452011108398438e+00 6.739244937896728516e+00 7.837506127543747425e-04 -1.752723008394241333e-03 -2.906917070504277945e-04 5.653445259667932987e-04
4.614000000000000000e+03 3.376617813110351562e+01 -4.621033191680908203e+00 -1.159972310066223145e+00 6.606068134307861328e+00 1.633828639984130859e+00 -8.174080401659011841e-02
4.615000000000000000e+03 5.583523178100585938e+01 -8.542804718017578125e+00 -4.192833900451660156e-01 1.395758271217346191e+00 2.929424643516540527e-01 1.576937079429626465e+00
4.616000000000000000e+03 8.030802726745605469e+00 -6.841406345367431641e+00 -1.330345720052719116e-01 7.319147884845733643e-02 -1.795292645692825317e-02 -5.745116472244262695e-01
4.617000000000000000e+03 1.099810791015625000e+01 -8.977554321289062500e+00 1.014128848910331726e-01 5.661668181419372559e-01 2.002739161252975464e-01 -4.020356833934783936e-01
4.618000000000000000e+03 5.594982147216796875e+00 -2.647511482238769531e+01 -4.461279604583978653e-03 -2.479623407125473022e-01 -7.572708278894424438e-02 3.346368670463562012e-01
4.619000000000000000e+03 5.088494491577148438e+01 -1.083737945556640625e+01 8.491984009742736816e-01 1.061842203140258789e+00 5.733122229576110840e-01 2.159293651580810547e+00
4.620000000000000000e+03 5.234498977661132812e+01 -9.878997802734375000e+00 1.217224597930908203e-01 9.943560957908630371e-01 3.348235487937927246e-01 2.242555618286132812e+00
4.621000000000000000e+03 5.851930141448974609e+00 -9.636959075927734375e+00 7.718828320503234863e-02 -2.242795377969741821e-01 -4.412737861275672913e-02 -5.707685947418212891e-01
4.622000000000000000e+03 6.113705062866210938e+01 -8.272881507873535156e+00 -4.579918086528778076e-01 7.507172822952270508e-01 8.781763166189193726e-02 5.923139452934265137e-01
4.623000000000000000e+03 1.283285140991210938e+01 -6.712037563323974609e+00 -1.934485137462615967e-01 5.282842516899108887e-01 1.004507169127464294e-01 -2.038163542747497559e-01
4.624000000000000000e+03 5.331075286865234375e+01 -1.099178981781005859e+01 5.164119601249694824e-01 8.450106382369995117e-01 4.084267914295196533e-01 1.949193000793457031e+00
4.625000000000000000e+03 8.805687904357910156e+00 -6.829606533050537109e+00 -1.484848856925964355e-01 1.487706303596496582e-01 8.572248771088197827e-05 -5.525332689285278320e-01
4.626000000000000000e+03 3.221202087402343750e+01 -3.484843492507934570e+00 6.523706763982772827e-02 4.398280620574951172e+00 1.339055299758911133e+00 6.812604069709777832e-01
4.627000000000000000e+03 3.155656242370605469e+01 -3.475579500198364258e+00 3.683688640594482422e-01 3.196378231048583984e+00 1.069424152374267578e+00 7.787665724754333496e-01
4.628000000000000000e+03 1.282878494262695312e+01 -1.220794868469238281e+01 6.386646032333374023e-01 1.353186488151550293e+00 5.975553393363952637e-01 -8.823048323392868042e-03
4.629000000000000000e+03 7.403766632080078125e+01 -2.386969566345214844e+01 -1.491756271570920944e-02 -1.034090644679963589e-03 -4.785496275871992111e-03 6.004072725772857666e-03
4.630000000000000000e+03 7.372356414794921875e+01 2.606471443176269531e+01 -1.213413625955581665e-01 1.978970468044281006e-01 2.296670526266098022e-02 4.825778901576995850e-01
4.631000000000000000e+03 7.335911560058593750e+01 2.445866775512695312e+01 -8.938797563314437866e-02 2.445617616176605225e-01 4.655213281512260437e-02 5.459626317024230957e-01
4.632000000000000000e+03 6.121097183227539062e+01 -2.963269352912902832e-01 6.514131426811218262e-01 2.170041084289550781e+00 8.464362621307373047e-01 8.932640552520751953e-01
4.633000000000000000e+03 5.876794338226318359e+00 2.739231491088867188e+01 -4.737148061394691467e-03 -3.701708838343620300e-02 -1.252627093344926834e-02 1.156543791294097900e-01
4.634000000000000000e+03 5.986077785491943359e+00 -2.166135215759277344e+01 2.069175094366073608e-01 -2.380984723567962646e-01 -9.354289621114730835e-03 2.300085574388504028e-01
4.635000000000000000e+03 6.063122272491455078e+00 -2.227325057983398438e+01 1.869640648365020752e-01 -2.016792893409729004e-01 -4.414568189531564713e-03 2.616281211376190186e-01
4.636000000000000000e+03 7.382613372802734375e+01 2.688728713989257812e+01 -1.225992068648338318e-01 1.888150721788406372e-01 1.986476033926010132e-02 4.511528015136718750e-01
4.637000000000000000e+03 7.334798431396484375e+01 2.292303657531738281e+01 -4.189823195338249207e-02 2.000733315944671631e-01 4.745252802968025208e-02 5.731695890426635742e-01
4.638000000000000000e+03 7.350352478027343750e+01 2.207864379882812500e+01 -4.002619534730911255e-03 1.274153143167495728e-01 3.702380880713462830e-02 5.753218531608581543e-01
4.639000000000000000e+03 7.364524078369140625e+01 2.126063156127929688e+01 2.287520840764045715e-02 4.983001947402954102e-02 2.181156910955905914e-02 5.617424845695495605e-01
4.640000000000000000e+03 1.083734512329101562e+01 2.202467727661132812e+01 -1.432339549064636230e-01 8.270865678787231445e-02 -1.815758645534515381e-02 6.032530963420867920e-02
4.641000000000000000e+03 7.433647918701171875e+01 2.221223068237304688e+01 -9.746181778609752655e-03 -9.735379368066787720e-02 -3.212999179959297180e-02 5.342570543289184570e-01
4.642000000000000000e+03 7.319887542724609375e+01 2.374670600891113281e+01 -7.383698970079421997e-02 2.612515985965728760e-01 5.622438341379165649e-02 5.682072043418884277e-01
4.643000000000000000e+03 7.355830383300781250e+01 -2.833900070190429688e+01 -3.264844417572021484e-02 -9.453188977204263210e-05 -9.822892956435680389e-03 3.733700886368751526e-02
4.644000000000000000e+03 7.415822601318359375e+01 -2.707617759704589844e+01 -2.516600862145423889e-02 -1.974626677110791206e-03 -8.142190985381603241e-03 2.528853900730609894e-02
4.645000000000000000e+03 7.396467590332031250e+01 1.522990703582763672e+01 2.087113112211227417e-01 -2.660023272037506104e-01 -1.718730293214321136e-02 3.434979617595672607e-01
4.646000000000000000e+03 7.467989349365234375e+01 1.824778175354003906e+01 1.043218225240707397e-01 -3.849989771842956543e-01 -8.420314639806747437e-02 4.619726538658142090e-01
4.647000000000000000e+03 5.253409385681152344e+00 1.651162719726562500e+01 -2.132851071655750275e-02 -5.339175113476812840e-04 -6.558728404343128204e-03 1.391899399459362030e-02
4.648000000000000000e+03 9.263047218322753906e+00 1.625552368164062500e+01 -3.723793104290962219e-02 5.647065117955207825e-03 -9.477259591221809387e-03 -3.667752258479595184e-03
4.649000000000000000e+03 5.133992385864257812e+01 -1.121060657501220703e+01 9.401127696037292480e-01 9.661003947257995605e-01 5.718639492988586426e-01 2.119019985198974609e+00
4.650000000000000000e+03 7.324463653564453125e+01 1.901787757873535156e+01 1.243106126785278320e-01 8.342042565345764160e-02 6.231931224465370178e-02 5.394163727760314941e-01
4.651000000000000000e+03 7.181474304199218750e+01 -2.489031028747558594e+01 -2.907080389559268951e-02 4.953697789460420609e-03 -7.235132157802581787e-03 7.318045478314161301e-03
4.652000000000000000e+03 7.373185729980468750e+01 -2.632201576232910156e+01 -2.759927511215209961e-02 7.248322945088148117e-04 -8.062332868576049805e-03 1.965668052434921265e-02
4.653000000000000000e+03 7.386264801025390625e+01 1.364693069458007812e+01 2.486839890480041504e-01 -2.557119429111480713e-01 -2.108384389430284500e-03 2.602436840534210205e-01
4.654000000000000000e+03 7.465785980224609375e+01 1.437919235229492188e+01 1.842733174562454224e-01 -5.301585197448730469e-01 -1.037655547261238098e-01 2.816628813743591309e-01
4.655000000000000000e+03 4.599594497680664062e+01 -9.851299285888671875e+00 -1.184916049242019653e-01 3.157006263732910156e+00 9.115543961524963379e-01 6.155277788639068604e-02
4.656000000000000000e+03 4.362828063964843750e+01 -8.927550315856933594e+00 -1.049754142761230469e+00 4.872330665588378906e+00 1.146772980690002441e+00 -1.417262196540832520e+00
4.657000000000000000e+03 7.399496459960937500e+01 1.673407363891601562e+01 1.754218935966491699e-01 -2.290033102035522461e-01 -1.607442274689674377e-02 4.225968718528747559e-01
4.658000000000000000e+03 7.465392303466796875e+01 1.902207565307617188e+01 8.575545251369476318e-02 -3.365887701511383057e-01 -7.524999231100082397e-02 4.823582470417022705e-01
4.659000000000000000e+03 7.392678833007812500e+01 1.286141395568847656e+01 2.513288855552673340e-01 -3.068866133689880371e-01 -1.666731387376785278e-02 2.072219699621200562e-01
4.660000000000000000e+03 6.784637928009033203e+00 2.217931365966796875e+01 -5.978174507617950439e-02 1.904210634529590607e-02 -1.222189143300056458e-02 7.889623194932937622e-02
4.661000000000000000e+03 5.196945667266845703e+00 -8.873558998107910156e+00 2.768428437411785126e-02 -3.041244447231292725e-01 -8.293204754590988159e-02 -5.611515641212463379e-01
4.662000000000000000e+03 1.044464492797851562e+01 9.317153930664062500e+00 -1.237725518876686692e-04 -2.585185924544930458e-03 -8.126875618472695351e-04 1.386196468956768513e-03
4.663000000000000000e+03 7.263494491577148438e+00 -1.789418792724609375e+01 4.121829867362976074e-01 9.081587195396423340e-02 1.508996635675430298e-01 -3.589075058698654175e-02
4.664000000000000000e+03 3.686116027832031250e+01 1.575070762634277344e+01 7.109870910644531250e-01 8.534276962280273438e+00 2.773579359054565430e+00 -1.849494129419326782e-01
4.665000000000000000e+03 3.568819046020507812e+01 1.496013545989990234e+01 8.455512523651123047e-01 1.001200866699218750e+01 3.257267951965332031e+00 -1.047102689743041992e+00
4.666000000000000000e+03 7.299078369140625000e+01 9.518948554992675781e+00 3.163926899433135986e-01 -5.994243919849395752e-02 7.693507522344589233e-02 -1.250258064828813076e-03
4.667000000000000000e+03 7.334465789794921875e+01 1.135273742675781250e+01 3.048131167888641357e-01 -1.411377787590026855e-01 4.910260438919067383e-02 1.201475486159324646e-01
4.668000000000000000e+03 7.406491851806640625e+01 7.471830844879150391e+00 2.333312481641769409e-01 -4.412752091884613037e-01 -6.238319352269172668e-02 -1.541632562875747681e-01
4.669000000000000000e+03 7.406285095214843750e+01 6.745947360992431641e+00 2.298173606395721436e-01 -4.407474994659423828e-01 -6.327904760837554932e-02 -2.019481509923934937e-01
4.670000000000000000e+03 7.476372528076171875e+01 7.378649234771728516e+00 1.895339190959930420e-01 -6.713770031929016113e-01 -1.445529162883758545e-01 -1.609134525060653687e-01
4.671000000000000000e+03 7.181912994384765625e+01 -2.682593727111816406e+01 -4.575433582067489624e-02 1.080624107271432877e-02 -1.048442814499139786e-02 2.093493565917015076e-02
4.672000000000000000e+03 7.396470642089843750e+01 -2.337335586547851562e+00 2.597981318831443787e-02 -2.745552361011505127e-01 -7.457262277603149414e-02 -5.723325014114379883e-01
4.673000000000000000e+03 7.433168792724609375e+01 -4.231522083282470703e+00 -3.469091281294822693e-02 -2.697333991527557373e-01 -9.132729470729827881e-02 -5.613925457000732422e-01
4.674000000000000000e+03 7.403778839111328125e+01 6.028062820434570312e+00 2.245161980390548706e-01 -4.304545223712921143e-01 -6.178149580955505371e-02 -2.478626966476440430e-01
4.675000000000000000e+03 7.431072235107421875e+01 -4.773647785186767578e+00 -5.773833394050598145e-02 -2.425733655691146851e-01 -9.009350836277008057e-02 -5.538254380226135254e-01
4.676000000000000000e+03 7.492074584960937500e+01 -4.112840652465820312e+00 -2.656115032732486725e-02 -3.577276766300201416e-01 -1.152866482734680176e-01 -5.333709716796875000e-01
4.677000000000000000e+03 7.400286102294921875e+01 9.009897232055664062e+00 2.470881789922714233e-01 -4.035584628582000732e-01 -4.694108292460441589e-02 -5.227914825081825256e-02
4.678000000000000000e+03 6.648140716552734375e+01 5.591590404510498047e+00 6.759476661682128906e-01 2.043273210525512695e+00 8.157662749290466309e-01 1.436289846897125244e-01
4.679000000000000000e+03 7.341889190673828125e+01 3.364290714263916016e+00 2.110573947429656982e-01 -2.386309355497360229e-01 -8.272061124444007874e-03 -4.019424915313720703e-01
4.680000000000000000e+03 7.308744812011718750e+01 2.786161184310913086e+00 2.111653089523315430e-01 -1.494234800338745117e-01 1.852255128324031830e-02 -4.294002950191497803e-01
4.681000000000000000e+03 6.716774749755859375e+01 1.423968315124511719e+01 5.594719648361206055e-01 2.379801988601684570e+00 8.817821741104125977e-01 3.059584498405456543e-01
4.682000000000000000e+03 1.358829975128173828e+01 -7.744325637817382812e+00 -3.656677901744842529e-02 7.325742840766906738e-01 2.088022381067276001e-01 -9.413667768239974976e-02
4.683000000000000000e+03 7.333267211914062500e+01 1.845682382583618164e+00 1.712899804115295410e-01 -2.129155546426773071e-01 -1.248767226934432983e-02 -4.697516858577728271e-01
4.684000000000000000e+03 7.413098144531250000e+01 -5.427044391632080078e+00 -8.641505241394042969e-02 -1.994462311267852783e-01 -8.575838804244995117e-02 -5.492615699768066406e-01
4.685000000000000000e+03 6.725362396240234375e+01 4.087734699249267578e+00 5.792015194892883301e-01 1.575895905494689941e+00 6.465292572975158691e-01 -3.918508440256118774e-02
4.686000000000000000e+03 7.455649566650390625e+01 -1.389001011848449707e+00 4.619658365845680237e-02 -4.180259108543395996e-01 -1.115487962961196899e-01 -5.396860837936401367e-01
4.687000000000000000e+03 7.264670562744140625e+01 -3.546196222305297852e+00 -1.669210381805896759e-02 -3.843558952212333679e-02 -1.653830707073211670e-02 -6.057171821594238281e-01
4.688000000000000000e+03 7.326972961425781250e+01 1.095813326537609100e-02 1.182587146759033203e-01 -1.806190162897109985e-01 -1.870809122920036316e-02 -5.370968580245971680e-01
4.689000000000000000e+03 7.384643554687500000e+01 -2.454948806762695312e+01 -1.747839152812957764e-02 -6.740279495716094971e-04 -5.445725750178098679e-03 9.194144979119300842e-03
4.690000000000000000e+03 7.311425781250000000e+01 -2.578477096557617188e+01 -2.829110622406005859e-02 3.233192488551139832e-03 -7.517374120652675629e-03 1.551857683807611465e-02
4.691000000000000000e+03 5.666118240356445312e+01 -1.055378437042236328e+01 -1.965912878513336182e-01 8.796570301055908203e-01 2.049197256565093994e-01 1.250008821487426758e+00
4.692000000000000000e+03 5.696823120117187500e+01 -1.000102233886718750e+01 -2.930062413215637207e-01 9.953814148902893066e-01 2.107125520706176758e-01 1.257411837577819824e+00
4.693000000000000000e+03 7.419679260253906250e+01 -3.662944316864013672e+00 -1.928750425577163696e-02 -2.755843400955200195e-01 -8.846154808998107910e-02 -5.664893984794616699e-01
4.694000000000000000e+03 7.456219482421875000e+01 -1.024135589599609375e+01 -1.971405148506164551e-01 -5.294805020093917847e-02 -7.502657175064086914e-02 -3.170976340770721436e-01
4.695000000000000000e+03 7.397212982177734375e+01 1.210055637359619141e+01 2.481859624385833740e-01 -3.534087538719177246e-01 -3.156683966517448425e-02 1.567658334970474243e-01
4.696000000000000000e+03 7.367771148681640625e+01 -1.060360074043273926e+00 7.336313277482986450e-02 -2.555734813213348389e-01 -5.466310679912567139e-02 -5.583643317222595215e-01
4.697000000000000000e+03 7.383428955078125000e+01 -1.675975799560546875e+00 4.978359118103981018e-02 -2.671654224395751953e-01 -6.521454453468322754e-02 -5.674247741699218750e-01
4.698000000000000000e+03 7.394502258300781250e+01 -6.233621597290039062e+00 -1.188500523567199707e-01 -1.432586759328842163e-01 -7.863261550664901733e-02 -5.376206040382385254e-01
4.699000000000000000e+03 7.253801727294921875e+01 1.752777862548828125e+01 2.177096158266067505e-01 2.768521308898925781e-01 1.483685225248336792e-01 5.053367614746093750e-01
4.700000000000000000e+03 7.338222503662109375e+00 7.988085269927978516e+00 1.574225025251507759e-04 -2.619805512949824333e-03 -7.387148798443377018e-04 -2.878487866837531328e-04
4.701000000000000000e+03 5.479829788208007812e+00 2.595650100708007812e+01 -1.599217019975185394e-02 -3.726392611861228943e-02 -1.597682945430278778e-02 1.088921055197715759e-01
4.702000000000000000e+03 5.920698165893554688e+00 -1.537183952331542969e+01 3.114658594131469727e-01 -2.921151518821716309e-01 5.805211607366800308e-03 -2.536835074424743652e-01
4.703000000000000000e+03 6.423783779144287109e+00 2.163810729980468750e+01 -5.368116497993469238e-02 1.423172187060117722e-02 -1.183483283966779709e-02 6.928345561027526855e-02
4.704000000000000000e+03 7.387015533447265625e+01 -7.116691112518310547e+00 -1.588165909051895142e-01 -1.033261492848396301e-01 -7.864282280206680298e-02 -5.104100108146667480e-01
4.705000000000000000e+03 1.068254947662353516e+01 -3.153337287902832031e+01 -2.386873662471771240e-01 5.599270462989807129e-01 9.637191146612167358e-02 9.933164715766906738e-02
4.706000000000000000e+03 6.135099411010742188e+00 1.419119167327880859e+01 -1.241268776357173920e-02 -1.898686401546001434e-03 -4.293412435799837112e-03 3.342984011396765709e-03
4.707000000000000000e+03 9.809235572814941406e+00 1.408885383605957031e+01 -1.395016815513372421e-02 -3.496969118714332581e-03 -5.234140902757644653e-03 -3.555502044036984444e-03
4.708000000000000000e+03 4.369823074340820312e+01 -1.419100761413574219e+01 1.355292201042175293e+00 7.113901138305664062e+00 2.540757894515991211e+00 -2.882389426231384277e-01
4.709000000000000000e+03 4.421995162963867188e+01 -1.463898754119873047e+01 1.673265933990478516e+00 7.107672214508056641e+00 2.634281396865844727e+00 1.079373434185981750e-01
4.710000000000000000e+03 5.792351245880126953e+00 1.113749217987060547e+01 -3.020890057086944580e-03 -2.867094706743955612e-03 -1.766395405866205692e-03 -2.603290777187794447e-04
4.711000000000000000e+03 5.235424518585205078e+00 1.053287029266357422e+01 -1.883383258245885372e-03 -2.236047992482781410e-03 -1.235829433426260948e-03 -7.629321771673858166e-04
4.712000000000000000e+03 5.344839572906494141e+00 -1.854625320434570312e+01 2.582148611545562744e-01 -4.527565538883209229e-01 -5.836250633001327515e-02 1.261858269572257996e-02
4.713000000000000000e+03 6.475126743316650391e+00 -1.575829696655273438e+01 3.618492484092712402e-01 -1.429988145828247070e-01 6.565512716770172119e-02 -2.224519699811935425e-01
4.714000000000000000e+03 5.181276321411132812e+00 1.793927955627441406e+01 -2.761339396238327026e-02 -6.426740437746047974e-04 -8.476820774376392365e-03 2.465156838297843933e-02
4.715000000000000000e+03 6.009791851043701172e+00 1.297936534881591797e+01 -6.951147690415382385e-03 -2.616250887513160706e-03 -2.870219526812434196e-03 7.446147501468658447e-04
4.716000000000000000e+03 6.016819000244140625e+00 -1.459704399108886719e+01 2.993262112140655518e-01 -2.677154541015625000e-01 9.483224712312221527e-03 -3.102068901062011719e-01
4.717000000000000000e+03 8.524250984191894531e+00 7.336935997009277344e+00 7.048735860735177994e-04 -2.205048454925417900e-03 -4.500524373725056648e-04 1.958042412297800183e-04
4.718000000000000000e+03 5.345530509948730469e+00 1.319635295867919922e+01 -7.485477719455957413e-03 -2.656769240275025368e-03 -3.042673924937844276e-03 1.696090213954448700e-03
4.719000000000000000e+03 6.351112365722656250e+00 1.985270881652832031e+01 -5.010695755481719971e-02 1.019583921879529953e-02 -1.197333540767431259e-02 4.589610174298286438e-02
4.720000000000000000e+03 5.746400356292724609e+00 1.233281993865966797e+01 -5.372030194848775864e-03 -3.145541995763778687e-03 -2.555271610617637634e-03 7.219169056043028831e-04
4.721000000000000000e+03 7.379591369628906250e+01 2.050192070007324219e+01 5.862842500209808350e-02 -1.453932747244834900e-02 1.322672981768846512e-02 5.535579323768615723e-01
4.722000000000000000e+03 7.324545288085937500e+01 1.971434402465820312e+01 9.271821379661560059e-02 1.024072840809822083e-01 5.853765085339546204e-02 5.605384111404418945e-01
4.723000000000000000e+03 7.313252258300781250e+01 -7.290231227874755859e+00 -1.898827999830245972e-01 -3.342905640602111816e-02 -6.699355691671371460e-02 -5.245781540870666504e-01
4.724000000000000000e+03 7.460261535644531250e+01 -8.705737113952636719e+00 -1.699347496032714844e-01 -1.079210117459297180e-01 -8.335673063993453979e-02 -4.053425788879394531e-01
4.725000000000000000e+03 6.138700008392333984e+00 9.218445777893066406e+00 -4.572935868054628372e-04 -2.590183401480317116e-03 -9.142431081272661686e-04 -8.530550985597074032e-04
4.726000000000000000e+03 5.365340709686279297e+00 -1.935294532775878906e+01 2.442148178815841675e-01 -4.391889572143554688e-01 -5.849223956465721130e-02 6.915134936571121216e-02
4.727000000000000000e+03 7.398798370361328125e+01 1.749700355529785156e+01 1.541745215654373169e-01 -1.973434090614318848e-01 -1.295066531747579575e-02 4.608574211597442627e-01
4.728000000000000000e+03 5.542208194732666016e+00 2.520617866516113281e+01 -2.165008522570133209e-02 -2.742420136928558350e-02 -1.472228579223155975e-02 1.052833274006843567e-01
4.729000000000000000e+03 6.021838665008544922e+00 1.586592960357666016e+01 -2.153227105736732483e-02 7.041737553663551807e-04 -6.248428951948881149e-03 8.893612772226333618e-03
4.730000000000000000e+03 5.278854370117187500e+00 -1.200815105438232422e+01 1.703221201896667480e-01 -3.921741247177124023e-01 -6.655560433864593506e-02 -4.689859151840209961e-01
4.731000000000000000e+03 1.141065883636474609e+01 -8.083519935607910156e+00 -2.169170230627059937e-02 5.267511606216430664e-01 1.515178382396697998e-01 -3.763952553272247314e-01
4.732000000000000000e+03 5.722965240478515625e+00 -2.569440078735351562e+01 1.862427219748497009e-02 -2.333602905273437500e-01 -6.442080438137054443e-02 3.367956578731536865e-01
4.733000000000000000e+03 6.708740234375000000e+00 -2.494579315185546875e+01 6.267616897821426392e-02 6.504464428871870041e-03 2.075419016182422638e-02 3.456918001174926758e-01
4.734000000000000000e+03 9.789826393127441406e+00 1.780274581909179688e+01 -6.479591131210327148e-02 1.983714289963245392e-02 -1.348763145506381989e-02 -4.780555609613656998e-03
4.735000000000000000e+03 5.692689418792724609e+00 1.864142799377441406e+01 -3.624915704131126404e-02 4.060565028339624405e-03 -9.656578302383422852e-03 3.035719133913516998e-02
4.736000000000000000e+03 8.305906295776367188e+00 1.646203041076660156e+01 -3.710729628801345825e-02 6.477501709014177322e-03 -9.188938885927200317e-03 3.653908614069223404e-03
4.737000000000000000e+03 5.832789897918701172e+00 1.803005599975585938e+01 -3.267482295632362366e-02 2.549161901697516441e-03 -9.037697687745094299e-03 2.464871667325496674e-02
4.738000000000000000e+03 1.039038753509521484e+01 1.978975868225097656e+01 -1.136629879474639893e-01 4.962520301342010498e-02 -1.921133510768413544e-02 8.222905918955802917e-03
4.739000000000000000e+03 6.091327667236328125e+00 -2.097827529907226562e+01 2.476617097854614258e-01 -2.169338017702102661e-01 9.218368679285049438e-03 1.897593736648559570e-01
4.740000000000000000e+03 5.328425884246826172e+00 -1.284207344055175781e+01 1.978211998939514160e-01 -4.045857489109039307e-01 -6.202936545014381409e-02 -4.242575466632843018e-01
4.741000000000000000e+03 5.859477043151855469e+00 -1.039063644409179688e+01 1.201017796993255615e-01 -2.388498634099960327e-01 -3.562442213296890259e-02 -5.515400767326354980e-01
4.742000000000000000e+03 6.051073074340820312e+00 -1.937895393371582031e+01 2.969307601451873779e-01 -2.495562136173248291e-01 1.421235967427492142e-02 7.826365530490875244e-02
4.743000000000000000e+03 4.005457305908203125e+01 -1.691567230224609375e+01 1.841676354408264160e+00 8.632441520690917969e+00 3.142235279083251953e+00 -1.267920136451721191e+00
4.744000000000000000e+03 8.597311973571777344e+00 -8.710314750671386719e+00 3.828203305602073669e-02 1.971421986818313599e-01 7.062727212905883789e-02 -5.681257843971252441e-01
4.745000000000000000e+03 6.059448242187500000e+00 -1.283079910278320312e+01 2.432044595479965210e-01 -2.375921905040740967e-01 1.683678943663835526e-03 -4.360305070877075195e-01
4.746000000000000000e+03 5.950442790985107422e+00 -1.197268676757812500e+01 2.012609094381332397e-01 -2.503534555435180664e-01 -1.472776662558317184e-02 -4.870527088642120361e-01
4.747000000000000000e+03 6.090939521789550781e+00 2.598207855224609375e+01 -1.773141883313655853e-02 -2.020908892154693604e-02 -1.138215232640504837e-02 1.117553710937500000e-01
4.748000000000000000e+03 9.283269882202148438e+00 -1.686465263366699219e+01 5.877100229263305664e-01 7.497771978378295898e-01 4.012461602687835693e-01 -7.154430449008941650e-02
4.749000000000000000e+03 5.925245285034179688e+00 -7.552818775177001953e+00 -4.470498487353324890e-02 -1.618694514036178589e-01 -6.197232753038406372e-02 -5.883992910385131836e-01
4.750000000000000000e+03 6.178953933715820312e+01 -6.674571633338928223e-01 5.736598968505859375e-01 2.012807846069335938e+00 7.759402990341186523e-01 7.222787737846374512e-01
4.751000000000000000e+03 6.146017551422119141e+00 -2.729653739929199219e+01 -5.013974756002426147e-02 -1.243270859122276306e-01 -5.234004929661750793e-02 3.272595405578613281e-01
4.752000000000000000e+03 6.907425689697265625e+01 -3.147274780273437500e+01 -7.342127710580825806e-02 3.051200695335865021e-02 -1.287278067320585251e-02 9.074246883392333984e-02
4.753000000000000000e+03 7.353904724121093750e+01 -3.194374465942382812e+01 -2.010065689682960510e-02 -1.855837740004062653e-02 -1.159770973026752472e-02 6.731337308883666992e-02
4.754000000000000000e+03 6.635533809661865234e+00 -2.914554786682128906e+01 -9.642911702394485474e-02 -1.805437169969081879e-02 -3.434504568576812744e-02 2.971023023128509521e-01
4.755000000000000000e+03 1.184661674499511719e+01 -2.520883941650390625e+01 1.136828958988189697e-02 1.261409997940063477e+00 3.818334937095642090e-01 1.142056658864021301e-01
4.756000000000000000e+03 3.807554244995117188e+01 -8.095694541931152344e+00 -2.431722879409790039e+00 9.127362251281738281e+00 2.008691787719726562e+00 -1.451685667037963867e+00
4.757000000000000000e+03 1.211058044433593750e+01 8.734560012817382812e+00 -6.959349266253411770e-04 -6.878817221149802208e-04 -4.151449829805642366e-04 2.173193963244557381e-03
4.758000000000000000e+03 6.565484046936035156e+00 2.382362747192382812e+01 -4.367422685027122498e-02 8.828665129840373993e-03 -1.045366842299699783e-02 1.007074713706970215e-01
4.759000000000000000e+03 6.708260059356689453e+00 2.602097320556640625e+01 -1.878169737756252289e-02 -2.029383787885308266e-03 -6.243324372917413712e-03 1.203925162553787231e-01
4.760000000000000000e+03 7.801984310150146484e+00 -2.442197227478027344e+01 1.053492128849029541e-01 2.849603295326232910e-01 1.170928627252578735e-01 3.444844782352447510e-01
4.761000000000000000e+03 8.284853935241699219e+00 3.135583305358886719e+01 4.990679770708084106e-02 4.869396612048149109e-02 2.958022989332675934e-02 9.687557071447372437e-02
4.762000000000000000e+03 7.472065925598144531e+00 -2.335574722290039062e+01 1.826778799295425415e-01 2.019468396902084351e-01 1.153874173760414124e-01 3.241762220859527588e-01
4.763000000000000000e+03 6.817265510559082031e+00 -2.814551162719726562e+01 -7.648708671331405640e-02 3.050417453050613403e-02 -1.379487384110689163e-02 3.246172666549682617e-01
4.764000000000000000e+03 6.783543109893798828e+00 -2.723480606079101562e+01 -4.972571134567260742e-02 1.937034912407398224e-02 -9.106608107686042786e-03 3.350981175899505615e-01
4.765000000000000000e+03 4.645844650268554688e+01 -8.795821189880371094e+00 -6.319169402122497559e-01 2.116402626037597656e+00 4.453457295894622803e-01 1.675802469253540039e-01
4.766000000000000000e+03 3.636486053466796875e+01 -8.542862892150878906e+00 -2.233116865158081055e+00 8.831217765808105469e+00 1.979430198669433594e+00 -1.146529078483581543e+00
4.767000000000000000e+03 4.126431655883789062e+01 -2.143008422851562500e+01 2.169893264770507812e+00 9.405068397521972656e+00 3.472488403320312500e+00 -4.493267536163330078e-01
4.768000000000000000e+03 5.475742721557617188e+01 -1.034383392333984375e+01 2.267064526677131653e-02 9.722308516502380371e-01 2.984704375267028809e-01 1.758725285530090332e+00
4.769000000000000000e+03 5.341362762451171875e+01 -8.856966018676757812e+00 -3.963009417057037354e-01 1.241575479507446289e+00 2.535823583602905273e-01 2.160325288772583008e+00
4.770000000000000000e+03 4.320931625366210938e+01 -8.553174018859863281e+00 -1.350771665573120117e+00 5.150165081024169922e+00 1.139818072319030762e+00 -1.654696583747863770e+00
4.771000000000000000e+03 4.194392395019531250e+01 -8.163371086120605469e+00 -1.837319612503051758e+00 6.510490417480468750e+00 1.401951193809509277e+00 -2.048924684524536133e+00
4.772000000000000000e+03 3.519010543823242188e+01 -1.819093942642211914e+00 -6.834571249783039093e-03 9.311348915100097656e+00 2.791354417800903320e+00 1.840945780277252197e-01
4.773000000000000000e+03 4.542576217651367188e+01 -1.230497264862060547e+01 9.208607077598571777e-01 4.969932079315185547e+00 1.767237901687622070e+00 3.047794997692108154e-01
4.774000000000000000e+03 4.460815811157226562e+01 -8.974314689636230469e+00 -8.227349519729614258e-01 3.800448656082153320e+00 8.933141231536865234e-01 -9.171402454376220703e-01
4.775000000000000000e+03 1.640141296386718750e+01 -6.167186260223388672e+00 -2.270010411739349365e-01 5.463483333587646484e-01 9.580418467521667480e-02 2.939936816692352295e-01
4.776000000000000000e+03 5.515998458862304688e+01 -8.331997871398925781e+00 -4.765551090240478516e-01 1.470087051391601562e+00 2.980595827102661133e-01 1.718459606170654297e+00
4.777000000000000000e+03 5.671681976318359375e+01 -8.245558738708496094e+00 -4.114811718463897705e-01 1.386163234710693359e+00 2.924046218395233154e-01 1.391057848930358887e+00
4.778000000000000000e+03 1.198126411437988281e+01 2.349039649963378906e+01 -1.338433623313903809e-01 1.018862575292587280e-01 -9.587130509316921234e-03 8.859641104936599731e-02
4.779000000000000000e+03 3.976737213134765625e+01 -6.268883705139160156e+00 -2.733035326004028320e+00 9.045432090759277344e+00 1.893719077110290527e+00 -2.086711406707763672e+00
4.780000000000000000e+03 6.776786041259765625e+01 -8.988431930541992188e+00 -5.956312417984008789e-01 2.227643728256225586e-01 -1.118600592017173767e-01 -4.390692412853240967e-01
4.781000000000000000e+03 1.724875831604003906e+01 -6.295141220092773438e+00 -1.611318737268447876e-01 5.670522451400756836e-01 1.217761114239692688e-01 4.303382635116577148e-01
4.782000000000000000e+03 1.024291324615478516e+01 -1.809474372863769531e+01 6.320221424102783203e-01 1.158582568168640137e+00 5.371813774108886719e-01 2.647222205996513367e-02
4.783000000000000000e+03 1.026549816131591797e+01 -1.673197937011718750e+01 6.404396891593933105e-01 1.096300601959228516e+00 5.210220813751220703e-01 -3.573542088270187378e-02
4.784000000000000000e+03 7.413170337677001953e+00 3.209615325927734375e+01 4.407515376806259155e-02 7.952359504997730255e-03 1.560825388878583908e-02 9.159567207098007202e-02
4.785000000000000000e+03 3.341294479370117188e+01 -5.587682723999023438e+00 -1.483361244201660156e+00 5.950329303741455078e+00 1.340090394020080566e+00 -4.108277857303619385e-01
4.786000000000000000e+03 6.830088615417480469e+00 1.925656127929687500e+01 -5.204759538173675537e-02 1.560762245208024979e-02 -1.093199197202920914e-02 3.602362424135208130e-02
4.787000000000000000e+03 6.229745101928710938e+01 2.124862372875213623e-02 5.746259093284606934e-01 2.100135564804077148e+00 8.024284243583679199e-01 6.625776290893554688e-01
4.788000000000000000e+03 6.339430618286132812e+01 3.585956096649169922e-01 5.260200500488281250e-01 1.983585000038146973e+00 7.528815269470214844e-01 4.324176311492919922e-01
4.789000000000000000e+03 1.684361267089843750e+01 -7.475394248962402344e+00 2.343774959444999695e-02 7.473212480545043945e-01 2.312276959419250488e-01 4.303705096244812012e-01
4.790000000000000000e+03 4.346643447875976562e+01 1.991623687744140625e+01 3.464758396148681641e-01 2.642952203750610352e+00 8.968284130096435547e-01 1.259514212608337402e+00
4.791000000000000000e+03 4.102437591552734375e+01 1.813838005065917969e+01 4.834261834621429443e-01 4.261674880981445312e+00 1.423530340194702148e+00 1.312149882316589355e+00
4.792000000000000000e+03 7.406169891357421875e+01 -3.417087173461914062e+01 -1.526407548226416111e-03 -3.949173912405967712e-02 -1.230544410645961761e-02 6.975430250167846680e-02
4.793000000000000000e+03 3.095791435241699219e+01 -3.235852718353271484e+00 6.194815635681152344e-01 2.565098524093627930e+00 9.553740024566650391e-01 8.979209065437316895e-01
4.794000000000000000e+03 1.008250141143798828e+01 1.871464538574218750e+01 -8.618592470884323120e-02 3.203561902046203613e-02 -1.624509133398532867e-02 -1.657068496569991112e-03
4.795000000000000000e+03 2.682484245300292969e+01 -4.840049266815185547e+00 1.486826539039611816e-01 1.243288815021514893e-01 8.190345764160156250e-02 1.105793595314025879e+00
4.796000000000000000e+03 6.717388916015625000e+01 1.821576309204101562e+01 4.183741211891174316e-01 2.094068765640258789e+00 7.537328600883483887e-01 4.333586692810058594e-01
4.797000000000000000e+03 1.009825706481933594e+01 7.505564212799072266e+00 5.646420759148895741e-04 -1.812346046790480614e-03 -3.743111738003790379e-04 1.065218471921980381e-03
4.798000000000000000e+03 1.111161613464355469e+01 9.745224952697753906e+00 -4.995931521989405155e-04 -2.195877488702535629e-03 -8.086411980912089348e-04 1.881740288808941841e-03
4.799000000000000000e+03 1.957927894592285156e+01 -6.773605823516845703e+00 3.044467046856880188e-02 4.675345420837402344e-01 1.493937671184539795e-01 6.789297461509704590e-01
4.800000000000000000e+03 2.029347419738769531e+01 -6.417375087738037109e+00 -4.087549820542335510e-02 3.942602574825286865e-01 1.060154289007186890e-01 7.104471921920776367e-01
4.801000000000000000e+03 5.554443359375000000e+01 -9.750442504882812500e+00 -2.171277701854705811e-01 1.129810690879821777e+00 2.738048732280731201e-01 1.631042361259460449e+00
4.802000000000000000e+03 5.630004882812500000e+01 -9.248284339904785156e+00 -3.414980471134185791e-01 1.211833715438842773e+00 2.611007094383239746e-01 1.463793516159057617e+00
4.803000000000000000e+03 1.692251586914062500e+01 -8.097906112670898438e+00 1.384724974632263184e-01 8.226690888404846191e-01 2.883424758911132812e-01 4.607828557491302490e-01
4.804000000000000000e+03 3.507218170166015625e+01 2.216435241699218750e+01 2.268936485052108765e-01 6.523140430450439453e+00 2.025010347366333008e+00 -3.832233604043722153e-03
4.805000000000000000e+03 1.521103572845458984e+01 -1.059651660919189453e+01 6.331483721733093262e-01 1.364728808403015137e+00 5.993631482124328613e-01 3.756428360939025879e-01
4.806000000000000000e+03 5.906869506835937500e+01 -5.791392803192138672e+00 -1.008530110120773315e-01 1.520173072814941406e+00 4.257960319519042969e-01 9.070326685905456543e-01
4.807000000000000000e+03 3.541212463378906250e+01 -8.083677291870117188e+00 -2.312697887420654297e+00 8.361057281494140625e+00 1.814507842063903809e+00 -1.077332973480224609e+00
4.808000000000000000e+03 3.459230041503906250e+01 -6.558073520660400391e+00 -2.216291427612304688e+00 7.465932846069335938e+00 1.574892401695251465e+00 -8.922510743141174316e-01
4.809000000000000000e+03 3.523624801635742188e+01 -6.417704582214355469e+00 -2.341964244842529297e+00 8.156439781188964844e+00 1.744342684745788574e+00 -8.741187453269958496e-01
4.810000000000000000e+03 5.946752166748046875e+01 -7.667305469512939453e+00 -3.648696839809417725e-01 1.141740441322326660e+00 2.330612242221832275e-01 8.683775067329406738e-01
4.811000000000000000e+03 1.465657329559326172e+01 -8.930184364318847656e+00 1.984103620052337646e-01 1.006383538246154785e+00 3.614381551742553711e-01 1.349176913499832153e-01
4.812000000000000000e+03 4.461679840087890625e+01 2.321284103393554688e+01 7.132148742675781250e-02 2.394762516021728516e+00 7.398251891136169434e-01 1.190068960189819336e+00
4.813000000000000000e+03 4.409145736694335938e+01 2.407963943481445312e+01 1.974959392100572586e-03 2.627565383911132812e+00 7.888620495796203613e-01 1.195444822311401367e+00
4.814000000000000000e+03 4.065854644775390625e+01 -8.353093147277832031e+00 -2.028372049331665039e+00 7.805083751678466797e+00 1.733013391494750977e+00 -1.967563748359680176e+00
4.815000000000000000e+03 3.928832244873046875e+01 -1.210206508636474609e+01 1.140051707625389099e-02 8.245191574096679688e+00 2.476977586746215820e+00 -1.496769785881042480e+00
4.816000000000000000e+03 3.369682312011718750e+01 -2.666338920593261719e+00 -1.824043691158294678e-01 6.892933845520019531e+00 2.013158798217773438e+00 6.128463149070739746e-01
4.817000000000000000e+03 4.989353942871093750e+01 -9.488622665405273438e+00 7.704882323741912842e-02 9.430498480796813965e-01 3.060296177864074707e-01 2.037434339523315430e+00
4.818000000000000000e+03 3.563067626953125000e+01 -3.098241567611694336e+00 -7.866216301918029785e-01 9.274497032165527344e+00 2.546362638473510742e+00 -1.219388246536254883e-01
4.819000000000000000e+03 3.449144363403320312e+01 -2.274484395980834961e+00 -1.823226809501647949e-01 8.315564155578613281e+00 2.439972400665283203e+00 4.143675565719604492e-01
4.820000000000000000e+03 4.172346115112304688e+01 2.065164375305175781e+01 2.716145515441894531e-01 3.711470603942871094e+00 1.194925546646118164e+00 1.298409819602966309e+00
4.821000000000000000e+03 4.089883041381835938e+01 1.933626747131347656e+01 3.719348907470703125e-01 4.238952636718750000e+00 1.383266329765319824e+00 1.281451702117919922e+00
4.822000000000000000e+03 3.999090957641601562e+01 -1.839703750610351562e+01 2.032300233840942383e+00 8.901681900024414062e+00 3.280194759368896484e+00 -9.311909675598144531e-01
4.823000000000000000e+03 3.930648422241210938e+01 -1.152857780456542969e+01 -3.464212119579315186e-01 8.238954544067382812e+00 2.367760181427001953e+00 -1.513096332550048828e+00
4.824000000000000000e+03 1.013333797454833984e+01 -2.100322723388671875e+01 4.886251688003540039e-01 1.058004260063171387e+00 4.639888405799865723e-01 1.708171516656875610e-01
4.825000000000000000e+03 1.030836582183837891e+01 -2.023214149475097656e+01 5.598663687705993652e-01 1.156131386756896973e+00 5.147992968559265137e-01 1.160879805684089661e-01
4.826000000000000000e+03 7.100531005859375000e+01 -9.057734489440917969e+00 -4.142757952213287354e-01 1.583561301231384277e-01 -7.677589356899261475e-02 -4.636538922786712646e-01
4.827000000000000000e+03 6.960601043701171875e+01 -9.057878494262695312e+00 -5.084477663040161133e-01 2.184031903743743896e-01 -8.701337128877639771e-02 -4.675001800060272217e-01
4.828000000000000000e+03 7.316758728027343750e+01 -8.856721878051757812e+00 -2.549970149993896484e-01 6.122269202023744583e-03 -7.466242462396621704e-02 -4.416064918041229248e-01
4.829000000000000000e+03 7.312844848632812500e+01 -9.605908393859863281e+00 -2.851636409759521484e-01 2.597416192293167114e-02 -7.775684446096420288e-02 -3.960642516613006592e-01
4.830000000000000000e+03 7.048744964599609375e+01 -2.672772979736328125e+01 -5.953175202012062073e-02 1.731438748538494110e-02 -1.266520936042070389e-02 1.587673835456371307e-02
4.831000000000000000e+03 7.172183227539062500e+01 -9.006650924682617188e+00 -3.537671267986297607e-01 1.123371645808219910e-01 -7.242898643016815186e-02 -4.590835869312286377e-01
4.832000000000000000e+03 5.615757369995117188e+01 -7.939194679260253906e+00 -4.551452994346618652e-01 1.509789943695068359e+00 3.163934051990509033e-01 1.486034154891967773e+00
4.833000000000000000e+03 5.713563919067382812e+01 -8.595904350280761719e+00 -3.985860943794250488e-01 1.289752483367919922e+00 2.673499286174774170e-01 1.294840812683105469e+00
4.834000000000000000e+03 6.676076507568359375e+01 1.104442214965820312e+01 6.366586089134216309e-01 2.535155057907104492e+00 9.515441060066223145e-01 3.103156685829162598e-01
4.835000000000000000e+03 1.089646530151367188e+01 -1.624397468566894531e+01 7.000264525413513184e-01 1.340257167816162109e+00 6.120851039886474609e-01 -6.478745955973863602e-03
4.836000000000000000e+03 8.781563758850097656e+00 1.163982105255126953e+01 -3.715108847245573997e-03 -4.411105066537857056e-03 -2.437864197418093681e-03 -2.804372925311326981e-04
4.837000000000000000e+03 1.091137123107910156e+01 1.124973964691162109e+01 -1.452518394216895103e-03 -3.429284086450934410e-03 -1.464540720917284489e-03 1.053153653629124165e-03
4.838000000000000000e+03 3.599343109130859375e+01 -7.783507347106933594e+00 -2.446195125579833984e+00 8.720900535583496094e+00 1.882411718368530273e+00 -1.101180553436279297e+00
4.839000000000000000e+03 7.356142425537109375e+01 -2.312003707885742188e+01 -1.245721429586410522e-02 -9.008925408124923706e-04 -4.007432144135236740e-03 3.201686311513185501e-03
4.840000000000000000e+03 7.310636138916015625e+01 -2.327646446228027344e+01 -1.537392474710941315e-02 -3.178676415700465441e-04 -4.707537591457366943e-03 3.724778071045875549e-03
4.841000000000000000e+03 4.036440658569335938e+01 1.869214820861816406e+01 4.202017188072204590e-01 4.711738109588623047e+00 1.539581894874572754e+00 1.224501371383666992e+00
4.842000000000000000e+03 7.333762359619140625e+01 8.966649055480957031e+00 2.943293154239654541e-01 -1.791857033967971802e-01 3.454308211803436279e-02 -5.439081415534019470e-02
4.843000000000000000e+03 6.868038177490234375e+01 -9.621284484863281250e+00 -6.328237056732177734e-01 2.255179733037948608e-01 -1.221917271614074707e-01 -4.206171929836273193e-01
4.844000000000000000e+03 6.390280151367187500e+01 1.108367800712585449e+00 5.550110936164855957e-01 2.040879726409912109e+00 7.787672877311706543e-01 3.644318580627441406e-01
4.845000000000000000e+03 7.077985382080078125e+01 -2.846074676513671875e+01 -6.547290086746215820e-02 2.108654938638210297e-02 -1.331590581685304642e-02 3.929182887077331543e-02
4.846000000000000000e+03 5.980043029785156250e+01 -4.916367530822753906e+00 6.391601264476776123e-02 1.518432855606079102e+00 4.747046530246734619e-01 7.924453616142272949e-01
4.847000000000000000e+03 3.887387847900390625e+01 1.975503158569335938e+01 3.450923264026641846e-01 5.539726257324218750e+00 1.765445590019226074e+00 9.628015756607055664e-01
4.848000000000000000e+03 7.385071563720703125e+01 4.632406234741210938e+00 2.118165791034698486e-01 -3.642579913139343262e-01 -4.573241993784904480e-02 -3.318702578544616699e-01
4.849000000000000000e+03 4.263471603393554688e+01 2.022139930725097656e+01 3.155248165130615234e-01 3.099277973175048828e+00 1.024440765380859375e+00 1.290255546569824219e+00
4.850000000000000000e+03 4.061235809326171875e+01 -2.186948776245117188e+01 2.116487741470336914e+00 9.078181266784667969e+00 3.358400821685791016e+00 -3.733862638473510742e-01
4.851000000000000000e+03 3.901389694213867188e+01 -2.327783203125000000e+01 1.846867322921752930e+00 8.248217582702636719e+00 3.028525352478027344e+00 1.393379718065261841e-01
4.852000000000000000e+03 1.472464942932128906e+01 -8.302049636840820312e+00 8.602134883403778076e-02 8.885322213172912598e-01 2.923660576343536377e-01 1.168372258543968201e-01
4.853000000000000000e+03 2.124237442016601562e+01 3.085359001159667969e+01 1.524226516485214233e-01 1.212248325347900391e+00 4.094012975692749023e-01 -6.908994317054748535e-01
4.854000000000000000e+03 3.939100265502929688e+01 -3.137872505187988281e+01 -4.372522532939910889e-01 6.508588790893554688e+00 1.821401000022888184e+00 6.743325591087341309e-01
4.855000000000000000e+03 5.915032386779785156e+00 1.663276290893554688e+01 -2.564094029366970062e-02 1.393011305481195450e-03 -7.274379022419452667e-03 1.395397167652845383e-02
4.856000000000000000e+03 6.664692687988281250e+01 7.710464954376220703e+00 6.763725876808166504e-01 2.255675077438354492e+00 8.796142935752868652e-01 2.354643642902374268e-01
4.857000000000000000e+03 1.295376205444335938e+01 -2.708360862731933594e+01 -1.417396664619445801e-01 1.161064624786376953e+00 3.057974874973297119e-01 -3.561212494969367981e-02
4.858000000000000000e+03 6.542972564697265625e+01 3.438000202178955078e+00 6.516955494880676270e-01 2.089171886444091797e+00 8.222602605819702148e-01 1.966262161731719971e-01
4.859000000000000000e+03 4.104200744628906250e+01 -1.435438442230224609e+01 1.159462928771972656e+00 7.948168754577636719e+00 2.732289552688598633e+00 -1.311831355094909668e+00
4.860000000000000000e+03 4.010443496704101562e+01 -1.511867523193359375e+01 1.413390040397644043e+00 8.298465728759765625e+00 2.913556814193725586e+00 -1.445936918258666992e+00
4.861000000000000000e+03 1.614986419677734375e+01 -8.173295021057128906e+00 1.207408681511878967e-01 8.893793821334838867e-01 3.030360639095306396e-01 3.527147173881530762e-01
4.862000000000000000e+03 5.989548110961914062e+01 -3.661137104034423828e+00 3.026748001575469971e-01 1.700236201286315918e+00 6.008732914924621582e-01 8.141692280769348145e-01
4.863000000000000000e+03 4.156027221679687500e+01 -1.898353576660156250e+01 2.348673343658447266e+00 9.200120925903320312e+00 3.464638233184814453e+00 -5.225112438201904297e-01
4.864000000000000000e+03 6.670180511474609375e+01 2.000856590270996094e+01 2.131178081035614014e-01 2.118752479553222656e+00 6.995610594749450684e-01 4.612433910369873047e-01
4.865000000000000000e+03 6.292663192749023438e+01 -1.462177991867065430e+00 4.160338938236236572e-01 1.678658843040466309e+00 6.284077763557434082e-01 4.195855557918548584e-01
4.866000000000000000e+03 3.502727890014648438e+01 2.026987457275390625e+01 7.187607288360595703e-01 7.312813282012939453e+00 2.409472227096557617e+00 -3.265511989593505859e-01
4.867000000000000000e+03 3.535768890380859375e+01 1.882881164550781250e+01 8.404217362403869629e-01 7.837729454040527344e+00 2.603445291519165039e+00 -4.963080286979675293e-01
4.868000000000000000e+03 6.710823822021484375e+01 9.174480438232421875e+00 6.765910387039184570e-01 2.207328319549560547e+00 8.651757836341857910e-01 2.513029873371124268e-01
4.869000000000000000e+03 1.005896854400634766e+01 1.261450767517089844e+01 -5.942951887845993042e-03 -4.603532142937183380e-03 -3.163945162668824196e-03 -8.104065200313925743e-04
4.870000000000000000e+03 1.084774875640869141e+01 -3.002857017517089844e+01 -2.237259149551391602e-01 6.618142127990722656e-01 1.314264982938766479e-01 1.257425844669342041e-01
4.871000000000000000e+03 1.267006969451904297e+01 -1.142242813110351562e+01 5.143958330154418945e-01 1.204632282257080078e+00 5.157084465026855469e-01 -8.224489539861679077e-02
4.872000000000000000e+03 1.152534008026123047e+01 -1.327428817749023438e+01 6.595215797424316406e-01 1.207308530807495117e+00 5.600490570068359375e-01 -1.271505951881408691e-01
4.873000000000000000e+03 1.336787986755371094e+01 -1.108477497100830078e+01 5.198573470115661621e-01 1.278604984283447266e+00 5.395387411117553711e-01 2.030275948345661163e-02
4.874000000000000000e+03 3.996739578247070312e+01 -2.631185340881347656e+01 1.255044579505920410e+00 7.826357841491699219e+00 2.724420785903930664e+00 3.250063359737396240e-01
4.875000000000000000e+03 3.915634155273437500e+01 -2.503028488159179688e+01 1.578804969787597656e+00 7.868777751922607422e+00 2.834274768829345703e+00 3.340202867984771729e-01
4.876000000000000000e+03 1.036137485504150391e+01 1.503077316284179688e+01 -2.027873881161212921e-02 -2.477043773978948593e-03 -6.826734635978937149e-03 -7.469465024769306183e-03
4.877000000000000000e+03 1.051435279846191406e+01 1.428064441680908203e+01 -1.249025575816631317e-02 -4.757154732942581177e-03 -5.174223333597183228e-03 -5.032225977629423141e-03
4.878000000000000000e+03 4.202435302734375000e+01 -1.726576423645019531e+01 2.245785951614379883e+00 8.813826560974121094e+00 3.317883729934692383e+00 -6.971794366836547852e-01
4.879000000000000000e+03 4.197419357299804688e+01 -1.553309154510498047e+01 1.698680877685546875e+00 8.125504493713378906e+00 2.947255611419677734e+00 -9.285097122192382812e-01
4.880000000000000000e+03 4.050999450683593750e+01 -1.449545669555664062e+01 1.185700654983520508e+00 8.083903312683105469e+00 2.780881166458129883e+00 -1.394324302673339844e+00
4.881000000000000000e+03 4.126716613769531250e+01 -8.122169494628906250e+00 -2.022989988327026367e+00 7.199871063232421875e+00 1.553064346313476562e+00 -2.060106992721557617e+00
4.882000000000000000e+03 6.427235412597656250e+01 3.043624162673950195e+00 6.811193823814392090e-01 2.354664802551269531e+00 9.107352495193481445e-01 3.908906280994415283e-01
4.883000000000000000e+03 3.146645927429199219e+01 -5.087185859680175781e+00 -4.183994829654693604e-01 2.890330553054809570e+00 7.415792942047119141e-01 1.914042383432388306e-01
4.884000000000000000e+03 7.326838684082031250e+01 1.751669120788574219e+01 1.845958828926086426e-01 3.708186745643615723e-02 6.650332361459732056e-02 4.840038120746612549e-01
4.885000000000000000e+03 3.493410873413085938e+01 -6.890606880187988281e-01 6.468240618705749512e-01 9.715776443481445312e+00 3.108780145645141602e+00 3.616085648536682129e-01
4.886000000000000000e+03 1.063568782806396484e+01 2.291523361206054688e+01 -1.241976693272590637e-01 8.754940330982208252e-02 -1.099447812885046005e-02 8.314693719148635864e-02
4.887000000000000000e+03 1.011744403839111328e+01 2.107133674621582031e+01 -1.222423315048217773e-01 6.432957202196121216e-02 -1.737382821738719940e-02 4.030574113130569458e-02
4.888000000000000000e+03 3.954885101318359375e+01 -1.272230529785156250e+01 3.622917532920837402e-01 8.167546272277832031e+00 2.558951377868652344e+00 -1.516973733901977539e+00
4.889000000000000000e+03 4.061220169067382812e+01 -1.316164112091064453e+01 5.824976563453674316e-01 7.830190658569335938e+00 2.523806571960449219e+00 -1.425781488418579102e+00
4.890000000000000000e+03 1.599975299835205078e+01 3.035183143615722656e+01 1.679070442914962769e-01 4.634441435337066650e-01 1.894053518772125244e-01 -1.681086570024490356e-01
4.891000000000000000e+03 1.724475097656250000e+01 2.904759788513183594e+01 2.082329094409942627e-01 4.426016807556152344e-01 1.952503770589828491e-01 -2.472253143787384033e-01
4.892000000000000000e+03 3.732572555541992188e+01 -9.555169105529785156e+00 -1.691731572151184082e+00 8.907738685607910156e+00 2.164802074432373047e+00 -1.269264698028564453e+00
4.893000000000000000e+03 3.765707015991210938e+01 -8.743377685546875000e+00 -2.178313970565795898e+00 9.030731201171875000e+00 2.055725097656250000e+00 -1.336475491523742676e+00
4.894000000000000000e+03 6.785472106933593750e+01 1.338129520416259766e+01 5.655255913734436035e-01 2.056402206420898438e+00 7.865782976150512695e-01 3.061617910861968994e-01
4.895000000000000000e+03 7.213331604003906250e+01 -2.355611991882324219e+01 -1.867912709712982178e-02 1.241076621226966381e-03 -5.231414921581745148e-03 3.119789995253086090e-03
4.896000000000000000e+03 7.326142883300781250e+01 -2.425064468383789062e+01 -1.966168172657489777e-02 6.089212838560342789e-04 -5.715827923268079758e-03 7.009323686361312866e-03
4.897000000000000000e+03 1.440219402313232422e+01 2.698070716857910156e+01 5.336224287748336792e-02 1.819255053997039795e-01 7.058632373809814453e-02 2.382540144026279449e-02
4.898000000000000000e+03 1.469814586639404297e+01 2.585777854919433594e+01 -3.208748996257781982e-03 1.363320350646972656e-01 3.993698582053184509e-02 3.706650435924530029e-02
4.899000000000000000e+03 7.299063873291015625e+01 4.250566482543945312e+00 2.533894479274749756e-01 -1.129692792892456055e-01 4.212604835629463196e-02 -3.539914190769195557e-01
4.900000000000000000e+03 7.473843383789062500e+01 -2.329275703430175781e+01 -1.026170048862695694e-02 -1.856936374679207802e-03 -3.635591128841042519e-03 4.084329586476087570e-03
4.901000000000000000e+03 6.204238891601562500e+01 2.665656089782714844e+01 -4.799146056175231934e-01 1.603783011436462402e+00 3.371605277061462402e-01 -3.712548017501831055e-01
4.902000000000000000e+03 6.338737869262695312e+01 2.461730766296386719e+01 -5.158914923667907715e-01 2.050947904586791992e+00 4.605169594287872314e-01 -1.811169236898422241e-01
4.903000000000000000e+03 7.247302246093750000e+01 2.827638435363769531e+01 -1.925725340843200684e-01 4.723269045352935791e-01 8.392631262540817261e-02 4.093534350395202637e-01
4.904000000000000000e+03 7.281378936767578125e+01 3.035510444641113281e+01 -1.768265813589096069e-01 3.997435569763183594e-01 6.687509268522262573e-02 3.328297734260559082e-01
4.905000000000000000e+03 3.673722839355468750e+01 1.476423263549804688e+01 7.088314890861511230e-01 9.227816581726074219e+00 2.980994224548339844e+00 -3.722301721572875977e-01
4.906000000000000000e+03 3.728426361083984375e+01 1.518956947326660156e+01 6.385217308998107910e-01 8.546447753906250000e+00 2.755490779876708984e+00 7.752247154712677002e-03
4.907000000000000000e+03 1.109759998321533203e+01 -2.697595214843750000e+01 -1.164202764630317688e-01 9.176720976829528809e-01 2.403755486011505127e-01 1.607522070407867432e-01
4.908000000000000000e+03 7.097872161865234375e+01 3.454599380493164062e+01 -1.953747421503067017e-01 5.848257541656494141e-01 1.168353036046028137e-01 1.789409369230270386e-01
4.909000000000000000e+03 6.800514221191406250e+01 1.489374351501464844e+01 5.336048007011413574e-01 1.965130329132080078e+00 7.496205568313598633e-01 3.462958335876464844e-01
4.910000000000000000e+03 6.812010955810546875e+01 1.562616157531738281e+01 5.140693187713623047e-01 1.876279592514038086e+00 7.171046733856201172e-01 3.716903328895568848e-01
4.911000000000000000e+03 4.784962844848632812e+01 -1.174057197570800781e+01 1.201735377311706543e+00 2.759079933166503906e+00 1.188244581222534180e+00 1.413915753364562988e+00
4.912000000000000000e+03 4.756866836547851562e+01 -9.396897315979003906e+00 -9.618356078863143921e-02 1.761758565902709961e+00 4.996725022792816162e-01 9.132581949234008789e-01
4.913000000000000000e+03 2.400254821777343750e+01 3.079219818115234375e+01 -1.266646571457386017e-02 1.903911352157592773e+00 5.673734545707702637e-01 -9.208026528358459473e-01
4.914000000000000000e+03 6.440689849853515625e+01 1.874530434608459473e+00 5.837147831916809082e-01 2.079341650009155273e+00 7.989169359207153320e-01 3.006588816642761230e-01
4.915000000000000000e+03 6.491176605224609375e+01 2.651053905487060547e+00 6.189879775047302246e-01 2.094516038894653320e+00 8.140511512756347656e-01 2.432668507099151611e-01
4.916000000000000000e+03 3.780178833007812500e+01 1.567605590820312500e+01 6.158269047737121582e-01 7.874990940093994141e+00 2.547245264053344727e+00 2.961389422416687012e-01
4.917000000000000000e+03 3.630719757080078125e+01 1.536725330352783203e+01 7.466849088668823242e-01 9.221252441406250000e+00 2.990381240844726562e+00 -5.338063240051269531e-01
4.918000000000000000e+03 4.122208786010742188e+01 -1.499268817901611328e+01 1.434520959854125977e+00 8.026838302612304688e+00 2.838407993316650391e+00 -1.207864761352539062e+00
4.919000000000000000e+03 5.270244979858398438e+01 2.552312278747558594e+01 -1.394222024828195572e-02 5.346277356147766113e-01 1.562056541442871094e-01 2.008150964975357056e-01
4.920000000000000000e+03 5.093941879272460938e+01 2.671028137207031250e+01 3.973840549588203430e-02 9.475853443145751953e-01 2.961971163749694824e-01 4.625638723373413086e-01
4.921000000000000000e+03 7.271491241455078125e+01 1.125352001190185547e+01 3.457076549530029297e-01 8.724779635667800903e-02 1.298866271972656250e-01 1.237861588597297668e-01
4.922000000000000000e+03 6.767320251464843750e+01 1.173942089080810547e+01 6.091303229331970215e-01 2.122952699661254883e+00 8.196249008178710938e-01 2.748861610889434814e-01
4.923000000000000000e+03 3.088219070434570312e+01 3.060461235046386719e+01 -7.652311325073242188e-01 4.012348651885986328e+00 9.741352200508117676e-01 -7.045490741729736328e-01
4.924000000000000000e+03 2.889620208740234375e+01 2.889055824279785156e+01 -4.489033222198486328e-01 3.690977573394775391e+00 9.726223349571228027e-01 -1.184604763984680176e+00
4.925000000000000000e+03 8.872653007507324219e+00 -2.227834510803222656e+01 3.190448284149169922e-01 6.040336489677429199e-01 2.769235372543334961e-01 2.704071402549743652e-01
4.926000000000000000e+03 4.258443450927734375e+01 2.222694015502929688e+01 1.206770017743110657e-01 3.240865945816040039e+00 1.008462905883789062e+00 1.275801897048950195e+00
4.927000000000000000e+03 4.491361999511718750e+01 2.707587051391601562e+01 -1.530033349990844727e-01 2.471899509429931641e+00 6.956688761711120605e-01 1.025318503379821777e+00
4.928000000000000000e+03 3.585248184204101562e+01 1.940628051757812500e+01 6.811521053314208984e-01 7.314069747924804688e+00 2.398566484451293945e+00 -1.046124622225761414e-01
4.929000000000000000e+03 3.498873519897460938e+01 2.115691375732421875e+01 5.129880905151367188e-01 6.946796894073486328e+00 2.237935543060302734e+00 -1.912902295589447021e-01
4.930000000000000000e+03 6.547380828857421875e+01 2.203937339782714844e+01 -1.667313724756240845e-01 2.277304887771606445e+00 6.331720948219299316e-01 3.144106864929199219e-01
4.931000000000000000e+03 6.516055297851562500e+01 2.266346931457519531e+01 -2.763413786888122559e-01 2.233506679534912109e+00 5.871495604515075684e-01 2.310499846935272217e-01
4.932000000000000000e+03 3.892533111572265625e+01 -2.863555335998535156e+01 3.778058290481567383e-01 6.919350147247314453e+00 2.189146757125854492e+00 7.381293773651123047e-01
4.933000000000000000e+03 1.254340362548828125e+01 -2.890974998474121094e+01 -2.260981500148773193e-01 9.537286758422851562e-01 2.182891517877578735e-01 1.037825015373528004e-03
4.934000000000000000e+03 1.320973014831542969e+01 -3.064719390869140625e+01 -2.670321464538574219e-01 8.699675202369689941e-01 1.808806061744689941e-01 -7.082673162221908569e-02
4.935000000000000000e+03 6.755920410156250000e+01 -3.254107284545898438e+01 -6.933769583702087402e-02 3.455480188131332397e-02 -1.043486781418323517e-02 1.161381751298904419e-01
4.936000000000000000e+03 7.137940979003906250e+01 -3.415324020385742188e+01 -4.464441444724798203e-03 -1.094957813620567322e-02 -4.624206107109785080e-03 9.610684216022491455e-02
4.937000000000000000e+03 7.009471893310546875e+01 -3.440476608276367188e+01 -2.869325922802090645e-03 -2.097218064591288567e-03 -1.489963266067206860e-03 1.053887605667114258e-01
4.938000000000000000e+03 3.382071304321289062e+01 2.441940116882324219e+01 -2.495684176683425903e-01 6.005712509155273438e+00 1.726843237876892090e+00 -3.153523802757263184e-01
4.939000000000000000e+03 1.603077316284179688e+01 2.898431205749511719e+01 1.675788760185241699e-01 3.526090085506439209e-01 1.560563594102859497e-01 -1.365385651588439941e-01
4.940000000000000000e+03 2.118898582458496094e+01 2.883389282226562500e+01 2.803130745887756348e-01 9.155230522155761719e-01 3.587508499622344971e-01 -7.093630433082580566e-01
4.941000000000000000e+03 6.595894622802734375e+01 2.093404006958007812e+01 5.736946314573287964e-02 2.286657810211181641e+00 7.032082080841064453e-01 3.993634879589080811e-01
4.942000000000000000e+03 6.606745910644531250e+01 2.165551757812500000e+01 -7.028910517692565918e-02 2.162255764007568359e+00 6.275900006294250488e-01 3.868095278739929199e-01
4.943000000000000000e+03 3.954571151733398438e+01 -2.562202453613281250e+01 1.468364119529724121e+00 7.845167160034179688e+00 2.794059514999389648e+00 3.185570836067199707e-01
4.944000000000000000e+03 4.024346160888671875e+01 -2.505509376525878906e+01 1.717126846313476562e+00 8.251770019531250000e+00 2.990669250488281250e+00 6.423617154359817505e-02
4.945000000000000000e+03 6.950399875640869141e+00 2.753539085388183594e+01 -2.249393612146377563e-03 -5.505446344614028931e-03 -2.326451940461993217e-03 1.219064146280288696e-01
4.946000000000000000e+03 7.305869293212890625e+01 -3.489941024780273438e+01 5.221748724579811096e-03 -3.888341411948204041e-02 -1.009850017726421356e-02 7.801598310470581055e-02
4.947000000000000000e+03 4.384434890747070312e+01 2.059692573547363281e+01 2.698798477649688721e-01 2.496849536895751953e+00 8.300188183784484863e-01 1.232787609100341797e+00
4.948000000000000000e+03 4.421471786499023438e+01 2.252148056030273438e+01 1.230019927024841309e-01 2.515065908432006836e+00 7.914203405380249023e-01 1.217182278633117676e+00
4.949000000000000000e+03 7.349520874023437500e+01 2.891454124450683594e+01 -1.519985347986221313e-01 2.928944826126098633e-01 4.226878657937049866e-02 3.810302317142486572e-01
4.950000000000000000e+03 4.001646041870117188e+01 -2.775074005126953125e+01 7.516550421714782715e-01 7.480187892913818359e+00 2.469552993774414062e+00 4.644582569599151611e-01
4.951000000000000000e+03 4.181647109985351562e+01 -3.001406860351562500e+01 -4.238717630505561829e-02 7.448678493499755859e+00 2.221887350082397461e+00 7.707371562719345093e-02
4.952000000000000000e+03 5.326773834228515625e+01 2.635904693603515625e+01 1.493471860885620117e-02 6.032909154891967773e-01 1.854676902294158936e-01 1.182317957282066345e-01
4.953000000000000000e+03 5.468163681030273438e+01 2.717899513244628906e+01 2.419115789234638214e-02 6.545287966728210449e-01 2.036159932613372803e-01 -5.783791840076446533e-02
4.954000000000000000e+03 6.684053421020507812e+00 2.660161018371582031e+01 -1.330456044524908066e-02 -7.305644918233156204e-03 -6.183061748743057251e-03 1.177038475871086121e-01
4.955000000000000000e+03 4.046384429931640625e+01 -2.697325897216796875e+01 1.086112499237060547e+00 7.850227355957031250e+00 2.680902004241943359e+00 2.902594804763793945e-01
4.956000000000000000e+03 3.548107528686523438e+01 -3.635275268554687500e+01 -8.087981939315795898e-01 4.448617935180664062e+00 1.091945886611938477e+00 7.712786793708801270e-01
4.957000000000000000e+03 3.677951049804687500e+01 -3.433529663085937500e+01 -7.986102104187011719e-01 5.183914184570312500e+00 1.315591216087341309e+00 8.891088366508483887e-01
4.958000000000000000e+03 6.409101104736328125e+01 -3.662401199340820312e+01 1.256736814975738525e-01 4.118621721863746643e-02 5.005796998739242554e-02 1.382673978805541992e-01
4.959000000000000000e+03 5.864419174194335938e+01 2.768936729431152344e+01 -1.749610155820846558e-01 1.013715982437133789e+00 2.516264915466308594e-01 -4.252392053604125977e-01
4.960000000000000000e+03 3.225615310668945312e+01 2.673822593688964844e+01 -6.163930892944335938e-01 5.145586490631103516e+00 1.358758091926574707e+00 -6.975983381271362305e-01
4.961000000000000000e+03 6.172627258300781250e+01 -4.132545852661132812e+01 2.987978160381317139e-01 1.724702715873718262e-01 1.413804292678833008e-01 1.499947253614664078e-02
4.962000000000000000e+03 2.240677452087402344e+01 -3.824274826049804688e+01 1.352019757032394409e-01 8.626557588577270508e-01 2.993573248386383057e-01 -5.308644101023674011e-02
4.963000000000000000e+03 2.177191734313964844e+01 2.800877189636230469e+01 3.296876251697540283e-01 9.270230531692504883e-01 3.770132064819335938e-01 -7.930287718772888184e-01
4.964000000000000000e+03 4.295710754394531250e+01 -3.484953689575195312e+01 -1.166050672531127930e+00 6.056352615356445312e+00 1.467090487480163574e+00 -2.696711719036102295e-01
4.965000000000000000e+03 7.216910552978515625e+01 -3.264255142211914062e+01 -2.323928289115428925e-02 -7.393566891551017761e-03 -9.189854376018047333e-03 8.294108510017395020e-02
4.966000000000000000e+03 8.825016975402832031e+00 3.797360992431640625e+01 5.580493435263633728e-02 1.318763047456741333e-01 5.630437284708023071e-02 1.742343977093696594e-02
4.967000000000000000e+03 6.094679641723632812e+01 2.620027160644531250e+01 -4.166459739208221436e-01 1.481909990310668945e+00 3.195792138576507568e-01 -5.205547809600830078e-01
4.968000000000000000e+03 4.077186203002929688e+01 -3.323641204833984375e+01 -8.797050714492797852e-01 6.386728763580322266e+00 1.652107119560241699e+00 3.170281350612640381e-01
4.969000000000000000e+03 3.241249084472656250e+01 2.829750061035156250e+01 -7.520677447319030762e-01 4.748286247253417969e+00 1.198865532875061035e+00 -5.800819396972656250e-01
4.970000000000000000e+03 3.244242095947265625e+01 2.540934562683105469e+01 -3.981514275074005127e-01 5.661352634429931641e+00 1.578960299491882324e+00 -7.329929471015930176e-01
4.971000000000000000e+03 4.980696487426757812e+01 2.737024307250976562e+01 2.817353047430515289e-02 1.219863295555114746e+00 3.744110465049743652e-01 5.891448259353637695e-01
4.972000000000000000e+03 4.734250259399414062e+01 -3.733643341064453125e+01 -8.680281043052673340e-01 4.332761287689208984e+00 1.039420008659362793e+00 -7.311350703239440918e-01
4.973000000000000000e+03 4.801753997802734375e+01 2.656852531433105469e+01 -5.768905859440565109e-03 1.538179039955139160e+00 4.597230255603790283e-01 8.087711930274963379e-01
4.974000000000000000e+03 4.774554443359375000e+01 2.527242660522460938e+01 7.330195046961307526e-03 1.486332058906555176e+00 4.480986893177032471e-01 8.629453182220458984e-01
4.975000000000000000e+03 6.806365203857421875e+01 -4.117095947265625000e+01 1.616711914539337158e-01 -2.473892830312252045e-02 4.107967764139175415e-02 2.903718687593936920e-02
4.976000000000000000e+03 6.597735595703125000e+01 -3.782384872436523438e+01 1.293566375970840454e-01 6.486788857728242874e-03 4.075302928686141968e-02 1.085543110966682434e-01
4.977000000000000000e+03 7.268901824951171875e+01 -2.418904685974121094e+01 -2.217577770352363586e-02 2.112524351105093956e-03 -6.018975749611854553e-03 6.356270518153905869e-03
4.978000000000000000e+03 6.944180297851562500e+01 -9.711242675781250000e+00 -5.734041929244995117e-01 2.174028456211090088e-01 -1.068003922700881958e-01 -4.225333034992218018e-01
4.979000000000000000e+03 1.139819717407226562e+01 -8.834939956665039062e+00 8.826578408479690552e-02 6.292202472686767578e-01 2.152458131313323975e-01 -3.572162091732025146e-01
4.980000000000000000e+03 3.384046554565429688e+01 -2.083546161651611328e+00 1.110009029507637024e-01 7.279351234436035156e+00 2.217105627059936523e+00 7.256247997283935547e-01
4.981000000000000000e+03 3.364995956420898438e+01 -3.221249580383300781e+00 -3.686688244342803955e-01 6.733105182647705078e+00 1.909330964088439941e+00 4.979112446308135986e-01
4.982000000000000000e+03 9.426304817199707031e+00 9.345067024230957031e+00 4.143071055295877159e-05 -3.232327988371253014e-03 -9.572692215442657471e-04 7.158447988331317902e-04
4.983000000000000000e+03 9.274830818176269531e+00 7.420814514160156250e+00 3.553217393346130848e-04 -2.306405222043395042e-03 -5.853250622749328613e-04 7.279238197952508926e-04
4.984000000000000000e+03 3.248990631103515625e+01 -5.406114101409912109e+00 -9.917352795600891113e-01 4.415548801422119141e+00 1.027143955230712891e+00 -2.055418491363525391e-01
4.985000000000000000e+03 4.940896606445312500e+01 -1.015654182434082031e+01 4.664534926414489746e-01 1.312205076217651367e+00 5.335975885391235352e-01 1.855020284652709961e+00
4.986000000000000000e+03 5.129139328002929688e+01 -1.035965919494628906e+01 4.742025136947631836e-01 9.622302055358886719e-01 4.309298098087310791e-01 2.238918781280517578e+00
4.987000000000000000e+03 5.169810485839843750e+01 -1.065728569030761719e+01 6.148493885993957520e-01 9.379594326019287109e-01 4.658426642417907715e-01 2.196054458618164062e+00
4.988000000000000000e+03 6.569713592529296875e+00 -7.538936138153076172e+00 -5.297071114182472229e-02 -9.160678088665008545e-02 -4.337324947118759155e-02 -5.944104790687561035e-01
4.989000000000000000e+03 1.548446846008300781e+01 -6.542336463928222656e+00 -1.921305060386657715e-01 6.185735464096069336e-01 1.279329061508178711e-01 1.806886792182922363e-01
4.990000000000000000e+03 3.513249588012695312e+01 -2.377554416656494141e+00 -2.856330573558807373e-01 8.964103698730468750e+00 2.603541135787963867e+00 1.302201598882675171e-01
4.991000000000000000e+03 3.535284423828125000e+01 -3.737576723098754883e+00 -1.120775461196899414e+00 8.766516685485839844e+00 2.293722391128540039e+00 -1.313841938972473145e-01
4.992000000000000000e+03 3.557634735107421875e+01 -7.103269577026367188e+00 -2.442763090133666992e+00 8.445326805114746094e+00 1.800768971443176270e+00 -9.585852622985839844e-01
4.993000000000000000e+03 3.793199157714843750e+01 -4.551299095153808594e+00 -2.089237213134765625e+00 1.029370689392089844e+01 2.461340904235839844e+00 -1.128944039344787598e+00
4.994000000000000000e+03 4.161926651000976562e+01 -1.424117660522460938e+01 1.150641560554504395e+00 7.711029052734375000e+00 2.658501148223876953e+00 -1.152718186378479004e+00
4.995000000000000000e+03 3.705332565307617188e+01 1.663182640075683594e+01 6.756468415260314941e-01 7.964130878448486328e+00 2.591933250427246094e+00 1.101642195135354996e-02
4.996000000000000000e+03 3.934340286254882812e+01 1.742911911010742188e+01 5.062583684921264648e-01 5.769974708557128906e+00 1.882869839668273926e+00 1.011925697326660156e+00
4.997000000000000000e+03 4.699122619628906250e+01 -1.213250732421875000e+01 1.211994647979736328e+00 3.686057329177856445e+00 1.469415545463562012e+00 1.107221007347106934e+00
4.998000000000000000e+03 3.456312179565429688e+01 -1.364346027374267578e+00 2.996344268321990967e-01 8.795623779296875000e+00 2.728577375411987305e+00 5.592001676559448242e-01
4.999000000000000000e+03 3.565115737915039062e+01 1.728035163879394531e+01 8.653144836425781250e-01 8.540653228759765625e+00 2.821790218353271484e+00 -6.334606409072875977e-01
5.000000000000000000e+03 3.672396850585937500e+01 1.924789047241210938e+01 6.058787703514099121e-01 6.950381278991699219e+00 2.266877889633178711e+00 2.056510597467422485e-01
5.001000000000000000e+03 3.594408798217773438e+01 2.027955055236816406e+01 5.394604206085205078e-01 6.948216438293457031e+00 2.246303081512451172e+00 4.913036525249481201e-02
5.002000000000000000e+03 1.121182632446289062e+01 -7.457324504852294922e+00 -8.932519704103469849e-02 4.498771429061889648e-01 1.081655845046043396e-01 -3.952794075012207031e-01
5.003000000000000000e+03 5.891228103637695312e+01 -8.308402061462402344e+00 -4.163260459899902344e-01 1.132749915122985840e+00 2.149271667003631592e-01 9.491547346115112305e-01
5.004000000000000000e+03 5.719811630249023438e+01 -7.727483272552490234e+00 -4.020382165908813477e-01 1.443848848342895508e+00 3.125431835651397705e-01 1.268340229988098145e+00
5.005000000000000000e+03 1.411984539031982422e+01 -7.240434646606445312e+00 -1.118550971150398254e-01 6.899088025093078613e-01 1.734161078929901123e-01 -1.723064482212066650e-02
5.006000000000000000e+03 6.539725494384765625e+01 -8.519033432006835938e+00 -5.150142908096313477e-01 1.684791892766952515e-01 -1.039605215191841125e-01 -2.353239804506301880e-01
5.007000000000000000e+03 5.210541915893554688e+01 -9.458929061889648438e+00 -6.151989847421646118e-02 9.766417741775512695e-01 2.745365500450134277e-01 2.325537204742431641e+00
5.008000000000000000e+03 5.269965744018554688e+01 -1.095926094055175781e+01 5.866661071777343750e-01 8.759856224060058594e-01 4.387955367565155029e-01 2.057641983032226562e+00
5.009000000000000000e+03 4.091225433349609375e+01 -1.651548385620117188e+01 1.912107467651367188e+00 8.519805908203125000e+00 3.129574060440063477e+00 -1.123757362365722656e+00
5.010000000000000000e+03 4.141452407836914062e+01 -1.568624305725097656e+01 1.697151422500610352e+00 8.239220619201660156e+00 2.980911731719970703e+00 -1.094454288482666016e+00
5.011000000000000000e+03 5.895898056030273438e+01 -7.683004379272460938e+00 -3.696606159210205078e-01 1.212523698806762695e+00 2.528589367866516113e-01 9.501971602439880371e-01
5.012000000000000000e+03 1.085458087921142578e+01 7.421530723571777344e+00 9.820544073591008782e-05 -1.670068711973726749e-03 -4.715589748229831457e-04 1.592351589351892471e-03
5.013000000000000000e+03 1.151591587066650391e+01 9.127635002136230469e+00 -2.692613816179800779e-05 -1.229960937052965164e-03 -3.770661132875829935e-04 1.776398974470794201e-03
5.014000000000000000e+03 8.892270088195800781e+00 -7.626461029052734375e+00 -6.351955980062484741e-02 1.941866129636764526e-01 3.920011594891548157e-02 -5.563969016075134277e-01
5.015000000000000000e+03 7.844979763031005859e+00 -9.108701705932617188e+00 7.562536001205444336e-02 1.007846593856811523e-01 5.292300879955291748e-02 -5.858528614044189453e-01
5.016000000000000000e+03 3.909482955932617188e+01 -6.177242279052734375e+00 -2.775383949279785156e+00 9.491260528564453125e+00 2.014762878417968750e+00 -1.792694687843322754e+00
5.017000000000000000e+03 9.054439544677734375e+00 2.174608230590820312e+01 -9.934880584478378296e-02 5.586891621351242065e-02 -1.304396800696849823e-02 6.585530191659927368e-02
5.018000000000000000e+03 9.488417625427246094e+00 1.553367614746093750e+01 -2.758826129138469696e-02 1.301356707699596882e-03 -7.886070758104324341e-03 -5.291641689836978912e-03
5.019000000000000000e+03 5.049398803710937500e+01 -1.035465145111083984e+01 5.669898390769958496e-01 1.081861495971679688e+00 4.946554005146026611e-01 2.159706592559814453e+00
5.020000000000000000e+03 6.184834289550781250e+01 -1.709276556968688965e+00 4.678889513015747070e-01 1.784049749374389648e+00 6.755815744400024414e-01 6.203721165657043457e-01
5.021000000000000000e+03 6.077117156982421875e+01 -1.975357651710510254e+00 5.311213135719299316e-01 1.861156702041625977e+00 7.176834344863891602e-01 8.053629994392395020e-01
5.022000000000000000e+03 6.171542358398437500e+01 -7.903131008148193359e+00 -3.950024247169494629e-01 7.072429656982421875e-01 9.367216378450393677e-02 4.896070361137390137e-01
5.023000000000000000e+03 6.792052459716796875e+01 2.161319732666015625e+01 -1.901436224579811096e-02 1.659970760345458984e+00 4.922869205474853516e-01 5.502643585205078125e-01
5.024000000000000000e+03 7.363575744628906250e+01 2.520925521850585938e+01 -1.042058244347572327e-01 1.976522505283355713e-01 2.803392708301544189e-02 5.132952928543090820e-01
5.025000000000000000e+03 8.082659721374511719e+00 -7.633552074432373047e+00 -5.894438922405242920e-02 9.832105785608291626e-02 1.181299984455108643e-02 -5.837500095367431641e-01
5.026000000000000000e+03 1.233453178405761719e+01 -1.065988922119140625e+01 3.912651538848876953e-01 1.005844831466674805e+00 4.191329777240753174e-01 -1.835287362337112427e-01
5.027000000000000000e+03 7.385353851318359375e+01 2.391922187805175781e+01 -6.634005159139633179e-02 1.008803024888038635e-01 1.036207657307386398e-02 5.326309204101562500e-01
5.028000000000000000e+03 7.128255844116210938e+00 -2.229962158203125000e+01 2.350700497627258301e-01 9.783647209405899048e-02 9.987195581197738647e-02 2.765920758247375488e-01
5.029000000000000000e+03 6.529911518096923828e+00 -2.190272331237792969e+01 2.216735780239105225e-01 -8.047278970479965210e-02 4.236023500561714172e-02 2.441518604755401611e-01
5.030000000000000000e+03 6.879964828491210938e+00 2.316050338745117188e+01 -5.401520058512687683e-02 1.769903860986232758e-02 -1.089484896510839462e-02 9.492004662752151489e-02
5.031000000000000000e+03 7.353859424591064453e+00 2.257432556152343750e+01 -6.349900364875793457e-02 2.869483828544616699e-02 -1.044124830514192581e-02 8.503176271915435791e-02
5.032000000000000000e+03 6.381870269775390625e+00 2.805681037902832031e+01 5.075008608400821686e-03 -2.201869711279869080e-02 -5.083106458187103271e-03 1.179024130105972290e-01
5.033000000000000000e+03 6.138932228088378906e+00 2.656245803833007812e+01 -1.319809816777706146e-02 -2.273031696677207947e-02 -1.077852398157119751e-02 1.170010268688201904e-01
5.034000000000000000e+03 4.334509277343750000e+01 -1.462612724304199219e+01 1.497176408767700195e+00 7.429270267486572266e+00 2.677933931350708008e+00 -4.329667687416076660e-01
5.035000000000000000e+03 4.401750564575195312e+01 -1.370839786529541016e+01 1.222206354141235352e+00 6.643177986145019531e+00 2.359615325927734375e+00 -2.075744122266769409e-01
5.036000000000000000e+03 7.206655883789062500e+01 -2.418058967590332031e+01 -2.412638626992702484e-02 2.941846614703536034e-03 -6.355361547321081161e-03 4.034952260553836823e-03
5.037000000000000000e+03 7.253717803955078125e+01 2.284384918212890625e+01 -4.795895516872406006e-02 3.965127468109130859e-01 1.045661345124244690e-01 5.959019064903259277e-01
5.038000000000000000e+03 2.946933364868164062e+01 -4.190339565277099609e+00 5.556875467300415039e-01 9.079159498214721680e-01 4.390810430049896240e-01 9.363907575607299805e-01
5.039000000000000000e+03 7.328018951416015625e+01 1.676294517517089844e+01 2.104585021734237671e-01 1.039007399231195450e-02 6.625457108020782471e-02 4.513247311115264893e-01
5.040000000000000000e+03 7.327140045166015625e+01 2.800951957702636719e+01 -1.552286595106124878e-01 3.196464478969573975e-01 4.932533577084541321e-02 4.200026094913482666e-01
5.041000000000000000e+03 6.525028228759765625e+01 2.468494224548339844e+01 -4.459132254123687744e-01 1.905935049057006836e+00 4.380065202713012695e-01 1.375713050365447998e-01
5.042000000000000000e+03 7.326862335205078125e+01 1.532522010803222656e+01 2.412429600954055786e-01 -2.934171073138713837e-02 6.357037276029586792e-02 3.746239840984344482e-01
5.043000000000000000e+03 6.779066467285156250e+01 1.257624912261962891e+01 5.891424417495727539e-01 2.082742214202880859e+00 8.015654087066650391e-01 2.931725382804870605e-01
5.044000000000000000e+03 7.406941986083984375e+01 1.058053016662597656e+01 2.497514188289642334e-01 -3.975018858909606934e-01 -4.432513937354087830e-02 5.096321925520896912e-02
5.045000000000000000e+03 7.209132671356201172e+00 2.398059082031250000e+01 -4.764646664261817932e-02 2.121527306735515594e-02 -7.929357700049877167e-03 1.055893599987030029e-01
5.046000000000000000e+03 7.395376586914062500e+01 1.901592254638671875e+01 1.014211252331733704e-01 -1.282632946968078613e-01 -8.052648976445198059e-03 5.188189148902893066e-01
5.047000000000000000e+03 5.215949630737304688e+01 -1.086003398895263672e+01 6.375859975814819336e-01 9.016062617301940918e-01 4.617576897144317627e-01 2.127144098281860352e+00
5.048000000000000000e+03 7.335644531250000000e+01 8.255408287048339844e+00 2.802249193191528320e-01 -2.034834027290344238e-01 2.302245050668716431e-02 -1.037155687808990479e-01
5.049000000000000000e+03 7.403401947021484375e+01 1.134336280822753906e+01 2.506003677845001221e-01 -3.821234703063964844e-01 -3.945693373680114746e-02 9.846837073564529419e-02
5.050000000000000000e+03 6.749897003173828125e+01 1.088327598571777344e+01 6.258509755134582520e-01 2.148223638534545898e+00 8.322224020957946777e-01 2.653778791427612305e-01
5.051000000000000000e+03 7.336762237548828125e+01 6.846989154815673828e+00 2.800512313842773438e-01 -2.120970487594604492e-01 2.038625255227088928e-02 -1.948527544736862183e-01
5.052000000000000000e+03 6.005500793457031250e+00 -1.776018905639648438e+01 3.290018439292907715e-01 -2.652475237846374512e-01 1.912629976868629456e-02 -4.853812977671623230e-02
5.053000000000000000e+03 7.281137084960937500e+01 -5.078730583190917969e+00 -9.697364270687103271e-02 -4.547138139605522156e-02 -4.273350536823272705e-02 -5.912292599678039551e-01
5.054000000000000000e+03 7.382128906250000000e+01 -4.553496360778808594e+00 -5.481128394603729248e-02 -1.807028651237487793e-01 -7.065424323081970215e-02 -5.760855078697204590e-01
5.055000000000000000e+03 6.801829528808593750e+01 9.818056106567382812e+00 6.353573203086853027e-01 1.851141214370727539e+00 7.459495663642883301e-01 2.024030834436416626e-01
5.056000000000000000e+03 7.248072814941406250e+01 -2.531270980834960938e+01 -3.085164912045001984e-02 4.692233633249998093e-03 -7.847824133932590485e-03 1.025034766644239426e-02
5.057000000000000000e+03 7.390763092041015625e+01 1.976502037048339844e+01 8.337149769067764282e-02 -7.507306337356567383e-02 2.489529317244887352e-03 5.343818664550781250e-01
5.058000000000000000e+03 7.268109893798828125e+01 2.194756126403808594e+01 9.308453882113099098e-04 3.498439490795135498e-01 1.052324399352073669e-01 5.990816950798034668e-01
5.059000000000000000e+03 7.348570251464843750e+01 -5.218979358673095703e+00 -8.604384213685989380e-02 -1.247190386056900024e-01 -6.322886049747467041e-02 -5.770441889762878418e-01
5.060000000000000000e+03 7.397125244140625000e+01 5.321176528930664062e+00 2.164263129234313965e-01 -4.041285812854766846e-01 -5.631067603826522827e-02 -2.908769845962524414e-01
5.061000000000000000e+03 7.330183410644531250e+01 5.493280887603759766e+00 2.591283917427062988e-01 -1.979034990072250366e-01 1.836746744811534882e-02 -2.793831229209899902e-01
5.062000000000000000e+03 7.269547271728515625e+01 2.232791185379028320e+00 2.126646637916564941e-01 -5.394324287772178650e-02 4.761642962694168091e-02 -4.552059173583984375e-01
5.063000000000000000e+03 7.325286102294921875e+01 -2.602080345153808594e+00 1.881690882146358490e-02 -1.440806388854980469e-01 -3.757911920547485352e-02 -5.888345837593078613e-01
5.064000000000000000e+03 7.351689910888671875e+01 -4.001273155212402344e+00 -3.642553463578224182e-02 -1.587575078010559082e-01 -5.855491012334823608e-02 -5.896377563476562500e-01
5.065000000000000000e+03 6.570603847503662109e+00 -2.589673995971679688e+01 8.027922362089157104e-03 -2.168590389192104340e-02 -4.097394179552793503e-03 3.455071747303009033e-01
5.066000000000000000e+03 7.286880493164062500e+01 1.318812489509582520e+00 1.722206473350524902e-01 -1.004010960459709167e-01 2.154586277902126312e-02 -4.954327046871185303e-01
5.067000000000000000e+03 7.267422485351562500e+01 6.906158447265625000e+00 3.247020244598388672e-01 2.991656772792339325e-02 1.063855737447738647e-01 -1.801090985536575317e-01
5.068000000000000000e+03 7.254287719726562500e+01 5.066660404205322266e+00 2.980313897132873535e-01 3.255009651184082031e-02 9.917444735765457153e-02 -3.031665086746215820e-01
5.069000000000000000e+03 7.335983276367187500e+01 6.157423019409179688e+00 2.668218910694122314e-01 -2.097396403551101685e-01 1.712468080222606659e-02 -2.408414483070373535e-01
5.070000000000000000e+03 7.340568542480468750e+01 8.937771916389465332e-01 1.414714157581329346e-01 -2.218853086233139038e-01 -2.412416972219944000e-02 -5.093281865119934082e-01
5.071000000000000000e+03 7.172886657714843750e+01 9.908937454223632812e+00 4.119136631488800049e-01 4.118847250938415527e-01 2.471395134925842285e-01 5.478172376751899719e-02
5.072000000000000000e+03 7.293432617187500000e+01 -1.341508030891418457e+00 7.888803631067276001e-02 -1.001680791378021240e-01 -6.384013220667839050e-03 -5.761809349060058594e-01
5.073000000000000000e+03 7.251039886474609375e+01 1.312165546417236328e+01 3.359851241111755371e-01 2.107534408569335938e-01 1.640215665102005005e-01 2.539471089839935303e-01
5.074000000000000000e+03 7.325486755371093750e+01 -6.041686534881591797e+00 -1.358993500471115112e-01 -7.200166583061218262e-02 -6.237030029296875000e-02 -5.614720582962036133e-01
5.075000000000000000e+03 7.350205993652343750e+01 -4.970844089984893799e-01 9.285540878772735596e-02 -2.284109443426132202e-01 -4.066665843129158020e-02 -5.489611029624938965e-01
5.076000000000000000e+03 7.283022308349609375e+01 -7.604260444641113281e-01 1.038332208991050720e-01 -8.461044728755950928e-02 5.766832269728183746e-03 -5.641738772392272949e-01
5.077000000000000000e+03 6.106524944305419922e+00 -2.019090080261230469e+01 2.738266587257385254e-01 -2.143939584493637085e-01 1.782980747520923615e-02 1.397767812013626099e-01
5.078000000000000000e+03 6.789982795715332031e+00 -2.124502372741699219e+01 2.764777839183807373e-01 -5.673886742442846298e-03 8.124116808176040649e-02 2.088336795568466187e-01
5.079000000000000000e+03 6.325365543365478516e+00 8.638323783874511719e+00 9.220128413289785385e-05 -2.719098934903740883e-03 -7.880692719481885433e-04 -9.038622374646365643e-04
5.080000000000000000e+03 6.020555019378662109e+00 -1.857997703552246094e+01 3.053288459777832031e-01 -2.599531412124633789e-01 1.361271739006042480e-02 1.564553938806056976e-02
5.081000000000000000e+03 1.062457942962646484e+01 -1.727797698974609375e+01 6.733105182647705078e-01 1.287217855453491211e+00 5.881584882736206055e-01 7.917013019323348999e-03
5.082000000000000000e+03 7.175118255615234375e+01 -2.768583679199218750e+01 -5.069813504815101624e-02 1.268999278545379639e-02 -1.140244212001562119e-02 3.153298795223236084e-02
5.083000000000000000e+03 8.166283607482910156e+00 1.506595039367675781e+01 -2.274017967283725739e-02 7.246189052239060402e-04 -6.604668684303760529e-03 8.920267573557794094e-04
5.084000000000000000e+03 6.832399368286132812e+00 1.503968238830566406e+01 -1.966121979057788849e-02 -2.422649849904701114e-04 -5.971045233309268951e-03 5.077372305095195770e-03
5.085000000000000000e+03 6.407650947570800781e+00 2.705997085571289062e+01 -7.562999613583087921e-03 -1.518429443240165710e-02 -6.824187934398651123e-03 1.178738251328468323e-01
5.086000000000000000e+03 6.432525157928466797e+00 2.502108764648437500e+01 -3.069949708878993988e-02 -4.233766347169876099e-03 -1.047997921705245972e-02 1.104093044996261597e-01
5.087000000000000000e+03 5.743044376373291016e+00 1.048923492431640625e+01 -1.208896748721599579e-03 -2.878226106986403465e-03 -1.226136810146272182e-03 -1.092387828975915909e-03
5.088000000000000000e+03 9.533441543579101562e+00 1.105147933959960938e+01 -2.110123168677091599e-03 -4.294412210583686829e-03 -1.921360613778233528e-03 2.593123645056039095e-04
5.089000000000000000e+03 1.065079879760742188e+01 1.352086544036865234e+01 -8.420749567449092865e-03 -4.653597250580787659e-03 -3.922304138541221619e-03 -2.647326327860355377e-03
5.090000000000000000e+03 6.197401523590087891e+00 9.833353042602539062e+00 -6.254496402107179165e-04 -2.871188102290034294e-03 -1.048991340212523937e-03 -9.703360847197473049e-04
5.091000000000000000e+03 6.828132152557373047e+00 8.929302215576171875e+00 -3.936431894544512033e-04 -2.658538287505507469e-03 -9.156544110737740993e-04 -5.935313529334962368e-04
5.092000000000000000e+03 8.864795684814453125e+00 1.689566230773925781e+01 -4.466008394956588745e-02 1.123347599059343338e-02 -1.002798322588205338e-02 5.427221185527741909e-04
5.093000000000000000e+03 7.112744903564453125e+01 1.674819564819335938e+01 3.148996531963348389e-01 7.281377315521240234e-01 3.129112124443054199e-01 4.853741526603698730e-01
5.094000000000000000e+03 6.798429489135742188e+00 1.423498630523681641e+01 -1.329556200653314590e-02 -2.002785215154290199e-03 -4.589504096657037735e-03 1.916991081088781357e-03
5.095000000000000000e+03 8.452627182006835938e+00 -1.551543235778808594e+01 5.238320231437683105e-01 4.181656539440155029e-01 2.825993001461029053e-01 -2.113071829080581665e-01
5.096000000000000000e+03 9.395052909851074219e+00 2.097957992553710938e+01 -1.054582148790359497e-01 5.724936723709106445e-02 -1.446265447884798050e-02 4.872550442814826965e-02
5.097000000000000000e+03 6.236175155639648438e+01 -1.053420901298522949e+00 4.840452373027801514e-01 1.847896933555603027e+00 6.995826959609985352e-01 5.622863769531250000e-01
5.098000000000000000e+03 5.889058113098144531e+00 -1.116919803619384766e+01 1.583285778760910034e-01 -2.510416507720947266e-01 -2.781391702592372894e-02 -5.215373635292053223e-01
5.099000000000000000e+03 6.634046554565429688e+00 1.616107559204101562e+01 -2.555784024298191071e-02 1.401157816872000694e-03 -7.247004657983779907e-03 9.527067653834819794e-03
5.100000000000000000e+03 8.550473213195800781e+00 1.952717399597167969e+01 -7.974806427955627441e-02 3.317581862211227417e-02 -1.397167425602674484e-02 2.836984209716320038e-02
5.101000000000000000e+03 6.243584632873535156e+00 1.889546775817871094e+01 -4.296878352761268616e-02 7.428280077874660492e-03 -1.066215056926012039e-02 3.296129405498504639e-02
5.102000000000000000e+03 6.512610912322998047e+00 -9.669866561889648438e+00 9.607578068971633911e-02 -1.137949526309967041e-01 -5.315751302987337112e-03 -5.813931822776794434e-01
5.103000000000000000e+03 7.246862792968750000e+01 -8.214009284973144531e+00 -2.680750489234924316e-01 4.660460352897644043e-02 -6.644113361835479736e-02 -4.959484040737152100e-01
5.104000000000000000e+03 7.448663711547851562e+00 1.637365150451660156e+01 -3.291433677077293396e-02 4.556607920676469803e-03 -8.507318794727325439e-03 8.666121400892734528e-03
5.105000000000000000e+03 6.611475467681884766e+00 1.746051025390625000e+01 -3.651828691363334656e-02 7.002249360084533691e-03 -8.854811079800128937e-03 1.776364073157310486e-02
5.106000000000000000e+03 7.244531250000000000e+01 -8.936928749084472656e+00 -3.083968758583068848e-01 6.191965937614440918e-02 -7.394316792488098145e-02 -4.544606208801269531e-01
5.107000000000000000e+03 8.801314353942871094e+00 -1.996363258361816406e+01 4.798224866390228271e-01 5.990365743637084961e-01 3.236577212810516357e-01 1.279056221246719360e-01
5.108000000000000000e+03 7.191120147705078125e+00 -1.113725185394287109e+01 2.133048623800277710e-01 4.321078769862651825e-03 6.528778374195098877e-02 -5.358476042747497559e-01
5.109000000000000000e+03 7.797790050506591797e+00 -1.852685356140136719e+01 4.662245512008666992e-01 2.811560630798339844e-01 2.242141813039779663e-01 3.129115700721740723e-02
5.110000000000000000e+03 6.755362510681152344e+00 -2.013748550415039062e+01 3.214818239212036133e-01 -3.604818508028984070e-02 8.563008904457092285e-02 1.383805572986602783e-01
5.111000000000000000e+03 1.178849029541015625e+01 -8.538216590881347656e+00 7.628078013658523560e-02 6.475062966346740723e-01 2.171361297369003296e-01 -3.189865350723266602e-01
5.112000000000000000e+03 6.078335285186767578e+00 -1.372200202941894531e+01 2.802484929561614990e-01 -2.388736903667449951e-01 1.241243910044431686e-02 -3.812425732612609863e-01
5.113000000000000000e+03 1.168673515319824219e+01 -9.357232093811035156e+00 1.666401624679565430e-01 7.191573381423950195e-01 2.657392621040344238e-01 -3.195161223411560059e-01
5.114000000000000000e+03 6.751962661743164062e+00 -1.268610954284667969e+01 2.821151912212371826e-01 -8.708843588829040527e-02 5.850803107023239136e-02 -4.519371986389160156e-01
5.115000000000000000e+03 7.292078495025634766e+00 -7.564373016357421875e+00 -5.825207009911537170e-02 -1.607102574780583382e-03 -1.795775070786476135e-02 -5.959657430648803711e-01
5.116000000000000000e+03 5.891264915466308594e+00 -8.206560134887695312e+00 -8.136504329741001129e-03 -1.820061206817626953e-01 -5.704278871417045593e-02 -5.870357751846313477e-01
5.117000000000000000e+03 8.535718917846679688e+00 2.437678718566894531e+01 -6.014981493353843689e-02 5.175552517175674438e-02 -2.518286695703864098e-03 1.133857294917106628e-01
5.118000000000000000e+03 1.044803142547607422e+01 -2.287035560607910156e+01 3.147143125534057617e-01 1.084802031517028809e+00 4.198549091815948486e-01 2.341934293508529663e-01
5.119000000000000000e+03 1.307720470428466797e+01 2.581042861938476562e+01 -3.541675582528114319e-02 1.330291181802749634e-01 2.928370609879493713e-02 9.124096482992172241e-02
5.120000000000000000e+03 7.118374633789062500e+01 2.458355331420898438e+01 -1.658441275358200073e-01 7.458016872406005859e-01 1.739872694015502930e-01 5.569015741348266602e-01
5.121000000000000000e+03 4.240480041503906250e+01 -8.979334831237792969e+00 -1.335039973258972168e+00 6.175464153289794922e+00 1.452127337455749512e+00 -1.755300045013427734e+00
5.122000000000000000e+03 7.426171302795410156e+00 2.348303031921386719e+01 -5.697363242506980896e-02 2.908270806074142456e-02 -8.367277681827545166e-03 9.945541620254516602e-02
5.123000000000000000e+03 6.641084671020507812e+00 2.547163581848144531e+01 -2.476382255554199219e-02 1.414002967067062855e-03 -7.004946004599332809e-03 1.161475330591201782e-01
5.124000000000000000e+03 4.035478973388671875e+01 -2.043372535705566406e+01 2.161728858947753906e+00 9.062255859375000000e+00 3.367195367813110352e+00 -5.147709846496582031e-01
5.125000000000000000e+03 4.056409072875976562e+01 -2.087922859191894531e+01 2.198650836944580078e+00 9.156632423400878906e+00 3.406584978103637695e+00 -4.358149468898773193e-01
5.126000000000000000e+03 6.423703765869140625e+01 -8.577671051025390625e+00 -5.037955641746520996e-01 1.798217743635177612e-01 -9.719213098287582397e-02 5.407340824604034424e-03
5.127000000000000000e+03 6.101792526245117188e+01 -6.937314510345458984e+00 -2.536576092243194580e-01 9.878944754600524902e-01 2.202710658311843872e-01 6.108898520469665527e-01
5.128000000000000000e+03 1.828676605224609375e+01 -7.114800453186035156e+00 1.793737895786762238e-02 6.036687493324279785e-01 1.864818483591079712e-01 5.948671102523803711e-01
5.129000000000000000e+03 5.728429412841796875e+01 -9.401108741760253906e+00 -3.715222179889678955e-01 1.103083372116088867e+00 2.194683551788330078e-01 1.225365519523620605e+00
5.130000000000000000e+03 8.924026489257812500e+00 -2.408549308776855469e+01 1.494194120168685913e-01 5.891720056533813477e-01 2.215774208307266235e-01 3.218446075916290283e-01
5.131000000000000000e+03 6.334008693695068359e+00 -2.666234397888183594e+01 -1.632651127874851227e-02 -6.650650501251220703e-02 -2.484990656375885010e-02 3.395368754863739014e-01
5.132000000000000000e+03 9.167759895324707031e+00 -2.636974906921386719e+01 -3.142971545457839966e-02 5.805084705352783203e-01 1.647236347198486328e-01 3.021453022956848145e-01
5.133000000000000000e+03 4.444341659545898438e+01 -9.837643623352050781e+00 -4.473988413810729980e-01 4.437033653259277344e+00 1.196890473365783691e+00 -7.888178229331970215e-01
5.134000000000000000e+03 5.496133041381835938e+01 -9.005002975463867188e+00 -3.641306757926940918e-01 1.318629980087280273e+00 2.863498032093048096e-01 1.796578884124755859e+00
5.135000000000000000e+03 9.437576293945312500e+00 1.834711074829101562e+01 -7.215086370706558228e-02 2.463967911899089813e-02 -1.425335463136434555e-02 4.377906210720539093e-03
5.136000000000000000e+03 5.284487533569335938e+01 -9.714185714721679688e+00 -6.463685538619756699e-03 1.049711465835571289e+00 3.129743337631225586e-01 2.202298402786254883e+00
5.137000000000000000e+03 5.406821060180664062e+01 -1.032365512847900391e+01 1.277955025434494019e-01 9.720634222030639648e-01 3.299576938152313232e-01 1.911566734313964844e+00
5.138000000000000000e+03 9.962728500366210938e+00 3.112492370605468750e+01 6.972263008356094360e-02 1.365946531295776367e-01 6.189518421888351440e-02 8.457750827074050903e-02
5.139000000000000000e+03 6.917392730712890625e+01 -8.346846580505371094e+00 -4.382343292236328125e-01 2.412319034337997437e-01 -5.910072475671768188e-02 -4.974899888038635254e-01
5.140000000000000000e+03 6.795090484619140625e+01 -9.584444046020507812e+00 -6.552891731262207031e-01 2.048961669206619263e-01 -1.351179033517837524e-01 -4.207735359668731689e-01
5.141000000000000000e+03 1.282111930847167969e+01 -7.471364498138427734e+00 -9.342422336339950562e-02 6.225950717926025391e-01 1.587512642145156860e-01 -2.041303068399429321e-01
5.142000000000000000e+03 1.021597576141357422e+01 1.115792369842529297e+01 -2.279765903949737549e-03 -3.998245112597942352e-03 -1.883403398096561432e-03 8.120383135974407196e-04
5.143000000000000000e+03 6.583203125000000000e+01 2.260753059387207031e+01 -2.287803441286087036e-01 2.067767381668090820e+00 5.516960620880126953e-01 3.271017670631408691e-01
5.144000000000000000e+03 6.370946884155273438e+01 -8.054575920104980469e+00 -3.984973728656768799e-01 3.464478850364685059e-01 -1.561484113335609436e-02 1.136123314499855042e-01
5.145000000000000000e+03 6.212343215942382812e+01 -8.425045967102050781e+00 -4.855302572250366211e-01 5.367665290832519531e-01 1.537088584154844284e-02 4.228993654251098633e-01
5.146000000000000000e+03 4.249314117431640625e+01 -1.531040477752685547e+01 1.664936661720275879e+00 7.992779254913330078e+00 2.897314786911010742e+00 -7.587067484855651855e-01
5.147000000000000000e+03 4.258618545532226562e+01 -1.455665683746337891e+01 1.357666611671447754e+00 7.615509033203125000e+00 2.691952705383300781e+00 -7.974847555160522461e-01
5.148000000000000000e+03 1.618068504333496094e+01 -6.783561229705810547e+00 -1.260010749101638794e-01 6.471359133720397949e-01 1.563404500484466553e-01 2.913228869438171387e-01
5.149000000000000000e+03 7.310005187988281250e+01 -3.082767486572265625e+01 -3.174406662583351135e-02 -5.566969513893127441e-03 -1.119330991059541702e-02 6.262186914682388306e-02
5.150000000000000000e+03 6.935605621337890625e+01 -3.028732109069824219e+01 -8.654718846082687378e-02 3.372461348772048950e-02 -1.584677398204803467e-02 6.844086199998855591e-02
5.151000000000000000e+03 1.700653839111328125e+01 -6.916852951049804688e+00 -8.011512458324432373e-02 6.557497382164001465e-01 1.726903766393661499e-01 4.220100343227386475e-01
5.152000000000000000e+03 1.539151382446289062e+01 -8.253624916076660156e+00 1.026113927364349365e-01 9.007202982902526855e-01 3.009994924068450928e-01 2.237498164176940918e-01
5.153000000000000000e+03 7.222455596923828125e+01 2.445768928527832031e+01 -1.245760694146156311e-01 4.686082601547241211e-01 1.032096594572067261e-01 5.631412267684936523e-01
5.154000000000000000e+03 5.940323257446289062e+01 -6.382429599761962891e+00 -1.913263350725173950e-01 1.367286443710327148e+00 3.527880311012268066e-01 8.649562597274780273e-01
5.155000000000000000e+03 4.144750595092773438e+01 -1.778151512145996094e+01 2.252125740051269531e+00 8.835623741149902344e+00 3.326324701309204102e+00 -7.854725718498229980e-01
5.156000000000000000e+03 7.126726150512695312e+00 8.657041549682617188e+00 -1.875060988822951913e-04 -3.066330449655652046e-03 -9.761509718373417854e-04 -4.341346502769738436e-04
5.157000000000000000e+03 8.500416755676269531e+00 7.935710430145263672e+00 2.500809787306934595e-04 -2.619645558297634125e-03 -7.108693826012313366e-04 3.205784887541085482e-04
5.158000000000000000e+03 4.040834045410156250e+01 -7.754071712493896484e+00 -2.307971000671386719e+00 8.064035415649414062e+00 1.726819396018981934e+00 -2.023967742919921875e+00
5.159000000000000000e+03 4.038547134399414062e+01 -1.046232891082763672e+01 -9.352519512176513672e-01 7.794320106506347656e+00 2.057720422744750977e+00 -1.606061100959777832e+00
5.160000000000000000e+03 1.009698581695556641e+01 -1.755589294433593750e+01 6.340356469154357910e-01 1.066000938415527344e+00 5.100110173225402832e-01 6.965288193896412849e-04
5.161000000000000000e+03 6.683950805664062500e+01 4.854676246643066406e+00 6.413335800170898438e-01 1.823172211647033691e+00 7.393517494201660156e-01 6.122265756130218506e-02
5.162000000000000000e+03 3.894192504882812500e+01 -1.002146530151367188e+01 -1.324522256851196289e+00 8.506393432617187500e+00 2.154561281204223633e+00 -1.510723471641540527e+00
5.163000000000000000e+03 3.816369247436523438e+01 -9.805564880371093750e+00 -1.496888995170593262e+00 8.775643348693847656e+00 2.183626174926757812e+00 -1.410944104194641113e+00
5.164000000000000000e+03 1.003470325469970703e+01 8.257467269897460938e+00 -2.199710252170916647e-05 -2.231002086773514748e-03 -6.758997915312647820e-04 1.206512446515262127e-03
5.165000000000000000e+03 9.171787261962890625e+00 8.764619827270507812e+00 -3.127222880721092224e-04 -2.968762302771210670e-03 -9.844453306868672371e-04 7.568835862912237644e-04
5.166000000000000000e+03 6.656423187255859375e+01 6.285624504089355469e+00 7.181227207183837891e-01 2.144882440567016602e+00 8.589015603065490723e-01 1.950418204069137573e-01
5.167000000000000000e+03 6.602278137207031250e+01 4.235791683197021484e+00 6.627436280250549316e-01 2.015612125396728516e+00 8.035066723823547363e-01 1.407554447650909424e-01
5.168000000000000000e+03 4.088186264038085938e+01 2.056853866577148438e+01 2.480752170085906982e-01 4.189485073089599609e+00 1.331268072128295898e+00 1.254953145980834961e+00
5.169000000000000000e+03 4.143065261840820312e+01 1.994344711303710938e+01 3.231855332851409912e-01 3.905153989791870117e+00 1.268501877784729004e+00 1.316903471946716309e+00
5.170000000000000000e+03 3.620419311523437500e+01 1.697974205017089844e+01 8.214021921157836914e-01 8.344388961791992188e+00 2.749737262725830078e+00 -3.814425468444824219e-01
5.171000000000000000e+03 5.757381057739257812e+01 -8.254154205322265625e+00 -4.050224721431732178e-01 1.307478785514831543e+00 2.707369029521942139e-01 1.200748324394226074e+00
5.172000000000000000e+03 3.970304489135742188e+01 -7.017484188079833984e+00 -2.668689012527465820e+00 8.808698654174804688e+00 1.842002868652343750e+00 -1.992412805557250977e+00
5.173000000000000000e+03 3.842682266235351562e+01 -6.982314586639404297e+00 -2.699923038482666016e+00 9.402658462524414062e+00 2.010820627212524414e+00 -1.554529309272766113e+00
5.174000000000000000e+03 5.167078018188476562e+01 -9.883921623229980469e+00 2.303868085145950317e-01 9.477146267890930176e-01 3.534304201602935791e-01 2.261141061782836914e+00
5.175000000000000000e+03 1.085361289978027344e+01 8.615215301513671875e+00 -2.950449015770573169e-05 -1.887029386125504971e-03 -5.749601405113935471e-04 1.725345384329557419e-03
5.176000000000000000e+03 6.403436279296875000e+01 2.563150787353515625e+01 -5.175692439079284668e-01 1.859468221664428711e+00 4.025697112083435059e-01 -9.374444931745529175e-02
5.177000000000000000e+03 6.490685272216796875e+01 2.341567420959472656e+01 -3.747201263904571533e-01 2.151651144027709961e+00 5.330792665481567383e-01 1.551578044891357422e-01
5.178000000000000000e+03 6.287902832031250000e+01 -3.647785782814025879e-01 5.108384490013122559e-01 1.917461752891540527e+00 7.284900546073913574e-01 5.015313029289245605e-01
5.179000000000000000e+03 6.450492858886718750e+01 6.997282505035400391e-01 4.921157956123352051e-01 1.820699095726013184e+00 6.938444972038269043e-01 2.203288227319717407e-01
5.180000000000000000e+03 7.139390563964843750e+01 -2.560865402221679688e+01 -4.062677174806594849e-02 9.095174260437488556e-03 -9.459478780627250671e-03 9.922241792082786560e-03
5.181000000000000000e+03 4.155766296386718750e+01 -9.455718994140625000e+00 -1.281123280525207520e+00 6.955968856811523438e+00 1.702453613281250000e+00 -1.744982838630676270e+00
5.182000000000000000e+03 4.020365905761718750e+01 1.994201087951660156e+01 3.011896312236785889e-01 4.692075729370117188e+00 1.497979640960693359e+00 1.186391949653625488e+00
5.183000000000000000e+03 4.083150863647460938e+01 -1.376186561584472656e+01 8.826055526733398438e-01 7.874215602874755859e+00 2.627046346664428711e+00 -1.346738100051879883e+00
5.184000000000000000e+03 4.174976348876953125e+01 -1.488518810272216797e+01 1.436532258987426758e+00 7.954333782196044922e+00 2.817259788513183594e+00 -1.064246892929077148e+00
5.185000000000000000e+03 5.199440002441406250e+01 -1.018302726745605469e+01 3.014246523380279541e-01 9.461463093757629395e-01 3.742712736129760742e-01 2.249520540237426758e+00
5.186000000000000000e+03 5.267044448852539062e+01 -9.069397926330566406e+00 -2.907740175724029541e-01 1.127448081970214844e+00 2.510022222995758057e-01 2.270572662353515625e+00
5.187000000000000000e+03 6.524432659149169922e+00 1.255987739562988281e+01 -6.547335069626569748e-03 -3.952402621507644653e-03 -3.149921307340264320e-03 5.972599610686302185e-04
5.188000000000000000e+03 9.336591720581054688e+00 1.739736175537109375e+01 -5.434968322515487671e-02 1.402396801859140396e-02 -1.209771446883678436e-02 -1.017463975585997105e-03
5.189000000000000000e+03 4.098500061035156250e+01 -1.836728286743164062e+01 2.231105804443359375e+00 8.965747833251953125e+00 3.359056234359741211e+00 -7.893310785293579102e-01
5.190000000000000000e+03 5.988665008544921875e+01 -5.523335933685302734e+00 -3.471973165869712830e-02 1.425326943397521973e+00 4.171821773052215576e-01 7.697601914405822754e-01
5.191000000000000000e+03 7.122315979003906250e+01 -6.363737106323242188e+00 -2.009246945381164551e-01 1.351806223392486572e-01 -1.972321793437004089e-02 -5.807994008064270020e-01
5.192000000000000000e+03 4.074293136596679688e+01 -1.726352119445800781e+01 2.031444549560546875e+00 8.693971633911132812e+00 3.217624902725219727e+00 -1.059345245361328125e+00
5.193000000000000000e+03 9.635359764099121094e+00 -1.942960548400878906e+01 5.592460632324218750e-01 8.924338817596435547e-01 4.355039596557617188e-01 8.978518843650817871e-02
5.194000000000000000e+03 6.773630523681640625e+01 1.726583099365234375e+01 4.590491354465484619e-01 1.948548197746276855e+00 7.222791910171508789e-01 4.253379404544830322e-01
5.195000000000000000e+03 3.825187683105468750e+01 1.819706344604492188e+01 5.139252543449401855e-01 6.445709705352783203e+00 2.087890625000000000e+00 6.762475967407226562e-01
5.196000000000000000e+03 3.985567092895507812e+01 1.804693794250488281e+01 4.650237858295440674e-01 5.213855266571044922e+00 1.703663706779479980e+00 1.141020894050598145e+00
5.197000000000000000e+03 7.097155761718750000e+01 -2.761301422119140625e+01 -5.934477224946022034e-02 1.741904206573963165e-02 -1.257771905511617661e-02 2.811199426651000977e-02
5.198000000000000000e+03 7.151385498046875000e+01 -2.950961303710937500e+01 -5.558867380023002625e-02 1.525359041988849640e-02 -1.210052426904439926e-02 5.373939871788024902e-02
5.199000000000000000e+03 7.288568878173828125e+01 -6.671306133270263672e+00 -1.712924093008041382e-01 -2.764536812901496887e-02 -5.968133360147476196e-02 -5.538503527641296387e-01
5.200000000000000000e+03 6.519570827484130859e+00 1.675365638732910156e+01 -3.013178147375583649e-02 3.817509859800338745e-03 -7.894281297922134399e-03 1.272036228328943253e-02
5.201000000000000000e+03 4.222211837768554688e+01 -9.618827819824218750e+00 -1.066851258277893066e+00 6.435931205749511719e+00 1.610723972320556641e+00 -1.641102433204650879e+00
5.202000000000000000e+03 4.297794342041015625e+01 2.360710716247558594e+01 1.569450832903385162e-02 3.047162532806396484e+00 9.188571572303771973e-01 1.243465542793273926e+00
5.203000000000000000e+03 9.147966384887695312e+00 3.233412170410156250e+01 6.893578916788101196e-02 1.047790050506591797e-01 5.211443826556205750e-02 7.685723155736923218e-02
5.204000000000000000e+03 8.027879714965820312e+00 3.340438842773437500e+01 5.761818960309028625e-02 5.308338999748229980e-02 3.321047499775886536e-02 7.090755552053451538e-02
5.205000000000000000e+03 6.629262542724609375e+01 7.201162338256835938e+00 7.254781126976013184e-01 2.376336574554443359e+00 9.305443763732910156e-01 2.522078752517700195e-01
5.206000000000000000e+03 6.688432312011718750e+01 8.378225326538085938e+00 7.000699043273925781e-01 2.233554363250732422e+00 8.800873160362243652e-01 2.380822896957397461e-01
5.207000000000000000e+03 4.082276153564453125e+01 -1.574225044250488281e+01 1.677720546722412109e+00 8.282436370849609375e+00 2.988047122955322266e+00 -1.248136878013610840e+00
5.208000000000000000e+03 3.663083267211914062e+01 1.822038078308105469e+01 6.757220625877380371e-01 7.489585399627685547e+00 2.449592351913452148e+00 2.646792680025100708e-02
5.209000000000000000e+03 3.682033157348632812e+01 1.732187271118164062e+01 7.221519351005554199e-01 7.825723171234130859e+00 2.564362525939941406e+00 -1.893184520304203033e-02
5.210000000000000000e+03 7.236415863037109375e+01 1.042442989349365234e+01 3.762604892253875732e-01 1.858543008565902710e-01 1.686344444751739502e-01 6.730282306671142578e-02
5.211000000000000000e+03 1.063269042968750000e+01 -1.489896297454833984e+01 6.770319342613220215e-01 1.108243703842163086e+00 5.355827212333679199e-01 -1.099839583039283752e-01
5.212000000000000000e+03 6.134173965454101562e+01 -2.343893289566040039e+00 4.252109825611114502e-01 1.727418065071105957e+00 6.457887291908264160e-01 6.643401980400085449e-01
5.213000000000000000e+03 6.052515029907226562e+01 -3.620694637298583984e+00 2.823026776313781738e-01 1.623211264610290527e+00 5.716542005538940430e-01 7.178870439529418945e-01
5.214000000000000000e+03 6.941833496093750000e+01 9.347148895263671875e+00 5.629927515983581543e-01 1.262186646461486816e+00 5.475538372993469238e-01 9.421957284212112427e-02
5.215000000000000000e+03 6.503014373779296875e+01 1.460059523582458496e+00 5.238718390464782715e-01 1.837540149688720703e+00 7.084236145019531250e-01 1.591943055391311646e-01
5.216000000000000000e+03 3.764013671875000000e+01 1.665822601318359375e+01 6.355946660041809082e-01 7.480214595794677734e+00 2.434742927551269531e+00 3.134950399398803711e-01
5.217000000000000000e+03 3.832221603393554688e+01 1.751552772521972656e+01 5.492194890975952148e-01 6.617546081542968750e+00 2.150029659271240234e+00 6.701893210411071777e-01
5.218000000000000000e+03 3.796739959716796875e+01 -7.238418579101562500e+00 -2.643562793731689453e+00 9.380311012268066406e+00 2.021024465560913086e+00 -1.398297905921936035e+00
5.219000000000000000e+03 7.028218841552734375e+01 1.542482948303222656e+01 4.186214506626129150e-01 1.046388030052185059e+00 4.395028650760650635e-01 4.139779508113861084e-01
5.220000000000000000e+03 6.791883087158203125e+01 1.415153789520263672e+01 5.553416609764099121e-01 2.006799697875976562e+00 7.686424255371093750e-01 3.230516612529754639e-01
5.221000000000000000e+03 7.359527111053466797e+00 -3.152576446533203125e+01 -1.425690352916717529e-01 7.685727626085281372e-02 -1.971352845430374146e-02 2.218601256608963013e-01
5.222000000000000000e+03 7.042981624603271484e+00 -1.628843116760253906e+01 4.207547008991241455e-01 1.942548342049121857e-02 1.320540606975555420e-01 -1.704316586256027222e-01
5.223000000000000000e+03 3.115195655822753906e+01 3.280121231079101562e+01 -8.402065038681030273e-01 3.725905656814575195e+00 8.657097816467285156e-01 -4.863675236701965332e-01
5.224000000000000000e+03 1.191646289825439453e+01 -2.749843978881835938e+01 -1.595343202352523804e-01 9.996904134750366211e-01 2.520468235015869141e-01 8.221411705017089844e-02
5.225000000000000000e+03 7.011366367340087891e+00 1.158207702636718750e+01 -4.054386634379625320e-03 -3.680389141663908958e-03 -2.320432569831609726e-03 -3.643625241238623857e-04
5.226000000000000000e+03 4.130897521972656250e+01 -1.301493453979492188e+01 5.382899045944213867e-01 7.568273067474365234e+00 2.431968927383422852e+00 -1.291990399360656738e+00
5.227000000000000000e+03 7.137515544891357422e+00 2.158818054199218750e+01 -6.343394517898559570e-02 2.458956651389598846e-02 -1.165331341326236725e-02 6.846597790718078613e-02
5.228000000000000000e+03 6.674467468261718750e+01 2.549675941467285156e+00 5.131881833076477051e-01 1.533250331878662109e+00 6.139315962791442871e-01 -6.495852023363113403e-02
5.229000000000000000e+03 9.922591209411621094e+00 2.197516822814941406e+01 -1.193542852997779846e-01 7.230559736490249634e-02 -1.411460526287555695e-02 6.506687402725219727e-02
5.230000000000000000e+03 1.074158954620361328e+01 -1.406657791137695312e+01 6.609015464782714844e-01 1.065327763557434082e+00 5.178688168525695801e-01 -1.666890829801559448e-01
5.231000000000000000e+03 7.822422027587890625e+00 -1.515949821472167969e+01 4.622231125831604004e-01 2.261207848787307739e-01 2.065031677484512329e-01 -2.576422393321990967e-01
5.232000000000000000e+03 7.318682861328125000e+01 1.464050388336181641e+01 2.652106583118438721e-01 -2.129915170371532440e-02 7.317345589399337769e-02 3.347913622856140137e-01
5.233000000000000000e+03 7.387818145751953125e+01 1.445166206359863281e+01 2.223405987024307251e-01 -2.467477470636367798e-01 -7.322144694626331329e-03 3.020769059658050537e-01
5.234000000000000000e+03 8.989077568054199219e+00 3.038616180419921875e+01 4.956335201859474182e-02 7.898367941379547119e-02 3.856410831212997437e-02 1.029330790042877197e-01
5.235000000000000000e+03 4.807810974121093750e+01 -1.013163852691650391e+01 3.439143598079681396e-01 1.880634665489196777e+00 6.673647165298461914e-01 1.278048396110534668e+00
5.236000000000000000e+03 4.753976058959960938e+01 -1.073118400573730469e+01 5.692968964576721191e-01 2.541601896286010742e+00 9.332696199417114258e-01 1.079159140586853027e+00
5.237000000000000000e+03 4.556691360473632812e+01 -1.081689643859863281e+01 2.518285810947418213e-01 3.990055799484252930e+00 1.272565364837646484e+00 2.946645580232143402e-02
5.238000000000000000e+03 4.609526062011718750e+01 -1.257245826721191406e+01 1.219534397125244141e+00 4.657701969146728516e+00 1.763170957565307617e+00 7.495857477188110352e-01
5.239000000000000000e+03 3.913019180297851562e+01 -2.675148582458496094e+01 1.006671190261840820e+00 7.424165248870849609e+00 2.529250860214233398e+00 5.601897835731506348e-01
5.240000000000000000e+03 4.086647033691406250e+01 -2.771681594848632812e+01 8.325381278991699219e-01 7.848123550415039062e+00 2.604198455810546875e+00 2.516140341758728027e-01
5.241000000000000000e+03 6.070286750793457031e+00 2.092560768127441406e+01 -4.918989539146423340e-02 6.740957032889127731e-03 -1.273468136787414551e-02 5.972372367978096008e-02
5.242000000000000000e+03 6.128124237060546875e+01 -1.328950166702270508e+00 5.487548112869262695e-01 1.933210611343383789e+00 7.445896267890930176e-01 7.657006978988647461e-01
5.243000000000000000e+03 4.630614471435546875e+01 -1.180608463287353516e+01 8.738909363746643066e-01 3.995824575424194336e+00 1.460914731025695801e+00 6.738387942314147949e-01
5.244000000000000000e+03 9.659702301025390625e+00 1.481320571899414062e+01 -1.945980265736579895e-02 -2.112984424456954002e-03 -6.471836473792791367e-03 -4.807388409972190857e-03
5.245000000000000000e+03 6.813461303710937500e+01 1.887356567382812500e+01 3.103486299514770508e-01 1.708778619766235352e+00 6.057381629943847656e-01 5.241775512695312500e-01
5.246000000000000000e+03 6.555724334716796875e+01 2.221558809280395508e+00 5.525143742561340332e-01 1.841448783874511719e+00 7.181889414787292480e-01 1.038709357380867004e-01
5.247000000000000000e+03 7.268774414062500000e+01 2.486480522155761719e+01 -1.252638995647430420e-01 4.105567932128906250e-01 8.558786660432815552e-02 5.418184995651245117e-01
5.248000000000000000e+03 7.309385681152343750e+01 2.712317276000976562e+01 -1.529434621334075928e-01 3.470304012298583984e-01 5.822608247399330139e-02 4.616884589195251465e-01
5.249000000000000000e+03 7.519966602325439453e+00 -2.518908500671386719e+01 5.452691018581390381e-02 2.128359824419021606e-01 8.020886778831481934e-02 3.497170805931091309e-01
5.250000000000000000e+03 1.105774784088134766e+01 -2.405077552795410156e+01 1.540245264768600464e-01 1.180884003639221191e+00 4.004725515842437744e-01 2.070788443088531494e-01
5.251000000000000000e+03 1.522547721862792969e+01 2.751501846313476562e+01 9.818221628665924072e-02 2.201431393623352051e-01 9.549760818481445312e-02 -2.946369908750057220e-02
5.252000000000000000e+03 7.200453186035156250e+01 1.259754562377929688e+01 3.762483894824981689e-01 3.675415515899658203e-01 2.231369763612747192e-01 2.275995016098022461e-01
5.253000000000000000e+03 7.256261444091796875e+01 1.605286216735839844e+01 2.688069343566894531e-01 2.380800396203994751e-01 1.520660966634750366e-01 4.337626993656158447e-01
5.254000000000000000e+03 6.829995155334472656e+00 2.038994979858398438e+01 -5.811895802617073059e-02 1.985496468842029572e-02 -1.147919800132513046e-02 5.113910138607025146e-02
5.255000000000000000e+03 9.681642532348632812e+00 1.934553337097167969e+01 -9.290751069784164429e-02 3.795468807220458984e-02 -1.648584567010402679e-02 1.296584308147430420e-02
5.256000000000000000e+03 4.087318038940429688e+01 -3.532366561889648438e+01 -1.164374232292175293e+00 5.917620658874511719e+00 1.425974011421203613e+00 1.786964833736419678e-01
5.257000000000000000e+03 6.084505081176757812e+00 2.919472503662109375e+01 1.412072125822305679e-02 -4.007991403341293335e-02 -7.787757553160190582e-03 1.114271283149719238e-01
5.258000000000000000e+03 4.195479202270507812e+01 2.301196861267089844e+01 4.083235934376716614e-02 3.509397506713867188e+00 1.065068960189819336e+00 1.264588713645935059e+00
5.259000000000000000e+03 6.934893798828125000e+01 3.567330932617187500e+01 -2.179856747388839722e-01 7.120324373245239258e-01 1.482140272855758667e-01 1.049132123589515686e-01
5.260000000000000000e+03 1.155233097076416016e+01 2.425549507141113281e+01 -1.041825041174888611e-01 1.016870141029357910e-01 -7.486461545340716839e-04 1.025194898247718811e-01
5.261000000000000000e+03 7.251021575927734375e+01 -2.692666435241699219e+01 -3.939831256866455078e-02 7.115255109965801239e-03 -9.684917517006397247e-03 2.431620843708515167e-02
5.262000000000000000e+03 2.676445007324218750e+01 3.019717025756835938e+01 -2.830354571342468262e-01 2.840143918991088867e+00 7.671325206756591797e-01 -1.124160647392272949e+00
5.263000000000000000e+03 2.259087944030761719e+01 3.233217620849609375e+01 -1.074374932795763016e-02 1.604854226112365723e+00 4.782331287860870361e-01 -7.127165198326110840e-01
5.264000000000000000e+03 1.781915092468261719e+01 3.204153823852539062e+01 1.483407616615295410e-01 7.849705219268798828e-01 2.799933850765228271e-01 -3.351705670356750488e-01
5.265000000000000000e+03 7.228405952453613281e+00 2.969788932800292969e+01 2.624083869159221649e-02 4.113884642720222473e-03 9.106417186558246613e-03 1.119623258709907532e-01
5.266000000000000000e+03 7.342187500000000000e+01 -2.991813278198242188e+01 -3.225896507501602173e-02 -3.568484447896480560e-03 -1.074823457747697830e-02 5.256763845682144165e-02
5.267000000000000000e+03 7.250186920166015625e+01 -2.960545158386230469e+01 -4.287932813167572021e-02 5.147431045770645142e-03 -1.131956931203603745e-02 5.209829285740852356e-02
5.268000000000000000e+03 4.333167266845703125e+01 2.262314605712890625e+01 9.478865563869476318e-02 2.865220069885253906e+00 8.880025744438171387e-01 1.250460982322692871e+00
5.269000000000000000e+03 4.330507659912109375e+01 2.180454444885253906e+01 1.834904998540878296e-01 2.837523221969604492e+00 9.063041210174560547e-01 1.267599582672119141e+00
5.270000000000000000e+03 2.022675132751464844e+01 2.961764526367187500e+01 2.544878423213958740e-01 8.320888876914978027e-01 3.259730339050292969e-01 -5.863333940505981445e-01
5.271000000000000000e+03 6.883521270751953125e+01 -3.282507705688476562e+01 -4.968553408980369568e-02 2.361158467829227448e-02 -7.822184823453426361e-03 1.090581268072128296e-01
5.272000000000000000e+03 6.044495010375976562e+01 2.758178710937500000e+01 -3.496671319007873535e-01 1.310287237167358398e+00 2.881860136985778809e-01 -4.498518705368041992e-01
5.273000000000000000e+03 7.035691833496093750e+01 -3.612988281250000000e+01 3.762427717447280884e-02 -1.811995357275009155e-02 5.851297173649072647e-03 1.025479733943939209e-01
5.274000000000000000e+03 2.223044204711914062e+01 -4.101008987426757812e+01 1.398684084415435791e-01 8.737416267395019531e-01 3.040830194950103760e-01 -4.244402796030044556e-02
5.275000000000000000e+03 6.316312789916992188e+01 2.682661819458007812e+01 -5.034500956535339355e-01 1.672627091407775879e+00 3.507530987262725830e-01 -2.262246906757354736e-01
5.276000000000000000e+03 1.159218883514404297e+01 -2.836894035339355469e+01 -1.911526173353195190e-01 8.758320212364196777e-01 2.054038196802139282e-01 9.479638189077377319e-02
5.277000000000000000e+03 3.353460311889648438e+01 2.653235435485839844e+01 -6.365956664085388184e-01 5.282548427581787109e+00 1.393785834312438965e+00 -3.223113119602203369e-01
5.278000000000000000e+03 1.001775741577148438e+01 2.814237403869628906e+01 2.250211127102375031e-02 1.009649634361267090e-01 3.704012185335159302e-02 1.158537715673446655e-01
5.279000000000000000e+03 2.871842575073242188e+01 3.066667175292968750e+01 -5.471808314323425293e-01 3.464513540267944336e+00 8.751997947692871094e-01 -9.779394268989562988e-01
5.280000000000000000e+03 6.268572998046875000e+01 -3.809495544433593750e+01 2.252013683319091797e-01 1.073680296540260315e-01 9.977082163095474243e-02 1.003057137131690979e-01
5.281000000000000000e+03 5.252447128295898438e+01 2.694243049621582031e+01 4.836396872997283936e-02 7.755707502365112305e-01 2.471804171800613403e-01 2.552707493305206299e-01
5.282000000000000000e+03 7.183381652832031250e+01 -3.558209609985351562e+01 2.269770018756389618e-02 -3.109323233366012573e-02 -2.518659690394997597e-03 8.895948529243469238e-02
5.283000000000000000e+03 7.249805450439453125e+01 -3.374303817749023438e+01 -5.446617491543292999e-03 -2.108792774379253387e-02 -7.960364222526550293e-03 8.456806093454360962e-02
5.284000000000000000e+03 5.624524688720703125e+01 2.987790679931640625e+01 -3.928325697779655457e-02 1.003139615058898926e+00 2.891569137573242188e-01 -1.253303289413452148e-01
5.285000000000000000e+03 7.210092926025390625e+01 -3.160183525085449219e+01 -3.439763560891151428e-02 -1.147354269050993025e-04 -1.035371143370866776e-02 7.429394125938415527e-02
5.286000000000000000e+03 9.004763603210449219e+00 3.483725357055664062e+01 7.059862464666366577e-02 1.155840009450912476e-01 5.585478618741035461e-02 4.811746627092361450e-02
5.287000000000000000e+03 6.425936889648437500e+01 2.663789749145507812e+01 -5.052659511566162109e-01 1.699108839035034180e+00 3.581528663635253906e-01 -8.111350238323211670e-02
5.288000000000000000e+03 2.945953369140625000e+01 -3.959287261962890625e+01 -1.492877155542373657e-01 2.308541297912597656e+00 6.477761268615722656e-01 2.882545590400695801e-01
5.289000000000000000e+03 4.842937850952148438e+01 2.799464035034179688e+01 -2.662148512899875641e-02 1.589167594909667969e+00 4.687638282775878906e-01 7.194607257843017578e-01
5.290000000000000000e+03 3.298624038696289062e+01 3.005628013610839844e+01 -8.732129335403442383e-01 4.400925159454345703e+00 1.058313727378845215e+00 -3.608849346637725830e-01
5.291000000000000000e+03 7.018038940429687500e+01 3.270743179321289062e+01 -2.492888718843460083e-01 7.137076854705810547e-01 1.393256485462188721e-01 2.076448202133178711e-01
5.292000000000000000e+03 3.750280380249023438e+01 -4.083082962036132812e+01 -1.212606191635131836e+00 4.863446235656738281e+00 1.095252037048339844e+00 1.730194985866546631e-01
5.293000000000000000e+03 3.796549224853515625e+01 -3.773241424560546875e+01 -1.139067769050598145e+00 5.047628402709960938e+00 1.172568202018737793e+00 4.621410667896270752e-01
5.294000000000000000e+03 9.797439575195312500e+00 -4.003818130493164062e+01 -1.229781061410903931e-01 1.713601499795913696e-01 1.451461389660835266e-02 1.178015861660242081e-02
5.295000000000000000e+03 4.588138961791992188e+01 -3.562126159667968750e+01 -1.016936898231506348e+00 5.263237476348876953e+00 1.273890256881713867e+00 -7.996501326560974121e-01
5.296000000000000000e+03 4.382932662963867188e+01 -3.701282501220703125e+01 -1.310713171958923340e+00 5.614467144012451172e+00 1.291126132011413574e+00 -3.507816791534423828e-01
5.297000000000000000e+03 1.045869445800781250e+01 3.617587280273437500e+01 7.928204536437988281e-02 2.471226155757904053e-01 9.792140126228332520e-02 2.612651512026786804e-02
5.298000000000000000e+03 3.063299369812011719e+01 -4.042682647705078125e+00 4.020490348339080811e-01 1.996300220489501953e+00 7.195047736167907715e-01 6.800203919410705566e-01
5.299000000000000000e+03 3.895514297485351562e+01 -7.681618690490722656e+00 -2.520635128021240234e+00 8.998324394226074219e+00 1.943306803703308105e+00 -1.686009168624877930e+00
5.300000000000000000e+03 6.606528472900390625e+01 2.978477954864501953e+00 5.777230262756347656e-01 1.819139122962951660e+00 7.190586328506469727e-01 6.099833920598030090e-02
5.301000000000000000e+03 6.744374847412109375e+01 6.776294231414794922e+00 6.745640635490417480e-01 1.813874959945678711e+00 7.465317249298095703e-01 9.640142321586608887e-02
5.302000000000000000e+03 3.918992614746093750e+01 -9.315891265869140625e+00 -1.727981090545654297e+00 8.516893386840820312e+00 2.036673784255981445e+00 -1.601561069488525391e+00
5.303000000000000000e+03 3.837675094604492188e+01 -7.539296627044677734e+00 -2.609513521194458008e+00 9.231839179992675781e+00 1.986697793006896973e+00 -1.552578926086425781e+00
5.304000000000000000e+03 4.455894088745117188e+01 -1.264525699615478516e+01 8.591195344924926758e-01 5.750613212585449219e+00 1.982919812202453613e+00 -1.229312792420387268e-01
5.305000000000000000e+03 6.751805114746093750e+01 -8.381298065185546875e+00 -4.865112304687500000e-01 2.465357631444931030e-01 -7.199264317750930786e-02 -4.469280838966369629e-01
5.306000000000000000e+03 6.478229522705078125e+01 -8.026049613952636719e+00 -3.991575539112091064e-01 2.687238454818725586e-01 -3.913011774420738220e-02 -1.021151915192604065e-01
5.307000000000000000e+03 6.863908386230468750e+01 1.248464107513427734e+01 5.634771585464477539e-01 1.687939286231994629e+00 6.754249334335327148e-01 2.710902392864227295e-01
5.308000000000000000e+03 3.847398757934570312e+01 -5.977046966552734375e+00 -2.722640752792358398e+00 9.739443778991699219e+00 2.105041027069091797e+00 -1.510904550552368164e+00
5.309000000000000000e+03 3.555447387695312500e+01 -5.608188629150390625e+00 -2.170652151107788086e+00 8.561111450195312500e+00 1.917137861251831055e+00 -6.854287981986999512e-01
5.310000000000000000e+03 6.834127902984619141e+00 -2.299958229064941406e+01 1.790301650762557983e-01 2.930094674229621887e-02 6.249933689832687378e-02 2.994499802589416504e-01
5.311000000000000000e+03 7.040880584716796875e+01 -8.424541473388671875e+00 -4.018059670925140381e-01 1.858521997928619385e-01 -6.478612869977951050e-02 -5.043433308601379395e-01
5.312000000000000000e+03 3.652302932739257812e+01 1.634261512756347656e+01 7.408755421638488770e-01 8.441770553588867188e+00 2.754793882369995117e+00 -2.637737095355987549e-01
5.313000000000000000e+03 1.102697277069091797e+01 -8.450272560119628906e+00 3.387612476944923401e-02 5.207520127296447754e-01 1.663884371519088745e-01 -4.048150479793548584e-01
5.314000000000000000e+03 1.341301345825195312e+01 -9.842857360839843750e+00 3.197989761829376221e-01 1.051513195037841797e+00 4.113936424255371094e-01 -5.590342730283737183e-02
5.315000000000000000e+03 6.863300323486328125e+01 2.134462547302246094e+01 2.675360068678855896e-02 1.456627964973449707e+00 4.450144767761230469e-01 5.858051180839538574e-01
5.316000000000000000e+03 5.958759307861328125e+01 -8.250079154968261719e+00 -4.221794009208679199e-01 1.026862502098083496e+00 1.814049333333969116e-01 8.455327749252319336e-01
5.317000000000000000e+03 5.421857452392578125e+01 -8.886890411376953125e+00 -3.996466100215911865e-01 1.312210798263549805e+00 2.737692594528198242e-01 1.984861969947814941e+00
5.318000000000000000e+03 4.848653793334960938e+01 -1.075991344451904297e+01 7.377648949623107910e-01 1.914225459098815918e+00 7.955971360206604004e-01 1.575372457504272461e+00
5.319000000000000000e+03 4.309976577758789062e+01 -1.116672420501708984e+01 -1.236677318811416626e-01 6.075472831726074219e+00 1.785541415214538574e+00 -1.086461424827575684e+00
5.320000000000000000e+03 4.253834152221679688e+01 -1.258331203460693359e+01 4.587782621383666992e-01 6.891104698181152344e+00 2.204964876174926758e+00 -1.031009674072265625e+00
5.321000000000000000e+03 6.022516250610351562e+01 -8.025478363037109375e+00 -4.073467850685119629e-01 9.435036778450012207e-01 1.608470678329467773e-01 7.457976937294006348e-01
5.322000000000000000e+03 5.923052215576171875e+01 -7.227849483489990234e+00 -3.048945963382720947e-01 1.251596331596374512e+00 2.840104997158050537e-01 9.062095284461975098e-01
5.323000000000000000e+03 6.051892471313476562e+01 -7.187742710113525391e+00 -2.977645993232727051e-01 1.037950277328491211e+00 2.220557183027267456e-01 6.964536905288696289e-01
5.324000000000000000e+03 7.262449645996093750e+01 1.984079551696777344e+01 9.928769618272781372e-02 3.082004487514495850e-01 1.222464442253112793e-01 5.747644305229187012e-01
5.325000000000000000e+03 7.306689453125000000e+01 2.033832550048828125e+01 7.754589617252349854e-02 1.954377144575119019e-01 8.189508318901062012e-02 5.779486298561096191e-01
5.326000000000000000e+03 5.047320175170898438e+01 -9.786154747009277344e+00 2.666318714618682861e-01 1.038337469100952148e+00 3.914907872676849365e-01 2.175474882125854492e+00
5.327000000000000000e+03 9.112941741943359375e+00 -8.401169776916503906e+00 1.380071602761745453e-02 2.554429471492767334e-01 8.077310025691986084e-02 -5.497920513153076172e-01
5.328000000000000000e+03 6.510607719421386719e+00 -1.040294265747070312e+01 1.390065550804138184e-01 -1.221649348735809326e-01 5.052486900240182877e-03 -5.609945058822631836e-01
5.329000000000000000e+03 6.371663570404052734e+00 1.108307456970214844e+01 -2.600986743345856667e-03 -3.286042716354131699e-03 -1.766108907759189606e-03 -8.329494739882647991e-04
5.330000000000000000e+03 1.025095558166503906e+01 1.043654918670654297e+01 -8.332099532708525658e-04 -3.352876752614974976e-03 -1.255825976841151714e-03 1.022369600832462311e-03
5.331000000000000000e+03 6.837058258056640625e+01 -8.664276123046875000e+00 -5.131390690803527832e-01 2.343984842300415039e-01 -8.362217247486114502e-02 -4.642426073551177979e-01
5.332000000000000000e+03 6.890905761718750000e+01 -8.950369834899902344e+00 -5.280461311340332031e-01 2.320441901683807373e-01 -8.880058676004409790e-02 -4.706712365150451660e-01
5.333000000000000000e+03 4.222554779052734375e+01 -1.477600193023681641e+01 1.429522752761840820e+00 7.796156406402587891e+00 2.767703771591186523e+00 -9.101343154907226562e-01
5.334000000000000000e+03 4.288344192504882812e+01 -1.420226478576660156e+01 1.254602193832397461e+00 7.413664340972900391e+00 2.600479841232299805e+00 -6.891212463378906250e-01
5.335000000000000000e+03 4.907246398925781250e+01 -1.076929092407226562e+01 7.806679010391235352e-01 1.660270690917968750e+00 7.322815656661987305e-01 1.770463466644287109e+00
5.336000000000000000e+03 7.297299957275390625e+01 2.627407836914062500e+01 -1.455903649330139160e-01 3.450321853160858154e-01 5.983254313468933105e-02 4.927693903446197510e-01
5.337000000000000000e+03 7.144244384765625000e+01 2.347472381591796875e+01 -9.952338039875030518e-02 6.700080633163452148e-01 1.711454093456268311e-01 5.919502973556518555e-01
5.338000000000000000e+03 9.787392616271972656e+00 -8.297672271728515625e+00 3.269382752478122711e-03 3.434129357337951660e-01 1.040046960115432739e-01 -5.067874193191528320e-01
5.339000000000000000e+03 3.386166381835937500e+01 -3.696464776992797852e+00 -7.075750231742858887e-01 6.863430500030517578e+00 1.846756577491760254e+00 2.764417827129364014e-01
5.340000000000000000e+03 7.248373413085937500e+01 2.371786499023437500e+01 -8.621855080127716064e-02 4.271159768104553223e-01 1.022692322731018066e-01 5.822028517723083496e-01
5.341000000000000000e+03 6.798749446868896484e+00 -1.392277622222900391e+01 3.318508565425872803e-01 -7.827454060316085815e-02 7.607289403676986694e-02 -3.721151351928710938e-01
5.342000000000000000e+03 7.319084167480468750e+01 1.211214542388916016e+01 3.011511564254760742e-01 -6.207337975502014160e-02 7.172332704067230225e-02 1.774264127016067505e-01
5.343000000000000000e+03 7.307834625244140625e+01 1.354953575134277344e+01 2.919847667217254639e-01 9.819203056395053864e-03 9.054118394851684570e-02 2.710884511470794678e-01
5.344000000000000000e+03 7.221881103515625000e+01 2.556207084655761719e+01 -1.604042351245880127e-01 5.158367156982421875e-01 1.066297516226768494e-01 5.235778689384460449e-01
5.345000000000000000e+03 7.183583068847656250e+01 2.397749328613281250e+01 -1.113125085830688477e-01 5.711930394172668457e-01 1.379641592502593994e-01 5.762399435043334961e-01
5.346000000000000000e+03 8.410303115844726562e+00 -9.240961074829101562e+00 9.411269426345825195e-02 1.829425543546676636e-01 8.311657607555389404e-02 -5.693669319152832031e-01
5.347000000000000000e+03 7.826695442199707031e+00 -2.265010643005371094e+01 2.466806918382644653e-01 3.004674613475799561e-01 1.641444414854049683e-01 2.928432226181030273e-01
5.348000000000000000e+03 1.397422218322753906e+01 -8.669042587280273438e+00 1.196091324090957642e-01 8.998413681983947754e-01 3.058351576328277588e-01 -1.367842964828014374e-02
5.349000000000000000e+03 7.674630641937255859e+00 1.346644592285156250e+01 -1.062315236777067184e-02 -3.588101826608181000e-03 -4.263376351445913315e-03 2.842937537934631109e-04
5.350000000000000000e+03 7.393378257751464844e+00 2.601347160339355469e+01 -2.182765118777751923e-02 2.082620747387409210e-02 -3.004331956617534161e-04 1.224914491176605225e-01
5.351000000000000000e+03 6.873938751220703125e+01 1.482494258880615234e+01 5.102335810661315918e-01 1.640309572219848633e+00 6.451629400253295898e-01 3.608104288578033447e-01
5.352000000000000000e+03 3.501213455200195312e+01 -4.395010471343994141e+00 -1.432286381721496582e+00 8.196803092956542969e+00 2.029355049133300781e+00 -2.262210547924041748e-01
5.353000000000000000e+03 3.411434555053710938e+01 -5.293131828308105469e+00 -1.536179423332214355e+00 6.953303813934326172e+00 1.625137329101562500e+00 -3.615830540657043457e-01
5.354000000000000000e+03 7.328369140625000000e+01 1.603001403808593750e+01 2.303879261016845703e-01 -1.618743129074573517e-02 6.426014751195907593e-02 4.077131748199462891e-01
5.355000000000000000e+03 4.401460647583007812e+01 -9.401604652404785156e+00 -7.620748877525329590e-01 4.635615348815917969e+00 1.162062048912048340e+00 -1.140262842178344727e+00
5.356000000000000000e+03 7.293919372558593750e+01 -2.477119255065917969e+01 -2.303740754723548889e-02 2.080165082588791847e-03 -6.287172902375459671e-03 8.842986077070236206e-03
5.357000000000000000e+03 7.325355529785156250e+01 1.827489089965820312e+01 1.567278802394866943e-01 6.412453949451446533e-02 6.625572592020034790e-02 5.156710147857666016e-01
5.358000000000000000e+03 4.317530059814453125e+01 -1.379361534118652344e+01 1.108478903770446777e+00 7.078103065490722656e+00 2.455974578857421875e+00 -6.282935738563537598e-01
5.359000000000000000e+03 4.264678955078125000e+01 -1.345702362060546875e+01 8.529440164566040039e-01 7.168754577636718750e+00 2.406509637832641602e+00 -8.939676284790039062e-01
5.360000000000000000e+03 3.761582565307617188e+01 1.740134620666503906e+01 6.166329979896545410e-01 7.152018070220947266e+00 2.330595254898071289e+00 3.815408051013946533e-01
5.361000000000000000e+03 7.344460296630859375e+01 1.065441703796386719e+01 2.830305695533752441e-01 -2.020805776119232178e-01 2.428499609231948853e-02 6.353254616260528564e-02
5.362000000000000000e+03 7.332571411132812500e+01 1.004119682312011719e+01 3.034319579601287842e-01 -1.526832133531570435e-01 4.522462934255599976e-02 1.592276804149150848e-02
5.363000000000000000e+03 6.850202941894531250e+01 1.157824993133544922e+01 5.861938595771789551e-01 1.717013716697692871e+00 6.909622550010681152e-01 2.450216561555862427e-01
5.364000000000000000e+03 9.813439369201660156e+00 8.896627426147460938e+00 -5.740998312830924988e-05 -2.793067600578069687e-03 -8.551432401873171329e-04 1.133847283199429512e-03
5.365000000000000000e+03 9.952574729919433594e+00 9.840904235839843750e+00 -1.043053809553384781e-03 -3.342277137562632561e-03 -1.315599307417869568e-03 1.228578155860304832e-03
5.366000000000000000e+03 7.243515968322753906e+00 -1.481678867340087891e+01 4.120624959468841553e-01 6.652668863534927368e-02 1.435767561197280884e-01 -2.903783917427062988e-01
5.367000000000000000e+03 6.744443416595458984e+00 -1.701554870605468750e+01 3.951176702976226807e-01 -6.751237809658050537e-02 9.828159213066101074e-02 -1.102299019694328308e-01
5.368000000000000000e+03 9.103487968444824219e+00 -1.588568401336669922e+01 5.923708081245422363e-01 6.560579538345336914e-01 3.745286166667938232e-01 -1.478578448295593262e-01
5.369000000000000000e+03 7.095514678955078125e+01 9.555605888366699219e+00 4.671867787837982178e-01 6.942054033279418945e-01 3.484176397323608398e-01 4.574850201606750488e-02
5.370000000000000000e+03 7.335336303710937500e+01 7.549566268920898438e+00 2.805154025554656982e-01 -2.058726102113723755e-01 2.239283360540866852e-02 -1.450330615043640137e-01
5.371000000000000000e+03 7.166945648193359375e+01 -5.022822856903076172e+00 -1.001484021544456482e-01 9.759628772735595703e-02 -7.656329544261097908e-04 -6.027147173881530762e-01
5.372000000000000000e+03 7.311149597167968750e+01 -1.951413989067077637e+00 5.085565522313117981e-02 -1.285671889781951904e-01 -2.331346273422241211e-02 -5.850775241851806641e-01
5.373000000000000000e+03 7.190792846679687500e+01 -3.021842002868652344e+00 1.489829737693071365e-02 6.682874262332916260e-02 2.451811172068119049e-02 -6.009239554405212402e-01
5.374000000000000000e+03 7.274243927001953125e+01 3.678601980209350586e+00 2.539042830467224121e-01 -4.893879592418670654e-02 6.148964911699295044e-02 -3.809864223003387451e-01
5.375000000000000000e+03 7.204946136474609375e+01 2.585048198699951172e+00 2.553966045379638672e-01 1.210217401385307312e-01 1.129254996776580811e-01 -4.305832386016845703e-01
5.376000000000000000e+03 7.215681457519531250e+01 1.107619380950927734e+01 3.820531070232391357e-01 2.877810597419738770e-01 2.009502500295639038e-01 1.127831563353538513e-01
5.377000000000000000e+03 7.178039550781250000e+01 3.450146436691284180e+00 3.030580878257751465e-01 2.146695554256439209e-01 1.553182899951934814e-01 -3.821767568588256836e-01
5.378000000000000000e+03 7.259035491943359375e+01 7.612157344818115234e+00 3.343006968498229980e-01 6.215549632906913757e-02 1.189368590712547302e-01 -1.345390826463699341e-01
5.379000000000000000e+03 6.714976501464843750e+01 6.022090911865234375e+00 6.508094668388366699e-01 1.821875572204589844e+00 7.418054938316345215e-01 7.956129312515258789e-02
5.380000000000000000e+03 7.317826080322265625e+01 4.855149745941162109e+00 2.562459111213684082e-01 -1.659507155418395996e-01 2.708856016397476196e-02 -3.182168304920196533e-01
5.381000000000000000e+03 7.291262817382812500e+01 4.506901800632476807e-01 1.421205252408981323e-01 -1.096098199486732483e-01 9.753213264048099518e-03 -5.282272696495056152e-01
5.382000000000000000e+03 6.911489868164062500e+01 3.639578819274902344e+00 4.615361094474792480e-01 9.723356962203979492e-01 4.301615357398986816e-01 -2.407708317041397095e-01
5.383000000000000000e+03 7.173383331298828125e+01 4.786152362823486328e+00 3.318817913532257080e-01 2.435989081859588623e-01 1.726441979408264160e-01 -3.010690212249755859e-01
5.384000000000000000e+03 7.242060089111328125e+01 -2.208225965499877930e+00 4.347701370716094971e-02 -1.168174482882022858e-02 9.538580663502216339e-03 -5.916748642921447754e-01
5.385000000000000000e+03 7.180934143066406250e+01 1.042068767547607422e+01 4.077823758125305176e-01 3.945257663726806641e-01 2.406924515962600708e-01 7.830279320478439331e-02
5.386000000000000000e+03 7.276561737060546875e+01 -2.650772035121917725e-01 1.214544177055358887e-01 -7.859570533037185669e-02 1.285761222243309021e-02 -5.540001988410949707e-01
5.387000000000000000e+03 1.306267261505126953e+01 2.735493469238281250e+01 3.823353722691535950e-02 1.728694736957550049e-01 6.333090364933013916e-02 6.579548120498657227e-02
5.388000000000000000e+03 6.701003551483154297e+00 9.338253974914550781e+00 -1.440921187167987227e-04 -3.163132350891828537e-03 -9.921672753989696503e-04 -8.706125081516802311e-04
5.389000000000000000e+03 9.803872108459472656e+00 -1.716277503967285156e+01 6.336539387702941895e-01 9.457966685295104980e-01 4.738352000713348389e-01 -3.512893244624137878e-02
5.390000000000000000e+03 6.294420242309570312e+00 1.043648433685302734e+01 -1.894809538498520851e-03 -3.216160926967859268e-03 -1.533291069790720940e-03 -4.972130409441888332e-04
5.391000000000000000e+03 1.417326164245605469e+01 -8.133862495422363281e+00 3.976018354296684265e-02 8.440989851951599121e-01 2.651577591896057129e-01 1.779851503670215607e-02
5.392000000000000000e+03 7.156308746337890625e+01 2.764653968811035156e+01 -2.248569577932357788e-01 6.319084763526916504e-01 1.221154630184173584e-01 4.363642632961273193e-01
5.393000000000000000e+03 6.846012115478515625e+01 2.212384796142578125e+01 -6.492815911769866943e-02 1.478910446166992188e+00 4.241946935653686523e-01 5.688713192939758301e-01
5.394000000000000000e+03 9.373970985412597656e+00 1.247469806671142578e+01 -5.735914688557386398e-03 -4.792969673871994019e-03 -3.158665262162685394e-03 -8.054107893258333206e-04
5.395000000000000000e+03 6.909313201904296875e+00 1.210160160064697266e+01 -5.684610456228256226e-03 -3.253167960792779922e-03 -2.681333571672439575e-03 -6.769363244529813528e-05
5.396000000000000000e+03 5.564953613281250000e+01 -9.144870758056640625e+00 -3.294379711151123047e-01 1.259398698806762695e+00 2.789882123470306396e-01 1.623627781867980957e+00
5.397000000000000000e+03 7.177298736572265625e+01 -7.647666931152343750e+00 -2.712308466434478760e-01 9.196428209543228149e-02 -5.377997085452079773e-02 -5.328593850135803223e-01
5.398000000000000000e+03 7.425485134124755859e+00 -1.953759574890136719e+01 3.969826102256774902e-01 1.663612723350524902e-01 1.690031588077545166e-01 9.890796989202499390e-02
5.399000000000000000e+03 7.548624992370605469e+00 1.041309261322021484e+01 -1.961476402357220650e-03 -3.802157705649733543e-03 -1.729090232402086258e-03 -1.176356527139432728e-04
5.400000000000000000e+03 8.820814132690429688e+00 1.527661609649658203e+01 -2.500789426267147064e-02 8.875380153767764568e-04 -7.236107252538204193e-03 -2.237607492133975029e-03
5.401000000000000000e+03 7.017991542816162109e+00 1.307733345031738281e+01 -8.892325684428215027e-03 -2.718746662139892578e-03 -3.483321750536561012e-03 4.038542101625353098e-04
5.402000000000000000e+03 7.420302867889404297e+00 -2.607122421264648438e+01 -4.889151081442832947e-03 1.769388914108276367e-01 5.161492154002189636e-02 3.472820520401000977e-01
5.403000000000000000e+03 8.177107810974121094e+00 -2.370798873901367188e+01 1.668188124895095825e-01 3.837539553642272949e-01 1.651718318462371826e-01 3.198111355304718018e-01
5.404000000000000000e+03 6.777008056640625000e+00 9.801595687866210938e+00 -1.102683367207646370e-03 -3.413653466850519180e-03 -1.354901120066642761e-03 -4.669692716561257839e-04
5.405000000000000000e+03 6.223660278320312500e+01 -7.507584095001220703e+00 -3.341608941555023193e-01 6.836304068565368652e-01 1.048408597707748413e-01 3.919491767883300781e-01
5.406000000000000000e+03 6.543200969696044922e+00 1.820799064636230469e+01 -4.203643649816513062e-02 9.545014239847660065e-03 -9.747426956892013550e-03 2.457469888031482697e-02
5.407000000000000000e+03 7.911134243011474609e+00 1.906619262695312500e+01 -6.476302444934844971e-02 2.520371600985527039e-02 -1.186779234558343887e-02 2.660208195447921753e-02
5.408000000000000000e+03 7.675104141235351562e+00 2.504349517822265625e+01 -4.011485353112220764e-02 3.148598223924636841e-02 -2.588661154732108116e-03 1.166486293077468872e-01
5.409000000000000000e+03 7.254994869232177734e+00 -1.182548332214355469e+01 2.625756263732910156e-01 2.670839242637157440e-02 8.678520470857620239e-02 -5.021332502365112305e-01
5.410000000000000000e+03 6.695847034454345703e+00 -1.861295509338378906e+01 3.646674156188964844e-01 -6.495516002178192139e-02 8.991367369890213013e-02 2.356418780982494354e-02
5.411000000000000000e+03 7.387526988983154297e+00 -1.724358940124511719e+01 4.500542879104614258e-01 1.437688916921615601e-01 1.781469434499740601e-01 -8.522174507379531860e-02
5.412000000000000000e+03 7.015872955322265625e+00 1.666722106933593750e+01 -3.179748728871345520e-02 5.536776501685380936e-03 -7.878213189542293549e-03 9.640536271035671234e-03
5.413000000000000000e+03 7.299619674682617188e+00 1.731615257263183594e+01 -4.131792858242988586e-02 8.760478347539901733e-03 -9.767235256731510162e-03 1.473477110266685486e-02
5.414000000000000000e+03 7.767926692962646484e+00 1.794948005676269531e+01 -5.036570876836776733e-02 1.589496992528438568e-02 -1.034122146666049957e-02 1.582584716379642487e-02
5.415000000000000000e+03 6.673096179962158203e+00 -1.465657329559326172e+01 3.499913513660430908e-01 -1.034598499536514282e-01 7.395945489406585693e-02 -3.141235113143920898e-01
5.416000000000000000e+03 6.603406429290771484e+00 -1.190572452545166016e+01 2.277874648571014404e-01 -1.208719536662101746e-01 3.207465261220932007e-02 -4.972640275955200195e-01
5.417000000000000000e+03 7.348384380340576172e+00 2.681350326538085938e+01 -1.123601850122213364e-02 1.457447092980146408e-02 1.001535565592348576e-03 1.251674443483352661e-01
5.418000000000000000e+03 7.158307552337646484e+00 2.534023284912109375e+01 -3.278992325067520142e-02 1.588347181677818298e-02 -5.071935709565877914e-03 1.185219660401344299e-01
5.419000000000000000e+03 6.831627655029296875e+01 1.969988632202148438e+01 2.149851471185684204e-01 1.617184758186340332e+00 5.496509671211242676e-01 5.520032644271850586e-01
5.420000000000000000e+03 6.793506622314453125e+01 1.805966758728027344e+01 3.897942304611206055e-01 1.825086236000061035e+00 6.644641160964965820e-01 4.678125381469726562e-01
5.421000000000000000e+03 6.566421031951904297e+00 -8.242986679077148438e+00 -1.890459447167813778e-03 -9.216171503067016602e-02 -2.821565419435501099e-02 -6.006496548652648926e-01
5.422000000000000000e+03 6.536227703094482422e+00 -8.951929092407226562e+00 4.505675286054611206e-02 -1.043445169925689697e-01 -1.778632961213588715e-02 -5.945814251899719238e-01
5.423000000000000000e+03 7.163347721099853516e+00 -1.043259525299072266e+01 1.648573130369186401e-01 -1.936612999998033047e-03 4.887620732188224792e-02 -5.636014938354492188e-01
5.424000000000000000e+03 7.285373687744140625e+00 -1.854468727111816406e+01 4.146645665168762207e-01 1.072146296501159668e-01 1.565637588500976562e-01 2.038107812404632568e-02
5.425000000000000000e+03 7.318102264404296875e+01 -8.085623741149902344e+00 -2.281015217304229736e-01 -1.538268290460109711e-02 -7.304526120424270630e-02 -4.873316586017608643e-01
5.426000000000000000e+03 6.719644927978515625e+01 7.393279075622558594e+00 6.706823110580444336e-01 1.981627583503723145e+00 7.956929802894592285e-01 1.713587343692779541e-01
5.427000000000000000e+03 6.734425544738769531e+00 -1.939540100097656250e+01 3.435200750827789307e-01 -4.815502837300300598e-02 8.860950917005538940e-02 8.132504671812057495e-02
5.428000000000000000e+03 8.109673500061035156e+00 -1.977802658081054688e+01 4.446505904197692871e-01 3.857984542846679688e-01 2.491347193717956543e-01 1.257920265197753906e-01
5.429000000000000000e+03 7.587997436523437500e+00 -1.300753021240234375e+01 3.485974073410034180e-01 1.084237098693847656e-01 1.371063441038131714e-01 -4.264070689678192139e-01
5.430000000000000000e+03 9.562921524047851562e+00 -9.809181213378906250e+00 1.790446192026138306e-01 4.172595739364624023e-01 1.788912564516067505e-01 -4.996303319931030273e-01
5.431000000000000000e+03 7.085659980773925781e+00 7.435169696807861328e+00 7.413383573293685913e-04 -2.045933855697512627e-03 -3.913786495104432106e-04 -5.847400752827525139e-04
5.432000000000000000e+03 7.750189304351806641e+00 2.389722251892089844e+01 -5.752900242805480957e-02 3.571310639381408691e-02 -6.544768810272216797e-03 1.075260490179061890e-01
5.433000000000000000e+03 7.318098545074462891e+00 2.454729843139648438e+01 -4.412895068526268005e-02 2.001192606985569000e-02 -7.235107477754354477e-03 1.109530702233314514e-01
5.434000000000000000e+03 1.056022644042968750e+01 2.988266944885253906e+01 6.131453812122344971e-02 1.453448832035064697e-01 6.199782714247703552e-02 8.940585702657699585e-02
5.435000000000000000e+03 6.908623695373535156e+00 2.880927658081054688e+01 1.386899221688508987e-02 -1.059111207723617554e-02 9.833639487624168396e-04 1.190025880932807922e-01
5.436000000000000000e+03 4.396495437622070312e+01 -1.110616683959960938e+01 2.161246258765459061e-03 5.450408458709716797e+00 1.635770797729492188e+00 -8.169291615486145020e-01
5.437000000000000000e+03 6.197100830078125000e+01 -3.678787708282470703e+00 2.170174717903137207e-01 1.403201103210449219e+00 4.860655665397644043e-01 4.796302616596221924e-01
5.438000000000000000e+03 7.582662105560302734e+00 -2.708452606201171875e+01 -5.108562856912612915e-02 2.041244953870773315e-01 4.591165855526924133e-02 3.283129334449768066e-01
5.439000000000000000e+03 5.756639862060546875e+01 -8.834172248840332031e+00 -4.148858487606048584e-01 1.188584446907043457e+00 2.321095764636993408e-01 1.183244228363037109e+00
5.440000000000000000e+03 5.816734695434570312e+01 -8.947845458984375000e+00 -4.240604639053344727e-01 1.098586916923522949e+00 2.023579180240631104e-01 1.082417488098144531e+00
5.441000000000000000e+03 3.902663803100585938e+01 -6.942965030670166016e+00 -2.709166049957275391e+00 9.228052139282226562e+00 1.955665946006774902e+00 -1.756839036941528320e+00
5.442000000000000000e+03 7.680040836334228516e+00 -2.818074417114257812e+01 -1.025492548942565918e-01 2.054480910301208496e-01 3.086964972317218781e-02 3.036039769649505615e-01
5.443000000000000000e+03 8.199801445007324219e+00 -2.538424110412597656e+01 3.347112983465194702e-02 3.700210750102996826e-01 1.210476607084274292e-01 3.377998769283294678e-01
5.444000000000000000e+03 3.920615768432617188e+01 1.854670715332031250e+01 4.457028508186340332e-01 5.597174167633056641e+00 1.812863111495971680e+00 1.006535530090332031e+00
5.445000000000000000e+03 1.267912197113037109e+01 -8.194694519042968750e+00 2.306796051561832428e-02 7.178928852081298828e-01 2.222882658243179321e-01 -2.194921523332595825e-01
5.446000000000000000e+03 6.075840377807617188e+01 -5.912598609924316406e+00 -9.106402099132537842e-02 1.211105704307556152e+00 3.360125124454498291e-01 6.413380503654479980e-01
5.447000000000000000e+03 6.345132446289062500e+01 -7.743365764617919922e-01 4.371744394302368164e-01 1.731118440628051758e+00 6.504878997802734375e-01 3.525506556034088135e-01
5.448000000000000000e+03 6.816042327880859375e+01 -8.179880142211914062e+00 -4.656890034675598145e-01 2.486548870801925659e-01 -6.511023640632629395e-02 -4.748314619064331055e-01
5.449000000000000000e+03 3.630482101440429688e+01 -4.876372814178466797e+00 -2.037472248077392578e+00 9.360846519470214844e+00 2.197012424468994141e+00 -6.776400208473205566e-01
5.450000000000000000e+03 3.497844314575195312e+01 -2.939728736877441406e+00 -5.918971300125122070e-01 8.650515556335449219e+00 2.417585611343383789e+00 1.371319591999053955e-01
5.451000000000000000e+03 8.075807571411132812e+00 1.564778900146484375e+01 -2.728044614195823669e-02 2.440919168293476105e-03 -7.451857905834913254e-03 1.767365843988955021e-03
5.452000000000000000e+03 4.104615020751953125e+01 -1.182500934600830078e+01 -1.327006667852401733e-01 7.468749523162841797e+00 2.200814723968505859e+00 -1.458756446838378906e+00
5.453000000000000000e+03 3.966141510009765625e+01 -7.802469730377197266e+00 -2.409660816192626953e+00 8.609945297241210938e+00 1.860085368156433105e+00 -1.881975769996643066e+00
5.454000000000000000e+03 7.837083339691162109e+00 2.197268295288085938e+01 -7.678011059761047363e-02 3.675726801156997681e-02 -1.200685184448957443e-02 7.316463440656661987e-02
5.455000000000000000e+03 6.848060607910156250e+01 2.053194618225097656e+01 1.142844036221504211e-01 1.517423748970031738e+00 4.895124435424804688e-01 5.793490409851074219e-01
5.456000000000000000e+03 6.765834808349609375e+01 2.075483512878417969e+01 8.825100213289260864e-02 1.778436779975891113e+00 5.600063204765319824e-01 5.385046005249023438e-01
5.457000000000000000e+03 9.823115348815917969e+00 2.291407203674316406e+01 -1.063959673047065735e-01 7.522207498550415039e-02 -9.352168999612331390e-03 8.654542267322540283e-02
5.458000000000000000e+03 8.861338615417480469e+00 1.791504478454589844e+01 -5.880009010434150696e-02 1.979206502437591553e-02 -1.170240715146064758e-02 6.592719350010156631e-03
5.459000000000000000e+03 6.268412780761718750e+01 -8.008567810058593750e+00 -4.013189375400543213e-01 5.122259259223937988e-01 3.327209129929542542e-02 3.138398528099060059e-01
5.460000000000000000e+03 6.422369384765625000e+01 -7.518275260925292969e+00 -3.303245306015014648e-01 3.920797705650329590e-01 1.852657087147235870e-02 1.428272295743227005e-02
5.461000000000000000e+03 3.217364501953125000e+01 -4.834497928619384766e+00 -5.390897989273071289e-01 4.084451675415039062e+00 1.063608646392822266e+00 6.752505898475646973e-02
5.462000000000000000e+03 1.075673866271972656e+01 -1.327982425689697266e+01 5.912029147148132324e-01 9.774087071418762207e-01 4.705834984779357910e-01 -2.227991521358489990e-01
5.463000000000000000e+03 1.141487503051757812e+01 -1.248107719421386719e+01 5.634732842445373535e-01 1.067279219627380371e+00 4.892257452011108398e-01 -2.042004466056823730e-01
5.464000000000000000e+03 4.025696182250976562e+01 2.138442802429199219e+01 1.755882948637008667e-01 4.491622924804687500e+00 1.400163412094116211e+00 1.200940966606140137e+00
5.465000000000000000e+03 4.202643585205078125e+01 2.148820686340332031e+01 1.806629151105880737e-01 3.516579151153564453e+00 1.109172582626342773e+00 1.297478079795837402e+00
5.466000000000000000e+03 9.161674499511718750e+00 -2.520399665832519531e+01 4.297076165676116943e-02 6.148988604545593262e-01 1.973608881235122681e-01 3.089669048786163330e-01
5.467000000000000000e+03 1.027049255371093750e+01 -1.565967369079589844e+01 6.693124771118164062e-01 1.053613185882568359e+00 5.168777108192443848e-01 -9.260199964046478271e-02
5.468000000000000000e+03 9.205657958984375000e+00 8.104992866516113281e+00 5.065105506218969822e-04 -2.647431334480643272e-03 -6.422762526199221611e-04 5.929595790803432465e-04
5.469000000000000000e+03 5.881105804443359375e+01 -6.829887390136718750e+00 -2.718874514102935791e-01 1.389092564582824707e+00 3.351615369319915771e-01 9.635893106460571289e-01
5.470000000000000000e+03 5.837226104736328125e+01 -7.466677665710449219e+00 -3.493583500385284424e-01 1.353874921798706055e+00 3.013549745082855225e-01 1.048490524291992188e+00
5.471000000000000000e+03 9.911463737487792969e+00 -2.179002189636230469e+01 4.149507880210876465e-01 9.525899291038513184e-01 4.102622270584106445e-01 2.153814136981964111e-01
5.472000000000000000e+03 8.639525413513183594e+00 -2.061765098571777344e+01 4.292382001876831055e-01 5.505241751670837402e-01 2.939287126064300537e-01 1.799036115407943726e-01
5.473000000000000000e+03 7.062096405029296875e+01 1.835598230361938477e+00 2.897908687591552734e-01 4.566183984279632568e-01 2.239227741956710815e-01 -4.203828275203704834e-01
5.474000000000000000e+03 9.625117301940917969e+00 -1.817207145690917969e+01 6.004174351692199707e-01 8.925256133079528809e-01 4.478829205036163330e-01 1.786227896809577942e-02
5.475000000000000000e+03 5.821355819702148438e+01 -8.210007667541503906e+00 -4.180307090282440186e-01 1.244884610176086426e+00 2.480561584234237671e-01 1.088916420936584473e+00
5.476000000000000000e+03 7.554700851440429688e+00 -2.927823448181152344e+01 -1.228251531720161438e-01 1.611036062240600586e-01 1.148353796452283859e-02 2.767191529273986816e-01
5.477000000000000000e+03 4.291478729248046875e+01 -9.739397048950195312e+00 -8.682028055191040039e-01 5.844063758850097656e+00 1.492758274078369141e+00 -1.447295427322387695e+00
5.478000000000000000e+03 7.264274120330810547e+00 -8.294084548950195312e+00 2.270491677336394787e-04 -2.516853855922818184e-03 -6.869413773529231548e-04 -5.998605489730834961e-01
5.479000000000000000e+03 7.033936309814453125e+01 -3.043634033203125000e+01 -6.699111312627792358e-02 2.360656671226024628e-02 -1.301536336541175842e-02 6.933459639549255371e-02
5.480000000000000000e+03 7.131505584716796875e+01 -3.052627182006835938e+01 -5.304925888776779175e-02 1.359567139297723770e-02 -1.183607615530490875e-02 6.639052182435989380e-02
5.481000000000000000e+03 1.382672786712646484e+01 2.812640571594238281e+01 8.316630125045776367e-02 2.192533165216445923e-01 9.072588384151458740e-02 2.296769060194492340e-02
5.482000000000000000e+03 5.971828460693359375e+01 -6.907968521118164062e+00 -2.666262090206146240e-01 1.233908772468566895e+00 2.901847660541534424e-01 8.305128216743469238e-01
5.483000000000000000e+03 3.974871444702148438e+01 -1.185380649566650391e+01 -1.468488574028015137e-01 8.086459159851074219e+00 2.381883144378662109e+00 -1.515501499176025391e+00
5.484000000000000000e+03 7.265324115753173828e+00 9.075998306274414062e+00 -9.586846135789528489e-05 -3.332711756229400635e-03 -1.028574071824550629e-03 -6.556197186000645161e-04
5.485000000000000000e+03 7.097028732299804688e+00 -2.067971229553222656e+01 3.170337080955505371e-01 6.678969413042068481e-02 1.151470243930816650e-01 1.799789667129516602e-01
5.486000000000000000e+03 7.329792499542236328e+00 -2.016522026062011719e+01 3.665546774864196777e-01 1.440945714712142944e-01 1.531947702169418335e-01 1.492498666048049927e-01
5.487000000000000000e+03 8.046648025512695312e+00 2.017915153503417969e+01 -7.590901851654052734e-02 3.403368964791297913e-02 -1.256259810179471970e-02 4.185508564114570618e-02
5.488000000000000000e+03 8.280936241149902344e+00 2.130357933044433594e+01 -8.300519734621047974e-02 4.309250041842460632e-02 -1.197380945086479187e-02 6.195803359150886536e-02
5.489000000000000000e+03 1.108824920654296875e+01 3.190419960021972656e+01 8.840528875589370728e-02 2.163036167621612549e-01 9.141267091035842896e-02 4.967878758907318115e-02
5.490000000000000000e+03 7.111067962646484375e+01 -2.681042289733886719e+01 -5.212755128741264343e-02 1.427461020648479462e-02 -1.135588157922029495e-02 1.997744664549827576e-02
5.491000000000000000e+03 7.166674041748046875e+01 -2.856366157531738281e+01 -5.449427664279937744e-02 1.427351217716932297e-02 -1.206622924655675888e-02 4.122262448072433472e-02
5.492000000000000000e+03 6.845105743408203125e+01 1.711318778991699219e+01 4.393013715744018555e-01 1.679573893547058105e+00 6.356626152992248535e-01 4.506423771381378174e-01
5.493000000000000000e+03 6.729499053955078125e+01 2.207001686096191406e+01 -8.325700461864471436e-02 1.783895850181579590e+00 5.101916790008544922e-01 5.054377317428588867e-01
5.494000000000000000e+03 9.857568740844726562e+00 2.040536499023437500e+01 -1.164872050285339355e-01 5.543706193566322327e-02 -1.831504330039024353e-02 2.899437583982944489e-02
5.495000000000000000e+03 9.533009529113769531e+00 -2.010976028442382812e+01 5.171714425086975098e-01 8.641499280929565430e-01 4.143964052200317383e-01 1.405285745859146118e-01
5.496000000000000000e+03 9.657945632934570312e+00 -1.878235244750976562e+01 5.795038342475891113e-01 9.139662981033325195e-01 4.480410218238830566e-01 5.209214612841606140e-02
5.497000000000000000e+03 3.852809143066406250e+01 2.127627182006835938e+01 1.770403236150741577e-01 5.420386791229248047e+00 1.679228186607360840e+00 9.166579246520996094e-01
5.498000000000000000e+03 3.965761184692382812e+01 1.924169921875000000e+01 3.684428930282592773e-01 5.151108264923095703e+00 1.655865430831909180e+00 1.113712668418884277e+00
5.499000000000000000e+03 8.334419250488281250e+00 1.743022918701171875e+01 -4.982095211744308472e-02 1.324125565588474274e-02 -1.097390893846750259e-02 8.147204294800758362e-03
5.500000000000000000e+03 7.107556915283203125e+01 -8.386407852172851562e+00 -3.539682626724243164e-01 1.464308351278305054e-01 -6.226122751832008362e-02 -5.043398141860961914e-01
5.501000000000000000e+03 7.176291656494140625e+01 -8.317127227783203125e+00 -3.185038566589355469e-01 1.032516360282897949e-01 -6.457567214965820312e-02 -5.020079016685485840e-01
5.502000000000000000e+03 7.236134338378906250e+01 -6.936664104461669922e+00 -2.045271992683410645e-01 3.100957535207271576e-02 -5.205528810620307922e-02 -5.514081716537475586e-01
5.503000000000000000e+03 3.590449142456054688e+01 2.112913513183593750e+01 3.872429132461547852e-01 6.680664539337158203e+00 2.120372295379638672e+00 1.627379953861236572e-01
5.504000000000000000e+03 3.768701934814453125e+01 -6.214495182037353516e+00 -2.679733276367187500e+00 9.670065879821777344e+00 2.097099781036376953e+00 -1.263893485069274902e+00
5.505000000000000000e+03 3.461016082763671875e+01 -1.804016232490539551e+00 4.649056866765022278e-02 8.503027915954589844e+00 2.564855575561523438e+00 3.714421987533569336e-01
5.506000000000000000e+03 3.435058593750000000e+01 -2.785544395446777344e+00 -3.932366371154785156e-01 7.908185958862304688e+00 2.254484891891479492e+00 3.767603933811187744e-01
5.507000000000000000e+03 6.750584411621093750e+01 1.987442016601562500e+01 2.188286334276199341e-01 1.863377332687377930e+00 6.246618032455444336e-01 5.223495960235595703e-01
5.508000000000000000e+03 7.194483184814453125e+01 2.094480323791503906e+01 5.368483066558837891e-02 5.214056968688964844e-01 1.725271642208099365e-01 6.085099577903747559e-01
5.509000000000000000e+03 6.397978973388671875e+01 -4.986504837870597839e-02 4.692589640617370605e-01 1.782981514930725098e+00 6.756721735000610352e-01 2.864357233047485352e-01
5.510000000000000000e+03 6.564118957519531250e+01 1.008909702301025391e+00 4.603357613086700439e-01 1.609934091567993164e+00 6.210809350013732910e-01 3.523073345422744751e-02
5.511000000000000000e+03 6.134399032592773438e+01 -7.402431011199951172e+00 -3.256180286407470703e-01 8.693065047264099121e-01 1.631065458059310913e-01 5.590152740478515625e-01
5.512000000000000000e+03 1.194782161712646484e+01 -1.160214233398437500e+01 4.892016649246215820e-01 1.064649701118469238e+00 4.661554098129272461e-01 -1.876953393220901489e-01
5.513000000000000000e+03 1.293009567260742188e+01 -1.034139156341552734e+01 3.635807633399963379e-01 1.060642480850219727e+00 4.272669851779937744e-01 -1.136259734630584717e-01
5.514000000000000000e+03 6.781066131591796875e+01 8.948875427246093750e+00 6.479455828666687012e-01 1.875476956367492676e+00 7.570267915725708008e-01 1.739845871925354004e-01
5.515000000000000000e+03 7.276176452636718750e+01 8.978359222412109375e+00 3.497251272201538086e-01 3.162121772766113281e-02 1.144039034843444824e-01 -3.850865364074707031e-02
5.516000000000000000e+03 7.255337524414062500e+01 -2.767556571960449219e+01 -4.201849550008773804e-02 7.625023834407329559e-03 -1.031804084777832031e-02 3.044819086790084839e-02
5.517000000000000000e+03 7.205835723876953125e+01 -2.602086830139160156e+01 -3.711119666695594788e-02 7.527481764554977417e-03 -8.875114843249320984e-03 1.535284239798784256e-02
5.518000000000000000e+03 3.657145690917968750e+01 -7.434272766113281250e+00 -2.549813508987426758e+00 9.029417991638183594e+00 1.943881154060363770e+00 -1.086098074913024902e+00
5.519000000000000000e+03 3.702083206176757812e+01 -8.167580604553222656e+00 -2.377622127532958984e+00 9.075284004211425781e+00 2.009298801422119141e+00 -1.239636659622192383e+00
5.520000000000000000e+03 3.550428771972656250e+01 -5.109900951385498047e+00 -1.923854351043701172e+00 8.623903274536132812e+00 2.010014533996582031e+00 -5.422049760818481445e-01
5.521000000000000000e+03 3.848509216308593750e+01 1.893230056762695312e+01 4.501323699951171875e-01 6.029352664947509766e+00 1.943845510482788086e+00 7.981070876121520996e-01
5.522000000000000000e+03 7.821287155151367188e+00 9.099401473999023438e+00 -5.110547062940895557e-04 -3.400422399863600731e-03 -1.173443160951137543e-03 -7.151660247473046184e-05
5.523000000000000000e+03 7.675747871398925781e+00 -1.664424896240234375e+01 4.785015881061553955e-01 2.154300808906555176e-01 2.081795036792755127e-01 -1.297278404235839844e-01
5.524000000000000000e+03 6.757054901123046875e+01 8.064569473266601562e+00 6.602267026901245117e-01 1.899255514144897461e+00 7.678446173667907715e-01 1.522289514541625977e-01
5.525000000000000000e+03 6.585124206542968750e+01 -6.365142822265625000e+00 -1.981595158576965332e-01 4.756081402301788330e-01 8.323459327220916748e-02 -2.451675832271575928e-01
5.526000000000000000e+03 6.117608642578125000e+01 -4.730902671813964844e+00 8.293238282203674316e-02 1.356058001518249512e+00 4.316971004009246826e-01 5.872908234596252441e-01
5.527000000000000000e+03 3.652307128906250000e+01 2.300963401794433594e+01 -3.794632852077484131e-02 5.803735256195068359e+00 1.729736566543579102e+00 4.598619937896728516e-01
5.528000000000000000e+03 3.507312393188476562e+01 2.469521331787109375e+01 -3.463833034038543701e-01 5.692217350006103516e+00 1.603750228881835938e+00 1.153782606124877930e-01
5.529000000000000000e+03 4.009587478637695312e+01 -1.931181716918945312e+01 2.091808319091796875e+00 9.004748344421386719e+00 3.328966856002807617e+00 -7.257230281829833984e-01
5.530000000000000000e+03 8.129415512084960938e+00 2.721590232849121094e+01 -5.901513155549764633e-03 3.612338006496429443e-02 9.066559374332427979e-03 1.256938427686691284e-01
5.531000000000000000e+03 5.934802627563476562e+01 2.672130775451660156e+01 -2.559033632278442383e-01 1.118455648422241211e+00 2.587656676769256592e-01 -5.331593155860900879e-01
5.532000000000000000e+03 7.167893981933593750e+01 2.843645858764648438e+01 -2.278013378381729126e-01 5.987005233764648438e-01 1.112697571516036987e-01 4.010244011878967285e-01
5.533000000000000000e+03 7.095848846435546875e+01 2.825354385375976562e+01 -2.559404969215393066e-01 7.222015857696533203e-01 1.398783326148986816e-01 4.009625911712646484e-01
5.534000000000000000e+03 8.099852561950683594e+00 2.976461410522460938e+01 3.328287601470947266e-02 3.527215123176574707e-02 2.056650817394256592e-02 1.146495863795280457e-01
5.535000000000000000e+03 7.639477729797363281e+00 2.814045143127441406e+01 9.243679232895374298e-03 1.987809129059314728e-02 8.736531250178813934e-03 1.241920441389083862e-01
5.536000000000000000e+03 1.319756412506103516e+01 -8.950032234191894531e+00 1.410610526800155640e-01 8.865582346916198730e-01 3.082858026027679443e-01 -1.322227418422698975e-01
5.537000000000000000e+03 4.493005371093750000e+01 -1.148897457122802734e+01 4.087224900722503662e-01 4.869823455810546875e+00 1.583563804626464844e+00 -1.983046978712081909e-01
5.538000000000000000e+03 7.458945751190185547e+00 -2.163081359863281250e+01 2.994939982891082764e-01 1.936199218034744263e-01 1.479341685771942139e-01 2.425162643194198608e-01
5.539000000000000000e+03 6.102698135375976562e+01 -3.869331121444702148e+00 2.193380147218704224e-01 1.507515072822570801e+00 5.180559158325195312e-01 6.278980374336242676e-01
5.540000000000000000e+03 6.486428260803222656e+00 1.358848285675048828e+01 -1.055903732776641846e-02 -3.120661480352282524e-03 -4.103909712284803391e-03 2.068175235763192177e-03
5.541000000000000000e+03 7.157973480224609375e+01 3.075094223022460938e+01 -2.172690033912658691e-01 5.620997548103332520e-01 1.034492328763008118e-01 3.058834075927734375e-01
5.542000000000000000e+03 7.258817291259765625e+01 2.927200126647949219e+01 -1.862943917512893677e-01 4.356886446475982666e-01 7.481827586889266968e-02 3.694458305835723877e-01
5.543000000000000000e+03 4.686862182617187500e+01 -1.046444416046142578e+01 3.345375955104827881e-01 2.787488698959350586e+00 9.366078972816467285e-01 7.103886604309082031e-01
5.544000000000000000e+03 4.621170806884765625e+01 -1.060155200958251953e+01 2.735114991664886475e-01 3.404495954513549805e+00 1.103402256965637207e+00 3.171360492706298828e-01
5.545000000000000000e+03 4.533532714843750000e+01 -1.010517501831054688e+01 -1.492614895105361938e-01 3.756321191787719727e+00 1.082117915153503418e+00 -3.090375661849975586e-01
5.546000000000000000e+03 6.656903839111328125e+01 3.673190116882324219e+00 5.954382419586181641e-01 1.763060569763183594e+00 7.075496315956115723e-01 2.690679579973220825e-02
5.547000000000000000e+03 8.401338577270507812e+00 1.369847679138183594e+01 -1.320227142423391342e-02 -2.709542401134967804e-03 -4.773544147610664368e-03 -6.037486600689589977e-04
5.548000000000000000e+03 6.864124298095703125e+01 1.333049297332763672e+01 5.475612282752990723e-01 1.692040562629699707e+00 6.718805432319641113e-01 3.036958873271942139e-01
5.549000000000000000e+03 7.750226497650146484e+00 1.196471977233886719e+01 -5.114513449370861053e-03 -3.683474846184253693e-03 -2.639396581798791885e-03 -2.243679336970672011e-04
5.550000000000000000e+03 9.943713188171386719e+00 1.335493183135986328e+01 -8.607922121882438660e-03 -4.815016873180866241e-03 -4.026881419122219086e-03 -2.264471957460045815e-03
5.551000000000000000e+03 6.892520141601562500e+01 1.868606185913085938e+01 2.891708016395568848e-01 1.453754901885986328e+00 5.228776931762695312e-01 5.409447550773620605e-01
5.552000000000000000e+03 3.841555023193359375e+01 -2.696641921997070312e+01 8.690377473831176758e-01 7.097445964813232422e+00 2.389945268630981445e+00 7.378853559494018555e-01
5.553000000000000000e+03 7.182735443115234375e+01 1.604627990722656250e+01 3.091464340686798096e-01 4.914425313472747803e-01 2.401766926050186157e-01 4.420780837535858154e-01
5.554000000000000000e+03 6.896604919433593750e+01 1.624170112609863281e+01 4.540193974971771240e-01 1.519228219985961914e+00 5.919743180274963379e-01 4.272471964359283447e-01
5.555000000000000000e+03 7.261842346191406250e+01 -2.858375930786132812e+01 -4.297310486435890198e-02 6.434267852455377579e-03 -1.096165087074041367e-02 4.150057956576347351e-02
5.556000000000000000e+03 9.400824546813964844e+00 -3.053954124450683594e+01 -2.011445909738540649e-01 4.380818307399749756e-01 7.108116894960403442e-02 1.861641705036163330e-01
5.557000000000000000e+03 9.017262458801269531e+00 1.892366027832031250e+01 -7.689277082681655884e-02 3.129467368125915527e-02 -1.367942895740270615e-02 1.411167718470096588e-02
5.558000000000000000e+03 4.236555862426757812e+01 2.480238342285156250e+01 -1.145743429660797119e-01 3.282091617584228516e+00 9.502551555633544922e-01 1.196766734123229980e+00
5.559000000000000000e+03 4.110730361938476562e+01 2.219871330261230469e+01 9.511014074087142944e-02 3.974601745605468750e+00 1.220913529396057129e+00 1.251665115356445312e+00
5.560000000000000000e+03 7.183190917968750000e+01 1.676498985290527344e+01 2.784847021102905273e-01 5.026372075080871582e-01 2.343365848064422607e-01 4.817218780517578125e-01
5.561000000000000000e+03 1.487458992004394531e+01 2.866126632690429688e+01 1.211671680212020874e-01 2.819531559944152832e-01 1.209360957145690918e-01 -4.375388100743293762e-02
5.562000000000000000e+03 3.149316024780273438e+01 3.532818984985351562e+01 -9.148626327514648438e-01 3.547086238861083984e+00 7.896670699119567871e-01 -3.055588901042938232e-01
5.563000000000000000e+03 1.097782611846923828e+01 -2.496407508850097656e+01 5.109275504946708679e-02 1.068536639213562012e+00 3.358888328075408936e-01 2.121721506118774414e-01
5.564000000000000000e+03 1.014485454559326172e+01 -2.375708007812500000e+01 1.905289739370346069e-01 9.386035203933715820e-01 3.387397527694702148e-01 2.721982002258300781e-01
5.565000000000000000e+03 8.464487075805664062e+00 -2.940731239318847656e+01 -1.493245214223861694e-01 3.199673295021057129e-01 5.119283869862556458e-02 2.600025236606597900e-01
5.566000000000000000e+03 9.787935256958007812e+00 -2.711555290222167969e+01 -1.006221473217010498e-01 6.704086065292358398e-01 1.709359437227249146e-01 2.589090764522552490e-01
5.567000000000000000e+03 6.629936218261718750e+01 2.320690917968750000e+01 -2.767108976840972900e-01 1.924565076828002930e+00 4.943562448024749756e-01 3.470476269721984863e-01
5.568000000000000000e+03 6.521468353271484375e+01 2.609992980957031250e+01 -4.798275530338287354e-01 1.714069247245788574e+00 3.702725172042846680e-01 7.835086435079574585e-02
5.569000000000000000e+03 6.857186126708984375e+01 -3.627038955688476562e+01 4.600907862186431885e-02 -7.983327843248844147e-03 1.140772458165884018e-02 1.135289222002029419e-01
5.570000000000000000e+03 4.681070709228515625e+01 2.850049209594726562e+01 -1.105351522564888000e-01 2.012503147125244141e+00 5.705904364585876465e-01 8.414278626441955566e-01
5.571000000000000000e+03 4.655735397338867188e+01 2.692045783996582031e+01 -6.363514810800552368e-02 1.970571279525756836e+00 5.720808506011962891e-01 9.291542172431945801e-01
5.572000000000000000e+03 5.170480728149414062e+01 2.778894615173339844e+01 5.432071164250373840e-02 9.609884023666381836e-01 3.045927286148071289e-01 3.477912247180938721e-01
5.573000000000000000e+03 1.240817070007324219e+01 3.266872406005859375e+01 1.051826626062393188e-01 3.219094574451446533e-01 1.281276345252990723e-01 9.644507081247866154e-04
5.574000000000000000e+03 1.749602508544921875e+01 3.042336463928222656e+01 1.924264132976531982e-01 5.945245027542114258e-01 2.360852658748626709e-01 -2.985434532165527344e-01
5.575000000000000000e+03 6.175231170654296875e+01 2.821880722045898438e+01 -4.015539586544036865e-01 1.412101149559020996e+00 3.031641542911529541e-01 -3.325508534908294678e-01
5.576000000000000000e+03 6.731858062744140625e+01 3.152590942382812500e+01 -3.475866019725799561e-01 1.048601269721984863e+00 2.103043943643569946e-01 1.315982192754745483e-01
5.577000000000000000e+03 7.456344604492187500e+00 -3.037434196472167969e+01 -1.341870874166488647e-01 1.174512058496475220e-01 -5.020762793719768524e-03 2.534151971340179443e-01
5.578000000000000000e+03 8.363311767578125000e+00 -3.302502059936523438e+01 -1.683702617883682251e-01 1.857832968235015869e-01 5.223912652581930161e-03 1.565675586462020874e-01
5.579000000000000000e+03 1.157055854797363281e+01 -3.090325164794921875e+01 -2.492528557777404785e-01 6.929922103881835938e-01 1.331218183040618896e-01 6.342189759016036987e-02
5.580000000000000000e+03 5.344794082641601562e+01 2.745173072814941406e+01 4.968964681029319763e-02 7.560302019119262695e-01 2.417159527540206909e-01 1.196203976869583130e-01
5.581000000000000000e+03 2.588653945922851562e+01 3.202748107910156250e+01 -3.238781988620758057e-01 2.596151351928710938e+00 6.816819906234741211e-01 -9.083747267723083496e-01
5.582000000000000000e+03 7.005267333984375000e+01 -3.290323257446289062e+01 -3.390829637646675110e-02 1.147642452269792557e-02 -6.729561835527420044e-03 1.015533506870269775e-01
5.583000000000000000e+03 6.828319549560546875e+01 3.348432159423828125e+01 -2.867240309715270996e-01 8.859702944755554199e-01 1.797738820314407349e-01 1.327689588069915771e-01
5.584000000000000000e+03 6.596022033691406250e+01 2.535646247863769531e+01 -4.366573691368103027e-01 1.727996230125427246e+00 3.874016404151916504e-01 2.029355615377426147e-01
5.585000000000000000e+03 3.352889251708984375e+01 2.549909400939941406e+01 -4.755966663360595703e-01 5.617794513702392578e+00 1.542659282684326172e+00 -3.613490462303161621e-01
5.586000000000000000e+03 7.117311859130859375e+01 -3.161810111999511719e+01 -4.407294839620590210e-02 1.011182740330696106e-02 -1.018833648413419724e-02 8.157625049352645874e-02
5.587000000000000000e+03 5.797393798828125000e+01 3.012182617187500000e+01 -1.265141218900680542e-01 1.075576305389404297e+00 2.847186625003814697e-01 -2.296539098024368286e-01
5.588000000000000000e+03 2.058328247070312500e+01 3.347218322753906250e+01 1.997555419802665710e-02 1.328001022338867188e+00 4.043929874897003174e-01 -5.388025641441345215e-01
5.589000000000000000e+03 2.449797630310058594e+01 3.412769699096679688e+01 -2.930175065994262695e-01 2.211205720901489258e+00 5.754564404487609863e-01 -6.497839689254760742e-01
5.590000000000000000e+03 9.532830238342285156e+00 2.929618263244628906e+01 4.075010493397712708e-02 9.515003859996795654e-02 4.077004268765449524e-02 1.109585985541343689e-01
5.591000000000000000e+03 1.817496299743652344e+01 3.396490097045898438e+01 6.558158993721008301e-02 9.947044253349304199e-01 3.180857896804809570e-01 -3.221819996833801270e-01
5.592000000000000000e+03 4.364237594604492188e+01 2.534882164001464844e+01 -9.863407909870147705e-02 2.858154058456420898e+00 8.278560042381286621e-01 1.173907876014709473e+00
5.593000000000000000e+03 4.157525253295898438e+01 2.622835731506347656e+01 -2.920072972774505615e-01 3.554456949234008789e+00 9.787349104881286621e-01 1.081376433372497559e+00
5.594000000000000000e+03 3.868193054199218750e+01 -3.516139221191406250e+01 -1.020720243453979492e+00 5.612681865692138672e+00 1.377588510513305664e+00 6.087892651557922363e-01
5.595000000000000000e+03 1.156582355499267578e+01 -3.513723754882812500e+01 -2.059566676616668701e-01 4.674938619136810303e-01 7.846116274595260620e-02 -2.604738576337695122e-03
5.596000000000000000e+03 7.312866973876953125e+01 3.904819107055664062e+01 -1.034366711974143982e-01 3.854672014713287354e-01 8.460915833711624146e-02 8.514107763767242432e-02
5.597000000000000000e+03 6.652059173583984375e+01 4.088531112670898438e+01 -1.940574049949645996e-01 8.341533541679382324e-01 1.920287907123565674e-01 8.778001181781291962e-03
5.598000000000000000e+03 5.052621459960937500e+01 2.868323135375976562e+01 2.017635479569435120e-02 1.248060584068298340e+00 3.804710805416107178e-01 4.793880879878997803e-01
5.599000000000000000e+03 6.866473388671875000e+01 -3.440314102172851562e+01 -4.117865115404129028e-03 8.675530552864074707e-03 1.367299817502498627e-03 1.207197904586791992e-01
5.600000000000000000e+03 6.858628845214843750e+01 -3.856506347656250000e+01 1.065457612276077271e-01 -2.607239596545696259e-02 2.414201013743877411e-02 8.498083055019378662e-02
5.601000000000000000e+03 1.575339889526367188e+01 -3.300516128540039062e+01 -2.488061040639877319e-01 7.718735337257385254e-01 1.569202393293380737e-01 -2.200715392827987671e-01
5.602000000000000000e+03 1.372198772430419922e+01 -3.806272506713867188e+01 -1.334929168224334717e-01 4.928461015224456787e-01 1.078059598803520203e-01 -5.831439048051834106e-02
5.603000000000000000e+03 2.661593055725097656e+01 -4.103938674926757812e+01 3.869054093956947327e-02 1.670574665069580078e+00 5.127795934677124023e-01 7.625728845596313477e-02
5.604000000000000000e+03 1.976531791687011719e+01 -3.660753631591796875e+01 6.064538843929767609e-03 6.777614951133728027e-01 2.051478028297424316e-01 -2.347683161497116089e-01
5.605000000000000000e+03 4.495801544189453125e+01 2.883119392395019531e+01 -2.322048991918563843e-01 2.521483421325683594e+00 6.867835521697998047e-01 9.155063033103942871e-01
5.606000000000000000e+03 4.312101745605468750e+01 2.696672058105468750e+01 -2.530512511730194092e-01 3.049396276473999023e+00 8.389034867286682129e-01 1.077153921127319336e+00
5.607000000000000000e+03 1.480685997009277344e+01 3.829490280151367188e+01 3.627952560782432556e-02 7.203186750411987305e-01 2.269794642925262451e-01 -7.236656546592712402e-02
5.608000000000000000e+03 3.595592117309570312e+01 -5.341967582702636719e+00 -2.155163049697875977e+00 9.023295402526855469e+00 2.060439586639404297e+00 -6.917330622673034668e-01
5.609000000000000000e+03 3.617304229736328125e+01 -6.762307643890380859e+00 -2.522793531417846680e+00 8.914248466491699219e+00 1.917436599731445312e+00 -9.785355329513549805e-01
5.610000000000000000e+03 7.487752914428710938e+00 1.150121402740478516e+01 -4.302453249692916870e-03 -4.344460554420948029e-03 -2.594074001535773277e-03 -3.188319387845695019e-04
5.611000000000000000e+03 7.188389587402343750e+01 2.002482604980468750e+01 1.127088293433189392e-01 5.228077769279479980e-01 1.906549781560897827e-01 6.022818684577941895e-01
5.612000000000000000e+03 7.099859619140625000e+01 2.259168052673339844e+01 -5.458393692970275879e-02 8.051045536994934082e-01 2.251561731100082397e-01 6.128757596015930176e-01
5.613000000000000000e+03 7.414927959442138672e+00 1.971688270568847656e+01 -6.455419212579727173e-02 2.299682237207889557e-02 -1.246721018105745316e-02 3.920512646436691284e-02
5.614000000000000000e+03 3.734264373779296875e+01 1.613692855834960938e+01 6.239806413650512695e-01 7.982199192047119141e+00 2.581853866577148438e+00 1.428828388452529907e-01
5.615000000000000000e+03 1.144601345062255859e+01 -1.018652153015136719e+01 2.784319519996643066e-01 7.789602875709533691e-01 3.172176778316497803e-01 -3.242662847042083740e-01
5.616000000000000000e+03 1.200504207611083984e+01 -8.061781883239746094e+00 -9.985710494220256805e-03 6.049929261207580566e-01 1.785021573305130005e-01 -2.996758222579956055e-01
5.617000000000000000e+03 4.426453018188476562e+01 -1.053393745422363281e+01 -1.420230865478515625e-01 4.889129161834716797e+00 1.424131751060485840e+00 -7.311419248580932617e-01
5.618000000000000000e+03 7.953017711639404297e+00 -2.039194488525390625e+01 3.948369920253753662e-01 3.265778422355651855e-01 2.164244502782821655e-01 1.602323651313781738e-01
5.619000000000000000e+03 7.735920429229736328e+00 -2.100808525085449219e+01 3.410860002040863037e-01 2.638978362083435059e-01 1.814951598644256592e-01 2.081696838140487671e-01
5.620000000000000000e+03 6.582826995849609375e+01 -7.852084159851074219e+00 -4.071153402328491211e-01 2.502155005931854248e-01 -4.706995189189910889e-02 -2.740635573863983154e-01
5.621000000000000000e+03 6.673054504394531250e+01 -8.639584541320800781e+00 -5.537044405937194824e-01 1.971466988325119019e-01 -1.069673299789428711e-01 -3.799681663513183594e-01
5.622000000000000000e+03 7.856154441833496094e+00 -1.113975906372070312e+01 2.444538474082946777e-01 1.441064924001693726e-01 1.165681034326553345e-01 -5.266032814979553223e-01
5.623000000000000000e+03 7.024766540527343750e+01 2.103579711914062500e+01 5.447551608085632324e-02 1.008413553237915039e+00 3.188666999340057373e-01 6.142138838768005371e-01
5.624000000000000000e+03 3.327774429321289062e+01 -4.031240940093994141e+00 -6.254815459251403809e-01 5.943545341491699219e+00 1.595419168472290039e+00 2.548312842845916748e-01
5.625000000000000000e+03 6.080896377563476562e+01 -7.730822086334228516e+00 -3.686878979206085205e-01 8.839669227600097656e-01 1.545837074518203735e-01 6.464917659759521484e-01
5.626000000000000000e+03 7.259836673736572266e+00 1.856978797912597656e+01 -5.209121108055114746e-02 1.476502977311611176e-02 -1.119785383343696594e-02 2.542690373957157135e-02
5.627000000000000000e+03 7.174633789062500000e+01 2.271731567382812500e+01 -5.245827883481979370e-02 5.943585038185119629e-01 1.625700742006301880e-01 5.987372398376464844e-01
5.628000000000000000e+03 3.752927017211914062e+01 1.825336074829101562e+01 5.712462663650512695e-01 6.824841499328613281e+00 2.218826293945312500e+00 4.473315477371215820e-01
5.629000000000000000e+03 9.056037902832031250e+00 -1.749751281738281250e+01 5.779455304145812988e-01 6.750215291976928711e-01 3.758901059627532959e-01 -3.665750101208686829e-02
5.630000000000000000e+03 6.983203887939453125e+01 1.187628650665283203e+01 5.238277912139892578e-01 1.189072966575622559e+00 5.138702392578125000e-01 2.211375534534454346e-01
5.631000000000000000e+03 1.046166419982910156e+01 -8.284049034118652344e+00 2.897110069170594215e-03 4.352852106094360352e-01 1.314547061920166016e-01 -4.596258103847503662e-01
5.632000000000000000e+03 4.661545944213867188e+01 -1.112916946411132812e+01 6.488734483718872070e-01 3.445598840713500977e+00 1.228341698646545410e+00 6.961807012557983398e-01
5.633000000000000000e+03 7.089746093750000000e+01 2.394729614257812500e+01 -1.454329490661621094e-01 8.022963404655456543e-01 1.970590204000473022e-01 5.664426088333129883e-01
5.634000000000000000e+03 7.160932159423828125e+01 2.521301841735839844e+01 -1.721394360065460205e-01 6.323880553245544434e-01 1.380745768547058105e-01 5.365729331970214844e-01
5.635000000000000000e+03 6.827686309814453125e+01 2.551761436462402344e+01 -3.268897235393524170e-01 1.309322834014892578e+00 2.947299182415008545e-01 4.069670140743255615e-01
5.636000000000000000e+03 4.148405456542968750e+01 -1.360767841339111328e+01 8.252326846122741699e-01 7.635589599609375000e+00 2.538246631622314453e+00 -1.246235489845275879e+00
5.637000000000000000e+03 7.816421985626220703e+00 -1.047254657745361328e+01 1.890239417552947998e-01 1.187971681356430054e-01 9.234633296728134155e-02 -5.533509850502014160e-01
5.638000000000000000e+03 7.176338195800781250e+01 1.831542396545410156e+01 2.111208438873291016e-01 5.398336648941040039e-01 2.252863496541976929e-01 5.532962083816528320e-01
5.639000000000000000e+03 7.252529144287109375e+01 1.907059860229492188e+01 1.459317654371261597e-01 3.227692246437072754e-01 1.406103074550628662e-01 5.602598190307617188e-01
5.640000000000000000e+03 7.251757812500000000e+01 1.829770278930664062e+01 1.808809340000152588e-01 3.019297719001770020e-01 1.448432207107543945e-01 5.349230170249938965e-01
5.641000000000000000e+03 6.867392730712890625e+01 1.788713836669921875e+01 3.695108890533447266e-01 1.561688542366027832e+00 5.793598294258117676e-01 5.010287165641784668e-01
5.642000000000000000e+03 6.976795196533203125e+01 -8.428200721740722656e+00 -4.211970865726470947e-01 2.106027007102966309e-01 -6.317831575870513916e-02 -5.054504275321960449e-01
5.643000000000000000e+03 4.400562667846679688e+01 -1.020235157012939453e+01 -3.753370940685272217e-01 5.002259254455566406e+00 1.388076663017272949e+00 -9.461725354194641113e-01
5.644000000000000000e+03 4.382054519653320312e+01 -1.065142345428466797e+01 -1.990299075841903687e-01 5.377546310424804688e+00 1.553555011749267578e+00 -9.456930160522460938e-01
5.645000000000000000e+03 7.120741271972656250e+01 2.684855079650878906e+01 -2.261364310979843140e-01 7.054421901702880859e-01 1.437917351722717285e-01 4.699670672416687012e-01
5.646000000000000000e+03 7.075643920898437500e+01 2.599382781982421875e+01 -2.240454554557800293e-01 8.036933541297912598e-01 1.738943755626678467e-01 5.022580027580261230e-01
5.647000000000000000e+03 1.068597507476806641e+01 2.420334815979003906e+01 -9.279599040746688843e-02 9.439094364643096924e-02 4.784852208103984594e-04 1.081620454788208008e-01
5.648000000000000000e+03 7.906319141387939453e+00 2.302213287353515625e+01 -7.048342376947402954e-02 3.897158056497573853e-02 -9.453553706407546997e-03 9.398297220468521118e-02
5.649000000000000000e+03 1.216239738464355469e+01 -9.060996055603027344e+00 1.255927979946136475e-01 7.564512491226196289e-01 2.646132111549377441e-01 -2.711962163448333740e-01
5.650000000000000000e+03 1.174158477783203125e+01 2.630503273010253906e+01 -2.294623106718063354e-02 1.251991391181945801e-01 3.067587316036224365e-02 1.078973114490509033e-01
5.651000000000000000e+03 7.177571105957031250e+01 -2.430746555328369141e+00 5.259380862116813660e-02 9.385160356760025024e-02 4.393362253904342651e-02 -5.908718109130859375e-01
5.652000000000000000e+03 7.235221099853515625e+01 9.775130271911621094e+00 3.565593361854553223e-01 1.662106812000274658e-01 1.568310111761093140e-01 2.182614058256149292e-02
5.653000000000000000e+03 7.375400066375732422e+00 -1.247165298461914062e+01 3.132723569869995117e-01 6.223331391811370850e-02 1.126516982913017273e-01 -4.608817100524902344e-01
5.654000000000000000e+03 6.851455688476562500e+01 8.732878684997558594e+00 6.123417615890502930e-01 1.581665277481079102e+00 6.582021117210388184e-01 1.168337315320968628e-01
5.655000000000000000e+03 4.239495849609375000e+01 -1.385939788818359375e+01 1.045692801475524902e+00 7.427834033966064453e+00 2.542057991027832031e+00 -9.519219994544982910e-01
5.656000000000000000e+03 7.245208740234375000e+01 1.196122932434082031e+01 3.537475466728210449e-01 1.980737447738647461e-01 1.655463874340057373e-01 1.770932525396347046e-01
5.657000000000000000e+03 7.277883148193359375e+01 -4.299650669097900391e+00 -4.875900223851203918e-02 -5.056855827569961548e-02 -2.979826740920543671e-02 -6.006014943122863770e-01
5.658000000000000000e+03 7.209821319580078125e+01 3.978304862976074219e+00 3.001708388328552246e-01 1.291580051183700562e-01 1.287986487150192261e-01 -3.550640940666198730e-01
5.659000000000000000e+03 7.242588043212890625e+01 8.232876658439636230e-01 1.757033020257949829e-01 1.664678915403783321e-03 5.321039631962776184e-02 -5.127924084663391113e-01
5.660000000000000000e+03 7.227420043945312500e+01 1.694017887115478516e+00 2.112780809402465820e-01 4.852934926748275757e-02 7.794222980737686157e-02 -4.738430082798004150e-01
5.661000000000000000e+03 3.500834274291992188e+01 -5.747532844543457031e+00 -2.042340040206909180e+00 7.900264263153076172e+00 1.757377266883850098e+00 -6.535162925720214844e-01
5.662000000000000000e+03 3.486682891845703125e+01 -5.081393718719482422e+00 -1.737475514411926270e+00 7.930644512176513672e+00 1.857950687408447266e+00 -3.900916874408721924e-01
5.663000000000000000e+03 7.265445709228515625e+01 5.646808147430419922e+00 3.054035305976867676e-01 -4.955247975885868073e-03 9.013447910547256470e-02 -2.653726935386657715e-01
5.664000000000000000e+03 7.140419769287109375e+01 2.924271106719970703e+00 2.982395887374877930e-01 3.011003136634826660e-01 1.798019707202911377e-01 -3.984129726886749268e-01
5.665000000000000000e+03 7.241787719726562500e+01 -6.419001579284667969e+00 -1.733113080263137817e-01 1.472961157560348511e-02 -4.757450520992279053e-02 -5.717991590499877930e-01
5.666000000000000000e+03 7.262886810302734375e+01 -5.819838523864746094e+00 -1.352887898683547974e-01 -1.288224011659622192e-02 -4.445131123065948486e-02 -5.830278396606445312e-01
5.667000000000000000e+03 7.222245788574218750e+01 -1.621064186096191406e+00 8.194642513990402222e-02 3.073038347065448761e-02 3.380304202437400818e-02 -5.820131301879882812e-01
5.668000000000000000e+03 7.141860961914062500e+01 -3.782663106918334961e+00 -2.572432346642017365e-02 1.419980674982070923e-01 3.488212451338768005e-02 -6.044593453407287598e-01
5.669000000000000000e+03 7.262895202636718750e+01 8.328371047973632812e+00 3.333434760570526123e-01 6.407502293586730957e-02 1.192255541682243347e-01 -8.644708991050720215e-02
5.670000000000000000e+03 7.269619750976562500e+01 6.254813671112060547e+00 3.107285201549530029e-01 -4.915836267173290253e-03 9.174380451440811157e-02 -2.214779406785964966e-01
5.671000000000000000e+03 7.116889953613281250e+01 3.771903038024902344e+00 3.461521565914154053e-01 4.010785520076751709e-01 2.241692095994949341e-01 -3.415074348449707031e-01
5.672000000000000000e+03 6.950070190429687500e+01 1.258528614044189453e+01 5.248371362686157227e-01 1.337285161018371582e+00 5.586366653442382812e-01 2.667105793952941895e-01
5.673000000000000000e+03 7.030932617187500000e+01 9.804806709289550781e+00 5.100879669189453125e-01 9.220550060272216797e-01 4.296428859233856201e-01 8.921811729669570923e-02
5.674000000000000000e+03 7.149102020263671875e+01 4.272047042846679688e+00 3.441958725452423096e-01 3.236716389656066895e-01 2.003602534532546997e-01 -3.284117877483367920e-01
5.675000000000000000e+03 9.616731643676757812e+00 1.036443901062011719e+01 -1.338860834948718548e-03 -3.950050566345453262e-03 -1.586673432029783726e-03 7.001267513260245323e-04
5.676000000000000000e+03 7.251720428466796875e+01 7.997620850801467896e-02 1.461821049451828003e-01 -2.478348277509212494e-02 3.641958534717559814e-02 -5.369778275489807129e-01
5.677000000000000000e+03 7.905432224273681641e+00 1.120313262939453125e+01 -3.211746225133538246e-03 -3.906606230884790421e-03 -2.135505899786949158e-03 -1.642071438254788518e-04
5.678000000000000000e+03 6.899569988250732422e+00 1.036752700805664062e+01 -1.406647148542106152e-03 -3.496895311400294304e-03 -1.471062772907316685e-03 -6.837910623289644718e-04
5.679000000000000000e+03 8.389833450317382812e+00 1.003011512756347656e+01 -1.232394133694469929e-03 -3.706289688125252724e-03 -1.481605111621320248e-03 1.918421621667221189e-04
5.680000000000000000e+03 9.250593185424804688e+00 1.319169998168945312e+01 -9.635319933295249939e-03 -4.034795798361301422e-03 -4.101034719496965408e-03 -1.416013459675014019e-03
5.681000000000000000e+03 7.393797397613525391e+00 1.246029758453369141e+01 -6.645127199590206146e-03 -4.214714746922254562e-03 -3.257952630519866943e-03 -1.536454656161367893e-04
5.682000000000000000e+03 7.507588863372802734e+00 1.497612667083740234e+01 -2.005436271429061890e-02 -9.186441275232937187e-06 -6.019064690917730331e-03 2.087145578116178513e-03
5.683000000000000000e+03 7.159934997558593750e+00 9.536519050598144531e+00 -9.173597209155559540e-04 -3.031311556696891785e-03 -1.184601453132927418e-03 -3.604028315749019384e-04
5.684000000000000000e+03 7.743944168090820312e+00 9.759134292602539062e+00 -7.682874565944075584e-04 -3.822496393695473671e-03 -1.377235166728496552e-03 -2.708448155317455530e-04
5.685000000000000000e+03 7.942223072052001953e+00 -1.744258117675781250e+01 4.818624854087829590e-01 2.981661260128021240e-01 2.340085804462432861e-01 -6.339497119188308716e-02
5.686000000000000000e+03 8.676028251647949219e+00 -1.649454879760742188e+01 5.518270134925842285e-01 5.301105380058288574e-01 3.245812654495239258e-01 -1.128367781639099121e-01
5.687000000000000000e+03 7.978946685791015625e+00 -1.334596729278564453e+01 3.902864754199981689e-01 2.173626273870468140e-01 1.822947263717651367e-01 -3.911769688129425049e-01
5.688000000000000000e+03 6.930396270751953125e+01 2.035151481628417969e+01 1.230439096689224243e-01 1.301117658615112305e+00 4.272484779357910156e-01 6.018179059028625488e-01
5.689000000000000000e+03 7.044655609130859375e+01 1.675039100646972656e+01 3.528257608413696289e-01 9.611467719078063965e-01 3.941917717456817627e-01 4.847709238529205322e-01
5.690000000000000000e+03 8.386756896972656250e+00 1.846777725219726562e+01 -6.395301967859268188e-02 2.187634259462356567e-02 -1.262300368398427963e-02 1.687501743435859680e-02
5.691000000000000000e+03 7.857841491699218750e+00 1.691777992248535156e+01 -4.048916324973106384e-02 1.015195995569229126e-02 -9.101160801947116852e-03 7.347970735281705856e-03
5.692000000000000000e+03 7.845363616943359375e+00 -1.798531150817871094e+01 4.742017388343811035e-01 2.943737506866455078e-01 2.305726408958435059e-01 -1.910955831408500671e-02
5.693000000000000000e+03 8.253134727478027344e+00 -1.920531845092773438e+01 4.635580182075500488e-01 4.229099750518798828e-01 2.659403979778289795e-01 8.111636340618133545e-02
5.694000000000000000e+03 8.584664344787597656e+00 -1.179222679138183594e+01 3.359508812427520752e-01 3.190426826477050781e-01 1.964980661869049072e-01 -4.716975390911102295e-01
5.695000000000000000e+03 8.916248321533203125e+00 -1.934140014648437500e+01 5.098040699958801270e-01 6.485421657562255859e-01 3.475038707256317139e-01 9.330663830041885376e-02
5.696000000000000000e+03 1.070057487487792969e+01 -1.252658462524414062e+01 5.276842117309570312e-01 8.812508583068847656e-01 4.226805269718170166e-01 -2.833753824234008789e-01
5.697000000000000000e+03 7.465180397033691406e+00 -1.427041244506835938e+01 4.118306040763854980e-01 1.230032220482826233e-01 1.604501456022262573e-01 -3.313905894756317139e-01
5.698000000000000000e+03 1.000648021697998047e+01 -1.321702194213867188e+01 5.398138761520385742e-01 7.586470246315002441e-01 3.895382583141326904e-01 -3.025020956993103027e-01
5.699000000000000000e+03 6.622888183593750000e+01 1.758634924888610840e+00 4.936089217662811279e-01 1.572371244430541992e+00 6.197940111160278320e-01 -2.834951132535934448e-02
5.700000000000000000e+03 8.771665573120117188e+00 2.521246719360351562e+01 -4.567636176943778992e-02 5.914018675684928894e-02 4.039147868752479553e-03 1.202107146382331848e-01
5.701000000000000000e+03 8.520280838012695312e+00 -2.475665473937988281e+01 8.532558381557464600e-02 4.642806351184844971e-01 1.648818701505661011e-01 3.308249115943908691e-01
5.702000000000000000e+03 1.293134880065917969e+01 -9.380887031555175781e+00 2.028867751359939575e-01 9.058768153190612793e-01 3.326290845870971680e-01 -1.650988757610321045e-01
5.703000000000000000e+03 1.374528121948242188e+01 -9.247409820556640625e+00 2.091858386993408203e-01 9.640384912490844727e-01 3.519673049449920654e-01 -2.656580507755279541e-02
5.704000000000000000e+03 3.582232666015625000e+01 -6.148590564727783203e+00 -2.379270553588867188e+00 8.743643760681152344e+00 1.909312009811401367e+00 -8.176352381706237793e-01
5.705000000000000000e+03 4.089057922363281250e+01 -9.228080749511718750e+00 -1.527614116668701172e+00 7.452267646789550781e+00 1.777396082878112793e+00 -1.815301537513732910e+00
5.706000000000000000e+03 8.161531448364257812e+00 -2.604065895080566406e+01 -4.194085020571947098e-03 3.494656980037689209e-01 1.035814806818962097e-01 3.333442211151123047e-01
5.707000000000000000e+03 9.688875198364257812e+00 -2.455248260498046875e+01 9.902042150497436523e-02 7.847313284873962402e-01 2.651255130767822266e-01 2.904945015907287598e-01
5.708000000000000000e+03 6.241021347045898438e+01 -2.109302997589111328e+00 3.761388361454010010e-01 1.626164674758911133e+00 6.006910800933837891e-01 4.777365922927856445e-01
5.709000000000000000e+03 8.259480476379394531e+00 1.439111423492431641e+01 -1.688973605632781982e-02 -1.718871761113405228e-03 -5.582582205533981323e-03 -7.699774578213691711e-04
5.710000000000000000e+03 3.991992568969726562e+01 -9.569677352905273438e+00 -1.508180975914001465e+00 8.126235008239746094e+00 1.985416173934936523e+00 -1.680486559867858887e+00
5.711000000000000000e+03 4.116044998168945312e+01 -8.672423362731933594e+00 -1.744215965270996094e+00 7.262390613555908203e+00 1.655452370643615723e+00 -1.922332167625427246e+00
5.712000000000000000e+03 3.967759323120117188e+01 -1.023524284362792969e+01 -1.151269793510437012e+00 8.172305107116699219e+00 2.106310844421386719e+00 -1.590052723884582520e+00
5.713000000000000000e+03 8.624647140502929688e+00 1.591459465026855469e+01 -3.149038925766944885e-02 4.574134480208158493e-03 -8.074875921010971069e-03 1.019124101730994880e-04
5.714000000000000000e+03 9.638827323913574219e+00 -2.258387374877929688e+01 3.184252679347991943e-01 8.284834623336791992e-01 3.440726101398468018e-01 2.623808979988098145e-01
5.715000000000000000e+03 6.509619140625000000e+01 2.576443850994110107e-01 4.368317127227783203e-01 1.610813736915588379e+00 6.142936348915100098e-01 9.058331698179244995e-02
5.716000000000000000e+03 6.319850921630859375e+01 -7.554987907409667969e+00 -3.345180451869964600e-01 5.110982656478881836e-01 5.297406017780303955e-02 2.122646123170852661e-01
5.717000000000000000e+03 6.659641265869140625e+01 -7.892058849334716797e+00 -4.203488528728485107e-01 2.598386704921722412e-01 -4.815305396914482117e-02 -3.691426813602447510e-01
5.718000000000000000e+03 6.527030181884765625e+01 -7.433850765228271484e+00 -3.297516405582427979e-01 3.400231301784515381e-01 3.081450005993247032e-03 -1.770286858081817627e-01
5.719000000000000000e+03 3.843171691894531250e+01 -9.068538665771484375e+00 -1.928377866744995117e+00 8.833327293395996094e+00 2.071485042572021484e+00 -1.473451495170593262e+00
5.720000000000000000e+03 8.422143936157226562e+00 -2.128891372680664062e+01 3.735419809818267822e-01 4.759506881237030029e-01 2.548477947711944580e-01 2.239705473184585571e-01
5.721000000000000000e+03 3.873426437377929688e+01 -8.374507904052734375e+00 -2.295201063156127930e+00 8.917106628417968750e+00 1.986571550369262695e+00 -1.588423848152160645e+00
5.722000000000000000e+03 6.780670166015625000e+01 3.037463665008544922e+00 4.947560727596282959e-01 1.315063476562500000e+00 5.429458618164062500e-01 -1.433984488248825073e-01
5.723000000000000000e+03 6.159321594238281250e+01 -4.962950229644775391e+00 4.227215424180030823e-02 1.233592867851257324e+00 3.827595114707946777e-01 5.036107897758483887e-01
5.724000000000000000e+03 1.267116069793701172e+01 -8.851788520812988281e+00 1.180181205272674561e-01 7.846215367317199707e-01 2.707918882369995117e-01 -2.135149389505386353e-01
5.725000000000000000e+03 3.815593338012695312e+01 -6.486021041870117188e+00 -2.726985454559326172e+00 9.579228401184082031e+00 2.055672883987426758e+00 -1.472941756248474121e+00
5.726000000000000000e+03 7.132343292236328125e+01 1.132745075225830078e+01 4.409628510475158691e-01 5.989336371421813965e-01 3.119689524173736572e-01 1.538016200065612793e-01
5.727000000000000000e+03 3.948517227172851562e+01 -8.584195137023925781e+00 -2.094580888748168945e+00 8.509141921997070312e+00 1.924368262290954590e+00 -1.728153944015502930e+00
5.728000000000000000e+03 7.281538391113281250e+01 2.107026863098144531e+01 4.011937230825424194e-02 2.843534350395202637e-01 9.734184294939041138e-02 5.928027033805847168e-01
5.729000000000000000e+03 3.795332717895507812e+01 2.019874191284179688e+01 3.524769246578216553e-01 5.990458011627197266e+00 1.902880549430847168e+00 7.279998064041137695e-01
5.730000000000000000e+03 7.200276184082031250e+01 -5.737543106079101562e+00 -1.448785662651062012e-01 5.080642551183700562e-02 -2.822164446115493774e-02 -5.930259227752685547e-01
5.731000000000000000e+03 7.047802734375000000e+01 -7.750238895416259766e+00 -3.305061459541320801e-01 1.798026710748672485e-01 -4.521104693412780762e-02 -5.353102087974548340e-01
5.732000000000000000e+03 9.736664772033691406e+00 -1.627811431884765625e+01 6.283757686614990234e-01 8.868393301963806152e-01 4.545645117759704590e-01 -8.553132414817810059e-02
5.733000000000000000e+03 9.787884712219238281e+00 -1.461814308166503906e+01 6.007510423660278320e-01 7.807302474975585938e-01 4.144443869590759277e-01 -2.133672535419464111e-01
5.734000000000000000e+03 6.716210937500000000e+01 3.325458526611328125e+00 5.352639555931091309e-01 1.498322248458862305e+00 6.100758314132690430e-01 -7.456757128238677979e-02
5.735000000000000000e+03 8.783496856689453125e+00 -1.493506622314453125e+01 5.339323878288269043e-01 5.012239217758178711e-01 3.105469048023223877e-01 -2.453088909387588501e-01
5.736000000000000000e+03 8.491951942443847656e+00 8.948177337646484375e+00 1.763528125593438745e-04 -3.132938407361507416e-03 -8.869757293723523617e-04 1.385746581945568323e-04
5.737000000000000000e+03 8.825390815734863281e+00 9.611510276794433594e+00 -1.027060789056122303e-03 -3.679071320220828056e-03 -1.411839621141552925e-03 4.707538464572280645e-04
5.738000000000000000e+03 7.512977600097656250e+00 1.422377872467041016e+01 -1.579753682017326355e-02 -1.585705671459436417e-03 -5.214972887188196182e-03 1.622707815840840340e-03
5.739000000000000000e+03 3.766177749633789062e+01 1.916170310974121094e+01 4.943289160728454590e-01 6.493979454040527344e+00 2.096492528915405273e+00 5.609177947044372559e-01
5.740000000000000000e+03 9.369456291198730469e+00 -2.082095146179199219e+01 4.658955335617065430e-01 7.926678061485290527e-01 3.775690197944641113e-01 1.796306818723678589e-01
5.741000000000000000e+03 8.464583396911621094e+00 -2.685244369506835938e+01 -5.766515061259269714e-02 4.018991887569427490e-01 1.032702103257179260e-01 3.216220736503601074e-01
5.742000000000000000e+03 9.396101951599121094e+00 -2.852601623535156250e+01 -1.546658277511596680e-01 5.417893528938293457e-01 1.161370500922203064e-01 2.440766096115112305e-01
5.743000000000000000e+03 9.107339859008789062e+00 1.389732265472412109e+01 -1.316432096064090729e-02 -3.527936525642871857e-03 -5.007677245885133743e-03 -2.272790297865867615e-03
5.744000000000000000e+03 7.192881011962890625e+01 1.469091987609863281e+01 3.358403146266937256e-01 4.132125675678253174e-01 2.247158735990524292e-01 3.705328702926635742e-01
5.745000000000000000e+03 6.867401885986328125e+01 1.409682846069335938e+01 5.312178730964660645e-01 1.690221309661865234e+00 6.664317846298217773e-01 3.308264017105102539e-01
5.746000000000000000e+03 6.455882263183593750e+01 -4.881652891635894775e-01 4.026784300804138184e-01 1.584689974784851074e+00 5.962105393409729004e-01 1.513699889183044434e-01
5.747000000000000000e+03 6.955559539794921875e+01 1.546843242645263672e+01 4.550613164901733398e-01 1.304920315742492676e+00 5.279944539070129395e-01 4.016878902912139893e-01
5.748000000000000000e+03 7.165148162841796875e+01 2.042686700820922852e+00 2.515385150909423828e-01 2.078430354595184326e-01 1.378144621849060059e-01 -4.483257532119750977e-01
5.749000000000000000e+03 7.185608673095703125e+01 1.153726220130920410e+00 2.087944000959396362e-01 1.394227296113967896e-01 1.044651344418525696e-01 -4.909008443355560303e-01
5.750000000000000000e+03 8.545398712158203125e+00 -2.299816131591796875e+01 2.430487424135208130e-01 4.961296319961547852e-01 2.217535078525543213e-01 3.025611340999603271e-01
5.751000000000000000e+03 3.948918151855468750e+01 -1.090645408630371094e+01 -7.400606870651245117e-01 8.194632530212402344e+00 2.236371517181396484e+00 -1.530134201049804688e+00
5.752000000000000000e+03 8.067395210266113281e+00 -1.608701324462890625e+01 4.984593391418457031e-01 3.177560269832611084e-01 2.448645979166030884e-01 -1.689243912696838379e-01
5.753000000000000000e+03 8.112915039062500000e+00 -1.460923671722412109e+01 4.782332777976989746e-01 2.879850864410400391e-01 2.298655062913894653e-01 -2.937725484371185303e-01
5.754000000000000000e+03 9.208998680114746094e+00 1.995902824401855469e+01 -9.477643668651580811e-02 4.454050585627555847e-02 -1.507078018039464951e-02 2.616511099040508270e-02
5.755000000000000000e+03 8.310113906860351562e+00 2.360919761657714844e+01 -6.850900501012802124e-02 4.840053990483283997e-02 -6.032540462911128998e-03 1.016862690448760986e-01
5.756000000000000000e+03 1.080394649505615234e+01 -2.572577095031738281e+01 -1.752435602247714996e-02 9.830783009529113770e-01 2.896662056446075439e-01 2.079290300607681274e-01
5.757000000000000000e+03 4.117652130126953125e+01 -1.243473815917968750e+01 2.879998385906219482e-01 7.492784976959228516e+00 2.334235429763793945e+00 -1.356948494911193848e+00
5.758000000000000000e+03 4.209848785400390625e+01 -1.342253017425537109e+01 8.112237453460693359e-01 7.327127456665039062e+00 2.441505193710327148e+00 -1.082852840423583984e+00
5.759000000000000000e+03 4.049110412597656250e+01 -1.973637199401855469e+01 2.135151863098144531e+00 9.063136100769042969e+00 3.359486579895019531e+00 -6.118536591529846191e-01
5.760000000000000000e+03 7.166625499725341797e+00 -9.724511146545410156e+00 1.111143305897712708e-01 -3.078140085563063622e-03 3.241085633635520935e-02 -5.818294882774353027e-01
5.761000000000000000e+03 7.015131378173828125e+01 -3.159523773193359375e+01 -5.758621171116828918e-02 2.035227417945861816e-02 -1.117018144577741623e-02 8.545247465372085571e-02
5.762000000000000000e+03 4.492690658569335938e+01 -1.089433956146240234e+01 1.235000565648078918e-01 4.579778194427490234e+00 1.410983443260192871e+00 -3.499379158020019531e-01
5.763000000000000000e+03 4.475109100341796875e+01 -1.032893371582031250e+01 -1.625979244709014893e-01 4.436476707458496094e+00 1.282163619995117188e+00 -5.399368405342102051e-01
5.764000000000000000e+03 6.027914047241210938e+01 -6.645813465118408203e+00 -2.142697721719741821e-01 1.184524536132812500e+00 2.910764217376708984e-01 7.319679260253906250e-01
5.765000000000000000e+03 5.998635864257812500e+01 -7.446614265441894531e+00 -3.327863514423370361e-01 1.086206912994384766e+00 2.260261774063110352e-01 7.876893877983093262e-01
5.766000000000000000e+03 7.152452850341796875e+01 8.204007148742675781e+00 4.200213849544525146e-01 4.239067137241363525e-01 2.531784176826477051e-01 -6.305518746376037598e-02
5.767000000000000000e+03 7.199954223632812500e+01 8.573836326599121094e+00 3.966414332389831543e-01 2.573617398738861084e-01 1.962009519338607788e-01 -4.723313823342323303e-02
5.768000000000000000e+03 3.472772216796875000e+01 -3.518345117568969727e+00 -8.680347800254821777e-01 8.183594703674316406e+00 2.194668054580688477e+00 9.727027267217636108e-02
5.769000000000000000e+03 7.212145996093750000e+01 1.408177089691162109e+01 3.280650675296783447e-01 3.379708230495452881e-01 1.998107731342315674e-01 3.261546492576599121e-01
5.770000000000000000e+03 7.256770324707031250e+01 1.537936782836914062e+01 2.854046225547790527e-01 2.160127013921737671e-01 1.504251956939697266e-01 3.886911571025848389e-01
5.771000000000000000e+03 7.112602233886718750e+01 -7.716639518737792969e+00 -3.095717430114746094e-01 1.407971531152725220e-01 -5.063237994909286499e-02 -5.363871455192565918e-01
5.772000000000000000e+03 6.896032714843750000e+01 1.041603279113769531e+01 5.887620449066162109e-01 1.497396230697631836e+00 6.258475184440612793e-01 1.758914589881896973e-01
5.773000000000000000e+03 6.871884918212890625e+01 9.587527275085449219e+00 6.031567454338073730e-01 1.552354931831359863e+00 6.466535329818725586e-01 1.469400674104690552e-01
5.774000000000000000e+03 1.247330093383789062e+01 2.662618446350097656e+01 -9.151729755103588104e-03 1.320159137248992920e-01 3.685925528407096863e-02 9.626949578523635864e-02
5.775000000000000000e+03 1.045589733123779297e+01 -1.110626792907714844e+01 3.574980795383453369e-01 6.862884163856506348e-01 3.131359517574310303e-01 -3.842300474643707275e-01
5.776000000000000000e+03 6.190933227539062500e+01 -2.719926118850708008e+00 3.445087671279907227e-01 1.580393671989440918e+00 5.774707198143005371e-01 5.347957015037536621e-01
5.777000000000000000e+03 6.456292724609375000e+01 -1.680258274078369141e+00 3.036320209503173828e-01 1.366163969039916992e+00 5.009387731552124023e-01 9.455297887325286865e-02
5.778000000000000000e+03 6.727917480468750000e+01 -4.867202758789062500e+00 -6.087173148989677429e-02 5.445578694343566895e-01 1.451058387756347656e-01 -3.825303912162780762e-01
5.779000000000000000e+03 6.866670989990234375e+01 -8.183677673339843750e+00 -4.439540803432464600e-01 2.540160417556762695e-01 -5.698141083121299744e-02 -4.937941431999206543e-01
5.780000000000000000e+03 4.025317764282226562e+01 2.313224220275878906e+01 -3.968926146626472473e-02 4.344789505004882812e+00 1.291530132293701172e+00 1.157423853874206543e+00
5.781000000000000000e+03 3.945050430297851562e+01 2.059904479980468750e+01 2.537178695201873779e-01 5.070653438568115234e+00 1.597311377525329590e+00 1.099108695983886719e+00
5.782000000000000000e+03 6.294979095458984375e+01 -4.637765407562255859e+00 5.974547937512397766e-02 1.078246951103210449e+00 3.413977324962615967e-01 2.740871608257293701e-01
5.783000000000000000e+03 8.966290473937988281e+00 1.459435462951660156e+01 -1.903967931866645813e-02 -1.359429443255066872e-03 -6.119732744991779327e-03 -2.284500049427151680e-03
5.784000000000000000e+03 9.930105209350585938e+00 2.377886772155761719e+01 -9.296997636556625366e-02 8.013997972011566162e-02 -3.848999505862593651e-03 1.043457314372062683e-01
5.785000000000000000e+03 6.831495666503906250e+01 7.818799972534179688e+00 6.309699416160583496e-01 1.602669835090637207e+00 6.700919270515441895e-01 8.497398346662521362e-02
5.786000000000000000e+03 7.181764984130859375e+01 1.535167598724365234e+01 3.386973738670349121e-01 4.837918281555175781e-01 2.467467635869979858e-01 4.032800793647766113e-01
5.787000000000000000e+03 6.401612854003906250e+01 -1.211376547813415527e+00 3.782103061676025391e-01 1.548293828964233398e+00 5.779512524604797363e-01 2.183462828397750854e-01
5.788000000000000000e+03 6.149695587158203125e+01 -4.212403297424316406e+00 1.458220779895782471e-01 1.381104707717895508e+00 4.580780267715454102e-01 5.455816984176635742e-01
5.789000000000000000e+03 6.621922302246093750e+01 5.097881555557250977e-01 4.049162268638610840e-01 1.398593783378601074e+00 5.410529971122741699e-01 -7.951402664184570312e-02
5.790000000000000000e+03 8.529103279113769531e+00 2.874943351745605469e+01 2.422033250331878662e-02 5.016491934657096863e-02 2.231557480990886688e-02 1.194079145789146423e-01
5.791000000000000000e+03 9.029047012329101562e+00 2.768258476257324219e+01 6.462015211582183838e-03 6.806628406047821045e-02 2.235848829150199890e-02 1.251313090324401855e-01
5.792000000000000000e+03 9.312688827514648438e+00 -2.335961341857910156e+01 2.246022969484329224e-01 7.073295712471008301e-01 2.795795500278472900e-01 2.939214408397674561e-01
5.793000000000000000e+03 4.344932174682617188e+01 -1.333743000030517578e+01 9.304295778274536133e-01 6.794940948486328125e+00 2.317611217498779297e+00 -5.762483477592468262e-01
5.794000000000000000e+03 4.393220520019531250e+01 -1.233466529846191406e+01 5.650590658187866211e-01 6.008464813232421875e+00 1.972057223320007324e+00 -5.421646833419799805e-01
5.795000000000000000e+03 5.092189788818359375e+01 -1.002042484283447266e+01 3.685553073883056641e-01 9.734606742858886719e-01 4.026047885417938232e-01 2.218851089477539062e+00
5.796000000000000000e+03 3.571582412719726562e+01 -4.571905612945556641e+00 -1.759128928184509277e+00 8.966792106628417969e+00 2.162298917770385742e+00 -4.511004686355590820e-01
5.797000000000000000e+03 9.498475074768066406e+00 -1.527023601531982422e+01 6.020064353942871094e-01 7.305370569229125977e-01 3.997630476951599121e-01 -1.763965934514999390e-01
5.798000000000000000e+03 9.209791183471679688e+00 -1.374515151977539062e+01 5.143278241157531738e-01 5.571084022521972656e-01 3.214308619499206543e-01 -3.122169077396392822e-01
5.799000000000000000e+03 4.559493637084960938e+01 -1.158128547668457031e+01 6.063018441200256348e-01 4.408714771270751953e+00 1.504505038261413574e+00 2.093861550092697144e-01
5.800000000000000000e+03 7.094646453857421875e+01 4.540709495544433594e+00 3.775710165500640869e-01 4.888182580471038818e-01 2.599167823791503906e-01 -2.963246107101440430e-01
5.801000000000000000e+03 3.753993225097656250e+01 -7.648534774780273438e+00 -2.560418605804443359e+00 9.254757881164550781e+00 2.008301734924316406e+00 -1.313190221786499023e+00
5.802000000000000000e+03 6.943157196044921875e+01 1.408857631683349609e+01 4.963243305683135986e-01 1.366303205490112305e+00 5.587882399559020996e-01 3.371030688285827637e-01
5.803000000000000000e+03 3.402223968505859375e+01 2.768940734863281250e+01 -7.549840211868286133e-01 5.003570556640625000e+00 1.274576067924499512e+00 -1.762977540493011475e-01
5.804000000000000000e+03 6.681054687500000000e+01 2.258354568481445312e+01 -1.780655980110168457e-01 1.892018318176269531e+00 5.141858458518981934e-01 4.261490702629089355e-01
5.805000000000000000e+03 6.935555267333984375e+01 2.434428215026855469e+01 -2.214026898145675659e-01 1.169418573379516602e+00 2.844047546386718750e-01 5.253038406372070312e-01
5.806000000000000000e+03 6.766095733642578125e+01 2.681559562683105469e+01 -3.870411217212677002e-01 1.332031965255737305e+00 2.834972739219665527e-01 2.996554970741271973e-01
5.807000000000000000e+03 3.675678253173828125e+01 2.133996772766113281e+01 2.665342092514038086e-01 6.175097465515136719e+00 1.932489514350891113e+00 4.554015696048736572e-01
5.808000000000000000e+03 3.605461883544921875e+01 2.195909881591796875e+01 1.790272295475006104e-01 6.287510871887207031e+00 1.939961314201354980e+00 2.875650525093078613e-01
5.809000000000000000e+03 7.176591491699218750e+01 1.914206886291503906e+01 1.625819504261016846e-01 5.465093851089477539e-01 2.127274125814437866e-01 5.790171027183532715e-01
5.810000000000000000e+03 7.107730102539062500e+01 2.179710578918457031e+01 -3.719549393281340599e-03 7.766224145889282227e-01 2.318708598613739014e-01 6.146479845046997070e-01
5.811000000000000000e+03 7.029222106933593750e+01 1.801166725158691406e+01 2.831778228282928467e-01 1.013267040252685547e+00 3.889334499835968018e-01 5.460373163223266602e-01
5.812000000000000000e+03 7.091152954101562500e+01 1.916711425781250000e+01 1.882394850254058838e-01 8.133148550987243652e-01 3.004662990570068359e-01 5.862420201301574707e-01
5.813000000000000000e+03 1.255924510955810547e+01 -3.210092163085937500e+01 -2.591181099414825439e-01 7.002671360969543457e-01 1.323447078466415405e-01 -3.084376081824302673e-02
5.814000000000000000e+03 1.383730411529541016e+01 -3.530596542358398438e+01 -1.919914335012435913e-01 6.043004393577575684e-01 1.236926987767219543e-01 -1.016320586204528809e-01
5.815000000000000000e+03 7.157669067382812500e+01 2.945964241027832031e+01 -2.275131344795227051e-01 6.008697152137756348e-01 1.120069846510887146e-01 3.518422544002532959e-01
5.816000000000000000e+03 7.050614929199218750e+01 2.932009696960449219e+01 -2.769534885883331299e-01 7.728554606437683105e-01 1.487705856561660767e-01 3.472755849361419678e-01
5.817000000000000000e+03 9.754986763000488281e+00 -3.320677566528320312e+01 -1.982127726078033447e-01 3.521344959735870361e-01 4.617651924490928650e-02 1.005271449685096741e-01
5.818000000000000000e+03 8.447893142700195312e+00 -3.169520187377929688e+01 -1.728117167949676514e-01 2.398853152990341187e-01 2.012207917869091034e-02 1.871156245470046997e-01
5.819000000000000000e+03 1.459860515594482422e+01 3.001769065856933594e+01 1.374065726995468140e-01 3.480233252048492432e-01 1.456289589405059814e-01 -5.989861860871315002e-02
5.820000000000000000e+03 1.212483692169189453e+01 2.902613067626953125e+01 6.919857859611511230e-02 1.915074735879898071e-01 7.821181416511535645e-02 6.487201899290084839e-02
5.821000000000000000e+03 8.546747207641601562e+00 2.640896034240722656e+01 -1.811378635466098785e-02 5.265667662024497986e-02 1.036286726593971252e-02 1.279941499233245850e-01
5.822000000000000000e+03 1.064122200012207031e+01 -2.779653930664062500e+01 -1.546345800161361694e-01 7.781988978385925293e-01 1.870692968368530273e-01 1.867295354604721069e-01
5.823000000000000000e+03 1.332182884216308594e+01 2.948364067077636719e+01 1.002749800682067871e-01 2.558485865592956543e-01 1.068370714783668518e-01 1.583378203213214874e-02
5.824000000000000000e+03 6.585449981689453125e+01 2.702671241760253906e+01 -4.652656316757202148e-01 1.546162962913513184e+00 3.242692053318023682e-01 1.276629567146301270e-01
5.825000000000000000e+03 4.039876937866210938e+01 2.512163352966308594e+01 -2.662410140037536621e-01 4.117739200592041016e+00 1.155449390411376953e+00 1.088612079620361328e+00
5.826000000000000000e+03 6.653704833984375000e+01 2.452251815795898438e+01 -3.693695664405822754e-01 1.724009752273559570e+00 4.063920676708221436e-01 3.143459856510162354e-01
5.827000000000000000e+03 1.161789035797119141e+01 3.437849426269531250e+01 9.236430376768112183e-02 3.151544928550720215e-01 1.222556382417678833e-01 1.378337480127811432e-02
5.828000000000000000e+03 1.023520946502685547e+01 3.337205505371093750e+01 8.594765514135360718e-02 1.883307248353958130e-01 8.228351175785064697e-02 5.377875268459320068e-02
5.829000000000000000e+03 2.182056045532226562e+01 3.569293975830078125e+01 -1.783996224403381348e-01 1.719855189323425293e+00 4.624366760253906250e-01 -4.615682661533355713e-01
5.830000000000000000e+03 6.470367431640625000e+01 2.792990112304687500e+01 -4.743753969669342041e-01 1.520768523216247559e+00 3.139179348945617676e-01 -2.729471027851104736e-02
5.831000000000000000e+03 1.216870307922363281e+01 -2.994513702392578125e+01 -2.406317144632339478e-01 8.146425485610961914e-01 1.722032576799392700e-01 2.243633568286895752e-02
5.832000000000000000e+03 1.024306297302246094e+01 -3.043762016296386719e+01 -2.142012715339660645e-01 5.605643987655639648e-01 1.039089411497116089e-01 1.481631249189376831e-01
5.833000000000000000e+03 3.525312042236328125e+01 2.336876869201660156e+01 -8.027431368827819824e-02 6.045268058776855469e+00 1.789498090744018555e+00 1.334697008132934570e-01
5.834000000000000000e+03 1.131045818328857422e+01 -3.305794525146484375e+01 -2.295965105295181274e-01 5.454282760620117188e-01 9.474954009056091309e-02 2.799902483820915222e-02
5.835000000000000000e+03 1.598778915405273438e+01 3.196921157836914062e+01 1.443918943405151367e-01 5.841457843780517578e-01 2.185613065958023071e-01 -1.808265745639801025e-01
5.836000000000000000e+03 1.435248374938964844e+01 3.159744262695312500e+01 1.328119635581970215e-01 4.176182150840759277e-01 1.651290506124496460e-01 -7.313390821218490601e-02
5.837000000000000000e+03 5.818238067626953125e+01 3.273752975463867188e+01 -1.443317830562591553e-01 1.177772760391235352e+00 3.100322782993316650e-01 -1.215756833553314209e-01
5.838000000000000000e+03 3.530355834960937500e+01 2.669466018676757812e+01 -6.521032452583312988e-01 5.165566444396972656e+00 1.354038834571838379e+00 1.403702646493911743e-01
5.839000000000000000e+03 5.276778793334960938e+01 2.874600219726562500e+01 5.538116022944450378e-02 9.458336830139160156e-01 3.003644645214080811e-01 2.094635367393493652e-01
5.840000000000000000e+03 2.833293342590332031e+01 3.279521560668945312e+01 -6.062762737274169922e-01 3.184356451034545898e+00 7.734240889549255371e-01 -7.886649370193481445e-01
5.841000000000000000e+03 3.382235717773437500e+01 3.208606338500976562e+01 -9.595124125480651855e-01 4.143272876739501953e+00 9.551280736923217773e-01 -1.470623016357421875e-01
5.842000000000000000e+03 3.483704757690429688e+01 2.910512351989746094e+01 -8.575906753540039062e-01 4.672303676605224609e+00 1.144413948059082031e+00 5.260308738797903061e-03
5.843000000000000000e+03 4.291444015502929688e+01 2.894820594787597656e+01 -3.844001293182373047e-01 3.115599632263183594e+00 8.193598389625549316e-01 9.533964991569519043e-01
5.844000000000000000e+03 9.639813423156738281e+00 -3.491791534423828125e+01 -1.795424222946166992e-01 2.793807983398437500e-01 2.995151467621326447e-02 7.637626677751541138e-02
5.845000000000000000e+03 4.304845428466796875e+01 3.119660186767578125e+01 -5.047235488891601562e-01 3.058108806610107422e+00 7.660155892372131348e-01 7.456183433532714844e-01
5.846000000000000000e+03 1.589577007293701172e+01 3.384936141967773438e+01 1.070217266678810120e-01 6.832951903343200684e-01 2.370950728654861450e-01 -1.678421646356582642e-01
5.847000000000000000e+03 7.007618713378906250e+01 3.084467697143554688e+01 -2.786261141300201416e-01 7.808866500854492188e-01 1.506781727075576782e-01 2.636109888553619385e-01
5.848000000000000000e+03 6.745555877685546875e+01 3.689172744750976562e+01 -2.354300618171691895e-01 8.620533943176269531e-01 1.879869997501373291e-01 5.359914898872375488e-02
5.849000000000000000e+03 5.147181701660156250e+01 2.998104858398437500e+01 8.265579119324684143e-03 1.257847309112548828e+00 3.798338770866394043e-01 3.390138447284698486e-01
5.850000000000000000e+03 5.394689941406250000e+01 2.986248970031738281e+01 2.741953358054161072e-02 9.924440383911132812e-01 3.059590756893157959e-01 7.263015210628509521e-02
5.851000000000000000e+03 4.193263244628906250e+01 -4.085982894897460938e+01 -1.430905580520629883e+00 5.293146610260009766e+00 1.158672332763671875e+00 -2.448545582592487335e-02
5.852000000000000000e+03 6.626248931884765625e+01 3.446181106567382812e+01 -2.931993007659912109e-01 1.004322052001953125e+00 2.133368402719497681e-01 4.129598662257194519e-02
5.853000000000000000e+03 4.852997207641601562e+01 -4.096258544921875000e+01 -8.216890692710876465e-01 3.833884000778198242e+00 9.036585092544555664e-01 -2.385330349206924438e-01
5.854000000000000000e+03 5.745989608764648438e+01 -4.153451538085937500e+01 3.074392974376678467e-01 6.884717345237731934e-01 2.987733185291290283e-01 -1.553713623434305191e-02
5.855000000000000000e+03 8.193170547485351562e+00 1.168050193786621094e+01 -4.287568852305412292e-03 -4.628791939467191696e-03 -2.674908144399523735e-03 -3.240560181438922882e-04
5.856000000000000000e+03 1.050077247619628906e+01 -8.992608070373535156e+00 1.040214225649833679e-01 5.087287425994873047e-01 1.838250607252120972e-01 -4.455497562885284424e-01
5.857000000000000000e+03 6.472688293457031250e+01 -6.903985023498535156e+00 -2.389609068632125854e-01 4.636054337024688721e-01 6.739335507154464722e-02 -7.896661013364791870e-02
5.858000000000000000e+03 6.181148529052734375e+01 -7.030743598937988281e+00 -2.575609087944030762e-01 8.516622781753540039e-01 1.782304197549819946e-01 4.646919965744018555e-01
5.859000000000000000e+03 8.417817115783691406e+00 -9.859684944152832031e+00 1.531862765550613403e-01 2.094376087188720703e-01 1.087871640920639038e-01 -5.539475083351135254e-01
5.860000000000000000e+03 1.066522026062011719e+01 -9.662364959716796875e+00 1.853009015321731567e-01 5.892317891120910645e-01 2.323597967624664307e-01 -4.219035804271697998e-01
5.861000000000000000e+03 8.891778945922851562e+00 -9.243132591247558594e+00 1.037909016013145447e-01 2.738147675991058350e-01 1.132817044854164124e-01 -5.451099872589111328e-01
5.862000000000000000e+03 8.844935417175292969e+00 1.091912364959716797e+01 -2.547985175624489784e-03 -4.271982237696647644e-03 -2.045990200713276863e-03 1.826833322411403060e-04
5.863000000000000000e+03 7.951973438262939453e+00 1.280355358123779297e+01 -8.235846646130084991e-03 -3.549081506207585335e-03 -3.535478375852108002e-03 -4.092468880116939545e-04
5.864000000000000000e+03 1.011645698547363281e+01 -9.739731788635253906e+00 1.884126067161560059e-01 5.099581480026245117e-01 2.095112353563308716e-01 -4.629310667514801025e-01
5.865000000000000000e+03 9.941489219665527344e+00 -9.031889915466308594e+00 9.751590341329574585e-02 4.203910827636718750e-01 1.553720980882644653e-01 -4.906642138957977295e-01
5.866000000000000000e+03 8.427814483642578125e+00 -1.807067298889160156e+01 5.315958857536315918e-01 4.836444854736328125e-01 3.045721054077148438e-01 2.529244869947433472e-03
5.867000000000000000e+03 9.611382484436035156e+00 -1.762172317504882812e+01 6.005722284317016602e-01 8.956549167633056641e-01 4.488681554794311523e-01 -1.626185141503810883e-02
5.868000000000000000e+03 9.947107315063476562e+00 -1.392530727386474609e+01 5.817785263061523438e-01 7.893795371055603027e-01 4.113474190235137939e-01 -2.531160414218902588e-01
5.869000000000000000e+03 6.961991882324218750e+01 2.259622383117675781e+01 -9.452661871910095215e-02 1.149230122566223145e+00 3.164110481739044189e-01 5.900738835334777832e-01
5.870000000000000000e+03 6.877703857421875000e+01 2.326069641113281250e+01 -1.699543148279190063e-01 1.348316550254821777e+00 3.535086512565612793e-01 5.474628210067749023e-01
5.871000000000000000e+03 7.086016845703125000e+01 2.331363487243652344e+01 -1.080507263541221619e-01 8.284516334533691406e-01 2.161202579736709595e-01 5.881084799766540527e-01
5.872000000000000000e+03 9.017546653747558594e+00 -1.813403320312500000e+01 5.551355481147766113e-01 6.765008568763732910e-01 3.694909214973449707e-01 -5.063390708528459072e-04
5.873000000000000000e+03 8.361860275268554688e+00 -1.864535903930664062e+01 4.899626076221466064e-01 4.600338935852050781e-01 2.849989533424377441e-01 3.290066123008728027e-02
5.874000000000000000e+03 1.335289287567138672e+01 -8.378941535949707031e+00 5.935651063919067383e-02 8.056034445762634277e-01 2.594879865646362305e-01 -1.151991784572601318e-01
5.875000000000000000e+03 8.080012321472167969e+00 2.568922424316406250e+01 -3.206632658839225769e-02 3.727648779749870300e-02 1.563047524541616440e-03 1.235139518976211548e-01
5.876000000000000000e+03 1.171207618713378906e+01 -1.087388896942138672e+01 3.923071622848510742e-01 9.194114804267883301e-01 3.935155868530273438e-01 -2.567307651042938232e-01
5.877000000000000000e+03 9.294088363647460938e+00 -1.311291790008544922e+01 4.760346114635467529e-01 5.493422746658325195e-01 3.076130747795104980e-01 -3.565980195999145508e-01
5.878000000000000000e+03 1.249789333343505859e+01 -9.699271202087402344e+00 2.492131739854812622e-01 8.893036842346191406e-01 3.415550589561462402e-01 -2.045885324478149414e-01
5.879000000000000000e+03 7.180899047851562500e+01 1.752317428588867188e+01 2.531110942363739014e-01 5.213815569877624512e-01 2.323478013277053833e-01 5.125049948692321777e-01
5.880000000000000000e+03 7.110747528076171875e+01 1.748484039306640625e+01 2.828616201877593994e-01 7.494842410087585449e-01 3.097037374973297119e-01 5.257262587547302246e-01
5.881000000000000000e+03 4.216387939453125000e+01 -1.427386856079101562e+01 1.183443784713745117e+00 7.637255668640136719e+00 2.646209716796875000e+00 -9.750732183456420898e-01
5.882000000000000000e+03 4.288730239868164062e+01 -1.301938915252685547e+01 7.256715297698974609e-01 6.902564525604248047e+00 2.288470983505249023e+00 -8.691444993019104004e-01
5.883000000000000000e+03 6.270817565917968750e+01 -7.082825660705566406e+00 -2.589738667011260986e-01 6.832680106163024902e-01 1.272882372140884399e-01 3.046220541000366211e-01
5.884000000000000000e+03 6.176181793212890625e+01 -6.175622940063476562e+00 -1.291035860776901245e-01 1.012632012367248535e+00 2.650585174560546875e-01 4.805093407630920410e-01
5.885000000000000000e+03 3.677450180053710938e+01 -5.342911720275878906e+00 -2.295591592788696289e+00 9.584948539733886719e+00 2.186807155609130859e+00 -8.453937172889709473e-01
5.886000000000000000e+03 6.970768737792968750e+01 1.844317245483398438e+01 2.800602316856384277e-01 1.184411168098449707e+00 4.393414258956909180e-01 5.569784045219421387e-01
5.887000000000000000e+03 7.134720611572265625e+01 1.057609844207763672e+01 4.451275169849395752e-01 5.810093283653259277e-01 3.078410625457763672e-01 1.073827669024467468e-01
5.888000000000000000e+03 7.184412384033203125e+01 1.165966606140136719e+01 4.112720489501953125e-01 4.225496649742126465e-01 2.501465082168579102e-01 1.679256260395050049e-01
5.889000000000000000e+03 7.142973327636718750e+01 1.218702793121337891e+01 4.207861125469207764e-01 5.649796724319458008e-01 2.957297265529632568e-01 2.096213102340698242e-01
5.890000000000000000e+03 7.171935272216796875e+01 -4.197895526885986328e+00 -5.077128857374191284e-02 8.852911740541458130e-02 1.132734958082437515e-02 -6.048343181610107422e-01
5.891000000000000000e+03 6.935496520996093750e+01 -7.793065547943115234e+00 -3.757064044475555420e-01 2.403510212898254395e-01 -4.060661792755126953e-02 -5.207547545433044434e-01
5.892000000000000000e+03 7.162522125244140625e+01 -1.892994284629821777e+00 7.017896324396133423e-02 1.236951798200607300e-01 5.816224589943885803e-02 -5.783128738403320312e-01
5.893000000000000000e+03 7.129058837890625000e+01 -3.196311950683593750e+00 1.305538043379783630e-02 1.703606098890304565e-01 5.502479895949363708e-02 -5.962122678756713867e-01
5.894000000000000000e+03 7.195001220703125000e+01 5.269410610198974609e+00 3.355079889297485352e-01 2.031535655260086060e-01 1.615984588861465454e-01 -2.778478562831878662e-01
5.895000000000000000e+03 7.039952087402343750e+01 4.602349758148193359e+00 4.134757220745086670e-01 6.570092439651489258e-01 3.211455047130584717e-01 -2.658617198467254639e-01
5.896000000000000000e+03 7.179771423339843750e+01 7.530290603637695312e+00 3.881315886974334717e-01 3.124002218246459961e-01 2.101595401763916016e-01 -1.186249032616615295e-01
5.897000000000000000e+03 8.232918739318847656e+00 -1.699162101745605469e+01 5.216022133827209473e-01 4.065993726253509521e-01 2.784604728221893311e-01 -9.130969643592834473e-02
5.898000000000000000e+03 7.200707244873046875e+01 5.772954463958740234e+00 3.607989251613616943e-01 2.103363424539566040e-01 1.713405698537826538e-01 -2.422301322221755981e-01
5.899000000000000000e+03 7.015534210205078125e+01 3.681592464447021484e+00 3.943611681461334229e-01 6.823512315750122070e-01 3.230137228965759277e-01 -2.978853285312652588e-01
5.900000000000000000e+03 7.203969573974609375e+01 6.317949295043945312e+00 3.555892407894134521e-01 2.099339812994003296e-01 1.696569770574569702e-01 -2.075489163398742676e-01
5.901000000000000000e+03 6.837105560302734375e+01 6.025937080383300781e+00 5.826458930969238281e-01 1.419736742973327637e+00 6.007148027420043945e-01 -3.924444317817687988e-02
5.902000000000000000e+03 7.188874816894531250e+01 -1.127990245819091797e+00 1.112373545765876770e-01 9.932170063257217407e-02 6.316772103309631348e-02 -5.682635307312011719e-01
5.903000000000000000e+03 7.114398193359375000e+01 -2.591308593750000000e+00 5.092132836580276489e-02 2.046995908021926880e-01 7.668627798557281494e-02 -5.849610567092895508e-01
5.904000000000000000e+03 8.986169815063476562e+00 1.023167705535888672e+01 -1.083776121959090233e-03 -4.002281930297613144e-03 -1.525817438960075378e-03 4.016004677396267653e-04
5.905000000000000000e+03 8.187090873718261719e+00 1.067678356170654297e+01 -2.155169611796736717e-03 -4.248737357556819916e-03 -1.921172020956873894e-03 -2.469487371854484081e-04
5.906000000000000000e+03 8.175000190734863281e+00 1.222821235656738281e+01 -5.704886280000209808e-03 -4.465661942958831787e-03 -3.051164327189326286e-03 -3.815875097643584013e-04
5.907000000000000000e+03 7.224276733398437500e+01 -7.542254328727722168e-01 1.165578067302703857e-01 2.712473459541797638e-02 4.310476034879684448e-02 -5.605701208114624023e-01
5.908000000000000000e+03 9.929077148437500000e+00 2.647442054748535156e+01 -1.997777633368968964e-02 8.726660907268524170e-02 2.018665149807929993e-02 1.243055686354637146e-01
5.909000000000000000e+03 8.473427772521972656e+00 -1.747872161865234375e+01 5.334540009498596191e-01 5.001012086868286133e-01 3.100665509700775146e-01 -4.709429666399955750e-02
5.910000000000000000e+03 9.922519683837890625e+00 -1.182731914520263672e+01 4.099967181682586670e-01 6.268242597579956055e-01 3.110463023185729980e-01 -3.948724269866943359e-01
5.911000000000000000e+03 8.063238143920898438e+00 -1.291209793090820312e+01 3.784466385841369629e-01 2.294894605875015259e-01 1.823808252811431885e-01 -4.218516945838928223e-01
5.912000000000000000e+03 8.462391853332519531e+00 -1.050644969940185547e+01 2.156307995319366455e-01 2.450435906648635864e-01 1.382023096084594727e-01 -5.336363911628723145e-01
5.913000000000000000e+03 7.884759902954101562e+00 2.450305938720703125e+01 -5.027774348855018616e-02 3.771244361996650696e-02 -3.769590053707361221e-03 1.123696491122245789e-01
5.914000000000000000e+03 3.767360305786132812e+01 -6.739246845245361328e+00 -2.678003311157226562e+00 9.493120193481445312e+00 2.044534921646118164e+00 -1.303198456764221191e+00
5.915000000000000000e+03 1.031686305999755859e+01 2.578915214538574219e+01 -3.973508998751640320e-02 9.738244861364364624e-02 1.729420758783817291e-02 1.209785267710685730e-01
5.916000000000000000e+03 6.928826904296875000e+01 1.123815345764160156e+01 5.562716722488403320e-01 1.390531539916992188e+00 5.840409398078918457e-01 2.053660750389099121e-01
5.917000000000000000e+03 6.964735412597656250e+01 1.010220336914062500e+01 5.517078638076782227e-01 1.200735688209533691e+00 5.257330536842346191e-01 1.287427842617034912e-01
5.918000000000000000e+03 8.523415565490722656e+00 2.247248840332031250e+01 -8.539919555187225342e-02 5.255559831857681274e-02 -9.853079915046691895e-03 8.165629208087921143e-02
5.919000000000000000e+03 9.004809379577636719e+00 2.319157600402832031e+01 -8.854545652866363525e-02 6.109463050961494446e-02 -8.235246874392032623e-03 9.464347362518310547e-02
5.920000000000000000e+03 4.021756362915039062e+01 -8.888723373413085938e+00 -1.866126298904418945e+00 8.044627189636230469e+00 1.853550195693969727e+00 -1.827109813690185547e+00
5.921000000000000000e+03 4.329877471923828125e+01 -1.056611442565917969e+01 -3.508743047714233398e-01 5.803728103637695312e+00 1.635856151580810547e+00 -1.140995144844055176e+00
5.922000000000000000e+03 4.268606567382812500e+01 -1.040881443023681641e+01 -5.705458521842956543e-01 6.252914905548095703e+00 1.704710721969604492e+00 -1.348154425621032715e+00
5.923000000000000000e+03 4.201965332031250000e+01 -1.028269004821777344e+01 -7.904693484306335449e-01 6.684292316436767578e+00 1.768146872520446777e+00 -1.550324320793151855e+00
5.924000000000000000e+03 4.273419189453125000e+01 -1.162055492401123047e+01 1.891573704779148102e-02 6.544909954071044922e+00 1.969147682189941406e+00 -1.118715643882751465e+00
5.925000000000000000e+03 7.061011505126953125e+01 -6.508109569549560547e+00 -2.137504070997238159e-01 1.808570772409439087e-01 -9.867999702692031860e-03 -5.736234784126281738e-01
5.926000000000000000e+03 6.923342132568359375e+01 -7.004484653472900391e+00 -2.977471351623535156e-01 2.639794051647186279e-01 -1.013032253831624985e-02 -5.350326299667358398e-01
5.927000000000000000e+03 9.727363586425781250e+00 -2.578877639770507812e+01 -1.986493123695254326e-03 7.263237237930297852e-01 2.173011749982833862e-01 2.891609966754913330e-01
5.928000000000000000e+03 7.017361450195312500e+01 1.412904262542724609e+01 4.608730077743530273e-01 1.071053028106689453e+00 4.595777988433837891e-01 3.410154283046722412e-01
5.929000000000000000e+03 6.740724945068359375e+01 -7.710498332977294922e+00 -4.042106270790100098e-01 2.838910520076751709e-01 -3.609587252140045166e-02 -4.403398036956787109e-01
5.930000000000000000e+03 7.206773376464843750e+01 3.407080769538879395e-01 1.632392406463623047e-01 7.058929651975631714e-02 7.014855742454528809e-02 -5.238482952117919922e-01
5.931000000000000000e+03 7.243962097167968750e+01 -7.523253917694091797e+00 -2.382021546363830566e-01 4.120071604847908020e-02 -5.910043418407440186e-02 -5.326166749000549316e-01
5.932000000000000000e+03 7.218747711181640625e+01 9.174233436584472656e+00 3.713725209236145020e-01 1.985188722610473633e-01 1.709674149751663208e-01 -1.595748588442802429e-02
5.933000000000000000e+03 3.936435317993164062e+01 2.223504257202148438e+01 4.780027642846107483e-02 4.828475952148437500e+00 1.462882757186889648e+00 1.072699427604675293e+00
5.934000000000000000e+03 7.158686828613281250e+01 9.362704277038574219e+00 4.116243422031402588e-01 4.511820673942565918e-01 2.588419318199157715e-01 1.379414554685354233e-02
5.935000000000000000e+03 7.081816864013671875e+01 8.919172286987304688e+00 4.698757529258728027e-01 6.935951709747314453e-01 3.490412831306457520e-01 5.496776197105646133e-03
5.936000000000000000e+03 9.459848403930664062e+00 1.175606250762939453e+01 -3.959388472139835358e-03 -4.557077307254076004e-03 -2.554939594119787216e-03 -4.455162343219853938e-05
5.937000000000000000e+03 7.047662353515625000e+01 1.225622844696044922e+01 4.785177707672119141e-01 9.389513731002807617e-01 4.252407550811767578e-01 2.331378459930419922e-01
5.938000000000000000e+03 9.149396896362304688e+00 -2.154886436462402344e+01 3.917537927627563477e-01 7.024433612823486328e-01 3.282591402530670166e-01 2.276952415704727173e-01
5.939000000000000000e+03 6.367107772827148438e+01 -7.043931484222412109e+00 -2.499106526374816895e-01 5.475540757179260254e-01 8.929302543401718140e-02 1.248914524912834167e-01
5.940000000000000000e+03 6.199479675292968750e+01 -4.561140537261962891e+00 8.529670536518096924e-02 1.232819199562072754e+00 3.954347670078277588e-01 4.482937157154083252e-01
5.941000000000000000e+03 7.135374450683593750e+01 1.445357608795166016e+01 3.846550881862640381e-01 6.376294493675231934e-01 3.066853582859039307e-01 3.512449264526367188e-01
5.942000000000000000e+03 7.025533294677734375e+01 1.345029067993164062e+01 4.795820116996765137e-01 1.029423117637634277e+00 4.527015388011932373e-01 3.069463074207305908e-01
5.943000000000000000e+03 6.895370483398437500e+01 1.936681032180786133e+00 3.727101385593414307e-01 8.922450542449951172e-01 3.794865608215332031e-01 -3.069730699062347412e-01
5.944000000000000000e+03 6.513050079345703125e+01 -9.633725881576538086e-01 3.479951620101928711e-01 1.397120356559753418e+00 5.235346555709838867e-01 2.897311560809612274e-02
5.945000000000000000e+03 6.986853790283203125e+01 -7.822030544281005859e+00 -3.632369637489318848e-01 2.170619964599609375e-01 -4.385249689221382141e-02 -5.275419950485229492e-01
5.946000000000000000e+03 6.883992767333984375e+01 -7.583531856536865234e+00 -3.676712214946746826e-01 2.647352814674377441e-01 -3.088078647851943970e-02 -5.099986791610717773e-01
5.947000000000000000e+03 4.477975082397460938e+01 -1.207691574096679688e+01 6.419622302055358887e-01 5.302546501159667969e+00 1.783352613449096680e+00 -1.535674929618835449e-01
5.948000000000000000e+03 7.032836914062500000e+01 -6.034653663635253906e+00 -1.899451017379760742e-01 2.114303112030029297e-01 6.445561535656452179e-03 -5.780603885650634766e-01
5.949000000000000000e+03 7.122982788085937500e+01 -4.757357120513916016e+00 -8.845046162605285645e-02 1.448114663362503052e-01 1.690829917788505554e-02 -6.011616587638854980e-01
5.950000000000000000e+03 6.821608734130859375e+01 6.852426052093505859e+00 6.166970729827880859e-01 1.541046619415283203e+00 6.473231315612792969e-01 2.829585038125514984e-02
5.951000000000000000e+03 4.437185668945312500e+01 -1.137436485290527344e+01 2.263026386499404907e-01 5.275626182556152344e+00 1.650578737258911133e+00 -5.246292948722839355e-01
5.952000000000000000e+03 8.561937332153320312e+00 -2.838174629211425781e+01 -1.249983310699462891e-01 3.648920953273773193e-01 7.196813076734542847e-02 2.834798395633697510e-01
5.953000000000000000e+03 4.132933425903320312e+01 -1.009356880187988281e+01 -9.894326329231262207e-01 7.147964000701904297e+00 1.847559332847595215e+00 -1.637119174003601074e+00
5.954000000000000000e+03 6.947194671630859375e+01 1.478921699523925781e+01 4.786168038845062256e-01 1.351972460746765137e+00 5.491767525672912598e-01 3.746351897716522217e-01
5.955000000000000000e+03 6.943795776367187500e+01 1.336108589172363281e+01 5.212264657020568848e-01 1.381694316864013672e+00 5.708762407302856445e-01 3.049160838127136230e-01
5.956000000000000000e+03 7.093866729736328125e+01 1.265626525878906250e+01 4.382891952991485596e-01 7.589362859725952148e-01 3.591676354408264160e-01 2.434146255254745483e-01
5.957000000000000000e+03 1.102326202392578125e+01 2.864719772338867188e+01 4.526772350072860718e-02 1.433292478322982788e-01 5.657909438014030457e-02 9.637494385242462158e-02
5.958000000000000000e+03 6.766322326660156250e+01 5.466299057006835938e+00 6.071469187736511230e-01 1.599736809730529785e+00 6.620650887489318848e-01 -7.438383530825376511e-03
5.959000000000000000e+03 1.057915687561035156e+01 2.509959793090820312e+01 -6.020842865109443665e-02 9.466013312339782715e-02 1.033551152795553207e-02 1.158732324838638306e-01
5.960000000000000000e+03 6.912818145751953125e+01 1.695741462707519531e+01 4.120737314224243164e-01 1.445920825004577637e+00 5.573983788490295410e-01 4.771943390369415283e-01
5.961000000000000000e+03 7.089038848876953125e+01 1.475114536285400391e+01 3.961775302886962891e-01 8.088738322257995605e-01 3.615154325962066650e-01 3.809780776500701904e-01
5.962000000000000000e+03 4.022066497802734375e+01 -1.158058166503906250e+01 -2.756979167461395264e-01 7.872780799865722656e+00 2.279124975204467773e+00 -1.496683478355407715e+00
5.963000000000000000e+03 4.048469161987304688e+01 -1.206166934967041016e+01 -1.620551384985446930e-02 7.777378082275390625e+00 2.328351736068725586e+00 -1.486828327178955078e+00
5.964000000000000000e+03 6.347939300537109375e+01 -1.900145292282104492e+00 3.360064923763275146e-01 1.502565979957580566e+00 5.515717267990112305e-01 2.843067348003387451e-01
5.965000000000000000e+03 6.401152801513671875e+01 -2.369093656539916992e+00 2.758511304855346680e-01 1.333851218223571777e+00 4.829106926918029785e-01 1.625091731548309326e-01
5.966000000000000000e+03 6.138205337524414062e+01 -6.593169212341308594e+00 -1.962353140115737915e-01 1.005468130111694336e+00 2.427698522806167603e-01 5.396407842636108398e-01
5.967000000000000000e+03 1.126814270019531250e+01 -1.173104858398437500e+01 4.691288471221923828e-01 9.296016693115234375e-01 4.196191728115081787e-01 -2.657074928283691406e-01
5.968000000000000000e+03 1.199505043029785156e+01 -9.975646972656250000e+00 2.654871940612792969e-01 8.483207225799560547e-01 3.341423571109771729e-01 -2.609836757183074951e-01
5.969000000000000000e+03 1.115489673614501953e+01 2.527456092834472656e+01 -5.668788030743598938e-02 1.084995642304420471e-01 1.554350461810827255e-02 1.126086115837097168e-01
5.970000000000000000e+03 1.053621959686279297e+01 2.706811523437500000e+01 3.908564394805580378e-04 1.069360002875328064e-01 3.219805657863616943e-02 1.190019845962524414e-01
5.971000000000000000e+03 6.681175231933593750e+01 1.177946209907531738e+00 4.225588142871856689e-01 1.352309107780456543e+00 5.324603915214538574e-01 -1.325420886278152466e-01
5.972000000000000000e+03 7.100947570800781250e+01 2.389080762863159180e+00 2.970838546752929688e-01 3.838751018047332764e-01 2.042876780033111572e-01 -4.093327224254608154e-01
5.973000000000000000e+03 7.178176879882812500e+01 -7.003079891204833984e+00 -2.334914505481719971e-01 8.744043856859207153e-02 -4.381530359387397766e-02 -5.611181855201721191e-01
5.974000000000000000e+03 7.184820556640625000e+01 -6.371966361999511719e+00 -1.810542196035385132e-01 6.918670982122421265e-02 -3.356024995446205139e-02 -5.797270536422729492e-01
5.975000000000000000e+03 7.232052612304687500e+01 -2.932504713535308838e-01 1.347171366214752197e-01 9.567059576511383057e-03 4.328525811433792114e-02 -5.453828573226928711e-01
5.976000000000000000e+03 7.001000213623046875e+01 1.928763771057128906e+01 2.042761892080307007e-01 1.093184113502502441e+00 3.892380893230438232e-01 5.847271680831909180e-01
5.977000000000000000e+03 6.924137878417968750e+01 8.548586845397949219e+00 5.792836546897888184e-01 1.286070346832275391e+00 5.596061944961547852e-01 6.090787798166275024e-02
5.978000000000000000e+03 6.245369338989257812e+01 -3.132487058639526367e+00 2.520798444747924805e-01 1.429203987121582031e+00 5.043851733207702637e-01 4.129617810249328613e-01
5.979000000000000000e+03 6.860129547119140625e+01 2.774427223205566406e+01 -3.495960831642150879e-01 1.119339227676391602e+00 2.309229373931884766e-01 3.238686323165893555e-01
5.980000000000000000e+03 6.807591247558593750e+01 2.301235198974609375e+01 -1.718826740980148315e-01 1.518441319465637207e+00 4.039675891399383545e-01 5.126189589500427246e-01
5.981000000000000000e+03 6.906273651123046875e+01 2.241519165039062500e+01 -8.021491020917892456e-02 1.307533979415893555e+00 3.681957125663757324e-01 5.821261405944824219e-01
5.982000000000000000e+03 4.123847198486328125e+01 2.401558685302734375e+01 -9.464114159345626831e-02 3.799077272415161133e+00 1.111330866813659668e+00 1.189056992530822754e+00
5.983000000000000000e+03 3.934949111938476562e+01 2.413968658447265625e+01 -1.838843375444412231e-01 4.593715190887451172e+00 1.322949290275573730e+00 1.039201140403747559e+00
5.984000000000000000e+03 6.298332595825195312e+01 -3.602473020553588867e+00 1.885673403739929199e-01 1.271619796752929688e+00 4.380561113357543945e-01 3.045805692672729492e-01
5.985000000000000000e+03 6.302016830444335938e+01 -5.778982162475585938e+00 -8.901450037956237793e-02 8.702149987220764160e-01 2.343601435422897339e-01 2.400686144828796387e-01
5.986000000000000000e+03 6.238565444946289062e+01 -4.992537021636962891e+00 2.520056627690792084e-02 1.104609966278076172e+00 3.389431536197662354e-01 3.729156553745269775e-01
5.987000000000000000e+03 7.124903869628906250e+01 1.484054565429687500e+00 2.460934221744537354e-01 2.889659404754638672e-01 1.605178117752075195e-01 -4.602315723896026611e-01
5.988000000000000000e+03 7.148212432861328125e+01 5.763298869132995605e-01 1.968773156404495239e-01 2.137312144041061401e-01 1.231825575232505798e-01 -5.031937956809997559e-01
5.989000000000000000e+03 1.027053356170654297e+01 -2.517499923706054688e+01 4.614733159542083740e-02 9.064916372299194336e-01 2.857916951179504395e-01 2.601583003997802734e-01
5.990000000000000000e+03 4.309784317016601562e+01 -1.254938888549804688e+01 4.927526116371154785e-01 6.620240211486816406e+00 2.133897781372070312e+00 -8.639855980873107910e-01
5.991000000000000000e+03 9.298891067504882812e+00 -1.246627998352050781e+01 4.311114847660064697e-01 5.175451040267944336e-01 2.845969796180725098e-01 -4.017667174339294434e-01
5.992000000000000000e+03 1.034534263610839844e+01 -2.640908622741699219e+01 -5.942876636981964111e-02 8.479793071746826172e-01 2.365651577711105347e-01 2.341731786727905273e-01
5.993000000000000000e+03 6.645324707031250000e+01 3.002547073364257812e+01 -3.961210250854492188e-01 1.216564774513244629e+00 2.461331337690353394e-01 1.112305074930191040e-01
5.994000000000000000e+03 6.120512008666992188e+01 3.019515609741210938e+01 -3.081829249858856201e-01 1.267349600791931152e+00 2.877500057220458984e-01 -2.499413937330245972e-01
5.995000000000000000e+03 6.935395812988281250e+01 1.768937110900878906e+01 3.594518005847930908e-01 1.340686440467834473e+00 5.100414752960205078e-01 5.126785039901733398e-01
5.996000000000000000e+03 3.837200164794921875e+01 2.522412490844726562e+01 -3.533596694469451904e-01 4.713641643524169922e+00 1.308084487915039062e+00 8.444745540618896484e-01
5.997000000000000000e+03 1.293246841430664062e+01 3.104971694946289062e+01 1.115288808941841125e-01 2.986057996749877930e-01 1.230404078960418701e-01 3.520773025229573250e-03
5.998000000000000000e+03 1.014555263519287109e+01 -2.959381866455078125e+01 -2.017390429973602295e-01 5.900741815567016602e-01 1.165005490183830261e-01 1.746919751167297363e-01
5.999000000000000000e+03 1.168387031555175781e+01 3.046506309509277344e+01 8.770512044429779053e-02 2.124883681535720825e-01 9.005804359912872314e-02 5.445575341582298279e-02
6.000000000000000000e+03 7.108168029785156250e+01 2.095961380004882812e+01 6.030623614788055420e-02 7.737827301025390625e-01 2.502267062664031982e-01 6.187309622764587402e-01
6.001000000000000000e+03 7.187190246582031250e+01 2.184396171569824219e+01 1.413090620189905167e-03 5.501378178596496582e-01 1.654652655124664307e-01 6.119979619979858398e-01
6.002000000000000000e+03 8.444858551025390625e+00 -3.050266075134277344e+01 -1.666455268859863281e-01 2.901017069816589355e-01 3.703685104846954346e-02 2.199023365974426270e-01
6.003000000000000000e+03 9.589121818542480469e+00 -3.175037002563476562e+01 -2.029481381177902222e-01 4.119636714458465576e-01 6.270465999841690063e-02 1.365044713020324707e-01
6.004000000000000000e+03 4.922647857666015625e+01 3.423131179809570312e+01 -2.054786980152130127e-01 1.915439724922180176e+00 5.129883289337158203e-01 4.121393263339996338e-01
6.005000000000000000e+03 3.841099548339843750e+01 2.316140365600585938e+01 -7.130014896392822266e-02 5.089858055114746094e+00 1.505567431449890137e+00 9.213411808013916016e-01
6.006000000000000000e+03 3.632196807861328125e+01 2.783446884155273438e+01 -7.366492152214050293e-01 4.809403896331787109e+00 1.221826314926147461e+00 3.357819318771362305e-01
6.007000000000000000e+03 3.628492355346679688e+01 2.540628623962402344e+01 -4.522116482257843018e-01 5.311820983886718750e+00 1.457882761955261230e+00 3.998986482620239258e-01
6.008000000000000000e+03 3.741349411010742188e+01 2.646193122863769531e+01 -5.547593832015991211e-01 4.792376518249511719e+00 1.271285176277160645e+00 6.030948162078857422e-01
6.009000000000000000e+03 6.667053222656250000e+01 2.795652198791503906e+01 -4.339739680290222168e-01 1.375959634780883789e+00 2.825957238674163818e-01 1.671227812767028809e-01
6.010000000000000000e+03 5.263104629516601562e+01 3.125863838195800781e+01 -6.071924231946468353e-03 1.248511314392089844e+00 3.727318048477172852e-01 2.234300523996353149e-01
6.011000000000000000e+03 1.138482856750488281e+01 2.746629333496093750e+01 2.094093896448612213e-02 1.362151056528091431e-01 4.714681580662727356e-02 1.044310182332992554e-01
6.012000000000000000e+03 7.030505371093750000e+01 2.763327217102050781e+01 -2.797197699546813965e-01 8.596442341804504395e-01 1.739773452281951904e-01 4.093977510929107666e-01
6.013000000000000000e+03 6.950170135498046875e+01 2.872559165954589844e+01 -3.132949173450469971e-01 9.221256971359252930e-01 1.826492249965667725e-01 3.323659598827362061e-01
6.014000000000000000e+03 3.913762283325195312e+01 3.045417976379394531e+01 -7.343142032623291016e-01 3.922831058502197266e+00 9.565551280975341797e-01 6.364648938179016113e-01
6.015000000000000000e+03 4.525651550292968750e+01 3.084138298034667969e+01 -3.055869638919830322e-01 2.506684064865112305e+00 6.603291034698486328e-01 7.804482579231262207e-01
6.016000000000000000e+03 2.727452850341796875e+01 3.819409179687500000e+01 -6.516770124435424805e-01 2.771387815475463867e+00 6.359132528305053711e-01 -3.267727792263031006e-01
6.017000000000000000e+03 2.763101959228515625e+01 3.532345199584960938e+01 -6.213107705116271973e-01 2.901452541351318359e+00 6.840425133705139160e-01 -5.575779080390930176e-01
6.018000000000000000e+03 5.513122177124023438e+01 3.527374267578125000e+01 -1.186329945921897888e-01 1.360129714012145996e+00 3.724490106105804443e-01 5.207385122776031494e-02
6.019000000000000000e+03 6.391544723510742188e+01 3.518451690673828125e+01 -2.667790353298187256e-01 1.093279123306274414e+00 2.479500323534011841e-01 -3.304733708500862122e-02
6.020000000000000000e+03 6.758457946777343750e+01 2.898811340332031250e+01 -3.861149549484252930e-01 1.189045906066894531e+00 2.408792972564697266e-01 1.957693248987197876e-01
6.021000000000000000e+03 4.081781768798828125e+01 2.920593261718750000e+01 -5.486375689506530762e-01 3.641748428344726562e+00 9.279332160949707031e-01 8.483176231384277344e-01
6.022000000000000000e+03 1.398225688934326172e+01 3.335818099975585938e+01 1.153460144996643066e-01 4.715133905410766602e-01 1.760578155517578125e-01 -6.934727728366851807e-02
6.023000000000000000e+03 6.111003112792968750e+01 3.557692337036132812e+01 -2.103841602802276611e-01 1.164143204689025879e+00 2.861277461051940918e-01 -6.841752678155899048e-02
6.024000000000000000e+03 6.492097473144531250e+01 3.787098693847656250e+01 -2.282023131847381592e-01 9.800944328308105469e-01 2.255676388740539551e-01 7.495879195630550385e-03
6.025000000000000000e+03 7.173222351074218750e+01 -6.588376164436340332e-01 1.418393254280090332e-01 1.466354876756668091e-01 8.654244244098663330e-02 -5.532959103584289551e-01
6.026000000000000000e+03 4.369969558715820312e+01 -1.284646987915039062e+01 7.627832293510437012e-01 6.365646839141845703e+00 2.138529062271118164e+00 -5.494506955146789551e-01
6.027000000000000000e+03 1.119279098510742188e+01 -9.551686286926269531e+00 1.854988485574722290e-01 6.633217930793762207e-01 2.546462118625640869e-01 -3.676084876060485840e-01
6.028000000000000000e+03 3.632537078857421875e+01 -5.800575733184814453e+00 -2.366982460021972656e+00 9.200263023376464844e+00 2.049984216690063477e+00 -8.372928500175476074e-01
6.029000000000000000e+03 6.910926055908203125e+01 6.238937854766845703e+00 5.449385643005371094e-01 1.180747270584106445e+00 5.177057385444641113e-01 -8.254003524780273438e-02
6.030000000000000000e+03 7.203188323974609375e+01 6.877212524414062500e+00 3.528783023357391357e-01 2.131394743919372559e-01 1.698053330183029175e-01 -1.737767755985260010e-01
6.031000000000000000e+03 7.145563507080078125e+01 8.797279357910156250e+00 4.346243739128112793e-01 4.936988353729248047e-01 2.784969508647918701e-01 -2.677675895392894745e-02
6.032000000000000000e+03 6.990291595458984375e+01 7.638221740722656250e+00 5.117970108985900879e-01 9.809755682945251465e-01 4.478317797183990479e-01 -4.894964396953582764e-02
6.033000000000000000e+03 7.015006256103515625e+01 2.018828201293945312e+01 1.267788857221603394e-01 1.036028861999511719e+00 3.488423228263854980e-01 6.105865240097045898e-01
6.034000000000000000e+03 7.101412200927734375e+01 2.008476448059082031e+01 1.192451789975166321e-01 7.923839688301086426e-01 2.734887301921844482e-01 6.058740019798278809e-01
6.035000000000000000e+03 3.713158416748046875e+01 -7.022653102874755859e+00 -2.627620697021484375e+00 9.340420722961425781e+00 2.013839960098266602e+00 -1.192706465721130371e+00
6.036000000000000000e+03 6.914505004882812500e+01 1.950843620300292969e+01 2.153466194868087769e-01 1.358627438545227051e+00 4.721921980381011963e-01 5.841262340545654297e-01
6.037000000000000000e+03 9.823446273803710938e+00 -1.115398025512695312e+01 3.313560187816619873e-01 5.571277141571044922e-01 2.665451169013977051e-01 -4.348172545433044434e-01
6.038000000000000000e+03 7.018309020996093750e+01 2.336124229431152344e+01 -1.330811381340026855e-01 9.955443739891052246e-01 2.587389647960662842e-01 5.779613256454467773e-01
6.039000000000000000e+03 6.854334259033203125e+01 2.427658653259277344e+01 -2.484709322452545166e-01 1.340711593627929688e+00 3.276721835136413574e-01 4.915464520454406738e-01
6.040000000000000000e+03 9.002383232116699219e+00 -9.863447189331054688e+00 1.691659986972808838e-01 3.200058043003082275e-01 1.467515379190444946e-01 -5.278497338294982910e-01
6.041000000000000000e+03 8.521507263183593750e+00 -1.115561485290527344e+01 2.759725749492645264e-01 2.808279991149902344e-01 1.670401692390441895e-01 -5.031707286834716797e-01
6.042000000000000000e+03 7.076712036132812500e+01 3.274804592132568359e+00 3.518312871456146240e-01 4.866026341915130615e-01 2.515301704406738281e-01 -3.540742993354797363e-01
6.043000000000000000e+03 7.109373474121093750e+01 1.604863548278808594e+01 3.489597737789154053e-01 7.373651266098022461e-01 3.258974850177764893e-01 4.495209753513336182e-01
6.044000000000000000e+03 6.978404998779296875e+01 1.681977462768554688e+01 3.811538219451904297e-01 1.208754658699035645e+00 4.769725501537322998e-01 4.741995632648468018e-01
6.045000000000000000e+03 7.103846740722656250e+01 1.536351394653320312e+01 3.796925544738769531e-01 7.516703009605407715e-01 3.394088447093963623e-01 4.109206199645996094e-01
6.046000000000000000e+03 4.170580291748046875e+01 -1.170223331451416016e+01 -1.113086864352226257e-01 7.127861976623535156e+00 2.104965925216674805e+00 -1.361583232879638672e+00
6.047000000000000000e+03 4.226427078247070312e+01 -1.200878429412841797e+01 1.219119578599929810e-01 6.890407085418701172e+00 2.103695631027221680e+00 -1.208290457725524902e+00
6.048000000000000000e+03 7.089096832275390625e+01 1.091674518585205078e+01 4.652484655380249023e-01 7.609118819236755371e-01 3.678480982780456543e-01 1.367577016353607178e-01
6.049000000000000000e+03 7.167299652099609375e+01 1.088466644287109375e+01 4.154231846332550049e-01 4.632627069950103760e-01 2.636057734489440918e-01 1.207143068313598633e-01
6.050000000000000000e+03 9.093787193298339844e+00 -1.051361751556396484e+01 2.380225807428359985e-01 3.686260879039764404e-01 1.819946020841598511e-01 -5.029268264770507812e-01
6.051000000000000000e+03 7.096981048583984375e+01 1.828141021728515625e+01 2.476027458906173706e-01 8.015452027320861816e-01 3.147443830966949463e-01 5.558161735534667969e-01
6.052000000000000000e+03 7.048348236083984375e+01 1.740439796447753906e+01 3.106608092784881592e-01 9.293622970581054688e-01 3.720069229602813721e-01 5.118477940559387207e-01
6.053000000000000000e+03 7.113885498046875000e+01 1.010981082916259766e+01 4.503897726535797119e-01 6.427232623100280762e-01 3.279339075088500977e-01 7.917635142803192139e-02
6.054000000000000000e+03 7.038074493408203125e+01 1.134121990203857422e+01 5.004416108131408691e-01 9.635403156280517578e-01 4.391945898532867432e-01 1.849200725555419922e-01
6.055000000000000000e+03 6.989559936523437500e+01 -3.059547901153564453e+00 4.215601459145545959e-02 3.688153326511383057e-01 1.232914030551910400e-01 -5.433331727981567383e-01
6.056000000000000000e+03 6.968483734130859375e+01 -7.353585243225097656e+00 -3.234595656394958496e-01 2.300135791301727295e-01 -2.803380042314529419e-02 -5.343518257141113281e-01
6.057000000000000000e+03 6.978936004638671875e+01 5.720809459686279297e+00 5.208349823951721191e-01 9.223918318748474121e-01 4.329680204391479492e-01 -1.501602679491043091e-01
6.058000000000000000e+03 7.034722137451171875e+01 2.751500368118286133e+00 3.437377512454986572e-01 5.737022757530212402e-01 2.752320170402526855e-01 -3.660426437854766846e-01
6.059000000000000000e+03 7.131157684326171875e+01 -1.451961159706115723e+00 1.093120872974395752e-01 1.950540691614151001e-01 9.130984544754028320e-02 -5.576370358467102051e-01
6.060000000000000000e+03 7.088864898681640625e+01 -3.971433639526367188e+00 -3.521530702710151672e-02 1.958955228328704834e-01 4.820406809449195862e-02 -5.914130806922912598e-01
6.061000000000000000e+03 7.097479248046875000e+01 6.213307380676269531e+00 4.282179176807403564e-01 5.632504820823669434e-01 2.974404990673065186e-01 -1.835276186466217041e-01
6.062000000000000000e+03 6.981124114990234375e+01 5.186850547790527344e+00 4.893999695777893066e-01 8.889681696891784668e-01 4.135104417800903320e-01 -1.870947778224945068e-01
6.063000000000000000e+03 6.999184417724609375e+01 8.381002426147460938e+00 5.267598628997802734e-01 9.916732311248779297e-01 4.555299282073974609e-01 8.683659834787249565e-04
6.064000000000000000e+03 7.121922302246093750e+01 -5.314989686012268066e-01 1.542601734399795532e-01 2.293001413345336914e-01 1.150680929422378540e-01 -5.327071547508239746e-01
6.065000000000000000e+03 6.507176208496093750e+01 -2.181570529937744141e+00 2.496886700391769409e-01 1.200550556182861328e+00 4.350717365741729736e-01 -9.100283496081829071e-03
6.066000000000000000e+03 7.995041370391845703e+00 -1.238768196105957031e+01 3.467595577239990234e-01 2.018363475799560547e-01 1.645787656307220459e-01 -4.556713402271270752e-01
6.067000000000000000e+03 4.183274078369140625e+01 -1.100669956207275391e+01 -4.210821986198425293e-01 6.924493789672851562e+00 1.951023459434509277e+00 -1.443586707115173340e+00
6.068000000000000000e+03 4.108332824707031250e+01 -1.075556182861328125e+01 -6.618648767471313477e-01 7.380657672882080078e+00 2.015637874603271484e+00 -1.558636188507080078e+00
6.069000000000000000e+03 7.137654876708984375e+01 -5.657119274139404297e+00 -1.464897841215133667e-01 1.232334673404693604e-01 -6.976893637329339981e-03 -5.940603613853454590e-01
6.070000000000000000e+03 9.505394935607910156e+00 2.489219665527343750e+01 -5.869895592331886292e-02 7.318986207246780396e-02 4.347270820289850235e-03 1.178773269057273865e-01
6.071000000000000000e+03 9.251797676086425781e+00 -1.181674671173095703e+01 3.697968721389770508e-01 4.710900485515594482e-01 2.522660791873931885e-01 -4.380728900432586670e-01
6.072000000000000000e+03 8.733292579650878906e+00 1.234586429595947266e+01 -6.377056706696748734e-03 -4.345210269093513489e-03 -3.216680139303207397e-03 -5.993341328576207161e-04
6.073000000000000000e+03 7.196532440185546875e+01 1.355384826660156250e+01 3.669664263725280762e-01 3.941591382026672363e-01 2.283376753330230713e-01 2.890695631504058838e-01
6.074000000000000000e+03 7.030636596679687500e+01 2.182380294799804688e+01 -2.233612816780805588e-03 9.941701889038085938e-01 2.975809872150421143e-01 6.225364208221435547e-01
6.075000000000000000e+03 6.659302520751953125e+01 -6.360373973846435547e+00 -2.110912948846817017e-01 4.321281909942626953e-01 6.631106883287429810e-02 -3.443827331066131592e-01
6.076000000000000000e+03 6.452088928222656250e+01 -2.858442306518554688e+00 2.036903798580169678e-01 1.174597740173339844e+00 4.134864509105682373e-01 5.519590154290199280e-02
6.077000000000000000e+03 7.059172821044921875e+01 -7.096718311309814453e+00 -2.813397347927093506e-01 1.793110072612762451e-01 -3.060862049460411072e-02 -5.584896802902221680e-01
6.078000000000000000e+03 4.016673660278320312e+01 -1.104970932006835938e+01 -6.167938709259033203e-01 7.893182754516601562e+00 2.182916641235351562e+00 -1.547562718391418457e+00
6.079000000000000000e+03 4.175979232788085938e+01 -1.228226089477539062e+01 2.381142973899841309e-01 7.279850006103515625e+00 2.255389213562011719e+00 -1.252886891365051270e+00
6.080000000000000000e+03 6.995652008056640625e+01 1.078219604492187500e+01 5.250338315963745117e-01 1.084113955497741699e+00 4.827443361282348633e-01 1.588248908519744873e-01
6.081000000000000000e+03 6.314114761352539062e+01 -6.615406990051269531e+00 -1.970655620098114014e-01 6.974989771842956543e-01 1.501300334930419922e-01 2.205804586410522461e-01
6.082000000000000000e+03 7.083221435546875000e+01 1.421174240112304688e+01 4.419451057910919189e-01 8.386285901069641113e-01 3.841721117496490479e-01 3.465707600116729736e-01
6.083000000000000000e+03 6.817460632324218750e+01 -7.541421890258789062e+00 -3.682890236377716064e-01 2.795183360576629639e-01 -2.663120627403259277e-02 -4.861300289630889893e-01
6.084000000000000000e+03 6.911238098144531250e+01 7.724864482879638672e+00 5.752968192100524902e-01 1.264117121696472168e+00 5.518242120742797852e-01 1.245680544525384903e-02
6.085000000000000000e+03 6.189955520629882812e+01 -5.359989166259765625e+00 -8.352236822247505188e-03 1.125860452651977539e+00 3.352524638175964355e-01 4.499287307262420654e-01
6.086000000000000000e+03 6.223760986328125000e+01 -6.629211902618408203e+00 -2.046032994985580444e-01 8.414470553398132324e-01 1.910531371831893921e-01 3.867902755737304688e-01
6.087000000000000000e+03 6.895620727539062500e+01 4.691528379917144775e-01 2.873124480247497559e-01 7.604089379310607910e-01 3.143164217472076416e-01 -3.851690292358398438e-01
6.088000000000000000e+03 6.676361083984375000e+01 1.215518219396471977e-03 3.413602113723754883e-01 1.204601526260375977e+00 4.637885093688964844e-01 -1.820318996906280518e-01
6.089000000000000000e+03 6.567725372314453125e+01 -2.222784012556076050e-01 3.726581633090972900e-01 1.405595541000366211e+00 5.334761142730712891e-01 -2.461832761764526367e-02
6.090000000000000000e+03 4.361752319335937500e+01 -1.149665737152099609e+01 8.149202913045883179e-02 5.878147125244140625e+00 1.787891745567321777e+00 -8.688522577285766602e-01
6.091000000000000000e+03 7.081568908691406250e+01 -5.431013107299804688e+00 -1.384264528751373291e-01 1.785643249750137329e-01 1.204136479645967484e-02 -5.878678560256958008e-01
6.092000000000000000e+03 7.019580078125000000e+01 1.478187370300292969e+01 4.414131343364715576e-01 1.066692709922790527e+00 4.524317383766174316e-01 3.710078895092010498e-01
6.093000000000000000e+03 7.030028533935546875e+01 1.280114555358886719e+01 4.654438793659210205e-01 9.987439513206481934e-01 4.392563402652740479e-01 2.654884457588195801e-01
6.094000000000000000e+03 7.089710235595703125e+01 1.178515148162841797e+01 4.740291833877563477e-01 7.855809330940246582e-01 3.778830170631408691e-01 1.934278607368469238e-01
6.095000000000000000e+03 6.963500976562500000e+01 -4.062758922576904297e+00 -2.950693666934967041e-02 3.582175076007843018e-01 9.861317276954650879e-02 -5.510114431381225586e-01
6.096000000000000000e+03 6.552438354492187500e+01 -2.715434312820434570e+00 1.835109889507293701e-01 1.058625698089599609e+00 3.726409971714019775e-01 -9.748439490795135498e-02
6.097000000000000000e+03 7.037098693847656250e+01 1.608218002319335938e+01 3.858674764633178711e-01 9.955191016197204590e-01 4.144159853458404541e-01 4.457355141639709473e-01
6.098000000000000000e+03 9.338555335998535156e+00 -2.949492454528808594e+01 -1.760576665401458740e-01 4.858477413654327393e-01 9.293702244758605957e-02 2.205085307359695435e-01
6.099000000000000000e+03 3.757187652587890625e+01 2.211985015869140625e+01 8.745619654655456543e-02 5.646519660949707031e+00 1.720192790031433105e+00 7.251964211463928223e-01
6.100000000000000000e+03 6.906587982177734375e+01 6.923375606536865234e+00 5.529353618621826172e-01 1.234643936157226562e+00 5.362737774848937988e-01 -3.972108289599418640e-02
6.101000000000000000e+03 7.076496887207031250e+01 8.217989921569824219e+00 4.632827937602996826e-01 6.963132619857788086e-01 3.478788137435913086e-01 -4.172946512699127197e-02
6.102000000000000000e+03 6.348811721801757812e+01 -3.015871047973632812e+00 2.251793742179870605e-01 1.294629812240600586e+00 4.559427499771118164e-01 2.326785922050476074e-01
6.103000000000000000e+03 7.041351318359375000e+01 -4.206138610839843750e+00 -4.844725877046585083e-02 2.538862824440002441e-01 6.163170561194419861e-02 -5.815224647521972656e-01
6.104000000000000000e+03 6.626434326171875000e+01 -7.211040258407592773e-01 3.171508312225341797e-01 1.207259535789489746e+00 4.573231339454650879e-01 -1.382118165493011475e-01
6.105000000000000000e+03 6.813929748535156250e+01 4.179642677307128906e+00 5.389510989189147949e-01 1.335704684257507324e+00 5.623967051506042480e-01 -1.216329559683799744e-01
6.106000000000000000e+03 4.195699691772460938e+01 -1.284185791015625000e+01 4.980275332927703857e-01 7.286255836486816406e+00 2.335284948348999023e+00 -1.208460450172424316e+00
6.107000000000000000e+03 6.401503753662109375e+01 -3.519563436508178711e+00 1.601969450712203979e-01 1.131336092948913574e+00 3.874599039554595947e-01 1.195708811283111572e-01
6.108000000000000000e+03 8.727394104003906250e+00 2.060684013366699219e+01 -9.289421886205673218e-02 4.529776424169540405e-02 -1.427893713116645813e-02 4.674470797181129456e-02
6.109000000000000000e+03 8.147868156433105469e+00 -2.196450996398925781e+01 3.062943518161773682e-01 3.881489038467407227e-01 2.083329707384109497e-01 2.612833380699157715e-01
6.110000000000000000e+03 6.779421997070312500e+01 -8.740238100290298462e-02 3.017165660858154297e-01 9.676405191421508789e-01 3.808071315288543701e-01 -2.869612574577331543e-01
6.111000000000000000e+03 7.085278320312500000e+01 8.823041915893554688e-01 2.344337701797485352e-01 3.628363609313964844e-01 1.791810393333435059e-01 -4.737781286239624023e-01
6.112000000000000000e+03 6.265538406372070312e+01 -6.215987205505371094e+00 -1.367249637842178345e-01 8.568454980850219727e-01 2.160361558198928833e-01 3.119209110736846924e-01
6.113000000000000000e+03 9.246388435363769531e+00 2.405144691467285156e+01 -7.582657784223556519e-02 6.968350708484649658e-02 -1.842921716161072254e-03 1.091164425015449524e-01
6.114000000000000000e+03 6.351607894897460938e+01 -4.158440589904785156e+00 9.817247837781906128e-02 1.088743090629577637e+00 3.560746908187866211e-01 1.876054555177688599e-01
6.115000000000000000e+03 6.223773193359375000e+01 -5.797666072845458984e+00 -7.936143875122070312e-02 1.007516503334045410e+00 2.784465253353118896e-01 3.905988037586212158e-01
6.116000000000000000e+03 6.267494964599609375e+01 -5.440809249877929688e+00 -2.696156501770019531e-02 1.007572174072265625e+00 2.941831648349761963e-01 3.228328526020050049e-01
6.117000000000000000e+03 9.038228988647460938e+00 -1.435058116912841797e+01 5.323850512504577637e-01 5.376557111740112305e-01 3.210122287273406982e-01 -2.727594077587127686e-01
6.118000000000000000e+03 8.546895980834960938e+00 -1.355337905883789062e+01 4.459135830402374268e-01 3.694144487380981445e-01 2.445984035730361938e-01 -3.554722666740417480e-01
6.119000000000000000e+03 6.776433563232421875e+01 2.402417945861816406e+01 -2.718617618083953857e-01 1.519116163253784180e+00 3.741762936115264893e-01 4.471495747566223145e-01
6.120000000000000000e+03 6.865348052978515625e+01 3.018575477600097656e+01 -3.342779576778411865e-01 9.747117161750793457e-01 1.921301335096359253e-01 2.378148138523101807e-01
6.121000000000000000e+03 4.024192810058593750e+01 2.743875885009765625e+01 -4.758533835411071777e-01 3.896638393402099609e+00 1.026235461235046387e+00 9.417304396629333496e-01
6.122000000000000000e+03 7.027849578857421875e+01 2.258133697509765625e+01 -7.332827895879745483e-02 9.943313002586364746e-01 2.763009071350097656e-01 6.048609614372253418e-01
6.123000000000000000e+03 6.941840362548828125e+01 2.120799064636230469e+01 4.181912168860435486e-02 1.245511889457702637e+00 3.861993253231048584e-01 6.114594936370849609e-01
6.124000000000000000e+03 3.599231719970703125e+01 3.077409934997558594e+01 -9.154654145240783691e-01 4.298470973968505859e+00 1.014901757240295410e+00 1.629599928855895996e-01
6.125000000000000000e+03 7.035369873046875000e+01 2.511965179443359375e+01 -2.142214030027389526e-01 8.986184597015380859e-01 2.053191214799880981e-01 5.219361782073974609e-01
6.126000000000000000e+03 6.966389465332031250e+01 2.672082710266113281e+01 -2.953600883483886719e-01 1.002027392387390137e+00 2.120002061128616333e-01 4.254712760448455811e-01
6.127000000000000000e+03 3.731878662109375000e+01 2.418307495117187500e+01 -2.518891394138336182e-01 5.300902843475341797e+00 1.514704108238220215e+00 6.596977114677429199e-01
6.128000000000000000e+03 1.333928394317626953e+01 3.527852630615234375e+01 8.494489639997482300e-02 4.901262521743774414e-01 1.725213378667831421e-01 -4.761094599962234497e-02
6.129000000000000000e+03 5.280102539062500000e+01 3.425297546386718750e+01 -9.204960614442825317e-02 1.453266382217407227e+00 4.083650410175323486e-01 1.746882945299148560e-01
6.130000000000000000e+03 5.112708282470703125e+01 3.275893783569335938e+01 -8.986283838748931885e-02 1.562592148780822754e+00 4.418188035488128662e-01 3.140702843666076660e-01
6.131000000000000000e+03 3.509531021118164062e+01 3.451647567749023438e+01 -9.895282983779907227e-01 3.837517023086547852e+00 8.543966412544250488e-01 2.703983150422573090e-02
6.132000000000000000e+03 4.324101638793945312e+01 3.366903686523437500e+01 -5.745766162872314453e-01 2.926890373229980469e+00 7.056941390037536621e-01 5.624244213104248047e-01
6.133000000000000000e+03 6.088409805297851562e+01 3.273644638061523438e+01 -2.472213357686996460e-01 1.204510927200317383e+00 2.871868908405303955e-01 -1.535580605268478394e-01
6.134000000000000000e+03 5.804464340209960938e+01 3.563629531860351562e+01 -1.661310344934463501e-01 1.272344231605529785e+00 3.318639397621154785e-01 -4.514884203672409058e-02
6.135000000000000000e+03 1.832045364379882812e+01 3.863819885253906250e+01 -5.900065600872039795e-02 1.160264015197753906e+00 3.303790092468261719e-01 -1.552499085664749146e-01
6.136000000000000000e+03 1.556555175781250000e+01 3.595090866088867188e+01 6.955252587795257568e-02 7.334916591644287109e-01 2.409132570028305054e-01 -1.365639120340347290e-01
6.137000000000000000e+03 6.336110687255859375e+01 3.270101928710937500e+01 -3.199683427810668945e-01 1.194914102554321289e+00 2.624837160110473633e-01 -8.098085969686508179e-02
6.138000000000000000e+03 6.506232452392578125e+01 3.041540336608886719e+01 -4.068866372108459473e-01 1.282978415489196777e+00 2.628275454044342041e-01 -5.075305700302124023e-03
6.139000000000000000e+03 7.071321868896484375e+01 -3.398690938949584961e+00 4.731386434286832809e-03 2.397418171167373657e-01 7.334195822477340698e-02 -5.833696722984313965e-01
6.140000000000000000e+03 9.702946662902832031e+00 -1.048498153686523438e+01 2.579252719879150391e-01 4.884056448936462402e-01 2.238992750644683838e-01 -4.679816067218780518e-01
6.141000000000000000e+03 6.986336517333984375e+01 6.951307058334350586e-01 2.673669159412384033e-01 5.865763425827026367e-01 2.561829984188079834e-01 -4.321853816509246826e-01
6.142000000000000000e+03 7.132116699218750000e+01 -3.827240318059921265e-03 1.836951524019241333e-01 2.356417924165725708e-01 1.258010864257812500e-01 -5.243877768516540527e-01
6.143000000000000000e+03 7.076678466796875000e+01 -4.520682334899902344e+00 -7.186598330736160278e-02 1.994021981954574585e-01 3.826086595654487610e-02 -5.922204256057739258e-01
6.144000000000000000e+03 6.989754486083984375e+01 -5.678686141967773438e+00 -1.587451398372650146e-01 2.634967267513275146e-01 3.142547979950904846e-02 -5.682721734046936035e-01
6.145000000000000000e+03 1.029284572601318359e+01 -1.042410659790039062e+01 2.694109380245208740e-01 5.937267541885375977e-01 2.589412927627563477e-01 -4.295472502708435059e-01
6.146000000000000000e+03 8.356654167175292969e+00 -1.408051586151123047e+01 4.687365293502807617e-01 3.426987528800964355e-01 2.434305846691131592e-01 -3.229408860206604004e-01
6.147000000000000000e+03 7.141835784912109375e+01 1.311090183258056641e+01 4.013045728206634521e-01 5.970804691314697266e-01 2.995155155658721924e-01 2.655703723430633545e-01
6.148000000000000000e+03 7.158325958251953125e+01 1.394691085815429688e+01 3.795146346092224121e-01 5.315805673599243164e-01 2.733285427093505859e-01 3.110786080360412598e-01
6.149000000000000000e+03 6.995909118652343750e+01 2.198846340179443359e+00 3.365166187286376953e-01 6.519392132759094238e-01 2.965367436408996582e-01 -3.710119724273681641e-01
6.150000000000000000e+03 9.990290641784667969e+00 -1.251511955261230469e+01 4.728458225727081299e-01 6.971440315246582031e-01 3.509969711303710938e-01 -3.483666181564331055e-01
6.151000000000000000e+03 6.454659271240234375e+01 -4.000312328338623047e+00 9.148332476615905762e-02 9.828647375106811523e-01 3.223044276237487793e-01 1.539472676813602448e-02
6.152000000000000000e+03 6.735696411132812500e+01 -7.003568649291992188e+00 -2.983526289463043213e-01 3.281893432140350342e-01 8.951012976467609406e-03 -4.292965233325958252e-01
6.153000000000000000e+03 7.012256622314453125e+01 9.115344047546386719e+00 5.211701989173889160e-01 9.761084318161010742e-01 4.491835832595825195e-01 5.253661796450614929e-02
6.154000000000000000e+03 6.723269653320312500e+01 -4.555449187755584717e-01 3.108975291252136230e-01 1.053577065467834473e+00 4.093423783779144287e-01 -2.418530285358428955e-01
6.155000000000000000e+03 7.087494659423828125e+01 -1.014244318008422852e+00 1.402686983346939087e-01 2.732301950454711914e-01 1.240496709942817688e-01 -5.415630936622619629e-01
6.156000000000000000e+03 7.050019836425781250e+01 -2.741268873214721680e+00 5.183244496583938599e-02 2.970061600208282471e-01 1.046515852212905884e-01 -5.639627575874328613e-01
6.157000000000000000e+03 7.144381713867187500e+01 5.613956928253173828e+00 3.840362429618835449e-01 3.757599592208862305e-01 2.279388606548309326e-01 -2.415277361869812012e-01
6.158000000000000000e+03 7.153043365478515625e+01 6.617728233337402344e+00 3.818577229976654053e-01 3.600850999355316162e-01 2.225828468799591064e-01 -1.817075759172439575e-01
6.159000000000000000e+03 7.105593872070312500e+01 -1.968689084053039551e+00 9.124214202165603638e-02 2.291821986436843872e-01 9.612730145454406738e-02 -5.706902146339416504e-01
6.160000000000000000e+03 6.569919586181640625e+01 -1.487444281578063965e+00 2.765615880489349365e-01 1.201281666755676270e+00 4.433529675006866455e-01 -8.484944701194763184e-02
6.161000000000000000e+03 7.062120819091796875e+01 4.123196125030517578e+00 3.798391222953796387e-01 5.781645774841308594e-01 2.874011099338531494e-01 -3.019923567771911621e-01
6.162000000000000000e+03 6.893563842773437500e+01 4.183918952941894531e+00 4.841971099376678467e-01 1.069398641586303711e+00 4.660786986351013184e-01 -1.872048676013946533e-01
6.163000000000000000e+03 7.047233581542968750e+01 5.219562530517578125e+00 4.333074688911437988e-01 6.752184033393859863e-01 3.325577676296234131e-01 -2.295610457658767700e-01
6.164000000000000000e+03 8.635542869567871094e+00 -1.240856933593750000e+01 3.850505053997039795e-01 3.516239225864410400e-01 2.210023254156112671e-01 -4.339840412139892578e-01
6.165000000000000000e+03 8.640274047851562500e+00 -1.299812126159667969e+01 4.221665263175964355e-01 3.723353743553161621e-01 2.383505702018737793e-01 -3.968136608600616455e-01
6.166000000000000000e+03 6.711284637451171875e+01 -3.076871633529663086e+00 1.019014418125152588e-01 7.573665976524353027e-01 2.577804327011108398e-01 -3.181007504463195801e-01
6.167000000000000000e+03 6.983277130126953125e+01 6.240321159362792969e+00 4.910954535007476807e-01 9.167684912681579590e-01 4.223591685295104980e-01 -1.209138035774230957e-01
6.168000000000000000e+03 4.062959671020507812e+01 -9.841464042663574219e+00 -1.258076310157775879e+00 7.666855812072753906e+00 1.922633886337280273e+00 -1.707965731620788574e+00
6.169000000000000000e+03 6.409627532958984375e+01 -6.451897621154785156e+00 -1.782215088605880737e-01 6.196869611740112305e-01 1.324396431446075439e-01 4.824597388505935669e-02
6.170000000000000000e+03 6.859976959228515625e+01 -5.265219688415527344e+00 -1.193354278802871704e-01 3.918552994728088379e-01 8.175595849752426147e-02 -5.023596286773681641e-01
6.171000000000000000e+03 8.582655906677246094e+00 1.302149295806884766e+01 -8.564502932131290436e-03 -4.387436900287866592e-03 -3.885581856593489647e-03 -7.964863325469195843e-04
6.172000000000000000e+03 6.957986450195312500e+01 2.194399261474609375e+01 -1.920748129487037659e-02 1.194146513938903809e+00 3.524817228317260742e-01 6.064047217369079590e-01
6.173000000000000000e+03 6.947022247314453125e+01 2.337761497497558594e+01 -1.503435671329498291e-01 1.164922595024108887e+00 3.043737113475799561e-01 5.662304162979125977e-01
6.174000000000000000e+03 7.030747222900390625e+01 -5.092496871948242188e+00 -1.192564591765403748e-01 2.386385649442672729e-01 3.581463173031806946e-02 -5.823783278465270996e-01
6.175000000000000000e+03 7.065499114990234375e+01 7.546004772186279297e+00 4.724223613739013672e-01 7.142035961151123047e-01 3.559877872467041016e-01 -7.429601252079010010e-02
6.176000000000000000e+03 6.829889678955078125e+01 4.950356006622314453e+00 5.628657341003417969e-01 1.355617046356201172e+00 5.755448341369628906e-01 -9.155468642711639404e-02
6.177000000000000000e+03 6.839511108398437500e+01 3.435560226440429688e+00 4.913029670715332031e-01 1.181390404701232910e+00 5.018079876899719238e-01 -1.906093358993530273e-01
6.178000000000000000e+03 7.017253112792968750e+01 -3.687149286270141602e+00 -1.146144140511751175e-02 2.956321835517883301e-01 8.525122702121734619e-02 -5.661721825599670410e-01
6.179000000000000000e+03 6.824848937988281250e+01 2.162448883056640625e+00 4.061028361320495605e-01 1.068614482879638672e+00 4.424152076244354248e-01 -2.489544004201889038e-01
6.180000000000000000e+03 6.948236083984375000e+01 -6.142604351043701172e+00 -2.151069343090057373e-01 2.742113769054412842e-01 1.773132942616939545e-02 -5.504034757614135742e-01
6.181000000000000000e+03 6.840960693359375000e+01 7.511857748031616211e-01 3.459038138389587402e-01 9.289398789405822754e-01 3.824531137943267822e-01 -3.138844668865203857e-01
6.182000000000000000e+03 6.500690460205078125e+01 -3.345189332962036133e+00 1.482024043798446655e-01 1.027036428451538086e+00 3.525716662406921387e-01 -3.875797241926193237e-02
6.183000000000000000e+03 7.100865936279296875e+01 1.364555072784423828e+01 4.228229224681854248e-01 7.582184076309204102e-01 3.543123900890350342e-01 3.032258152961730957e-01
6.184000000000000000e+03 6.966231536865234375e+01 1.614359092712402344e+01 4.219185411930084229e-01 1.266238689422607422e+00 5.064471364021301270e-01 4.433321356773376465e-01
6.185000000000000000e+03 6.733463287353515625e+01 5.425741672515869141e-01 3.591985702514648438e-01 1.126351714134216309e+00 4.456650912761688232e-01 -2.206212580204010010e-01
6.186000000000000000e+03 6.889695739746093750e+01 -1.346610188484191895e+00 1.775530874729156494e-01 6.468001008033752441e-01 2.473059445619583130e-01 -4.374223351478576660e-01
6.187000000000000000e+03 7.041352844238281250e+01 3.020413219928741455e-01 2.275367826223373413e-01 4.347723126411437988e-01 1.986927241086959839e-01 -4.795389771461486816e-01
6.188000000000000000e+03 6.547210693359375000e+01 -3.809137821197509766e+00 8.319731801748275757e-02 8.993231058120727539e-01 2.947561144828796387e-01 -1.274567246437072754e-01
6.189000000000000000e+03 7.118365478515625000e+01 7.195583343505859375e+00 4.341939091682434082e-01 5.191007852554321289e-01 2.859883904457092285e-01 -1.202026754617691040e-01
6.190000000000000000e+03 6.317612075805664062e+01 -5.241868495941162109e+00 -1.230311766266822815e-02 9.531487226486206055e-01 2.822536826133728027e-01 2.234574109315872192e-01
6.191000000000000000e+03 7.725955963134765625e+00 -1.376854610443115234e+01 4.003213942050933838e-01 1.659534424543380737e-01 1.698824465274810791e-01 -3.647416830062866211e-01
6.192000000000000000e+03 6.735142517089843750e+01 2.506055259704589844e+01 -3.578228354454040527e-01 1.531273841857910156e+00 3.520353138446807861e-01 3.512076437473297119e-01
6.193000000000000000e+03 6.555609130859375000e+01 2.900473976135253906e+01 -4.333087801933288574e-01 1.371825814247131348e+00 2.815550863742828369e-01 3.672052547335624695e-02
6.194000000000000000e+03 6.673458862304687500e+01 2.608254051208496094e+01 -4.197533428668975830e-01 1.543842554092407227e+00 3.372267782688140869e-01 2.592874765396118164e-01
6.195000000000000000e+03 3.943033981323242188e+01 2.617932891845703125e+01 -4.001576006412506104e-01 4.298084735870361328e+00 1.169378042221069336e+00 9.669407010078430176e-01
6.196000000000000000e+03 3.867481231689453125e+01 2.742849159240722656e+01 -5.752950906753540039e-01 4.294845104217529297e+00 1.115864992141723633e+00 7.404672503471374512e-01
6.197000000000000000e+03 1.227882099151611328e+01 2.771978569030761719e+01 4.297055676579475403e-02 1.646773070096969604e-01 6.229436025023460388e-02 8.203402906656265259e-02
6.198000000000000000e+03 6.547738647460937500e+01 3.230937576293945312e+01 -3.459575474262237549e-01 1.142918467521667480e+00 2.390882670879364014e-01 1.411984208971261978e-02
6.199000000000000000e+03 5.577073287963867188e+01 3.290325546264648438e+01 -7.300271093845367432e-02 1.199926972389221191e+00 3.380772769451141357e-01 -1.702344045042991638e-02
6.200000000000000000e+03 9.178618431091308594e+00 -1.116652011871337891e+01 3.080031871795654297e-01 4.209753572940826416e-01 2.186935693025588989e-01 -4.739201068878173828e-01
6.201000000000000000e+03 7.035282897949218750e+01 5.870459079742431641e+00 4.746526479721069336e-01 7.349002957344055176e-01 3.628658950328826904e-01 -1.732670515775680542e-01
6.202000000000000000e+03 7.030323791503906250e+01 -1.214680552482604980e+00 1.463980078697204590e-01 3.965664803981781006e-01 1.628893464803695679e-01 -5.234568715095520020e-01
6.203000000000000000e+03 6.615244293212890625e+01 -2.122897148132324219e+00 2.185047566890716553e-01 1.038259029388427734e+00 3.770291507244110107e-01 -1.671003699302673340e-01
6.204000000000000000e+03 6.814064025878906250e+01 -6.832278728485107422e+00 -2.916982471942901611e-01 3.233529925346374512e-01 9.496417827904224396e-03 -4.859164655208587646e-01
6.205000000000000000e+03 7.056017303466796875e+01 1.040675640106201172e+01 4.932054579257965088e-01 8.680591583251953125e-01 4.083793759346008301e-01 1.208384260535240173e-01
6.206000000000000000e+03 6.966146850585937500e+01 3.156329631805419922e+00 4.130680263042449951e-01 8.056104183197021484e-01 3.656035363674163818e-01 -3.017586469650268555e-01
6.207000000000000000e+03 6.974858093261718750e+01 4.607686996459960938e+00 4.445616602897644043e-01 8.495100140571594238e-01 3.882215023040771484e-01 -2.285165786743164062e-01
6.208000000000000000e+03 6.970332336425781250e+01 -1.960188984870910645e+00 1.201647967100143433e-01 4.587776660919189453e-01 1.736827343702316284e-01 -5.106463432312011719e-01
6.209000000000000000e+03 6.821063232421875000e+01 -3.597989797592163086e+00 3.449844196438789368e-02 5.665552020072937012e-01 1.803160905838012695e-01 -4.491969048976898193e-01
6.210000000000000000e+03 6.903877258300781250e+01 4.736686706542968750e+00 5.063611865043640137e-01 1.078832030296325684e+00 4.755579829216003418e-01 -1.571784466505050659e-01
6.211000000000000000e+03 7.024342346191406250e+01 1.264076948165893555e+00 2.831153571605682373e-01 5.276343822479248047e-01 2.432249188423156738e-01 -4.302927255630493164e-01
6.212000000000000000e+03 6.351908111572265625e+01 -6.068158149719238281e+00 -1.170357316732406616e-01 7.467705607414245605e-01 1.889204531908035278e-01 1.611070483922958374e-01
6.213000000000000000e+03 6.511679840087890625e+01 -6.170300006866455078e+00 -1.616812944412231445e-01 5.521952509880065918e-01 1.171541959047317505e-01 -1.342055201530456543e-01
6.214000000000000000e+03 6.592924499511718750e+01 -3.257489204406738281e+00 1.259973198175430298e-01 9.191299080848693848e-01 3.135381639003753662e-01 -1.762678176164627075e-01
6.215000000000000000e+03 7.041664123535156250e+01 -6.225508451461791992e-01 1.848356425762176514e-01 4.103122651576995850e-01 1.785443723201751709e-01 -5.095441937446594238e-01
6.216000000000000000e+03 6.928529357910156250e+01 1.040623664855957031e+00 3.142804205417633057e-01 7.375699877738952637e-01 3.155551254749298096e-01 -3.795678913593292236e-01
6.217000000000000000e+03 6.808312225341796875e+01 1.558855772018432617e+00 3.975263833999633789e-01 1.076029062271118164e+00 4.420666098594665527e-01 -2.630716860294342041e-01
6.218000000000000000e+03 6.411135864257812500e+01 -4.676348686218261719e+00 3.274854272603988647e-02 9.241624474525451660e-01 2.870732843875885010e-01 7.709674537181854248e-02
6.219000000000000000e+03 6.924137115478515625e+01 2.572944164276123047e+00 3.906326889991760254e-01 8.666720986366271973e-01 3.771914243698120117e-01 -3.023076355457305908e-01
6.220000000000000000e+03 6.887952423095703125e+01 -6.526201248168945312e+00 -2.505444288253784180e-01 2.988817393779754639e-01 1.450119912624359131e-02 -5.260667204856872559e-01
6.221000000000000000e+03 6.688503265380859375e+01 -1.026843309402465820e+00 2.703454792499542236e-01 1.057663798332214355e+00 3.984027802944183350e-01 -2.280055135488510132e-01
6.222000000000000000e+03 6.847946166992187500e+01 2.801533699035644531e+00 4.401913285255432129e-01 1.075671911239624023e+00 4.547589719295501709e-01 -2.337210923433303833e-01
6.223000000000000000e+03 6.730895996093750000e+01 -6.288264274597167969e+00 -2.155814468860626221e-01 4.046702980995178223e-01 5.672665685415267944e-02 -4.095230698585510254e-01
6.224000000000000000e+03 6.990308380126953125e+01 -4.640825271606445312e+00 -7.804053276777267456e-02 2.944390773773193359e-01 6.491956859827041626e-02 -5.666358470916748047e-01
6.225000000000000000e+03 6.645105743408203125e+01 -2.779680252075195312e+00 1.426956653594970703e-01 8.963516354560852051e-01 3.117142021656036377e-01 -2.334240823984146118e-01
6.226000000000000000e+03 6.691828918457031250e+01 -1.784928917884826660e+00 2.176084369421005249e-01 9.604061841964721680e-01 3.534044027328491211e-01 -2.589011490345001221e-01
6.227000000000000000e+03 6.633555603027343750e+01 -3.778526544570922852e+00 5.896231159567832947e-02 7.818309664726257324e-01 2.522379755973815918e-01 -2.520785927772521973e-01
6.228000000000000000e+03 6.379304885864257812e+01 -5.393320560455322266e+00 -3.981273248791694641e-02 8.452389836311340332e-01 2.416278719902038574e-01 1.175484657287597656e-01
6.229000000000000000e+03 6.507749938964843750e+01 -4.414942741394042969e+00 3.811227157711982727e-02 8.432383537292480469e-01 2.644051909446716309e-01 -8.454005420207977295e-02
6.230000000000000000e+03 7.063610839843750000e+01 6.901858329772949219e+00 4.724147021770477295e-01 7.088533043861389160e-01 3.543803989887237549e-01 -1.166730448603630066e-01
6.231000000000000000e+03 6.933193969726562500e+01 2.553849601745605469e+01 -2.787342667579650879e-01 1.114403843879699707e+00 2.507008612155914307e-01 4.626128375530242920e-01
6.232000000000000000e+03 4.676489257812500000e+01 3.544267654418945312e+01 -3.699152767658233643e-01 2.303079605102539062e+00 5.799492597579956055e-01 4.092634022235870361e-01
6.233000000000000000e+03 4.086769866943359375e+01 3.125960159301757812e+01 -6.573090553283691406e-01 3.476684808731079102e+00 8.458126783370971680e-01 6.911079883575439453e-01
6.234000000000000000e+03 4.991828155517578125e+01 3.114678001403808594e+01 -6.919212639331817627e-02 1.599349617958068848e+00 4.590472579002380371e-01 4.780060052871704102e-01
6.235000000000000000e+03 4.027368164062500000e+01 3.379896163940429688e+01 -7.883967757225036621e-01 3.462076902389526367e+00 8.021040558815002441e-01 4.754117131233215332e-01
6.236000000000000000e+03 6.996908569335937500e+01 -2.260773330926895142e-01 2.107084393501281738e-01 4.958288073539733887e-01 2.119611799716949463e-01 -4.770876765251159668e-01
6.237000000000000000e+03 6.936351776123046875e+01 -3.483039140701293945e+00 2.145069651305675507e-02 4.176042675971984863e-01 1.317164897918701172e-01 -5.232471823692321777e-01
6.238000000000000000e+03 7.038715362548828125e+01 -1.972138762474060059e+00 1.041136085987091064e-01 3.461842238903045654e-01 1.350893527269363403e-01 -5.441610217094421387e-01
6.239000000000000000e+03 6.807270050048828125e+01 -7.588834762573242188e-01 2.432559281587600708e-01 8.344590067863464355e-01 3.233144879341125488e-01 -3.542918860912322998e-01
6.240000000000000000e+03 6.935752868652343750e+01 -5.636434078216552734e+00 -1.581005901098251343e-01 3.027738630771636963e-01 4.340197890996932983e-02 -5.492942333221435547e-01
6.241000000000000000e+03 6.907307434082031250e+01 -4.401908874511718750e+00 -4.613033682107925415e-02 3.987451791763305664e-01 1.057844534516334534e-01 -5.228697061538696289e-01
6.242000000000000000e+03 6.762353515625000000e+01 -1.573917269706726074e+00 2.079396247863769531e-01 8.480413556098937988e-01 3.167942762374877930e-01 -3.333884477615356445e-01
6.243000000000000000e+03 6.871009826660156250e+01 -5.901158809661865234e+00 -1.879336684942245483e-01 3.500218093395233154e-01 4.862644150853157043e-02 -5.156353712081909180e-01
6.244000000000000000e+03 6.868627166748046875e+01 1.336047291755676270e+00 3.624854683876037598e-01 9.097030758857727051e-01 3.816565573215484619e-01 -3.122494816780090332e-01
6.245000000000000000e+03 6.444377136230468750e+01 -5.777877807617187500e+00 -9.314597398042678833e-02 6.948140263557434082e-01 1.805004179477691650e-01 -5.949182901531457901e-03
6.246000000000000000e+03 6.921257781982421875e+01 5.702358245849609375e+00 5.334625244140625000e-01 1.101223468780517578e+00 4.904057979583740234e-01 -1.225119084119796753e-01
6.247000000000000000e+03 6.920050048828125000e+01 5.237915992736816406e+00 5.387931466102600098e-01 1.066444635391235352e+00 4.815713167190551758e-01 -1.393320113420486450e-01
6.248000000000000000e+03 6.782963562011718750e+01 1.025461077690124512e+00 3.694137334823608398e-01 1.088694810867309570e+00 4.374325573444366455e-01 -2.550129592418670654e-01
6.249000000000000000e+03 6.707128906250000000e+01 -2.506519317626953125e+00 1.511228829622268677e-01 8.362794518470764160e-01 2.962207198143005371e-01 -3.045772612094879150e-01
6.250000000000000000e+03 6.871762847900390625e+01 5.485353946685791016e+00 5.524756312370300293e-01 1.273461341857910156e+00 5.477811098098754883e-01 -9.183856844902038574e-02
6.251000000000000000e+03 6.803938293457031250e+01 -2.012943506240844727e+00 1.639431565999984741e-01 7.394186854362487793e-01 2.710085511207580566e-01 -3.872852921485900879e-01
6.252000000000000000e+03 6.844823455810546875e+01 1.316432207822799683e-01 2.901194095611572266e-01 8.556640744209289551e-01 3.437350392341613770e-01 -3.515373170375823975e-01
6.253000000000000000e+03 6.754965209960937500e+01 -3.121234893798828125e+00 9.287253767251968384e-02 7.065326571464538574e-01 2.398215532302856445e-01 -3.671797215938568115e-01
6.254000000000000000e+03 6.794175720214843750e+01 -5.458922386169433594e+00 -1.338180452585220337e-01 4.355717599391937256e-01 9.052611887454986572e-02 -4.561652839183807373e-01
6.255000000000000000e+03 6.956570434570312500e+01 4.049815654754638672e+00 4.318792521953582764e-01 8.546224236488342285e-01 3.859505057334899902e-01 -2.446946203708648682e-01
6.256000000000000000e+03 6.474628448486328125e+01 -5.081447124481201172e+00 -2.674425020813941956e-02 7.640950083732604980e-01 2.212052345275878906e-01 -4.676363244652748108e-02
6.257000000000000000e+03 6.662770080566406250e+01 -5.601792812347412109e+00 -1.244037225842475891e-01 5.158808827400207520e-01 1.174431443214416504e-01 -3.265927135944366455e-01
6.258000000000000000e+03 6.948740386962890625e+01 1.369482129812240601e-01 2.567833065986633301e-01 6.428623199462890625e-01 2.698936760425567627e-01 -4.259169399738311768e-01
6.259000000000000000e+03 6.961493682861328125e+01 1.620772242546081543e+00 3.280545175075531006e-01 7.037050127983093262e-01 3.095278739929199219e-01 -3.746271729469299316e-01
6.260000000000000000e+03 6.960702514648437500e+01 -1.219033718109130859e+00 1.635601669549942017e-01 5.167389512062072754e-01 2.040897458791732788e-01 -4.814043343067169189e-01
6.261000000000000000e+03 6.942527770996093750e+01 -4.893387258052825928e-01 2.208774983882904053e-01 6.064200997352600098e-01 2.481892853975296021e-01 -4.492940008640289307e-01
6.262000000000000000e+03 6.598990631103515625e+01 -5.569356441497802734e+00 -1.045244559645652771e-01 5.792471170425415039e-01 1.424168050289154053e-01 -2.512129545211791992e-01
6.263000000000000000e+03 6.902356719970703125e+01 -2.942206382751464844e+00 6.195809692144393921e-02 4.927895665168762207e-01 1.664243042469024658e-01 -4.936642944812774658e-01
6.264000000000000000e+03 6.848545837402343750e+01 -4.651205539703369141e+00 -6.660337001085281372e-02 4.477091133594512939e-01 1.143317222595214844e-01 -4.881697893142700195e-01
6.265000000000000000e+03 6.667308044433593750e+01 -4.829505920410156250e+00 -3.892029449343681335e-02 6.087194681167602539e-01 1.709397435188293457e-01 -3.167380690574645996e-01
6.266000000000000000e+03 6.821841430664062500e+01 -2.877124071121215820e+00 9.397393465042114258e-02 6.314169168472290039e-01 2.176172435283660889e-01 -4.295705854892730713e-01
6.267000000000000000e+03 6.949460601806640625e+01 -2.532181262969970703e+00 8.228136599063873291e-02 4.516453444957733154e-01 1.601780056953430176e-01 -5.138812661170959473e-01
6.268000000000000000e+03 6.886104583740234375e+01 -3.828634738922119141e+00 1.951989717781543732e-03 4.600587189197540283e-01 1.386032104492187500e-01 -5.046480298042297363e-01
6.269000000000000000e+03 6.743104553222656250e+01 -3.647351503372192383e+00 5.097700282931327820e-02 6.533521413803100586e-01 2.112987488508224487e-01 -3.632903993129730225e-01
6.270000000000000000e+03 6.822945404052734375e+01 -1.428239107131958008e+00 1.908702999353408813e-01 7.474605441093444824e-01 2.814992666244506836e-01 -3.860745728015899658e-01
6.271000000000000000e+03 6.558208465576171875e+01 -4.740279674530029297e+00 -1.113120932132005692e-02 7.399406433105468750e-01 2.186428308486938477e-01 -1.691414117813110352e-01
6.272000000000000000e+03 6.536373901367187500e+01 -5.404963016510009766e+00 -7.002425193786621094e-02 6.649976968765258789e-01 1.784920245409011841e-01 -1.544746458530426025e-01
6.273000000000000000e+03 6.659979248046875000e+01 -7.111594200134277344e+00 -3.019551336765289307e-01 3.625422120094299316e-01 1.817612536251544952e-02 -3.513448536396026611e-01
6.274000000000000000e+03 6.591677856445312500e+01 -4.255274772644042969e+00 3.642301261425018311e-02 7.659558653831481934e-01 2.407136559486389160e-01 -2.083189338445663452e-01
6.275000000000000000e+03 6.670912170410156250e+01 -3.287255048751831055e+00 9.773263335227966309e-02 7.883687615394592285e-01 2.658304274082183838e-01 -2.859467864036560059e-01
6.276000000000000000e+03 6.926985168457031250e+01 -5.013540267944335938e+00 -1.080599799752235413e-01 3.463451564311981201e-01 7.148555666208267212e-02 -5.428317189216613770e-01
6.277000000000000000e+03 6.609510040283203125e+01 -4.832745552062988281e+00 -3.195185959339141846e-02 6.712297797203063965e-01 1.917833834886550903e-01 -2.469452619552612305e-01
6.278000000000000000e+03 6.873274230957031250e+01 -5.781424045562744141e-01 2.338173985481262207e-01 7.354360222816467285e-01 2.907760441303253174e-01 -3.972420096397399902e-01
6.279000000000000000e+03 6.770347595214843750e+01 -2.563767433166503906e+00 1.340427100658416748e-01 7.428908348083496094e-01 2.630800604820251465e-01 -3.673865795135498047e-01
6.280000000000000000e+03 6.910398864746093750e+01 -2.036409854888916016e+00 1.354748308658599854e-01 5.661939978599548340e-01 2.105006575584411621e-01 -4.683979749679565430e-01
6.281000000000000000e+03 6.859792327880859375e+01 -2.415327548980712891e+00 1.214231699705123901e-01 6.038457155227661133e-01 2.175806611776351929e-01 -4.432798922061920166e-01
6.282000000000000000e+03 6.859323120117187500e+01 -3.310230016708374023e+00 5.253289639949798584e-02 5.349354147911071777e-01 1.762404888868331909e-01 -4.717157185077667236e-01
6.283000000000000000e+03 6.835977935791015625e+01 -4.081120014190673828e+00 -7.967831566929817200e-03 5.061084628105163574e-01 1.494421809911727905e-01 -4.686697721481323242e-01
6.284000000000000000e+03 6.733104705810546875e+01 -4.219695091247558594e+00 3.846652980428189039e-04 6.004987359046936035e-01 1.802650243043899536e-01 -3.738504648208618164e-01
6.285000000000000000e+03 6.783467864990234375e+01 -3.700783729553222656e+00 3.539686277508735657e-02 6.070426106452941895e-01 1.927318423986434937e-01 -4.100913107395172119e-01
6.286000000000000000e+03 6.681079101562500000e+01 -4.115163326263427734e+00 2.316132374107837677e-02 6.736606359481811523e-01 2.090465873479843140e-01 -3.116774857044219971e-01
6.287000000000000000e+03 6.794680023193359375e+01 -3.282051086425781250e+00 7.463383674621582031e-02 6.385892629623413086e-01 2.139669209718704224e-01 -4.099412560462951660e-01
6.288000000000000000e+03 6.788330078125000000e+01 -4.809676647186279297e+00 -6.692598015069961548e-02 4.935723543167114258e-01 1.279939115047454834e-01 -4.398993551731109619e-01
6.289000000000000000e+03 5.096182250976562500e+01 3.640092086791992188e+01 -2.164055407047271729e-01 1.801842331886291504e+00 4.756310284137725830e-01 2.234908789396286011e-01
6.290000000000000000e+03 6.156436157226562500e+01 3.840001678466796875e+01 -2.047839611768722534e-01 1.129284381866455078e+00 2.773501276969909668e-01 -2.760661579668521881e-02
6.291000000000000000e+03 1.225376987457275391e+01 3.739888381958007812e+01 7.756640017032623291e-02 4.464992582798004150e-01 1.572196930646896362e-01 -7.968967780470848083e-03
6.292000000000000000e+03 2.257535362243652344e+01 3.837728881835937500e+01 -3.052227497100830078e-01 1.936472177505493164e+00 4.893748462200164795e-01 -3.021773099899291992e-01
6.293000000000000000e+03 3.629772567749023438e+01 3.753370666503906250e+01 -9.863238334655761719e-01 3.576197147369384766e+00 7.769619822502136230e-01 8.148866891860961914e-02
6.294000000000000000e+03 4.386316680908203125e+01 3.640747451782226562e+01 -6.075028181076049805e-01 2.838343858718872070e+00 6.692522764205932617e-01 3.754534125328063965e-01
6.295000000000000000e+03 4.816834640502929688e+01 3.796469879150390625e+01 -3.539534807205200195e-01 2.159762144088745117e+00 5.417426228523254395e-01 2.607657313346862793e-01
6.296000000000000000e+03 5.390241241455078125e+01 3.796231079101562500e+01 -1.851890832185745239e-01 1.582783102989196777e+00 4.192782044410705566e-01 8.022052794694900513e-02
6.297000000000000000e+03 5.755553436279296875e+01 4.118782424926757812e+01 -1.737340688705444336e-01 1.334012269973754883e+00 3.480834662914276123e-01 -2.961476100608706474e-03
6.298000000000000000e+03 1.339808750152587891e+01 4.102162551879882812e+01 4.290191084146499634e-02 5.702266693115234375e-01 1.839385628700256348e-01 -8.291223086416721344e-03
6.299000000000000000e+03 6.904319763183593750e+01 -1.853243255615234375e+01 1.082122689695097506e-04 1.626992016099393368e-03 5.205612978897988796e-04 1.377106644213199615e-03
6.300000000000000000e+03 1.487653636932373047e+01 2.082795143127441406e+01 -3.419547080993652344e-01 -3.120396845042705536e-02 -1.119475960731506348e-01 -1.060657352209091187e-01
6.301000000000000000e+03 4.567433929443359375e+01 -1.736094093322753906e+01 2.545869112014770508e+00 1.044240379333496094e+01 3.896481990814208984e+00 2.844751119613647461e+00
6.302000000000000000e+03 5.219303131103515625e+01 -5.438419342041015625e+00 -1.482776165008544922e+00 1.524143695831298828e+00 1.241025701165199280e-02 1.537028908729553223e+00
6.303000000000000000e+03 2.258709144592285156e+01 3.613965749740600586e+00 4.086820354132214561e-06 -9.724332630867138505e-05 -2.794695137708913535e-05 1.084611540136393160e-05
6.304000000000000000e+03 7.812438201904296875e+01 4.045958328247070312e+01 -8.866382762789726257e-03 3.806990012526512146e-02 8.761054836213588715e-03 2.431023493409156799e-02
6.305000000000000000e+03 3.067995262145996094e+01 -9.561657905578613281e-01 1.583421826362609863e+00 1.671668052673339844e+00 9.765269756317138672e-01 1.214796781539916992e+00
6.306000000000000000e+03 3.066806221008300781e+01 -1.560974121093750000e+00 1.366415977478027344e+00 1.891297936439514160e+00 9.773141741752624512e-01 1.213972687721252441e+00
6.307000000000000000e+03 1.997958564758300781e+01 -2.880131149291992188e+01 -1.084327846765518188e-01 5.806921124458312988e-01 1.416777968406677246e-01 -3.350815474987030029e-01
6.308000000000000000e+03 1.276553153991699219e+01 2.043842506408691406e+01 -1.982312649488449097e-01 5.238841474056243896e-02 -4.375285655260086060e-02 -2.723764628171920776e-02
6.309000000000000000e+03 6.799816131591796875e+01 -1.281905174255371094e+01 -8.188126683235168457e-01 1.167534738779067993e-01 -2.106177657842636108e-01 6.563022732734680176e-02
6.310000000000000000e+03 7.393614196777343750e+01 -3.825595474243164062e+01 3.269126266241073608e-02 -7.046086341142654419e-02 -1.133088022470474243e-02 5.587020516395568848e-02
6.311000000000000000e+03 3.435252761840820312e+01 3.790613174438476562e+00 1.779863595962524414e+00 1.454988002777099609e+01 4.898922920227050781e+00 6.633026599884033203e-01
6.312000000000000000e+03 3.250392532348632812e+01 1.733847999572753906e+01 1.764828324317932129e+00 1.025444507598876953e+01 3.605782032012939453e+00 -2.982548236846923828e+00
6.313000000000000000e+03 4.308988952636718750e+01 -4.785614967346191406e+00 -2.101184129714965820e+00 3.116808652877807617e+00 3.046873509883880615e-01 -1.986645817756652832e+00
6.314000000000000000e+03 7.776097106933593750e+01 -3.958386611938476562e+01 6.385874468833208084e-03 -1.378810852766036987e-01 -3.944856300950050354e-02 1.522392407059669495e-02
6.315000000000000000e+03 7.797102355957031250e+01 -3.798436355590820312e+01 6.686323788017034531e-03 -1.280954778194427490e-01 -3.642274439334869385e-02 2.459144592285156250e-02
6.316000000000000000e+03 1.313475608825683594e+00 3.803600692749023438e+01 1.223750226199626923e-02 -4.164191186428070068e-01 -1.212544813752174377e-01 1.454164180904626846e-02
6.317000000000000000e+03 2.259631156921386719e+00 3.815524291992187500e+01 1.429449766874313354e-02 -3.195988535881042480e-01 -9.159130603075027466e-02 3.340480849146842957e-02
6.318000000000000000e+03 7.769699096679687500e+01 3.719702148437500000e+01 -1.395589020103216171e-02 1.349100936204195023e-02 -1.394642313243821263e-04 6.017294898629188538e-02
6.319000000000000000e+03 7.815446472167968750e+01 3.767549896240234375e+01 -7.867309264838695526e-03 7.843461353331804276e-04 -2.124889055266976357e-03 4.422013461589813232e-02
6.320000000000000000e+03 3.139122009277343750e+00 -3.695624542236328125e+01 -3.467003628611564636e-02 -4.547082185745239258e-01 -1.468134671449661255e-01 8.286471664905548096e-02
6.321000000000000000e+03 3.006270027160644531e+01 -2.101915359497070312e+00 1.215306043624877930e+00 1.319816589355468750e+00 7.605367898941040039e-01 9.873875379562377930e-01
6.322000000000000000e+03 2.918814468383789062e+01 2.120276451110839844e+01 2.773575782775878906e+00 5.775223731994628906e+00 2.564639806747436523e+00 -3.149013042449951172e+00
6.323000000000000000e+03 5.185880279541015625e+01 2.289825248718261719e+01 -3.343712687492370605e-01 2.467219084501266479e-01 -2.629481069743633270e-02 1.901289075613021851e-01
6.324000000000000000e+03 4.501044464111328125e+01 -2.838261222839355469e+01 9.697825312614440918e-01 8.343383789062500000e+00 2.793949842453002930e+00 -1.562270164489746094e+00
6.325000000000000000e+03 4.419311141967773438e+01 -2.141889572143554688e+01 1.042558908462524414e+00 1.268804931640625000e+01 4.119182586669921875e+00 -1.559389531612396240e-01
6.326000000000000000e+03 2.468643903732299805e+00 3.729563522338867188e+01 8.950623683631420135e-03 -2.972686290740966797e-01 -8.649539947509765625e-02 3.453735262155532837e-02
6.327000000000000000e+03 7.784815216064453125e+01 -3.725260925292968750e+01 5.542572587728500366e-03 -1.177497506141662598e-01 -3.366215527057647705e-02 2.907568961381912231e-02
6.328000000000000000e+03 7.726174163818359375e+01 -3.898325347900390625e+01 1.039812341332435608e-02 -1.261823326349258423e-01 -3.473526239395141602e-02 2.246083319187164307e-02
6.329000000000000000e+03 2.948906326293945312e+01 2.207576370239257812e+01 1.571014881134033203e+00 5.844458580017089844e+00 2.224642038345336914e+00 -2.508238554000854492e+00
6.330000000000000000e+03 7.674709320068359375e+01 3.657759857177734375e+01 -3.726195171475410461e-02 8.497831970453262329e-02 1.431491132825613022e-02 8.954374492168426514e-02
6.331000000000000000e+03 1.466420841217041016e+01 2.172417449951171875e+01 -2.938182353973388672e-01 2.152140811085700989e-02 -8.168905228376388550e-02 -9.432034566998481750e-03
6.332000000000000000e+03 7.776239013671875000e+01 -3.855943298339843750e+01 9.914974682033061981e-03 -1.326123774051666260e-01 -3.680922091007232666e-02 2.113937027752399445e-02
6.333000000000000000e+03 2.653333473205566406e+01 -6.731924057006835938e+00 -5.274637937545776367e-01 2.481563836336135864e-01 -8.379222452640533447e-02 1.010196447372436523e+00
6.334000000000000000e+03 5.182175827026367188e+01 -7.663463115692138672e+00 -1.035411834716796875e+00 1.015047073364257812e+00 -6.109427660703659058e-03 2.304103136062622070e+00
6.335000000000000000e+03 2.522346305847167969e+01 -7.502788543701171875e+00 -3.726010322570800781e-01 3.559004962444305420e-01 -5.010155960917472839e-03 6.913185119628906250e-01
6.336000000000000000e+03 2.381803131103515625e+01 -3.283684158325195312e+01 -9.228765033185482025e-03 3.275459706783294678e-01 9.549516439437866211e-02 -1.429128199815750122e-01
6.337000000000000000e+03 3.064053535461425781e+01 -2.242510318756103516e+00 1.131538152694702148e+00 2.072598695755004883e+00 9.612410664558410645e-01 1.116378664970397949e+00
6.338000000000000000e+03 3.039159584045410156e+01 -2.947358369827270508e+00 9.375706315040588379e-01 1.836982488632202148e+00 8.323659300804138184e-01 9.552407264709472656e-01
6.339000000000000000e+03 3.252074050903320312e+01 -6.475262641906738281e-01 1.343027949333190918e+00 5.343294620513916016e+00 2.005896806716918945e+00 2.011255502700805664e+00
6.340000000000000000e+03 7.583808898925781250e+01 3.685614395141601562e+01 -5.530737340450286865e-02 1.602707952260971069e-01 3.148902580142021179e-02 1.070273444056510925e-01
6.341000000000000000e+03 2.861897659301757812e+01 -3.006188631057739258e+00 9.293924570083618164e-01 4.591771066188812256e-01 4.165708720684051514e-01 9.313595294952392578e-01
6.342000000000000000e+03 7.728447723388671875e+01 -3.808127975463867188e+01 1.368508674204349518e-02 -1.150434911251068115e-01 -3.040752187371253967e-02 3.356794267892837524e-02
6.343000000000000000e+03 4.941328048706054688e+01 -3.233333587646484375e+01 1.634606570005416870e-01 3.247161149978637695e+00 1.023186564445495605e+00 -1.862103700637817383e+00
6.344000000000000000e+03 3.637630462646484375e+01 -2.717984962463378906e+01 6.766706705093383789e-01 6.222792625427246094e+00 2.069839000701904297e+00 1.323467373847961426e+00
6.345000000000000000e+03 4.416866683959960938e+01 -2.849474906921386719e+01 7.737210392951965332e-01 8.410456657409667969e+00 2.755253553390502930e+00 -9.667674303054809570e-01
6.346000000000000000e+03 1.965889549255371094e+01 3.167699432373046875e+01 1.452920436859130859e-01 9.909475445747375488e-01 3.408718705177307129e-01 -5.053023099899291992e-01
6.347000000000000000e+03 1.996343731880187988e+00 3.886654663085937500e+01 1.189042255282402039e-02 -3.764727711677551270e-01 -1.093747094273567200e-01 2.309376932680606842e-02
6.348000000000000000e+03 3.270804214477539062e+01 1.959690093994140625e+01 1.671131253242492676e+00 8.318459510803222656e+00 2.996877193450927734e+00 -1.858662486076354980e+00
6.349000000000000000e+03 1.314879512786865234e+01 2.222188758850097656e+01 -2.205769121646881104e-01 8.069518208503723145e-02 -4.196451976895332336e-02 3.592363372445106506e-02
6.350000000000000000e+03 5.959288787841796875e+01 2.391912078857421875e+01 -3.317514061927795410e-01 1.184950947761535645e+00 2.559598684310913086e-01 -8.124071955680847168e-01
6.351000000000000000e+03 6.365463638305664062e+01 2.042849349975585938e+01 2.046381086111068726e-01 3.044193744659423828e+00 9.746495485305786133e-01 1.483662752434611320e-03
6.352000000000000000e+03 3.612627792358398438e+01 -3.169165992736816406e+01 -3.519386351108551025e-01 5.187746047973632812e+00 1.450742244720458984e+00 1.189224362373352051e+00
6.353000000000000000e+03 5.766049575805664062e+01 -3.415777206420898438e+01 6.356511265039443970e-02 1.821434497833251953e-01 7.371256500482559204e-02 -7.580842822790145874e-02
6.354000000000000000e+03 7.670061492919921875e+01 3.548817062377929688e+01 -4.048346728086471558e-02 4.851723834872245789e-02 2.410131273791193962e-03 1.136212572455406189e-01
6.355000000000000000e+03 4.711742019653320312e+01 -7.797763347625732422e+00 -1.272204637527465820e+00 1.006537795066833496e+00 -7.970008254051208496e-02 4.770666956901550293e-01
6.356000000000000000e+03 3.937421417236328125e+01 -4.102170944213867188e+00 -1.854511976242065430e+00 1.060083484649658203e+01 2.623896837234497070e+00 -1.843069672584533691e+00
6.357000000000000000e+03 2.487310600280761719e+01 -3.388878631591796875e+01 1.269583255052566528e-01 5.788590908050537109e-01 2.117452323436737061e-01 4.029998928308486938e-02
6.358000000000000000e+03 1.227709770202636719e+01 2.260669708251953125e+01 -1.795204430818557739e-01 9.428940713405609131e-02 -2.556930854916572571e-02 6.207700818777084351e-02
6.359000000000000000e+03 5.399739074707031250e+01 3.243811035156250000e+01 -3.604152798652648926e-02 1.248355627059936523e+00 3.636942207813262939e-01 1.110136881470680237e-01
6.360000000000000000e+03 3.250069046020507812e+01 -1.755458116531372070e+00 7.564722895622253418e-01 5.123796463012695312e+00 1.764080643653869629e+00 1.365626454353332520e+00
6.361000000000000000e+03 1.583883857727050781e+01 -1.048370170593261719e+01 6.792047619819641113e-01 1.303401350975036621e+00 5.947818160057067871e-01 4.828195571899414062e-01
6.362000000000000000e+03 6.780449676513671875e+01 -1.017863941192626953e+01 -7.854205369949340820e-01 1.899228245019912720e-01 -1.786493062973022461e-01 -3.571762144565582275e-01
6.363000000000000000e+03 4.455203628540039062e+01 2.012452888488769531e+01 2.875348329544067383e-01 2.030854463577270508e+00 6.955167651176452637e-01 1.113984346389770508e+00
6.364000000000000000e+03 5.522244644165039062e+01 3.116345214843750000e+01 -3.075739182531833649e-02 1.090983986854553223e+00 3.180679678916931152e-01 -2.304590307176113129e-02
6.365000000000000000e+03 1.864697837829589844e+01 -2.891087722778320312e+01 -1.286933720111846924e-01 8.029415011405944824e-01 2.022744417190551758e-01 -3.893934190273284912e-01
6.366000000000000000e+03 1.406548595428466797e+01 2.252919387817382812e+01 -2.312744259834289551e-01 7.148450613021850586e-02 -4.793697595596313477e-02 4.249044135212898254e-02
6.367000000000000000e+03 1.122498035430908203e+01 1.447457885742187500e+01 -1.189722213894128799e-02 -4.840520676225423813e-03 -5.021322984248399734e-03 -6.144629325717687607e-03
6.368000000000000000e+03 2.555830240249633789e+00 3.398438644409179688e+01 1.794570707716047764e-03 -2.609561979770660400e-01 -7.774849236011505127e-02 4.960892349481582642e-02
6.369000000000000000e+03 3.305380630493164062e+01 -6.776155829429626465e-01 8.567676544189453125e-01 6.842082500457763672e+00 2.309654951095581055e+00 1.502801895141601562e+00
6.370000000000000000e+03 1.852874565124511719e+01 -8.519012451171875000e+00 3.321026861667633057e-01 6.995358467102050781e-01 3.094915747642517090e-01 6.906098127365112305e-01
6.371000000000000000e+03 1.212457084655761719e+01 -1.236997222900390625e+01 6.029289364814758301e-01 1.213594317436218262e+00 5.449569821357727051e-01 -1.049967929720878601e-01
6.372000000000000000e+03 1.161833095550537109e+01 -1.827786064147949219e+01 6.484488248825073242e-01 1.845551133155822754e+00 7.481999993324279785e-01 5.177746340632438660e-02
6.373000000000000000e+03 6.518193054199218750e+01 2.095342063903808594e+01 4.599172621965408325e-02 2.476505756378173828e+00 7.567492723464965820e-01 3.185784518718719482e-01
6.374000000000000000e+03 6.586239624023437500e+01 -7.138526916503906250e+00 -2.880092561244964600e-01 3.741652667522430420e-01 2.584680914878845215e-02 -2.704686224460601807e-01
6.375000000000000000e+03 4.640835189819335938e+01 2.435197067260742188e+01 2.262605540454387665e-02 1.810241460800170898e+00 5.498602390289306641e-01 1.007969379425048828e+00
6.376000000000000000e+03 1.031346893310546875e+01 -2.871018218994140625e+01 -1.766735613346099854e-01 6.608284711837768555e-01 1.452464759349822998e-01 1.891965419054031372e-01
6.377000000000000000e+03 6.440216827392578125e+01 2.226343154907226562e+01 -2.580123543739318848e-01 2.419511556625366211e+00 6.484497785568237305e-01 1.179542094469070435e-01
6.378000000000000000e+03 7.232405090332031250e+01 2.735648918151855469e+01 -1.914860606193542480e-01 5.030203461647033691e-01 9.346029162406921387e-02 4.561702907085418701e-01
6.379000000000000000e+03 1.443711566925048828e+01 -1.044883060455322266e+01 5.086422562599182129e-01 1.298296093940734863e+00 5.420814752578735352e-01 1.919065117835998535e-01
6.380000000000000000e+03 3.804574584960937500e+01 -5.229304313659667969e+00 -2.478770494461059570e+00 1.002190780639648438e+01 2.262941122055053711e+00 -1.256871342658996582e+00
6.381000000000000000e+03 7.649499511718750000e+01 3.219955062866210938e+01 -5.311878770589828491e-02 -3.701408207416534424e-02 -2.703986130654811859e-02 2.012110650539398193e-01
6.382000000000000000e+03 1.902526092529296875e+01 -7.793163299560546875e+00 1.937606930732727051e-01 5.723375678062438965e-01 2.298294901847839355e-01 6.814826130867004395e-01
6.383000000000000000e+03 7.298651885986328125e+01 -3.240113830566406250e+01 -1.905391551554203033e-02 -1.499648764729499817e-02 -1.021512132138013840e-02 7.478482276201248169e-02
6.384000000000000000e+03 1.124950122833251953e+01 -2.925791358947753906e+01 -2.175723910331726074e-01 7.759234905242919922e-01 1.675053387880325317e-01 1.113886386156082153e-01
6.385000000000000000e+03 4.279319763183593750e+01 -2.906892967224121094e+01 3.638219535350799561e-01 7.934638023376464844e+00 2.489537954330444336e+00 -2.535675764083862305e-01
6.386000000000000000e+03 1.059548664093017578e+01 -1.180352210998535156e+01 4.373778700828552246e-01 7.846418619155883789e-01 3.666059374809265137e-01 -3.393886089324951172e-01
6.387000000000000000e+03 1.108376026153564453e+01 -1.101723861694335938e+01 3.727957308292388916e-01 8.061358928680419922e-01 3.536794781684875488e-01 -3.277097642421722412e-01
6.388000000000000000e+03 3.886302947998046875e+01 -2.449505233764648438e+01 1.656767249107360840e+00 7.911606311798095703e+00 2.870512008666992188e+00 3.339089155197143555e-01
6.389000000000000000e+03 3.673337173461914062e+01 -6.370362281799316406e+00 -2.571157217025756836e+00 9.328311920166015625e+00 2.027146339416503906e+00 -1.007929444313049316e+00
6.390000000000000000e+03 2.073706054687500000e+01 2.642202568054199219e+01 3.309649527072906494e-01 4.567155539989471436e-01 2.363041490316390991e-01 -5.534845590591430664e-01
6.391000000000000000e+03 1.361927032470703125e+01 2.649617195129394531e+01 1.354488637298345566e-02 1.585259735584259033e-01 5.162125825881958008e-02 6.617086380720138550e-02
6.392000000000000000e+03 1.055038261413574219e+01 2.364687347412109375e+01 -1.055985465645790100e-01 8.988327533006668091e-02 -4.714582581073045731e-03 9.845527261495590210e-02
6.393000000000000000e+03 8.983582496643066406e+00 -1.873720932006835938e+01 5.398039817810058594e-01 6.639999747276306152e-01 3.611411750316619873e-01 4.727725684642791748e-02
6.394000000000000000e+03 3.759254837036132812e+01 -5.408317089080810547e+00 -2.465040445327758789e+00 9.937602043151855469e+00 2.241768598556518555e+00 -1.128544330596923828e+00
6.395000000000000000e+03 7.388932037353515625e+01 -3.122085380554199219e+01 -2.239258401095867157e-02 -1.535266172140836716e-02 -1.132357306778430939e-02 6.066755577921867371e-02
6.396000000000000000e+03 6.734596252441406250e+01 1.903539085388183594e+01 3.231699466705322266e-01 1.976595997810363770e+00 6.899297833442687988e-01 4.751412868499755859e-01
6.397000000000000000e+03 6.413517761230468750e+01 2.486454010009765625e+01 -5.050899386405944824e-01 1.984272241592407227e+00 4.437547028064727783e-01 -5.312224105000495911e-02
6.398000000000000000e+03 9.057971000671386719e+00 -2.767839050292968750e+01 -1.114083975553512573e-01 4.932242631912231445e-01 1.145447641611099243e-01 2.772437036037445068e-01
6.399000000000000000e+03 5.284174728393554688e+01 -1.034033679962158203e+01 3.015106320381164551e-01 9.558577537536621094e-01 3.772104978561401367e-01 2.124952316284179688e+00
6.400000000000000000e+03 5.342275619506835938e+01 -1.032608795166015625e+01 2.045474052429199219e-01 9.666621685028076172e-01 3.513628840446472168e-01 2.041687726974487305e+00
6.401000000000000000e+03 1.895900344848632812e+01 2.765791511535644531e+01 2.682515084743499756e-01 4.226876199245452881e-01 2.072817385196685791e-01 -3.788833320140838623e-01
6.402000000000000000e+03 3.974818801879882812e+01 -1.569689369201660156e+01 1.562840104103088379e+00 8.495104789733886719e+00 3.017383337020874023e+00 -1.473333597183227539e+00
6.403000000000000000e+03 6.574908447265625000e+01 2.392822456359863281e+01 -3.701482713222503662e-01 1.942099809646606445e+00 4.715854823589324951e-01 2.449846565723419189e-01
6.404000000000000000e+03 5.235808563232421875e+01 -1.033311176300048828e+01 3.396208286285400391e-01 9.540659189224243164e-01 3.881060183048248291e-01 2.199311971664428711e+00
6.405000000000000000e+03 6.802390289306640625e+01 -6.136006355285644531e+00 -1.990547627210617065e-01 3.725453019142150879e-01 5.204716324806213379e-02 -4.745179116725921631e-01
6.406000000000000000e+03 2.398737716674804688e+01 -4.570618152618408203e+00 6.510812789201736450e-03 1.462216377258300781e-01 4.581973329186439514e-02 8.582519888877868652e-01
6.407000000000000000e+03 1.087383556365966797e+01 -1.032971096038818359e+01 2.841695845127105713e-01 6.927149295806884766e-01 2.930653393268585205e-01 -3.784331083297729492e-01
6.408000000000000000e+03 4.299488067626953125e+01 2.103218460083007812e+01 2.320070415735244751e-01 2.932226419448852539e+00 9.492700695991516113e-01 1.281151652336120605e+00
6.409000000000000000e+03 6.701332855224609375e+01 2.367522048950195312e+01 -2.920497953891754150e-01 1.716529369354248047e+00 4.273438751697540283e-01 3.937359154224395752e-01
6.410000000000000000e+03 3.796163940429687500e+01 -5.739346027374267578e+00 -2.586950778961181641e+00 9.836469650268554688e+00 2.174855709075927734e+00 -1.294754743576049805e+00
6.411000000000000000e+03 6.637084960937500000e+01 2.216444015502929688e+01 -1.682958006858825684e-01 1.985133647918701172e+00 5.450513958930969238e-01 4.016406536102294922e-01
6.412000000000000000e+03 3.936094665527343750e+01 -2.043909835815429688e+01 1.948389530181884766e+00 8.904690742492675781e+00 3.255923986434936523e+00 -4.451085329055786133e-01
6.413000000000000000e+03 4.075397109985351562e+01 -2.018246841430664062e+01 2.208204507827758789e+00 9.143657684326171875e+00 3.405558586120605469e+00 -5.070842504501342773e-01
6.414000000000000000e+03 4.221518707275390625e+01 -2.593378257751464844e+01 1.750578522682189941e+00 8.841297149658203125e+00 3.177562713623046875e+00 -3.746506869792938232e-01
6.415000000000000000e+03 1.456802368164062500e+01 -7.774530410766601562e+00 -5.680149421095848083e-03 7.980010509490966797e-01 2.376962602138519287e-01 6.915076076984405518e-02
6.416000000000000000e+03 3.720137405395507812e+01 -5.877377986907958984e+00 -2.538817644119262695e+00 9.682042121887207031e+00 2.142967462539672852e+00 -1.073162794113159180e+00
6.417000000000000000e+03 5.420514106750488281e+00 -2.786247253417968750e+01 -4.985785484313964844e-02 -2.774197459220886230e-01 -9.818328171968460083e-02 3.125216364860534668e-01
6.418000000000000000e+03 4.805321693420410156e+00 -2.717596054077148438e+01 -2.064892835915088654e-02 -4.296834170818328857e-01 -1.350997090339660645e-01 3.137093186378479004e-01
6.419000000000000000e+03 3.973431396484375000e+01 -2.192670059204101562e+01 2.025758743286132812e+00 8.745739936828613281e+00 3.231449604034423828e+00 -2.132310867309570312e-01
6.420000000000000000e+03 3.630449295043945312e+01 1.339723777770996094e+01 6.832751035690307617e-01 1.054055309295654297e+01 3.367148399353027344e+00 -7.962418794631958008e-01
6.421000000000000000e+03 7.017327880859375000e+01 2.420779418945312500e+01 -1.801218539476394653e-01 9.759029746055603027e-01 2.387343496084213257e-01 5.471831560134887695e-01
6.422000000000000000e+03 5.544152069091796875e+01 -1.101283359527587891e+01 8.641493320465087891e-02 8.005731105804443359e-01 2.660964131355285645e-01 1.469542503356933594e+00
6.423000000000000000e+03 7.089113616943359375e+01 -2.618615722656250000e+01 -4.656244441866874695e-02 1.191425416618585587e-02 -1.039445772767066956e-02 1.231747679412364960e-02
6.424000000000000000e+03 7.918015480041503906e+00 -1.178484153747558594e+01 2.979949712753295898e-01 1.715024709701538086e-01 1.408492326736450195e-01 -4.902814924716949463e-01
6.425000000000000000e+03 5.834912490844726562e+01 -1.056783294677734375e+01 -4.288760423660278320e-01 7.505274415016174316e-01 9.649541974067687988e-02 8.860741257667541504e-01
6.426000000000000000e+03 7.508815765380859375e+01 2.672031593322753906e+01 -8.267352730035781860e-02 -5.917147174477577209e-02 -4.255349934101104736e-02 4.115420877933502197e-01
6.427000000000000000e+03 6.737976837158203125e+01 2.283123970031738281e+01 -1.776165664196014404e-01 1.706067562103271484e+00 4.585353136062622070e-01 4.857873320579528809e-01
6.428000000000000000e+03 3.955644607543945312e+01 -1.522379779815673828e+01 1.436679005622863770e+00 8.493311882019042969e+00 2.978997230529785156e+00 -1.547873735427856445e+00
6.429000000000000000e+03 5.835013198852539062e+01 -1.124821090698242188e+01 -4.047517478466033936e-01 6.318733096122741699e-01 6.813646107912063599e-02 7.661081552505493164e-01
6.430000000000000000e+03 8.706697463989257812e+00 -2.574816894531250000e+01 6.879465188831090927e-03 4.887884259223937988e-01 1.487003713846206665e-01 3.217489421367645264e-01
6.431000000000000000e+03 3.930416107177734375e+01 -1.560306835174560547e+01 1.493810892105102539e+00 8.599311828613281250e+00 3.027936697006225586e+00 -1.567308068275451660e+00
6.432000000000000000e+03 3.974740600585937500e+01 -1.617830657958984375e+01 1.672686696052551270e+00 8.564890861511230469e+00 3.071273326873779297e+00 -1.414664745330810547e+00
6.433000000000000000e+03 3.935179138183593750e+01 -1.612862586975097656e+01 1.590295433998107910e+00 8.686306953430175781e+00 3.082980632781982422e+00 -1.514540553092956543e+00
6.434000000000000000e+03 3.434882354736328125e+01 -4.113805294036865234e+00 -1.087472796440124512e+00 7.429144382476806641e+00 1.902501463890075684e+00 1.036840304732322693e-02
6.435000000000000000e+03 5.163447380065917969e+00 -2.841635322570800781e+01 -5.441159754991531372e-02 -3.364204764366149902e-01 -1.172496229410171509e-01 3.036397397518157959e-01
6.436000000000000000e+03 1.097426795959472656e+01 2.611532783508300781e+01 -3.403572365641593933e-02 1.091217324137687683e-01 2.252580411732196808e-02 1.163274645805358887e-01
6.437000000000000000e+03 9.233622550964355469e+00 2.672354316711425781e+01 -1.262289751321077347e-02 7.146771252155303955e-02 1.765344478189945221e-02 1.265284419059753418e-01
6.438000000000000000e+03 2.783109664916992188e+01 2.484810638427734375e+01 4.555702209472656250e-01 3.444372892379760742e+00 1.169982910156250000e+00 -2.006179094314575195e+00
6.439000000000000000e+03 1.165852737426757812e+01 1.063936614990234375e+01 -6.410938221961259842e-04 -1.676408690400421619e-03 -6.952507537789642811e-04 1.853370107710361481e-03
6.440000000000000000e+03 1.172634124755859375e+01 1.002664375305175781e+01 -6.267937133088707924e-04 -1.501099788583815098e-03 -6.383680156432092190e-04 2.106349682435393333e-03
6.441000000000000000e+03 5.626184463500976562e+01 -9.815140724182128906e+00 -2.511513233184814453e-01 1.082625865936279297e+00 2.494423687458038330e-01 1.442678451538085938e+00
6.442000000000000000e+03 1.187044525146484375e+01 2.512849044799804688e+01 -6.948309391736984253e-02 1.131106689572334290e-01 1.308827288448810577e-02 1.052572280168533325e-01
6.443000000000000000e+03 3.991686630249023438e+01 -2.053224563598632812e+01 2.094815254211425781e+00 8.943991661071777344e+00 3.311641931533813477e+00 -4.696204662322998047e-01
6.444000000000000000e+03 3.963519287109375000e+01 -1.978838729858398438e+01 1.955653905868530273e+00 8.969535827636718750e+00 3.277556896209716797e+00 -6.091698408126831055e-01
6.445000000000000000e+03 3.930961227416992188e+01 -2.414013671875000000e+01 1.779986977577209473e+00 8.139250755310058594e+00 2.975771427154541016e+00 1.713918149471282959e-01
6.446000000000000000e+03 3.939112472534179688e+01 -2.125040626525878906e+01 1.976225376129150391e+00 8.779593467712402344e+00 3.226745843887329102e+00 -2.550046741962432861e-01
6.447000000000000000e+03 3.692724227905273438e+01 2.033255958557128906e+01 4.003029763698577881e-01 6.386595249176025391e+00 2.036069393157958984e+00 4.298843443393707275e-01
6.448000000000000000e+03 1.015564632415771484e+01 2.454415512084960938e+01 -7.139623910188674927e-02 8.807335793972015381e-02 5.003135651350021362e-03 1.157335340976715088e-01
6.449000000000000000e+03 4.330214309692382812e+01 -1.202123641967773438e+01 3.070997893810272217e-01 6.309455871582031250e+00 1.984966635704040527e+00 -8.752656579017639160e-01
6.450000000000000000e+03 3.847106170654296875e+01 -1.611393928527832031e+01 1.470647335052490234e+00 8.890816688537597656e+00 3.108439207077026367e+00 -1.660505294799804688e+00
6.451000000000000000e+03 3.895428848266601562e+01 -1.620586585998535156e+01 1.542354702949523926e+00 8.801175117492675781e+00 3.103059053421020508e+00 -1.527383089065551758e+00
6.452000000000000000e+03 4.439820098876953125e+01 -1.095512866973876953e+01 2.128298394381999969e-02 4.981590747833251953e+00 1.500862121582031250e+00 -6.012170314788818359e-01
6.453000000000000000e+03 7.012692260742187500e+01 -6.912677288055419922e+00 -2.732593715190887451e-01 2.208186686038970947e-01 -1.573221385478973389e-02 -5.602093338966369629e-01
6.454000000000000000e+03 6.673363494873046875e+01 2.163336372375488281e+01 -3.780895099043846130e-02 1.966246962547302246e+00 5.785313844680786133e-01 4.769412577152252197e-01
6.455000000000000000e+03 6.727911376953125000e+01 -5.568797588348388672e+00 -1.298804581165313721e-01 4.748854041099548340e-01 1.035014837980270386e-01 -4.007957577705383301e-01
6.456000000000000000e+03 4.055501556396484375e+01 -1.256942367553710938e+01 2.816556692123413086e-01 7.780158519744873047e+00 2.418544292449951172e+00 -1.458857774734497070e+00
6.457000000000000000e+03 4.177154541015625000e+01 -8.827638626098632812e+00 -1.542392492294311523e+00 6.734960079193115234e+00 1.557770252227783203e+00 -1.862375617027282715e+00
6.458000000000000000e+03 6.826898956298828125e+01 1.636394882202148438e+01 4.804062843322753906e-01 1.793177127838134766e+00 6.820750236511230469e-01 4.163789153099060059e-01
6.459000000000000000e+03 6.883760070800781250e+01 1.553410434722900391e+01 4.851029813289642334e-01 1.595188260078430176e+00 6.240873336791992188e-01 3.981821835041046143e-01
6.460000000000000000e+03 9.386367797851562500e+00 -9.117276191711425781e+00 1.020916402339935303e-01 3.460264801979064941e-01 1.344354450702667236e-01 -5.263875722885131836e-01
6.461000000000000000e+03 7.804448127746582031e+00 -9.796507835388183594e+00 1.329958289861679077e-01 1.045030951499938965e-01 7.124967873096466064e-02 -5.752009749412536621e-01
6.462000000000000000e+03 9.076525688171386719e+00 2.596278572082519531e+01 -3.523893281817436218e-02 6.501537561416625977e-02 8.932932280004024506e-03 1.230753660202026367e-01
6.463000000000000000e+03 9.700366020202636719e+00 2.571486663818359375e+01 -4.027469083666801453e-02 7.639154791831970215e-02 1.083505619317293167e-02 1.222505569458007812e-01
6.464000000000000000e+03 1.101183795928955078e+01 2.467126655578613281e+01 -7.585913687944412231e-02 1.020741611719131470e-01 7.864507846534252167e-03 1.134685203433036804e-01
6.465000000000000000e+03 4.304352951049804688e+01 -9.107598304748535156e+00 -1.102556467056274414e+00 5.505975246429443359e+00 1.321025609970092773e+00 -1.549078583717346191e+00
6.466000000000000000e+03 5.622838973999023438e+00 9.885519981384277344e+00 -1.167736947536468506e-03 -2.479643328115344048e-03 -1.094214152544736862e-03 -9.091994725167751312e-04
6.467000000000000000e+03 7.804183006286621094e+00 7.322128772735595703e+00 4.490917490329593420e-04 -2.420194214209914207e-03 -5.913307541050016880e-04 -6.741122342646121979e-05
6.468000000000000000e+03 5.680046463012695312e+01 -9.052721977233886719e+00 -3.601665198802947998e-01 1.211988568305969238e+00 2.555465996265411377e-01 1.360829830169677734e+00
6.469000000000000000e+03 6.086454010009765625e+01 -6.457660198211669922e+00 -1.788654178380966187e-01 1.114733457565307617e+00 2.807604074478149414e-01 6.340326666831970215e-01
6.470000000000000000e+03 6.861447334289550781e+00 2.479431152343750000e+01 -3.801815211772918701e-02 1.314037479460239410e-02 -7.463332731276750565e-03 1.104495823383331299e-01
6.471000000000000000e+03 7.138267040252685547e+00 -1.334057807922363281e+01 3.319189846515655518e-01 4.225567914545536041e-03 1.008433625102043152e-01 -4.078452587127685547e-01
6.472000000000000000e+03 7.632843971252441406e+00 -1.899613761901855469e+01 4.176073968410491943e-01 2.196807861328125000e-01 1.911864578723907471e-01 6.395378708839416504e-02
6.473000000000000000e+03 5.546336746215820312e+01 -1.037126731872558594e+01 -7.432559132575988770e-02 9.772201776504516602e-01 2.708683609962463379e-01 1.580023050308227539e+00
6.474000000000000000e+03 6.520629119873046875e+01 1.051838302612304688e+01 6.331838369369506836e-01 3.342178583145141602e+00 1.192608714103698730e+00 4.461129903793334961e-01
6.475000000000000000e+03 7.311642456054687500e+01 -2.677523612976074219e+01 -3.278738260269165039e-02 3.640319220721721649e-03 -8.744118735194206238e-03 2.350432984530925751e-02
6.476000000000000000e+03 6.133879661560058594e+00 2.537859344482421875e+01 -2.279896289110183716e-02 -1.353156939148902893e-02 -1.089915912598371506e-02 1.129041239619255066e-01
6.477000000000000000e+03 6.536955356597900391e+00 -1.115020751953125000e+01 1.881948262453079224e-01 -1.242569088935852051e-01 1.918137818574905396e-02 -5.340232253074645996e-01
6.478000000000000000e+03 7.845835208892822266e+00 1.606238555908203125e+01 -3.049389831721782684e-02 4.857081454247236252e-03 -7.691045291721820831e-03 4.226904362440109253e-03
6.479000000000000000e+03 7.059498786926269531e+00 1.577259731292724609e+01 -2.387003600597381592e-02 2.027343492954969406e-03 -6.552807521075010300e-03 5.666543729603290558e-03
6.480000000000000000e+03 7.118257904052734375e+01 -7.049894332885742188e+00 -2.528294324874877930e-01 1.320101320743560791e-01 -3.624578937888145447e-02 -5.602846741676330566e-01
6.481000000000000000e+03 6.978602600097656250e+01 -6.523405551910400391e+00 -2.384375929832458496e-01 2.509723901748657227e-01 3.760439110919833183e-03 -5.546179413795471191e-01
6.482000000000000000e+03 6.247875976562500000e+01 -4.108796596527099609e+00 1.344870030879974365e-01 1.251671075820922852e+00 4.158474206924438477e-01 3.725911080837249756e-01
6.483000000000000000e+03 6.993632507324218750e+01 1.746829223632812500e+01 3.433990478515625000e-01 1.156961798667907715e+00 4.501082599163055420e-01 5.142912864685058594e-01
6.484000000000000000e+03 3.881553649902343750e+01 1.792686843872070312e+01 4.988089501857757568e-01 6.057590007781982422e+00 1.966919779777526855e+00 8.737793564796447754e-01
6.485000000000000000e+03 5.616095352172851562e+01 -1.091034603118896484e+01 -5.128855630755424500e-02 8.108536005020141602e-01 2.278695106506347656e-01 1.319647192955017090e+00
6.486000000000000000e+03 7.917103290557861328e+00 7.856931209564208984e+00 6.876650732010602951e-04 -2.511821687221527100e-03 -5.472470074892044067e-04 -2.171401283703744411e-04
6.487000000000000000e+03 7.269130706787109375e+01 -2.632824516296386719e+01 -3.528567776083946228e-02 5.463035777211189270e-03 -8.946792222559452057e-03 1.835395768284797668e-02
6.488000000000000000e+03 6.007010269165039062e+01 -6.097497940063476562e+00 -1.349160671234130859e-01 1.312210559844970703e+00 3.531883656978607178e-01 7.577330470085144043e-01
6.489000000000000000e+03 4.354631042480468750e+01 -9.934744834899902344e+00 -6.248565316200256348e-01 5.304640769958496094e+00 1.403935313224792480e+00 -1.217753052711486816e+00
6.490000000000000000e+03 7.203692913055419922e+00 -9.012726783752441406e+00 6.253834813833236694e-02 -2.411126042716205120e-04 1.868917047977447510e-02 -5.946565270423889160e-01
6.491000000000000000e+03 6.117414093017578125e+01 -5.207389831542968750e+00 1.215201336890459061e-02 1.272349238395690918e+00 3.853503763675689697e-01 5.809779763221740723e-01
6.492000000000000000e+03 6.138616943359375000e+01 -5.690404891967773438e+00 -6.653240323066711426e-02 1.153575181961059570e+00 3.261128067970275879e-01 5.455505251884460449e-01
6.493000000000000000e+03 4.072917556762695312e+01 -1.129929828643798828e+01 -4.214229285717010498e-01 7.564536094665527344e+00 2.142933845520019531e+00 -1.532328605651855469e+00
6.494000000000000000e+03 4.253596496582031250e+01 -1.105750465393066406e+01 -2.909737825393676758e-01 6.550633907318115234e+00 1.877897977828979492e+00 -1.269624948501586914e+00
6.495000000000000000e+03 6.703009033203125000e+01 -3.553026199340820312e+00 6.918400526046752930e-02 7.137468457221984863e-01 2.348792552947998047e-01 -3.266183733940124512e-01
6.496000000000000000e+03 5.356328010559082031e+00 1.914162635803222656e+01 -3.569295257329940796e-02 1.822471822379156947e-04 -1.065321173518896103e-02 3.641984984278678894e-02
6.497000000000000000e+03 5.981910705566406250e+01 -4.289219379425048828e+00 1.726954728364944458e-01 1.593935251235961914e+00 5.299892425537109375e-01 7.940387129783630371e-01
6.498000000000000000e+03 6.055199813842773438e+01 -4.757647514343261719e+00 8.619298040866851807e-02 1.433059573173522949e+00 4.557757675647735596e-01 6.784380674362182617e-01
6.499000000000000000e+03 7.579506397247314453e+00 1.559622383117675781e+01 -2.553813159465789795e-02 1.693977974355220795e-03 -7.153246086090803146e-03 4.609237425029277802e-03
6.500000000000000000e+03 6.144384002685546875e+01 -3.306739330291748047e+00 2.736024558544158936e-01 1.529019236564636230e+00 5.407865047454833984e-01 5.819414258003234863e-01
6.501000000000000000e+03 6.784690856933593750e+01 -4.211840152740478516e+00 -1.362453494220972061e-02 5.548715591430664062e-01 1.623741090297698975e-01 -4.221320152282714844e-01
6.502000000000000000e+03 6.925495147705078125e+00 1.099119091033935547e+01 -2.966844709590077400e-03 -3.869870677590370178e-03 -2.051014686003327370e-03 -2.798129862640053034e-04
6.503000000000000000e+03 7.616197586059570312e+00 8.512704849243164062e+00 4.653992073144763708e-04 -2.957226941362023354e-03 -7.475482998415827751e-04 -2.930626505985856056e-04
6.504000000000000000e+03 5.555055141448974609e+00 2.669074821472167969e+01 -9.544071741402149200e-03 -4.015326872467994690e-02 -1.490920223295688629e-02 1.103874966502189636e-01
6.505000000000000000e+03 5.728322982788085938e+00 1.175998973846435547e+01 -3.047591308131814003e-03 -3.398662665858864784e-03 -1.933876192197203636e-03 -3.613925364334136248e-04
6.506000000000000000e+03 7.444914340972900391e+00 1.098947906494140625e+01 -2.460219897329807281e-03 -4.069682676345109940e-03 -1.958970678970217705e-03 -3.997128224000334740e-04
6.507000000000000000e+03 6.059648895263671875e+01 -5.343731403350830078e+00 -9.962806478142738342e-03 1.326830148696899414e+00 3.950602114200592041e-01 6.715678572654724121e-01
6.508000000000000000e+03 8.179145812988281250e+00 8.340108871459960938e+00 -6.370919436449185014e-05 -2.922257175669074059e-03 -8.957898826338350773e-04 2.810429432429373264e-04
6.509000000000000000e+03 6.085214996337890625e+01 -2.985518455505371094e+00 3.712308406829833984e-01 1.676046609878540039e+00 6.141832470893859863e-01 7.135423421859741211e-01
6.510000000000000000e+03 6.989536285400390625e+01 6.883955001831054688e+00 5.083269476890563965e-01 9.311354756355285645e-01 4.318387210369110107e-01 -9.169047325849533081e-02
6.511000000000000000e+03 7.234851074218750000e+01 4.513996124267578125e+00 2.937530875205993652e-01 7.624673098325729370e-02 1.109999492764472961e-01 -3.254421055316925049e-01
6.512000000000000000e+03 6.156090259552001953e+00 1.203882980346679688e+01 -4.821240901947021484e-03 -2.745359903201460838e-03 -2.269980264827609062e-03 -8.515645458828657866e-05
6.513000000000000000e+03 6.543571472167968750e+00 1.168844413757324219e+01 -4.194019362330436707e-03 -3.990388941019773483e-03 -2.455322537571191788e-03 1.677254476817324758e-04
6.514000000000000000e+03 7.216713714599609375e+01 -5.113219738006591797e+00 -1.010013371706008911e-01 3.334619104862213135e-02 -2.029654383659362793e-02 -6.025443673133850098e-01
6.515000000000000000e+03 7.256259155273437500e+01 -2.838257312774658203e+00 2.271999418735504150e-02 -3.405642509460449219e-02 -3.400929505005478859e-03 -6.005222201347351074e-01
6.516000000000000000e+03 7.209886169433593750e+01 -4.565747737884521484e+00 -7.239494472742080688e-02 4.402131214737892151e-02 -8.512090891599655151e-03 -6.062916517257690430e-01
6.517000000000000000e+03 7.185622406005859375e+01 -1.480464190244674683e-01 1.581704169511795044e-01 1.224246844649314880e-01 8.417852967977523804e-02 -5.370706319808959961e-01
6.518000000000000000e+03 6.683417510986328125e+01 6.888664722442626953e+00 7.345128655433654785e-01 2.114269018173217773e+00 8.546345829963684082e-01 1.935722082853317261e-01
6.519000000000000000e+03 7.198474121093750000e+01 -3.645320415496826172e+00 -1.712211966514587402e-02 5.160048231482505798e-02 1.034350879490375519e-02 -6.053240299224853516e-01
6.520000000000000000e+03 6.748484802246093750e+01 -9.670056104660034180e-01 2.475709617137908936e-01 9.236689209938049316e-01 3.513719737529754639e-01 -2.961717247962951660e-01
6.521000000000000000e+03 7.082611846923828125e+01 -1.556999832391738892e-01 1.847342997789382935e-01 3.362247943878173828e-01 1.562877297401428223e-01 -5.084386467933654785e-01
6.522000000000000000e+03 7.316182708740234375e+01 1.285537338256835938e+01 2.977437376976013184e-01 -4.369990155100822449e-02 7.621315121650695801e-02 2.195178419351577759e-01
6.523000000000000000e+03 7.112036895751953125e+01 5.093914031982421875e+00 3.890103399753570557e-01 4.555264115333557129e-01 2.533610165119171143e-01 -2.689907252788543701e-01
6.524000000000000000e+03 7.277058410644531250e+01 1.418192291259765625e+01 2.943738400936126709e-01 1.136601418256759644e-01 1.224102005362510681e-01 3.055244982242584229e-01
6.525000000000000000e+03 7.258722686767578125e+01 1.476345443725585938e+01 3.095907568931579590e-01 2.155488580465316772e-01 1.575418859720230103e-01 3.484537601470947266e-01
6.526000000000000000e+03 7.291211700439453125e+01 1.056246185302734375e+01 3.382310271263122559e-01 7.889141328632831573e-03 1.038360446691513062e-01 7.120088487863540649e-02
6.527000000000000000e+03 6.749357604980468750e+01 2.298497676849365234e+00 4.670964479446411133e-01 1.315578103065490723e+00 5.348023772239685059e-01 -1.524638086557388306e-01
6.528000000000000000e+03 6.745529174804687500e+01 1.573891282081604004e+00 4.290404319763183594e-01 1.244866371154785156e+00 5.021720528602600098e-01 -1.843896657228469849e-01
6.529000000000000000e+03 1.037684440612792969e+01 -3.884835243225097656e-01 -1.261519193649291992e+00 -1.164254499599337578e-03 -3.788050413131713867e-01 -6.421112269163131714e-02
6.530000000000000000e+03 1.189073276519775391e+01 -1.121461629867553711e+00 -1.245838046073913574e+00 9.786427021026611328e-03 -3.708154857158660889e-01 -1.369228363037109375e-01
6.531000000000000000e+03 1.038032817840576172e+01 -1.128475308418273926e+00 -1.082981348037719727e+00 8.988982997834682465e-03 -3.221977055072784424e-01 -1.647851318120956421e-01
6.532000000000000000e+03 1.264584636688232422e+01 -1.117530822753906250e+00 -1.294932007789611816e+00 2.395052928477525711e-03 -3.877610862255096436e-01 -1.166714131832122803e-01
6.533000000000000000e+03 1.188046455383300781e+01 -3.815026283264160156e-01 -1.468053102493286133e+00 1.662723661866039038e-04 -4.403660297393798828e-01 -5.694331973791122437e-02
6.534000000000000000e+03 1.263218593597412109e+01 -3.775882422924041748e-01 -1.563085317611694336e+00 -3.676440101116895676e-03 -4.700285196304321289e-01 -5.967078730463981628e-02
6.535000000000000000e+03 1.112868118286132812e+01 -3.851337432861328125e-01 -1.369139552116394043e+00 3.214236116036772728e-03 -4.097776114940643311e-01 -6.136924773454666138e-02
6.536000000000000000e+03 1.113555717468261719e+01 -1.125109195709228516e+00 -1.170505046844482422e+00 9.352678433060646057e-03 -3.483456969261169434e-01 -1.496583521366119385e-01
6.537000000000000000e+03 8.846968650817871094e+00 -3.897767066955566406e-01 -1.006457567214965820e+00 -1.065948745235800743e-03 -3.022570610046386719e-01 -6.732012331485748291e-02
6.538000000000000000e+03 8.848549842834472656e+00 -1.129776716232299805e+00 -8.822560906410217285e-01 4.880327731370925903e-03 -2.632127404212951660e-01 -1.844557225704193115e-01
6.539000000000000000e+03 9.616287231445312500e+00 -3.899540305137634277e-01 -1.139759540557861328e+00 2.147585852071642876e-03 -3.412835896015167236e-01 -6.598801165819168091e-02
6.540000000000000000e+03 8.077320098876953125e+00 -3.895331025123596191e-01 -8.697720170021057129e-01 1.589116756804287434e-03 -2.604548633098602295e-01 -6.826464831829071045e-02
6.541000000000000000e+03 7.307513236999511719e+00 -3.895078003406524658e-01 -7.319087982177734375e-01 -2.204981865361332893e-03 -2.202341258525848389e-01 -6.784792989492416382e-02
6.542000000000000000e+03 6.538012981414794922e+00 -3.896191120147705078e-01 -5.958810448646545410e-01 -1.259996060980483890e-04 -1.788021028041839600e-01 -6.579375267028808594e-02
6.543000000000000000e+03 5.768679141998291016e+00 -3.896506428718566895e-01 -4.651611447334289551e-01 -3.486723406240344048e-03 -1.405943632125854492e-01 -6.225410103797912598e-02
6.544000000000000000e+03 4.999370574951171875e+00 -3.896599709987640381e-01 -3.433020710945129395e-01 -2.227141289040446281e-03 -1.036587655544281006e-01 -5.663624778389930725e-02
6.545000000000000000e+03 4.230067253112792969e+00 -3.896633982658386230e-01 -2.343029975891113281e-01 -4.855974577367305756e-03 -7.174769043922424316e-02 -4.944640398025512695e-02
6.546000000000000000e+03 3.460767269134521484e+00 -3.896674811840057373e-01 -1.421760916709899902e-01 -4.538619425147771835e-03 -4.401441290974617004e-02 -3.992740437388420105e-02
6.547000000000000000e+03 2.691480636596679688e+00 -3.896792829036712646e-01 -7.107491046190261841e-02 -6.153058260679244995e-03 -2.316839061677455902e-02 -2.890549600124359131e-02
6.548000000000000000e+03 1.922263860702514648e+00 -3.897165060043334961e-01 -2.446656301617622375e-02 -6.299028173089027405e-03 -9.229677729308605194e-03 -1.610252633690834045e-02
6.549000000000000000e+03 1.153409719467163086e+00 -3.898416459560394287e-01 -3.370481310412287712e-03 -5.104623734951019287e-03 -2.542531583458185196e-03 -4.231101833283901215e-03
6.550000000000000000e+03 3.845674097537994385e-01 -3.899692595005035400e-01 4.970689769834280014e-04 4.967135027982294559e-04 2.981347497552633286e-04 4.922307562083005905e-04
6.551000000000000000e+03 3.846361637115478516e-01 -1.129969239234924316e+00 -5.024409387260675430e-03 -2.855885773897171021e-03 -2.364088548347353935e-03 -3.905053250491619110e-03
6.552000000000000000e+03 9.618005752563476562e+00 -1.129953980445861816e+00 -9.863396883010864258e-01 4.578816704452037811e-03 -2.945282459259033203e-01 -1.765102595090866089e-01
6.553000000000000000e+03 8.078763961791992188e+00 -1.129533052444458008e+00 -7.724549174308776855e-01 -4.178743402007967234e-04 -2.318618446588516235e-01 -1.878401935100555420e-01
6.554000000000000000e+03 7.308819293975830078e+00 -1.129507780075073242e+00 -6.608481407165527344e-01 -1.583735807798802853e-03 -1.987295597791671753e-01 -1.874669045209884644e-01
6.555000000000000000e+03 6.539181709289550781e+00 -1.129619121551513672e+00 -5.504714250564575195e-01 -7.517627906054258347e-03 -1.673967093229293823e-01 -1.829332262277603149e-01
6.556000000000000000e+03 5.769710540771484375e+00 -1.129650592803955078e+00 -4.439121782779693604e-01 -9.511114098131656647e-03 -1.360269784927368164e-01 -1.731699407100677490e-01
6.557000000000000000e+03 5.000264644622802734e+00 -1.129660010337829590e+00 -3.440077304840087891e-01 -1.543297246098518372e-02 -1.078322082757949829e-01 -1.591453850269317627e-01
6.558000000000000000e+03 4.230823516845703125e+00 -1.129663348197937012e+00 -2.533126175403594971e-01 -1.833550445735454559e-02 -8.149443566799163818e-02 -1.391290426254272461e-01
6.559000000000000000e+03 3.461385965347290039e+00 -1.129667520523071289e+00 -1.745882183313369751e-01 -2.379572764039039612e-02 -5.951518565416336060e-02 -1.148739978671073914e-01
6.560000000000000000e+03 2.691961765289306641e+00 -1.129679322242736816e+00 -1.097273752093315125e-01 -2.657921425998210907e-02 -4.089197888970375061e-02 -8.504448831081390381e-02
6.561000000000000000e+03 1.922607541084289551e+00 -1.129716515541076660e+00 -5.985823646187782288e-02 -2.901406399905681610e-02 -2.666169032454490662e-02 -5.314027145504951477e-02
6.562000000000000000e+03 1.153616070747375488e+00 -1.129841685295104980e+00 -2.419839985668659210e-02 -2.392148599028587341e-02 -1.443596649914979935e-02 -2.215421386063098907e-02
